# el_label, x, y, sXX, sYY, sZZ, sXY
1.000000000000000000e+00 1.968538665771484375e+01 -6.345101833343505859e+00 -1.600504517555236816e+00 1.729060769081115723e+00 3.856687992811203003e-02 -2.219510793685913086e+00
2.000000000000000000e+00 1.952998733520507812e+01 -6.220730781555175781e+00 3.493828535079956055e+00 1.454479336738586426e+00 1.484492301940917969e+00 -1.554986476898193359e+00
3.000000000000000000e+00 1.937458801269531250e+01 -6.096359252929687500e+00 1.201142430305480957e+00 6.369795203208923340e-01 5.514366030693054199e-01 -1.275390028953552246e+00
4.000000000000000000e+00 1.921918678283691406e+01 -5.971988201141357422e+00 1.220688104629516602e+00 3.972258865833282471e-01 4.853741824626922607e-01 -5.940555930137634277e-01
5.000000000000000000e+00 1.965352630615234375e+01 -6.394052505493164062e+00 8.529076576232910156e+00 3.266901016235351562e+00 3.538793325424194336e+00 -7.647621154785156250e+00
6.000000000000000000e+00 1.947688674926757812e+01 -6.302315235137939453e+00 5.390436649322509766e+00 1.648703813552856445e+00 2.111742258071899414e+00 -3.031558990478515625e+00
7.000000000000000000e+00 1.930024909973144531e+01 -6.210577487945556641e+00 5.628035068511962891e+00 8.860027194023132324e-01 1.954211354255676270e+00 -2.349341154098510742e+00
8.000000000000000000e+00 1.912360954284667969e+01 -6.118839740753173828e+00 3.825506210327148438e+00 4.773359000682830811e-01 1.290852665901184082e+00 -1.902211070060729980e+00
9.000000000000000000e+00 1.963180732727050781e+01 -6.448269367218017578e+00 1.808862495422363281e+01 1.106869101524353027e+00 5.758647918701171875e+00 -7.078608989715576172e+00
1.000000000000000000e+01 1.944068717956542969e+01 -6.392675876617431641e+00 1.126410865783691406e+01 1.004643082618713379e+00 3.680625677108764648e+00 -4.397000789642333984e+00
1.100000000000000000e+01 1.924956703186035156e+01 -6.337082862854003906e+00 8.842043876647949219e+00 4.086560308933258057e-01 2.775209903717041016e+00 -2.645300865173339844e+00
1.200000000000000000e+01 1.905844879150390625e+01 -6.281489849090576172e+00 7.913184165954589844e+00 3.172478079795837402e-02 2.383472681045532227e+00 -2.015304327011108398e+00
1.300000000000000000e+01 1.962105751037597656e+01 -6.505677223205566406e+00 2.553743553161621094e+01 4.913055896759033203e-02 7.675969600677490234e+00 -4.324705123901367188e+00
1.400000000000000000e+01 1.942277145385742188e+01 -6.488355636596679688e+00 1.669234848022460938e+01 -2.295225858688354492e-01 4.938848018646240234e+00 -2.944963932037353516e+00
1.500000000000000000e+01 1.922448539733886719e+01 -6.471034526824951172e+00 1.328099918365478516e+01 -3.078668117523193359e-01 3.891939640045166016e+00 -2.086348056793212891e+00
1.600000000000000000e+01 1.902619934082031250e+01 -6.453713417053222656e+00 1.115210247039794922e+01 -6.339503526687622070e-01 3.155445814132690430e+00 -1.340661168098449707e+00
1.700000000000000000e+01 1.962168884277343750e+01 -6.564079284667968750e+00 3.031429290771484375e+01 6.026940420269966125e-02 9.112368583679199219e+00 2.900417745113372803e-01
1.800000000000000000e+01 1.942382621765136719e+01 -6.585692882537841797e+00 2.110074234008789062e+01 -3.421900272369384766e-01 6.227565765380859375e+00 -2.851071953773498535e-01
1.900000000000000000e+01 1.922596168518066406e+01 -6.607306480407714844e+00 1.665717506408691406e+01 -7.277732491493225098e-01 4.778820991516113281e+00 1.509781274944543839e-02
2.000000000000000000e+01 1.902809715270996094e+01 -6.628919601440429688e+00 1.422245693206787109e+01 -8.972518444061279297e-01 3.997561693191528320e+00 2.584499120712280273e-01
2.100000000000000000e+01 1.963368034362792969e+01 -6.621240615844726562e+00 3.266822052001953125e+01 2.175310850143432617e+00 1.045305919647216797e+01 5.150949001312255859e+00
2.200000000000000000e+01 1.944380950927734375e+01 -6.680961608886718750e+00 2.348682594299316406e+01 5.904483199119567871e-01 7.223182201385498047e+00 3.266839504241943359e+00
2.300000000000000000e+01 1.925394058227539062e+01 -6.740683078765869141e+00 1.908094787597656250e+01 -5.016053328290581703e-04 5.724133968353271484e+00 2.735000133514404297e+00
2.400000000000000000e+01 1.906406974792480469e+01 -6.800404071807861328e+00 1.601832008361816406e+01 -5.048760771751403809e-01 4.654033184051513672e+00 2.699418306350708008e+00
2.500000000000000000e+01 1.965657043457031250e+01 -6.674973964691162109e+00 3.241118240356445312e+01 5.757304191589355469e+00 1.145054626464843750e+01 9.584906578063964844e+00
2.600000000000000000e+01 1.948196029663085938e+01 -6.770517349243164062e+00 2.435847473144531250e+01 3.064618825912475586e+00 8.226928710937500000e+00 6.616199970245361328e+00
2.700000000000000000e+01 1.930735015869140625e+01 -6.866060256958007812e+00 1.978266716003417969e+01 1.679185032844543457e+00 6.438555717468261719e+00 5.667520999908447266e+00
2.800000000000000000e+01 1.913274002075195312e+01 -6.961603641510009766e+00 1.701069450378417969e+01 9.856593608856201172e-01 5.398905754089355469e+00 5.217306137084960938e+00
2.900000000000000000e+01 1.968948364257812500e+01 -6.723222732543945312e+00 3.066674613952636719e+01 1.078385066986083984e+01 1.243517971038818359e+01 1.255621337890625000e+01
3.000000000000000000e+01 1.953681373596191406e+01 -6.850932121276855469e+00 2.347375488281250000e+01 6.375336647033691406e+00 8.954727172851562500e+00 9.359613418579101562e+00
3.100000000000000000e+01 1.938414573669433594e+01 -6.978641033172607422e+00 1.947260475158691406e+01 4.547888755798339844e+00 7.206148147583007812e+00 8.015848159790039062e+00
3.200000000000000000e+01 1.923147773742675781e+01 -7.106350421905517578e+00 1.662592887878417969e+01 3.219003915786743164e+00 5.953479766845703125e+00 7.338667392730712891e+00
3.300000000000000000e+01 1.973115921020507812e+01 -6.764141082763671875e+00 2.772208023071289062e+01 1.600548362731933594e+01 1.311826896667480469e+01 1.389922046661376953e+01
3.400000000000000000e+01 1.960627555847167969e+01 -6.919128417968750000e+00 2.186490440368652344e+01 1.051206302642822266e+01 9.713090896606445312e+00 1.084872436523437500e+01
3.500000000000000000e+01 1.948138999938964844e+01 -7.074116706848144531e+00 1.799914741516113281e+01 7.813679695129394531e+00 7.743847846984863281e+00 9.499979019165039062e+00
3.600000000000000000e+01 1.935650634765625000e+01 -7.229104518890380859e+00 1.560460758209228516e+01 6.292631149291992188e+00 6.569171428680419922e+00 8.613255500793457031e+00
3.700000000000000000e+01 1.978000450134277344e+01 -6.796162128448486328e+00 2.498361206054687500e+01 2.101568603515625000e+01 1.379978942871093750e+01 1.343326854705810547e+01
3.800000000000000000e+01 1.968768310546875000e+01 -6.972497463226318359e+00 1.960701370239257812e+01 1.451258087158203125e+01 1.023587799072265625e+01 1.109822463989257812e+01
3.900000000000000000e+01 1.959536361694335938e+01 -7.148832798004150391e+00 1.633739280700683594e+01 1.140084552764892578e+01 8.321471214294433594e+00 9.758417129516601562e+00
4.000000000000000000e+01 1.950304222106933594e+01 -7.325168132781982422e+00 1.391389846801757812e+01 9.301467895507812500e+00 6.964609622955322266e+00 8.926725387573242188e+00
4.100000000000000000e+01 1.983414840698242188e+01 -6.818061351776123047e+00 2.266388702392578125e+01 2.490830421447753906e+01 1.427165699005126953e+01 1.163185691833496094e+01
4.200000000000000000e+01 1.977792549133300781e+01 -7.008996009826660156e+00 1.772916793823242188e+01 1.807822990417480469e+01 1.074221992492675781e+01 1.007165336608886719e+01
4.300000000000000000e+01 1.972170066833496094e+01 -7.199931144714355469e+00 1.459568595886230469e+01 1.449350166320800781e+01 8.726756095886230469e+00 8.956410408020019531e+00
4.400000000000000000e+01 1.966547584533691406e+01 -7.390865802764892578e+00 1.243407726287841797e+01 1.221036148071289062e+01 7.393331527709960938e+00 8.230156898498535156e+00
4.500000000000000000e+01 1.989152145385742188e+01 -6.829000473022460938e+00 2.144871330261230469e+01 2.743067741394042969e+01 1.466381740570068359e+01 9.019372940063476562e+00
4.600000000000000000e+01 1.987354469299316406e+01 -7.027227878570556641e+00 1.646417808532714844e+01 2.060486793518066406e+01 1.112071418762207031e+01 8.128046035766601562e+00
4.700000000000000000e+01 1.985556793212890625e+01 -7.225455284118652344e+00 1.341049289703369141e+01 1.683973121643066406e+01 9.075067520141601562e+00 7.304893493652343750e+00
4.800000000000000000e+01 1.983759117126464844e+01 -7.423683166503906250e+00 1.147938060760498047e+01 1.431294441223144531e+01 7.737697601318359375e+00 6.781160354614257812e+00
4.900000000000000000e+01 1.994992446899414062e+01 -6.828560352325439453e+00 2.143424224853515625e+01 2.846678161621093750e+01 1.497030735015869141e+01 6.210191726684570312e+00
5.000000000000000000e+01 1.997088432312011719e+01 -7.026494979858398438e+00 1.607734870910644531e+01 2.190086174011230469e+01 1.139346218109130859e+01 5.705118179321289062e+00
5.100000000000000000e+01 1.999184417724609375e+01 -7.224429607391357422e+00 1.315095424652099609e+01 1.804831123352050781e+01 9.359779357910156250e+00 5.252269744873046875e+00
5.200000000000000000e+01 2.001280403137207031e+01 -7.422363758087158203e+00 1.108877086639404297e+01 1.542485046386718750e+01 7.954086303710937500e+00 4.810527324676513672e+00
5.300000000000000000e+01 2.000712585449218750e+01 -6.816759109497070312e+00 2.233779144287109375e+01 2.811192703247070312e+01 1.513491535186767578e+01 3.675750255584716797e+00
5.400000000000000000e+01 2.006621932983398438e+01 -7.006825447082519531e+00 1.679698753356933594e+01 2.193957328796386719e+01 1.162096881866455078e+01 3.407411336898803711e+00
5.500000000000000000e+01 2.012531089782714844e+01 -7.196892261505126953e+00 1.368510723114013672e+01 1.807406044006347656e+01 9.527750015258789062e+00 3.118077754974365234e+00
5.600000000000000000e+01 2.018440628051757812e+01 -7.386958599090576172e+00 1.160225391387939453e+01 1.549335575103759766e+01 8.128683090209960938e+00 2.955910921096801758e+00
5.700000000000000000e+01 2.006093406677246094e+01 -6.794046878814697266e+00 2.411026954650878906e+01 2.680164146423339844e+01 1.527357387542724609e+01 1.905180215835571289e+00
5.800000000000000000e+01 2.015589904785156250e+01 -6.968972206115722656e+00 1.823688697814941406e+01 2.077955818176269531e+01 1.170493412017822266e+01 1.581536889076232910e+00
5.900000000000000000e+01 2.025086593627929688e+01 -7.143897533416748047e+00 1.506277847290039062e+01 1.718002700805664062e+01 9.672842025756835938e+00 1.526015758514404297e+00
6.000000000000000000e+01 2.034583091735839844e+01 -7.318822383880615234e+00 1.279276371002197266e+01 1.458577251434326172e+01 8.213561058044433594e+00 1.384217500686645508e+00
6.100000000000000000e+01 2.010929107666015625e+01 -6.761293888092041016e+00 2.618875312805175781e+01 2.467288970947265625e+01 1.525849342346191406e+01 1.002410531044006348e+00
6.200000000000000000e+01 2.023649597167968750e+01 -6.914383411407470703e+00 2.025176429748535156e+01 1.898066902160644531e+01 1.176972961425781250e+01 7.384933233261108398e-01
6.300000000000000000e+01 2.036369895935058594e+01 -7.067473411560058594e+00 1.679037284851074219e+01 1.547507381439208984e+01 9.679634094238281250e+00 6.540161371231079102e-01
6.400000000000000000e+01 2.049090385437011719e+01 -7.220562934875488281e+00 1.447307968139648438e+01 1.326229381561279297e+01 8.320611953735351562e+00 6.305887699127197266e-01
6.500000000000000000e+01 2.015034675598144531e+01 -6.719752788543701172e+00 2.834979629516601562e+01 2.237959861755371094e+01 1.521881866455078125e+01 1.205238461494445801e+00
6.600000000000000000e+01 2.030492210388183594e+01 -6.845148563385009766e+00 2.224333190917968750e+01 1.673547554016113281e+01 1.169364261627197266e+01 9.302200675010681152e-01
6.700000000000000000e+01 2.045949554443359375e+01 -6.970544338226318359e+00 1.856524848937988281e+01 1.366685867309570312e+01 9.669631958007812500e+00 8.212782144546508789e-01
6.800000000000000000e+01 2.061407089233398438e+01 -7.095940113067626953e+00 1.611418342590332031e+01 1.147952938079833984e+01 8.278113365173339844e+00 7.511509656906127930e-01
6.900000000000000000e+01 2.018252944946289062e+01 -6.671013355255126953e+00 3.010313224792480469e+01 2.004844093322753906e+01 1.504547214508056641e+01 2.455002784729003906e+00
7.000000000000000000e+01 2.035855865478515625e+01 -6.763916492462158203e+00 2.379545402526855469e+01 1.479956054687500000e+01 1.157850456237792969e+01 2.191308736801147461e+00
7.100000000000000000e+01 2.053458976745605469e+01 -6.856819629669189453e+00 1.989902114868164062e+01 1.191942501068115234e+01 9.545534133911132812e+00 1.957789897918701172e+00
7.200000000000000000e+01 2.071061897277832031e+01 -6.949722766876220703e+00 1.731693840026855469e+01 9.931279182434082031e+00 8.174465179443359375e+00 1.715091943740844727e+00
7.300000000000000000e+01 2.020460891723632812e+01 -6.616941452026367188e+00 3.108707618713378906e+01 1.830665206909179688e+01 1.481811809539794922e+01 4.660090446472167969e+00
7.400000000000000000e+01 2.039535522460937500e+01 -6.673796176910400391e+00 2.440901374816894531e+01 1.340015792846679688e+01 1.134275150299072266e+01 4.280231952667236328e+00
7.500000000000000000e+01 2.058610534667968750e+01 -6.730651378631591797e+00 2.045244789123535156e+01 1.079263210296630859e+01 9.373523712158203125e+00 3.812353134155273438e+00
7.600000000000000000e+01 2.077685356140136719e+01 -6.787506580352783203e+00 1.774555397033691406e+01 8.927904129028320312e+00 8.002037048339843750e+00 3.367296457290649414e+00
7.700000000000000000e+01 2.021573638916015625e+01 -6.559605598449707031e+00 3.085364341735839844e+01 1.735733413696289062e+01 1.446329307556152344e+01 7.550714015960693359e+00
7.800000000000000000e+01 2.041390419006347656e+01 -6.578236579895019531e+00 2.382426071166992188e+01 1.300359630584716797e+01 1.104835700988769531e+01 6.790246963500976562e+00
7.900000000000000000e+01 2.061207199096679688e+01 -6.596868038177490234e+00 1.988682556152343750e+01 1.041681957244873047e+01 9.091094017028808594e+00 5.990233421325683594e+00
8.000000000000000000e+01 2.081023788452148438e+01 -6.615499019622802734e+00 1.727979087829589844e+01 8.774210929870605469e+00 7.816200256347656250e+00 5.360477924346923828e+00
8.100000000000000000e+01 2.021549034118652344e+01 -6.501200675964355469e+00 2.913395309448242188e+01 1.762001991271972656e+01 1.402619171142578125e+01 1.064234161376953125e+01
8.200000000000000000e+01 2.041349220275878906e+01 -6.480895042419433594e+00 2.189999008178710938e+01 1.357358932495117188e+01 1.064207363128662109e+01 9.233883857727050781e+00
8.300000000000000000e+01 2.061149406433105469e+01 -6.460588932037353516e+00 1.814235496520996094e+01 1.101927566528320312e+01 8.748489379882812500e+00 8.029153823852539062e+00
8.400000000000000000e+01 2.080949783325195312e+01 -6.440283298492431641e+00 1.573246955871582031e+01 9.308073043823242188e+00 7.512163162231445312e+00 7.213991165161132812e+00
8.500000000000000000e+01 2.020387649536132812e+01 -6.443960666656494141e+00 2.579923820495605469e+01 1.909933853149414062e+01 1.346957302093505859e+01 1.336911487579345703e+01
8.600000000000000000e+01 2.039413642883300781e+01 -6.385495662689208984e+00 1.877749252319335938e+01 1.504667377471923828e+01 1.014725017547607422e+01 1.104728507995605469e+01
8.700000000000000000e+01 2.058439826965332031e+01 -6.327030181884765625e+00 1.534548187255859375e+01 1.238631248474121094e+01 8.319538116455078125e+00 9.534759521484375000e+00
8.800000000000000000e+01 2.077465820312500000e+01 -6.268564701080322266e+00 1.317133522033691406e+01 1.050048732757568359e+01 7.101546764373779297e+00 8.488709449768066406e+00
8.900000000000000000e+01 2.018134307861328125e+01 -6.390077114105224609e+00 2.108298683166503906e+01 2.158588218688964844e+01 1.280066013336181641e+01 1.504160118103027344e+01
9.000000000000000000e+01 2.035658073425292969e+01 -6.295689582824707031e+00 1.475471878051757812e+01 1.706736564636230469e+01 9.546625137329101562e+00 1.183848571777343750e+01
9.100000000000000000e+01 2.053181838989257812e+01 -6.201301574707031250e+00 1.184828090667724609e+01 1.414970111846923828e+01 7.799394130706787109e+00 1.010449123382568359e+01
9.200000000000000000e+01 2.070705604553222656e+01 -6.106914043426513672e+00 1.004324054718017578e+01 1.211809062957763672e+01 6.648399353027343750e+00 8.966477394104003906e+00
9.300000000000000000e+01 2.014875030517578125e+01 -6.341611862182617188e+00 1.545751285552978516e+01 2.448077201843261719e+01 1.198148536682128906e+01 1.514487457275390625e+01
9.400000000000000000e+01 2.030225753784179688e+01 -6.214913845062255859e+00 1.040268611907958984e+01 1.914079475402832031e+01 8.863043785095214844e+00 1.134254741668701172e+01
9.500000000000000000e+01 2.045576667785644531e+01 -6.088215827941894531e+00 8.064900398254394531e+00 1.583504486083984375e+01 7.169983386993408203e+00 9.588131904602050781e+00
9.600000000000000000e+01 2.060927581787109375e+01 -5.961517810821533203e+00 6.783880233764648438e+00 1.367200756072998047e+01 6.136766433715820312e+00 8.399974822998046875e+00
9.700000000000000000e+01 2.010734367370605469e+01 -6.300419330596923828e+00 9.806718826293945312e+00 2.716184425354003906e+01 1.109056949615478516e+01 1.339361381530761719e+01
9.800000000000000000e+01 2.023324966430664062e+01 -6.146259784698486328e+00 6.162248134613037109e+00 2.053059387207031250e+01 8.007852554321289062e+00 9.598954200744628906e+00
9.900000000000000000e+01 2.035915374755859375e+01 -5.992099761962890625e+00 4.654668331146240234e+00 1.700124168395996094e+01 6.496773242950439453e+00 7.953768253326416016e+00
1.000000000000000000e+02 2.048505973815917969e+01 -5.837940216064453125e+00 3.682540416717529297e+00 1.464032459259033203e+01 5.496859550476074219e+00 6.972591400146484375e+00
1.010000000000000000e+02 2.005871200561523438e+01 -6.268076419830322266e+00 4.733091354370117188e+00 2.841785430908203125e+01 9.945283889770507812e+00 1.006957912445068359e+01
1.020000000000000000e+02 2.015219497680664062e+01 -6.092354297637939453e+00 2.823568820953369141e+00 2.097521400451660156e+01 7.139634609222412109e+00 6.767061710357666016e+00
1.030000000000000000e+02 2.024567794799804688e+01 -5.916632175445556641e+00 1.779388189315795898e+00 1.697053909301757812e+01 5.624978542327880859e+00 5.542012214660644531e+00
1.040000000000000000e+02 2.033916091918945312e+01 -5.740910530090332031e+00 1.478073239326477051e+00 1.463420486450195312e+01 4.833683490753173828e+00 4.829109668731689453e+00
1.050000000000000000e+02 2.000471305847167969e+01 -6.245820045471191406e+00 1.331915497779846191e+00 2.790925216674804688e+01 8.772350311279296875e+00 5.578945636749267578e+00
1.060000000000000000e+02 2.006219673156738281e+01 -6.055260658264160156e+00 3.758782744407653809e-01 1.966979408264160156e+01 6.013701915740966797e+00 3.508718729019165039e+00
1.070000000000000000e+02 2.011968040466308594e+01 -5.864700794219970703e+00 1.565309166908264160e-01 1.584711360931396484e+01 4.801093101501464844e+00 2.728730201721191406e+00
1.080000000000000000e+02 2.017716407775878906e+01 -5.674141407012939453e+00 -1.897300630807876587e-01 1.321100139617919922e+01 3.906381368637084961e+00 2.331793069839477539e+00
1.090000000000000000e+02 1.994741439819335938e+01 -6.234502315521240234e+00 -5.185522437095642090e-01 2.480696487426757812e+01 7.286523818969726562e+00 1.026626586914062500e+00
1.100000000000000000e+02 1.996669769287109375e+01 -6.036397933959960938e+00 -5.929682254791259766e-01 1.686091804504394531e+01 4.880384922027587891e+00 2.982753217220306396e-01
1.110000000000000000e+02 1.998598289489746094e+01 -5.838293075561523438e+00 -5.747018456459045410e-01 1.309051513671875000e+01 3.754743814468383789e+00 2.387015670537948608e-01
1.120000000000000000e+02 2.000526809692382812e+01 -5.640188694000244141e+00 -7.830005288124084473e-01 1.120733737945556641e+01 3.127300977706909180e+00 2.596599757671356201e-01
1.130000000000000000e+02 1.988900756835937500e+01 -6.234556674957275391e+00 -5.769438147544860840e-01 1.942300033569335938e+01 5.653816699981689453e+00 -2.832965850830078125e+00
1.140000000000000000e+02 1.986935424804687500e+01 -6.036488056182861328e+00 -5.296428203582763672e-01 1.223249626159667969e+01 3.510855913162231445e+00 -1.879878878593444824e+00
1.150000000000000000e+02 1.984970283508300781e+01 -5.838419437408447266e+00 -4.481368958950042725e-01 9.576414108276367188e+00 2.738482952117919922e+00 -1.424713850021362305e+00
1.160000000000000000e+02 1.983005142211914062e+01 -5.640351295471191406e+00 -4.922938048839569092e-01 7.986710071563720703e+00 2.248324871063232422e+00 -8.608679175376892090e-01
1.170000000000000000e+02 1.983172988891601562e+01 -6.245980262756347656e+00 2.806893289089202881e-01 1.188038253784179688e+01 3.648321628570556641e+00 -4.572279930114746094e+00
1.180000000000000000e+02 1.977389335632324219e+01 -6.055527687072753906e+00 1.721834838390350342e-01 6.765850067138671875e+00 2.081410169601440430e+00 -2.757682561874389648e+00
1.190000000000000000e+02 1.971605491638183594e+01 -5.865075111389160156e+00 6.997019797563552856e-02 5.257513523101806641e+00 1.598245024681091309e+00 -1.396394729614257812e+00
1.200000000000000000e+02 1.965821838378906250e+01 -5.674623012542724609e+00 -2.442720532417297363e-01 4.874431133270263672e+00 1.389047622680664062e+00 -1.134093403816223145e+00
1.210000000000000000e+02 1.977777290344238281e+01 -6.268336772918701172e+00 1.422572016716003418e+00 2.573606967926025391e+00 1.198853731155395508e+00 -4.167589664459228516e+00
1.220000000000000000e+02 1.968396377563476562e+01 -6.092788696289062500e+00 3.052314221858978271e-01 1.253039002418518066e+00 4.674811363220214844e-01 -7.171459197998046875e-01
1.230000000000000000e+02 1.959015464782714844e+01 -5.917240619659423828e+00 -1.578367352485656738e-01 2.358250617980957031e+00 6.601241827011108398e-01 -6.342216730117797852e-01
1.240000000000000000e+02 1.949634361267089844e+01 -5.741692066192626953e+00 -1.799151450395584106e-01 1.316775083541870117e+00 3.410579562187194824e-01 -4.963468611240386963e-01
1.250000000000000000e+02 1.972919845581054688e+01 -6.300770282745361328e+00 -1.646237134933471680e+00 -6.663334846496582031e+00 -2.492871522903442383e+00 2.155790805816650391e+00
1.260000000000000000e+02 1.960300827026367188e+01 -6.146844387054443359e+00 -8.292193412780761719e-01 -6.697669625282287598e-02 -2.688587903976440430e-01 1.152998208999633789e+00
1.270000000000000000e+02 1.947681808471679688e+01 -5.992918491363525391e+00 -1.066219449043273926e+00 -1.324175715446472168e+00 -7.171185612678527832e-01 8.628808856010437012e-01
1.280000000000000000e+02 1.935062599182128906e+01 -5.838992595672607422e+00 -1.020982384681701660e+00 -8.967012166976928711e-01 -5.753050446510314941e-01 1.099032998085021973e+00
1.290000000000000000e+02 1.663591957092285156e+01 -5.168702602386474609e+00 1.061009764671325684e+00 -7.106452584266662598e-01 1.051093414425849915e-01 3.945659399032592773e-01
1.300000000000000000e+02 1.544189643859863281e+01 -4.191256046295166016e+00 -4.241504669189453125e-01 -4.465692937374114990e-01 -2.612159252166748047e-01 6.635245680809020996e-01
1.310000000000000000e+02 1.503158760070800781e+01 -3.773120880126953125e+00 -7.793667912483215332e-01 -3.700151443481445312e-01 -3.448145687580108643e-01 7.224689722061157227e-01
1.320000000000000000e+02 1.738303375244140625e+01 -4.608474731445312500e+00 -4.819071888923645020e-01 -5.294275879859924316e-01 -3.034004271030426025e-01 7.024942040443420410e-01
1.330000000000000000e+02 1.642608833312988281e+01 -4.376268863677978516e+00 -4.015618860721588135e-01 -6.422731280326843262e-01 -3.131504952907562256e-01 6.792290806770324707e-01
1.340000000000000000e+02 1.592632293701171875e+01 -4.110965728759765625e+00 -5.774658322334289551e-01 -5.361494421958923340e-01 -3.340846002101898193e-01 7.139905095100402832e-01
1.350000000000000000e+02 1.695386123657226562e+01 -5.143444538116455078e+00 9.934684634208679199e-01 -5.835554003715515137e-01 1.229739114642143250e-01 4.554038643836975098e-01
1.360000000000000000e+02 1.698931694030761719e+01 -4.978122711181640625e+00 5.194730162620544434e-01 -6.258882284164428711e-01 -3.192456066608428955e-02 4.732678830623626709e-01
1.370000000000000000e+02 1.701729202270507812e+01 -4.284568786621093750e+00 -9.905972480773925781e-01 -7.009578347206115723e-01 -5.074664950370788574e-01 8.302545547485351562e-01
1.380000000000000000e+02 1.729164505004882812e+01 -4.803859233856201172e+00 -1.611198186874389648e-01 -5.225178003311157227e-01 -2.050912827253341675e-01 5.745642185211181641e-01
1.390000000000000000e+02 1.678501701354980469e+01 -4.550962448120117188e+00 -3.298905789852142334e-01 -6.271169185638427734e-01 -2.871022522449493408e-01 6.227672696113586426e-01
1.400000000000000000e+02 1.744925689697265625e+01 -4.358761787414550781e+00 -1.104679942131042480e+00 -7.016735672950744629e-01 -5.419060587882995605e-01 9.083788394927978516e-01
1.410000000000000000e+02 1.547476959228515625e+01 -3.180508136749267578e+00 -1.310071229934692383e+00 -5.828372836112976074e-01 -5.678725838661193848e-01 9.442030191421508789e-01
1.420000000000000000e+02 1.680983352661132812e+01 -4.862318515777587891e+00 3.172779381275177002e-01 -6.915969848632812500e-01 -1.122957095503807068e-01 5.311580300331115723e-01
1.430000000000000000e+02 1.718897438049316406e+01 -4.981789112091064453e+00 4.314790070056915283e-01 -5.377435088157653809e-01 -3.187935426831245422e-02 4.575395286083221436e-01
1.440000000000000000e+02 1.623614883422851562e+01 -4.839158058166503906e+00 4.814413189888000488e-01 -5.671049952507019043e-01 -2.569909207522869110e-02 5.498311519622802734e-01
1.450000000000000000e+02 1.669139862060546875e+01 -3.948382616043090820e+00 -1.246285676956176758e+00 -7.091354131698608398e-01 -5.866263508796691895e-01 9.790487885475158691e-01
1.460000000000000000e+02 1.579944038391113281e+01 -4.544306278228759766e+00 4.774286970496177673e-02 -4.712584614753723145e-01 -1.270546764135360718e-01 5.995153188705444336e-01
1.470000000000000000e+02 1.610431098937988281e+01 -3.585469245910644531e+00 -1.325510978698730469e+00 -7.156073451042175293e-01 -6.123355031013488770e-01 9.659886956214904785e-01
1.480000000000000000e+02 1.706148719787597656e+01 -4.556863307952880859e+00 -4.179949760437011719e-01 -6.744148135185241699e-01 -3.277229368686676025e-01 6.026542782783508301e-01
1.490000000000000000e+02 1.704225158691406250e+01 -4.774786472320556641e+00 -1.379250138998031616e-01 -5.858066082000732422e-01 -2.171194851398468018e-01 5.839517116546630859e-01
1.500000000000000000e+02 1.709207916259765625e+01 -5.139132022857666016e+00 8.422737717628479004e-01 -6.706071496009826660e-01 5.149999260902404785e-02 4.050089418888092041e-01
1.510000000000000000e+02 1.687263679504394531e+01 -5.325383663177490234e+00 1.412051439285278320e+00 -6.238459348678588867e-01 2.364616543054580688e-01 3.164950907230377197e-01
1.520000000000000000e+02 1.699111557006835938e+01 -5.260808467864990234e+00 1.375807523727416992e+00 -6.420965790748596191e-01 2.201132625341415405e-01 2.328174710273742676e-01
1.530000000000000000e+02 1.777371215820312500e+01 -4.587959289550781250e+00 -8.375812768936157227e-01 -7.232245802879333496e-01 -4.682417511940002441e-01 8.005742430686950684e-01
1.540000000000000000e+02 1.876871299743652344e+01 -5.586731910705566406e+00 1.339806914329528809e-01 -3.583901226520538330e-01 -6.732282787561416626e-02 1.027073711156845093e-01
1.550000000000000000e+02 1.906764602661132812e+01 -5.846842765808105469e+00 6.423619389533996582e-01 1.939537562429904938e-02 1.985272020101547241e-01 -3.953109383583068848e-01
1.560000000000000000e+02 2.012073516845703125e+01 -4.773705959320068359e+00 -8.852627873420715332e-01 7.267839431762695312e+00 1.914772987365722656e+00 5.246978998184204102e-01
1.570000000000000000e+02 1.984456825256347656e+01 -7.925976753234863281e+00 8.393781661987304688e+00 1.074414825439453125e+01 5.741378784179687500e+00 5.784270286560058594e+00
1.580000000000000000e+02 1.897859954833984375e+01 -7.146064758300781250e+00 1.487217903137207031e+01 1.020120859146118164e+00 4.767689704895019531e+00 5.601971149444580078e+00
1.590000000000000000e+02 1.694895172119140625e+01 -5.553750514984130859e+00 1.932175993919372559e+00 -7.222938537597656250e-01 3.629646599292755127e-01 3.679591715335845947e-01
1.600000000000000000e+02 1.709050559997558594e+01 -5.391935348510742188e+00 1.478311061859130859e+00 -6.690163016319274902e-01 2.427884191274642944e-01 2.369835525751113892e-01
1.610000000000000000e+02 1.819474983215332031e+01 -5.012456417083740234e+00 -5.938502550125122070e-01 -7.490937113761901855e-01 -4.028832018375396729e-01 6.791729331016540527e-01
1.620000000000000000e+02 1.914875602722167969e+01 -7.651577472686767578e+00 1.136450767517089844e+01 5.051495552062988281e+00 4.924800872802734375e+00 7.787850379943847656e+00
1.630000000000000000e+02 1.880638694763183594e+01 -6.438560962677001953e+00 9.805690765380859375e+00 -8.646551370620727539e-01 2.682310581207275391e+00 -8.235378861427307129e-01
1.640000000000000000e+02 1.886768341064453125e+01 -6.218144416809082031e+00 6.218513965606689453e+00 -2.767605781555175781e-01 1.782526016235351562e+00 -1.657918930053710938e+00
1.650000000000000000e+02 1.844886589050292969e+01 -6.612155914306640625e+00 9.526219367980957031e+00 -1.331676840782165527e+00 2.458362817764282227e+00 5.594709515571594238e-01
1.660000000000000000e+02 1.847344398498535156e+01 -5.306351661682128906e+00 -2.642880976200103760e-01 -6.104525327682495117e-01 -2.624221742153167725e-01 4.322678446769714355e-01
1.670000000000000000e+02 1.710198783874511719e+01 -5.698176383972167969e+00 2.436491489410400391e+00 -8.443247675895690918e-01 4.776500463485717773e-01 2.928975522518157959e-01
1.680000000000000000e+02 2.098154258728027344e+01 -6.191597938537597656e+00 1.147025394439697266e+01 9.229062080383300781e+00 6.209794998168945312e+00 7.736441612243652344e+00
1.690000000000000000e+02 2.114201927185058594e+01 -7.134366512298583984e+00 1.358891296386718750e+01 6.894756793975830078e+00 6.145101070404052734e+00 1.491392374038696289e+00
1.700000000000000000e+02 2.026124954223632812e+01 -7.591384410858154297e+00 1.012747478485107422e+01 1.335023880004882812e+01 7.043313980102539062e+00 2.638495445251464844e+00
1.710000000000000000e+02 1.876614189147949219e+01 -3.443592071533203125e+00 -8.549725413322448730e-01 1.518395662307739258e+00 1.990269571542739868e-01 -1.986373029649257660e-02
1.720000000000000000e+02 1.869802284240722656e+01 -3.775953531265258789e+00 -8.892284631729125977e-01 9.040294289588928223e-01 4.440286662429571152e-03 1.289373785257339478e-01
1.730000000000000000e+02 1.857703590393066406e+01 -3.988698244094848633e+00 -8.812572360038757324e-01 3.730031549930572510e-01 -1.524762362241744995e-01 3.179975748062133789e-01
1.740000000000000000e+02 1.809818840026855469e+01 -4.530292987823486328e+00 -1.572018146514892578e+00 -1.373254537582397461e+00 -8.835818171501159668e-01 1.500623583793640137e+00
1.750000000000000000e+02 1.912122917175292969e+01 -4.177383422851562500e+00 -7.778236269950866699e-01 1.864550113677978516e+00 3.260179460048675537e-01 -1.918053030967712402e-01
1.760000000000000000e+02 1.992474555969238281e+01 -4.793348312377929688e+00 -8.577578663825988770e-01 6.344116210937500000e+00 1.645907521247863770e+00 6.665994226932525635e-02
1.770000000000000000e+02 2.068533897399902344e+01 -5.351183414459228516e+00 1.277700543403625488e+00 1.121397972106933594e+01 3.747504234313964844e+00 4.539991855621337891e+00
1.780000000000000000e+02 1.808924102783203125e+01 -4.227212429046630859e+00 -1.488045811653137207e+00 -8.853974938392639160e-01 -7.120329737663269043e-01 1.032628417015075684e+00
1.790000000000000000e+02 1.841108512878417969e+01 -4.805862903594970703e+00 -1.403645873069763184e+00 -1.234045624732971191e+00 -7.913074493408203125e-01 1.311424493789672852e+00
1.800000000000000000e+02 1.861799240112304688e+01 -3.602778196334838867e+00 -9.366596937179565430e-01 7.969177365303039551e-01 -4.192258417606353760e-02 1.986285597085952759e-01
1.810000000000000000e+02 1.868088150024414062e+01 -5.094734191894531250e+00 -1.273576498031616211e+00 -1.119317054748535156e+00 -7.178680896759033203e-01 1.123539924621582031e+00
1.820000000000000000e+02 1.929824256896972656e+01 -3.990662336349487305e+00 -8.441637158393859863e-01 2.703810453414916992e+00 5.578939914703369141e-01 -2.242740094661712646e-01
1.830000000000000000e+02 1.957306671142578125e+01 -4.262232303619384766e+00 -8.315334916114807129e-01 3.815124511718750000e+00 8.950772881507873535e-01 -2.566131353378295898e-01
1.840000000000000000e+02 1.940727043151855469e+01 -4.773563385009765625e+00 -6.673790812492370605e-01 2.862358093261718750e+00 6.584936976432800293e-01 -4.030148386955261230e-01
1.850000000000000000e+02 1.939857482910156250e+01 -5.556888580322265625e+00 -3.331089615821838379e-01 1.297517538070678711e+00 2.893225848674774170e-01 -2.055297493934631348e-01
1.860000000000000000e+02 1.922255134582519531e+01 -5.686610698699951172e+00 -1.066085457801818848e+00 -1.107555747032165527e+00 -6.520923376083374023e-01 1.048576951026916504e+00
1.870000000000000000e+02 2.102865791320800781e+01 -6.371412277221679688e+00 1.354325008392333984e+01 8.085374832153320312e+00 6.488587379455566406e+00 6.689939498901367188e+00
1.880000000000000000e+02 2.038527679443359375e+01 -5.069779872894287109e+00 -3.998329341411590576e-01 9.668663978576660156e+00 2.780649423599243164e+00 2.067762374877929688e+00
1.890000000000000000e+02 2.023569679260253906e+01 -4.925792217254638672e+00 -7.175269722938537598e-01 8.458491325378417969e+00 2.322289466857910156e+00 1.179569721221923828e+00
1.900000000000000000e+02 1.981224250793457031e+01 -5.190192222595214844e+00 -6.542996168136596680e-01 6.464568138122558594e+00 1.743080615997314453e+00 -4.453299343585968018e-01
1.910000000000000000e+02 1.870983123779296875e+01 -6.956036567687988281e+00 1.281388568878173828e+01 -8.146798610687255859e-01 3.599761724472045898e+00 3.074414968490600586e+00
1.920000000000000000e+02 1.941332244873046875e+01 -7.518033981323242188e+00 1.220036602020263672e+01 8.061217308044433594e+00 6.078474998474121094e+00 8.262176513671875000e+00
1.930000000000000000e+02 1.757600784301757812e+01 -5.827577590942382812e+00 3.153568506240844727e+00 -8.167677521705627441e-01 7.010402679443359375e-01 -1.712063327431678772e-02
1.940000000000000000e+02 1.791559791564941406e+01 -4.727357387542724609e+00 -8.002473711967468262e-01 -7.646949887275695801e-01 -4.694827198982238770e-01 8.023372888565063477e-01
1.950000000000000000e+02 2.072198486328125000e+01 -5.607334613800048828e+00 3.385746717453002930e+00 1.159562397003173828e+01 4.494411468505859375e+00 6.045129776000976562e+00
1.960000000000000000e+02 2.083575630187988281e+01 -5.467860221862792969e+00 3.019834518432617188e+00 1.090527820587158203e+01 4.177533626556396484e+00 5.721865177154541016e+00
1.970000000000000000e+02 2.035070991516113281e+01 -5.364274501800537109e+00 1.401981711387634277e-01 1.144392585754394531e+01 3.475237131118774414e+00 2.726840972900390625e+00
1.980000000000000000e+02 2.001014900207519531e+01 -4.641735553741455078e+00 -8.830615878105163574e-01 6.276889801025390625e+00 1.618148446083068848e+00 2.767037153244018555e-01
1.990000000000000000e+02 2.053172874450683594e+01 -5.217622280120849609e+00 2.790592014789581299e-01 1.055910587310791016e+01 3.251449584960937500e+00 3.178995370864868164e+00
2.000000000000000000e+02 1.903601074218750000e+01 -3.699020862579345703e+00 -8.413535952568054199e-01 1.760363698005676270e+00 2.757030427455902100e-01 -9.896412491798400879e-02
2.010000000000000000e+02 1.854609680175781250e+01 -4.958009243011474609e+00 -1.326651573181152344e+00 -1.135848879814147949e+00 -7.387501597404479980e-01 1.271101593971252441e+00
2.020000000000000000e+02 1.887078666687011719e+01 -3.755743980407714844e+00 -8.553513884544372559e-01 1.419693231582641602e+00 1.693025529384613037e-01 -6.936943531036376953e-02
2.030000000000000000e+02 1.931706809997558594e+01 -7.750343322753906250e+00 1.041445350646972656e+01 6.609492778778076172e+00 5.107183933258056641e+00 7.785948276519775391e+00
2.040000000000000000e+02 1.881143188476562500e+01 -6.663249492645263672e+00 1.220482540130615234e+01 -1.141456723213195801e+00 3.319010496139526367e+00 7.058021426200866699e-01
2.050000000000000000e+02 1.754429244995117188e+01 -6.139063835144042969e+00 4.450241565704345703e+00 -1.086636066436767578e+00 1.009081602096557617e+00 2.656108140945434570e-01
2.060000000000000000e+02 1.826903724670410156e+01 -6.471676826477050781e+00 7.626268863677978516e+00 -1.256113529205322266e+00 1.911046624183654785e+00 7.910448312759399414e-02
2.070000000000000000e+02 2.008126831054687500e+01 -7.640850543975830078e+00 9.588708877563476562e+00 1.345512390136718750e+01 6.913149833679199219e+00 4.358305454254150391e+00
2.080000000000000000e+02 1.959086036682128906e+01 -7.594268321990966797e+00 1.089259529113769531e+01 1.030964660644531250e+01 6.360672473907470703e+00 7.699237346649169922e+00
2.090000000000000000e+02 1.815894317626953125e+01 -5.339487075805664062e+00 4.951384365558624268e-01 -4.955523610115051270e-01 -1.241740974364802241e-04 1.112574487924575806e-01
2.100000000000000000e+02 1.870958518981933594e+01 -7.274887084960937500e+00 1.273781871795654297e+01 3.853014409542083740e-01 3.936936140060424805e+00 5.344908237457275391e+00
2.110000000000000000e+02 1.910251235961914062e+01 -7.287155151367187500e+00 1.456567764282226562e+01 3.089739322662353516e+00 5.296625137329101562e+00 7.185117244720458984e+00
2.120000000000000000e+02 1.992602348327636719e+01 -7.742642879486083984e+00 9.068638801574707031e+00 1.220230579376220703e+01 6.381283283233642578e+00 5.337940216064453125e+00
2.130000000000000000e+02 2.085205650329589844e+01 -7.570224761962890625e+00 1.096096324920654297e+01 9.372118949890136719e+00 6.099924564361572266e+00 3.632258474826812744e-01
2.140000000000000000e+02 2.043810844421386719e+01 -7.516909599304199219e+00 1.107454586029052734e+01 1.275678253173828125e+01 7.149398803710937500e+00 1.344821095466613770e+00
2.150000000000000000e+02 1.983158493041992188e+01 -5.420082569122314453e+00 -6.435748934745788574e-01 7.417325973510742188e+00 2.032125234603881836e+00 -6.012871265411376953e-01
2.160000000000000000e+02 2.057841300964355469e+01 -5.554388523101806641e+00 1.992046356201171875e+00 1.252452754974365234e+01 4.354972362518310547e+00 5.142429351806640625e+00
2.170000000000000000e+02 2.061219978332519531e+01 -5.718218326568603516e+00 3.352785348892211914e+00 1.319686508178710938e+01 4.964895248413085938e+00 6.429223537445068359e+00
2.180000000000000000e+02 2.005239105224609375e+01 -5.433028697967529297e+00 -5.813155770301818848e-01 9.902245521545410156e+00 2.796278953552246094e+00 6.152662038803100586e-01
2.190000000000000000e+02 1.911636924743652344e+01 -5.270208835601806641e+00 -7.633875608444213867e-01 4.001708328723907471e-02 -2.170111536979675293e-01 4.706711769104003906e-01
2.200000000000000000e+02 2.081675338745117188e+01 -7.201721668243408203e+00 1.432826423645019531e+01 9.613364219665527344e+00 7.182488441467285156e+00 6.822404861450195312e-01
2.210000000000000000e+02 2.082552146911621094e+01 -5.711162567138671875e+00 4.640114784240722656e+00 1.132752704620361328e+01 4.790292263031005859e+00 6.748547554016113281e+00
2.220000000000000000e+02 2.098209381103515625e+01 -6.862108230590820312e+00 1.580589389801025391e+01 7.621984958648681641e+00 7.028363704681396484e+00 2.974937200546264648e+00
2.230000000000000000e+02 2.131313323974609375e+01 -6.606166839599609375e+00 1.334947490692138672e+01 6.029348850250244141e+00 5.813647270202636719e+00 4.460225582122802734e+00
2.240000000000000000e+02 1.960301971435546875e+01 -5.464815616607666016e+00 -3.325178325176239014e-01 3.968046188354492188e+00 1.090658426284790039e+00 -8.842782378196716309e-01
2.250000000000000000e+02 2.040478706359863281e+01 -5.542009353637695312e+00 7.791225910186767578e-01 1.278944301605224609e+01 4.070569515228271484e+00 4.031664371490478516e+00
2.260000000000000000e+02 2.114479255676269531e+01 -5.917029380798339844e+00 8.036979675292968750e+00 8.930333137512207031e+00 5.090193748474121094e+00 7.210617065429687500e+00
2.270000000000000000e+02 2.106470489501953125e+01 -5.751635551452636719e+00 6.425830841064453125e+00 9.857033729553222656e+00 4.884859561920166016e+00 7.175011157989501953e+00
2.280000000000000000e+02 2.090894699096679688e+01 -7.039567947387695312e+00 1.535268688201904297e+01 8.443340301513671875e+00 7.138808250427246094e+00 1.612323760986328125e+00
2.290000000000000000e+02 2.059925270080566406e+01 -7.423127651214599609e+00 1.234120178222656250e+01 1.154515075683593750e+01 7.165905475616455078e+00 5.636188983917236328e-01
2.300000000000000000e+02 2.121530151367187500e+01 -6.956365585327148438e+00 1.386077690124511719e+01 6.326206684112548828e+00 6.056095123291015625e+00 2.475557327270507812e+00
2.310000000000000000e+02 2.053563880920410156e+01 -7.748854160308837891e+00 9.304354667663574219e+00 1.101017665863037109e+01 6.094359397888183594e+00 1.324467062950134277e+00
2.320000000000000000e+02 2.017918395996093750e+01 -7.879158020019531250e+00 7.986311435699462891e+00 1.121407985687255859e+01 5.760117530822753906e+00 3.316290616989135742e+00
2.330000000000000000e+02 2.105501747131347656e+01 -7.300354003906250000e+00 1.275584411621093750e+01 7.567084789276123047e+00 6.096878528594970703e+00 8.436986804008483887e-01
2.340000000000000000e+02 2.091362953186035156e+01 -6.016005039215087891e+00 8.947848320007324219e+00 1.049261951446533203e+01 5.832140445709228516e+00 8.066691398620605469e+00
2.350000000000000000e+02 1.949502754211425781e+01 -7.827009677886962891e+00 9.421130180358886719e+00 8.491127014160156250e+00 5.373677253723144531e+00 7.233390808105468750e+00
2.360000000000000000e+02 2.103024291992187500e+01 -6.681913852691650391e+00 1.540373516082763672e+01 7.309208393096923828e+00 6.813882827758789062e+00 4.551259517669677734e+00
2.370000000000000000e+02 2.087338066101074219e+01 -5.849148750305175781e+00 6.655108451843261719e+00 1.109665203094482422e+01 5.325528144836425781e+00 7.664925098419189453e+00
2.380000000000000000e+02 2.126679420471191406e+01 -6.271861553192138672e+00 1.118915843963623047e+01 7.002513885498046875e+00 5.457501888275146484e+00 6.288810729980468750e+00
2.390000000000000000e+02 2.096368789672851562e+01 -5.600564479827880859e+00 4.392430305480957031e+00 1.045689487457275391e+01 4.454797744750976562e+00 6.411012649536132812e+00
2.400000000000000000e+02 2.000875282287597656e+01 -7.924631118774414062e+00 8.209146499633789062e+00 1.129709243774414062e+01 5.851871967315673828e+00 4.501824378967285156e+00
2.410000000000000000e+02 1.797457313537597656e+01 -6.556788921356201172e+00 7.187244892120361328e+00 -1.402348041534423828e+00 1.735468983650207520e+00 6.431556940078735352e-01
2.420000000000000000e+02 1.749614715576171875e+01 -4.908015251159667969e+00 -2.048490755259990692e-02 -4.877735972404479980e-01 -1.524775475263595581e-01 4.407936036586761475e-01
2.430000000000000000e+02 1.862370109558105469e+01 -5.795753002166748047e+00 2.101283788681030273e+00 -1.477494537830352783e-01 5.860603451728820801e-01 -6.192005276679992676e-01
2.440000000000000000e+02 1.763458633422851562e+01 -4.747979164123535156e+00 -5.723681449890136719e-01 -7.508016228675842285e-01 -3.969509303569793701e-01 6.662890911102294922e-01
2.450000000000000000e+02 1.838314819335937500e+01 -4.147431373596191406e+00 -1.050073623657226562e+00 -2.952802479267120361e-01 -4.036061465740203857e-01 5.950702428817749023e-01
2.460000000000000000e+02 1.879629325866699219e+01 -4.877628803253173828e+00 -8.977124691009521484e-01 -3.492757081985473633e-01 -3.740964531898498535e-01 5.846702456474304199e-01
2.470000000000000000e+02 1.882489013671875000e+01 -5.236179351806640625e+00 -1.142894387245178223e+00 -1.092716217041015625e+00 -6.706831455230712891e-01 1.115242719650268555e+00
2.480000000000000000e+02 1.926432991027832031e+01 -5.394736766815185547e+00 -5.614039301872253418e-01 6.523891091346740723e-01 2.729555219411849976e-02 7.839550822973251343e-02
2.490000000000000000e+02 1.885112190246582031e+01 -7.404275417327880859e+00 1.251642513275146484e+01 1.588521957397460938e+00 4.231484413146972656e+00 6.524831295013427734e+00
2.500000000000000000e+02 1.899404907226562500e+01 -7.533444881439208984e+00 1.209145641326904297e+01 3.030613183975219727e+00 4.536620616912841797e+00 7.250609874725341797e+00
2.510000000000000000e+02 1.842654037475585938e+01 -6.986902713775634766e+00 1.091108036041259766e+01 -1.178596019744873047e+00 2.919745445251464844e+00 2.690018415451049805e+00
2.520000000000000000e+02 1.768171501159667969e+01 -6.287034511566162109e+00 5.227899551391601562e+00 -1.183425545692443848e+00 1.213342189788818359e+00 2.158463150262832642e-01
2.530000000000000000e+02 1.782416152954101562e+01 -6.425617694854736328e+00 6.242793560028076172e+00 -1.302453756332397461e+00 1.482101917266845703e+00 4.335080087184906006e-01
2.540000000000000000e+02 1.856697082519531250e+01 -7.138172626495361328e+00 1.203131961822509766e+01 -6.591052412986755371e-01 3.411664247512817383e+00 3.761216640472412109e+00
2.550000000000000000e+02 1.725428199768066406e+01 -5.843272686004638672e+00 3.073050975799560547e+00 -9.051544666290283203e-01 6.503689289093017578e-01 2.593412697315216064e-01
2.560000000000000000e+02 1.740259170532226562e+01 -5.990078926086425781e+00 3.681629657745361328e+00 -1.046055197715759277e+00 7.906723618507385254e-01 2.490893751382827759e-01
2.570000000000000000e+02 1.805632400512695312e+01 -4.868329524993896484e+00 -6.992250680923461914e-01 -7.701167464256286621e-01 -4.408025443553924561e-01 7.742028832435607910e-01
2.580000000000000000e+02 1.739072227478027344e+01 -5.367969512939453125e+00 1.322257637977600098e+00 -6.544600725173950195e-01 2.003392875194549561e-01 1.647894084453582764e-01
2.590000000000000000e+02 1.845133781433105469e+01 -3.973671197891235352e+00 -9.645282030105590820e-01 1.647286713123321533e-01 -2.399398684501647949e-01 4.247911274433135986e-01
2.600000000000000000e+02 1.986425971984863281e+01 -4.523865222930908203e+00 -8.754274249076843262e-01 5.542092800140380859e+00 1.399999618530273438e+00 7.579501718282699585e-02
2.610000000000000000e+02 1.915755271911621094e+01 -3.850876331329345703e+00 -8.713644742965698242e-01 2.160842657089233398e+00 3.868434429168701172e-01 -1.684445142745971680e-01
2.620000000000000000e+02 1.984356117248535156e+01 -4.981756687164306641e+00 -7.705990672111511230e-01 6.030493259429931641e+00 1.577968358993530273e+00 -2.387759834527969360e-01
2.630000000000000000e+02 1.925041389465332031e+01 -4.320403575897216797e+00 -7.601463198661804199e-01 2.421874761581420898e+00 4.985185563564300537e-01 -2.594812810420989990e-01
2.640000000000000000e+02 1.843450355529785156e+01 -4.476310729980468750e+00 -1.127500891685485840e+00 -7.027576565742492676e-01 -5.490775704383850098e-01 8.676211833953857422e-01
2.650000000000000000e+02 1.796090888977050781e+01 -5.500411033630371094e+00 1.448953866958618164e+00 -5.109391808509826660e-01 2.814044058322906494e-01 -6.997955590486526489e-02
2.660000000000000000e+02 1.791165542602539062e+01 -5.857887744903564453e+00 3.312416553497314453e+00 -7.272928953170776367e-01 7.755370736122131348e-01 -2.898026406764984131e-01
2.670000000000000000e+02 1.824931716918945312e+01 -4.666911602020263672e+00 -1.510616660118103027e+00 -1.301841378211975098e+00 -8.437374234199523926e-01 1.386949658393859863e+00
2.680000000000000000e+02 1.906017303466796875e+01 -4.904601573944091797e+00 -6.453781723976135254e-01 6.503502726554870605e-01 1.491630449891090393e-03 1.443637609481811523e-01
2.690000000000000000e+02 1.858445167541503906e+01 -6.369269371032714844e+00 7.985340595245361328e+00 -9.626723527908325195e-01 2.106800556182861328e+00 -6.691522002220153809e-01
2.700000000000000000e+02 1.725282859802246094e+01 -5.533674240112304688e+00 1.927960872650146484e+00 -6.835293769836425781e-01 3.733294606208801270e-01 1.836860328912734985e-01
2.710000000000000000e+02 1.868133735656738281e+01 -6.130090713500976562e+00 5.374366283416748047e+00 -3.233061730861663818e-01 1.515318036079406738e+00 -1.265275001525878906e+00
2.720000000000000000e+02 1.829940795898437500e+01 -5.877952575683593750e+00 3.304504871368408203e+00 -4.897212386131286621e-01 8.444350957870483398e-01 -6.064301133155822754e-01
2.730000000000000000e+02 1.961463546752929688e+01 -4.892624855041503906e+00 -6.636909246444702148e-01 4.336420059204101562e+00 1.101818799972534180e+00 -3.964505791664123535e-01
2.740000000000000000e+02 1.899189758300781250e+01 -4.038341045379638672e+00 -7.975591421127319336e-01 1.504082798957824707e+00 2.119571119546890259e-01 -6.082022190093994141e-02
2.750000000000000000e+02 1.849630546569824219e+01 -6.013510704040527344e+00 4.264871120452880859e+00 -4.593528509140014648e-01 1.141655445098876953e+00 -9.817642569541931152e-01
2.760000000000000000e+02 1.811542510986328125e+01 -5.702240467071533203e+00 2.338061094284057617e+00 -5.263119935989379883e-01 5.435247421264648438e-01 -3.758671581745147705e-01
2.770000000000000000e+02 1.858540153503417969e+01 -4.616540908813476562e+00 -9.565253853797912598e-01 -5.630071163177490234e-01 -4.558597505092620850e-01 7.120601534843444824e-01
2.780000000000000000e+02 1.893475151062011719e+01 -4.348137378692626953e+00 -8.026472926139831543e-01 9.929313063621520996e-01 5.708520859479904175e-02 1.034905314445495605e-01
2.790000000000000000e+02 1.794003105163574219e+01 -6.260147571563720703e+00 5.595201015472412109e+00 -1.156385302543640137e+00 1.331644773483276367e+00 -6.601843237876892090e-02
2.800000000000000000e+02 1.794415855407714844e+01 -4.395374298095703125e+00 -1.854077577590942383e+00 -1.503389716148376465e+00 -1.007240176200866699e+00 1.557555198669433594e+00
2.810000000000000000e+02 1.751230430603027344e+01 -5.202326774597167969e+00 8.065460324287414551e-01 -4.962487816810607910e-01 9.308917820453643799e-02 2.119807302951812744e-01
2.820000000000000000e+02 1.775919151306152344e+01 -5.660325050354003906e+00 2.232115507125854492e+00 -6.510568261146545410e-01 4.743175804615020752e-01 -1.509099602699279785e-01
2.830000000000000000e+02 1.821810340881347656e+01 -4.057517528533935547e+00 -1.048273205757141113e+00 -5.389371514320373535e-01 -4.761630892753601074e-01 7.086355090141296387e-01
2.840000000000000000e+02 1.904499435424804688e+01 -4.518812179565429688e+00 -7.449343800544738770e-01 1.190904855728149414e+00 1.337911486625671387e-01 -5.937399342656135559e-02
2.850000000000000000e+02 1.846902275085449219e+01 -3.741808891296386719e+00 -8.842238187789916992e-01 4.831839501857757568e-01 -1.203119531273841858e-01 2.712749540805816650e-01
2.860000000000000000e+02 1.833845520019531250e+01 -3.893026113510131836e+00 -1.140236973762512207e+00 -1.327527314424514771e-01 -3.818969130516052246e-01 5.364311933517456055e-01
2.870000000000000000e+02 1.891099548339843750e+01 -3.570415735244750977e+00 -8.960651755332946777e-01 1.511828064918518066e+00 1.847288757562637329e-01 -1.015332788228988647e-01
2.880000000000000000e+02 1.826822090148925781e+01 -4.343520164489746094e+00 -1.323079109191894531e+00 -7.344429492950439453e-01 -6.172566413879394531e-01 9.441027641296386719e-01
2.890000000000000000e+02 1.894921493530273438e+01 -5.396958827972412109e+00 -1.105555534362792969e+00 -1.096686959266662598e+00 -6.606727838516235352e-01 1.074181795120239258e+00
2.900000000000000000e+02 1.908712577819824219e+01 -5.540727615356445312e+00 -1.053462386131286621e+00 -1.074145317077636719e+00 -6.382822990417480469e-01 1.081836462020874023e+00
2.910000000000000000e+02 1.957507324218750000e+01 -5.236759662628173828e+00 -4.672706723213195801e-01 4.006213188171386719e+00 1.061682701110839844e+00 -6.717507243156433105e-01
2.920000000000000000e+02 1.948353576660156250e+01 -5.065441608428955078e+00 -4.982317984104156494e-01 3.521758317947387695e+00 9.070579409599304199e-01 -5.725674033164978027e-01
2.930000000000000000e+02 1.736102294921875000e+01 -5.068615913391113281e+00 4.487488865852355957e-01 -5.883954167366027832e-01 -4.189395159482955933e-02 3.698363900184631348e-01
2.940000000000000000e+02 1.777422714233398438e+01 -4.885107040405273438e+00 -3.468631803989410400e-01 -5.962169170379638672e-01 -2.829240262508392334e-01 6.009980440139770508e-01
2.950000000000000000e+02 1.777097320556640625e+01 -5.163423061370849609e+00 3.561934232711791992e-01 -5.421281456947326660e-01 -5.578041076660156250e-02 3.010381162166595459e-01
2.960000000000000000e+02 1.722741127014160156e+01 -5.229994297027587891e+00 1.079872369766235352e+00 -6.009813547134399414e-01 1.436672955751419067e-01 2.758848667144775391e-01
2.970000000000000000e+02 1.791028213500976562e+01 -5.024850845336914062e+00 -1.869715899229049683e-01 -5.953162908554077148e-01 -2.346863597631454468e-01 4.589939713478088379e-01
2.980000000000000000e+02 1.803528785705566406e+01 -5.176216125488281250e+00 1.562575250864028931e-01 -5.427314639091491699e-01 -1.159421876072883606e-01 3.496866822242736816e-01
2.990000000000000000e+02 1.833235931396484375e+01 -5.159316539764404297e+00 -4.081956148147583008e-01 -6.651933193206787109e-01 -3.220166862010955811e-01 5.993776321411132812e-01
3.000000000000000000e+02 1.861936759948730469e+01 -5.449417591094970703e+00 -5.027735605835914612e-02 -4.539658725261688232e-01 -1.512729674577713013e-01 3.153921663761138916e-01
3.010000000000000000e+02 1.829936408996582031e+01 -5.505894660949707031e+00 9.944626092910766602e-01 -3.896005153656005859e-01 1.814586371183395386e-01 -9.386927634477615356e-02
3.020000000000000000e+02 1.845699882507324219e+01 -5.660165309906005859e+00 1.483370900154113770e+00 -3.223180174827575684e-01 3.483158648014068604e-01 -3.870572447776794434e-01
3.030000000000000000e+02 1.879028129577636719e+01 -5.916500568389892578e+00 2.648313999176025391e+00 -6.603953242301940918e-02 7.746823430061340332e-01 -1.013861894607543945e+00
3.040000000000000000e+02 1.891888809204101562e+01 -5.718969345092773438e+00 4.288917481899261475e-01 -1.320869326591491699e-01 8.904144167900085449e-02 -6.425274908542633057e-02
3.050000000000000000e+02 2.003015899658203125e+01 -5.092800140380859375e+00 -7.928094863891601562e-01 8.119786262512207031e+00 2.198093175888061523e+00 3.510088622570037842e-01
3.060000000000000000e+02 2.023597526550292969e+01 -5.498084545135498047e+00 -3.101473152637481689e-01 1.220665931701660156e+01 3.568953752517700195e+00 2.325919866561889648e+00
3.070000000000000000e+02 1.757742309570312500e+01 -5.501423358917236328e+00 1.739011287689208984e+00 -5.879267454147338867e-01 3.453253805637359619e-01 4.471533000469207764e-02
3.080000000000000000e+02 1.771293640136718750e+01 -5.988708496093750000e+00 3.897333383560180664e+00 -9.410752654075622559e-01 8.868774175643920898e-01 -1.985455118119716644e-02
3.090000000000000000e+02 1.782093811035156250e+01 -6.146825790405273438e+00 4.687325000762939453e+00 -1.053791284561157227e+00 1.090060114860534668e+00 3.522583469748497009e-02
3.100000000000000000e+02 1.809743690490722656e+01 -6.351561546325683594e+00 6.516597270965576172e+00 -1.173411965370178223e+00 1.602955579757690430e+00 2.151197940111160278e-02
3.110000000000000000e+02 1.943489074707031250e+01 -4.127785205841064453e+00 -8.359738588333129883e-01 3.178298950195312500e+00 7.026975154876708984e-01 -2.670018076896667480e-01
3.120000000000000000e+02 1.971647262573242188e+01 -4.394683837890625000e+00 -8.545464277267456055e-01 4.488166332244873047e+00 1.090085983276367188e+00 -1.632174253463745117e-01
3.130000000000000000e+02 1.939206504821777344e+01 -4.453964710235595703e+00 -7.776020169258117676e-01 2.952786922454833984e+00 6.525554060935974121e-01 -3.264570534229278564e-01
3.140000000000000000e+02 2.018513107299804688e+01 -5.238395690917968750e+00 -5.708688497543334961e-01 9.718926429748535156e+00 2.744417428970336914e+00 1.253148913383483887e+00
3.150000000000000000e+02 2.121314239501953125e+01 -6.093038082122802734e+00 9.785925865173339844e+00 7.996208190917968750e+00 5.334640026092529297e+00 6.953676223754882812e+00
3.160000000000000000e+02 2.113011360168457031e+01 -6.525872707366943359e+00 1.393572330474853516e+01 7.183351993560791016e+00 6.335722446441650391e+00 5.441569328308105469e+00
3.170000000000000000e+02 2.131193923950195312e+01 -6.441909790039062500e+00 1.232010173797607422e+01 6.469389915466308594e+00 5.636847496032714844e+00 5.649497032165527344e+00
3.180000000000000000e+02 2.126968383789062500e+01 -6.777024745941162109e+00 1.360562515258789062e+01 6.012444972991943359e+00 5.885421276092529297e+00 3.510851860046386719e+00
3.190000000000000000e+02 2.077963447570800781e+01 -7.383437633514404297e+00 1.272696018218994141e+01 1.000601100921630859e+01 6.819891452789306641e+00 5.842821002006530762e-01
3.200000000000000000e+02 2.096717071533203125e+01 -7.453089237213134766e+00 1.206390190124511719e+01 8.370405197143554688e+00 6.130292415618896484e+00 3.876080811023712158e-01
3.210000000000000000e+02 2.070067787170410156e+01 -7.660215854644775391e+00 1.007931232452392578e+01 1.016615867614746094e+01 6.073641300201416016e+00 7.359477877616882324e-01
3.220000000000000000e+02 2.035824012756347656e+01 -7.823468685150146484e+00 8.472406387329101562e+00 1.143256759643554688e+01 5.971492290496826172e+00 2.296243667602539062e+00
3.230000000000000000e+02 1.967410659790039062e+01 -7.882259845733642578e+00 8.636067390441894531e+00 9.805191993713378906e+00 5.532378196716308594e+00 6.531341075897216797e+00
3.240000000000000000e+02 1.924866676330566406e+01 -7.414347648620605469e+00 1.347521686553955078e+01 5.322500228881835938e+00 5.639315128326416016e+00 8.127241134643554688e+00
3.250000000000000000e+02 1.884264183044433594e+01 -7.050368309020996094e+00 1.400166225433349609e+01 -2.960597164928913116e-02 4.191617012023925781e+00 4.294304370880126953e+00
3.260000000000000000e+02 1.887547492980957031e+01 -6.850420951843261719e+00 1.453151416778564453e+01 -7.067910432815551758e-01 4.147417068481445312e+00 2.775557994842529297e+00
3.270000000000000000e+02 1.828122329711914062e+01 -6.835343837738037109e+00 9.951442718505859375e+00 -1.411728382110595703e+00 2.561914205551147461e+00 1.856067061424255371e+00
3.280000000000000000e+02 1.859893989562988281e+01 -6.785601139068603516e+00 1.149121475219726562e+01 -1.231747150421142578e+00 3.077840328216552734e+00 1.602936625480651855e+00
3.290000000000000000e+02 1.812840270996093750e+01 -6.692141056060791016e+00 8.563797950744628906e+00 -1.492566347122192383e+00 2.121369361877441406e+00 1.107383966445922852e+00
3.300000000000000000e+02 1.895406913757324219e+01 -6.023068428039550781e+00 3.467897891998291016e+00 2.206137627363204956e-01 1.106553435325622559e+00 -1.331817388534545898e+00
3.310000000000000000e+02 2.072385406494140625e+01 -5.828763484954833984e+00 5.747501373291015625e+00 1.233956050872802734e+01 5.426118373870849609e+00 7.683388710021972656e+00
3.320000000000000000e+02 1.977085304260253906e+01 -7.642969608306884766e+00 9.859855651855468750e+00 1.218728256225585938e+01 6.614141464233398438e+00 6.549078941345214844e+00
3.330000000000000000e+02 1.763632583618164062e+01 -5.041273117065429688e+00 1.402076631784439087e-01 -6.092804670333862305e-01 -1.407218426465988159e-01 3.886113464832305908e-01
3.340000000000000000e+02 1.973176002502441406e+01 -4.697494029998779297e+00 -7.906154990196228027e-01 4.902859687805175781e+00 1.233673214912414551e+00 -2.636647224426269531e-01
3.350000000000000000e+02 1.885535812377929688e+01 -3.947860002517700195e+00 -9.075270295143127441e-01 1.192117691040039062e+00 8.537718653678894043e-02 -1.821496989578008652e-03
3.360000000000000000e+02 1.855092430114746094e+01 -3.856535434722900391e+00 -1.045511484146118164e+00 4.554941654205322266e-01 -1.770051866769790649e-01 2.740304768085479736e-01
3.370000000000000000e+02 1.838675880432128906e+01 -6.240964412689208984e+00 6.201977729797363281e+00 -8.630652427673339844e-01 1.601673722267150879e+00 -5.707851052284240723e-01
3.380000000000000000e+02 1.818739318847656250e+01 -6.115955829620361328e+00 4.888787269592285156e+00 -8.723258972167968750e-01 1.204938411712646484e+00 -5.019520521163940430e-01
3.390000000000000000e+02 1.798791503906250000e+01 -6.069021701812744141e+00 4.433681488037109375e+00 -8.481072783470153809e-01 1.075672388076782227e+00 -2.750723958015441895e-01
3.400000000000000000e+02 1.871534347534179688e+01 -3.947053909301757812e+00 -9.745474457740783691e-01 8.083984851837158203e-01 -4.984467849135398865e-02 1.238889396190643311e-01
3.410000000000000000e+02 1.882849121093750000e+01 -4.203399658203125000e+00 -8.863447308540344238e-01 8.858845829963684082e-01 -1.380508329020813107e-04 1.128422990441322327e-01
3.420000000000000000e+02 1.920183372497558594e+01 -4.664685249328613281e+00 -6.526260972023010254e-01 1.802642583847045898e+00 3.450049459934234619e-01 -1.956309229135513306e-01
3.430000000000000000e+02 1.955479621887207031e+01 -4.578886508941650391e+00 -7.576425671577453613e-01 3.827318429946899414e+00 9.209027290344238281e-01 -3.302144110202789307e-01
3.440000000000000000e+02 1.767977523803710938e+01 -5.318630695343017578e+00 1.003637909889221191e+00 -5.972997546195983887e-01 1.219014525413513184e-01 1.042391508817672729e-01
3.450000000000000000e+02 1.741853141784667969e+01 -5.676784038543701172e+00 2.427335023880004883e+00 -7.801250219345092773e-01 4.941629767417907715e-01 6.500240415334701538e-02
3.460000000000000000e+02 1.857296562194824219e+01 -4.155137538909912109e+00 -1.018959164619445801e+00 1.773713976144790649e-01 -2.524763047695159912e-01 3.569712936878204346e-01
3.470000000000000000e+02 1.874521446228027344e+01 -4.080447196960449219e+00 -8.255848288536071777e-01 7.947292327880859375e-01 -9.256677702069282532e-03 1.352259516716003418e-01
3.480000000000000000e+02 1.786156082153320312e+01 -5.311863899230957031e+00 8.011435270309448242e-01 -4.936248362064361572e-01 9.225559979677200317e-02 1.124051436781883240e-01
3.490000000000000000e+02 1.879961204528808594e+01 -4.649451732635498047e+00 -8.058377504348754883e-01 1.160347834229469299e-01 -2.069408744573593140e-01 4.260060787200927734e-01
3.500000000000000000e+02 1.873903083801269531e+01 -4.475243091583251953e+00 -9.232622385025024414e-01 3.220456540584564209e-01 -1.803649663925170898e-01 3.321069478988647461e-01
3.510000000000000000e+02 1.921741485595703125e+01 -5.138169765472412109e+00 -5.336373448371887207e-01 1.136098742485046387e+00 1.807384341955184937e-01 -6.849562376737594604e-02
3.520000000000000000e+02 1.903454017639160156e+01 -5.121957302093505859e+00 -8.129934668540954590e-01 2.409659139811992645e-02 -2.366690635681152344e-01 4.423404932022094727e-01
3.530000000000000000e+02 1.928976631164550781e+01 -4.966226100921630859e+00 -4.548369348049163818e-01 2.041064262390136719e+00 4.758681654930114746e-01 -3.772789537906646729e-01
3.540000000000000000e+02 1.938271522521972656e+01 -5.227477073669433594e+00 -4.149321019649505615e-01 2.119798898696899414e+00 5.114600658416748047e-01 -5.108258724212646484e-01
3.550000000000000000e+02 1.863053512573242188e+01 -4.325827598571777344e+00 -9.169407486915588379e-01 1.850759238004684448e-01 -2.195594459772109985e-01 3.817786872386932373e-01
3.560000000000000000e+02 1.765428924560546875e+01 -4.173908710479736328e+00 -1.883793234825134277e+00 -1.232737302780151367e+00 -9.349591732025146484e-01 1.505132198333740234e+00
3.570000000000000000e+02 1.807852554321289062e+01 -3.769726753234863281e+00 -9.982618689537048340e-01 -4.252639412879943848e-01 -4.270577430725097656e-01 6.517411470413208008e-01
3.580000000000000000e+02 1.646879959106445312e+01 -2.947299003601074219e+00 -1.825703263282775879e+00 -9.339578747749328613e-01 -8.278983831405639648e-01 1.321527600288391113e+00
3.590000000000000000e+02 1.762238311767578125e+01 -3.628245353698730469e+00 -1.496585249900817871e+00 -8.849831819534301758e-01 -7.144705057144165039e-01 1.084562063217163086e+00
3.600000000000000000e+02 1.680763435363769531e+01 -2.276536703109741211e+00 -1.376193761825561523e+00 -5.079030990600585938e-01 -5.652290582656860352e-01 7.991598844528198242e-01
3.610000000000000000e+02 1.792615890502929688e+01 -2.946662664413452148e+00 -1.026932835578918457e+00 5.760474503040313721e-02 -2.907984256744384766e-01 3.879878818988800049e-01
3.620000000000000000e+02 1.823827552795410156e+01 -3.590592384338378906e+00 -1.196413636207580566e+00 -2.707388997077941895e-02 -3.670462667942047119e-01 5.511484146118164062e-01
3.630000000000000000e+02 1.845363998413085938e+01 -3.207556486129760742e+00 -9.289264082908630371e-01 8.015277981758117676e-01 -3.821957111358642578e-02 1.076984405517578125e-01
3.640000000000000000e+02 1.626925659179687500e+01 -1.878478288650512695e+00 -1.437814831733703613e+00 -5.388346910476684570e-01 -5.929948687553405762e-01 7.958108782768249512e-01
3.650000000000000000e+02 1.588610553741455078e+01 -2.516049861907958984e+00 -2.022102832794189453e+00 -1.006890654563903809e+00 -9.086980819702148438e-01 1.352370023727416992e+00
3.660000000000000000e+02 1.706605720520019531e+01 -3.361272811889648438e+00 -1.751024842262268066e+00 -9.548704028129577637e-01 -8.117685914039611816e-01 1.259164333343505859e+00
3.670000000000000000e+02 1.762885475158691406e+01 -3.960831642150878906e+00 -1.809720873832702637e+00 -1.146230578422546387e+00 -8.867854475975036621e-01 1.361707091331481934e+00
3.680000000000000000e+02 1.797977638244628906e+01 -3.953863859176635742e+00 -1.396119236946105957e+00 -6.030015945434570312e-01 -5.997362732887268066e-01 8.413715958595275879e-01
3.690000000000000000e+02 1.788014602661132812e+01 -4.098414897918701172e+00 -1.469604253768920898e+00 -1.121973037719726562e+00 -7.774731516838073730e-01 1.277792572975158691e+00
3.700000000000000000e+02 1.836363983154296875e+01 -3.420423269271850586e+00 -9.868536591529846191e-01 5.663073062896728516e-01 -1.261639147996902466e-01 1.820269227027893066e-01
3.710000000000000000e+02 1.795541381835937500e+01 -3.340459823608398438e+00 -1.281527042388916016e+00 -1.864122748374938965e-01 -4.403817951679229736e-01 5.648034214973449707e-01
3.720000000000000000e+02 1.736057281494140625e+01 -2.657319784164428711e+00 -1.142452836036682129e+00 -3.000595569610595703e-01 -4.327537119388580322e-01 6.351509690284729004e-01
3.730000000000000000e+02 1.497913169860839844e+01 -1.092790365219116211e+00 -1.536155462265014648e+00 -6.402384638786315918e-01 -6.529181599617004395e-01 9.420848488807678223e-01
3.740000000000000000e+02 1.566169452667236328e+01 -1.481285929679870605e+00 -1.453915357589721680e+00 -6.543283462524414062e-01 -6.324731111526489258e-01 8.575673103332519531e-01
3.750000000000000000e+02 1.360982322692871094e+01 -3.235010504722595215e-01 -1.555798411369323730e+00 -5.835739970207214355e-01 -6.418117284774780273e-01 8.466953039169311523e-01
3.760000000000000000e+02 1.394003677368164062e+01 -1.356149435043334961e+00 -2.035999059677124023e+00 -6.900939941406250000e-01 -8.178278803825378418e-01 1.172931075096130371e+00
3.770000000000000000e+02 1.526644039154052734e+01 -2.107936620712280273e+00 -2.138367176055908203e+00 -8.806443214416503906e-01 -9.057034850120544434e-01 1.298348069190979004e+00
3.780000000000000000e+02 1.327490711212158203e+01 -9.841976165771484375e-01 -2.121146917343139648e+00 -6.725427508354187012e-01 -8.381069302558898926e-01 1.126055717468261719e+00
3.790000000000000000e+02 1.460399055480957031e+01 -1.730789542198181152e+00 -2.067624092102050781e+00 -7.245549559593200684e-01 -8.376536965370178223e-01 1.212816357612609863e+00
3.800000000000000000e+02 1.429506587982177734e+01 -7.068015336990356445e-01 -1.598672866821289062e+00 -5.888319611549377441e-01 -6.562514305114746094e-01 9.061018824577331543e-01
3.810000000000000000e+02 1.136861705780029297e+01 6.672526597976684570e-01 -1.518941998481750488e+00 -4.287355542182922363e-01 -5.843032598495483398e-01 6.826592087745666504e-01
3.820000000000000000e+02 1.043688488006591797e+01 2.462611943483352661e-01 -2.014625549316406250e+00 -4.027922451496124268e-01 -7.252253293991088867e-01 6.932767629623413086e-01
3.830000000000000000e+02 1.187135696411132812e+01 -3.428127467632293701e-01 -1.967342853546142578e+00 -4.261308312416076660e-01 -7.180420756340026855e-01 8.876829743385314941e-01
3.840000000000000000e+02 1.258574008941650391e+01 -6.459255814552307129e-01 -2.111711502075195312e+00 -5.542066097259521484e-01 -7.997754812240600586e-01 1.016771197319030762e+00
3.850000000000000000e+02 1.288842964172363281e+01 2.964896708726882935e-02 -1.512511253356933594e+00 -5.816328525543212891e-01 -6.282432079315185547e-01 8.253329992294311523e-01
3.860000000000000000e+02 1.060655117034912109e+01 9.770575761795043945e-01 -1.292817711830139160e+00 -4.667580425739288330e-01 -5.278727412223815918e-01 5.609170198440551758e-01
3.870000000000000000e+02 1.212970542907714844e+01 3.511690795421600342e-01 -1.501198291778564453e+00 -4.966898858547210693e-01 -5.993664264678955078e-01 8.162378668785095215e-01
3.880000000000000000e+02 1.115460968017578125e+01 -4.513646289706230164e-02 -1.881805777549743652e+00 -3.708880841732025146e-01 -6.758081912994384766e-01 8.302031755447387695e-01
3.890000000000000000e+02 9.852642059326171875e+00 1.127630591392517090e+00 -1.156853795051574707e+00 -4.124975800514221191e-01 -4.708054065704345703e-01 6.156782507896423340e-01
3.900000000000000000e+02 8.934872627258300781e+00 3.838182985782623291e-01 -1.287943124771118164e+00 -1.184854563325643539e-02 -3.899374902248382568e-01 1.755591183900833130e-01
3.910000000000000000e+02 8.173450469970703125e+00 3.805501163005828857e-01 -9.795606732368469238e-01 -2.836773172020912170e-02 -3.023785352706909180e-01 1.289500445127487183e-01
3.920000000000000000e+02 7.412311553955078125e+00 3.753646016120910645e-01 -7.491259574890136719e-01 -7.322448771446943283e-03 -2.269345223903656006e-01 9.702187776565551758e-02
3.930000000000000000e+02 6.650998115539550781e+00 3.733131885528564453e-01 -5.648190975189208984e-01 -9.146980941295623779e-03 -1.721898168325424194e-01 7.855172455310821533e-02
3.940000000000000000e+02 5.128285408020019531e+00 3.666158020496368408e-01 -2.891146838665008545e-01 -6.087833084166049957e-03 -8.856076002120971680e-02 5.315204337239265442e-02
3.950000000000000000e+02 4.367387771606445312e+00 3.671060204505920410e-01 -1.854941844940185547e-01 -3.538731252774596214e-03 -5.670987442135810852e-02 4.371220618486404419e-02
3.960000000000000000e+02 2.846023797988891602e+00 3.604519069194793701e-01 -4.251036047935485840e-02 -5.496403668075799942e-03 -1.440202910453081131e-02 2.369319833815097809e-02
3.970000000000000000e+02 2.087270259857177734e+00 3.580870926380157471e-01 -7.290408015251159668e-03 -4.932991694658994675e-03 -3.667020006105303764e-03 1.195070892572402954e-02
3.980000000000000000e+02 2.412720918655395508e+00 1.098087072372436523e+00 -6.369559466838836670e-02 -2.664899639785289764e-02 -2.710337750613689423e-02 5.484035238623619080e-02
3.990000000000000000e+02 1.683379054069519043e+00 1.107025504112243652e+00 -2.750576287508010864e-02 -2.546973153948783875e-02 -1.589264906942844391e-02 2.682687714695930481e-02
4.000000000000000000e+02 3.580766618251800537e-01 9.541204571723937988e-01 -1.738179824315011501e-03 1.471784315072000027e-03 -7.991863094503059983e-05 -8.473713533021509647e-04
4.010000000000000000e+02 1.340980529785156250e+00 3.670255243778228760e-01 2.715060487389564514e-03 -4.549207165837287903e-03 -5.502439453266561031e-04 1.543341903015971184e-03
4.020000000000000000e+02 3.154525995254516602e+00 1.100451946258544922e+00 -1.141700893640518188e-01 -2.407720312476158142e-02 -4.147418960928916931e-02 8.357310295104980469e-02
4.030000000000000000e+02 3.606339454650878906e+00 3.666762709617614746e-01 -1.029126569628715515e-01 -4.228006117045879364e-03 -3.214219957590103149e-02 3.487072512507438660e-02
4.040000000000000000e+02 5.385943889617919922e+00 1.106615781784057617e+00 -3.519341647624969482e-01 -2.307427115738391876e-02 -1.125025302171707153e-01 1.666875332593917847e-01
4.050000000000000000e+02 5.889441013336181641e+00 3.716900944709777832e-01 -4.146250486373901367e-01 -4.641417879611253738e-03 -1.257799416780471802e-01 6.547290086746215820e-02
4.060000000000000000e+02 7.619125843048095703e+00 1.115364551544189453e+00 -7.528905868530273438e-01 -6.489193439483642578e-02 -2.453347444534301758e-01 2.925730943679809570e-01
4.070000000000000000e+02 8.363317489624023438e+00 1.120550155639648438e+00 -9.312223196029663086e-01 -7.097507268190383911e-02 -3.006592094898223877e-01 3.598861396312713623e-01
4.080000000000000000e+02 9.107789993286132812e+00 1.123818278312683105e+00 -1.161309003829956055e+00 -2.072125971317291260e-01 -4.105564951896667480e-01 5.262862443923950195e-01
4.090000000000000000e+02 9.696672439575195312e+00 3.876306116580963135e-01 -1.822448611259460449e+00 -2.315468490123748779e-01 -6.161986589431762695e-01 3.813223242759704590e-01
4.100000000000000000e+02 1.020380139350891113e+00 1.131703853607177734e+00 -1.039836648851633072e-02 -1.647825539112091064e-02 -8.062986657023429871e-03 7.557719014585018158e-03
4.110000000000000000e+02 6.610335111618041992e-01 3.917038440704345703e-01 2.483500866219401360e-03 1.445232774131000042e-04 7.884072838351130486e-04 -6.872705998830497265e-04
4.120000000000000000e+02 6.874760627746582031e+00 1.113313198089599609e+00 -5.973285436630249023e-01 -3.296860679984092712e-02 -1.890891343355178833e-01 2.375611811876296997e-01
4.130000000000000000e+02 6.130151271820068359e+00 1.111690044403076172e+00 -4.643836021423339844e-01 -3.297013416886329651e-02 -1.492061316967010498e-01 1.990600824356079102e-01
4.140000000000000000e+02 4.641993999481201172e+00 1.107105970382690430e+00 -2.566020190715789795e-01 -2.479441463947296143e-02 -8.441893011331558228e-02 1.388236731290817261e-01
4.150000000000000000e+02 3.897893905639648438e+00 1.106676340103149414e+00 -1.785610914230346680e-01 -2.132229693233966827e-02 -5.996501445770263672e-02 1.114492863416671753e-01
4.160000000000000000e+02 1.356510353088378906e+01 -2.044676303863525391e+00 -1.546030044555664062e+00 -4.024450182914733887e-01 -5.845425128936767578e-01 8.068346381187438965e-01
4.170000000000000000e+02 1.321007442474365234e+01 -2.694024085998535156e+00 -1.189912319183349609e+00 -1.412312686443328857e-01 -3.993430733680725098e-01 5.873548984527587891e-01
4.180000000000000000e+02 1.258673477172851562e+01 -2.342205762863159180e+00 -1.269364237785339355e+00 -6.268702447414398193e-02 -3.996153473854064941e-01 5.365598797798156738e-01
4.190000000000000000e+02 1.420777034759521484e+01 -2.407426834106445312e+00 -1.552704215049743652e+00 -4.429798722267150879e-01 -5.987052321434020996e-01 8.699434995651245117e-01
4.200000000000000000e+02 1.383262920379638672e+01 -3.045426130294799805e+00 -1.067498207092285156e+00 -2.434563338756561279e-01 -3.932863473892211914e-01 6.628790497779846191e-01
4.210000000000000000e+02 1.445424365997314453e+01 -3.396085023880004883e+00 -9.659979343414306641e-01 -3.200804293155670166e-01 -3.858235180377960205e-01 7.397664189338684082e-01
4.220000000000000000e+02 1.484949779510498047e+01 -2.769434452056884766e+00 -1.428645610809326172e+00 -4.867144227027893066e-01 -5.746079683303833008e-01 8.901421427726745605e-01
4.230000000000000000e+02 1.292164993286132812e+01 -1.681509137153625488e+00 -1.450623512268066406e+00 -2.782992422580718994e-01 -5.186768174171447754e-01 7.105972170829772949e-01
4.240000000000000000e+02 1.208939933776855469e+01 -3.561876773834228516e+00 -7.422311902046203613e-01 2.133932709693908691e-01 -1.586513817310333252e-01 3.737583160400390625e-01
4.250000000000000000e+02 1.112777423858642578e+01 -1.386495304107666016e+01 2.580100536346435547e+00 5.872935771942138672e+00 2.535910844802856445e+00 2.916836261749267578e+00
4.260000000000000000e+02 1.281247615814208984e+01 -1.498400783538818359e+01 6.079196453094482422e+00 4.580051898956298828e+00 3.197774648666381836e+00 4.849495887756347656e+00
4.270000000000000000e+02 1.407074165344238281e+01 -1.431507778167724609e+01 5.245974063873291016e+00 2.747962951660156250e+00 2.398181200027465820e+00 3.652000427246093750e+00
4.280000000000000000e+02 1.166887378692626953e+01 -1.587278175354003906e+01 6.352481365203857422e+00 7.756581306457519531e+00 4.232718944549560547e+00 6.013522624969482422e+00
4.290000000000000000e+02 1.532737255096435547e+01 -1.369626331329345703e+01 2.532305717468261719e+00 1.534467339515686035e+00 1.220031857490539551e+00 2.645661354064941406e+00
4.300000000000000000e+02 1.867577362060546875e+01 -7.666620254516601562e+00 1.084429264068603516e+01 1.767188072204589844e+00 3.783444166183471680e+00 6.585542678833007812e+00
4.310000000000000000e+02 1.636968231201171875e+01 -5.645631313323974609e+00 2.101560115814208984e+00 -8.045656085014343262e-01 3.890983164310455322e-01 6.115636229515075684e-01
4.320000000000000000e+02 1.351776981353759766e+01 -3.632043123245239258e+00 -7.136034369468688965e-01 -6.907710433006286621e-02 -2.348041683435440063e-01 5.755987167358398438e-01
4.330000000000000000e+02 1.006297588348388672e+01 -2.086021423339843750e+00 -1.083242416381835938e+00 2.682172358036041260e-01 -2.445075362920761108e-01 1.214116141200065613e-01
4.340000000000000000e+02 8.541143417358398438e+00 -2.736470699310302734e+00 -8.621469140052795410e-01 3.391803205013275146e-01 -1.568899750709533691e-01 -1.218820586800575256e-01
4.350000000000000000e+02 3.705819129943847656e+00 -1.951225519180297852e+00 -3.709445297718048096e-01 -5.286551639437675476e-02 -1.271430104970932007e-01 -3.743595480918884277e-01
4.360000000000000000e+02 1.634100437164306641e+00 -1.060065555572509766e+01 1.068544574081897736e-02 -2.137495279312133789e+00 -6.380429267883300781e-01 -6.458027958869934082e-01
4.370000000000000000e+02 1.710453867912292480e+00 -1.751619148254394531e+01 2.218468338251113892e-01 -3.192155599594116211e+00 -8.910926580429077148e-01 -4.790278896689414978e-02
4.380000000000000000e+02 7.031955122947692871e-01 -3.182579040527343750e+01 -8.829500526189804077e-02 4.997946739196777344e+00 1.472895503044128418e+00 3.447628319263458252e-01
4.390000000000000000e+02 2.577854394912719727e+00 -3.817978286743164062e+01 -2.026410251855850220e-01 5.057908535003662109e+00 1.456580281257629395e+00 -6.466927379369735718e-02
4.400000000000000000e+02 7.947846651077270508e-01 -3.740158081054687500e+01 -1.077824085950851440e-01 5.930932044982910156e+00 1.746944904327392578e+00 -4.102180525660514832e-02
4.410000000000000000e+02 6.444231986999511719e+00 -3.880739974975585938e+01 -2.637818157672882080e-01 2.827497243881225586e+00 7.691146135330200195e-01 2.070954740047454834e-01
4.420000000000000000e+02 9.250618934631347656e+00 -3.766470718383789062e+01 -5.717393755912780762e-01 1.572094202041625977e+00 3.001064360141754150e-01 1.164290308952331543e-01
4.430000000000000000e+02 1.372036933898925781e+01 -3.031046104431152344e+01 -4.284691333770751953e+00 -9.861739873886108398e-01 -1.581259608268737793e+00 1.750780820846557617e+00
4.440000000000000000e+02 1.246612453460693359e+01 -2.964982986450195312e+01 -3.656931400299072266e+00 -1.258142948150634766e+00 -1.474522352218627930e+00 1.942162752151489258e+00
4.450000000000000000e+02 1.134119796752929688e+01 -2.880636215209960938e+01 -2.452932596206665039e+00 -8.704998493194580078e-01 -9.970297217369079590e-01 1.511227130889892578e+00
4.460000000000000000e+02 1.066404819488525391e+01 -2.995530509948730469e+01 -2.545772075653076172e+00 6.304530501365661621e-01 -5.745957493782043457e-01 6.947586536407470703e-01
4.470000000000000000e+02 1.030550098419189453e+01 -2.783213615417480469e+01 -1.453091859817504883e+00 1.491992771625518799e-01 -3.911677598953247070e-01 7.872088551521301270e-01
4.480000000000000000e+02 6.525208950042724609e-01 -2.616281700134277344e+01 -7.370673120021820068e-02 3.713016211986541748e-01 8.927845954895019531e-02 7.111563086509704590e-01
4.490000000000000000e+02 7.904622077941894531e+00 -2.143408584594726562e+01 2.256211042404174805e+00 1.154198837280273438e+01 4.139459609985351562e+00 2.926468133926391602e+00
4.500000000000000000e+02 9.426730155944824219e+00 -1.936661529541015625e+01 2.856723308563232422e+00 1.231414890289306641e+01 4.551261901855468750e+00 5.517119407653808594e+00
4.510000000000000000e+02 7.787441730499267578e+00 -1.949224853515625000e+01 2.402796268463134766e+00 8.484780311584472656e+00 3.266272783279418945e+00 2.466931819915771484e+00
4.520000000000000000e+02 1.713640975952148438e+01 -3.781344223022460938e+01 -8.962785005569458008e-01 -5.701190829277038574e-01 -4.399192631244659424e-01 4.706020057201385498e-01
4.530000000000000000e+02 2.062335014343261719e+01 -3.765108489990234375e+01 -1.284524321556091309e+00 -4.884311258792877197e-01 -5.318866372108459473e-01 3.892970383167266846e-01
4.540000000000000000e+02 2.348876190185546875e+01 -3.137537956237792969e+01 -1.884980559349060059e+00 2.116885781288146973e-02 -5.591434836387634277e-01 1.070258766412734985e-01
4.550000000000000000e+02 1.604985427856445312e+01 -3.257483291625976562e+01 -2.632920503616333008e+00 -6.294449567794799805e-01 -9.787096381187438965e-01 9.248547554016113281e-01
4.560000000000000000e+02 1.642910194396972656e+01 -3.120608329772949219e+01 -3.885789871215820312e+00 -3.817127943038940430e-01 -1.280250787734985352e+00 9.069157242774963379e-01
4.570000000000000000e+02 2.304096031188964844e+01 -4.093674087524414062e+01 -1.122143626213073730e+00 -5.044124722480773926e-01 -4.879668354988098145e-01 9.011437743902206421e-02
4.580000000000000000e+02 2.858076667785644531e+01 -3.199419403076171875e+01 -1.911036610603332520e+00 7.721180736552923918e-06 -5.733087062835693359e-01 1.653309762477874756e-01
4.590000000000000000e+02 2.458736228942871094e+01 -3.549569320678710938e+01 -1.721761941909790039e+00 -1.633549034595489502e-01 -5.655350089073181152e-01 2.529902756214141846e-01
4.600000000000000000e+02 3.338990020751953125e+01 -3.566374206542968750e+01 -1.882383584976196289e+00 -1.770940274000167847e-01 -6.178432703018188477e-01 -2.499907612800598145e-01
4.610000000000000000e+02 3.277342987060546875e+01 -3.259265136718750000e+01 -2.561036348342895508e+00 1.364226639270782471e-02 -7.642182707786560059e-01 5.108902454376220703e-01
4.620000000000000000e+02 3.143572616577148438e+01 -3.242596817016601562e+01 -2.217001914978027344e+00 2.373273670673370361e-02 -6.579807996749877930e-01 3.063598275184631348e-01
4.630000000000000000e+02 3.834055328369140625e+01 -4.103452301025390625e+01 -1.313537836074829102e+00 1.685842156410217285e+00 1.116913035511970520e-01 1.613883525133132935e-01
4.640000000000000000e+02 3.977802658081054688e+01 -3.204668807983398438e+01 -1.371987700462341309e+00 8.354306817054748535e-01 -1.609670966863632202e-01 2.787680923938751221e-01
4.650000000000000000e+02 3.537509536743164062e+01 -3.323636245727539062e+01 -3.633098363876342773e+00 -2.206181734800338745e-01 -1.156114935874938965e+00 -8.208487927913665771e-02
4.660000000000000000e+02 3.398936462402343750e+01 -3.296909332275390625e+01 -3.246635437011718750e+00 -3.500688076019287109e-01 -1.079011201858520508e+00 2.397460043430328369e-01
4.670000000000000000e+02 4.291990661621093750e+01 -3.838291168212890625e+01 -1.966436982154846191e+00 4.525431156158447266e+00 7.676982879638671875e-01 3.797883093357086182e-01
4.680000000000000000e+02 4.097979354858398438e+01 -3.138860893249511719e+01 -1.879976093769073486e-01 4.060532093048095703e+00 1.161760449409484863e+00 1.206643462181091309e+00
4.690000000000000000e+02 4.229264450073242188e+01 -2.937063598632812500e+01 8.227272629737854004e-01 9.757823944091796875e+00 3.174165248870849609e+00 1.417945623397827148e+00
4.700000000000000000e+02 4.738624191284179688e+01 -4.098308944702148438e+01 -2.102885484695434570e+00 6.191170692443847656e+00 1.226485490798950195e+00 -1.410648133605718613e-02
4.710000000000000000e+02 4.916744232177734375e+01 -3.667568969726562500e+01 -1.351122021675109863e+00 6.448512077331542969e+00 1.529217123985290527e+00 -4.623180925846099854e-01
4.720000000000000000e+02 5.379599761962890625e+01 -2.969857025146484375e+01 2.148007154464721680e+00 6.985898017883300781e+00 2.740171432495117188e+00 -2.208392381668090820e+00
4.730000000000000000e+02 5.555546188354492188e+01 -2.943935203552246094e+01 7.005247473716735840e-01 8.339764595031738281e+00 2.712086915969848633e+00 1.520125716924667358e-01
4.740000000000000000e+02 5.519659042358398438e+01 -2.807413101196289062e+01 1.356998443603515625e+00 6.269338130950927734e+00 2.287900924682617188e+00 1.097358837723731995e-01
4.750000000000000000e+02 5.944408035278320312e+01 -2.466654205322265625e+01 2.152109384536743164e+00 1.387763857841491699e+00 1.061961889266967773e+00 1.689924597740173340e+00
4.760000000000000000e+02 5.483391189575195312e+01 -1.620644950866699219e+01 -4.286735057830810547e+00 -8.944134116172790527e-01 -1.554344534873962402e+00 1.497266173362731934e+00
4.770000000000000000e+02 5.640885543823242188e+01 -1.664676666259765625e+01 -4.370364189147949219e+00 -5.220595002174377441e-01 -1.467727065086364746e+00 9.341636300086975098e-01
4.780000000000000000e+02 5.198537445068359375e+01 -1.282115268707275391e+01 -2.062726616859436035e-01 2.147897243499755859e+00 5.824873447418212891e-01 -2.786376178264617920e-01
4.790000000000000000e+02 5.100597763061523438e+01 -1.326442623138427734e+01 -7.866690158843994141e-01 3.236564636230468750e+00 7.349687218666076660e-01 7.244522869586944580e-02
4.800000000000000000e+02 4.857770538330078125e+01 -6.697495937347412109e+00 1.763031333684921265e-01 4.929131031036376953e+00 1.531630158424377441e+00 -1.338739991188049316e+00
4.810000000000000000e+02 4.603794097900390625e+01 -3.773394525051116943e-01 6.534442305564880371e-01 5.282569408416748047e+00 1.780804038047790527e+00 -2.126056194305419922e+00
4.820000000000000000e+02 4.542304992675781250e+01 8.588928580284118652e-01 8.244234323501586914e-01 5.469505786895751953e+00 1.888178706169128418e+00 -2.322850465774536133e+00
4.830000000000000000e+02 4.277252578735351562e+01 9.030561447143554688e+00 1.605409502983093262e+00 1.206669807434082031e+01 4.101632118225097656e+00 -3.440372467041015625e+00
4.840000000000000000e+02 4.109783554077148438e+01 1.163639354705810547e+01 1.373279452323913574e+00 1.110595417022705078e+01 3.743770122528076172e+00 -9.396677613258361816e-01
4.850000000000000000e+02 4.236432266235351562e+01 1.616317939758300781e+01 6.409305334091186523e-01 1.133805561065673828e+01 3.593695878982543945e+00 1.421099066734313965e+00
4.860000000000000000e+02 4.303203201293945312e+01 1.902056121826171875e+01 7.458825707435607910e-01 9.359597206115722656e+00 3.031643867492675781e+00 2.198960542678833008e+00
4.870000000000000000e+02 4.452127838134765625e+01 2.308336067199707031e+01 1.285781860351562500e+00 7.121633052825927734e+00 2.522224426269531250e+00 2.718100309371948242e+00
4.880000000000000000e+02 3.635381317138671875e+01 3.003554534912109375e+01 -5.195602774620056152e-01 5.101911544799804688e+00 1.374705314636230469e+00 -2.290043383836746216e-01
4.890000000000000000e+02 2.779214286804199219e+01 4.088958740234375000e+01 -9.265923500061035156e-01 3.887024402618408203e+00 8.881296515464782715e-01 -7.259411364793777466e-02
4.900000000000000000e+02 1.776081657409667969e+01 4.014262008666992188e+01 -4.244579672813415527e-01 2.121619224548339844e+00 5.091483592987060547e-01 -1.115057393908500671e-01
4.910000000000000000e+02 2.292599868774414062e+01 4.039242935180664062e+01 -6.530273556709289551e-01 3.025350093841552734e+00 7.116968035697937012e-01 -1.137335598468780518e-01
4.920000000000000000e+02 1.799051284790039062e+01 3.569306564331054688e+01 -3.383853733539581299e-01 2.120253086090087891e+00 5.345603227615356445e-01 -2.917293012142181396e-01
4.930000000000000000e+02 1.742842864990234375e+01 2.903291893005371094e+01 -3.847517073154449463e-02 1.892629504203796387e+00 5.562463402748107910e-01 -4.469545185565948486e-01
4.940000000000000000e+02 1.570337772369384766e+01 2.247673416137695312e+01 2.843092083930969238e-01 1.369193673133850098e+00 4.960508644580841064e-01 -3.677403628826141357e-01
4.950000000000000000e+02 1.334390640258789062e+01 1.796794700622558594e+01 3.997739553451538086e-01 7.674558758735656738e-01 3.501689434051513672e-01 -1.680924594402313232e-01
4.960000000000000000e+02 1.649338150024414062e+01 6.847534179687500000e+00 3.610682189464569092e-01 8.857977390289306641e-01 3.740597665309906006e-01 -4.211303964257240295e-02
4.970000000000000000e+02 1.082422733306884766e+01 1.827222108840942383e+00 -8.243935704231262207e-01 -4.866862297058105469e-01 -3.933239579200744629e-01 6.139280200004577637e-01
4.980000000000000000e+02 1.392177200317382812e+01 3.049504458904266357e-01 -1.150613188743591309e+00 -5.050275325775146484e-01 -4.966922402381896973e-01 6.704283952713012695e-01
4.990000000000000000e+02 1.659348487854003906e+01 -1.302763342857360840e+00 -1.049926757812500000e+00 -2.133937925100326538e-01 -3.789961636066436768e-01 4.778604209423065186e-01
5.000000000000000000e+02 1.887919425964355469e+01 -3.161784410476684570e+00 -8.761060237884521484e-01 1.645482301712036133e+00 2.308128774166107178e-01 -1.070689931511878967e-01
5.010000000000000000e+02 2.133942794799804688e+01 -5.545781612396240234e+00 5.213138103485107422e+00 8.332564353942871094e+00 4.063710689544677734e+00 6.238468647003173828e+00
5.020000000000000000e+02 2.153777313232421875e+01 -5.979442119598388672e+00 8.418299674987792969e+00 6.603183746337890625e+00 4.506444931030273438e+00 6.117480278015136719e+00
5.030000000000000000e+02 2.153403282165527344e+01 -7.076199531555175781e+00 1.195764827728271484e+01 5.045918941497802734e+00 5.101069927215576172e+00 1.996789693832397461e+00
5.040000000000000000e+02 2.135850524902343750e+01 -7.484039783477783203e+00 1.097235679626464844e+01 6.046825408935546875e+00 5.105754852294921875e+00 6.030769944190979004e-01
5.050000000000000000e+02 2.108042144775390625e+01 -7.832674980163574219e+00 9.266958236694335938e+00 7.662269592285156250e+00 5.078768253326416016e+00 2.459857016801834106e-01
5.060000000000000000e+02 2.372330284118652344e+01 -1.439182758331298828e+01 -8.073496818542480469e+00 -1.258428096771240234e+00 -2.799577474594116211e+00 2.589787006378173828e+00
5.070000000000000000e+02 2.005913925170898438e+01 -8.324575424194335938e+00 5.918595790863037109e+00 8.954468727111816406e+00 4.461919307708740234e+00 4.066061496734619141e+00
5.080000000000000000e+02 1.913335609436035156e+01 -8.065122604370117188e+00 8.353183746337890625e+00 5.186165332794189453e+00 4.061804771423339844e+00 7.336190223693847656e+00
5.090000000000000000e+02 5.785099792480468750e+01 -3.613313674926757812e+01 -2.356571555137634277e-01 3.851680994033813477e+00 1.084807157516479492e+00 -2.133455038070678711e+00
5.100000000000000000e+02 6.154213714599609375e+01 -4.087230300903320312e+01 7.038173079490661621e-01 1.403835773468017578e+00 6.322959065437316895e-01 -3.154284060001373291e-01
5.110000000000000000e+02 5.842457580566406250e+01 -3.444164657592773438e+01 1.297995090484619141e+00 2.550260305404663086e+00 1.154476642608642578e+00 -2.028632402420043945e+00
5.120000000000000000e+02 5.639941024780273438e+01 -3.256764984130859375e+01 2.506608724594116211e+00 8.501899719238281250e+00 3.302552461624145508e+00 -3.714190959930419922e+00
5.130000000000000000e+02 5.540919494628906250e+01 -3.368614959716796875e+01 7.936532497406005859e-01 6.522727489471435547e+00 2.194914102554321289e+00 -1.271083235740661621e+00
5.140000000000000000e+02 6.139629364013671875e+01 -3.704935073852539062e+01 2.510783672332763672e-01 5.172383785247802734e-01 2.304950356483459473e-01 -6.844534277915954590e-01
5.150000000000000000e+02 6.281209564208984375e+01 -3.504598236083984375e+01 -1.501737713813781738e+00 -1.533226668834686279e-01 -4.965181052684783936e-01 -2.824413478374481201e-01
5.160000000000000000e+02 6.414964294433593750e+01 -3.470661163330078125e+01 -1.649731636047363281e+00 8.281014859676361084e-02 -4.700764417648315430e-01 -3.442303538322448730e-01
5.170000000000000000e+02 6.133933258056640625e+01 -3.507526779174804688e+01 -1.148140549659729004e+00 1.334305703639984131e-01 -3.044129908084869385e-01 -3.200387060642242432e-01
5.180000000000000000e+02 5.984372329711914062e+01 -3.489457321166992188e+01 -2.001969069242477417e-01 6.570903062820434570e-01 1.370680183172225952e-01 -8.726160526275634766e-01
5.190000000000000000e+02 6.800012207031250000e+01 -3.565284729003906250e+01 -3.217387199401855469e-01 1.918399214744567871e+00 4.789981544017791748e-01 8.148585557937622070e-01
5.200000000000000000e+02 7.047068786621093750e+01 -3.528316116333007812e+01 -6.833239197731018066e-01 4.406001567840576172e+00 1.116803407669067383e+00 9.734893441200256348e-01
5.210000000000000000e+02 7.010204315185546875e+01 -3.110127830505371094e+01 1.197818875312805176e+00 4.479936599731445312e+00 1.703326702117919922e+00 2.145543336868286133e+00
5.220000000000000000e+02 7.023993682861328125e+01 -3.313536071777343750e+01 -4.602504372596740723e-01 4.459148406982421875e+00 1.199669480323791504e+00 1.173267602920532227e+00
5.230000000000000000e+02 6.813843536376953125e+01 -3.316322708129882812e+01 -3.247215747833251953e-01 1.172991752624511719e+00 2.544810473918914795e-01 4.670540988445281982e-01
5.240000000000000000e+02 7.812032318115234375e+01 -4.177169418334960938e+01 2.942484319210052490e-01 8.010128974914550781e+00 2.491313219070434570e+00 8.264154940843582153e-02
5.250000000000000000e+02 7.786287689208984375e+01 -3.626733398437500000e+01 -8.486679941415786743e-02 7.812002182006835938e+00 2.318140506744384766e+00 -2.958949506282806396e-01
5.260000000000000000e+02 7.812933349609375000e+01 -2.947329330444335938e+01 1.205252781510353088e-01 6.870976448059082031e+00 2.097450494766235352e+00 -4.981291890144348145e-01
5.270000000000000000e+02 7.379727935791015625e+01 -2.582536888122558594e+01 1.167753815650939941e+00 9.130911827087402344e+00 3.089599609375000000e+00 2.893473207950592041e-01
5.280000000000000000e+02 7.813629913330078125e+01 -1.549913024902343750e+01 -9.257111698389053345e-02 7.683406352996826172e+00 2.277250528335571289e+00 -1.596320122480392456e-01
5.290000000000000000e+02 7.806906890869140625e+01 -8.501609802246093750e+00 -2.284481562674045563e-02 6.763582229614257812e+00 2.022221088409423828e+00 -4.397890269756317139e-01
5.300000000000000000e+02 7.818415069580078125e+01 -1.462074398994445801e+00 9.059468656778335571e-02 5.759418964385986328e+00 1.755004167556762695e+00 -2.912092208862304688e-01
5.310000000000000000e+02 7.813594055175781250e+01 5.467644691467285156e+00 7.845396548509597778e-02 5.984919548034667969e+00 1.819012045860290527e+00 3.508846759796142578e-01
5.320000000000000000e+02 7.820111083984375000e+01 1.241120052337646484e+01 -4.088957607746124268e-02 7.116382598876953125e+00 2.122648000717163086e+00 3.657398223876953125e-01
5.330000000000000000e+02 7.817926025390625000e+01 1.935963821411132812e+01 1.349048782140016556e-02 8.013962745666503906e+00 2.408236026763916016e+00 3.181300163269042969e-01
5.340000000000000000e+02 7.698690032958984375e+01 2.361857795715332031e+01 5.935615301132202148e-02 8.524246215820312500e+00 2.575080633163452148e+00 5.875977277755737305e-01
5.350000000000000000e+02 7.934580230712890625e+01 3.194345092773437500e+01 -2.253548242151737213e-03 1.092953586578369141e+01 3.278184890747070312e+00 1.563808619976043701e-01
5.360000000000000000e+02 7.664739227294921875e+01 3.941517257690429688e+01 -9.418576210737228394e-02 1.008404159545898438e+01 2.996956586837768555e+00 1.394244376569986343e-02
5.370000000000000000e+02 7.911570739746093750e+01 3.744783020019531250e+01 -2.755234576761722565e-02 1.112849426269531250e+01 3.330282688140869141e+00 -9.787547588348388672e-02
5.380000000000000000e+02 7.190846252441406250e+01 4.129814529418945312e+01 5.829614028334617615e-02 5.699109554290771484e+00 1.727221608161926270e+00 -3.170393779873847961e-02
5.390000000000000000e+02 7.035681915283203125e+01 3.653236770629882812e+01 -4.708645045757293701e-01 4.476152896881103516e+00 1.201586604118347168e+00 -1.999638229608535767e-01
5.400000000000000000e+02 6.766677856445312500e+01 3.105706214904785156e+01 -3.293091058731079102e-01 1.198112607002258301e+00 2.606410384178161621e-01 -1.840943098068237305e-01
5.410000000000000000e+02 6.676647949218750000e+01 3.216370010375976562e+01 -8.307116031646728516e-01 1.896284818649291992e-01 -1.923249363899230957e-01 4.011850059032440186e-01
5.420000000000000000e+02 6.846280670166015625e+01 2.987426757812500000e+01 1.481085717678070068e-01 3.018713712692260742e+00 9.500467181205749512e-01 -7.589579820632934570e-01
5.430000000000000000e+02 6.904541778564453125e+01 2.856484603881835938e+01 3.291500806808471680e-01 4.891756534576416016e+00 1.566271901130676270e+00 -9.818953871726989746e-01
5.440000000000000000e+02 6.972499847412109375e+01 2.575981712341308594e+01 2.597011029720306396e-01 7.734820365905761719e+00 2.398356437683105469e+00 -6.444374322891235352e-01
5.450000000000000000e+02 7.939384460449218750e+01 2.366643714904785156e+01 -3.650746541097760201e-03 8.768055915832519531e+00 2.629321575164794922e+00 1.804324239492416382e-01
5.460000000000000000e+02 6.211901473999023438e+01 3.546276855468750000e+01 -1.664254069328308105e+00 -2.799928486347198486e-01 -5.832740664482116699e-01 6.585546135902404785e-01
5.470000000000000000e+02 6.067250442504882812e+01 3.591792297363281250e+01 -1.473942995071411133e+00 -2.688845694065093994e-01 -5.228482484817504883e-01 4.323657751083374023e-01
5.480000000000000000e+02 6.306990051269531250e+01 3.704518127441406250e+01 -6.797705888748168945e-01 -5.493448972702026367e-01 -3.687346577644348145e-01 4.848608076572418213e-01
5.490000000000000000e+02 6.350830841064453125e+01 3.498949813842773438e+01 -2.054680347442626953e+00 -6.038155555725097656e-01 -7.975487709045410156e-01 8.882654905319213867e-01
5.500000000000000000e+02 6.455358886718750000e+01 3.651093292236328125e+01 -5.163995027542114258e-01 7.633937150239944458e-02 -1.320180445909500122e-01 2.767399847507476807e-01
5.510000000000000000e+02 5.729506301879882812e+01 3.625467681884765625e+01 -1.221854329109191895e+00 -1.468197256326675415e-01 -4.106022119522094727e-01 5.201401934027671814e-02
5.520000000000000000e+02 5.906768417358398438e+01 3.628436660766601562e+01 -1.461049795150756836e+00 -1.961442381143569946e-01 -4.971581995487213135e-01 2.508572041988372803e-01
5.530000000000000000e+02 5.154226303100585938e+01 3.871939849853515625e+01 -5.529181361198425293e-01 1.367974638938903809e+00 2.445169538259506226e-01 3.398582339286804199e-01
5.540000000000000000e+02 4.922183990478515625e+01 3.443475723266601562e+01 -4.204514622688293457e-01 2.230404615402221680e+00 5.429859161376953125e-01 7.091347575187683105e-01
5.550000000000000000e+02 4.906959152221679688e+01 3.020602989196777344e+01 8.796894550323486328e-01 2.084111928939819336e+00 8.891404271125793457e-01 1.337623000144958496e+00
5.560000000000000000e+02 5.107327270507812500e+01 3.225113296508789062e+01 3.657850921154022217e-01 1.047972559928894043e+00 4.241273105144500732e-01 6.807918548583984375e-01
5.570000000000000000e+02 4.880350112915039062e+01 3.227155303955078125e+01 9.008121490478515625e-02 2.316386938095092773e+00 7.219404578208923340e-01 9.388022422790527344e-01
5.580000000000000000e+02 5.322629165649414062e+01 3.402630615234375000e+01 -2.994682192802429199e-01 2.891362607479095459e-01 -3.099580993875861168e-03 1.185081601142883301e-01
5.590000000000000000e+02 5.441822814941406250e+01 3.483355712890625000e+01 -4.622481763362884521e-01 1.276991963386535645e-01 -1.003646999597549438e-01 -1.131132543087005615e-01
5.600000000000000000e+02 4.134873580932617188e+01 3.795594406127929688e+01 -1.202857613563537598e+00 4.297926902770996094e+00 9.285207390785217285e-01 1.238453760743141174e-01
5.610000000000000000e+02 4.542634582519531250e+01 3.062295150756835938e+01 -3.733602166175842285e-02 4.013710975646972656e+00 1.192912578582763672e+00 9.612521529197692871e-01
5.620000000000000000e+02 4.516912841796875000e+01 2.435415267944335938e+01 1.331588029861450195e+00 6.011819362640380859e+00 2.203022241592407227e+00 2.645241498947143555e+00
5.630000000000000000e+02 4.586893844604492188e+01 2.557795906066894531e+01 1.281685471534729004e+00 5.060292720794677734e+00 1.902593493461608887e+00 2.453388452529907227e+00
5.640000000000000000e+02 4.736195373535156250e+01 2.795307731628417969e+01 1.301038503646850586e+00 3.520642518997192383e+00 1.446504354476928711e+00 2.023043870925903320e+00
5.650000000000000000e+02 4.631193542480468750e+01 3.211094665527343750e+01 -2.423191219568252563e-01 3.536361694335937500e+00 9.882127642631530762e-01 8.579911589622497559e-01
5.660000000000000000e+02 3.707963180541992188e+01 3.832954406738281250e+01 -1.243599295616149902e+00 4.624051094055175781e+00 1.014135599136352539e+00 -9.006449580192565918e-02
5.670000000000000000e+02 3.282608032226562500e+01 3.822099304199218750e+01 -1.109012722969055176e+00 4.467552661895751953e+00 1.007562041282653809e+00 -1.788264065980911255e-01
5.680000000000000000e+02 3.865845870971679688e+01 2.995292282104492188e+01 -5.076411366462707520e-01 5.225487232208251953e+00 1.415353894233703613e+00 1.037082355469465256e-02
5.690000000000000000e+02 3.258183288574218750e+01 4.109708786010742188e+01 -1.160588145256042480e+00 4.417133331298828125e+00 9.769636392593383789e-01 -6.388907134532928467e-02
5.700000000000000000e+02 1.263535308837890625e+01 4.062077331542968750e+01 -2.315503060817718506e-01 1.177086114883422852e+00 2.836607396602630615e-01 -6.423225253820419312e-02
5.710000000000000000e+02 4.874795436859130859e+00 4.044922637939453125e+01 -6.089778989553451538e-02 -3.052302300930023193e-01 -1.098384112119674683e-01 7.561036385595798492e-03
5.720000000000000000e+02 8.088262557983398438e+00 3.163016891479492188e+01 -3.476521745324134827e-02 1.961085945367813110e-01 4.840301349759101868e-02 -2.002889961004257202e-01
5.730000000000000000e+02 8.172498703002929688e+00 2.279990005493164062e+01 1.200578361749649048e-01 3.099927306175231934e-02 4.531713202595710754e-02 -1.380734741687774658e-01
5.740000000000000000e+02 6.814430236816406250e+00 1.535062408447265625e+01 1.957545280456542969e-01 -3.225791156291961670e-01 -3.804737702012062073e-02 1.324472576379776001e-01
5.750000000000000000e+02 6.817936897277832031e+00 1.131893920898437500e+01 1.934757381677627563e-01 -3.552013337612152100e-01 -4.851768165826797485e-02 3.221265375614166260e-01
5.760000000000000000e+02 6.216099262237548828e+00 1.869290232658386230e+00 -4.417845606803894043e-01 -6.758686900138854980e-02 -1.528114378452301025e-01 3.108150660991668701e-01
5.770000000000000000e+02 1.163740825653076172e+01 1.414156436920166016e+00 -9.794459939002990723e-01 -5.060898065567016602e-01 -4.456607401371002197e-01 6.108613610267639160e-01
5.780000000000000000e+02 2.004154920578002930e+00 4.165196990966796875e+01 -7.729409635066986084e-02 -6.943370699882507324e-01 -2.314893454313278198e-01 -2.193583734333515167e-02
5.790000000000000000e+02 4.432344913482666016e+00 3.796566390991210938e+01 -7.586926221847534180e-04 -3.982524275779724121e-01 -1.197033375501632690e-01 -6.432925816625356674e-03
5.800000000000000000e+02 2.071684837341308594e+00 3.581374740600585938e+01 1.070431806147098541e-02 -7.443529367446899414e-01 -2.200945764780044556e-01 -7.839132100343704224e-02
5.810000000000000000e+02 2.110167026519775391e+00 2.875401306152343750e+01 1.262560603208839893e-03 -9.118763804435729980e-01 -2.731841504573822021e-01 -6.717436760663986206e-02
5.820000000000000000e+02 1.966409921646118164e+00 2.301194381713867188e+01 1.009142398834228516e-02 -1.083034276962280273e+00 -3.218828439712524414e-01 -3.825241699814796448e-02
5.830000000000000000e+02 1.822923779487609863e+00 1.738177871704101562e+01 1.646684668958187103e-02 -1.114553570747375488e+00 -3.294260203838348389e-01 3.901531174778938293e-02
5.840000000000000000e+02 5.043665766716003418e-01 6.429505825042724609e+00 2.799336798489093781e-04 -4.317629635334014893e-01 -1.294449120759963989e-01 6.466570496559143066e-02
5.850000000000000000e+02 1.545224308967590332e+00 9.093032836914062500e+00 1.101783197373151779e-02 -6.856704354286193848e-01 -2.023957818746566772e-01 1.720672398805618286e-01
5.860000000000000000e+02 4.720597267150878906e+00 2.600949287414550781e+00 -2.478483319282531738e-01 -1.057229712605476379e-01 -1.060713902115821838e-01 2.913781106472015381e-01
5.870000000000000000e+02 6.564482116699218750e+01 -2.203435134887695312e+01 -1.437633275985717773e+00 1.677704900503158569e-01 -3.809588551521301270e-01 -1.547186821699142456e-01
5.880000000000000000e+02 6.425632476806640625e+01 -2.115858268737792969e+01 -7.097894549369812012e-01 8.154157996177673340e-01 3.168790042400360107e-02 9.803425073623657227e-01
5.890000000000000000e+02 5.943365478515625000e+01 -1.581131267547607422e+01 -4.080708920955657959e-01 4.714595675468444824e-01 1.901660859584808350e-02 4.836753904819488525e-01
5.900000000000000000e+02 7.000244140625000000e+01 -2.071117591857910156e+01 -1.836317658424377441e+00 3.414038896560668945e+00 4.733164012432098389e-01 -1.515027642250061035e+00
5.910000000000000000e+02 7.054288482666015625e+01 -2.173761558532714844e+01 -8.471905589103698730e-01 4.308190345764160156e+00 1.038299918174743652e+00 -1.327782511711120605e+00
5.920000000000000000e+02 7.216496276855468750e+01 -2.211969757080078125e+01 -1.222173452377319336e+00 8.552379608154296875e+00 2.199061870574951172e+00 -1.353500932455062866e-01
5.930000000000000000e+02 7.167463684082031250e+01 -2.397956085205078125e+01 1.400937676429748535e+00 1.140704154968261719e+01 3.842393875122070312e+00 -1.876766204833984375e+00
5.940000000000000000e+02 7.194609832763671875e+01 -2.612377166748046875e+01 5.802658796310424805e-01 1.284406471252441406e+01 4.027299404144287109e+00 -9.128199517726898193e-02
5.950000000000000000e+02 7.141804504394531250e+01 -2.866854667663574219e+01 1.443177580833435059e+00 1.181956768035888672e+01 3.978823661804199219e+00 2.596867322921752930e+00
5.960000000000000000e+02 7.146818542480468750e+01 -3.405583953857421875e+01 -7.574582695960998535e-01 5.453286647796630859e+00 1.408748507499694824e+00 7.883301377296447754e-01
5.970000000000000000e+02 7.930171203613281250e+01 -3.351611709594726562e+01 1.821244508028030396e-02 7.690262317657470703e+00 2.312542438507080078e+00 -1.909428536891937256e-01
5.980000000000000000e+02 5.839680099487304688e+01 -2.553416061401367188e+01 1.908077001571655273e+00 1.834366679191589355e+00 1.122733116149902344e+00 1.657747507095336914e+00
5.990000000000000000e+02 6.055911636352539062e+01 -2.387981224060058594e+01 2.127429962158203125e+00 1.178169250488281250e+00 9.916797876358032227e-01 1.495708942413330078e+00
6.000000000000000000e+02 6.309639739990234375e+01 -2.274296379089355469e+01 3.417319953441619873e-01 4.214812219142913818e-01 2.289639711380004883e-01 6.725025773048400879e-01
6.010000000000000000e+02 6.441092681884765625e+01 -2.249611663818359375e+01 -5.091196298599243164e-01 2.572109401226043701e-01 -7.557260245084762573e-02 2.121077775955200195e-01
6.020000000000000000e+02 7.082449340820312500e+01 2.614794540405273438e+01 2.668458819389343262e-01 7.351362705230712891e+00 2.285462617874145508e+00 -1.153237931430339813e-02
6.030000000000000000e+02 6.996423339843750000e+01 2.006362915039062500e+01 2.356090396642684937e-02 8.844478607177734375e+00 2.660411834716796875e+00 1.315594017505645752e-01
6.040000000000000000e+02 7.939699554443359375e+01 1.666391944885253906e+01 8.067769929766654968e-03 7.434134483337402344e+00 2.232660531997680664e+00 1.253251284360885620e-01
6.050000000000000000e+02 6.994034576416015625e+01 1.584901046752929688e+01 3.235355834476649761e-04 9.729371070861816406e+00 2.918908357620239258e+00 2.012781500816345215e-01
6.060000000000000000e+02 6.981800079345703125e+01 1.032317352294921875e+01 -2.203116714954376221e-01 8.736064910888671875e+00 2.554726123809814453e+00 -5.616549253463745117e-01
6.070000000000000000e+02 7.938414764404296875e+01 9.716111183166503906e+00 4.701444879174232483e-03 6.045309066772460938e+00 1.815003156661987305e+00 1.758308708667755127e-01
6.080000000000000000e+02 6.999266815185546875e+01 8.946473121643066406e+00 7.467392832040786743e-02 1.049658775329589844e+01 3.171378612518310547e+00 -9.594021439552307129e-01
6.090000000000000000e+02 7.014729309082031250e+01 7.556354045867919922e+00 3.425307869911193848e-01 1.252437019348144531e+01 3.860070228576660156e+00 -7.440808415412902832e-01
6.100000000000000000e+02 7.017350006103515625e+01 1.909194827079772949e+00 5.269553661346435547e-01 1.436046409606933594e+01 4.466225624084472656e+00 1.127848267555236816e+00
6.110000000000000000e+02 6.971942901611328125e+01 -9.673112034797668457e-01 7.685112953186035156e-01 1.168601512908935547e+01 3.736357927322387695e+00 2.485559463500976562e+00
6.120000000000000000e+02 6.708050537109375000e+01 -7.571706295013427734e+00 1.009548068046569824e+00 5.277495861053466797e+00 1.886113166809082031e+00 2.159062147140502930e+00
6.130000000000000000e+02 6.768594360351562500e+01 -6.304262161254882812e+00 9.507869482040405273e-01 6.187406539916992188e+00 2.141458034515380859e+00 2.357404947280883789e+00
6.140000000000000000e+02 6.665196990966796875e+01 -1.058556938171386719e+01 9.967476129531860352e-01 4.046684265136718750e+00 1.513029575347900391e+00 1.593553066253662109e+00
6.150000000000000000e+02 6.572273254394531250e+01 -1.004836368560791016e+01 1.169682264328002930e+00 3.709547996520996094e+00 1.463769078254699707e+00 1.934701681137084961e+00
6.160000000000000000e+02 6.494355773925781250e+01 -1.124451351165771484e+01 1.432252883911132812e+00 3.121639490127563477e+00 1.366167664527893066e+00 1.944805145263671875e+00
6.170000000000000000e+02 6.303976440429687500e+01 -1.995519447326660156e+01 -5.152303576469421387e-01 1.285526514053344727e+00 2.310888618230819702e-01 1.616036772727966309e+00
6.180000000000000000e+02 6.826451110839843750e+01 -2.137759208679199219e+01 -3.479871273040771484e+00 -6.677763909101486206e-02 -1.063994646072387695e+00 -1.685377210378646851e-01
6.190000000000000000e+02 6.931153869628906250e+01 -1.981644248962402344e+01 -9.652187228202819824e-01 2.464008092880249023e+00 4.496367871761322021e-01 -1.281809210777282715e+00
6.200000000000000000e+02 6.691031646728515625e+01 -2.158045196533203125e+01 -3.200330495834350586e+00 -1.711373031139373779e-01 -1.011440396308898926e+00 -3.422062098979949951e-01
6.210000000000000000e+02 2.289388465881347656e+01 -1.151867008209228516e+01 -2.623604536056518555e+00 6.151432991027832031e-01 -6.025383472442626953e-01 -5.418899655342102051e-01
6.220000000000000000e+02 3.162390136718750000e+01 -1.624266052246093750e+01 -2.036982774734497070e+00 4.407704174518585205e-01 -4.788636863231658936e-01 -6.423898786306381226e-02
6.230000000000000000e+02 3.254606246948242188e+01 -1.777266502380371094e+01 -2.343366622924804688e+00 7.157633453607559204e-02 -6.815370917320251465e-01 1.553738862276077271e-01
6.240000000000000000e+02 3.394872665405273438e+01 -1.683423995971679688e+01 -1.258960962295532227e+00 2.838096618652343750e-01 -2.925453782081604004e-01 -4.824041426181793213e-01
6.250000000000000000e+02 3.651955795288085938e+01 -1.624182128906250000e+01 -5.127540603280067444e-02 2.015150070190429688e+00 5.891624093055725098e-01 -2.456219673156738281e+00
6.260000000000000000e+02 3.720304489135742188e+01 -1.540061664581298828e+01 6.921953707933425903e-02 3.126463651657104492e+00 9.587049484252929688e-01 -2.893988847732543945e+00
6.270000000000000000e+02 3.934353256225585938e+01 -4.386205196380615234e+00 7.911285758018493652e-02 5.234875679016113281e+00 1.594196677207946777e+00 -1.581992745399475098e+00
6.280000000000000000e+02 3.980703735351562500e+01 6.497306823730468750e+00 1.265864849090576172e+00 7.899896621704101562e+00 2.749728441238403320e+00 -8.602702617645263672e-01
6.290000000000000000e+02 3.790000152587890625e+01 1.398837757110595703e+01 1.479376912117004395e+00 7.894208431243896484e+00 2.812075614929199219e+00 -2.609424889087677002e-01
6.300000000000000000e+02 3.742913055419921875e+01 1.539258670806884766e+01 1.343579292297363281e+00 7.426501750946044922e+00 2.631024360656738281e+00 -1.999789327383041382e-01
6.310000000000000000e+02 3.998974227905273438e+01 2.756032562255859375e+01 -1.056245267391204834e-01 5.654360771179199219e+00 1.664620995521545410e+00 3.122031986713409424e-01
6.320000000000000000e+02 4.067433166503906250e+01 2.533773803710937500e+01 2.825936973094940186e-01 6.153827667236328125e+00 1.930926442146301270e+00 6.277362108230590820e-01
6.330000000000000000e+02 3.153287696838378906e+01 2.414594078063964844e+01 2.792541682720184326e-01 4.682993412017822266e+00 1.488674163818359375e+00 -6.003878116607666016e-01
6.340000000000000000e+02 2.972215270996093750e+01 2.866403579711914062e+01 -2.498380541801452637e-01 4.224024772644042969e+00 1.192256093025207520e+00 -5.948370099067687988e-01
6.350000000000000000e+02 3.356599807739257812e+01 3.243032073974609375e+01 -7.390943169593811035e-01 4.649257183074951172e+00 1.173048853874206543e+00 -3.674195110797882080e-01
6.360000000000000000e+02 2.666250610351562500e+01 -1.462227916717529297e+01 -4.147918224334716797e+00 1.540293246507644653e-01 -1.198166728019714355e+00 8.332130312919616699e-01
6.370000000000000000e+02 2.998636817932128906e+01 -1.715202331542968750e+01 -2.762196540832519531e+00 -7.879752665758132935e-02 -8.522982597351074219e-01 7.303184270858764648e-01
6.380000000000000000e+02 3.826980972290039062e+01 -1.819217681884765625e+01 3.089293003082275391e+00 2.602725505828857422e+00 1.707605481147766113e+00 -3.166365623474121094e+00
6.390000000000000000e+02 4.037039184570312500e+01 -1.979368400573730469e+01 5.286615371704101562e+00 7.372531414031982422e+00 3.797744035720825195e+00 -6.274728775024414062e+00
6.400000000000000000e+02 5.165050125122070312e+01 -1.458259582519531250e+01 -1.634946227073669434e+00 2.611388921737670898e+00 2.929327785968780518e-01 3.062964379787445068e-01
6.410000000000000000e+02 4.098858642578125000e+01 -1.862615394592285156e+01 2.425171852111816406e+00 9.653807640075683594e+00 3.623693943023681641e+00 -4.548406600952148438e+00
6.420000000000000000e+02 4.237541580200195312e+01 -2.391525077819824219e+01 5.661064386367797852e-01 1.696041488647460938e+01 5.257956504821777344e+00 -1.992531180381774902e+00
6.430000000000000000e+02 4.973931121826171875e+01 -3.048522949218750000e+01 1.286491036415100098e+00 6.348282814025878906e+00 2.290432214736938477e+00 -1.996722340583801270e+00
6.440000000000000000e+02 5.120873260498046875e+01 -2.989993858337402344e+01 1.718764424324035645e+00 6.267080307006835938e+00 2.395753383636474609e+00 -2.057890176773071289e+00
6.450000000000000000e+02 4.229222106933593750e+01 -2.258835792541503906e+01 3.451655864715576172e+00 1.872194671630859375e+01 6.652081012725830078e+00 -4.904632568359375000e+00
6.460000000000000000e+02 4.035712432861328125e+01 -3.367160415649414062e+01 -1.877325773239135742e+00 3.039245128631591797e+00 3.485757708549499512e-01 1.496472835540771484e+00
6.470000000000000000e+02 3.088076972961425781e+01 -1.454144477844238281e+01 -1.748424172401428223e+00 8.138144016265869141e-01 -2.803829014301300049e-01 -5.959292650222778320e-01
6.480000000000000000e+02 2.967004013061523438e+01 -1.296848011016845703e+01 -1.501315236091613770e+00 9.737610220909118652e-01 -1.582662761211395264e-01 -9.419666528701782227e-01
6.490000000000000000e+02 3.064953804016113281e+01 -7.283617973327636719e+00 1.590345621109008789e+00 1.860128164291381836e+00 1.035142183303833008e+00 -9.185786247253417969e-01
6.500000000000000000e+02 3.279088592529296875e+01 4.181610107421875000e+00 1.223191261291503906e+00 4.881407260894775391e+00 1.831379532814025879e+00 3.087293803691864014e-01
6.510000000000000000e+02 3.268429946899414062e+01 8.135755538940429688e+00 1.410579204559326172e+00 5.144772052764892578e+00 1.966605424880981445e+00 1.570520848035812378e-01
6.520000000000000000e+02 3.229122543334960938e+01 1.626450538635253906e+01 1.210798621177673340e+00 5.125628471374511719e+00 1.900928139686584473e+00 -4.213897585868835449e-01
6.530000000000000000e+02 3.164013671875000000e+01 2.063418197631835938e+01 7.208545207977294922e-01 4.836812496185302734e+00 1.667299985885620117e+00 -5.639922022819519043e-01
6.540000000000000000e+02 2.674020767211914062e+01 2.253358459472656250e+01 4.366867244243621826e-01 3.653349399566650391e+00 1.227010846138000488e+00 -6.299214959144592285e-01
6.550000000000000000e+02 2.289677047729492188e+01 2.944508552551269531e+01 -1.686656922101974487e-01 2.944539785385131836e+00 8.327622413635253906e-01 -5.071973800659179688e-01
6.560000000000000000e+02 2.490902900695800781e+01 2.759986305236816406e+01 -6.400506943464279175e-02 3.337500333786010742e+00 9.820486307144165039e-01 -6.040636897087097168e-01
6.570000000000000000e+02 3.566204452514648438e+01 -1.547538661956787109e+01 -1.732631325721740723e-01 1.797884464263916016e+00 4.873864054679870605e-01 -2.088076829910278320e+00
6.580000000000000000e+02 4.734062957763671875e+01 -1.024009513854980469e+01 -6.545608043670654297e-01 5.458340644836425781e+00 1.441133975982666016e+00 -8.006554841995239258e-01
6.590000000000000000e+02 4.134062957763671875e+01 -2.064672088623046875e+01 5.659816265106201172e+00 1.311647510528564453e+01 5.632887363433837891e+00 -7.019911766052246094e+00
6.600000000000000000e+02 5.057863998413085938e+01 -8.851573944091796875e+00 2.769041657447814941e-01 4.350308895111083984e+00 1.388163924217224121e+00 -1.138674616813659668e+00
6.610000000000000000e+02 4.574462890625000000e+01 -9.510842323303222656e+00 -7.160990834236145020e-01 5.758554458618164062e+00 1.512736558914184570e+00 -1.142701387405395508e+00
6.620000000000000000e+02 4.547359848022460938e+01 -2.188147544860839844e+00 3.482624292373657227e-01 5.377404689788818359e+00 1.717700123786926270e+00 -1.956427574157714844e+00
6.630000000000000000e+02 4.409136581420898438e+01 3.330243349075317383e+00 9.713094234466552734e-01 6.466886043548583984e+00 2.231458663940429688e+00 -2.596973657608032227e+00
6.640000000000000000e+02 3.936094665527343750e+01 -2.286506891250610352e+00 3.028824627399444580e-01 5.423286437988281250e+00 1.717850685119628906e+00 -1.377517819404602051e+00
6.650000000000000000e+02 2.955923652648925781e+01 -7.442023754119873047e+00 1.877203583717346191e+00 1.514594554901123047e+00 1.017539381980895996e+00 -7.738671898841857910e-01
6.660000000000000000e+02 5.426507592201232910e-01 -1.066286754608154297e+01 -2.135149575769901276e-02 -3.124735593795776367e+00 -9.438261389732360840e-01 -2.329356819391250610e-01
6.670000000000000000e+02 5.745246410369873047e-01 -1.767944145202636719e+01 7.667530328035354614e-02 -5.525219917297363281e+00 -1.634563326835632324e+00 -1.608641445636749268e-02
6.680000000000000000e+02 6.556063890457153320e-01 -2.332164573669433594e+01 2.356136962771415710e-02 -2.652890443801879883e+00 -7.887987494468688965e-01 6.146774888038635254e-01
6.690000000000000000e+02 8.657260894775390625e+00 -2.541674995422363281e+01 1.736717522144317627e-01 7.970348834991455078e+00 2.443206310272216797e+00 1.499430388212203979e-01
6.700000000000000000e+02 6.833963394165039062e-01 -3.040995216369628906e+01 -1.158926915377378464e-02 4.208930015563964844e+00 1.259202241897583008e+00 4.567776918411254883e-01
6.710000000000000000e+02 7.934580993652343750e+01 -2.654867935180664062e+01 5.415328592061996460e-02 5.921366691589355469e+00 1.792655944824218750e+00 3.334859758615493774e-02
6.720000000000000000e+02 7.935874938964843750e+01 -2.093518257141113281e+01 -1.938626985065639019e-03 7.527063369750976562e+00 2.257537364959716797e+00 2.164651602506637573e-01
6.730000000000000000e+02 5.181595993041992188e+01 -2.756690025329589844e+01 1.725878119468688965e+00 5.855829715728759766e+00 2.274512290954589844e+00 -2.071721792221069336e+00
6.740000000000000000e+02 5.256766128540039062e+01 -2.590761756896972656e+01 1.601694941520690918e+00 4.994200706481933594e+00 1.978768706321716309e+00 -1.455126643180847168e+00
6.750000000000000000e+02 5.270615768432617188e+01 -1.406001091003417969e+01 -9.105787277221679688e-01 5.093355178833007812e-01 -1.203729584813117981e-01 4.524397253990173340e-01
6.760000000000000000e+02 5.094478988647460938e+01 -1.628270339965820312e+01 -1.387085318565368652e+00 3.864035367965698242e+00 7.430850267410278320e-01 -3.642082214355468750e-01
6.770000000000000000e+02 5.740697479248046875e+01 -2.644905853271484375e+01 1.598161697387695312e+00 2.418674945831298828e+00 1.205050945281982422e+00 1.784729719161987305e+00
6.780000000000000000e+02 7.936119079589843750e+01 -1.260137081146240234e+01 -1.555707585066556931e-02 7.661938190460205078e+00 2.293914318084716797e+00 -1.347365528345108032e-01
6.790000000000000000e+02 6.928199768066406250e+01 -2.354784250259399414e+00 8.625418543815612793e-01 1.010637855529785156e+01 3.290676116943359375e+00 2.581169128417968750e+00
6.800000000000000000e+02 7.935782623291015625e+01 -5.604325771331787109e+00 1.491193193942308426e-02 5.930719852447509766e+00 1.783689498901367188e+00 -1.770136505365371704e-01
6.810000000000000000e+02 7.129408264160156250e+01 6.232893943786621094e+00 4.492235183715820312e-01 1.143565750122070312e+01 3.565464258193969727e+00 3.994915634393692017e-03
6.820000000000000000e+02 7.939048004150390625e+01 2.748901844024658203e+00 2.112327888607978821e-02 4.636313438415527344e+00 1.397230982780456543e+00 4.041732475161552429e-02
6.830000000000000000e+02 7.938654327392578125e+01 3.056518745422363281e+01 -1.169391721487045288e-02 1.063569259643554688e+01 3.187199592590332031e+00 1.714971363544464111e-01
6.840000000000000000e+02 1.440516471862792969e+01 3.498661422729492188e+01 -2.143979072570800781e-01 1.446491718292236328e+00 3.696281611919403076e-01 -2.154069691896438599e-01
6.850000000000000000e+02 7.274115562438964844e+00 3.402157211303710938e+01 -5.179220810532569885e-02 1.269077658653259277e-01 2.253466658294200897e-02 -1.595827639102935791e-01
6.860000000000000000e+02 7.631464004516601562e+00 2.636468315124511719e+01 5.240147933363914490e-02 2.701611444354057312e-02 2.382527850568294525e-02 -1.890645325183868408e-01
6.870000000000000000e+02 2.637542343139648438e+01 1.572817707061767578e+01 9.279286265373229980e-01 3.508827209472656250e+00 1.331026792526245117e+00 -3.837813735008239746e-01
6.880000000000000000e+02 1.991425323486328125e+01 8.068981170654296875e+00 4.820504784584045410e-01 1.971474885940551758e+00 7.360575795173645020e-01 -9.714236110448837280e-02
6.890000000000000000e+02 2.019507026672363281e+01 3.200065374374389648e+00 -3.629286587238311768e-02 2.318132877349853516e+00 6.845520138740539551e-01 6.414548959583044052e-03
6.900000000000000000e+02 1.969235229492187500e+01 2.506245851516723633e+00 -1.446295231580734253e-01 2.141746282577514648e+00 5.991350412368774414e-01 -3.709793835878372192e-02
6.910000000000000000e+02 3.355525588989257812e+01 2.802836179733276367e+00 1.167394638061523438e+00 4.914792537689208984e+00 1.824656128883361816e+00 1.865914314985275269e-01
6.920000000000000000e+02 2.140969276428222656e+00 3.170901107788085938e+01 -4.150394815951585770e-03 -8.405314087867736816e-01 -2.534045279026031494e-01 -6.454062461853027344e-02
6.930000000000000000e+02 6.831588745117187500e+00 1.928553390502929688e+01 1.410948336124420166e-01 -2.702791094779968262e-01 -3.875528275966644287e-02 -1.013381034135818481e-02
6.940000000000000000e+02 3.293614959716796875e+01 2.005831718444824219e+01 7.856575846672058105e-01 5.211324214935302734e+00 1.799094557762145996e+00 -4.855947494506835938e-01
6.950000000000000000e+02 2.675579261779785156e+01 1.972899246215820312e+01 6.933572292327880859e-01 3.630511045455932617e+00 1.297160506248474121e+00 -5.714354515075683594e-01
6.960000000000000000e+02 1.626891899108886719e+01 2.439523696899414062e+01 1.991730630397796631e-01 1.534102559089660645e+00 5.199826955795288086e-01 -4.094162583351135254e-01
6.970000000000000000e+02 6.021043777465820312e+00 1.202645206451416016e+01 1.589670479297637939e-01 -4.352200925350189209e-01 -8.287590742111206055e-02 2.842053174972534180e-01
6.980000000000000000e+02 1.725656700134277344e+01 7.233275890350341797e+00 3.907072544097900391e-01 1.140183806419372559e+00 4.592673182487487793e-01 -7.412081211805343628e-02
6.990000000000000000e+02 3.294936752319335938e+01 1.105214595794677734e+01 1.541007995605468750e+00 5.334964752197265625e+00 2.062791824340820312e+00 -8.431937545537948608e-02
7.000000000000000000e+02 1.933880996704101562e+01 8.817230224609375000e+00 5.215334892272949219e-01 1.774561405181884766e+00 6.888284683227539062e-01 -1.133386865258216858e-01
7.010000000000000000e+02 3.933871841430664062e+01 1.439518833160400391e+01 1.213624835014343262e+00 8.992431640625000000e+00 3.061816930770874023e+00 -9.705145657062530518e-02
7.020000000000000000e+02 1.801593780517578125e+00 1.598805522918701172e+01 1.766121014952659607e-02 -1.086361885070800781e+00 -3.206101953983306885e-01 6.104133278131484985e-02
7.030000000000000000e+02 4.020910263061523438e+01 9.851078987121582031e+00 1.802928566932678223e+00 9.386243820190429688e+00 3.356751680374145508e+00 -8.534410595893859863e-01
7.040000000000000000e+02 4.241138076782226562e+01 1.041834163665771484e+01 1.107154369354248047e+00 1.405210304260253906e+01 4.547777175903320312e+00 -2.083436012268066406e+00
7.050000000000000000e+02 3.876670455932617188e+01 4.736711025238037109e+00 9.982221722602844238e-01 6.926096916198730469e+00 2.377295732498168945e+00 -6.644880175590515137e-01
7.060000000000000000e+02 4.388938140869140625e+01 6.405116081237792969e+00 1.874382615089416504e+00 8.183734893798828125e+00 3.017435312271118164e+00 -3.578931331634521484e+00
7.070000000000000000e+02 4.881570053100585938e+01 -3.585191726684570312e+00 5.119372010231018066e-01 4.836408138275146484e+00 1.604503631591796875e+00 -1.677375674247741699e+00
7.080000000000000000e+02 8.508558273315429688e+00 -1.914691805839538574e+00 -9.788598418235778809e-01 2.167035341262817383e-01 -2.286469042301177979e-01 -5.183209851384162903e-02
7.090000000000000000e+02 6.913581371307373047e+00 -1.901631116867065430e+00 -8.218482732772827148e-01 1.161198690533638000e-01 -2.117185294628143311e-01 -2.641084492206573486e-01
7.100000000000000000e+02 7.714272975921630859e+00 -1.903686046600341797e+00 -9.061847329139709473e-01 1.575441956520080566e-01 -2.245921641588211060e-01 -1.645485013723373413e-01
7.110000000000000000e+02 5.308863639831542969e+00 -1.914956331253051758e+00 -6.028117537498474121e-01 2.868405915796756744e-02 -1.722383052110671997e-01 -3.783380091190338135e-01
7.120000000000000000e+02 2.900341987609863281e+00 -1.989974021911621094e+00 -2.612356245517730713e-01 -9.245932102203369141e-02 -1.061084792017936707e-01 -3.336727023124694824e-01
7.130000000000000000e+02 3.072207927703857422e+00 -2.933005332946777344e+00 -2.474610507488250732e-01 -1.542365700006484985e-01 -1.205092892050743103e-01 -4.551875591278076172e-01
7.140000000000000000e+02 2.085285425186157227e+00 -2.052080154418945312e+00 -1.567149609327316284e-01 -1.541744470596313477e-01 -9.326682239770889282e-02 -2.685687541961669922e-01
7.150000000000000000e+02 1.261367797851562500e+00 -2.135309219360351562e+00 -6.569497287273406982e-02 -1.810564547777175903e-01 -7.402542978525161743e-02 -1.600846648216247559e-01
7.160000000000000000e+02 4.242191910743713379e-01 -2.193664550781250000e+00 -1.805237866938114166e-02 -1.224895566701889038e-01 -4.216258227825164795e-02 -5.645643919706344604e-02
7.170000000000000000e+02 2.025012493133544922e+00 -4.165542984008789062e+01 2.417496144771575928e-01 5.501978874206542969e+00 1.723118543624877930e+00 -6.907211989164352417e-02
7.180000000000000000e+02 4.787393093109130859e+00 -3.789510345458984375e+01 -2.892586588859558105e-01 4.030891418457031250e+00 1.122489809989929199e+00 3.808111250400543213e-01
7.190000000000000000e+02 9.536960721015930176e-01 -3.875034332275390625e+01 2.832218818366527557e-02 5.805215358734130859e+00 1.750061154365539551e+00 -8.147399872541427612e-02
7.200000000000000000e+02 7.514610886573791504e-01 -3.464070510864257812e+01 -5.694410577416419983e-02 5.788649082183837891e+00 1.719511508941650391e+00 1.083047389984130859e-01
7.210000000000000000e+02 7.292581200599670410e-01 -3.323994445800781250e+01 -4.936025291681289673e-02 5.511586189270019531e+00 1.638667821884155273e+00 2.106144279241561890e-01
7.220000000000000000e+02 6.688619852066040039e-01 -2.899440574645996094e+01 -1.064471378922462463e-01 3.164776563644409180e+00 9.174988865852355957e-01 5.733073353767395020e-01
7.230000000000000000e+02 6.575555205345153809e-01 -2.757895278930664062e+01 3.094547986984252930e-02 1.856971979141235352e+00 5.663752555847167969e-01 6.732379198074340820e-01
7.240000000000000000e+02 6.548957824707031250e-01 -2.474377059936523438e+01 7.816640287637710571e-02 -1.189983248710632324e+00 -3.335450589656829834e-01 7.290718555450439453e-01
7.250000000000000000e+02 6.459642052650451660e-01 -2.190329360961914062e+01 8.792366832494735718e-02 -3.886522293090820312e+00 -1.139579653739929199e+00 5.058951973915100098e-01
7.260000000000000000e+02 6.236265897750854492e-01 -2.049474334716796875e+01 8.422828465700149536e-02 -4.822022438049316406e+00 -1.421338200569152832e+00 3.145752549171447754e-01
7.270000000000000000e+02 1.873805403709411621e+00 -2.028657722473144531e+01 3.500978052616119385e-01 -2.282026052474975586e+00 -5.795785188674926758e-01 8.225114345550537109e-01
7.280000000000000000e+02 5.686478018760681152e-01 -1.627651405334472656e+01 2.552616409957408905e-03 -5.327115535736083984e+00 -1.597368836402893066e+00 -1.225935146212577820e-01
7.290000000000000000e+02 5.673135519027709961e-01 -1.487300682067871094e+01 4.343773424625396729e-02 -4.915359497070312500e+00 -1.461576581001281738e+00 -1.739643216133117676e-01
7.300000000000000000e+02 5.646255016326904297e-01 -1.346807479858398438e+01 -1.114648208022117615e-02 -4.379492282867431641e+00 -1.317191600799560547e+00 -2.165380716323852539e-01
7.310000000000000000e+02 1.700876593589782715e+00 -1.336876201629638672e+01 7.261301577091217041e-02 -2.807166814804077148e+00 -8.203661441802978516e-01 -6.048658490180969238e-01
7.320000000000000000e+02 5.256690382957458496e-01 -9.265792846679687500e+00 1.137031521648168564e-02 -2.489236116409301758e+00 -7.433597445487976074e-01 -2.146328389644622803e-01
7.330000000000000000e+02 5.092437863349914551e-01 -7.874680519104003906e+00 -1.802228018641471863e-02 -1.880217790603637695e+00 -5.694720149040222168e-01 -2.015639990568161011e-01
7.340000000000000000e+02 3.856591463088989258e+00 -2.843909263610839844e+00 -3.363461792469024658e-01 -7.836049795150756836e-02 -1.244120001792907715e-01 -4.905461072921752930e-01
7.350000000000000000e+02 4.014139175415039062e+00 -3.732871770858764648e+00 -3.102376759052276611e-01 -9.489750862121582031e-02 -1.215405538678169250e-01 -6.053478717803955078e-01
7.360000000000000000e+02 3.142754745483398438e+01 -3.847585678100585938e+01 -1.379978418350219727e+00 -1.439336538314819336e-01 -4.571736156940460205e-01 -1.421204954385757446e-01
7.370000000000000000e+02 1.655781555175781250e+01 -4.126326751708984375e+01 -5.927510261535644531e-01 -4.743196368217468262e-01 -3.201211988925933838e-01 1.102737188339233398e-01
7.380000000000000000e+02 7.870210266113281250e+01 4.017201995849609375e+01 -1.909014731645584106e-01 1.067697334289550781e+01 3.145821332931518555e+00 -2.613698244094848633e-01
7.390000000000000000e+02 7.899807739257812500e+01 3.881144714355468750e+01 9.524289518594741821e-03 1.095423984527587891e+01 3.289129257202148438e+00 -1.030616164207458496e-01
7.400000000000000000e+02 7.918247985839843750e+01 3.607897567749023438e+01 -8.147475123405456543e-02 1.126492881774902344e+01 3.355036258697509766e+00 -1.742180809378623962e-02
7.410000000000000000e+02 7.772789001464843750e+01 3.438006210327148438e+01 -1.354658454656600952e-01 1.007464218139648438e+01 2.981752872467041016e+00 2.057191580533981323e-01
7.420000000000000000e+02 7.929525756835937500e+01 3.332162475585937500e+01 -3.591963276267051697e-02 1.114089679718017578e+01 3.331493139266967773e+00 1.110380291938781738e-01
7.430000000000000000e+02 7.817854309082031250e+01 3.035302734375000000e+01 -4.478072747588157654e-02 9.895711898803710938e+00 2.955279350280761719e+00 4.355448186397552490e-01
7.440000000000000000e+02 7.941883850097656250e+01 2.643931961059570312e+01 3.214578027836978436e-04 9.504827499389648438e+00 2.851544857025146484e+00 1.999741047620773315e-01
7.450000000000000000e+02 7.713459777832031250e+01 2.635132789611816406e+01 2.671488188207149506e-02 8.829406738281250000e+00 2.656836509704589844e+00 6.689186692237854004e-01
7.460000000000000000e+02 7.938466644287109375e+01 2.226654243469238281e+01 1.972069405019283295e-02 8.447296142578125000e+00 2.540105104446411133e+00 1.644165366888046265e-01
7.470000000000000000e+02 7.938378906250000000e+01 2.086167716979980469e+01 -6.978077348321676254e-03 8.161828994750976562e+00 2.446455478668212891e+00 1.494360864162445068e-01
7.480000000000000000e+02 7.816739654541015625e+01 2.221510124206542969e+01 1.996778137981891632e-02 8.424479484558105469e+00 2.533334255218505859e+00 3.897733688354492188e-01
7.490000000000000000e+02 7.938802337646484375e+01 1.945796966552734375e+01 1.840315014123916626e-02 7.899774074554443359e+00 2.375453233718872070e+00 1.396252661943435669e-01
7.500000000000000000e+02 7.939866638183593750e+01 1.527283096313476562e+01 -4.046123940497636795e-03 7.208439826965332031e+00 2.161318063735961914e+00 1.199392452836036682e-01
7.510000000000000000e+02 7.939941406250000000e+01 1.388420486450195312e+01 -6.973269395530223846e-03 6.970323085784912109e+00 2.089004993438720703e+00 1.338099241256713867e-01
7.520000000000000000e+02 7.939781951904296875e+01 1.249618625640869141e+01 -1.753323129378259182e-03 6.699018955230712891e+00 2.009179830551147461e+00 1.448563337326049805e-01
7.530000000000000000e+02 7.939317321777343750e+01 1.110716438293457031e+01 -1.386525947600603104e-02 6.391186714172363281e+00 1.913196444511413574e+00 1.635309755802154541e-01
7.540000000000000000e+02 7.937484741210937500e+01 8.325100898742675781e+00 -5.215335171669721603e-03 5.685444831848144531e+00 1.704068779945373535e+00 1.771734505891799927e-01
7.550000000000000000e+02 7.937155914306640625e+01 6.933798313140869141e+00 1.670702546834945679e-02 5.333504199981689453e+00 1.605063319206237793e+00 1.661246567964553833e-01
7.560000000000000000e+02 7.811883544921875000e+01 6.869513511657714844e+00 3.798071667551994324e-02 6.211974143981933594e+00 1.874986410140991211e+00 4.208628833293914795e-01
7.570000000000000000e+02 7.937573242187500000e+01 5.539427280426025391e+00 1.091717090457677841e-02 5.021457672119140625e+00 1.509712457656860352e+00 1.360672116279602051e-01
7.580000000000000000e+02 7.939507293701171875e+01 1.357540130615234375e+00 2.190576866269111633e-02 4.607111454010009766e+00 1.388705134391784668e+00 -9.202337823808193207e-03
7.590000000000000000e+02 7.939697265625000000e+01 -3.181223571300506592e-02 2.842365577816963196e-02 4.698493003845214844e+00 1.418075084686279297e+00 -6.695944070816040039e-02
7.600000000000000000e+02 7.939157867431640625e+01 -1.420442581176757812e+00 1.097693573683500290e-02 4.906462192535400391e+00 1.475231766700744629e+00 -1.136988699436187744e-01
7.610000000000000000e+02 7.938036346435546875e+01 -2.809335470199584961e+00 2.321128733456134796e-02 5.205437183380126953e+00 1.568594455718994141e+00 -1.517991125583648682e-01
7.620000000000000000e+02 7.935274505615234375e+01 -7.007131099700927734e+00 -1.250975579023361206e-02 6.306593894958496094e+00 1.888225197792053223e+00 -1.812258958816528320e-01
7.630000000000000000e+02 7.935258483886718750e+01 -8.408782005310058594e+00 6.577772088348865509e-03 6.677054882049560547e+00 2.005089759826660156e+00 -1.727420091629028320e-01
7.640000000000000000e+02 7.935418701171875000e+01 -9.808535575866699219e+00 -1.344892941415309906e-02 7.030825614929199219e+00 2.105213165283203125e+00 -1.670724004507064819e-01
7.650000000000000000e+02 7.936849975585937500e+01 -1.399374198913574219e+01 -1.266263052821159363e-02 7.915484428405761719e+00 2.370846509933471680e+00 -1.027280613780021667e-01
7.660000000000000000e+02 7.937850952148437500e+01 -1.538281345367431641e+01 -1.977989450097084045e-02 8.098885536193847656e+00 2.423731803894042969e+00 -6.760721653699874878e-02
7.670000000000000000e+02 7.938796997070312500e+01 -1.676882362365722656e+01 -3.252524137496948242e-02 8.185828208923339844e+00 2.445991039276123047e+00 -8.734173141419887543e-03
7.680000000000000000e+02 7.933105468750000000e+01 -2.233399772644042969e+01 -3.512262180447578430e-02 7.033311843872070312e+00 2.099456787109375000e+00 2.545731365680694580e-01
7.690000000000000000e+02 7.799015808105468750e+01 -2.526873207092285156e+01 2.462354600429534912e-01 6.806364536285400391e+00 2.115779876708984375e+00 3.824346065521240234e-01
7.700000000000000000e+02 7.931764221191406250e+01 -2.373731040954589844e+01 4.983086138963699341e-02 6.523483753204345703e+00 1.971994400024414062e+00 2.446979135274887085e-01
7.710000000000000000e+02 7.936663055419921875e+01 -2.794914817810058594e+01 8.081955462694168091e-02 5.978311538696289062e+00 1.817739367485046387e+00 -1.102326810359954834e-01
7.720000000000000000e+02 7.936976623535156250e+01 -2.934303283691406250e+01 -3.932290244847536087e-03 6.307046413421630859e+00 1.890934228897094727e+00 -2.073336392641067505e-01
7.730000000000000000e+02 7.935218048095703125e+01 -3.073203277587890625e+01 4.309417679905891418e-02 6.779049396514892578e+00 2.046643018722534180e+00 -2.433880418539047241e-01
7.740000000000000000e+02 7.929099273681640625e+01 -3.489306640625000000e+01 -5.830156058073043823e-02 8.021714210510253906e+00 2.389023780822753906e+00 -1.595819592475891113e-01
7.750000000000000000e+02 7.926196289062500000e+01 -3.625468826293945312e+01 -1.318130642175674438e-02 8.247052192687988281e+00 2.470161199569702148e+00 -8.542976528406143188e-02
7.760000000000000000e+02 7.912926483154296875e+01 -3.761626815795898438e+01 -1.730816438794136047e-02 8.364808082580566406e+00 2.504250049591064453e+00 -5.842113867402076721e-02
7.770000000000000000e+02 7.888758087158203125e+01 -3.900635910034179688e+01 -1.607100069522857666e-01 8.343750000000000000e+00 2.454912185668945312e+00 7.271916419267654419e-02
7.780000000000000000e+02 6.036048889160156250e+00 3.845272827148437500e+01 -3.750986978411674500e-02 -2.994359843432903290e-02 -2.023603953421115875e-02 -4.402348026633262634e-02
7.790000000000000000e+02 3.830724060535430908e-01 2.177790164947509766e+00 -4.493161570280790329e-03 -1.838558912277221680e-02 -6.863625254482030869e-03 1.122549735009670258e-02
7.800000000000000000e+02 2.719262838363647461e+00 2.690788507461547852e+00 -1.053011864423751831e-01 -1.003543809056282043e-01 -6.169667094945907593e-02 1.609241217374801636e-01
7.810000000000000000e+02 1.528294205665588379e+00 6.415835380554199219e+00 -2.205834724009037018e-03 -4.178851842880249023e-01 -1.260273009538650513e-01 1.803123503923416138e-01
7.820000000000000000e+02 5.121226310729980469e-01 9.215868949890136719e+00 8.770121494308114052e-04 -7.883513569831848145e-01 -2.362422943115234375e-01 6.010090187191963196e-02
7.830000000000000000e+02 5.442521572113037109e-01 1.200820827484130859e+01 2.338128397241234779e-03 -1.079498052597045898e+00 -3.231479823589324951e-01 4.505072906613349915e-02
7.840000000000000000e+02 1.635690450668334961e+00 1.180703735351562500e+01 2.004138007760047913e-02 -9.037497639656066895e-01 -2.651125192642211914e-01 1.354806125164031982e-01
7.850000000000000000e+02 5.998746752738952637e-01 1.622560310363769531e+01 2.904313383623957634e-03 -1.324342012405395508e+00 -3.964313268661499023e-01 1.947506703436374664e-02
7.860000000000000000e+02 6.074990630149841309e-01 1.763195800781250000e+01 4.067705012857913971e-03 -1.363015294075012207e+00 -4.076842665672302246e-01 1.117374468594789505e-02
7.870000000000000000e+02 6.401007771492004395e-01 2.186315155029296875e+01 3.671769052743911743e-03 -1.369822263717651367e+00 -4.098451435565948486e-01 -1.143377274274826050e-02
7.880000000000000000e+02 6.589279770851135254e-01 2.328349685668945312e+01 1.347205834463238716e-03 -1.341645479202270508e+00 -4.020894765853881836e-01 -1.642615906894207001e-02
7.890000000000000000e+02 6.748075485229492188e-01 2.469936561584472656e+01 1.467912108637392521e-03 -1.305553078651428223e+00 -3.912255465984344482e-01 -1.947092451155185699e-02
7.900000000000000000e+02 7.095534801483154297e-01 2.896574592590332031e+01 2.040102379396557808e-03 -1.174227476119995117e+00 -3.516561985015869141e-01 -2.439325302839279175e-02
7.910000000000000000e+02 7.182873487472534180e-01 3.040148544311523438e+01 -6.925458437763154507e-04 -1.126155614852905273e+00 -3.380544483661651611e-01 -2.542264759540557861e-02
7.920000000000000000e+02 2.159655332565307617e+00 3.024532699584960938e+01 -2.881707623600959778e-03 -8.713916540145874023e-01 -2.622820138931274414e-01 -6.320206820964813232e-02
7.930000000000000000e+02 7.077164649963378906e-01 3.182518386840820312e+01 -4.242556169629096985e-03 -1.083196043968200684e+00 -3.262315690517425537e-01 -2.022233791649341583e-02
7.940000000000000000e+02 6.889195442199707031e-01 3.602610015869140625e+01 -6.419558543711900711e-03 -9.448012113571166992e-01 -2.853662371635437012e-01 -2.046743221580982208e-02
7.950000000000000000e+02 2.408545017242431641e+00 3.819835281372070312e+01 2.336135879158973694e-02 -6.581913828849792480e-01 -1.904489994049072266e-01 -8.343608677387237549e-02
7.960000000000000000e+02 8.953065872192382812e-01 3.875068283081054688e+01 -1.232000254094600677e-02 -8.049712181091308594e-01 -2.451873570680618286e-01 -4.127903655171394348e-02
7.970000000000000000e+02 1.267043948173522949e+00 4.011097717285156250e+01 3.003835678100585938e-02 -7.276691198348999023e-01 -2.092892378568649292e-01 -6.392303109169006348e-02
7.980000000000000000e+02 9.977407455444335938e+00 2.014556407928466797e+00 -7.504141926765441895e-01 -4.209971725940704346e-01 -3.514234125614166260e-01 5.925760865211486816e-01
7.990000000000000000e+02 9.170273780822753906e+00 1.958663463592529297e+00 -7.282624244689941406e-01 -3.333543539047241211e-01 -3.184850215911865234e-01 5.937360525131225586e-01
8.000000000000000000e+02 8.416662216186523438e+00 1.919534444808959961e+00 -7.492356300354003906e-01 -2.017489820718765259e-01 -2.852953970432281494e-01 5.380992889404296875e-01
8.010000000000000000e+02 7.567869663238525391e+00 2.675361871719360352e+00 -4.966916441917419434e-01 -1.927019655704498291e-01 -2.068180888891220093e-01 5.200147032737731934e-01
8.020000000000000000e+02 6.946081161499023438e+00 1.877770662307739258e+00 -5.437018275260925293e-01 -1.001464352011680603e-01 -1.931544691324234009e-01 3.741807043552398682e-01
8.030000000000000000e+02 4.765934467315673828e+00 1.860870003700256348e+00 -2.754423320293426514e-01 -5.399581417441368103e-02 -9.883144497871398926e-02 2.238977104425430298e-01
8.040000000000000000e+02 4.047751903533935547e+00 1.860205292701721191e+00 -2.063605636358261108e-01 -5.916664376854896545e-02 -7.965816557407379150e-02 1.864392757415771484e-01
8.050000000000000000e+02 3.331302165985107422e+00 1.871574759483337402e+00 -1.495099812746047974e-01 -5.449289828538894653e-02 -6.120086461305618286e-02 1.470199376344680786e-01
8.060000000000000000e+02 1.880398869514465332e+00 1.988184452056884766e+00 -5.712331831455230713e-02 -6.560355424880981445e-02 -3.681806102395057678e-02 7.671065628528594971e-02
8.070000000000000000e+02 1.139120936393737793e+00 2.092253923416137695e+00 -2.230381406843662262e-02 -5.697106942534446716e-02 -2.378246560692787170e-02 3.823933750391006470e-02
8.080000000000000000e+02 1.318340778350830078e+01 6.814020276069641113e-01 -1.113966584205627441e+00 -5.106258988380432129e-01 -4.873777627944946289e-01 6.816129684448242188e-01
8.090000000000000000e+02 1.688018989562988281e+01 -7.890117764472961426e-01 -8.412050008773803711e-01 1.569575965404510498e-01 -2.052742093801498413e-01 2.373713254928588867e-01
8.100000000000000000e+02 1.598935127258300781e+01 -9.014797806739807129e-01 -1.097597479820251465e+00 -3.241609334945678711e-01 -4.265275001525878906e-01 5.587264299392700195e-01
8.110000000000000000e+02 1.711607360839843750e+01 -1.699777722358703613e+00 -1.005035519599914551e+00 1.670661196112632751e-02 -2.964986562728881836e-01 3.503312468528747559e-01
8.120000000000000000e+02 1.790810012817382812e+01 -1.640461325645446777e+00 -8.204526901245117188e-01 6.879083514213562012e-01 -3.976331278681755066e-02 8.721492439508438110e-02
8.130000000000000000e+02 1.814174652099609375e+01 -2.493778944015502930e+00 -9.401898384094238281e-01 6.282787919044494629e-01 -9.357331693172454834e-02 1.648630797863006592e-01
8.140000000000000000e+02 1.859565544128417969e+01 -2.904229164123535156e+00 -9.036014676094055176e-01 1.210098624229431152e+00 9.194914996623992920e-02 2.988717146217823029e-02
8.150000000000000000e+02 1.907922744750976562e+01 -3.278993844985961914e+00 -8.582699298858642578e-01 2.087632894515991211e+00 3.688089251518249512e-01 -1.188092306256294250e-01
8.160000000000000000e+02 1.936064338684082031e+01 -3.652235269546508789e+00 -8.719629645347595215e-01 2.934889554977416992e+00 6.188780069351196289e-01 -2.027931213378906250e-01
8.170000000000000000e+02 2.029830551147460938e+01 -4.640650272369384766e+00 -8.111289143562316895e-01 7.726401805877685547e+00 2.074581861495971680e+00 1.111758112907409668e+00
8.180000000000000000e+02 2.040887641906738281e+01 -4.777693271636962891e+00 -5.836327672004699707e-01 8.573449134826660156e+00 2.396944999694824219e+00 1.719861984252929688e+00
8.190000000000000000e+02 2.158570480346679688e+01 -6.200928688049316406e+00 9.816523551940917969e+00 5.967876434326171875e+00 4.735320091247558594e+00 5.695463180541992188e+00
8.200000000000000000e+02 2.161026573181152344e+01 -6.642853736877441406e+00 1.175316905975341797e+01 4.978016853332519531e+00 5.019355773925781250e+00 3.956391811370849609e+00
8.210000000000000000e+02 2.145843887329101562e+01 -7.284251689910888672e+00 1.155062198638916016e+01 5.446250915527343750e+00 5.099061965942382812e+00 1.186502218246459961e+00
8.220000000000000000e+02 2.123370742797851562e+01 -7.670695304870605469e+00 1.020294570922851562e+01 6.813572883605957031e+00 5.104955673217773438e+00 2.635707557201385498e-01
8.230000000000000000e+02 2.050377273559570312e+01 -8.171587944030761719e+00 6.761018276214599609e+00 9.386512756347656250e+00 4.844259262084960938e+00 2.007830381393432617e+00
8.240000000000000000e+02 2.070618057250976562e+01 -8.082040786743164062e+00 7.383616924285888672e+00 8.947323799133300781e+00 4.899282455444335938e+00 1.237292408943176270e+00
8.250000000000000000e+02 1.933189010620117188e+01 -8.179526329040527344e+00 7.385312557220458984e+00 6.302396297454833984e+00 4.106312751770019531e+00 6.883904933929443359e+00
8.260000000000000000e+02 1.669433975219726562e+01 -5.851835727691650391e+00 2.782345294952392578e+00 -9.281333684921264648e-01 5.562635660171508789e-01 5.870118737220764160e-01
8.270000000000000000e+02 1.688998413085937500e+01 -5.977582931518554688e+00 3.398221254348754883e+00 -1.020044326782226562e+00 7.134530544281005859e-01 5.320098996162414551e-01
8.280000000000000000e+02 1.379102802276611328e+01 -4.521209239959716797e+00 -5.070715397596359253e-02 -5.627637729048728943e-02 -3.209505975246429443e-02 6.549419760704040527e-01
8.290000000000000000e+02 1.506880283355712891e+01 -4.646211147308349609e+00 1.179028972983360291e-01 -3.857252001762390137e-01 -8.034669607877731323e-02 6.551106572151184082e-01
8.300000000000000000e+02 1.461395359039306641e+01 -4.323908329010009766e+00 -1.493403911590576172e-01 -2.750217914581298828e-01 -1.273086518049240112e-01 6.636556386947631836e-01
8.310000000000000000e+02 1.230304145812988281e+01 -2.967074632644653320e+00 -9.872403144836425781e-01 8.329951763153076172e-02 -2.711822390556335449e-01 4.260397255420684814e-01
8.320000000000000000e+02 1.291697025299072266e+01 -3.294318675994873047e+00 -8.750964403152465820e-01 1.541261188685894012e-02 -2.579051554203033447e-01 5.007641911506652832e-01
8.330000000000000000e+02 9.288544654846191406e+00 -1.940790176391601562e+00 -1.060615062713623047e+00 2.641099095344543457e-01 -2.389515638351440430e-01 4.788351431488990784e-02
8.340000000000000000e+02 7.235051727294921875e+01 -2.926162910461425781e+01 1.035282731056213379e+00 9.301844596862792969e+00 3.101138114929199219e+00 6.311633586883544922e-01
8.350000000000000000e+02 7.085567474365234375e+01 -2.992923355102539062e+01 1.481411695480346680e+00 7.575181961059570312e+00 2.716978073120117188e+00 3.024829149246215820e+00
8.360000000000000000e+02 6.919949340820312500e+01 -3.217993545532226562e+01 4.270634353160858154e-01 2.379141330718994141e+00 8.418614268302917480e-01 1.303882479667663574e+00
8.370000000000000000e+02 6.686399841308593750e+01 -3.408987808227539062e+01 -1.019031643867492676e+00 3.502240478992462158e-01 -2.006422579288482666e-01 5.419143661856651306e-02
8.380000000000000000e+02 6.476459503173828125e+01 3.425606918334960938e+01 -1.789678096771240234e+00 -6.812726259231567383e-01 -7.412852048873901367e-01 1.016037821769714355e+00
8.390000000000000000e+02 6.944899749755859375e+01 2.717772293090820312e+01 2.634262442588806152e-01 6.448873043060302734e+00 2.013689756393432617e+00 -9.338217377662658691e-01
8.400000000000000000e+02 6.994748687744140625e+01 2.290345001220703125e+01 1.162346377968788147e-01 8.631416320800781250e+00 2.624295234680175781e+00 -5.449827294796705246e-03
8.410000000000000000e+02 6.988136291503906250e+01 2.433106994628906250e+01 1.440028399229049683e-01 8.426852226257324219e+00 2.571256399154663086e+00 -2.920987904071807861e-01
8.420000000000000000e+02 6.995947265625000000e+01 1.865335083007812500e+01 -7.951178587973117828e-03 9.088758468627929688e+00 2.724242210388183594e+00 1.453263759613037109e-01
8.430000000000000000e+02 6.991761779785156250e+01 1.444633960723876953e+01 2.352171391248703003e-01 1.021057701110839844e+01 3.133738279342651367e+00 4.838156402111053467e-01
8.440000000000000000e+02 6.981880187988281250e+01 1.306134510040283203e+01 5.189817398786544800e-02 9.158938407897949219e+00 2.763251066207885742e+00 6.515386700630187988e-01
8.450000000000000000e+02 7.128253936767578125e+01 4.817740917205810547e+00 2.081931680440902710e-01 1.204455852508544922e+01 3.675825357437133789e+00 2.762463092803955078e-01
8.460000000000000000e+02 7.003060913085937500e+01 4.633963108062744141e-01 7.635857462882995605e-01 1.345007228851318359e+01 4.264097213745117188e+00 2.054035663604736328e+00
8.470000000000000000e+02 6.879176330566406250e+01 -3.702352523803710938e+00 9.130511283874511719e-01 8.739467620849609375e+00 2.895755529403686523e+00 2.595196247100830078e+00
8.480000000000000000e+02 6.826236724853515625e+01 -5.018723487854003906e+00 1.028100013732910156e+00 7.482730388641357422e+00 2.553249120712280273e+00 2.525910854339599609e+00
8.490000000000000000e+02 6.971996307373046875e+01 -7.322819232940673828e+00 3.614934086799621582e-01 6.727103233337402344e+00 2.126579046249389648e+00 1.081087589263916016e+00
8.500000000000000000e+02 6.404879760742187500e+01 -1.236392784118652344e+01 1.698548555374145508e+00 2.441533803939819336e+00 1.242024660110473633e+00 1.871721625328063965e+00
8.510000000000000000e+02 6.190491104125976562e+01 -1.424944400787353516e+01 1.500593543052673340e+00 1.202914237976074219e+00 8.110523223876953125e-01 1.329572439193725586e+00
8.520000000000000000e+02 5.799995040893554688e+01 -1.646437263488769531e+01 -2.483225584030151367e+00 1.041721105575561523e-01 -7.137160301208496094e-01 4.075996279716491699e-01
8.530000000000000000e+02 5.101465225219726562e+01 -1.017668628692626953e+01 1.636188030242919922e-01 3.860824823379516602e+00 1.207333087921142578e+00 -9.379195570945739746e-01
8.540000000000000000e+02 5.015280151367187500e+01 -7.526916027069091797e+00 3.122406899929046631e-01 4.601333141326904297e+00 1.474072098731994629e+00 -1.308369636535644531e+00
8.550000000000000000e+02 4.971524810791015625e+01 -6.207839012145996094e+00 4.091216623783111572e-01 4.830504894256591797e+00 1.571887969970703125e+00 -1.461188316345214844e+00
8.560000000000000000e+02 4.764408874511718750e+01 -4.129052162170410156e+00 3.624936640262603760e-01 4.999125957489013672e+00 1.608485937118530273e+00 -1.722882986068725586e+00
8.570000000000000000e+02 4.779204559326171875e+01 -1.018831849098205566e+00 7.404187321662902832e-01 4.674524784088134766e+00 1.624482989311218262e+00 -2.013887882232666016e+00
8.580000000000000000e+02 4.719603347778320312e+01 2.311915606260299683e-01 9.772248268127441406e-01 4.915686607360839844e+00 1.767873525619506836e+00 -2.263698101043701172e+00
8.590000000000000000e+02 4.657248306274414062e+01 1.475427031517028809e+00 1.127917528152465820e+00 5.167647838592529297e+00 1.888669610023498535e+00 -2.442294597625732422e+00
8.600000000000000000e+02 4.592791748046875000e+01 2.713914394378662109e+00 1.228610396385192871e+00 5.336636543273925781e+00 1.969573974609375000e+00 -2.659869909286499023e+00
8.610000000000000000e+02 4.455674743652343750e+01 5.159741401672363281e+00 1.718868374824523926e+00 6.734816074371337891e+00 2.536105394363403320e+00 -3.342565298080444336e+00
8.620000000000000000e+02 4.329465103149414062e+01 7.696447849273681641e+00 1.617991447448730469e+00 9.546870231628417969e+00 3.349458456039428711e+00 -3.698300600051879883e+00
8.630000000000000000e+02 4.225661849975585938e+01 1.184663486480712891e+01 5.131067037582397461e-01 1.350384521484375000e+01 4.205085754394531250e+00 -4.166932106018066406e-01
8.640000000000000000e+02 4.227074050903320312e+01 1.471487140655517578e+01 2.701181471347808838e-01 1.147080135345458984e+01 3.522275686264038086e+00 8.463071584701538086e-01
8.650000000000000000e+02 4.263158798217773438e+01 1.760166931152343750e+01 6.802006959915161133e-01 1.036458301544189453e+01 3.313435316085815430e+00 1.930645704269409180e+00
8.660000000000000000e+02 4.395677947998046875e+01 2.176764678955078125e+01 1.100176572799682617e+00 7.999159812927246094e+00 2.729800939559936523e+00 2.579128742218017578e+00
8.670000000000000000e+02 4.659558486938476562e+01 2.677623748779296875e+01 1.317428708076477051e+00 4.350771427154541016e+00 1.700460076332092285e+00 2.264963626861572266e+00
8.680000000000000000e+02 4.818728637695312500e+01 2.909265327453613281e+01 1.077355504035949707e+00 2.661180734634399414e+00 1.121560931205749512e+00 1.670428514480590820e+00
8.690000000000000000e+02 5.003093719482421875e+01 3.126851844787597656e+01 6.715213060379028320e-01 1.582822799682617188e+00 6.763032078742980957e-01 1.035281419754028320e+00
8.700000000000000000e+02 5.567841339111328125e+01 3.570398712158203125e+01 -8.180097937583923340e-01 -5.585490539669990540e-02 -2.621594071388244629e-01 -9.934749454259872437e-02
8.710000000000000000e+02 2.225990867614746094e+01 -1.273610782623291016e+01 -6.618384361267089844e+00 -1.942440122365951538e-01 -2.043788671493530273e+00 8.184081912040710449e-01
8.720000000000000000e+02 2.621190452575683594e+01 -1.568740749359130859e+01 -4.372081756591796875e+00 -5.473284721374511719e-01 -1.475823163986206055e+00 1.696370482444763184e+00
8.730000000000000000e+02 2.917067718505859375e+01 -1.545845222473144531e+01 -2.841054439544677734e+00 3.104903697967529297e-01 -7.591692209243774414e-01 2.709300816059112549e-01
8.740000000000000000e+02 3.125859451293945312e+01 -1.752375030517578125e+01 -2.477185487747192383e+00 7.738314568996429443e-02 -7.199407219886779785e-01 4.280808269977569580e-01
8.750000000000000000e+02 3.630340576171875000e+01 -1.787336540222167969e+01 5.624797940254211426e-02 6.449195146560668945e-01 2.103502452373504639e-01 -1.023154139518737793e+00
8.760000000000000000e+02 3.731197357177734375e+01 -1.728882408142089844e+01 1.015956878662109375e+00 1.964547872543334961e+00 8.941514492034912109e-01 -2.291039228439331055e+00
8.770000000000000000e+02 3.997916793823242188e+01 -1.786426734924316406e+01 1.815148353576660156e+00 6.536969661712646484e+00 2.505635499954223633e+00 -3.881694793701171875e+00
8.780000000000000000e+02 4.251204299926757812e+01 -2.117434120178222656e+01 4.769042968750000000e+00 1.480016708374023438e+01 5.870763301849365234e+00 -4.568027973175048828e+00
8.790000000000000000e+02 4.363191604614257812e+01 -2.393681716918945312e+01 2.489110946655273438e+00 1.328245639801025391e+01 4.731470108032226562e+00 -3.610163211822509766e+00
8.800000000000000000e+02 4.240525817871093750e+01 -2.663337898254394531e+01 7.898055016994476318e-02 1.309424781799316406e+01 3.951968431472778320e+00 -3.298313319683074951e-01
8.810000000000000000e+02 3.844833374023437500e+01 -3.276067733764648438e+01 -2.695924997329711914e+00 2.003495693206787109e-01 -7.486726045608520508e-01 -1.836520731449127197e-01
8.820000000000000000e+02 3.696079254150390625e+01 -3.316062164306640625e+01 -3.476521968841552734e+00 -1.067671924829483032e-01 -1.074986696243286133e+00 -2.810652256011962891e-01
8.830000000000000000e+02 2.963913154602050781e+01 -3.411080169677734375e+01 -2.012086629867553711e+00 2.347972430288791656e-02 -5.965820550918579102e-01 4.600713402032852173e-02
8.840000000000000000e+02 2.611216163635253906e+01 -3.138727188110351562e+01 -1.810781002044677734e+00 1.786157861351966858e-02 -5.378758311271667480e-01 1.660892963409423828e-01
8.850000000000000000e+02 2.483286857604980469e+01 -3.138415527343750000e+01 -1.841365694999694824e+00 -9.125346317887306213e-03 -5.551473498344421387e-01 1.333719938993453979e-01
8.860000000000000000e+02 2.212481880187988281e+01 -3.141933059692382812e+01 -2.072305917739868164e+00 -1.164785027503967285e-02 -6.251860857009887695e-01 1.010405123233795166e-01
8.870000000000000000e+02 1.929874038696289062e+01 -3.155639839172363281e+01 -2.865226030349731445e+00 -1.165105924010276794e-01 -8.945209383964538574e-01 3.068720400333404541e-01
8.880000000000000000e+02 1.785584068298339844e+01 -3.148544311523437500e+01 -3.444297313690185547e+00 -2.324503809213638306e-01 -1.103024244308471680e+00 5.606721043586730957e-01
8.890000000000000000e+02 9.286462783813476562e+00 -2.675919723510742188e+01 -7.399188876152038574e-01 3.329877614974975586e+00 7.769876122474670410e-01 -4.179727286100387573e-02
8.900000000000000000e+02 8.509750366210937500e+00 -2.396130752563476562e+01 1.046251505613327026e-01 1.101987838745117188e+01 3.337351083755493164e+00 5.028474330902099609e-01
8.910000000000000000e+02 8.818783760070800781e+00 -2.051242256164550781e+01 2.361818075180053711e+00 1.375874996185302734e+01 4.836170196533203125e+00 4.332151412963867188e+00
8.920000000000000000e+02 1.009770965576171875e+01 -1.819839859008789062e+01 3.378490686416625977e+00 1.116487312316894531e+01 4.363008975982666016e+00 5.743794441223144531e+00
8.930000000000000000e+02 1.813800811767578125e+01 -1.317047786712646484e+01 -7.088658332824707031e+00 -8.545793592929840088e-02 -2.152234792709350586e+00 1.859749913215637207e+00
8.940000000000000000e+02 1.924325561523437500e+01 -3.461491107940673828e+00 -8.786442875862121582e-01 2.523427724838256836e+00 4.934350550174713135e-01 -1.648062169551849365e-01
8.950000000000000000e+02 1.990657234191894531e+01 -4.222689628601074219e+00 -9.000867009162902832e-01 5.172115325927734375e+00 1.281608700752258301e+00 1.300664097070693970e-01
8.960000000000000000e+02 2.017520523071289062e+01 -4.486254692077636719e+00 -8.689833283424377441e-01 6.677284717559814453e+00 1.742490410804748535e+00 5.963137149810791016e-01
8.970000000000000000e+02 1.978138351440429688e+01 -4.070718765258789062e+00 -9.173856973648071289e-01 4.487078666687011719e+00 1.070907831192016602e+00 -1.219103112816810608e-02
8.980000000000000000e+02 2.055015754699707031e+01 -4.891973972320556641e+00 -2.401740550994873047e-01 9.094962120056152344e+00 2.656436443328857422e+00 2.410986423492431641e+00
8.990000000000000000e+02 2.069713973999023438e+01 -5.017212867736816406e+00 3.774176239967346191e-01 9.615131378173828125e+00 2.997764587402343750e+00 3.372249603271484375e+00
9.000000000000000000e+02 1.948554992675781250e+01 -3.804937601089477539e+00 -9.045021533966064453e-01 3.261894941329956055e+00 7.072178125381469727e-01 -2.243319749832153320e-01
9.010000000000000000e+02 2.090076637268066406e+01 -7.968466758728027344e+00 8.290688514709472656e+00 8.317239761352539062e+00 4.982378482818603516e+00 6.318552494049072266e-01
9.020000000000000000e+02 2.161021614074707031e+01 -6.422062873840332031e+00 1.097533607482910156e+01 5.346905231475830078e+00 4.896672248840332031e+00 4.944878578186035156e+00
9.030000000000000000e+02 2.235317039489746094e+01 -1.387570095062255859e+01 -1.029756927490234375e+01 -9.459443688392639160e-01 -3.373054027557373047e+00 2.606904268264770508e+00
9.040000000000000000e+02 2.146787643432617188e+01 -5.750589847564697266e+00 6.819578170776367188e+00 7.473969936370849609e+00 4.288064479827880859e+00 6.336300849914550781e+00
9.050000000000000000e+02 1.954343223571777344e+01 -8.300348281860351562e+00 6.732542514801025391e+00 7.259884357452392578e+00 4.197728157043457031e+00 6.180438995361328125e+00
9.060000000000000000e+02 1.956606101989746094e+01 -1.326297092437744141e+01 -1.051329612731933594e+01 -4.974270164966583252e-01 -3.303216934204101562e+00 2.299871683120727539e+00
9.070000000000000000e+02 1.980685043334960938e+01 -8.357101440429687500e+00 6.113260746002197266e+00 8.253369331359863281e+00 4.309988975524902344e+00 5.146362304687500000e+00
9.080000000000000000e+02 2.158518600463867188e+01 -6.861619472503662109e+00 1.202392482757568359e+01 4.917683601379394531e+00 5.082482814788818359e+00 2.935460567474365234e+00
9.090000000000000000e+02 2.200669670104980469e+01 -6.684072494506835938e+00 1.020744514465332031e+01 3.958059787750244141e+00 4.249651432037353516e+00 3.375982284545898438e+00
9.100000000000000000e+02 1.866844940185546875e+01 -8.098686218261718750e+00 8.633215904235839844e+00 2.502255678176879883e+00 3.340641498565673828e+00 6.889727592468261719e+00
9.110000000000000000e+02 2.198271751403808594e+01 -6.948955059051513672e+00 1.044033241271972656e+01 3.831096410751342773e+00 4.281428337097167969e+00 2.466426372528076172e+00
9.120000000000000000e+02 2.547055244445800781e+01 -1.408220005035400391e+01 -5.345048904418945312e+00 1.364059895277023315e-01 -1.562592864036560059e+00 7.901934385299682617e-01
9.130000000000000000e+02 2.028945732116699219e+01 -8.240402221679687500e+00 6.317695140838623047e+00 9.445879936218261719e+00 4.729072570800781250e+00 2.974200487136840820e+00
9.140000000000000000e+02 1.818586921691894531e+01 -7.591024875640869141e+00 9.669697761535644531e+00 -3.327661454677581787e-01 2.801079511642456055e+00 4.963100433349609375e+00
9.150000000000000000e+02 1.821347427368164062e+01 -7.210303306579589844e+00 1.015373516082763672e+01 -1.069157838821411133e+00 2.725373029708862305e+00 3.476535558700561523e+00
9.160000000000000000e+02 1.765291786193847656e+01 -6.624032497406005859e+00 6.506178855895996094e+00 -1.400136828422546387e+00 1.531812667846679688e+00 1.000517010688781738e+00
9.170000000000000000e+02 1.705792427062988281e+01 -6.650971412658691406e+00 5.164235115051269531e+00 -1.334338307380676270e+00 1.148969054222106934e+00 1.513555288314819336e+00
9.180000000000000000e+02 1.752079582214355469e+01 -6.460244655609130859e+00 5.679676532745361328e+00 -1.348223209381103516e+00 1.299436092376708984e+00 7.547838091850280762e-01
9.190000000000000000e+02 1.706320571899414062e+01 -6.109926700592041016e+00 3.830637216567993164e+00 -1.122465133666992188e+00 8.124516606330871582e-01 4.743317365646362305e-01
9.200000000000000000e+02 1.651605987548828125e+01 -1.219007968902587891e+01 -8.381592631340026855e-01 1.250063538551330566e+00 1.235712990164756775e-01 4.680180072784423828e+00
9.210000000000000000e+02 1.781746101379394531e+01 -6.761739253997802734e+00 7.750559806823730469e+00 -1.480443835258483887e+00 1.881034731864929199e+00 1.500799298286437988e+00
9.220000000000000000e+02 1.595544338226318359e+01 -5.302143573760986328e+00 1.241857171058654785e+00 -6.198941469192504883e-01 1.865889281034469604e-01 6.113464236259460449e-01
9.230000000000000000e+02 1.410104274749755859e+01 -3.980263948440551758e+00 -4.604336619377136230e-01 -1.702592223882675171e-01 -1.892078667879104614e-01 6.127953529357910156e-01
9.240000000000000000e+02 1.474860382080078125e+01 -5.188287258148193359e+00 7.660933136940002441e-01 -3.215686678886413574e-01 1.333574056625366211e-01 7.667757868766784668e-01
9.250000000000000000e+02 1.552030944824218750e+01 -4.966356277465820312e+00 6.351860165596008301e-01 -5.052320957183837891e-01 3.898618370294570923e-02 6.745843291282653809e-01
9.260000000000000000e+02 1.521077728271484375e+01 -5.446759700775146484e+00 1.230628609657287598e+00 -4.927308857440948486e-01 2.213693112134933472e-01 7.820609807968139648e-01
9.270000000000000000e+02 1.559757137298583984e+01 -5.780557155609130859e+00 1.924919486045837402e+00 -6.717122793197631836e-01 3.759621679782867432e-01 9.120881557464599609e-01
9.280000000000000000e+02 1.762516021728515625e+01 -2.097490787506103516e+00 -1.028001904487609863e+00 3.009640574455261230e-01 -2.181113362312316895e-01 3.078665733337402344e-01
9.290000000000000000e+02 1.741402053833007812e+01 -1.217640042304992676e+00 -8.534785509109497070e-01 4.071752727031707764e-01 -1.338909864425659180e-01 1.834113001823425293e-01
9.300000000000000000e+02 1.839696311950683594e+01 -2.032722949981689453e+00 -8.587813973426818848e-01 1.203651785850524902e+00 1.034611016511917114e-01 -1.438302546739578247e-02
9.310000000000000000e+02 1.660417556762695312e+01 1.963099837303161621e-01 -6.321997046470642090e-01 2.610443830490112305e-01 -1.113465949892997742e-01 1.579871028661727905e-01
9.320000000000000000e+02 1.269188594818115234e+01 -3.850265979766845703e+00 -5.909976959228515625e-01 1.352668851613998413e-01 -1.367192417383193970e-01 4.765972495079040527e-01
9.330000000000000000e+02 1.161197662353515625e+01 -2.651807546615600586e+00 -1.061384081840515137e+00 1.579372286796569824e-01 -2.710340619087219238e-01 3.280265629291534424e-01
9.340000000000000000e+02 1.427047157287597656e+01 -4.895095348358154297e+00 3.288641273975372314e-01 -1.793484687805175781e-01 4.485470056533813477e-02 7.066991925239562988e-01
9.350000000000000000e+02 8.804731369018554688e+00 3.712387800216674805e+00 -2.933553159236907959e-01 -3.431406617164611816e-01 -1.909487992525100708e-01 6.043917536735534668e-01
9.360000000000000000e+02 8.294684410095214844e+00 2.745364189147949219e+00 -4.902851283550262451e-01 -2.665372788906097412e-01 -2.270467132329940796e-01 5.672789216041564941e-01
9.370000000000000000e+02 1.526350975036621094e+00 7.749213695526123047e+00 3.629023907706141472e-03 -5.538930892944335938e-01 -1.650792211294174194e-01 1.828338056802749634e-01
9.380000000000000000e+02 5.488994121551513672e+00 1.864352226257324219e+00 -3.538906276226043701e-01 -6.769455969333648682e-02 -1.264755576848983765e-01 2.692582607269287109e-01
9.390000000000000000e+02 9.044227600097656250e+00 2.856125593185424805e+00 -5.088199973106384277e-01 -3.347573876380920410e-01 -2.530732154846191406e-01 5.971118211746215820e-01
9.400000000000000000e+02 7.678649902343750000e+00 1.893364071846008301e+00 -6.373360157012939453e-01 -1.181548461318016052e-01 -2.266472578048706055e-01 4.270192384719848633e-01
9.410000000000000000e+02 6.849026679992675781e+00 2.636471033096313477e+00 -4.286570847034454346e-01 -1.448339670896530151e-01 -1.720473170280456543e-01 4.437099993228912354e-01
9.420000000000000000e+02 8.108242034912109375e+00 3.553643226623535156e+00 -3.471247553825378418e-01 -2.835659086704254150e-01 -1.892071962356567383e-01 5.774278044700622559e-01
9.430000000000000000e+02 1.827841997146606445e+00 4.091017246246337891e+00 -3.633445128798484802e-02 -2.032712399959564209e-01 -7.188170403242111206e-02 1.628167778253555298e-01
9.440000000000000000e+02 4.635894775390625000e+00 3.377242326736450195e+00 -1.970167458057403564e-01 -1.567809730768203735e-01 -1.061393171548843384e-01 3.360685706138610840e-01
9.450000000000000000e+02 1.319687724113464355e+00 3.266936063766479492e+00 -3.079973720014095306e-02 -1.347927451133728027e-01 -4.967774823307991028e-02 9.881041198968887329e-02
9.460000000000000000e+02 2.610625982284545898e+00 1.911366581916809082e+00 -1.001786142587661743e-01 -6.114368885755538940e-02 -4.839669167995452881e-02 1.131071671843528748e-01
9.470000000000000000e+02 1.527083683013916016e+01 1.115066289901733398e+00 -5.901304483413696289e-01 -1.031392589211463928e-01 -2.079809159040451050e-01 2.972246706485748291e-01
9.480000000000000000e+02 1.531021118164062500e+01 -4.958622157573699951e-01 -1.137746453285217285e+00 -4.477578103542327881e-01 -4.756512641906738281e-01 6.299017071723937988e-01
9.490000000000000000e+02 1.241338348388671875e+01 1.040415406227111816e+00 -1.103008866310119629e+00 -5.026835799217224121e-01 -4.817077219486236572e-01 6.581550240516662598e-01
9.500000000000000000e+02 1.462180328369140625e+01 -9.339766204357147217e-02 -1.153004288673400879e+00 -4.810698330402374268e-01 -4.902222454547882080e-01 6.703286170959472656e-01
9.510000000000000000e+02 1.627530860900878906e+01 -3.577524125576019287e-01 -8.484564423561096191e-01 -5.566296353936195374e-02 -2.712358236312866211e-01 3.452566266059875488e-01
9.520000000000000000e+02 1.493510913848876953e+01 4.998869001865386963e-01 -8.462874889373779297e-01 -3.138746321201324463e-01 -3.480486273765563965e-01 4.640807509422302246e-01
9.530000000000000000e+02 1.063711357116699219e+01 -3.793843507766723633e+00 -6.898984909057617188e-01 4.652927219867706299e-01 -6.738172471523284912e-02 1.674138605594635010e-01
9.540000000000000000e+02 6.111152648925781250e+00 -1.905822038650512695e+00 -7.080167531967163086e-01 7.863703370094299316e-02 -1.888139098882675171e-01 -3.270028531551361084e-01
9.550000000000000000e+02 6.994658946990966797e+00 -2.710668087005615234e+00 -7.130582332611083984e-01 2.134644091129302979e-01 -1.498781442642211914e-01 -3.383354842662811279e-01
9.560000000000000000e+02 4.507575988769531250e+00 -1.928588032722473145e+00 -4.817619323730468750e-01 -8.209046907722949982e-03 -1.469912976026535034e-01 -3.861880600452423096e-01
9.570000000000000000e+02 6.207769393920898438e+00 -2.725944280624389648e+00 -6.337729692459106445e-01 1.454944759607315063e-01 -1.464835405349731445e-01 -4.284255504608154297e-01
9.580000000000000000e+02 7.775947093963623047e+00 -2.712628602981567383e+00 -7.904039025306701660e-01 2.790977954864501953e-01 -1.533918231725692749e-01 -2.339386194944381714e-01
9.590000000000000000e+02 5.538596153259277344e+00 -3.610693454742431641e+00 -4.783231317996978760e-01 1.325671970844268799e-01 -1.037267819046974182e-01 -5.721508860588073730e-01
9.600000000000000000e+02 1.580945134162902832e+00 -9.236992835998535156e+00 -2.235919609665870667e-02 -1.773019909858703613e+00 -5.386137366294860840e-01 -6.298193335533142090e-01
9.610000000000000000e+02 5.054059028625488281e-01 -6.485473155975341797e+00 5.660306662321090698e-03 -1.314060211181640625e+00 -3.925199508666992188e-01 -1.816044449806213379e-01
9.620000000000000000e+02 5.440387129783630371e-01 -5.064064025878906250e+00 -8.862349204719066620e-03 -8.026974201202392578e-01 -2.434679418802261353e-01 -1.723074913024902344e-01
9.630000000000000000e+02 5.121171474456787109e-01 -3.612357139587402344e+00 -2.525167725980281830e-02 -4.274837970733642578e-01 -1.358206421136856079e-01 -1.281207501888275146e-01
9.640000000000000000e+02 1.201415729522705078e+01 2.169400215148925781e+00 -6.388649344444274902e-01 -4.731200933456420898e-01 -3.335955142974853516e-01 5.504910349845886230e-01
9.650000000000000000e+02 1.349402618408203125e+01 1.319129943847656250e+00 -8.035557866096496582e-01 -4.214601218700408936e-01 -3.675047755241394043e-01 5.320563912391662598e-01
9.660000000000000000e+02 1.422690486907958984e+01 9.134600758552551270e-01 -8.238871097564697266e-01 -3.791628181934356689e-01 -3.609149754047393799e-01 5.104612708091735840e-01
9.670000000000000000e+02 1.084143447875976562e+01 -2.355704545974731445e+00 -1.088433146476745605e+00 2.216734886169433594e-01 -2.600278854370117188e-01 2.240575551986694336e-01
9.680000000000000000e+02 1.129074096679687500e+01 -3.960684776306152344e+00 -6.132953166961669922e-01 4.116815030574798584e-01 -6.048413738608360291e-02 2.666811048984527588e-01
9.690000000000000000e+02 1.072650241851806641e+01 -3.074148178100585938e+00 -9.011935591697692871e-01 3.447994887828826904e-01 -1.669182181358337402e-01 1.689349561929702759e-01
9.700000000000000000e+02 5.549970626831054688e+01 -3.076107788085937500e+01 1.811173200607299805e+00 1.044736862182617188e+01 3.677562713623046875e+00 -1.554121136665344238e+00
9.710000000000000000e+02 6.948598480224609375e+01 -2.173428916931152344e+01 -1.305946588516235352e+00 1.551478743553161621e+00 7.365963608026504517e-02 -7.922161817550659180e-01
9.720000000000000000e+02 6.549824523925781250e+01 -2.089836883544921875e+01 -1.462776303291320801e+00 6.644721627235412598e-01 -2.394912242889404297e-01 7.293347120285034180e-01
9.730000000000000000e+02 6.177170181274414062e+01 -2.314482688903808594e+01 1.333942770957946777e+00 7.227925062179565430e-01 6.170206069946289062e-01 1.169270277023315430e+00
9.740000000000000000e+02 5.998101425170898438e+01 -2.293743324279785156e+01 1.268934011459350586e+00 1.222460865974426270e+00 7.474184632301330566e-01 1.375508666038513184e+00
9.750000000000000000e+02 5.650650024414062500e+01 -2.739439582824707031e+01 1.304026126861572266e+00 4.928112506866455078e+00 1.869641542434692383e+00 1.518234133720397949e+00
9.760000000000000000e+02 5.357623672485351562e+01 -2.843426322937011719e+01 1.356243491172790527e+00 6.586535453796386719e+00 2.382833719253540039e+00 -1.580675244331359863e+00
9.770000000000000000e+02 7.105202484130859375e+01 -2.288491249084472656e+01 7.124283909797668457e-01 6.718576431274414062e+00 2.229301452636718750e+00 -2.297637939453125000e+00
9.780000000000000000e+02 7.800337219238281250e+01 -2.238769721984863281e+01 -1.269597467035055161e-02 7.265631675720214844e+00 2.175880670547485352e+00 6.438458561897277832e-01
9.790000000000000000e+02 7.179575347900390625e+01 -3.058022689819335938e+01 3.476578891277313232e-01 8.046535491943359375e+00 2.518258094787597656e+00 9.610727429389953613e-01
9.800000000000000000e+02 5.885011672973632812e+01 -2.371272087097167969e+01 1.708038568496704102e+00 1.457730650901794434e+00 9.497307538986206055e-01 1.403837203979492188e+00
9.810000000000000000e+02 7.174612426757812500e+01 -2.737442398071289062e+01 6.960797309875488281e-01 1.315672397613525391e+01 4.155841350555419922e+00 1.199565529823303223e+00
9.820000000000000000e+02 7.323446655273437500e+01 -2.686511802673339844e+01 1.406135439872741699e+00 9.884420394897460938e+00 3.387166738510131836e+00 1.905476003885269165e-01
9.830000000000000000e+02 5.562159347534179688e+01 -2.609252357482910156e+01 1.227410197257995605e+00 4.314186096191406250e+00 1.662478804588317871e+00 2.842577397823333740e-01
9.840000000000000000e+02 7.159489440917968750e+01 -2.101979827880859375e+01 -1.576614618301391602e+00 6.903857231140136719e+00 1.598172783851623535e+00 -1.327249407768249512e+00
9.850000000000000000e+02 7.280016326904296875e+01 -2.800406265258789062e+01 1.423555374145507812e+00 1.015806388854980469e+01 3.474485874176025391e+00 4.468356966972351074e-01
9.860000000000000000e+02 5.775108718872070312e+01 -2.453402519226074219e+01 1.820205926895141602e+00 1.752451062202453613e+00 1.071797132492065430e+00 1.414676904678344727e+00
9.870000000000000000e+02 6.500959777832031250e+01 -3.604291915893554688e+01 -3.279478549957275391e-01 2.592808902263641357e-01 -2.060008235275745392e-02 5.743751674890518188e-02
9.880000000000000000e+02 6.546204376220703125e+01 -3.451018142700195312e+01 -1.447942495346069336e+00 5.956490337848663330e-02 -4.165132641792297363e-01 -1.059125214815139771e-01
9.890000000000000000e+02 5.667671966552734375e+01 -2.534948921203613281e+01 1.512315869331359863e+00 3.175889015197753906e+00 1.406461477279663086e+00 1.295132040977478027e+00
9.900000000000000000e+02 6.480845642089843750e+01 -3.955318450927734375e+01 8.454478383064270020e-01 9.225641489028930664e-01 5.304036140441894531e-01 2.129638753831386566e-02
9.910000000000000000e+02 5.630883407592773438e+01 -3.505566024780273438e+01 2.911287173628807068e-02 6.016635894775390625e+00 1.813724637031555176e+00 -1.783281683921813965e+00
9.920000000000000000e+02 5.725364303588867188e+01 -3.358280181884765625e+01 2.297791957855224609e+00 4.767211437225341797e+00 2.119501113891601562e+00 -3.122568130493164062e+00
9.930000000000000000e+02 7.575624847412109375e+01 -2.728315734863281250e+01 8.508432507514953613e-01 7.614637374877929688e+00 2.539644241333007812e+00 -9.173926711082458496e-02
9.940000000000000000e+02 7.258044433593750000e+01 -2.500452995300292969e+01 1.348813056945800781e+00 1.124014377593994141e+01 3.776686906814575195e+00 -4.866778850555419922e-01
9.950000000000000000e+02 5.697660446166992188e+01 -2.070161437988281250e+01 4.676811695098876953e-01 8.265103101730346680e-01 3.882574439048767090e-01 1.127791047096252441e+00
9.960000000000000000e+02 6.140576553344726562e+01 -1.588386058807373047e+01 1.994310915470123291e-01 1.302985429763793945e+00 4.507249295711517334e-01 1.183766841888427734e+00
9.970000000000000000e+02 7.109742736816406250e+01 -3.188962554931640625e+01 -1.569795459508895874e-01 5.998023509979248047e+00 1.752313256263732910e+00 1.231269717216491699e+00
9.980000000000000000e+02 4.568869400024414062e+01 -3.030087280273437500e+01 4.672344028949737549e-01 7.515207767486572266e+00 2.394732713699340820e+00 -1.646127939224243164e+00
9.990000000000000000e+02 4.520971298217773438e+01 -2.898265838623046875e+01 7.696702480316162109e-01 8.397448539733886719e+00 2.750135660171508789e+00 -1.647822618484497070e+00
1.000000000000000000e+03 8.384008407592773438e+00 -2.795451927185058594e+01 -2.041425943374633789e+00 4.359737396240234375e+00 6.954934000968933105e-01 1.224044919013977051e+00
1.001000000000000000e+03 8.443623542785644531e+00 -2.264152526855468750e+01 1.101475477218627930e+00 1.325038909912109375e+01 4.305559635162353516e+00 2.060639142990112305e+00
1.002000000000000000e+03 3.934875488281250000e+01 -1.892546844482421875e+01 5.061083793640136719e+00 5.747320652008056641e+00 3.242521286010742188e+00 -4.732831001281738281e+00
1.003000000000000000e+03 3.423810195922851562e+01 -1.583179187774658203e+01 -6.203157901763916016e-01 9.531339406967163086e-01 9.984543919563293457e-02 -1.299540996551513672e+00
1.004000000000000000e+03 1.193054389953613281e+01 -3.075117301940917969e+01 -2.723874092102050781e+00 -2.830554246902465820e-01 -9.020788669586181641e-01 8.059412240982055664e-01
1.005000000000000000e+03 1.504836463928222656e+01 -3.080979347229003906e+01 -4.190792560577392578e+00 -5.836372375488281250e-01 -1.432328939437866211e+00 1.324161291122436523e+00
1.006000000000000000e+03 4.305849456787109375e+01 -1.974529457092285156e+01 2.321489095687866211e+00 1.039234161376953125e+01 3.814149379730224609e+00 -2.321931123733520508e+00
1.007000000000000000e+03 3.580414199829101562e+01 -3.646637725830078125e+01 -1.401081204414367676e+00 1.457603275775909424e-01 -3.765962421894073486e-01 5.702816694974899292e-02
1.008000000000000000e+03 3.159164810180664062e+01 -1.334211063385009766e+01 -1.071970343589782715e+00 1.247356891632080078e+00 5.261595174670219421e-02 -1.180540442466735840e+00
1.009000000000000000e+03 6.763249874114990234e+00 -2.212471771240234375e+01 2.016002893447875977e+00 6.925164699554443359e+00 2.682350397109985352e+00 2.499661207199096680e+00
1.010000000000000000e+03 4.239087295532226562e+01 -2.527222633361816406e+01 4.603301584720611572e-01 1.441910266876220703e+01 4.463829517364501953e+00 -9.154114723205566406e-01
1.011000000000000000e+03 4.241878509521484375e+01 -2.801410293579101562e+01 7.877079844474792480e-01 1.285931491851806641e+01 4.094106674194335938e+00 6.091932058334350586e-01
1.012000000000000000e+03 1.670434188842773438e+01 -1.331457710266113281e+01 -1.658427000045776367e+00 7.278801202774047852e-01 -2.791640758514404297e-01 1.928731322288513184e+00
1.013000000000000000e+03 1.356632328033447266e+01 -1.336203956604003906e+01 2.927630424499511719e+00 3.760129690170288086e+00 2.006328105926513672e+00 3.785540342330932617e+00
1.014000000000000000e+03 3.909807968139648438e+01 -3.440181350708007812e+01 -2.009097576141357422e+00 1.548145294189453125e+00 -1.382856965065002441e-01 9.814530611038208008e-01
1.015000000000000000e+03 2.368645095825195312e+01 -3.281256866455078125e+01 -1.961300373077392578e+00 -2.030941471457481384e-02 -5.944828987121582031e-01 2.132941484451293945e-01
1.016000000000000000e+03 4.310871887207031250e+01 -3.326538848876953125e+01 -1.945789098739624023e+00 6.108883857727050781e+00 1.248928546905517578e+00 -8.587203046772629023e-05
1.017000000000000000e+03 4.254207992553710938e+01 -3.109160995483398438e+01 -2.466252148151397705e-01 7.089717864990234375e+00 2.052927732467651367e+00 6.005839705467224121e-01
1.018000000000000000e+03 1.831896400451660156e+01 -7.737020969390869141e+00 9.592838287353515625e+00 3.148454725742340088e-01 2.972305059432983398e+00 5.677121639251708984e+00
1.019000000000000000e+03 6.922240734100341797e+00 -1.855346488952636719e+01 2.214758634567260742e+00 6.090652942657470703e+00 2.491623401641845703e+00 1.967518568038940430e+00
1.020000000000000000e+03 9.243834495544433594e+00 -1.746436882019042969e+01 3.209796905517578125e+00 9.004289627075195312e+00 3.664226055145263672e+00 4.226981639862060547e+00
1.021000000000000000e+03 1.081004428863525391e+01 -1.701854896545410156e+01 4.807253837585449219e+00 1.034598731994628906e+01 4.545972347259521484e+00 6.352275848388671875e+00
1.022000000000000000e+03 3.520440292358398438e+01 -3.502146530151367188e+01 -2.117248773574829102e+00 -4.147186279296875000e-01 -7.595902085304260254e-01 -2.168403714895248413e-01
1.023000000000000000e+03 1.535832214355468750e+01 -1.188782024383544922e+01 5.426930189132690430e-01 2.192749738693237305e+00 8.206328749656677246e-01 4.765555858612060547e+00
1.024000000000000000e+03 1.763158035278320312e+01 -3.319935607910156250e+01 -2.292802810668945312e+00 -5.662566423416137695e-01 -8.577178716659545898e-01 7.800389528274536133e-01
1.025000000000000000e+03 2.072781753540039062e+01 -3.150400352478027344e+01 -2.444138288497924805e+00 -5.069607868790626526e-02 -7.484502792358398438e-01 1.664509475231170654e-01
1.026000000000000000e+03 4.363306808471679688e+01 -2.524222564697265625e+01 9.443050026893615723e-01 1.274201679229736328e+01 4.105896472930908203e+00 -2.080545186996459961e+00
1.027000000000000000e+03 3.002894210815429688e+01 -3.221020889282226562e+01 -2.002178907394409180e+00 6.553284823894500732e-03 -5.986876487731933594e-01 2.075746506452560425e-01
1.028000000000000000e+03 3.292918395996093750e+01 -3.398687744140625000e+01 -2.619446754455566406e+00 -6.440861523151397705e-02 -8.051565885543823242e-01 -2.260690778493881226e-01
1.029000000000000000e+03 2.096490859985351562e+01 -1.356370449066162109e+01 -1.175076007843017578e+01 -5.839269757270812988e-01 -3.700406074523925781e+00 2.583441734313964844e+00
1.030000000000000000e+03 1.462394809722900391e+01 -3.201087951660156250e+01 -2.876456737518310547e+00 -7.994189262390136719e-01 -1.102762699127197266e+00 1.021449089050292969e+00
1.031000000000000000e+03 2.814854049682617188e+01 -3.377011489868164062e+01 -1.915551781654357910e+00 9.251715382561087608e-04 -5.743879675865173340e-01 9.767956286668777466e-02
1.032000000000000000e+03 1.325885581970214844e+01 -3.142687034606933594e+01 -2.816214561462402344e+00 -7.978864312171936035e-01 -1.084230303764343262e+00 1.035459160804748535e+00
1.033000000000000000e+03 2.746573829650878906e+01 -1.620421218872070312e+01 -3.888049125671386719e+00 -4.128788709640502930e-01 -1.290278434753417969e+00 1.339336872100830078e+00
1.034000000000000000e+03 3.581794357299804688e+01 -1.683012962341308594e+01 -2.744402736425399780e-02 9.910966157913208008e-01 2.890957891941070557e-01 -1.841927886009216309e+00
1.035000000000000000e+03 2.232804489135742188e+01 -3.294473266601562500e+01 -2.087219953536987305e+00 -4.587751626968383789e-02 -6.399292349815368652e-01 3.205438852310180664e-01
1.036000000000000000e+03 3.383451080322265625e+01 -1.790034294128417969e+01 -2.208565235137939453e+00 1.316621750593185425e-01 -6.230708956718444824e-01 -9.200460463762283325e-02
1.037000000000000000e+03 2.790077781677246094e+01 -1.506642913818359375e+01 -3.339089870452880859e+00 2.003690302371978760e-01 -9.416162967681884766e-01 5.325160622596740723e-01
1.038000000000000000e+03 2.872753524780273438e+01 -1.669347572326660156e+01 -3.295715808868408203e+00 -2.590065002441406250e-01 -1.066416621208190918e+00 1.041033983230590820e+00
1.039000000000000000e+03 3.280885696411132812e+01 -1.657447433471679688e+01 -1.644621372222900391e+00 4.498960077762603760e-01 -3.584176301956176758e-01 -2.862482368946075439e-01
1.040000000000000000e+03 3.510104370117187500e+01 -1.794272804260253906e+01 -1.777784466743469238e+00 -7.202606648206710815e-02 -5.549431443214416504e-01 -1.606681793928146362e-01
1.041000000000000000e+03 2.498712348937988281e+01 -1.508356189727783203e+01 -5.492868423461914062e+00 -8.963593840599060059e-01 -1.916768312454223633e+00 2.255983591079711914e+00
1.042000000000000000e+03 2.728185844421386719e+01 -3.164070701599121094e+01 -1.884031057357788086e+00 -4.646915942430496216e-02 -5.791500806808471680e-01 1.584658324718475342e-01
1.043000000000000000e+03 1.951886415481567383e+00 -2.458803939819335938e+01 6.633272767066955566e-02 2.832676470279693604e-01 1.048801094293594360e-01 1.850687146186828613e+00
1.044000000000000000e+03 7.415122985839843750e+00 -2.430743217468261719e+01 7.767679691314697266e-01 8.174286842346191406e+00 2.685316324234008789e+00 2.328063488006591797e+00
1.045000000000000000e+03 2.667421340942382812e+01 -3.396076202392578125e+01 -1.812349081039428711e+00 -3.127276152372360229e-02 -5.530865788459777832e-01 1.188439279794692993e-01
1.046000000000000000e+03 9.498765945434570312e+00 -2.898686027526855469e+01 -2.272476673126220703e+00 2.128684043884277344e+00 -4.313777759671211243e-02 5.703694224357604980e-01
1.047000000000000000e+03 4.366908645629882812e+01 -2.655704498291015625e+01 1.051637291908264160e+00 1.192722034454345703e+01 3.893657445907592773e+00 -1.131110548973083496e+00
1.048000000000000000e+03 2.522282028198242188e+01 -3.419689941406250000e+01 -1.834479689598083496e+00 -7.674541324377059937e-02 -5.733675360679626465e-01 1.884641945362091064e-01
1.049000000000000000e+03 8.522441864013671875e+00 -1.851957511901855469e+01 2.433683395385742188e+00 9.660666465759277344e+00 3.628304719924926758e+00 3.353885650634765625e+00
1.050000000000000000e+03 4.200071716308593750e+01 -1.926691055297851562e+01 1.585418701171875000e+00 1.085815525054931641e+01 3.733072280883789062e+00 -3.155601024627685547e+00
1.051000000000000000e+03 1.465393829345703125e+01 -1.273047542572021484e+01 1.340171694755554199e+00 2.852077484130859375e+00 1.257674694061279297e+00 3.969918012619018555e+00
1.052000000000000000e+03 1.236307716369628906e+01 -1.385201454162597656e+01 3.296275615692138672e+00 5.245979309082031250e+00 2.562676429748535156e+00 3.819440364837646484e+00
1.053000000000000000e+03 1.931062316894531250e+01 -3.334297943115234375e+01 -2.248692274093627930e+00 -3.341198563575744629e-01 -7.748436331748962402e-01 6.341521143913269043e-01
1.054000000000000000e+03 5.664131927490234375e+01 3.855995178222656250e+01 -4.295935332775115967e-01 -8.433137834072113037e-02 -1.541774719953536987e-01 2.658340334892272949e-01
1.055000000000000000e+03 6.293172454833984375e+01 4.142231750488281250e+01 3.598252832889556885e-01 -1.767849326133728027e-01 5.491210147738456726e-02 2.735251560807228088e-02
1.056000000000000000e+03 5.713757324218750000e+01 -2.349672508239746094e+01 1.447437882423400879e+00 1.989738106727600098e+00 1.031152844429016113e+00 1.133414387702941895e+00
1.057000000000000000e+03 5.861992645263671875e+01 -1.770127296447753906e+01 -1.417828321456909180e+00 6.269106268882751465e-01 -2.372752875089645386e-01 1.596141338348388672e+00
1.058000000000000000e+03 5.422230911254882812e+01 3.763596725463867188e+01 -5.271966457366943359e-01 4.720626473426818848e-01 -1.654018834233283997e-02 2.199630588293075562e-01
1.059000000000000000e+03 6.071000671386718750e+01 -1.506051921844482422e+01 8.092758059501647949e-01 7.996726632118225098e-01 4.826845526695251465e-01 9.164308905601501465e-01
1.060000000000000000e+03 4.135300827026367188e+01 1.014954376220703125e+01 1.797352910041809082e+00 1.097047042846679688e+01 3.830347061157226562e+00 -1.317487478256225586e+00
1.061000000000000000e+03 4.223905563354492188e+01 1.327696990966796875e+01 2.619833052158355713e-01 1.207056236267089844e+01 3.699763536453247070e+00 4.071060419082641602e-01
1.062000000000000000e+03 7.066494750976562500e+01 3.139953422546386719e+01 -7.063180804252624512e-01 5.273577690124511719e+00 1.370177865028381348e+00 1.603146195411682129e-01
1.063000000000000000e+03 6.697529602050781250e+01 3.425589370727539062e+01 -9.877759814262390137e-01 1.439235687255859375e+00 1.354379057884216309e-01 1.793775521218776703e-02
1.064000000000000000e+03 3.944270324707031250e+01 1.857151412963867188e+01 9.313127398490905762e-01 7.995502471923828125e+00 2.678044557571411133e+00 4.291577339172363281e-01
1.065000000000000000e+03 4.070137405395507812e+01 1.626237678527832031e+01 9.243743419647216797e-01 9.412678718566894531e+00 3.101115942001342773e+00 6.652640104293823242e-01
1.066000000000000000e+03 7.020376586914062500e+01 6.152875900268554688e+00 2.168864458799362183e-01 1.314646530151367188e+01 4.009005546569824219e+00 -1.346223652362823486e-01
1.067000000000000000e+03 7.437994384765625000e+01 8.502585411071777344e+00 6.430482957512140274e-03 8.747547149658203125e+00 2.626193284988403320e+00 7.685682773590087891e-01
1.068000000000000000e+03 7.783953857421875000e+01 -3.502042770385742188e+01 -1.117304414510726929e-01 7.712224960327148438e+00 2.280148267745971680e+00 -3.252782523632049561e-01
1.069000000000000000e+03 7.681156921386718750e+01 -2.686646842956542969e+01 6.321917772293090820e-01 7.307569503784179688e+00 2.381928443908691406e+00 5.969295743852853775e-03
1.070000000000000000e+03 7.577506256103515625e+01 -2.083021545410156250e+01 -5.131874084472656250e-01 7.683661460876464844e+00 2.151142120361328125e+00 5.494921803474426270e-01
1.071000000000000000e+03 7.932476806640625000e+01 -2.514383506774902344e+01 5.025979876518249512e-02 6.119957923889160156e+00 1.851065278053283691e+00 1.424421370029449463e-01
1.072000000000000000e+03 7.796451568603515625e+01 -2.382224082946777344e+01 1.309282481670379639e-01 7.038569450378417969e+00 2.150849342346191406e+00 5.717389583587646484e-01
1.073000000000000000e+03 7.805975341796875000e+01 -3.084369087219238281e+01 4.121629521250724792e-03 7.098741531372070312e+00 2.130858898162841797e+00 -5.771759152412414551e-01
1.074000000000000000e+03 7.932421112060546875e+01 -3.212335205078125000e+01 -5.702204257249832153e-02 7.271275043487548828e+00 2.164275884628295898e+00 -2.398778796195983887e-01
1.075000000000000000e+03 7.795983123779296875e+01 -3.223424530029296875e+01 -4.975328221917152405e-02 7.336052894592285156e+00 2.185889959335327148e+00 -5.876889228820800781e-01
1.076000000000000000e+03 7.630920410156250000e+01 -3.524090957641601562e+01 -3.134464919567108154e-01 7.421283245086669922e+00 2.132350921630859375e+00 -4.360920786857604980e-01
1.077000000000000000e+03 7.655419158935546875e+01 -3.660730361938476562e+01 -2.595371305942535400e-01 7.471312522888183594e+00 2.163532733917236328e+00 -1.758706420660018921e-01
1.078000000000000000e+03 7.612113952636718750e+01 -4.067675018310546875e+01 -1.912002079188823700e-02 7.466085910797119141e+00 2.234089851379394531e+00 -1.813161224126815796e-01
1.079000000000000000e+03 7.874661254882812500e+01 -4.037914276123046875e+01 -9.119403362274169922e-02 8.179538726806640625e+00 2.426503419876098633e+00 2.136591523885726929e-01
1.080000000000000000e+03 7.820053100585937500e+01 1.655133819580078125e+01 -2.257897751405835152e-03 7.654948234558105469e+00 2.295807123184204102e+00 2.843945324420928955e-01
1.081000000000000000e+03 7.789876556396484375e+01 3.302637100219726562e+01 -9.256125241518020630e-02 1.008020114898681641e+01 2.996291875839233398e+00 3.240151405334472656e-01
1.082000000000000000e+03 7.825246429443359375e+01 2.902777099609375000e+01 -2.254868298768997192e-02 9.685709953308105469e+00 2.898948431015014648e+00 4.615577757358551025e-01
1.083000000000000000e+03 7.942266082763671875e+01 2.781605720520019531e+01 -1.359063084237277508e-03 9.902791976928710938e+00 2.970429897308349609e+00 1.973421573638916016e-01
1.084000000000000000e+03 7.826478576660156250e+01 2.637801933288574219e+01 1.761158928275108337e-02 9.168523788452148438e+00 2.755840778350830078e+00 4.698512256145477295e-01
1.085000000000000000e+03 7.822495269775390625e+01 2.502041435241699219e+01 2.081749401986598969e-02 8.899533271789550781e+00 2.676105260848999023e+00 4.625252783298492432e-01
1.086000000000000000e+03 7.940783691406250000e+01 2.505700874328613281e+01 1.111338660120964050e-02 9.120899200439453125e+00 2.739603757858276367e+00 1.884650290012359619e-01
1.087000000000000000e+03 7.702252960205078125e+01 1.644443702697753906e+01 7.209779694676399231e-03 7.876904487609863281e+00 2.365234136581420898e+00 4.219483733177185059e-01
1.088000000000000000e+03 7.939365386962890625e+01 1.805871963500976562e+01 -6.572339683771133423e-03 7.660870075225830078e+00 2.296289205551147461e+00 1.244248226284980774e-01
1.089000000000000000e+03 7.819250488281250000e+01 1.794846534729003906e+01 1.954751648008823395e-02 7.827782630920410156e+00 2.354199171066284180e+00 3.059622347354888916e-01
1.090000000000000000e+03 7.820529937744140625e+01 1.516571712493896484e+01 -7.913128472864627838e-03 7.480453491210937500e+00 2.241761922836303711e+00 3.062393367290496826e-01
1.091000000000000000e+03 7.818756866455078125e+01 1.103341865539550781e+01 -2.428168617188930511e-02 6.898386001586914062e+00 2.062231302261352539e+00 4.094084799289703369e-01
1.092000000000000000e+03 7.688715362548828125e+01 8.214118003845214844e+00 3.034523688256740570e-02 7.193808078765869141e+00 2.167245864868164062e+00 6.387486457824707031e-01
1.093000000000000000e+03 7.938216400146484375e+01 -1.954119682312011719e+01 -6.123696267604827881e-02 7.921737194061279297e+00 2.358150005340576172e+00 1.431963443756103516e-01
1.094000000000000000e+03 7.809551239013671875e+01 -2.097599983215332031e+01 -1.334819644689559937e-01 7.526969909667968750e+00 2.218046426773071289e+00 5.332869291305541992e-01
1.095000000000000000e+03 7.810660552978515625e+01 -1.411714744567871094e+01 -7.245606929063796997e-02 7.544554233551025391e+00 2.241629362106323242e+00 -2.741316258907318115e-01
1.096000000000000000e+03 7.806890869140625000e+01 -7.080258369445800781e+00 3.816557349637150764e-03 6.551241397857666016e+00 1.966517448425292969e+00 -4.449050724506378174e-01
1.097000000000000000e+03 7.819536590576171875e+01 1.285630345344543457e+00 1.081544607877731323e-01 5.625244140625000000e+00 1.720019578933715820e+00 -3.072108887135982513e-02
1.098000000000000000e+03 7.941319274902343750e+01 2.918949890136718750e+01 -2.785087097436189651e-03 1.029031753540039062e+01 3.086259603500366211e+00 1.906252205371856689e-01
1.099000000000000000e+03 7.799295806884765625e+01 4.167520904541015625e+01 3.480534553527832031e-01 1.052615165710449219e+01 3.262261390686035156e+00 -9.775170683860778809e-02
1.100000000000000000e+03 7.384419250488281250e+01 3.843414306640625000e+01 -1.580178737640380859e-01 6.963703155517578125e+00 2.041705608367919922e+00 8.045406639575958252e-02
1.101000000000000000e+03 7.923972320556640625e+01 3.470124435424804688e+01 -7.189373485743999481e-03 1.126609325408935547e+01 3.377671003341674805e+00 7.419465482234954834e-02
1.102000000000000000e+03 7.568843841552734375e+01 3.674316024780273438e+01 -2.543844282627105713e-01 8.667225837707519531e+00 2.523852348327636719e+00 2.063097208738327026e-01
1.103000000000000000e+03 7.236396026611328125e+01 4.880649566650390625e+00 4.974578619003295898e-01 1.070165061950683594e+01 3.359732389450073242e+00 5.020476579666137695e-01
1.104000000000000000e+03 7.938393402099609375e+01 4.143556118011474609e+00 2.665099315345287323e-02 4.778545856475830078e+00 1.441559076309204102e+00 9.484238177537918091e-02
1.105000000000000000e+03 7.816256713867187500e+01 4.065471172332763672e+00 9.954619407653808594e-02 5.797700405120849609e+00 1.769173979759216309e+00 2.300555706024169922e-01
1.106000000000000000e+03 7.700847625732421875e+01 1.205694317817687988e+00 2.198923528194427490e-01 6.517982006072998047e+00 2.021362304687500000e+00 -1.435359474271535873e-02
1.107000000000000000e+03 7.814713287353515625e+01 -2.838550567626953125e+00 3.708790242671966553e-02 5.931442737579345703e+00 1.790559172630310059e+00 -3.674016892910003662e-01
1.108000000000000000e+03 7.936811828613281250e+01 -4.203509807586669922e+00 -7.549583911895751953e-03 5.558455944061279297e+00 1.665271997451782227e+00 -1.704644411802291870e-01
1.109000000000000000e+03 7.808326721191406250e+01 -5.654311180114746094e+00 -1.103883376345038414e-03 6.336086750030517578e+00 1.900494813919067383e+00 -4.445016384124755859e-01
1.110000000000000000e+03 7.807214355468750000e+01 -9.915291786193847656e+00 -1.186968944966793060e-02 6.976116657257080078e+00 2.089274168014526367e+00 -4.127162694931030273e-01
1.111000000000000000e+03 7.935686492919921875e+01 -1.120603656768798828e+01 -2.422824763925746083e-04 7.363459587097167969e+00 2.208965063095092773e+00 -1.502593308687210083e-01
1.112000000000000000e+03 7.808602905273437500e+01 -1.272455692291259766e+01 -3.996638208627700806e-02 7.373832702636718750e+00 2.200159788131713867e+00 -3.350059390068054199e-01
1.113000000000000000e+03 7.816680145263671875e+01 -1.686762046813964844e+01 -1.205469518899917603e-01 7.763347625732421875e+00 2.292840242385864258e+00 -4.056965932250022888e-02
1.114000000000000000e+03 7.939134979248046875e+01 -1.815357780456542969e+01 -1.986855827271938324e-02 8.137352943420410156e+00 2.435245513916015625e+00 5.195567011833190918e-02
1.115000000000000000e+03 7.818190765380859375e+01 -1.822659111022949219e+01 -1.461516320705413818e-01 7.767821788787841797e+00 2.286501169204711914e+00 1.443834155797958374e-01
1.116000000000000000e+03 7.107357788085937500e+01 1.316251182556152344e+01 -1.436698734760284424e-01 9.160820007324218750e+00 2.705145120620727539e+00 -3.058598935604095459e-02
1.117000000000000000e+03 5.047951507568359375e+01 -1.498745727539062500e+01 -1.530218601226806641e+00 4.097612857818603516e+00 7.702182531356811523e-01 -5.013552308082580566e-02
1.118000000000000000e+03 5.360049819946289062e+01 -1.526313114166259766e+01 -2.399182081222534180e+00 -5.640302896499633789e-01 -8.889636993408203125e-01 1.220589518547058105e+00
1.119000000000000000e+03 5.210387039184570312e+01 3.320700073242187500e+01 2.825075201690196991e-02 6.248953342437744141e-01 1.959438174962997437e-01 3.444963693618774414e-01
1.120000000000000000e+03 4.860689926147460938e+01 3.617742156982421875e+01 -6.552721858024597168e-01 2.488191127777099609e+00 5.498756766319274902e-01 5.865051150321960449e-01
1.121000000000000000e+03 6.581681823730468750e+01 3.325022125244140625e+01 -1.273054480552673340e+00 -3.822625279426574707e-01 -4.965951144695281982e-01 8.352077603340148926e-01
1.122000000000000000e+03 7.103128814697265625e+01 2.463912773132324219e+01 3.296892344951629639e-01 7.904280662536621094e+00 2.470191001892089844e+00 4.378822073340415955e-02
1.123000000000000000e+03 6.973809051513671875e+01 1.169355964660644531e+01 -4.081125259399414062e-01 8.034532546997070312e+00 2.287926197052001953e+00 1.307662427425384521e-01
1.124000000000000000e+03 4.714585113525390625e+01 -2.865952014923095703e+00 4.362210631370544434e-01 5.034016609191894531e+00 1.641071200370788574e+00 -1.893913626670837402e+00
1.125000000000000000e+03 5.938587570190429688e+01 3.839755249023437500e+01 -4.171378314495086670e-01 -4.040256142616271973e-01 -2.463490366935729980e-01 2.018259614706039429e-01
1.126000000000000000e+03 6.643035888671875000e+01 -8.820708274841308594e+00 1.043805718421936035e+00 4.436530590057373047e+00 1.644100904464721680e+00 2.043416023254394531e+00
1.127000000000000000e+03 7.008615112304687500e+01 2.916353988647460938e+01 -1.109618768095970154e-01 5.387034893035888672e+00 1.582821846008300781e+00 -1.143591701984405518e-01
1.128000000000000000e+03 6.302628326416015625e+01 -1.336354637145996094e+01 1.763544082641601562e+00 1.743460536003112793e+00 1.052101373672485352e+00 1.647192358970642090e+00
1.129000000000000000e+03 6.490979766845703125e+01 -1.303225135803222656e+01 1.284011721611022949e+00 2.570818662643432617e+00 1.156449198722839355e+00 1.438239097595214844e+00
1.130000000000000000e+03 6.995124816894531250e+01 1.724973678588867188e+01 2.861569076776504517e-02 9.379144668579101562e+00 2.822328090667724609e+00 1.710558831691741943e-01
1.131000000000000000e+03 6.599607849121093750e+01 3.565208053588867188e+01 -7.656791806221008301e-01 7.912449240684509277e-01 7.669718936085700989e-03 5.440924316644668579e-03
1.132000000000000000e+03 4.080211257934570312e+01 1.464667510986328125e+01 7.961211800575256348e-01 1.033479595184326172e+01 3.339275121688842773e+00 3.954394757747650146e-01
1.133000000000000000e+03 4.617321014404296875e+01 2.864596366882324219e+01 6.067902445793151855e-01 4.019857406616210938e+00 1.387994289398193359e+00 1.479779124259948730e+00
1.134000000000000000e+03 4.323269653320312500e+01 2.375360679626464844e+01 8.669807910919189453e-01 6.718380928039550781e+00 2.275608539581298828e+00 1.722327947616577148e+00
1.135000000000000000e+03 4.688897705078125000e+01 2.988530349731445312e+01 4.165249168872833252e-01 3.482337474822998047e+00 1.169658780097961426e+00 1.324794530868530273e+00
1.136000000000000000e+03 4.393601226806640625e+01 2.507234382629394531e+01 7.751137018203735352e-01 6.076985836029052734e+00 2.055629730224609375e+00 1.801725983619689941e+00
1.137000000000000000e+03 6.868951416015625000e+01 3.183385276794433594e+01 -8.123106360435485840e-01 3.084242105484008789e+00 6.815794706344604492e-01 -1.944658309221267700e-01
1.138000000000000000e+03 6.782940673828125000e+01 3.301123428344726562e+01 -9.581718444824218750e-01 2.073124408721923828e+00 3.344857692718505859e-01 -1.241123825311660767e-01
1.139000000000000000e+03 4.840368652343750000e+01 -9.769762992858886719e+00 -3.285224735736846924e-01 5.043475151062011719e+00 1.414485812187194824e+00 -8.066107630729675293e-01
1.140000000000000000e+03 4.347318267822265625e+01 2.041233634948730469e+01 8.637351393699645996e-01 8.637050628662109375e+00 2.850235939025878906e+00 2.392143487930297852e+00
1.141000000000000000e+03 4.927323913574218750e+01 -4.892219066619873047e+00 4.542976617813110352e-01 4.892856121063232422e+00 1.604146122932434082e+00 -1.571359395980834961e+00
1.142000000000000000e+03 4.745103454589843750e+01 -7.196730136871337891e+00 -4.332984983921051025e-02 5.173057079315185547e+00 1.538918256759643555e+00 -1.311359047889709473e+00
1.143000000000000000e+03 6.095274353027343750e+01 -1.776902770996093750e+01 -6.987212300300598145e-01 1.410663843154907227e+00 2.135827988386154175e-01 1.710939168930053711e+00
1.144000000000000000e+03 4.205468368530273438e+01 2.095851325988769531e+01 8.371258378028869629e-01 7.994836807250976562e+00 2.649588823318481445e+00 1.607493281364440918e+00
1.145000000000000000e+03 7.106744384765625000e+01 1.181277179718017578e+01 -6.041321754455566406e-01 9.571512222290039062e+00 2.690214157104492188e+00 7.484595477581024170e-02
1.146000000000000000e+03 5.234310913085937500e+01 -1.593108177185058594e+01 -2.032819032669067383e+00 2.081048488616943359e+00 1.446886826306581497e-02 1.521231234073638916e-02
1.147000000000000000e+03 6.263827896118164062e+01 -1.500229740142822266e+01 8.497210144996643066e-01 1.559025406837463379e+00 7.226238846778869629e-01 1.286633610725402832e+00
1.148000000000000000e+03 4.093016052246093750e+01 1.312609672546386719e+01 8.185874819755554199e-01 1.091615390777587891e+01 3.520422458648681641e+00 -2.828577756881713867e-01
1.149000000000000000e+03 7.043738555908203125e+01 -2.787401437759399414e+00 5.360509157180786133e-01 9.547523498535156250e+00 3.025072336196899414e+00 1.458119153976440430e+00
1.150000000000000000e+03 7.020272064208984375e+01 3.337666749954223633e+00 1.432356089353561401e-01 1.360112953186035156e+01 4.123309612274169922e+00 3.380558788776397705e-01
1.151000000000000000e+03 4.156549453735351562e+01 5.397272586822509766e+00 9.853010177612304688e-01 7.989744186401367188e+00 2.692513704299926758e+00 -1.756447434425354004e+00
1.152000000000000000e+03 4.811780166625976562e+01 -5.406778812408447266e+00 2.991351783275604248e-01 4.985794544219970703e+00 1.585478901863098145e+00 -1.538619160652160645e+00
1.153000000000000000e+03 4.832778167724609375e+01 -2.291840314865112305e+00 5.919502973556518555e-01 4.725507736206054688e+00 1.595237374305725098e+00 -1.816958546638488770e+00
1.154000000000000000e+03 7.050875854492187500e+01 2.766357040405273438e+01 1.664700210094451904e-01 6.501584053039550781e+00 2.000416278839111328e+00 -6.795138865709304810e-02
1.155000000000000000e+03 6.987258911132812500e+01 -4.173604965209960938e+00 6.087964177131652832e-01 8.582228660583496094e+00 2.757307529449462891e+00 1.615997314453125000e+00
1.156000000000000000e+03 4.524969863891601562e+01 3.937887907028198242e+00 1.490106105804443359e+00 5.818298339843750000e+00 2.192521333694458008e+00 -2.954605340957641602e+00
1.157000000000000000e+03 4.545296478271484375e+01 2.746047782897949219e+01 7.790200114250183105e-01 4.638707160949707031e+00 1.625318169593811035e+00 1.693161845207214355e+00
1.158000000000000000e+03 6.010035705566406250e+01 -1.680660438537597656e+01 -8.741825222969055176e-01 1.126950860023498535e+00 7.583049684762954712e-02 1.228111863136291504e+00
1.159000000000000000e+03 4.661317825317382812e+01 -1.617379069328308105e+00 5.098413228988647461e-01 5.163939476013183594e+00 1.702134132385253906e+00 -2.042513608932495117e+00
1.160000000000000000e+03 6.870269012451171875e+01 -6.805336475372314453e+00 6.066743731498718262e-01 6.641067504882812500e+00 2.174322605133056641e+00 1.681097030639648438e+00
1.161000000000000000e+03 4.948461532592773438e+01 -9.305109977722167969e+00 -4.799184575676918030e-02 4.603257656097412109e+00 1.366579771041870117e+00 -9.008443355560302734e-01
1.162000000000000000e+03 6.807086181640625000e+01 -8.073937416076660156e+00 6.799427270889282227e-01 5.669467926025390625e+00 1.904823184013366699e+00 1.674215435981750488e+00
1.163000000000000000e+03 7.020135498046875000e+01 4.746781349182128906e+00 3.676518797874450684e-03 1.293830585479736328e+01 3.882594585418701172e+00 1.371314376592636108e-01
1.164000000000000000e+03 7.123507690429687500e+01 9.065144538879394531e+00 -9.758782386779785156e-02 1.020865535736083984e+01 3.033320188522338867e+00 3.255428075790405273e-01
1.165000000000000000e+03 7.236410522460937500e+01 1.058854103088378906e+01 -4.656548202037811279e-01 9.592258453369140625e+00 2.737981081008911133e+00 4.665144979953765869e-01
1.166000000000000000e+03 4.155027389526367188e+01 1.946867942810058594e+01 7.406853437423706055e-01 8.617543220520019531e+00 2.807468414306640625e+00 1.348713994026184082e+00
1.167000000000000000e+03 6.680381011962890625e+01 -1.241700839996337891e+01 9.239079952239990234e-01 3.547401666641235352e+00 1.341392874717712402e+00 1.083962559700012207e+00
1.168000000000000000e+03 4.994859313964843750e+01 -1.062034034729003906e+01 -1.476900875568389893e-01 4.321155548095703125e+00 1.252039551734924316e+00 -6.334981918334960938e-01
1.169000000000000000e+03 5.146350860595703125e+01 -1.150438404083251953e+01 1.222661286592483521e-01 3.227215290069580078e+00 1.004844427108764648e+00 -6.784558892250061035e-01
1.170000000000000000e+03 5.044319915771484375e+01 -1.194031333923339844e+01 -3.967871069908142090e-01 3.847278833389282227e+00 1.035147547721862793e+00 -2.885982692241668701e-01
1.171000000000000000e+03 4.995366287231445312e+01 3.322034072875976562e+01 -5.162169411778450012e-02 1.857606768608093262e+00 5.417955517768859863e-01 7.934736013412475586e-01
1.172000000000000000e+03 6.929785156250000000e+01 -5.508284091949462891e+00 5.550782084465026855e-01 7.543862342834472656e+00 2.429682016372680664e+00 1.655736088752746582e+00
1.173000000000000000e+03 4.468466949462890625e+01 2.630210304260253906e+01 7.822413444519042969e-01 5.380141735076904297e+00 1.848714947700500488e+00 1.816509842872619629e+00
1.174000000000000000e+03 4.172690963745117188e+01 8.682145118713378906e+00 1.500745415687561035e+00 1.045789623260498047e+01 3.587592363357543945e+00 -1.763187646865844727e+00
1.175000000000000000e+03 4.220824432373046875e+01 7.259816646575927734e+00 1.332671761512756348e+00 9.447377204895019531e+00 3.234014749526977539e+00 -2.398769617080688477e+00
1.176000000000000000e+03 4.341149902343750000e+01 4.588232040405273438e+00 1.121524691581726074e+00 7.292768478393554688e+00 2.524287939071655273e+00 -2.562575101852416992e+00
1.177000000000000000e+03 4.277203369140625000e+01 5.894237518310546875e+00 1.258109211921691895e+00 8.084548950195312500e+00 2.802797317504882812e+00 -2.551497697830200195e+00
1.178000000000000000e+03 4.774994277954101562e+01 3.112284088134765625e+01 2.663971483707427979e-01 2.878773689270019531e+00 9.435512423515319824e-01 1.128396511077880859e+00
1.179000000000000000e+03 6.996227264404296875e+01 2.148064231872558594e+01 -2.486919285729527473e-03 8.643253326416015625e+00 2.592230081558227539e+00 1.050792858004570007e-01
1.180000000000000000e+03 7.113531494140625000e+01 2.313950157165527344e+01 2.097086012363433838e-01 8.281794548034667969e+00 2.547451019287109375e+00 1.152561679482460022e-01
1.181000000000000000e+03 4.293174743652343750e+01 2.729340791702270508e+00 7.204154729843139648e-01 6.686116218566894531e+00 2.221959590911865234e+00 -2.103989601135253906e+00
1.182000000000000000e+03 7.117336273193359375e+01 2.165901184082031250e+01 1.044406592845916748e-01 8.570065498352050781e+00 2.602351665496826172e+00 2.143988460302352905e-01
1.183000000000000000e+03 7.585568237304687500e+01 1.496424388885498047e+01 -4.032582044601440430e-02 8.067674636840820312e+00 2.408204555511474609e+00 4.987719953060150146e-01
1.184000000000000000e+03 7.117020416259765625e+01 1.876458358764648438e+01 4.632371291518211365e-02 8.904590606689453125e+00 2.685274124145507812e+00 3.393671810626983643e-01
1.185000000000000000e+03 1.316437363624572754e+00 -4.011273574829101562e+01 -1.301247924566268921e-01 5.604281425476074219e+00 1.642246961593627930e+00 -1.848315745592117310e-01
1.186000000000000000e+03 7.353326082229614258e-01 3.740078353881835938e+01 2.144943550229072571e-02 -8.810876011848449707e-01 -2.578914463520050049e-01 -4.053638502955436707e-02
1.187000000000000000e+03 6.719175577163696289e-01 3.463444137573242188e+01 1.830655499361455441e-03 -9.930959343910217285e-01 -2.973795831203460693e-01 -2.649408951401710510e-02
1.188000000000000000e+03 6.839815378189086914e-01 3.323416900634765625e+01 3.889369545504450798e-03 -1.042337179183959961e+00 -3.115343451499938965e-01 -2.070085890591144562e-02
1.189000000000000000e+03 6.967144608497619629e-01 2.753257179260253906e+01 -6.927060312591493130e-04 -1.219961047172546387e+00 -3.661961257457733154e-01 -2.255731634795665741e-02
1.190000000000000000e+03 6.864042878150939941e-01 2.611260032653808594e+01 1.269558793865144253e-03 -1.264121890068054199e+00 -3.788557052612304688e-01 -2.229630202054977417e-02
1.191000000000000000e+03 7.623383402824401855e-01 -3.602648162841796875e+01 8.044396527111530304e-03 5.932386875152587891e+00 1.782129406929016113e+00 7.018303126096725464e-02
1.192000000000000000e+03 2.194481849670410156e+00 -3.307317733764648438e+01 -3.159435093402862549e-01 4.687224388122558594e+00 1.311384201049804688e+00 6.253215670585632324e-01
1.193000000000000000e+03 3.450498104095458984e+00 2.557194328308105469e+01 1.663742773234844208e-02 -7.615278959274291992e-01 -2.234671413898468018e-01 -8.800803124904632568e-02
1.194000000000000000e+03 3.396344900131225586e+00 2.413094329833984375e+01 1.680287905037403107e-02 -7.952610850334167480e-01 -2.335374504327774048e-01 -6.975723803043365479e-02
1.195000000000000000e+03 1.999222755432128906e+00 3.446682357788085938e+01 -5.470060277730226517e-04 -7.960805296897888184e-01 -2.389882653951644897e-01 -5.329108610749244690e-02
1.196000000000000000e+03 2.052768230438232422e+00 3.311221694946289062e+01 4.567447118461132050e-03 -8.108094334602355957e-01 -2.418725937604904175e-01 -6.315580755472183228e-02
1.197000000000000000e+03 3.297604560852050781e+00 3.923440170288085938e+01 -4.396723583340644836e-03 -6.402664780616760254e-01 -1.933989673852920532e-01 -5.266419053077697754e-02
1.198000000000000000e+03 1.990961790084838867e+00 -2.883744812011718750e+01 -1.944845020771026611e-01 3.102854967117309570e+00 8.725111484527587891e-01 1.507091522216796875e+00
1.199000000000000000e+03 7.232526302337646484e+00 -2.313357543945312500e+01 1.405553817749023438e+00 7.984515666961669922e+00 2.817020654678344727e+00 2.767668962478637695e+00
1.200000000000000000e+03 2.260438203811645508e+00 -3.710633087158203125e+01 -1.032260954380035400e-01 5.176667690277099609e+00 1.522032380104064941e+00 9.014277905225753784e-02
1.201000000000000000e+03 6.232898831367492676e-01 2.044723892211914062e+01 3.328225808218121529e-03 -1.385015964508056641e+00 -4.145063161849975586e-01 -3.474198747426271439e-03
1.202000000000000000e+03 6.130900979042053223e-01 1.903833007812500000e+01 2.738438080996274948e-03 -1.382479071617126465e+00 -4.139221906661987305e-01 3.583835903555154800e-03
1.203000000000000000e+03 5.859068036079406738e-01 1.481859493255615234e+01 3.463380504399538040e-03 -1.266311407089233398e+00 -3.788543939590454102e-01 2.686084806919097900e-02
1.204000000000000000e+03 5.659055113792419434e-01 1.341161918640136719e+01 4.432430490851402283e-03 -1.185948252677917480e+00 -3.544547557830810547e-01 3.619083017110824585e-02
1.205000000000000000e+03 5.042708516120910645e-01 7.823714256286621094e+00 1.285020844079554081e-03 -6.136982440948486328e-01 -1.837239712476730347e-01 6.269195675849914551e-02
1.206000000000000000e+03 1.702799439430236816e+00 -1.614380264282226562e+01 1.433313041925430298e-01 -3.233310461044311523e+00 -9.269937276840209961e-01 -3.127053976058959961e-01
1.207000000000000000e+03 1.940166115760803223e+00 -2.169344520568847656e+01 3.404401242733001709e-01 -1.600244402885437012e+00 -3.779412806034088135e-01 1.229137182235717773e+00
1.208000000000000000e+03 3.464648008346557617e+00 -3.924626541137695312e+01 -1.180598288774490356e-01 5.015536308288574219e+00 1.469242930412292480e+00 6.617899239063262939e-02
1.209000000000000000e+03 3.968525171279907227e+00 -3.581272888183593750e+01 -3.972849547863006592e-01 4.300539493560791016e+00 1.170976281166076660e+00 4.261640012264251709e-01
1.210000000000000000e+03 2.298549652099609375e+00 -3.446924209594726562e+01 -2.001677453517913818e-01 4.958701610565185547e+00 1.427560210227966309e+00 3.845308125019073486e-01
1.211000000000000000e+03 2.096041440963745117e+00 -3.166005325317382812e+01 -2.564900219440460205e-01 4.333045005798339844e+00 1.222966551780700684e+00 8.974854350090026855e-01
1.212000000000000000e+03 1.956625580787658691e+00 -2.742653083801269531e+01 -2.173765152692794800e-01 2.271979570388793945e+00 6.163809299468994141e-01 1.757948756217956543e+00
1.213000000000000000e+03 1.938838481903076172e+00 -2.601603126525878906e+01 7.232828997075557709e-03 1.266824126243591309e+00 3.822171092033386230e-01 1.907794117927551270e+00
1.214000000000000000e+03 3.242680788040161133e+00 -2.297544288635253906e+01 5.975141525268554688e-01 1.163590788841247559e+00 5.283314585685729980e-01 2.291468858718872070e+00
1.215000000000000000e+03 7.668050289154052734e+00 -1.763691711425781250e+01 2.432668209075927734e+00 6.622019767761230469e+00 2.716406345367431641e+00 2.113851070404052734e+00
1.216000000000000000e+03 5.940449237823486328e-01 -1.908691024780273438e+01 5.818205699324607849e-02 -5.369107723236083984e+00 -1.593277692794799805e+00 1.462823897600173950e-01
1.217000000000000000e+03 2.893936634063720703e+00 -1.866300010681152344e+01 6.961482763290405273e-01 -8.108054995536804199e-01 -3.439716249704360962e-02 5.200881958007812500e-01
1.218000000000000000e+03 1.676066517829895020e+00 -1.198058032989501953e+01 6.629330571740865707e-03 -2.478026151657104492e+00 -7.414190173149108887e-01 -6.566251516342163086e-01
1.219000000000000000e+03 5.559580922126770020e-01 -1.206444931030273438e+01 2.550205588340759277e-02 -3.768700838088989258e+00 -1.122959613800048828e+00 -2.285615056753158569e-01
1.220000000000000000e+03 1.515075922012329102e+00 -6.585030555725097656e+00 -3.613434731960296631e-02 -1.054607272148132324e+00 -3.272224664688110352e-01 -5.105836391448974609e-01
1.221000000000000000e+03 2.544083833694458008e+00 -3.939267396926879883e+00 -1.499192118644714355e-01 -3.078672885894775391e-01 -1.373359411954879761e-01 -4.996615052223205566e-01
1.222000000000000000e+03 1.445512056350708008e+00 -3.399549007415771484e+00 -6.865498423576354980e-02 -3.739048242568969727e-01 -1.327679455280303955e-01 -3.107422292232513428e-01
1.223000000000000000e+03 5.279291868209838867e-01 4.997958183288574219e+00 -2.764684380963444710e-03 -2.548136711120605469e-01 -7.727351039648056030e-02 6.088422238826751709e-02
1.224000000000000000e+03 6.588171482086181641e+00 4.167837142944335938e+00 -2.124162465333938599e-01 -2.467099279165267944e-01 -1.377378553152084351e-01 5.102239251136779785e-01
1.225000000000000000e+03 1.581584215164184570e+00 1.044488906860351562e+01 1.449382863938808441e-02 -8.034393787384033203e-01 -2.366836518049240112e-01 1.572657376527786255e-01
1.226000000000000000e+03 5.253652930259704590e-01 1.061038208007812500e+01 4.136094823479652405e-03 -9.460839629173278809e-01 -2.825843691825866699e-01 5.304623767733573914e-02
1.227000000000000000e+03 1.700596928596496582e+00 1.318931007385253906e+01 1.890113949775695801e-02 -9.817427992820739746e-01 -2.888524830341339111e-01 1.108469739556312561e-01
1.228000000000000000e+03 1.852909684181213379e+00 2.016879844665527344e+01 1.431598234921693802e-02 -1.128580570220947266e+00 -3.342793881893157959e-01 -3.795356955379247665e-03
1.229000000000000000e+03 1.832632422447204590e+00 1.877382278442382812e+01 1.651799306273460388e-02 -1.131575584411621094e+00 -3.345172703266143799e-01 1.732943393290042877e-02
1.230000000000000000e+03 2.026277065277099609e+00 2.443051528930664062e+01 7.195948157459497452e-03 -1.046285986900329590e+00 -3.117270171642303467e-01 -5.129262804985046387e-02
1.231000000000000000e+03 2.012335395812988281e+01 -4.171611785888671875e+00 -9.034184813499450684e-01 5.744887351989746094e+00 1.452440619468688965e+00 4.415546953678131104e-01
1.232000000000000000e+03 2.002054786682128906e+01 -4.362265586853027344e+00 -8.732513189315795898e-01 5.814589023590087891e+00 1.482401251792907715e+00 3.098337054252624512e-01
1.233000000000000000e+03 2.100606346130371094e+01 -5.262020111083984375e+00 2.307645797729492188e+00 9.731170654296875000e+00 3.611644983291625977e+00 5.181242465972900391e+00
1.234000000000000000e+03 1.966940307617187500e+01 -3.640403270721435547e+00 -9.331002831459045410e-01 3.662432670593261719e+00 8.187997341156005859e-01 -8.186154812574386597e-02
1.235000000000000000e+03 2.047592735290527344e+01 -4.602608680725097656e+00 -6.212527751922607422e-01 7.938209533691406250e+00 2.195086956024169922e+00 1.660107254981994629e+00
1.236000000000000000e+03 2.090832328796386719e+01 -4.606983184814453125e+00 2.131505608558654785e-01 8.271541595458984375e+00 2.545407533645629883e+00 2.972873926162719727e+00
1.237000000000000000e+03 2.033661842346191406e+01 -4.264129161834716797e+00 -8.474863171577453613e-01 6.749114990234375000e+00 1.770488619804382324e+00 1.002248764038085938e+00
1.238000000000000000e+03 2.116920089721679688e+01 -5.390625000000000000e+00 3.753521680831909180e+00 9.205543518066406250e+00 3.887719631195068359e+00 5.889248371124267578e+00
1.239000000000000000e+03 1.808534622192382812e+01 -7.040306091308593750e+00 9.299876213073730469e+00 -1.360626935958862305e+00 2.381774902343750000e+00 2.658891916275024414e+00
1.240000000000000000e+03 1.740183448791503906e+01 -6.313290119171142578e+00 4.792485237121582031e+00 -1.231197953224182129e+00 1.068386197090148926e+00 4.833279550075531006e-01
1.241000000000000000e+03 1.766654777526855469e+01 -6.988661766052246094e+00 7.965541839599609375e+00 -1.526921391487121582e+00 1.931586146354675293e+00 2.256654977798461914e+00
1.242000000000000000e+03 1.724634933471679688e+01 -6.205407142639160156e+00 4.384112834930419922e+00 -1.124540925025939941e+00 9.778715372085571289e-01 4.600376188755035400e-01
1.243000000000000000e+03 1.528297138214111328e+01 -9.817689895629882812e+00 2.291448354721069336e+00 8.528516888618469238e-01 9.432899951934814453e-01 5.002077579498291016e+00
1.244000000000000000e+03 1.797074127197265625e+01 -6.888129234313964844e+00 8.672823905944824219e+00 -1.583449363708496094e+00 2.126812458038330078e+00 1.920304775238037109e+00
1.245000000000000000e+03 1.864582252502441406e+01 -1.155496311187744141e+01 -2.118018150329589844e+00 3.638173639774322510e-01 -5.262601971626281738e-01 4.580966472625732422e+00
1.246000000000000000e+03 1.882970046997070312e+01 -7.795853614807128906e+00 1.033142757415771484e+01 2.704074859619140625e+00 3.910650730133056641e+00 7.140921115875244141e+00
1.247000000000000000e+03 2.194095420837402344e+01 -5.880254745483398438e+00 7.576654911041259766e+00 5.513383865356445312e+00 3.927011728286743164e+00 5.428504943847656250e+00
1.248000000000000000e+03 1.896397399902343750e+01 -7.941764354705810547e+00 9.112911224365234375e+00 3.939683437347412109e+00 3.915778636932373047e+00 7.253964900970458984e+00
1.249000000000000000e+03 2.096294784545898438e+01 -1.257384681701660156e+01 -7.303804874420166016e+00 -4.184431731700897217e-01 -2.316674470901489258e+00 1.628708004951477051e+00
1.250000000000000000e+03 1.903022575378417969e+01 -8.438534736633300781e+00 6.936245918273925781e+00 4.608411788940429688e+00 3.463397264480590820e+00 6.998595714569091797e+00
1.251000000000000000e+03 1.776358222961425781e+01 -1.204104804992675781e+01 -2.285384893417358398e+00 3.845668733119964600e-01 -5.702453851699829102e-01 4.633956909179687500e+00
1.252000000000000000e+03 1.657969665527343750e+01 -6.252669811248779297e+00 3.636469125747680664e+00 -1.130842804908752441e+00 7.516879439353942871e-01 9.686273336410522461e-01
1.253000000000000000e+03 1.593334102630615234e+01 -6.144190788269042969e+00 2.791863203048706055e+00 -8.592266440391540527e-01 5.797909498214721680e-01 1.089055180549621582e+00
1.254000000000000000e+03 1.523480415344238281e+01 -6.208985805511474609e+00 2.261303901672363281e+00 -5.779543519020080566e-01 5.050048828125000000e-01 1.274831771850585938e+00
1.255000000000000000e+03 1.326097869873046875e+01 -4.169479846954345703e+00 -3.713974356651306152e-01 4.397517070174217224e-02 -9.822667390108108521e-02 5.474044680595397949e-01
1.256000000000000000e+03 1.347634410858154297e+01 -5.041129112243652344e+00 2.476069331169128418e-01 7.271610200405120850e-02 9.609691053628921509e-02 7.054689526557922363e-01
1.257000000000000000e+03 1.649207496643066406e+01 -1.118216991424560547e+01 6.057011485099792480e-01 1.185195922851562500e+00 5.372691154479980469e-01 5.788401126861572266e+00
1.258000000000000000e+03 1.618950462341308594e+01 -6.559466361999511719e+00 3.732783794403076172e+00 -1.058779478073120117e+00 8.022012710571289062e-01 1.484475612640380859e+00
1.259000000000000000e+03 1.821437835693359375e+01 -1.192398905754089355e+00 -7.485203146934509277e-01 1.174792766571044922e+00 1.278817355632781982e-01 -3.420388326048851013e-02
1.260000000000000000e+03 1.561692905426025391e+01 7.566669583320617676e-02 -8.427732586860656738e-01 -2.026410549879074097e-01 -3.136242926120758057e-01 4.084269404411315918e-01
1.261000000000000000e+03 1.143467712402343750e+01 -3.299897909164428711e+00 -8.407518267631530762e-01 2.901266515254974365e-01 -1.651875525712966919e-01 2.830530107021331787e-01
1.262000000000000000e+03 1.190306282043457031e+01 -4.166417121887207031e+00 -4.864776730537414551e-01 3.388731479644775391e-01 -4.428135976195335388e-02 3.863874971866607666e-01
1.263000000000000000e+03 1.317516517639160156e+01 -5.516505718231201172e+00 5.243458747863769531e-01 1.979895383119583130e-01 2.167006283998489380e-01 8.260289430618286133e-01
1.264000000000000000e+03 1.300124263763427734e+01 -4.700364112854003906e+00 -5.752721801400184631e-02 1.608486622571945190e-01 3.099643066525459290e-02 6.050130724906921387e-01
1.265000000000000000e+03 7.880012512207031250e+00 -4.324192047119140625e+00 -5.715397000312805176e-01 5.480329990386962891e-01 -7.051997818052768707e-03 -3.262507021427154541e-01
1.266000000000000000e+03 9.272402763366699219e+00 -3.587567806243896484e+00 -7.464479207992553711e-01 4.958565235137939453e-01 -7.517741620540618896e-02 -5.419460311532020569e-02
1.267000000000000000e+03 5.422234058380126953e+00 2.607466697692871094e+00 -3.047825694084167480e-01 -1.075180098414421082e-01 -1.236901730298995972e-01 3.359375894069671631e-01
1.268000000000000000e+03 3.176734209060668945e+00 3.905128717422485352e+00 -9.699084609746932983e-02 -2.013630270957946777e-01 -8.950616419315338135e-02 2.657943069934844971e-01
1.269000000000000000e+03 2.577187061309814453e+00 4.265640735626220703e+00 -6.271219998598098755e-02 -2.312429845333099365e-01 -8.818655461072921753e-02 2.371485978364944458e-01
1.270000000000000000e+03 3.379089117050170898e+00 2.600171566009521484e+00 -1.451315879821777344e-01 -1.044086590409278870e-01 -7.486207783222198486e-02 2.017735987901687622e-01
1.271000000000000000e+03 4.040141582489013672e+00 2.591005086898803711e+00 -1.946014910936355591e-01 -9.710353612899780273e-02 -8.751150965690612793e-02 2.436203062534332275e-01
1.272000000000000000e+03 5.334251403808593750e+00 3.373556137084960938e+00 -2.436096519231796265e-01 -1.689670085906982422e-01 -1.237730011343955994e-01 3.944430053234100342e-01
1.273000000000000000e+03 6.034743309020996094e+00 3.377063989639282227e+00 -2.823383808135986328e-01 -1.763910502195358276e-01 -1.376188397407531738e-01 4.399742484092712402e-01
1.274000000000000000e+03 6.133503913879394531e+00 2.616500616073608398e+00 -3.721841573715209961e-01 -1.288923323154449463e-01 -1.503229439258575439e-01 3.957076966762542725e-01
1.275000000000000000e+03 7.419579982757568359e+00 3.454445362091064453e+00 -3.302348256111145020e-01 -2.416674643754959106e-01 -1.715706884860992432e-01 5.395280718803405762e-01
1.276000000000000000e+03 6.729561328887939453e+00 3.401359319686889648e+00 -3.270289301872253418e-01 -2.028994113206863403e-01 -1.589785069227218628e-01 4.986395835876464844e-01
1.277000000000000000e+03 2.039927244186401367e+00 2.900104045867919922e+00 -6.777554005384445190e-02 -1.158303394913673401e-01 -5.508176237344741821e-02 1.355239152908325195e-01
1.278000000000000000e+03 9.849147796630859375e+00 3.023935079574584961e+00 -4.463615119457244873e-01 -4.092260599136352539e-01 -2.566762864589691162e-01 6.106241345405578613e-01
1.279000000000000000e+03 1.383595561981201172e+01 1.961861014366149902e+00 -5.151247382164001465e-01 -3.058727383613586426e-01 -2.462992519140243530e-01 3.985928595066070557e-01
1.280000000000000000e+03 1.275332832336425781e+01 1.727725148200988770e+00 -7.276451587677001953e-01 -4.557128846645355225e-01 -3.550074100494384766e-01 5.334882140159606934e-01
1.281000000000000000e+03 1.775034332275390625e+01 -7.360924482345581055e-01 -6.971395611763000488e-01 7.895510196685791016e-01 2.772344835102558136e-02 1.555034611374139786e-02
1.282000000000000000e+03 1.721475410461425781e+01 -2.662100791931152344e-01 -6.797207593917846680e-01 5.091614723205566406e-01 -5.116778984665870667e-02 8.418158441781997681e-02
1.283000000000000000e+03 9.929981231689453125e+00 -4.413347244262695312e+00 -5.444426536560058594e-01 6.221422553062438965e-01 2.330986782908439636e-02 7.182701677083969116e-02
1.284000000000000000e+03 5.421191215515136719e+00 -2.752915620803833008e+00 -5.318754911422729492e-01 7.506509125232696533e-02 -1.370431184768676758e-01 -4.743650555610656738e-01
1.285000000000000000e+03 7.071877002716064453e+00 -3.529785394668579102e+00 -6.254538297653198242e-01 3.284145891666412354e-01 -8.911177515983581543e-02 -4.065806567668914795e-01
1.286000000000000000e+03 4.638074398040771484e+00 -2.789002180099487305e+00 -4.404844939708709717e-01 -3.840971039608120918e-03 -1.332976371049880981e-01 -5.060148239135742188e-01
1.287000000000000000e+03 6.306093692779541016e+00 -3.562518358230590820e+00 -5.509313941001892090e-01 2.370927333831787109e-01 -9.415160119533538818e-02 -4.957455396652221680e-01
1.288000000000000000e+03 2.272732496261596680e+00 -3.091368913650512695e+00 -1.577661931514739990e-01 -2.372957915067672729e-01 -1.185185909271240234e-01 -4.026412367820739746e-01
1.289000000000000000e+03 3.539868831634521484e+00 -7.858527183532714844e+00 -1.134689599275588989e-01 -3.771548569202423096e-01 -1.471871435642242432e-01 -9.000584483146667480e-01
1.290000000000000000e+03 1.584837317466735840e+00 -5.295915126800537109e+00 -4.283547028899192810e-02 -7.190379500389099121e-01 -2.285620272159576416e-01 -4.476533234119415283e-01
1.291000000000000000e+03 1.245427513122558594e+01 2.860156297683715820e+00 -3.716046214103698730e-01 -3.858508765697479248e-01 -2.272366434335708618e-01 4.544204175472259521e-01
1.292000000000000000e+03 1.181491374969482422e+01 3.386618375778198242e+00 -2.559514045715332031e-01 -3.903637230396270752e-01 -1.938945353031158447e-01 4.861988425254821777e-01
1.293000000000000000e+03 1.125345706939697266e+01 2.685809135437011719e+00 -5.016562938690185547e-01 -4.575494527816772461e-01 -2.877617180347442627e-01 5.539429187774658203e-01
1.294000000000000000e+03 9.277143478393554688e+00 -2.789933443069458008e+00 -8.961715102195739746e-01 3.723820745944976807e-01 -1.571368277072906494e-01 -2.424667216837406158e-02
1.295000000000000000e+03 1.455592155456542969e+01 1.539619326591491699e+00 -5.632092952728271484e-01 -2.185233980417251587e-01 -2.345198094844818115e-01 3.598398268222808838e-01
1.296000000000000000e+03 8.564939498901367188e+00 -3.540369510650634766e+00 -7.200484275817871094e-01 4.632189869880676270e-01 -7.704883068799972534e-02 -1.748261600732803345e-01
1.297000000000000000e+03 1.000036239624023438e+01 -2.899089813232421875e+00 -9.222704768180847168e-01 3.774444758892059326e-01 -1.634478121995925903e-01 7.781264930963516235e-02
1.298000000000000000e+03 7.112760925292968750e+01 1.045599842071533203e+01 -6.242642998695373535e-01 9.680069923400878906e+00 2.716741561889648438e+00 2.752981781959533691e-01
1.299000000000000000e+03 7.229592895507812500e+01 1.328497409820556641e+01 -2.021828740835189819e-01 9.073516845703125000e+00 2.661400318145751953e+00 3.013471961021423340e-01
1.300000000000000000e+03 3.318753814697265625e+01 -1.545124053955078125e+01 -1.097736477851867676e+00 8.194322586059570312e-01 -8.349127322435379028e-02 -9.018833041191101074e-01
1.301000000000000000e+03 2.119544029235839844e+01 -3.457528686523437500e+01 -1.959390640258789062e+00 -2.428891062736511230e-01 -6.606839299201965332e-01 5.180850625038146973e-01
1.302000000000000000e+03 2.261689949035644531e+01 -3.446897888183593750e+01 -1.898372530937194824e+00 -1.528294533491134644e-01 -6.153606176376342773e-01 3.855227231979370117e-01
1.303000000000000000e+03 3.263824462890625000e+01 -1.391577529907226562e+01 -9.397261142730712891e-01 1.264370083808898926e+00 9.739319235086441040e-02 -1.280584812164306641e+00
1.304000000000000000e+03 3.041506004333496094e+01 -1.585365486145019531e+01 -2.453514814376831055e+00 4.485577940940856934e-01 -6.014871001243591309e-01 1.014679446816444397e-01
1.305000000000000000e+03 2.738984680175781250e+01 -3.535539627075195312e+01 -1.783811569213867188e+00 -4.919245839118957520e-02 -5.499011874198913574e-01 3.039276227355003357e-02
1.306000000000000000e+03 2.501941871643066406e+01 -3.272724151611328125e+01 -1.868339657783508301e+00 5.295579321682453156e-03 -5.589132308959960938e-01 1.523819118738174438e-01
1.307000000000000000e+03 3.498328018188476562e+01 -1.699497985839843750e+01 -3.992133140563964844e-01 4.006810188293457031e-01 4.403117636684328318e-04 -1.059944748878479004e+00
1.308000000000000000e+03 3.206724548339843750e+01 -1.503316879272460938e+01 -1.427994847297668457e+00 8.811924457550048828e-01 -1.640406996011734009e-01 -7.181236743927001953e-01
1.309000000000000000e+03 4.436207199096679688e+01 -2.725039243698120117e+00 1.864695399999618530e-01 5.530878543853759766e+00 1.715204358100891113e+00 -1.904590249061584473e+00
1.310000000000000000e+03 8.709536552429199219e+00 -3.025568008422851562e+01 -2.313889503479003906e+00 2.965260744094848633e+00 1.954113990068435669e-01 8.402066826820373535e-01
1.311000000000000000e+03 4.491160583496093750e+01 -9.583572745323181152e-01 4.516889452934265137e-01 5.528350353240966797e+00 1.794011831283569336e+00 -2.079643487930297852e+00
1.312000000000000000e+03 4.477053451538085938e+01 2.092978000640869141e+00 9.232380390167236328e-01 5.900646686553955078e+00 2.047165393829345703e+00 -2.486377716064453125e+00
1.313000000000000000e+03 6.111466979980468750e+01 -2.219383811950683594e+01 6.102466583251953125e-01 1.200247168540954590e+00 5.431481599807739258e-01 1.423943758010864258e+00
1.314000000000000000e+03 4.888403701782226562e+01 -1.107984924316406250e+01 -5.436410307884216309e-01 4.848748207092285156e+00 1.291532158851623535e+00 -4.832516908645629883e-01
1.315000000000000000e+03 4.735368788242340088e-01 3.560289859771728516e+00 -1.225937530398368835e-02 -1.187649220228195190e-01 -3.930728882551193237e-02 4.241192340850830078e-02
1.316000000000000000e+03 3.127523040771484375e+01 -3.620262145996093750e+01 -1.816918969154357910e+00 -1.182926520705223083e-01 -5.805634856224060059e-01 -1.689103096723556519e-01
1.317000000000000000e+03 4.599813461303710938e+01 -3.422387123107910156e+00 2.413490414619445801e-01 5.284901142120361328e+00 1.657875061035156250e+00 -1.861508727073669434e+00
1.318000000000000000e+03 7.702293395996093750e+01 1.233538436889648438e+01 -7.268088310956954956e-02 7.540517807006835938e+00 2.240351200103759766e+00 4.870998561382293701e-01
1.319000000000000000e+03 4.903163146972656250e+01 -7.997538566589355469e+00 9.177767485380172729e-02 4.844952106475830078e+00 1.481019020080566406e+00 -1.149730205535888672e+00
1.320000000000000000e+03 4.348255157470703125e+01 2.718840789794921875e+01 3.482503294944763184e-01 5.392834186553955078e+00 1.722325444221496582e+00 1.213116288185119629e+00
1.321000000000000000e+03 5.604590225219726562e+01 -2.424959945678710938e+01 1.431874036788940430e+00 2.751941442489624023e+00 1.255144596099853516e+00 5.235748291015625000e-01
1.322000000000000000e+03 9.956889152526855469e+00 -1.633742141723632812e+01 4.135479927062988281e+00 7.990362167358398438e+00 3.637752532958984375e+00 3.957361936569213867e+00
1.323000000000000000e+03 4.490515899658203125e+01 -2.520428657531738281e+01 2.143431901931762695e+00 1.053817081451416016e+01 3.804481029510498047e+00 -2.793796539306640625e+00
1.324000000000000000e+03 4.495598602294921875e+01 -2.644222068786621094e+01 1.653706312179565430e+00 9.686038017272949219e+00 3.401923179626464844e+00 -2.027535438537597656e+00
1.325000000000000000e+03 2.088968276977539062e+01 -3.309688568115234375e+01 -2.163084268569946289e+00 -1.443005800247192383e-01 -6.922154426574707031e-01 4.322562515735626221e-01
1.326000000000000000e+03 6.676864624023437500e+01 -2.055668067932128906e+01 -1.549814701080322266e+00 1.417932063341140747e-01 -4.224064350128173828e-01 6.960017681121826172e-01
1.327000000000000000e+03 6.382872009277343750e+01 -1.409449386596679688e+01 1.192762851715087891e+00 2.056498527526855469e+00 9.747784137725830078e-01 1.366830706596374512e+00
1.328000000000000000e+03 4.697467803955078125e+01 -5.925924777984619141e+00 5.652525648474693298e-02 5.178009033203125000e+00 1.570360302925109863e+00 -1.510185360908508301e+00
1.329000000000000000e+03 7.239268493652343750e+01 6.269623279571533203e+00 4.182625710964202881e-01 1.031809520721435547e+01 3.220907449722290039e+00 4.716487824916839600e-01
1.330000000000000000e+03 2.705508613586425781e+01 -1.359836769104003906e+01 -3.411877393722534180e+00 6.190261840820312500e-01 -8.378553986549377441e-01 -2.090521007776260376e-01
1.331000000000000000e+03 4.792774963378906250e+01 -8.477121353149414062e+00 -2.058405578136444092e-01 5.102552413940429688e+00 1.469013571739196777e+00 -1.056980967521667480e+00
1.332000000000000000e+03 7.586414337158203125e+01 2.509731483459472656e+01 9.308460354804992676e-02 8.456167221069335938e+00 2.564775466918945312e+00 7.239708304405212402e-01
1.333000000000000000e+03 7.128209686279296875e+01 3.400134563446044922e+00 4.334085285663604736e-01 1.216630649566650391e+01 3.779914379119873047e+00 7.526949048042297363e-01
1.334000000000000000e+03 7.818136596679687500e+01 2.669960498809814453e+00 9.814308583736419678e-02 5.674574851989746094e+00 1.731815457344055176e+00 1.081713065505027771e-01
1.335000000000000000e+03 7.225402832031250000e+01 -3.846063232421875000e+01 -1.484456509351730347e-01 5.185852527618408203e+00 1.511222004890441895e+00 3.288004100322723389e-01
1.336000000000000000e+03 7.787186431884765625e+01 -3.364667510986328125e+01 -1.538219302892684937e-01 7.582483768463134766e+00 2.228598594665527344e+00 -4.940753281116485596e-01
1.337000000000000000e+03 7.816786956787109375e+01 2.078460884094238281e+01 3.686108440160751343e-02 8.204055786132812500e+00 2.472275018692016602e+00 3.556700646877288818e-01
1.338000000000000000e+03 7.698021697998046875e+01 2.071000671386718750e+01 5.377389118075370789e-02 8.244095802307128906e+00 2.489361047744750977e+00 4.824224114418029785e-01
1.339000000000000000e+03 7.625624847412109375e+01 3.395098495483398438e+01 -2.850339114665985107e-01 9.024182319641113281e+00 2.621744632720947266e+00 3.317937254905700684e-01
1.340000000000000000e+03 7.667014312744140625e+01 -2.237973022460937500e+01 -6.197984516620635986e-02 7.619454860687255859e+00 2.267242431640625000e+00 7.954261302947998047e-01
1.341000000000000000e+03 7.813364410400390625e+01 -2.809407424926757812e+01 2.114445716142654419e-01 6.723262786865234375e+00 2.080412149429321289e+00 -2.820379436016082764e-01
1.342000000000000000e+03 7.481118011474609375e+01 -2.914880561828613281e+01 6.953987479209899902e-01 8.027906417846679688e+00 2.616991519927978516e+00 -4.403652548789978027e-01
1.343000000000000000e+03 7.806172943115234375e+01 -2.669581985473632812e+01 3.040521740913391113e-01 6.666892528533935547e+00 2.091283321380615234e+00 1.447375863790512085e-02
1.344000000000000000e+03 7.639712524414062500e+01 -3.372603607177734375e+01 -2.878890931606292725e-01 7.365014553070068359e+00 2.123137712478637695e+00 -5.677233934402465820e-01
1.345000000000000000e+03 7.537093353271484375e+01 -2.414946746826171875e+01 6.294821500778198242e-01 7.823304653167724609e+00 2.535835981369018555e+00 7.820783853530883789e-01
1.346000000000000000e+03 7.544842529296875000e+01 -2.536432838439941406e+01 8.618106842041015625e-01 7.878698348999023438e+00 2.622152566909790039e+00 3.844143152236938477e-01
1.347000000000000000e+03 7.659582519531250000e+01 -3.224296569824218750e+01 -1.563498675823211670e-01 7.431632518768310547e+00 2.182584762573242188e+00 -6.990705132484436035e-01
1.348000000000000000e+03 7.679721832275390625e+01 -3.084645652770996094e+01 6.639656424522399902e-02 7.343064308166503906e+00 2.222838401794433594e+00 -7.414287924766540527e-01
1.349000000000000000e+03 7.445473480224609375e+01 -3.037331962585449219e+01 2.916603982448577881e-01 7.871313571929931641e+00 2.448892116546630859e+00 -6.011523604393005371e-01
1.350000000000000000e+03 7.490207672119140625e+01 -3.754887390136718750e+01 -3.212563097476959229e-01 6.695068359375000000e+00 1.912143707275390625e+00 -1.111094504594802856e-01
1.351000000000000000e+03 7.752695465087890625e+01 -3.741408920288085938e+01 -1.548150032758712769e-01 7.639037609100341797e+00 2.245266675949096680e+00 -1.210228353738784790e-01
1.352000000000000000e+03 7.818707275390625000e+01 2.363233757019042969e+01 4.308626428246498108e-02 8.645300865173339844e+00 2.606516361236572266e+00 4.190410971641540527e-01
1.353000000000000000e+03 7.697134399414062500e+01 2.216966247558593750e+01 7.607850432395935059e-02 8.360898971557617188e+00 2.531093358993530273e+00 5.374021530151367188e-01
1.354000000000000000e+03 7.704611968994140625e+01 2.502108573913574219e+01 7.864131778478622437e-02 8.659711837768554688e+00 2.621505975723266602e+00 6.150012016296386719e-01
1.355000000000000000e+03 7.702695465087890625e+01 1.506348419189453125e+01 -2.806289866566658020e-02 7.770439624786376953e+00 2.322712898254394531e+00 4.077931344509124756e-01
1.356000000000000000e+03 7.820601654052734375e+01 1.378694438934326172e+01 -2.117479965090751648e-02 7.297812461853027344e+00 2.182991266250610352e+00 3.121606409549713135e-01
1.357000000000000000e+03 7.702735900878906250e+01 1.369508075714111328e+01 -5.560288950800895691e-02 7.665052890777587891e+00 2.282835006713867188e+00 4.644828140735626221e-01
1.358000000000000000e+03 7.231333923339843750e+01 2.336785316467285156e+01 2.606550157070159912e-01 8.148007392883300781e+00 2.522598743438720703e+00 3.600913584232330322e-01
1.359000000000000000e+03 7.827837371826171875e+01 2.770999145507812500e+01 -6.424249149858951569e-03 9.439146041870117188e+00 2.829816341400146484e+00 4.793651700019836426e-01
1.360000000000000000e+03 7.585692596435546875e+01 1.360486793518066406e+01 -9.727556258440017700e-02 8.034537315368652344e+00 2.381178379058837891e+00 4.976423978805541992e-01
1.361000000000000000e+03 7.816172790527343750e+01 -1.959038734436035156e+01 -1.621795892715454102e-01 7.682505607604980469e+00 2.256097793579101562e+00 3.156369328498840332e-01
1.362000000000000000e+03 7.688716888427734375e+01 -2.095021057128906250e+01 -3.338784277439117432e-01 7.581842422485351562e+00 2.174389123916625977e+00 6.125231385231018066e-01
1.363000000000000000e+03 7.805389404296875000e+01 3.168654441833496094e+01 -6.012030690908432007e-02 1.001375198364257812e+01 2.986089468002319336e+00 3.782313168048858643e-01
1.364000000000000000e+03 7.702104187011718750e+01 3.007678413391113281e+01 -8.539873361587524414e-02 9.223736763000488281e+00 2.741501331329345703e+00 6.036445498466491699e-01
1.365000000000000000e+03 7.695619201660156250e+01 9.600769042968750000e+00 -2.434453926980495453e-02 7.323653697967529297e+00 2.189792633056640625e+00 6.332458257675170898e-01
1.366000000000000000e+03 7.566295623779296875e+01 -1.579023551940917969e+01 -3.566564023494720459e-01 7.051577568054199219e+00 2.008476257324218750e+00 -3.350513279438018799e-01
1.367000000000000000e+03 7.699119567871093750e+01 -1.829581642150878906e+01 -3.332506418228149414e-01 7.544844627380371094e+00 2.163478136062622070e+00 1.287815868854522705e-01
1.368000000000000000e+03 7.558659362792968750e+01 -8.677173614501953125e+00 -4.254627600312232971e-02 6.861416816711425781e+00 2.045661211013793945e+00 -5.754998922348022461e-01
1.369000000000000000e+03 7.680765533447265625e+01 -1.143649387359619141e+01 -5.594810470938682556e-02 7.006146430969238281e+00 2.085059642791748047e+00 -5.118063688278198242e-01
1.370000000000000000e+03 7.357659149169921875e+01 -4.778623580932617188e+00 1.475636661052703857e-01 7.742875576019287109e+00 2.367131710052490234e+00 -2.196386903524398804e-01
1.371000000000000000e+03 7.687764739990234375e+01 -4.235854625701904297e+00 6.094965338706970215e-02 6.637109279632568359e+00 2.009417772293090820e+00 -5.155735611915588379e-01
1.372000000000000000e+03 7.686861419677734375e+01 6.807003498077392578e+00 1.044852361083030701e-01 7.043886184692382812e+00 2.144511461257934570e+00 5.965916514396667480e-01
1.373000000000000000e+03 7.574327850341796875e+01 3.817975234985351562e+01 -2.340644299983978271e-01 9.177309036254882812e+00 2.682973384857177734e+00 3.945026695728302002e-01
1.374000000000000000e+03 7.601774597167968750e+01 2.863935852050781250e+01 -6.707660853862762451e-02 8.646632194519042969e+00 2.573866844177246094e+00 7.568237781524658203e-01
1.375000000000000000e+03 7.813044738769531250e+01 8.261329650878906250e+00 2.037302963435649872e-02 6.439478874206542969e+00 1.937955498695373535e+00 4.550430774688720703e-01
1.376000000000000000e+03 7.561779785156250000e+01 8.204792022705078125e+00 7.247310131788253784e-02 8.001251220703125000e+00 2.422117233276367188e+00 7.678097486495971680e-01
1.377000000000000000e+03 7.820291137695312500e+01 -8.980333805084228516e-02 9.997751563787460327e-02 5.647180080413818359e+00 1.724147200584411621e+00 -1.574829369783401489e-01
1.378000000000000000e+03 7.700121307373046875e+01 -1.474313378334045410e+00 1.814098656177520752e-01 6.512567996978759766e+00 2.008193254470825195e+00 -3.557380437850952148e-01
1.379000000000000000e+03 7.681132507324218750e+01 -8.588509559631347656e+00 -1.361539866775274277e-02 6.832437515258789062e+00 2.045646667480468750e+00 -5.558537244796752930e-01
1.380000000000000000e+03 7.689721679687500000e+01 -1.563144207000732422e+01 -2.272015511989593506e-01 7.356973171234130859e+00 2.138931512832641602e+00 -2.601216733455657959e-01
1.381000000000000000e+03 7.370982360839843750e+01 3.270273971557617188e+01 -5.462065339088439941e-01 7.336148738861083984e+00 2.036982774734497070e+00 3.907893002033233643e-01
1.382000000000000000e+03 7.654669952392578125e+01 3.261728668212890625e+01 -1.844230294227600098e-01 9.168954849243164062e+00 2.695359468460083008e+00 4.509664773941040039e-01
1.383000000000000000e+03 7.701334381103515625e+01 1.784305191040039062e+01 1.974825002253055573e-02 7.999599456787109375e+00 2.405804157257080078e+00 4.147612452507019043e-01
1.384000000000000000e+03 7.816100311279296875e+01 9.648459434509277344e+00 -1.886151731014251709e-02 6.674797058105468750e+00 1.996780753135681152e+00 4.479741454124450684e-01
1.385000000000000000e+03 7.700358581542968750e+01 1.097545528411865234e+01 -9.502751380205154419e-02 7.457979202270507812e+00 2.208885431289672852e+00 5.697375535964965820e-01
1.386000000000000000e+03 7.684455108642578125e+01 -1.425272369384765625e+01 -1.493771225214004517e-01 7.231293201446533203e+00 2.124574899673461914e+00 -3.732740879058837891e-01
1.387000000000000000e+03 7.680467987060546875e+01 -7.142430782318115234e+00 -2.227197401225566864e-02 6.768686771392822266e+00 2.023924350738525391e+00 -5.701655745506286621e-01
1.388000000000000000e+03 7.755538177490234375e+01 3.573650360107421875e+01 -1.729333400726318359e-01 1.008352756500244141e+01 2.973178386688232422e+00 1.005934774875640869e-01
1.389000000000000000e+03 7.739863586425781250e+01 3.706875991821289062e+01 -1.752510517835617065e-01 1.021250915527343750e+01 3.011177301406860352e+00 1.833201944828033447e-02
1.390000000000000000e+03 7.583048248291015625e+01 2.496282100677490234e+00 4.055884778499603271e-01 7.454200744628906250e+00 2.357936620712280273e+00 2.255093604326248169e-01
1.391000000000000000e+03 7.691748809814453125e+01 5.383921623229980469e+00 1.769831925630569458e-01 6.879832744598388672e+00 2.117044687271118164e+00 4.796073138713836670e-01
1.392000000000000000e+03 7.696643066406250000e+01 3.976288795471191406e+00 2.168065160512924194e-01 6.710433959960937500e+00 2.078171968460083008e+00 3.447724580764770508e-01
1.393000000000000000e+03 7.703506469726562500e+01 -1.429127901792526245e-01 2.543594837188720703e-01 6.482816696166992188e+00 2.021152734756469727e+00 -1.923034787178039551e-01
1.394000000000000000e+03 7.811274719238281250e+01 -4.235162734985351562e+00 3.117895498871803284e-02 6.121895790100097656e+00 1.845922350883483887e+00 -4.174536466598510742e-01
1.395000000000000000e+03 7.692256164550781250e+01 -2.831707954406738281e+00 9.867929667234420776e-02 6.574792861938476562e+00 2.002041816711425781e+00 -4.557102620601654053e-01
1.396000000000000000e+03 7.807638549804687500e+01 -1.132282352447509766e+01 -3.754899278283119202e-02 7.178590297698974609e+00 2.142312288284301758e+00 -3.898163139820098877e-01
1.397000000000000000e+03 7.681134033203125000e+01 -1.001538562774658203e+01 -5.040702223777770996e-02 6.908915042877197266e+00 2.057552337646484375e+00 -5.519486069679260254e-01
1.398000000000000000e+03 7.695284271240234375e+01 -1.697864532470703125e+01 -2.744463384151458740e-01 7.469835281372070312e+00 2.158616542816162109e+00 -6.110082194209098816e-02
1.399000000000000000e+03 7.113044738769531250e+01 1.594461345672607422e+01 1.301294565200805664e-01 9.287425041198730469e+00 2.825266361236572266e+00 4.671935141086578369e-01
1.400000000000000000e+03 7.128591156005859375e+01 1.934104800224304199e+00 9.051729440689086914e-01 1.181401252746582031e+01 3.815755605697631836e+00 9.289720058441162109e-01
1.401000000000000000e+03 7.128923797607421875e+01 3.453542888164520264e-01 9.144057631492614746e-01 1.116869068145751953e+01 3.624928951263427734e+00 8.603195548057556152e-01
1.402000000000000000e+03 7.117894744873046875e+01 2.020051002502441406e+01 1.761643216013908386e-02 8.714095115661621094e+00 2.619513511657714844e+00 3.012029230594635010e-01
1.403000000000000000e+03 7.115283203125000000e+01 1.734891700744628906e+01 1.868563704192638397e-02 9.075985908508300781e+00 2.728401422500610352e+00 3.599443137645721436e-01
1.404000000000000000e+03 7.235040283203125000e+01 2.182315254211425781e+01 1.529230475425720215e-01 8.386260986328125000e+00 2.561755180358886719e+00 3.692213296890258789e-01
1.405000000000000000e+03 7.235932922363281250e+01 2.032750892639160156e+01 8.545807749032974243e-02 8.590081214904785156e+00 2.602661848068237305e+00 4.111168384552001953e-01
1.406000000000000000e+03 6.739059448242187500e+01 -9.331656455993652344e+00 8.060392141342163086e-01 4.853138923645019531e+00 1.697753429412841797e+00 1.603429436683654785e+00
1.407000000000000000e+03 4.364371109008789062e+01 1.488300442695617676e+00 6.387289762496948242e-01 6.124321937561035156e+00 2.028915405273437500e+00 -2.179701805114746094e+00
1.408000000000000000e+03 4.257034683227539062e+01 8.836531043052673340e-01 4.763673543930053711e-01 6.231513023376464844e+00 2.012364149093627930e+00 -1.874013423919677734e+00
1.409000000000000000e+03 3.835464715957641602e+00 -1.725947570800781250e+01 8.981002569198608398e-01 3.577713966369628906e-01 3.767614960670471191e-01 1.982910037040710449e-01
1.410000000000000000e+03 3.470194244384765625e+01 -1.490159893035888672e+01 -5.430969595909118652e-01 1.609370827674865723e+00 3.198821544647216797e-01 -1.794523835182189941e+00
1.411000000000000000e+03 2.636676216125488281e+01 -3.251572036743164062e+01 -1.898853778839111328e+00 3.899842267856001854e-03 -5.684861540794372559e-01 1.255308091640472412e-01
1.412000000000000000e+03 6.890427398681640625e+01 3.379043960571289062e+01 -9.551137685775756836e-01 3.284290790557861328e+00 6.987530589103698730e-01 -2.444014698266983032e-01
1.413000000000000000e+03 2.957193565368652344e+01 -1.418311691284179688e+01 -2.158415317535400391e+00 7.787511348724365234e-01 -4.138992726802825928e-01 -4.502668976783752441e-01
1.414000000000000000e+03 4.953762531280517578e+00 3.675454711914062500e+01 -2.904837578535079956e-02 -2.565467059612274170e-01 -8.567852526903152466e-02 -4.762548208236694336e-02
1.415000000000000000e+03 2.076540470123291016e+00 2.728171920776367188e+01 3.695235121995210648e-03 -9.657578468322753906e-01 -2.886187732219696045e-01 -6.356050819158554077e-02
1.416000000000000000e+03 3.638323068618774414e+00 3.008963012695312500e+01 -7.642193697392940521e-03 -5.942589640617370605e-01 -1.805703490972518921e-01 -1.043326854705810547e-01
1.417000000000000000e+03 6.827570438385009766e+00 2.984455871582031250e+01 -7.307499181479215622e-03 -4.685667902231216431e-02 -1.624925248324871063e-02 -1.971985250711441040e-01
1.418000000000000000e+03 3.653264522552490234e+00 3.167924880981445312e+01 -6.032868288457393646e-03 -5.619099736213684082e-01 -1.703828424215316772e-01 -9.700209647417068481e-02
1.419000000000000000e+03 2.060341119766235352e+00 2.584588241577148438e+01 3.047827631235122681e-03 -1.008485198020935059e+00 -3.016312122344970703e-01 -5.648823827505111694e-02
1.420000000000000000e+03 3.420983791351318359e+00 2.703565788269042969e+01 1.064581237733364105e-02 -7.210268378257751465e-01 -2.131143212318420410e-01 -1.023848429322242737e-01
1.421000000000000000e+03 3.455214977264404297e+00 2.852391052246093750e+01 -3.412576043047010899e-04 -6.731066107749938965e-01 -2.020343542098999023e-01 -1.044509783387184143e-01
1.422000000000000000e+03 2.117054462432861328e+00 3.710036087036132812e+01 -6.717051845043897629e-03 -7.143912315368652344e-01 -2.163324803113937378e-01 -5.614678189158439636e-02
1.423000000000000000e+03 3.261057615280151367e+00 3.435607910156250000e+01 1.106365351006388664e-03 -5.721877813339233398e-01 -1.713244318962097168e-01 -8.502901345491409302e-02
1.424000000000000000e+03 3.418232202529907227e+00 3.310433578491210938e+01 -3.174549434334039688e-03 -5.811649560928344727e-01 -1.753018498420715332e-01 -8.487795293331146240e-02
1.425000000000000000e+03 3.514910459518432617e+00 -3.720845413208007812e+01 -3.066366016864776611e-01 4.674468994140625000e+00 1.310349822044372559e+00 1.189291924238204956e-01
1.426000000000000000e+03 3.630479812622070312e+00 -3.282696533203125000e+01 -5.909235477447509766e-01 4.132999897003173828e+00 1.062622904777526855e+00 8.840792775154113770e-01
1.427000000000000000e+03 2.035203218460083008e+00 -3.024964523315429688e+01 -3.099133372306823730e-01 3.829068183898925781e+00 1.055746436119079590e+00 1.239641547203063965e+00
1.428000000000000000e+03 3.286616563796997070e+00 -2.866364097595214844e+01 -5.850625038146972656e-01 3.416856765747070312e+00 8.495382666587829590e-01 2.164785385131835938e+00
1.429000000000000000e+03 4.536313056945800781e+00 -2.706539535522460938e+01 -5.614165663719177246e-01 3.733060121536254883e+00 9.514930248260498047e-01 2.883267879486083984e+00
1.430000000000000000e+03 1.900559663772583008e+00 2.158229827880859375e+01 1.467673014849424362e-02 -1.111315727233886719e+00 -3.289916813373565674e-01 -2.159739471971988678e-02
1.431000000000000000e+03 3.248911380767822266e+00 2.271095085144042969e+01 2.961511723697185516e-02 -8.347380161285400391e-01 -2.415368705987930298e-01 -5.308472365140914917e-02
1.432000000000000000e+03 2.733603000640869141e+00 -1.051763725280761719e+01 -6.142655038274824619e-04 -1.160885095596313477e+00 -3.484497964382171631e-01 -9.093750715255737305e-01
1.433000000000000000e+03 1.705281853675842285e+00 -1.476047420501708984e+01 9.054204821586608887e-02 -3.079774618148803711e+00 -8.967698216438293457e-01 -4.873408675193786621e-01
1.434000000000000000e+03 1.769321918487548828e+00 -1.889731788635253906e+01 3.278775513172149658e-01 -2.895816326141357422e+00 -7.703816294670104980e-01 3.259811401367187500e-01
1.435000000000000000e+03 3.111283302307128906e+00 2.128971290588378906e+01 3.015560656785964966e-02 -8.791533708572387695e-01 -2.546993196010589600e-01 -2.855608053505420685e-02
1.436000000000000000e+03 2.727840185165405273e+00 1.158692646026611328e+01 4.499511793255805969e-02 -7.546074986457824707e-01 -2.128837257623672485e-01 2.114016711711883545e-01
1.437000000000000000e+03 4.229106426239013672e+00 1.835184860229492188e+01 6.970799714326858521e-02 -7.031750679016113281e-01 -1.900401264429092407e-01 3.582616522908210754e-02
1.438000000000000000e+03 3.043313980102539062e+00 1.990065383911132812e+01 3.717806562781333923e-02 -9.037432670593261719e-01 -2.599695622920989990e-01 -1.771223149262368679e-03
1.439000000000000000e+03 2.851246356964111328e+00 -1.327053356170654297e+01 1.233648136258125305e-01 -1.322633385658264160e+00 -3.597805798053741455e-01 -7.929869890213012695e-01
1.440000000000000000e+03 1.530974388122558594e+00 -7.897296905517578125e+00 -2.106911875307559967e-02 -1.404344916343688965e+00 -4.276242256164550781e-01 -5.632234811782836914e-01
1.441000000000000000e+03 4.901643276214599609e+00 -4.577449798583984375e+00 -3.501426279544830322e-01 6.682270020246505737e-02 -8.499597758054733276e-02 -6.936250925064086914e-01
1.442000000000000000e+03 2.619274377822875977e+00 5.199114799499511719e+00 -4.188369214534759521e-02 -3.011265397071838379e-01 -1.029030680656433105e-01 2.664946019649505615e-01
1.443000000000000000e+03 2.569478273391723633e+00 7.676487445831298828e+00 1.187851838767528534e-02 -5.028228163719177246e-01 -1.472833007574081421e-01 2.777498960494995117e-01
1.444000000000000000e+03 1.759869098663330078e+00 1.458896827697753906e+01 2.020492218434810638e-02 -1.042446494102478027e+00 -3.066724836826324463e-01 8.726178109645843506e-02
1.445000000000000000e+03 3.014751434326171875e+00 1.575411224365234375e+01 4.717008769512176514e-02 -8.728392124176025391e-01 -2.477007359266281128e-01 1.009780094027519226e-01
1.446000000000000000e+03 2.592287302017211914e+00 8.967876434326171875e+00 2.489701285958290100e-02 -6.004115343093872070e-01 -1.726543456315994263e-01 2.629961073398590088e-01
1.447000000000000000e+03 2.551607370376586914e+00 -7.900414943695068359e+00 -7.153671979904174805e-02 -8.941783308982849121e-01 -2.897145152091979980e-01 -8.070179820060729980e-01
1.448000000000000000e+03 3.248729467391967773e+00 -2.146200752258300781e+01 9.166557788848876953e-01 5.386500954627990723e-01 4.365917742252349854e-01 1.764435291290283203e+00
1.449000000000000000e+03 1.960128188133239746e+00 -2.313798713684082031e+01 2.982140183448791504e-01 -6.935245990753173828e-01 -1.185931712388992310e-01 1.706670165061950684e+00
1.450000000000000000e+03 2.310304880142211914e+00 -3.583340835571289062e+01 -1.902946680784225464e-01 5.079945087432861328e+00 1.466895103454589844e+00 1.519934535026550293e-01
1.451000000000000000e+03 2.638992071151733398e+00 -9.184633255004882812e+00 -3.986984863877296448e-02 -1.033335924148559570e+00 -3.219617605209350586e-01 -8.587761521339416504e-01
1.452000000000000000e+03 2.828045606613159180e+00 -1.603486251831054688e+01 3.549555242061614990e-01 -1.407286763191223145e+00 -3.156993687152862549e-01 -3.284736275672912598e-01
1.453000000000000000e+03 2.849146842956542969e+00 -1.466311454772949219e+01 2.639502286911010742e-01 -1.402273297309875488e+00 -3.414969444274902344e-01 -6.315721869468688965e-01
1.454000000000000000e+03 5.870507717132568359e+00 -2.702396965026855469e+01 -8.594416975975036621e-01 4.613570690155029297e+00 1.126238703727722168e+00 2.838185071945190430e+00
1.455000000000000000e+03 3.221144676208496094e+00 -2.447413635253906250e+01 2.540061771869659424e-01 1.681277513504028320e+00 5.805851221084594727e-01 2.602223873138427734e+00
1.456000000000000000e+03 2.810845136642456055e+00 -1.188440322875976562e+01 6.218751147389411926e-02 -1.272562026977539062e+00 -3.631123602390289307e-01 -8.668643832206726074e-01
1.457000000000000000e+03 1.924094557762145996e+00 -4.335397720336914062e+00 -8.515951037406921387e-02 -4.707891047000885010e-01 -1.667845845222473145e-01 -4.431098699569702148e-01
1.458000000000000000e+03 2.645603656768798828e+00 1.026887702941894531e+01 3.565522655844688416e-02 -6.853989362716674805e-01 -1.949231177568435669e-01 2.393119633197784424e-01
1.459000000000000000e+03 2.833776950836181641e+00 1.294834041595458984e+01 5.128587037324905396e-02 -8.099010586738586426e-01 -2.275845557451248169e-01 1.748619079589843750e-01
1.460000000000000000e+03 3.036687850952148438e+00 1.853320693969726562e+01 3.917286917567253113e-02 -9.036738872528076172e-01 -2.593502998352050781e-01 2.890038490295410156e-02
1.461000000000000000e+03 6.906809997558593750e+01 -8.587498664855957031e+00 4.485171437263488770e-01 5.981415271759033203e+00 1.928979754447937012e+00 1.130319833755493164e+00
1.462000000000000000e+03 7.584893798828125000e+01 -1.424242854118347168e+00 3.038564920425415039e-01 7.194365024566650391e+00 2.249466419219970703e+00 -3.320291042327880859e-01
1.463000000000000000e+03 7.100408172607421875e+01 -1.284664750099182129e+00 6.448491215705871582e-01 1.051052570343017578e+01 3.346612215042114258e+00 1.087205171585083008e+00
1.464000000000000000e+03 1.689503860473632812e+01 -3.484063339233398438e+01 -1.645520687103271484e+00 -6.146499514579772949e-01 -6.780511736869812012e-01 7.556444406509399414e-01
1.465000000000000000e+03 4.267248916625976562e+01 2.590185546875000000e+01 4.329574406147003174e-01 5.893027305603027344e+00 1.897795438766479492e+00 1.152821660041809082e+00
1.466000000000000000e+03 1.984561157226562500e+01 -3.500543212890625000e+01 -1.755681753158569336e+00 -4.260869920253753662e-01 -6.545305848121643066e-01 6.280706524848937988e-01
1.467000000000000000e+03 4.097240447998046875e+01 1.790744018554687500e+01 8.636854887008666992e-01 9.099707603454589844e+00 2.989017963409423828e+00 8.691936731338500977e-01
1.468000000000000000e+03 4.390147399902343750e+01 -2.930175018310546875e+01 8.423770070075988770e-01 8.598731040954589844e+00 2.832332372665405273e+00 -1.285299301147460938e+00
1.469000000000000000e+03 1.262501239776611328e+01 -1.159055805206298828e+01 1.092398643493652344e+00 3.572011709213256836e+00 1.399323105812072754e+00 3.282626628875732422e+00
1.470000000000000000e+03 4.259220504760742188e+01 2.238457107543945312e+01 8.954071998596191406e-01 7.354115486145019531e+00 2.474856853485107422e+00 1.699838995933532715e+00
1.471000000000000000e+03 4.017149734497070312e+01 2.000730514526367188e+01 7.973477244377136230e-01 7.921772956848144531e+00 2.615736246109008789e+00 7.161523699760437012e-01
1.472000000000000000e+03 4.372437477111816406e+00 -2.268209838867187500e+01 8.948318362236022949e-01 2.558503150939941406e+00 1.036000490188598633e+00 2.616074085235595703e+00
1.473000000000000000e+03 4.434490966796875000e+01 2.821629333496093750e+01 3.027190268039703369e-01 4.941912651062011719e+00 1.573389530181884766e+00 1.226361513137817383e+00
1.474000000000000000e+03 4.271292877197265625e+01 3.419191741943359375e+01 -8.965159654617309570e-01 4.423765659332275391e+00 1.058174848556518555e+00 3.262735903263092041e-01
1.475000000000000000e+03 7.032359313964843750e+01 -6.023792743682861328e+00 3.367608785629272461e-01 7.542304039001464844e+00 2.363719463348388672e+00 9.965223670005798340e-01
1.476000000000000000e+03 4.061172485351562500e+01 2.154069709777832031e+01 7.070451974868774414e-01 7.362582206726074219e+00 2.420888185501098633e+00 8.871513605117797852e-01
1.477000000000000000e+03 8.385453224182128906e+00 -1.670452690124511719e+01 2.682046413421630859e+00 6.907089233398437500e+00 2.876740694046020508e+00 2.292495489120483398e+00
1.478000000000000000e+03 4.296078109741210938e+01 -1.684379768371582031e+01 -4.459869563579559326e-01 8.900202751159667969e+00 2.536264896392822266e+00 -2.002159357070922852e+00
1.479000000000000000e+03 4.252374649047851562e+01 -1.802664947509765625e+01 1.151234865188598633e+00 9.292987823486328125e+00 3.133266925811767578e+00 -2.552034616470336914e+00
1.480000000000000000e+03 2.428145408630371094e+01 -1.339289474487304688e+01 -5.792057037353515625e+00 -1.179281715303659439e-02 -1.741155028343200684e+00 3.270138204097747803e-01
1.481000000000000000e+03 4.968441390991210938e+01 -1.653361892700195312e+01 -9.819577336311340332e-01 4.931548118591308594e+00 1.184877038002014160e+00 -4.608402848243713379e-01
1.482000000000000000e+03 4.220733261108398438e+01 4.019187927246093750e+00 8.353320956230163574e-01 7.230143070220947266e+00 2.419642448425292969e+00 -1.961434602737426758e+00
1.483000000000000000e+03 4.397719192504882812e+01 -1.722470092773437500e+01 9.040623158216476440e-02 8.568758010864257812e+00 2.597749233245849609e+00 -1.468437671661376953e+00
1.484000000000000000e+03 6.948013305664062500e+01 3.057150650024414062e+01 -5.259035229682922363e-01 4.249063014984130859e+00 1.116947770118713379e+00 -1.134290322661399841e-01
1.485000000000000000e+03 7.129854583740234375e+01 7.652550697326660156e+00 3.749052882194519043e-01 1.072562026977539062e+01 3.330157756805419922e+00 1.980766505002975464e-01
1.486000000000000000e+03 7.403885650634765625e+01 -3.174898338317871094e+01 -2.474445253610610962e-01 7.653950214385986328e+00 2.221951723098754883e+00 -4.077401161193847656e-01
1.487000000000000000e+03 7.350002288818359375e+01 2.195653915405273438e+01 1.682680547237396240e-01 8.324216842651367188e+00 2.547745466232299805e+00 5.039998888969421387e-01
1.488000000000000000e+03 4.138754272460937500e+01 2.680341148376464844e+01 1.114477738738059998e-01 5.751362323760986328e+00 1.758842945098876953e+00 6.627774238586425781e-01
1.489000000000000000e+03 4.104358673095703125e+01 6.848296165466308594e+00 1.250722050666809082e+00 8.577699661254882812e+00 2.948526620864868164e+00 -1.392400741577148438e+00
1.490000000000000000e+03 7.075649261474609375e+01 -7.863048553466796875e+00 1.974352449178695679e-01 6.790566921234130859e+00 2.096400499343872070e+00 5.586608052253723145e-01
1.491000000000000000e+03 6.169142532348632812e+01 -1.982206726074218750e+01 -4.094789028167724609e-01 1.344950795173645020e+00 2.806415855884552002e-01 1.762042164802551270e+00
1.492000000000000000e+03 4.759399795532226562e+01 3.347528839111328125e+01 -3.707246184349060059e-01 2.910880804061889648e+00 7.620468735694885254e-01 7.728029489517211914e-01
1.493000000000000000e+03 5.081590652465820312e+01 3.424757003784179688e+01 -2.774716913700103760e-01 1.503589391708374023e+00 3.678352832794189453e-01 6.108409762382507324e-01
1.494000000000000000e+03 5.444648742675781250e+01 -2.670173454284667969e+01 1.340602159500122070e+00 4.934284210205078125e+00 1.882465839385986328e+00 -5.461115241050720215e-01
1.495000000000000000e+03 5.495447540283203125e+01 -2.490401458740234375e+01 1.503525257110595703e+00 3.599981069564819336e+00 1.531051874160766602e+00 -2.117774682119488716e-03
1.496000000000000000e+03 1.968106269836425781e+01 -1.224208259582519531e+01 -5.241765975952148438e+00 -6.041165441274642944e-02 -1.590653300285339355e+00 2.855518341064453125e+00
1.497000000000000000e+03 4.192641448974609375e+01 2.451036643981933594e+01 5.330141782760620117e-01 6.402777671813964844e+00 2.080737590789794922e+00 1.092715144157409668e+00
1.498000000000000000e+03 3.899386215209960938e+01 1.598529052734375000e+01 1.114263534545898438e+00 8.457157135009765625e+00 2.871426105499267578e+00 1.052261292934417725e-01
1.499000000000000000e+03 6.583608245849609375e+01 -1.183148670196533203e+01 1.213738918304443359e+00 3.240812778472900391e+00 1.336365461349487305e+00 1.487900137901306152e+00
1.500000000000000000e+03 6.836042022705078125e+01 -9.844347000122070312e+00 6.036722660064697266e-01 5.138162136077880859e+00 1.722550272941589355e+00 1.177389740943908691e+00
1.501000000000000000e+03 7.616489410400390625e+00 -2.931059265136718750e+01 -2.100322961807250977e+00 3.736739158630371094e+00 4.909248352050781250e-01 1.486119627952575684e+00
1.502000000000000000e+03 6.523081207275390625e+01 -1.880666160583496094e+01 -3.051181435585021973e-01 1.199111461639404297e+00 2.681980133056640625e-01 1.145842313766479492e+00
1.503000000000000000e+03 3.151919126510620117e+00 -2.001268577575683594e+01 8.015266060829162598e-01 -9.766393899917602539e-02 2.111587971448898315e-01 1.076229333877563477e+00
1.504000000000000000e+03 6.957292556762695312e+00 -2.037369346618652344e+01 2.413797616958618164e+00 7.105709075927734375e+00 2.855851888656616211e+00 2.502697706222534180e+00
1.505000000000000000e+03 5.530308532714843750e+01 -3.222546005249023438e+01 2.341719627380371094e+00 9.020152091979980469e+00 3.408561468124389648e+00 -2.013411283493041992e+00
1.506000000000000000e+03 5.713108444213867188e+01 -3.822853088378906250e+01 -6.398182511329650879e-01 4.461438655853271484e+00 1.146486163139343262e+00 -1.381009221076965332e+00
1.507000000000000000e+03 7.559485626220703125e+01 -3.069671821594238281e+01 1.085805743932723999e-01 7.620276451110839844e+00 2.318657159805297852e+00 -6.986449360847473145e-01
1.508000000000000000e+03 3.961508560180664062e+01 1.286787223815917969e+01 1.398978114128112793e+00 9.393877029418945312e+00 3.237856626510620117e+00 -4.068982303142547607e-01
1.509000000000000000e+03 4.312586593627929688e+01 -3.565560150146484375e+01 -1.901918888092041016e+00 5.209986209869384766e+00 9.924201369285583496e-01 5.212069153785705566e-01
1.510000000000000000e+03 6.810724639892578125e+01 -2.024331283569335938e+01 -1.001725792884826660e+00 5.838299989700317383e-01 -1.253687292337417603e-01 -5.145067572593688965e-01
1.511000000000000000e+03 2.185261726379394531e+01 -7.469065189361572266e+00 9.909470558166503906e+00 4.254188060760498047e+00 4.249097347259521484e+00 9.089084267616271973e-01
1.512000000000000000e+03 7.220680236816406250e+01 2.496092796325683594e+01 2.946532964706420898e-01 7.770709037780761719e+00 2.419608831405639648e+00 3.873842358589172363e-01
1.513000000000000000e+03 7.195117950439453125e+01 2.655340957641601562e+01 2.004134654998779297e-01 7.342217922210693359e+00 2.262789487838745117e+00 3.827365338802337646e-01
1.514000000000000000e+03 3.988856124877929688e+01 1.136019706726074219e+01 1.713627576828002930e+00 9.461551666259765625e+00 3.352553606033325195e+00 -7.166382074356079102e-01
1.515000000000000000e+03 7.252483367919921875e+01 7.686952114105224609e+00 1.998800188302993774e-01 9.873933792114257812e+00 3.022144079208374023e+00 5.757772922515869141e-01
1.516000000000000000e+03 6.920396423339843750e+01 -3.433707809448242188e+01 -6.424926519393920898e-01 3.108313083648681641e+00 7.397460937500000000e-01 1.053787708282470703e+00
1.517000000000000000e+03 1.142916584014892578e+01 -3.203740692138671875e+01 -2.082993268966674805e+00 4.220117628574371338e-01 -4.982944428920745850e-01 4.614574611186981201e-01
1.518000000000000000e+03 1.435560798645019531e+01 -3.461548233032226562e+01 -1.426218867301940918e+00 -4.945941865444183350e-01 -5.762439370155334473e-01 5.825691223144531250e-01
1.519000000000000000e+03 1.545446205139160156e+01 -3.381671142578125000e+01 -1.895942449569702148e+00 -7.321817874908447266e-01 -7.884372472763061523e-01 7.713932394981384277e-01
1.520000000000000000e+03 1.277189254760742188e+01 -3.266532516479492188e+01 -2.035766839981079102e+00 -3.995772004127502441e-01 -7.306032180786132812e-01 5.322349667549133301e-01
1.521000000000000000e+03 5.222032928466796875e+01 -2.871154594421386719e+01 2.101665973663330078e+00 6.042736530303955078e+00 2.443320751190185547e+00 -2.276036262512207031e+00
1.522000000000000000e+03 5.236560058593750000e+01 -2.988118553161621094e+01 2.039259910583496094e+00 5.960475921630859375e+00 2.399920701980590820e+00 -1.818683385848999023e+00
1.523000000000000000e+03 4.939030075073242188e+01 -1.239322757720947266e+01 -7.699381709098815918e-01 4.650591850280761719e+00 1.164196014404296875e+00 -1.908289939165115356e-01
1.524000000000000000e+03 3.723334121704101562e+01 -3.759958267211914062e+01 -1.377009391784667969e+00 8.440036177635192871e-01 -1.599017530679702759e-01 3.439586162567138672e-01
1.525000000000000000e+03 3.813462829589843750e+01 -3.566672134399414062e+01 -1.616417407989501953e+00 9.501088857650756836e-01 -1.998925656080245972e-01 5.466077923774719238e-01
1.526000000000000000e+03 6.656198120117187500e+01 -1.946340751647949219e+01 -4.723743200302124023e-01 7.045357227325439453e-01 6.964842975139617920e-02 6.016494035720825195e-01
1.527000000000000000e+03 5.690081405639648438e+01 4.112531661987304688e+01 -1.118720248341560364e-01 -1.667780280113220215e-01 -8.359501510858535767e-02 1.092295870184898376e-01
1.528000000000000000e+03 6.149475479125976562e+01 3.779067993164062500e+01 -6.360585093498229980e-01 -4.221843481063842773e-01 -3.174728453159332275e-01 3.694804310798645020e-01
1.529000000000000000e+03 4.154319000244140625e+01 -3.329735183715820312e+01 -2.111878156661987305e+00 5.175777435302734375e+00 9.191697835922241211e-01 8.345384001731872559e-01
1.530000000000000000e+03 7.699158477783203125e+01 -2.821159934997558594e+01 4.156286120414733887e-01 7.175164699554443359e+00 2.277238130569458008e+00 -3.927171826362609863e-01
1.531000000000000000e+03 7.230480957031250000e+01 1.465190982818603516e+01 4.951398819684982300e-03 8.924142837524414062e+00 2.678728342056274414e+00 2.947660982608795166e-01
1.532000000000000000e+03 7.110533142089843750e+01 1.454226207733154297e+01 2.313107103109359741e-01 9.046805381774902344e+00 2.783434629440307617e+00 3.610614240169525146e-01
1.533000000000000000e+03 4.386227798461914062e+01 -2.139276885986328125e+01 3.530219793319702148e+00 1.105893039703369141e+01 4.376745223999023438e+00 -2.298717737197875977e+00
1.534000000000000000e+03 4.367785263061523438e+01 -2.266518974304199219e+01 3.931736230850219727e+00 1.143681526184082031e+01 4.610565662384033203e+00 -3.310691118240356445e+00
1.535000000000000000e+03 4.355887222290039062e+01 2.935370826721191406e+01 -9.560199826955795288e-02 4.868360996246337891e+00 1.431827664375305176e+00 8.322414159774780273e-01
1.536000000000000000e+03 1.843491744995117188e+01 -7.964665412902832031e+00 8.906425476074218750e+00 1.327831745147705078e+00 3.070277214050292969e+00 6.393034934997558594e+00
1.537000000000000000e+03 7.447209930419921875e+01 -2.485488510131835938e+01 1.126483678817749023e+00 8.748423576354980469e+00 2.962472200393676758e+00 4.263989925384521484e-01
1.538000000000000000e+03 1.389708232879638672e+01 -1.189520454406738281e+01 1.308879137039184570e+00 3.205595493316650391e+00 1.354342460632324219e+00 4.304066658020019531e+00
1.539000000000000000e+03 7.323462677001953125e+01 -1.623452568054199219e+01 -5.683133006095886230e-01 6.268342971801757812e+00 1.710008859634399414e+00 -6.169156432151794434e-01
1.540000000000000000e+03 3.231631755828857422e+00 -2.726803016662597656e+01 -3.266758918762207031e-01 2.813784599304199219e+00 7.461326718330383301e-01 2.451694965362548828e+00
1.541000000000000000e+03 7.441609859466552734e+00 -2.573124122619628906e+01 -3.962067663669586182e-01 6.160140514373779297e+00 1.729180097579956055e+00 2.098231554031372070e+00
1.542000000000000000e+03 1.000293254852294922e+01 -3.133172225952148438e+01 -2.176655054092407227e+00 1.384771227836608887e+00 -2.375651895999908447e-01 3.372260630130767822e-01
1.543000000000000000e+03 7.158740997314453125e+01 2.813467216491699219e+01 1.024144235998392105e-02 6.830164909362792969e+00 2.052121877670288086e+00 3.894214630126953125e-01
1.544000000000000000e+03 5.184631729125976562e+01 3.523643112182617188e+01 -3.892726004123687744e-01 1.214414715766906738e+00 2.475426197052001953e-01 4.579170346260070801e-01
1.545000000000000000e+03 5.111679077148437500e+01 3.669826126098632812e+01 -5.732099413871765137e-01 1.589687108993530273e+00 3.049431443214416504e-01 4.945484697818756104e-01
1.546000000000000000e+03 4.059480667114257812e+01 8.339920043945312500e+00 1.622594714164733887e+00 9.153976440429687500e+00 3.232971429824829102e+00 -1.101039052009582520e+00
1.547000000000000000e+03 3.901898193359375000e+01 -1.707947158813476562e+01 8.059697151184082031e-01 5.813867092132568359e+00 1.985951066017150879e+00 -3.727332830429077148e+00
1.548000000000000000e+03 4.993713378906250000e+01 -1.369286441802978516e+01 -1.198511362075805664e+00 4.366368293762207031e+00 9.503570795059204102e-01 5.676783621311187744e-02
1.549000000000000000e+03 6.023300933837890625e+01 4.048344802856445312e+01 5.590475723147392273e-02 -5.639532804489135742e-01 -1.524145603179931641e-01 1.723624169826507568e-01
1.550000000000000000e+03 5.592296981811523438e+01 -1.793652343750000000e+01 -1.506479859352111816e+00 -5.569887757301330566e-01 -6.190405488014221191e-01 9.348806142807006836e-01
1.551000000000000000e+03 5.723715591430664062e+01 -1.872114753723144531e+01 -8.302429318428039551e-01 1.349506527185440063e-01 -2.085876911878585815e-01 1.497246265411376953e+00
1.552000000000000000e+03 5.430636596679687500e+01 -1.744179725646972656e+01 -1.820339679718017578e+00 9.023536741733551025e-02 -5.190312862396240234e-01 -3.955950960516929626e-02
1.553000000000000000e+03 4.061374664306640625e+01 -1.678339767456054688e+01 1.261624842882156372e-01 8.053036689758300781e+00 2.453759670257568359e+00 -3.581803083419799805e+00
1.554000000000000000e+03 6.294990158081054688e+01 -2.129263305664062500e+01 -2.575475275516510010e-01 1.009721517562866211e+00 2.256521880626678467e-01 1.330389738082885742e+00
1.555000000000000000e+03 6.539070892333984375e+01 -1.979878234863281250e+01 -7.551959753036499023e-01 8.498257398605346680e-01 2.838892862200737000e-02 1.249939918518066406e+00
1.556000000000000000e+03 7.312592315673828125e+01 -2.142350006103515625e+01 -9.307824373245239258e-01 7.695408344268798828e+00 2.029387712478637695e+00 6.462173908948898315e-02
1.557000000000000000e+03 7.361850738525390625e+01 -2.403292655944824219e+01 1.054248929023742676e+00 8.518014907836914062e+00 2.871679067611694336e+00 3.965146243572235107e-01
1.558000000000000000e+03 4.439352035522460938e+01 -3.091777992248535156e+01 -3.424742519855499268e-01 8.015995979309082031e+00 2.302056550979614258e+00 -1.148425340652465820e+00
1.559000000000000000e+03 4.354420852661132812e+01 -1.846189308166503906e+01 8.781503438949584961e-01 9.780962944030761719e+00 3.197733879089355469e+00 -2.044120311737060547e+00
1.560000000000000000e+03 6.793495178222656250e+01 3.663893127441406250e+01 -4.081583917140960693e-01 2.367382049560546875e+00 5.877670645713806152e-01 -3.121330738067626953e-01
1.561000000000000000e+03 6.457413482666015625e+01 3.826659774780273438e+01 -9.526931494474411011e-02 2.628561854362487793e-01 5.027605965733528137e-02 4.160897061228752136e-02
1.562000000000000000e+03 6.832305145263671875e+01 3.496018600463867188e+01 -7.801141738891601562e-01 2.753594398498535156e+00 5.920440554618835449e-01 -3.060551285743713379e-01
1.563000000000000000e+03 4.989249229431152344e+00 -4.059745025634765625e+01 -1.742962934076786041e-02 3.951887130737304688e+00 1.180337309837341309e+00 2.264909744262695312e-01
1.564000000000000000e+03 5.270849227905273438e+01 -1.735127449035644531e+01 -1.576561570167541504e+00 1.988793969154357910e+00 1.236697062849998474e-01 -4.755180180072784424e-01
1.565000000000000000e+03 5.514345550537109375e+01 -1.915607833862304688e+01 -1.351373642683029175e-01 5.901876091957092285e-01 1.365150660276412964e-01 2.111887484788894653e-01
1.566000000000000000e+03 5.394217300415039062e+01 -3.444335937500000000e+01 2.296319901943206787e-01 7.045224666595458984e+00 2.182456970214843750e+00 -9.038150310516357422e-01
1.567000000000000000e+03 1.960766983032226562e+01 -2.923353672027587891e+00 -9.050556421279907227e-01 3.272362232208251953e+00 7.101919651031494141e-01 -3.710827976465225220e-02
1.568000000000000000e+03 2.075121688842773438e+01 -4.484361648559570312e+00 -2.319193631410598755e-01 7.976581573486328125e+00 2.323398590087890625e+00 2.343642711639404297e+00
1.569000000000000000e+03 2.084838676452636719e+01 -5.140987873077392578e+00 1.213145136833190918e+00 9.784296035766601562e+00 3.299232244491577148e+00 4.267055988311767578e+00
1.570000000000000000e+03 1.751169013977050781e+01 -7.983861446380615234e+00 7.045020103454589844e+00 -5.768549442291259766e-01 1.940449476242065430e+00 5.011990547180175781e+00
1.571000000000000000e+03 1.813371658325195312e+01 -8.143989562988281250e+00 7.910032749176025391e+00 6.515442728996276855e-01 2.568473100662231445e+00 6.158831596374511719e+00
1.572000000000000000e+03 2.193132781982421875e+01 -7.211410999298095703e+00 1.028507232666015625e+01 3.978972434997558594e+00 4.279213428497314453e+00 1.620313644409179688e+00
1.573000000000000000e+03 2.081580352783203125e+01 -4.805720329284667969e+00 2.955039739608764648e-01 8.814805030822753906e+00 2.733092784881591797e+00 3.155958175659179688e+00
1.574000000000000000e+03 2.225939369201660156e+01 -7.634060382843017578e+00 8.565725326538085938e+00 3.264870405197143555e+00 3.549178838729858398e+00 6.485291123390197754e-01
1.575000000000000000e+03 2.162345123291015625e+01 -7.992354869842529297e+00 8.172916412353515625e+00 5.112709045410156250e+00 3.985687732696533203e+00 -3.086792863905429840e-02
1.576000000000000000e+03 1.938176918029785156e+01 -8.886970520019531250e+00 4.741279602050781250e+00 5.420567989349365234e+00 3.048554182052612305e+00 5.881144046783447266e+00
1.577000000000000000e+03 2.043747138977050781e+01 -8.678072929382324219e+00 4.934034347534179688e+00 7.613670349121093750e+00 3.764311313629150391e+00 2.457001924514770508e+00
1.578000000000000000e+03 2.020651817321777344e+01 -8.782869338989257812e+00 4.504903793334960938e+00 7.306034088134765625e+00 3.543281316757202148e+00 3.374240636825561523e+00
1.579000000000000000e+03 2.006779289245605469e+01 -9.151971817016601562e+00 3.434653759002685547e+00 5.982792377471923828e+00 2.825233936309814453e+00 3.730727910995483398e+00
1.580000000000000000e+03 1.886669349670410156e+01 -2.744317293167114258e+00 -8.915780186653137207e-01 1.656108617782592773e+00 2.293591648340225220e-01 -7.702010869979858398e-02
1.581000000000000000e+03 1.976325416564941406e+01 -3.336191654205322266e+00 -9.595192074775695801e-01 3.904865264892578125e+00 8.836038112640380859e-01 3.295561298727989197e-02
1.582000000000000000e+03 1.887567138671875000e+01 -2.282744407653808594e+00 -8.343653082847595215e-01 1.809543013572692871e+00 2.925533354282379150e-01 -7.880367338657379150e-02
1.583000000000000000e+03 1.417158603668212891e+01 -5.881861686706542969e+00 1.227303981781005859e+00 -1.641845554113388062e-01 3.189358413219451904e-01 1.043150782585144043e+00
1.584000000000000000e+03 1.459163188934326172e+01 -5.708120822906494141e+00 1.226388096809387207e+00 -3.281621336936950684e-01 2.694678008556365967e-01 9.314506649971008301e-01
1.585000000000000000e+03 1.468162441253662109e+01 -6.123850822448730469e+00 1.776862621307373047e+00 -3.407037854194641113e-01 4.308476448059082031e-01 1.214625000953674316e+00
1.586000000000000000e+03 1.495338726043701172e+01 -5.867207050323486328e+00 1.605705618858337402e+00 -4.559323191642761230e-01 3.449319899082183838e-01 1.025138497352600098e+00
1.587000000000000000e+03 1.815543174743652344e+01 -2.630922198295593262e-01 -6.047195196151733398e-01 1.235489010810852051e+00 1.892308294773101807e-01 -6.934045255184173584e-02
1.588000000000000000e+03 1.564970302581787109e+01 -1.098098182678222656e+01 9.581537842750549316e-01 1.410593032836914062e+00 7.106240391731262207e-01 5.434943675994873047e+00
1.589000000000000000e+03 1.174533843994140625e+01 -4.766924858093261719e+00 -2.453703880310058594e-01 4.627919495105743408e-01 6.522646546363830566e-02 4.210049808025360107e-01
1.590000000000000000e+03 1.247332382202148438e+01 -4.410986900329589844e+00 -3.126053214073181152e-01 2.517242729663848877e-01 -1.826431229710578918e-02 4.789817333221435547e-01
1.591000000000000000e+03 1.863921546936035156e+01 -1.576813817024230957e+00 -7.568328380584716797e-01 1.597640991210937500e+00 2.522424459457397461e-01 -7.545500993728637695e-02
1.592000000000000000e+03 1.892639160156250000e+01 -1.197163581848144531e+00 -7.343230843544006348e-01 1.938665509223937988e+00 3.613027632236480713e-01 -8.761908113956451416e-02
1.593000000000000000e+03 1.117380332946777344e+01 -4.613989830017089844e+00 -3.787319064140319824e-01 5.369061231613159180e-01 4.745225980877876282e-02 3.165108263492584229e-01
1.594000000000000000e+03 9.147703170776367188e+00 4.783122539520263672e+00 -1.029695644974708557e-01 -3.425094783306121826e-01 -1.336437165737152100e-01 5.643191933631896973e-01
1.595000000000000000e+03 8.516365051269531250e+00 4.517581939697265625e+00 -1.609163135290145874e-01 -3.292331695556640625e-01 -1.470448374748229980e-01 5.711029171943664551e-01
1.596000000000000000e+03 1.903345298767089844e+01 -1.854029536247253418e+00 -8.262303471565246582e-01 2.075275659561157227e+00 3.747136294841766357e-01 -1.032831594347953796e-01
1.597000000000000000e+03 1.927425384521484375e+01 -9.005798101425170898e-01 -6.792479753494262695e-01 2.284589529037475586e+00 4.816024601459503174e-01 -6.090156733989715576e-02
1.598000000000000000e+03 1.109170341491699219e+01 -5.252189159393310547e+00 -1.715835034847259521e-01 6.716967225074768066e-01 1.500339657068252563e-01 3.820196390151977539e-01
1.599000000000000000e+03 7.878139972686767578e+00 4.347591400146484375e+00 -1.915809512138366699e-01 -3.069287240505218506e-01 -1.495529115200042725e-01 5.748296380043029785e-01
1.600000000000000000e+03 5.920458793640136719e+00 4.136686325073242188e+00 -2.071845978498458862e-01 -2.283118963241577148e-01 -1.306489408016204834e-01 4.744504690170288086e-01
1.601000000000000000e+03 5.233600139617919922e+00 4.136754035949707031e+00 -1.742732971906661987e-01 -2.194883972406387329e-01 -1.181285083293914795e-01 4.240295886993408203e-01
1.602000000000000000e+03 3.644999980926513672e+00 5.176630496978759766e+00 -6.878466159105300903e-02 -2.913923263549804688e-01 -1.080530956387519836e-01 3.457929790019989014e-01
1.603000000000000000e+03 3.769311904907226562e+00 4.174438476562500000e+00 -1.116908267140388489e-01 -2.146071344614028931e-01 -9.788938611745834351e-02 3.141142725944519043e-01
1.604000000000000000e+03 3.975973606109619141e+00 3.351923704147338867e+00 -1.638988703489303589e-01 -1.522164791822433472e-01 -9.483460336923599243e-02 2.905639708042144775e-01
1.605000000000000000e+03 5.150944709777832031e+00 4.859930992126464844e+00 -1.285697370767593384e-01 -2.606007754802703857e-01 -1.167511492967605591e-01 4.450195431709289551e-01
1.606000000000000000e+03 2.878956317901611328e+00 3.365374326705932617e+00 -9.050524979829788208e-02 -1.582965701818466187e-01 -7.464054971933364868e-02 2.022293210029602051e-01
1.607000000000000000e+03 1.574340224266052246e+00 5.093050479888916016e+00 -1.878880336880683899e-02 -2.877663373947143555e-01 -9.196653962135314941e-02 1.655226945877075195e-01
1.608000000000000000e+03 1.633070755004882812e+01 1.276916146278381348e+00 -4.243256151676177979e-01 3.214368522167205811e-01 -3.086662478744983673e-02 8.877259492874145508e-02
1.609000000000000000e+03 1.595401668548583984e+01 6.654115319252014160e-01 -6.215214729309082031e-01 4.281689599156379700e-02 -1.736113727092742920e-01 2.351597696542739868e-01
1.610000000000000000e+03 1.592561531066894531e+01 2.530322313308715820e+00 -1.980858296155929565e-01 3.438930511474609375e-01 4.374216496944427490e-02 6.893254071474075317e-02
1.611000000000000000e+03 1.052160072326660156e+01 -5.188576698303222656e+00 -2.753074467182159424e-01 7.333523035049438477e-01 1.374134570360183716e-01 2.655610442161560059e-01
1.612000000000000000e+03 7.827903747558593750e+00 -3.521473884582519531e+00 -6.856448650360107422e-01 4.092117846012115479e-01 -8.292992413043975830e-02 -2.892637848854064941e-01
1.613000000000000000e+03 6.408246517181396484e+00 -4.417879104614257812e+00 -4.821498095989227295e-01 3.478005230426788330e-01 -4.030478745698928833e-02 -5.625977516174316406e-01
1.614000000000000000e+03 4.141608715057373047e+00 -4.647259235382080078e+00 -2.698662281036376953e-01 -9.514272212982177734e-02 -1.095026805996894836e-01 -6.915580034255981445e-01
1.615000000000000000e+03 3.379129886627197266e+00 -4.694747447967529297e+00 -2.078575640916824341e-01 -2.622494697570800781e-01 -1.410321146249771118e-01 -6.743791103363037109e-01
1.616000000000000000e+03 2.633235931396484375e+00 -4.676160812377929688e+00 -1.300249248743057251e-01 -4.373817145824432373e-01 -1.702219992876052856e-01 -5.895352363586425781e-01
1.617000000000000000e+03 3.453418254852294922e+00 -6.702265262603759766e+00 -1.490887850522994995e-01 -3.674923479557037354e-01 -1.549743413925170898e-01 -8.426494598388671875e-01
1.618000000000000000e+03 2.538034200668334961e+00 -5.570892810821533203e+00 -1.139680445194244385e-01 -5.475232005119323730e-01 -1.984473764896392822e-01 -6.678192615509033203e-01
1.619000000000000000e+03 1.696246910095214844e+01 7.431759834289550781e-01 -4.903977513313293457e-01 5.450477600097656250e-01 1.639500819146633148e-02 3.919370099902153015e-02
1.620000000000000000e+03 1.290638637542724609e+01 3.531320095062255859e+00 -1.648758649826049805e-01 -2.726669907569885254e-01 -1.312628537416458130e-01 3.772103190422058105e-01
1.621000000000000000e+03 1.313200950622558594e+01 2.393456697463989258e+00 -4.642621576786041260e-01 -3.577788770198822021e-01 -2.466123104095458984e-01 4.367573857307434082e-01
1.622000000000000000e+03 1.061442947387695312e+01 3.426414966583251953e+00 -3.188360631465911865e-01 -4.228671491146087646e-01 -2.225109636783599854e-01 5.618143677711486816e-01
1.623000000000000000e+03 7.941492557525634766e+00 -5.106983184814453125e+00 -4.702364206314086914e-01 7.158627510070800781e-01 7.368791103363037109e-02 -3.203284740447998047e-01
1.624000000000000000e+03 1.563369655609130859e+01 1.774782776832580566e+00 -3.785367012023925781e-01 1.359952390193939209e-01 -7.276243716478347778e-02 1.626131385564804077e-01
1.625000000000000000e+03 1.489445686340332031e+01 2.191920042037963867e+00 -3.394244909286499023e-01 -4.217019304633140564e-02 -1.144784018397331238e-01 2.326487600803375244e-01
1.626000000000000000e+03 1.419323921203613281e+01 2.616741418838500977e+00 -3.061629831790924072e-01 -1.552075594663619995e-01 -1.384111642837524414e-01 2.917342782020568848e-01
1.627000000000000000e+03 9.959689140319824219e+00 -3.669770717620849609e+00 -7.301971912384033203e-01 4.919689297676086426e-01 -7.146846503019332886e-02 4.660338535904884338e-02
1.628000000000000000e+03 1.016286849975585938e+01 4.321606636047363281e+00 -1.427711993455886841e-01 -3.625721037387847900e-01 -1.516029983758926392e-01 5.506295561790466309e-01
1.629000000000000000e+03 9.499383926391601562e+00 3.955108165740966797e+00 -2.207208871841430664e-01 -3.665522038936614990e-01 -1.761819273233413696e-01 5.809449553489685059e-01
1.630000000000000000e+03 1.124478721618652344e+01 4.013730525970458984e+00 -1.630281805992126465e-01 -3.757924735546112061e-01 -1.616462022066116333e-01 4.980673193931579590e-01
1.631000000000000000e+03 6.780588531494140625e+01 -1.901548385620117188e+01 -3.490609824657440186e-01 1.543263673782348633e+00 3.582608103752136230e-01 -1.169921159744262695e-01
1.632000000000000000e+03 6.054323959350585938e+01 -2.128866195678710938e+01 2.821816205978393555e-01 1.269594669342041016e+00 4.655328989028930664e-01 1.632700681686401367e+00
1.633000000000000000e+03 2.738551521301269531e+01 -1.260940933227539062e+01 -2.206503629684448242e+00 7.246353030204772949e-01 -4.445605278015136719e-01 -9.195089340209960938e-01
1.634000000000000000e+03 6.470864868164062500e+01 -1.495148277282714844e+01 7.300954461097717285e-01 2.175790786743164062e+00 8.717659115791320801e-01 1.122660636901855469e+00
1.635000000000000000e+03 4.276890563964843750e+01 -2.008293151855468750e+00 1.977720558643341064e-01 5.712492942810058594e+00 1.773079514503479004e+00 -1.823022842407226562e+00
1.636000000000000000e+03 4.534844589233398438e+01 -5.190783500671386719e+00 -4.025935009121894836e-02 5.406045436859130859e+00 1.609735727310180664e+00 -1.684131264686584473e+00
1.637000000000000000e+03 2.338005065917968750e+01 -1.247505378723144531e+01 -4.805657863616943359e+00 -1.710782386362552643e-02 -1.446829676628112793e+00 -1.336232870817184448e-01
1.638000000000000000e+03 2.497345924377441406e+01 -1.255975914001464844e+01 -3.450961112976074219e+00 4.784346222877502441e-01 -8.917579650878906250e-01 -6.551235318183898926e-01
1.639000000000000000e+03 1.913549995422363281e+01 -1.092114257812500000e+01 -8.657073378562927246e-01 1.338027954101562500e+00 1.416961997747421265e-01 4.541977405548095703e+00
1.640000000000000000e+03 4.493272018432617188e+01 2.926084899902343750e+01 1.561118960380554199e-01 4.417234420776367188e+00 1.372003912925720215e+00 1.139090776443481445e+00
1.641000000000000000e+03 4.486610412597656250e+01 -3.952943801879882812e+00 8.740776777267456055e-02 5.449821949005126953e+00 1.661168932914733887e+00 -1.801719665527343750e+00
1.642000000000000000e+03 3.368437957763671875e+01 -1.440874767303466797e+01 -6.830382347106933594e-01 1.443164706230163574e+00 2.280379533767700195e-01 -1.525424003601074219e+00
1.643000000000000000e+03 3.516253280639648438e+01 -1.621495056152343750e+01 -5.217543840408325195e-01 1.168720245361328125e+00 1.940897852182388306e-01 -1.608391642570495605e+00
1.644000000000000000e+03 4.326842117309570312e+01 -3.212203741073608398e+00 7.464104145765304565e-02 5.616759777069091797e+00 1.707420349121093750e+00 -1.810985445976257324e+00
1.645000000000000000e+03 2.596096420288085938e+01 -1.314027404785156250e+01 -3.742350578308105469e+00 4.864029288291931152e-01 -9.767842888832092285e-01 -4.481857120990753174e-01
1.646000000000000000e+03 2.363152694702148438e+01 -1.112490749359130859e+01 -1.318853735923767090e+00 5.553421378135681152e-01 -2.290534824132919312e-01 -1.107439041137695312e+00
1.647000000000000000e+03 1.450366401672363281e+01 -1.123612117767333984e+01 1.239888191223144531e+00 2.527565002441406250e+00 1.130236029624938965e+00 4.565948486328125000e+00
1.648000000000000000e+03 4.323353958129882812e+01 -3.058734536170959473e-01 3.954864740371704102e-01 5.880379676818847656e+00 1.882759809494018555e+00 -1.956380605697631836e+00
1.649000000000000000e+03 4.430472564697265625e+01 2.652573287487030029e-01 5.532131195068359375e-01 5.797569751739501953e+00 1.905234932899475098e+00 -2.125382900238037109e+00
1.650000000000000000e+03 4.649440765380859375e+01 -4.667236804962158203e+00 1.721710264682769775e-01 5.217405319213867188e+00 1.616872906684875488e+00 -1.703101873397827148e+00
1.651000000000000000e+03 7.230738067626953125e+01 1.194234657287597656e+01 -4.118102192878723145e-01 9.239102363586425781e+00 2.648187637329101562e+00 2.724994421005249023e-01
1.652000000000000000e+03 4.628230285644531250e+01 3.493814849853515625e+01 -7.178222537040710449e-01 3.343449592590332031e+00 7.876881957054138184e-01 5.541294217109680176e-01
1.653000000000000000e+03 7.346762084960937500e+01 4.954648971557617188e+00 4.893087744712829590e-01 9.561575889587402344e+00 3.015265464782714844e+00 5.956118106842041016e-01
1.654000000000000000e+03 7.237487792968750000e+01 3.493649959564208984e+00 5.838685631752014160e-01 1.074694633483886719e+01 3.399244546890258789e+00 6.214537620544433594e-01
1.655000000000000000e+03 4.683209991455078125e+01 -8.973406791687011719e+00 -4.456292986869812012e-01 5.464502334594726562e+00 1.505661845207214355e+00 -1.097131490707397461e+00
1.656000000000000000e+03 4.782342910766601562e+01 -1.154055309295654297e+01 -8.065310120582580566e-01 5.486515045166015625e+00 1.403995275497436523e+00 -5.314992070198059082e-01
1.657000000000000000e+03 7.468579101562500000e+01 1.218056297302246094e+01 -2.049766331911087036e-01 8.457069396972656250e+00 2.475627899169921875e+00 5.581242442131042480e-01
1.658000000000000000e+03 7.699281311035156250e+01 2.583639860153198242e+00 2.464925795793533325e-01 6.589302539825439453e+00 2.050738573074340820e+00 1.526698768138885498e-01
1.659000000000000000e+03 7.493808746337890625e+01 -8.250466585159301758e-01 4.713211953639984131e-01 7.846308708190917969e+00 2.495288848876953125e+00 -1.619077026844024658e-01
1.660000000000000000e+03 7.573415374755859375e+01 5.268209457397460938e+00 3.066915869712829590e-01 7.697001934051513672e+00 2.401108026504516602e+00 5.948125123977661133e-01
1.661000000000000000e+03 7.465244293212890625e+01 3.751896858215332031e+00 5.357685685157775879e-01 8.431509971618652344e+00 2.690183639526367188e+00 4.839256703853607178e-01
1.662000000000000000e+03 7.241519927978515625e+01 2.073405504226684570e+00 8.630139231681823730e-01 1.049119281768798828e+01 3.406261920928955078e+00 6.426912546157836914e-01
1.663000000000000000e+03 7.444435882568359375e+01 6.443401336669921875e+00 2.701786756515502930e-01 8.657835960388183594e+00 2.678404331207275391e+00 7.207244038581848145e-01
1.664000000000000000e+03 7.578742980957031250e+01 9.590716361999511719e+00 -1.068127155303955078e-01 7.990179061889648438e+00 2.365009784698486328e+00 7.125881910324096680e-01
1.665000000000000000e+03 7.554724884033203125e+01 -7.202401638031005859e+00 8.801046758890151978e-03 6.932317733764648438e+00 2.082335472106933594e+00 -5.519595742225646973e-01
1.666000000000000000e+03 7.682958984375000000e+01 -5.681056976318359375e+00 2.735288813710212708e-02 6.698951721191406250e+00 2.017891407012939453e+00 -5.626161694526672363e-01
1.667000000000000000e+03 7.264921569824218750e+01 -3.981034278869628906e+00 2.691597342491149902e-01 8.277983665466308594e+00 2.564142942428588867e+00 7.904378324747085571e-02
1.668000000000000000e+03 7.584574127197265625e+01 1.093305873870849609e+01 -1.316222697496414185e-01 7.939174652099609375e+00 2.342265844345092773e+00 6.225845217704772949e-01
1.669000000000000000e+03 7.440824127197265625e+01 -2.888194799423217773e+00 2.790373265743255615e-01 7.785337448120117188e+00 2.419312477111816406e+00 -2.972513735294342041e-01
1.670000000000000000e+03 7.567974853515625000e+01 -4.211880207061767578e+00 1.275461316108703613e-01 7.113080501556396484e+00 2.172188043594360352e+00 -5.110589861869812012e-01
1.671000000000000000e+03 7.351908111572265625e+01 1.897505569458007812e+01 7.263503223657608032e-02 8.533401489257812500e+00 2.581811189651489258e+00 5.185213685035705566e-01
1.672000000000000000e+03 7.585396575927734375e+01 1.634284400939941406e+01 -4.979887744411826134e-04 8.118439674377441406e+00 2.435382604598999023e+00 4.662796258926391602e-01
1.673000000000000000e+03 7.699736022949218750e+01 1.926486968994140625e+01 4.993423074483871460e-02 8.111002922058105469e+00 2.448281049728393555e+00 4.520050287246704102e-01
1.674000000000000000e+03 7.350608062744140625e+01 1.614273262023925781e+01 3.633953258395195007e-02 8.602910995483398438e+00 2.591775178909301758e+00 4.592439830303192139e-01
1.675000000000000000e+03 7.467472839355468750e+01 1.907504272460937500e+01 8.587939292192459106e-02 8.340069770812988281e+00 2.527784824371337891e+00 5.423806905746459961e-01
1.676000000000000000e+03 7.557725524902343750e+01 -1.440769004821777344e+01 -2.586406767368316650e-01 6.915204524993896484e+00 1.996969223022460938e+00 -4.729057252407073975e-01
1.677000000000000000e+03 7.681334686279296875e+01 -1.285237121582031250e+01 -1.103482693433761597e-01 7.110182762145996094e+00 2.099950313568115234e+00 -4.723690748214721680e-01
1.678000000000000000e+03 7.008305358886718750e+01 -9.121480941772460938e+00 2.887353301048278809e-01 6.115704059600830078e+00 1.921331882476806641e+00 6.523860692977905273e-01
1.679000000000000000e+03 7.555046844482421875e+01 -1.153846931457519531e+01 -1.025943011045455933e-01 6.805768489837646484e+00 2.010952234268188477e+00 -5.723149776458740234e-01
1.680000000000000000e+03 7.698222351074218750e+01 -1.960671615600585938e+01 -3.386897146701812744e-01 7.593237876892089844e+00 2.176364421844482422e+00 3.777738213539123535e-01
1.681000000000000000e+03 7.462636566162109375e+01 -1.852768135070800781e+01 -7.969350218772888184e-01 7.202229022979736328e+00 1.921588301658630371e+00 -1.289253234863281250e-01
1.682000000000000000e+03 7.379129791259765625e+01 -2.232701492309570312e+01 -4.749782085418701172e-01 8.290264129638671875e+00 2.344585895538330078e+00 4.559602141380310059e-01
1.683000000000000000e+03 7.545102691650390625e+01 -2.208382987976074219e+01 -2.731782197952270508e-01 7.744488239288330078e+00 2.241393089294433594e+00 7.727240324020385742e-01
1.684000000000000000e+03 7.581280517578125000e+01 -1.838262367248535156e+01 -5.358879566192626953e-01 7.400194644927978516e+00 2.059292078018188477e+00 7.445792853832244873e-02
1.685000000000000000e+03 7.491531372070312500e+01 -2.649756240844726562e+01 1.135341167449951172e+00 8.313204765319824219e+00 2.834563970565795898e+00 1.933454871177673340e-01
1.686000000000000000e+03 7.661145782470703125e+01 -2.388398742675781250e+01 2.641156315803527832e-01 7.482589721679687500e+00 2.324011564254760742e+00 7.904108762741088867e-01
1.687000000000000000e+03 7.667208099365234375e+01 -2.540898132324218750e+01 6.380575895309448242e-01 7.374443054199218750e+00 2.403750181198120117e+00 3.977210521697998047e-01
1.688000000000000000e+03 7.377993774414062500e+01 3.641332244873046875e+01 -3.104360699653625488e-01 7.207443237304687500e+00 2.069102048873901367e+00 1.188934817910194397e-01
1.689000000000000000e+03 7.593974304199218750e+01 3.532469558715820312e+01 -2.850772738456726074e-01 8.848839759826660156e+00 2.569128751754760742e+00 2.363572269678115845e-01
1.690000000000000000e+03 7.083885955810546875e+01 3.388073730468750000e+01 -7.679609656333923340e-01 4.914586544036865234e+00 1.243987679481506348e+00 -1.200362760573625565e-02
1.691000000000000000e+03 7.463779449462890625e+01 2.205267143249511719e+01 1.568012982606887817e-01 8.283648490905761719e+00 2.532134771347045898e+00 5.820277929306030273e-01
1.692000000000000000e+03 7.716041564941406250e+01 2.760792160034179688e+01 -7.096542976796627045e-03 9.019173622131347656e+00 2.703623294830322266e+00 6.578165888786315918e-01
1.693000000000000000e+03 7.467329406738281250e+01 2.530815124511718750e+01 1.461599022150039673e-01 8.133134841918945312e+00 2.483788490295410156e+00 7.429522275924682617e-01
1.694000000000000000e+03 7.712506866455078125e+01 2.883632278442382812e+01 -5.153205990791320801e-02 9.151079177856445312e+00 2.729864358901977539e+00 6.426579356193542480e-01
1.695000000000000000e+03 6.804936981201171875e+01 -1.711297988891601562e+01 6.658855080604553223e-02 2.517996072769165039e+00 7.753753662109375000e-01 -8.396963775157928467e-02
1.696000000000000000e+03 7.079773712158203125e+01 -1.633162879943847656e+01 -3.036246597766876221e-01 4.760128974914550781e+00 1.336951375007629395e+00 -6.703897118568420410e-01
1.697000000000000000e+03 7.492555236816406250e+01 -3.366054916381835938e+01 -4.961724579334259033e-01 7.262026309967041016e+00 2.029756069183349609e+00 -4.153143763542175293e-01
1.698000000000000000e+03 7.680558013916015625e+01 3.132973098754882812e+01 -1.432157754898071289e-01 9.249816894531250000e+00 2.731980323791503906e+00 5.508961677551269531e-01
1.699000000000000000e+03 7.606227874755859375e+01 2.639536285400390625e+01 8.036757260560989380e-02 8.535778999328613281e+00 2.584843873977661133e+00 7.317640781402587891e-01
1.700000000000000000e+03 7.695024108886718750e+01 -2.951857376098632812e+01 2.449451088905334473e-01 7.243080615997314453e+00 2.246407747268676758e+00 -5.874777436256408691e-01
1.701000000000000000e+03 7.528095245361328125e+01 -3.209353256225585938e+01 -1.890967637300491333e-01 7.475143432617187500e+00 2.185813903808593750e+00 -6.547102332115173340e-01
1.702000000000000000e+03 7.599763488769531250e+01 -2.829786872863769531e+01 6.528028249740600586e-01 7.530202865600585938e+00 2.454901695251464844e+00 -3.514404594898223877e-01
1.703000000000000000e+03 7.290128326416015625e+01 3.156089782714843750e+01 -5.372803211212158203e-01 6.945264339447021484e+00 1.922395229339599609e+00 4.918495118618011475e-01
1.704000000000000000e+03 7.596205139160156250e+01 2.973464775085449219e+01 -1.435173004865646362e-01 8.694411277770996094e+00 2.565268278121948242e+00 7.033265233039855957e-01
1.705000000000000000e+03 7.580314636230468750e+01 1.088620543479919434e+00 3.870406448841094971e-01 7.378203392028808594e+00 2.329573154449462891e+00 8.658407023176550865e-04
1.706000000000000000e+03 6.590764617919921875e+01 -1.378180027008056641e+01 9.077388048171997070e-01 2.774991989135742188e+00 1.104819297790527344e+00 1.025159955024719238e+00
1.707000000000000000e+03 7.256078338623046875e+01 5.702125430107116699e-01 8.365100622177124023e-01 9.880642890930175781e+00 3.215146064758300781e+00 4.660404324531555176e-01
1.708000000000000000e+03 7.232132720947265625e+01 1.604238128662109375e+01 1.273484975099563599e-01 8.781860351562500000e+00 2.672762632369995117e+00 4.572757482528686523e-01
1.709000000000000000e+03 7.349727630615234375e+01 1.476097679138183594e+01 -3.351702541112899780e-02 8.637842178344726562e+00 2.581297636032104492e+00 4.518447518348693848e-01
1.710000000000000000e+03 7.235521697998046875e+01 1.887076377868652344e+01 4.572260007262229919e-02 8.685863494873046875e+00 2.619475841522216797e+00 4.528515934944152832e-01
1.711000000000000000e+03 7.234140014648437500e+01 1.744561576843261719e+01 7.420164346694946289e-02 8.823063850402832031e+00 2.669179439544677734e+00 4.929073154926300049e-01
1.712000000000000000e+03 4.468122482299804688e+01 3.314540863037109375e+01 -6.315928697586059570e-01 4.027904510498046875e+00 1.018893480300903320e+00 5.569856166839599609e-01
1.713000000000000000e+03 4.632190322875976562e+01 -7.709558963775634766e+00 -3.119695484638214111e-01 5.410971641540527344e+00 1.529700636863708496e+00 -1.301884651184082031e+00
1.714000000000000000e+03 3.983436107635498047e+00 -1.459989833831787109e+01 4.555428922176361084e-01 1.519626975059509277e-01 1.822516769170761108e-01 -5.626050829887390137e-01
1.715000000000000000e+03 4.244745254516601562e+00 2.099106979370117188e+01 5.380634218454360962e-02 -6.751230955123901367e-01 -1.863950192928314209e-01 -3.654272109270095825e-02
1.716000000000000000e+03 7.179648876190185547e+00 -2.726840782165527344e+01 -1.456125617027282715e+00 5.056807041168212891e+00 1.080204367637634277e+00 2.244041681289672852e+00
1.717000000000000000e+03 4.413475513458251953e+00 -2.150062179565429688e+01 1.376874923706054688e+00 2.379345893859863281e+00 1.126866221427917480e+00 2.079700231552124023e+00
1.718000000000000000e+03 2.805338621139526367e+00 -1.735741615295410156e+01 4.831879138946533203e-01 -1.315178751945495605e+00 -2.495972514152526855e-01 3.108466509729623795e-03
1.719000000000000000e+03 3.903146743774414062e+00 -1.833634757995605469e+01 9.118925333023071289e-01 6.264820098876953125e-01 4.615123569965362549e-01 5.651857256889343262e-01
1.720000000000000000e+03 4.366894721984863281e+00 -1.942739677429199219e+01 1.291213154792785645e+00 1.856725692749023438e+00 9.443816542625427246e-01 1.192495703697204590e+00
1.721000000000000000e+03 3.173722505569458008e+00 -2.589925765991210938e+01 -1.088598892092704773e-01 2.319589614868164062e+00 6.632189154624938965e-01 2.579128503799438477e+00
1.722000000000000000e+03 4.355651855468750000e+00 -2.577783012390136719e+01 -1.254171878099441528e-01 3.238469839096069336e+00 9.339157938957214355e-01 3.074805974960327148e+00
1.723000000000000000e+03 4.490704059600830078e+00 2.234334564208984375e+01 4.648293927311897278e-02 -6.185679435729980469e-01 -1.716255098581314087e-01 -6.114803254604339600e-02
1.724000000000000000e+03 5.343221187591552734e+00 -1.855975341796875000e+01 1.697404503822326660e+00 3.315470933914184570e+00 1.503862619400024414e+00 1.127318382263183594e+00
1.725000000000000000e+03 4.908962726593017578e+00 2.534284210205078125e+01 3.007930889725685120e-02 -4.855062067508697510e-01 -1.366280764341354370e-01 -1.152095869183540344e-01
1.726000000000000000e+03 5.014155387878417969e+00 2.966735839843750000e+01 -6.585693918168544769e-03 -3.688163161277770996e-01 -1.126205995678901672e-01 -1.398289352655410767e-01
1.727000000000000000e+03 4.251167774200439453e+00 1.553323078155517578e+01 8.239120244979858398e-02 -6.802687644958496094e-01 -1.793632805347442627e-01 1.274705529212951660e-01
1.728000000000000000e+03 4.179992675781250000e+00 1.967803001403808594e+01 6.605133414268493652e-02 -7.024003863334655762e-01 -1.909047216176986694e-01 -1.361972070299088955e-03
1.729000000000000000e+03 3.040619611740112305e+00 1.715100288391113281e+01 4.288766905665397644e-02 -8.951462507247924805e-01 -2.556775808334350586e-01 6.238163635134696960e-02
1.730000000000000000e+03 4.268517971038818359e+00 1.696486854553222656e+01 8.390097320079803467e-02 -6.880611181259155273e-01 -1.812480390071868896e-01 8.155962079763412476e-02
1.731000000000000000e+03 2.940258741378784180e+00 1.434912395477294922e+01 4.710792377591133118e-02 -8.460037112236022949e-01 -2.396687418222427368e-01 1.354334205389022827e-01
1.732000000000000000e+03 3.952508926391601562e+00 1.268558216094970703e+01 9.062327444553375244e-02 -6.583970189094543457e-01 -1.703321337699890137e-01 2.261492908000946045e-01
1.733000000000000000e+03 4.130078315734863281e+00 1.409229278564453125e+01 9.076607227325439453e-02 -6.741569042205810547e-01 -1.750172376632690430e-01 1.759006828069686890e-01
1.734000000000000000e+03 3.831009149551391602e+00 -1.039928913116455078e+01 -1.842084340751171112e-03 -2.351205199956893921e-01 -7.108878344297409058e-02 -9.660718441009521484e-01
1.735000000000000000e+03 3.677478313446044922e+00 -9.092924118041992188e+00 -7.724054902791976929e-02 -3.478196859359741211e-01 -1.275180727243423462e-01 -9.641423225402832031e-01
1.736000000000000000e+03 4.017196655273437500e+00 -1.318206977844238281e+01 2.498591542243957520e-01 -1.534556411206722260e-02 7.035407423973083496e-02 -8.066570162773132324e-01
1.737000000000000000e+03 6.233138084411621094e+00 2.302800941467285156e+01 7.247198373079299927e-02 -3.079037070274353027e-01 -7.062952220439910889e-02 -1.027446389198303223e-01
1.738000000000000000e+03 4.701381683349609375e+00 2.686308097839355469e+01 2.443879470229148865e-02 -4.932556450366973877e-01 -1.406450569629669189e-01 -1.268070340156555176e-01
1.739000000000000000e+03 4.844025135040283203e+00 2.377521324157714844e+01 4.582476988434791565e-02 -5.295881032943725586e-01 -1.451289951801300049e-01 -9.564303606748580933e-02
1.740000000000000000e+03 4.880411624908447266e+00 1.111211109161376953e+01 1.108390465378761292e-01 -5.248892903327941895e-01 -1.242150738835334778e-01 3.103668093681335449e-01
1.741000000000000000e+03 5.198700428009033203e+00 3.207480239868164062e+01 -2.118450403213500977e-02 -2.774072289466857910e-01 -8.957751840353012085e-02 -1.353860944509506226e-01
1.742000000000000000e+03 6.218858718872070312e+00 3.669907760620117188e+01 -4.903428629040718079e-02 -3.242103382945060730e-02 -2.443659491837024689e-02 -8.406656980514526367e-02
1.743000000000000000e+03 4.323580265045166016e+00 3.543844223022460938e+01 -9.513544850051403046e-03 -3.767231404781341553e-01 -1.158710122108459473e-01 -8.242134004831314087e-02
1.744000000000000000e+03 3.360098838806152344e+00 -3.006317710876464844e+01 -6.252340674400329590e-01 3.792556285858154297e+00 9.501966834068298340e-01 1.691670060157775879e+00
1.745000000000000000e+03 5.894481182098388672e+00 -2.948093795776367188e+01 -1.550598621368408203e+00 3.962143182754516602e+00 7.234633564949035645e-01 1.889796018600463867e+00
1.746000000000000000e+03 3.964054584503173828e+00 -1.176820182800292969e+01 1.065087541937828064e-01 -8.743922412395477295e-02 5.720858927816152573e-03 -9.471889138221740723e-01
1.747000000000000000e+03 3.810919761657714844e+00 1.135238933563232422e+01 7.606185972690582275e-02 -6.300598978996276855e-01 -1.661994010210037231e-01 2.695197761058807373e-01
1.748000000000000000e+03 4.237340927124023438e+00 -5.612745285034179688e+00 -2.437510937452316284e-01 -7.820022106170654297e-02 -9.658539295196533203e-02 -7.904170155525207520e-01
1.749000000000000000e+03 4.697534084320068359e+00 2.825535583496093750e+01 -5.147898104041814804e-03 -4.720832705497741699e-01 -1.431693583726882935e-01 -1.305363774299621582e-01
1.750000000000000000e+03 5.676815509796142578e+00 3.443754577636718750e+01 -3.187668696045875549e-02 -1.239298060536384583e-01 -4.674194753170013428e-02 -1.210331916809082031e-01
1.751000000000000000e+03 4.448351860046386719e+00 3.443528366088867188e+01 -1.811160147190093994e-02 -3.990185558795928955e-01 -1.251390427350997925e-01 -7.211481034755706787e-02
1.752000000000000000e+03 5.878263950347900391e+00 3.084529685974121094e+01 -1.205624919384717941e-02 -1.947145760059356689e-01 -6.203125044703483582e-02 -1.635439693927764893e-01
1.753000000000000000e+03 4.921063423156738281e+00 -3.241764831542968750e+01 -9.874420762062072754e-01 3.788786888122558594e+00 8.404034376144409180e-01 1.028570413589477539e+00
1.754000000000000000e+03 4.697602272033691406e+00 -2.987838554382324219e+01 -1.178091526031494141e+00 3.907944202423095703e+00 8.189557790756225586e-01 1.884282588958740234e+00
1.755000000000000000e+03 3.445697784423828125e+00 -3.144385910034179688e+01 -6.971454024314880371e-01 4.040126323699951172e+00 1.002894163131713867e+00 1.288919329643249512e+00
1.756000000000000000e+03 3.643764495849609375e+00 8.842908859252929688e+00 4.597748070955276489e-02 -5.294601321220397949e-01 -1.450447887182235718e-01 3.310639560222625732e-01
1.757000000000000000e+03 4.493799209594726562e+00 5.008126258850097656e+00 -9.430655837059020996e-02 -2.764141857624053955e-01 -1.112162247300148010e-01 4.018193185329437256e-01
1.758000000000000000e+03 2.508964776992797852e+00 -6.679948329925537109e+00 -8.304104208946228027e-02 -7.122202515602111816e-01 -2.385783791542053223e-01 -7.211268544197082520e-01
1.759000000000000000e+03 5.327255630493164062e+01 -2.422795295715332031e+01 1.610329270362854004e+00 3.886998176574707031e+00 1.649198174476623535e+00 -9.402945041656494141e-01
1.760000000000000000e+03 4.613605117797851562e+01 -2.398613357543945312e+01 2.628029346466064453e+00 8.647687911987304688e+00 3.382714986801147461e+00 -2.685820102691650391e+00
1.761000000000000000e+03 5.620574474334716797e+00 -3.631710815429687500e+01 -4.697218239307403564e-01 3.356611490249633789e+00 8.660668730735778809e-01 3.967488408088684082e-01
1.762000000000000000e+03 1.218915748596191406e+01 -1.278125667572021484e+01 1.603975415229797363e+00 4.707547187805175781e+00 1.893456816673278809e+00 3.060486555099487305e+00
1.763000000000000000e+03 1.130300617218017578e+01 -1.268488216400146484e+01 1.474517345428466797e+00 4.716781139373779297e+00 1.857389569282531738e+00 2.543199539184570312e+00
1.764000000000000000e+03 7.261938476562500000e+01 -2.036777305603027344e+01 -1.411132931709289551e+00 7.251533985137939453e+00 1.752120375633239746e+00 -3.913641273975372314e-01
1.765000000000000000e+03 3.526968383789062500e+01 -1.397344970703125000e+01 -3.173680007457733154e-01 2.292726516723632812e+00 5.926075577735900879e-01 -2.201544046401977539e+00
1.766000000000000000e+03 4.637356948852539062e+01 -2.867561340332031250e+01 1.282423019409179688e+00 7.757446289062500000e+00 2.711960792541503906e+00 -2.340371370315551758e+00
1.767000000000000000e+03 4.633031845092773438e+01 -2.750862312316894531e+01 1.602516293525695801e+00 8.038487434387207031e+00 2.892301082611083984e+00 -2.341874122619628906e+00
1.768000000000000000e+03 6.977910614013671875e+01 3.271860504150390625e+01 -8.828828334808349609e-01 4.178067684173583984e+00 9.885554909706115723e-01 -8.247217535972595215e-02
1.769000000000000000e+03 6.969650268554687500e+01 3.484003067016601562e+01 -7.606945037841796875e-01 3.969512462615966797e+00 9.626454114913940430e-01 -2.515456080436706543e-01
1.770000000000000000e+03 4.180665969848632812e+01 2.094118356704711914e+00 5.782403349876403809e-01 6.535707473754882812e+00 2.134184360504150391e+00 -1.727800369262695312e+00
1.771000000000000000e+03 7.092323303222656250e+01 -4.693090438842773438e+00 3.258333206176757812e-01 8.248148918151855469e+00 2.572194576263427734e+00 8.593989014625549316e-01
1.772000000000000000e+03 3.810746765136718750e+01 -1.625746154785156250e+01 6.574090719223022461e-01 4.030840396881103516e+00 1.406474709510803223e+00 -3.592170476913452148e+00
1.773000000000000000e+03 7.306000518798828125e+01 -1.021692180633544922e+01 8.494465611875057220e-03 6.514871120452880859e+00 1.957009673118591309e+00 -2.907653748989105225e-01
1.774000000000000000e+03 7.154530334472656250e+01 -3.327278137207031250e+00 4.137419462203979492e-01 8.988872528076171875e+00 2.820784330368041992e+00 6.660680770874023438e-01
1.775000000000000000e+03 7.221262359619140625e+01 -1.889376640319824219e+00 5.352047681808471680e-01 9.305203437805175781e+00 2.952122449874877930e+00 3.894318342208862305e-01
1.776000000000000000e+03 4.663533687591552734e+00 -1.767190742492675781e+01 1.156089425086975098e+00 1.898000597953796387e+00 9.162269830703735352e-01 4.511269927024841309e-01
1.777000000000000000e+03 7.291638946533203125e+01 -5.874150753021240234e+00 9.479566663503646851e-02 7.614446163177490234e+00 2.312772512435913086e+00 -9.680677950382232666e-02
1.778000000000000000e+03 6.760781860351562500e+01 -1.111591911315917969e+01 7.755363583564758301e-01 4.342405796051025391e+00 1.535382628440856934e+00 1.128745436668395996e+00
1.779000000000000000e+03 7.115255737304687500e+01 -1.138391590118408203e+01 1.283121556043624878e-01 5.758052349090576172e+00 1.765909433364868164e+00 3.383212909102439880e-02
1.780000000000000000e+03 3.648819732666015625e+01 2.180332374572753906e+01 6.363274455070495605e-01 6.165183067321777344e+00 2.040453195571899414e+00 -1.772241890430450439e-01
1.781000000000000000e+03 2.824914932250976562e+01 -1.394745254516601562e+01 -2.771362543106079102e+00 6.377522349357604980e-01 -6.400831341743469238e-01 -2.300047725439071655e-01
1.782000000000000000e+03 4.495568466186523438e+01 -2.277894592285156250e+01 3.062756061553955078e+00 1.002056980133056641e+01 3.924997568130493164e+00 -2.611366987228393555e+00
1.783000000000000000e+03 4.421345138549804688e+01 -2.010427474975585938e+01 2.842570304870605469e+00 1.034136199951171875e+01 3.955179691314697266e+00 -1.862897515296936035e+00
1.784000000000000000e+03 3.828437805175781250e+01 1.253153991699218750e+01 1.671438694000244141e+00 8.130613327026367188e+00 2.940615653991699219e+00 -3.979827165603637695e-01
1.785000000000000000e+03 4.830353164672851562e+01 -1.285555362701416016e+01 -1.092524290084838867e+00 5.416882991790771484e+00 1.297307610511779785e+00 -2.672326862812042236e-01
1.786000000000000000e+03 6.179077625274658203e+00 -2.563416862487792969e+01 -2.449407130479812622e-01 5.263102054595947266e+00 1.505448460578918457e+00 3.167598247528076172e+00
1.787000000000000000e+03 7.134347534179687500e+01 -6.559756278991699219e+00 1.773749291896820068e-01 7.375671863555908203e+00 2.265913963317871094e+00 4.471323490142822266e-01
1.788000000000000000e+03 6.666569519042968750e+01 -3.740769958496093750e+01 2.905526757240295410e-01 1.137369394302368164e+00 4.283766150474548340e-01 5.229238867759704590e-01
1.789000000000000000e+03 6.933802032470703125e+01 -1.035535144805908203e+01 4.105919301509857178e-01 5.403673171997070312e+00 1.744279623031616211e+00 7.045115828514099121e-01
1.790000000000000000e+03 3.900255966186523438e+01 2.056894111633300781e+01 7.924510836601257324e-01 7.232768535614013672e+00 2.407565832138061523e+00 3.484326899051666260e-01
1.791000000000000000e+03 3.824573135375976562e+01 1.744935226440429688e+01 1.067847609519958496e+00 7.691575527191162109e+00 2.627826929092407227e+00 1.124594137072563171e-01
1.792000000000000000e+03 5.825125885009765625e+01 -2.269778823852539062e+01 1.240477561950683594e+00 1.329251527786254883e+00 7.709187269210815430e-01 1.292550802230834961e+00
1.793000000000000000e+03 5.547106933593750000e+01 -2.320460700988769531e+01 1.362572312355041504e+00 2.473129510879516602e+00 1.150710582733154297e+00 2.828489243984222412e-01
1.794000000000000000e+03 7.337100982666015625e+01 -2.987627220153808594e+01 5.464019179344177246e-01 8.488836288452148438e+00 2.710571289062500000e+00 -1.604312807321548462e-01
1.795000000000000000e+03 5.124271392822265625e+01 -1.760193443298339844e+01 -8.820855617523193359e-01 3.575711965560913086e+00 8.080879449844360352e-01 -7.092510461807250977e-01
1.796000000000000000e+03 5.276807785034179688e+01 -1.875189208984375000e+01 -3.281268179416656494e-01 2.118745326995849609e+00 5.371856093406677246e-01 -7.763527631759643555e-01
1.797000000000000000e+03 7.510230255126953125e+01 4.054663848876953125e+01 2.924855425953865051e-02 8.360456466674804688e+00 2.516911506652832031e+00 2.427180111408233643e-01
1.798000000000000000e+03 4.401033020019531250e+01 -1.200969123840332031e+01 -1.215265274047851562e+00 6.722783565521240234e+00 1.652255415916442871e+00 -1.453126072883605957e+00
1.799000000000000000e+03 5.815307617187500000e+00 -2.281116104125976562e+01 1.358242154121398926e+00 5.321474075317382812e+00 2.003914833068847656e+00 2.782893419265747070e+00
1.800000000000000000e+03 6.037719249725341797e+00 -2.121264457702636719e+01 2.234652757644653320e+00 5.822282314300537109e+00 2.417080402374267578e+00 2.359212160110473633e+00
1.801000000000000000e+03 5.939615249633789062e+01 -2.192565536499023438e+01 6.948243975639343262e-01 1.300425887107849121e+00 5.985751152038574219e-01 1.555088043212890625e+00
1.802000000000000000e+03 5.764267730712890625e+01 -2.167574691772460938e+01 8.091274499893188477e-01 1.265265345573425293e+00 6.223178505897521973e-01 1.324004888534545898e+00
1.803000000000000000e+03 6.214771652221679688e+01 -1.665944862365722656e+01 -1.419628113508224487e-01 1.530097007751464844e+00 4.164402782917022705e-01 1.391246795654296875e+00
1.804000000000000000e+03 7.313195800781250000e+01 2.702098274230957031e+01 1.096054464578628540e-01 7.564561843872070312e+00 2.302250146865844727e+00 6.776319742202758789e-01
1.805000000000000000e+03 7.261738586425781250e+01 2.851829338073730469e+01 -1.437007337808609009e-01 7.080334186553955078e+00 2.080990076065063477e+00 6.338051557540893555e-01
1.806000000000000000e+03 1.195101928710937500e+01 -3.958620452880859375e+01 -3.506408333778381348e-01 5.239896178245544434e-01 5.200464278459548950e-02 1.124553084373474121e-01
1.807000000000000000e+03 1.553781795501708984e+01 -3.610913467407226562e+01 -1.070015907287597656e+00 -5.201762914657592773e-01 -4.770576655864715576e-01 5.178167819976806641e-01
1.808000000000000000e+03 1.373873901367187500e+01 -3.703833770751953125e+01 -7.542942166328430176e-01 -1.162019968032836914e-01 -2.611488699913024902e-01 3.448736965656280518e-01
1.809000000000000000e+03 1.412640380859375000e+01 -3.325627517700195312e+01 -1.966933488845825195e+00 -5.507917404174804688e-01 -7.553175687789916992e-01 7.305331230163574219e-01
1.810000000000000000e+03 3.595554351806640625e+01 1.801919746398925781e+01 1.091664195060729980e+00 6.489079475402832031e+00 2.274223089218139648e+00 -2.466206401586532593e-01
1.811000000000000000e+03 6.788539886474609375e+01 -1.292047691345214844e+01 6.525194048881530762e-01 3.898060321807861328e+00 1.365173935890197754e+00 6.533725261688232422e-01
1.812000000000000000e+03 4.617434310913085938e+01 -2.288252449035644531e+01 2.856674671173095703e+00 8.110890388488769531e+00 3.290269374847412109e+00 -2.505094766616821289e+00
1.813000000000000000e+03 4.489424514770507812e+01 -2.397631645202636719e+01 2.811766386032104492e+00 9.880223274230957031e+00 3.807596921920776367e+00 -2.788689374923706055e+00
1.814000000000000000e+03 7.427480316162109375e+01 -2.753581047058105469e+01 1.285335421562194824e+00 8.528891563415527344e+00 2.944267988204956055e+00 1.999924331903457642e-02
1.815000000000000000e+03 7.381166076660156250e+01 -2.864804077148437500e+01 1.107797384262084961e+00 8.598235130310058594e+00 2.911809682846069336e+00 -2.657780647277832031e-01
1.816000000000000000e+03 6.393320465087890625e+01 -1.666892623901367188e+01 1.373654007911682129e-01 1.713864445686340332e+00 5.553689599037170410e-01 1.273790717124938965e+00
1.817000000000000000e+03 7.225195312500000000e+01 -3.264712905883789062e+01 -5.642672181129455566e-01 6.769744873046875000e+00 1.861643314361572266e+00 3.839108645915985107e-01
1.818000000000000000e+03 8.089974403381347656e+00 -6.484063625335693359e+00 -2.872226238250732422e-01 1.059099197387695312e+00 2.315629869699478149e-01 -2.282032370567321777e-01
1.819000000000000000e+03 1.308615875244140625e+01 -1.242574977874755859e+01 1.382200479507446289e+00 4.248505115509033203e+00 1.689211606979370117e+00 3.767830610275268555e+00
1.820000000000000000e+03 5.135990142822265625e+00 -2.039135360717773438e+01 1.686276793479919434e+00 3.281110525131225586e+00 1.490216135978698730e+00 1.701865315437316895e+00
1.821000000000000000e+03 5.395175552368164062e+01 -2.275155448913574219e+01 1.306174278259277344e+00 2.894124746322631836e+00 1.260089755058288574e+00 -4.155346751213073730e-01
1.822000000000000000e+03 5.300265884399414062e+01 3.621654510498046875e+01 -5.160614252090454102e-01 8.284286260604858398e-01 9.371016174554824829e-02 2.376126497983932495e-01
1.823000000000000000e+03 5.956006240844726562e+01 -1.884375572204589844e+01 -5.791085958480834961e-01 1.039045810699462891e+00 1.379811465740203857e-01 1.835490942001342773e+00
1.824000000000000000e+03 7.287886810302734375e+01 -3.505906295776367188e+01 -6.854382157325744629e-01 6.155014514923095703e+00 1.640872836112976074e+00 2.787253856658935547e-01
1.825000000000000000e+03 2.846197509765625000e+01 -1.288878536224365234e+01 -1.975961208343505859e+00 8.631805777549743652e-01 -3.338342010974884033e-01 -8.401728868484497070e-01
1.826000000000000000e+03 7.125399780273437500e+01 2.980208778381347656e+01 -3.845361173152923584e-01 6.103356361389160156e+00 1.715646028518676758e+00 3.881655931472778320e-01
1.827000000000000000e+03 7.426117706298828125e+01 2.791423797607421875e+01 -5.117483809590339661e-02 7.937623500823974609e+00 2.365934610366821289e+00 8.108652830123901367e-01
1.828000000000000000e+03 6.747829437255859375e+01 3.890845108032226562e+01 6.398063898086547852e-02 1.986154317855834961e+00 6.150404810905456543e-01 -1.965893656015396118e-01
1.829000000000000000e+03 1.174007892608642578e+01 -3.349832534790039062e+01 -1.624187707901000977e+00 3.097797632217407227e-01 -3.943223953247070312e-01 3.165026903152465820e-01
1.830000000000000000e+03 1.275073242187500000e+01 -3.519259262084960938e+01 -1.121818304061889648e+00 8.268406242132186890e-02 -3.117402791976928711e-01 3.354412913322448730e-01
1.831000000000000000e+03 6.664148807525634766e+00 -2.859483909606933594e+01 -1.814085125923156738e+00 4.265888690948486328e+00 7.355410456657409668e-01 2.001593112945556641e+00
1.832000000000000000e+03 4.815552520751953125e+01 -1.566907978057861328e+01 -9.369843602180480957e-01 6.032654762268066406e+00 1.528701066970825195e+00 -4.272800981998443604e-01
1.833000000000000000e+03 4.992225265502929688e+01 -1.776218986511230469e+01 -4.538071155548095703e-01 4.806627273559570312e+00 1.305846095085144043e+00 -7.523263096809387207e-01
1.834000000000000000e+03 3.864059829711914062e+01 1.104988002777099609e+01 1.793259263038635254e+00 8.272759437561035156e+00 3.019805669784545898e+00 -4.659110605716705322e-01
1.835000000000000000e+03 6.451313495635986328e+00 -2.446220779418945312e+01 7.950090765953063965e-01 5.572016239166259766e+00 1.910107612609863281e+00 3.004314184188842773e+00
1.836000000000000000e+03 7.831544399261474609e+00 -3.145875740051269531e+01 -1.892770051956176758e+00 2.932160615921020508e+00 3.118171989917755127e-01 8.391069769859313965e-01
1.837000000000000000e+03 1.099922370910644531e+01 -3.576996231079101562e+01 -9.241800904273986816e-01 7.722184658050537109e-01 -4.558848962187767029e-02 1.802985668182373047e-01
1.838000000000000000e+03 6.424114227294921875e+01 -1.996898651123046875e+01 -7.353829741477966309e-01 1.169545173645019531e+00 1.302486807107925415e-01 1.388580799102783203e+00
1.839000000000000000e+03 6.384198379516601562e+01 -1.765053558349609375e+01 -1.440150737762451172e-01 1.593249440193176270e+00 4.347703158855438232e-01 1.476214528083801270e+00
1.840000000000000000e+03 4.051362609863281250e+01 -1.491000080108642578e+01 -7.525033950805664062e-01 7.122629165649414062e+00 1.911037683486938477e+00 -3.039379596710205078e+00
1.841000000000000000e+03 4.154105377197265625e+01 -1.748409652709960938e+01 2.060118317604064941e-01 8.749910354614257812e+00 2.686776876449584961e+00 -2.667171001434326172e+00
1.842000000000000000e+03 5.223200607299804688e+01 4.117574310302734375e+01 -5.084550976753234863e-01 1.126977086067199707e+00 1.855566054582595825e-01 1.132961586117744446e-01
1.843000000000000000e+03 4.747667694091796875e+01 -2.200041389465332031e+01 2.310595512390136719e+00 6.777757644653320312e+00 2.726505994796752930e+00 -2.064046144485473633e+00
1.844000000000000000e+03 5.311948776245117188e+01 -2.716562843322753906e+01 1.689073562622070312e+00 5.645716190338134766e+00 2.200436830520629883e+00 -1.451369404792785645e+00
1.845000000000000000e+03 4.882502746582031250e+01 -1.411334800720214844e+01 -1.219422698020935059e+00 5.356950759887695312e+00 1.241258382797241211e+00 -1.815893799066543579e-01
1.846000000000000000e+03 3.979211044311523438e+01 -3.598915100097656250e+01 -1.664552330970764160e+00 2.723028659820556641e+00 3.175429403781890869e-01 9.889788031578063965e-01
1.847000000000000000e+03 7.489246368408203125e+01 3.339844894409179688e+01 -3.720692694187164307e-01 8.132905006408691406e+00 2.328250885009765625e+00 3.854480385780334473e-01
1.848000000000000000e+03 6.266422271728515625e+01 3.950754928588867188e+01 1.131843328475952148e-01 -1.769701391458511353e-01 -1.913574151694774628e-02 1.870761215686798096e-01
1.849000000000000000e+03 6.006417465209960938e+01 -3.832912063598632812e+01 2.687784433364868164e-01 1.867937684059143066e+00 6.410148739814758301e-01 -1.062474489212036133e+00
1.850000000000000000e+03 4.367075729370117188e+01 3.113292121887207031e+01 -4.019823670387268066e-01 4.588671207427978516e+00 1.256006598472595215e+00 6.544125676155090332e-01
1.851000000000000000e+03 4.695222473144531250e+01 -1.962268638610839844e+01 1.355329275131225586e+00 7.077376365661621094e+00 2.529811620712280273e+00 -1.246506929397583008e+00
1.852000000000000000e+03 7.286885070800781250e+01 -3.122005271911621094e+01 -7.799867540597915649e-02 7.741999626159667969e+00 2.299200296401977539e+00 1.704384759068489075e-02
1.853000000000000000e+03 6.168861007690429688e+01 -2.117481994628906250e+01 3.569650277495384216e-02 1.175372481346130371e+00 3.633207082748413086e-01 1.613465428352355957e+00
1.854000000000000000e+03 4.123179244995117188e+01 -3.501149749755859375e+01 -2.139391422271728516e+00 3.888238906860351562e+00 5.246542096138000488e-01 7.529497742652893066e-01
1.855000000000000000e+03 2.088947677612304688e+01 -3.825947999954223633e+00 -4.573138654232025146e-01 6.550233364105224609e+00 1.827875971794128418e+00 1.795478343963623047e+00
1.856000000000000000e+03 1.985728263854980469e+01 -3.537295103073120117e+00 -9.736151099205017090e-01 4.218890666961669922e+00 9.735826849937438965e-01 9.028433263301849365e-02
1.857000000000000000e+03 2.020951080322265625e+01 -3.910880088806152344e+00 -8.868307471275329590e-01 5.643020153045654297e+00 1.426856756210327148e+00 5.928674936294555664e-01
1.858000000000000000e+03 1.957540702819824219e+01 -3.486666917800903320e+00 -9.677693247795104980e-01 3.360620498657226562e+00 7.178553342819213867e-01 -1.152866259217262268e-01
1.859000000000000000e+03 1.717906951904296875e+01 -7.377281665802001953e+00 6.789670944213867188e+00 -1.339916706085205078e+00 1.634926319122314453e+00 3.108193635940551758e+00
1.860000000000000000e+03 1.747308158874511719e+01 -6.897630214691162109e+00 6.903258323669433594e+00 -1.471253871917724609e+00 1.629601359367370605e+00 1.975965261459350586e+00
1.861000000000000000e+03 2.150053024291992188e+01 -4.691756725311279297e+00 1.844312906265258789e+00 7.587099075317382812e+00 2.829423666000366211e+00 4.292396068572998047e+00
1.862000000000000000e+03 1.803750610351562500e+01 -1.062943458557128906e+01 1.118816256523132324e+00 1.165568709373474121e+00 6.853154897689819336e-01 6.032170295715332031e+00
1.863000000000000000e+03 2.198243331909179688e+01 -6.150526523590087891e+00 8.706644058227539062e+00 4.823769092559814453e+00 4.059123992919921875e+00 4.936920166015625000e+00
1.864000000000000000e+03 2.189321899414062500e+01 -4.976015567779541016e+00 3.277500629425048828e+00 6.700099945068359375e+00 2.993280172348022461e+00 4.875507354736328125e+00
1.865000000000000000e+03 2.240248680114746094e+01 -6.413428783416748047e+00 8.600886344909667969e+00 3.493795633316040039e+00 3.628404617309570312e+00 3.681338548660278320e+00
1.866000000000000000e+03 2.188830184936523438e+01 -5.600195884704589844e+00 6.059349536895751953e+00 6.125745773315429688e+00 3.655528545379638672e+00 5.564993381500244141e+00
1.867000000000000000e+03 2.161765480041503906e+01 -5.214550018310546875e+00 3.924548387527465820e+00 7.426576137542724609e+00 3.405337333679199219e+00 5.385776996612548828e+00
1.868000000000000000e+03 2.239272308349609375e+01 -7.023599147796630859e+00 9.153892517089843750e+00 3.032447338104248047e+00 3.655902147293090820e+00 2.112381935119628906e+00
1.869000000000000000e+03 1.903836822509765625e+01 -8.845898628234863281e+00 5.428740024566650391e+00 3.948469877243041992e+00 2.813163042068481445e+00 6.180794239044189453e+00
1.870000000000000000e+03 1.733714485168457031e+01 -1.103863620758056641e+01 7.077270150184631348e-01 1.079875588417053223e+00 5.362807512283325195e-01 5.939927577972412109e+00
1.871000000000000000e+03 1.943932151794433594e+01 -1.046114349365234375e+01 3.353565335273742676e-01 2.202908754348754883e+00 7.614795565605163574e-01 4.467503547668457031e+00
1.872000000000000000e+03 1.972010993957519531e+01 -8.989002227783203125e+00 4.005649089813232422e+00 5.911675930023193359e+00 2.975197553634643555e+00 4.830952167510986328e+00
1.873000000000000000e+03 2.069282722473144531e+01 -8.621775627136230469e+00 5.228468894958496094e+00 7.314988136291503906e+00 3.763037204742431641e+00 1.695028305053710938e+00
1.874000000000000000e+03 2.117767143249511719e+01 -8.361446380615234375e+00 6.394701957702636719e+00 6.477925777435302734e+00 3.861788272857666016e+00 3.435130417346954346e-01
1.875000000000000000e+03 2.199144744873046875e+01 -1.169341087341308594e+01 -3.283344745635986328e+00 6.636958122253417969e-01 -7.858946919441223145e-01 7.744515687227249146e-02
1.876000000000000000e+03 2.185684967041015625e+01 -1.084248256683349609e+01 -8.359329700469970703e-01 1.500141620635986328e+00 1.992625892162322998e-01 2.018487453460693359e-01
1.877000000000000000e+03 2.141722106933593750e+01 -8.736660957336425781e+00 5.186088085174560547e+00 5.261716365814208984e+00 3.134341478347778320e+00 1.936687380075454712e-01
1.878000000000000000e+03 2.096183204650878906e+01 -1.159808540344238281e+01 -2.998335361480712891e+00 6.526609659194946289e-01 -7.037023305892944336e-01 1.538520693778991699e+00
1.879000000000000000e+03 1.994702339172363281e+01 -1.135822868347167969e+01 -2.262804031372070312e+00 1.215879082679748535e+00 -3.140774965286254883e-01 3.250825643539428711e+00
1.880000000000000000e+03 1.922378349304199219e+01 -2.838809251785278320e+00 -9.100516438484191895e-01 2.438366889953613281e+00 4.584945440292358398e-01 -1.205935180187225342e-01
1.881000000000000000e+03 1.696670150756835938e+01 -6.434191226959228516e+00 4.452540874481201172e+00 -1.237082242965698242e+00 9.646375775337219238e-01 1.032218694686889648e+00
1.882000000000000000e+03 1.549333000183105469e+01 -6.617199420928955078e+00 3.049558401107788086e+00 -7.780204415321350098e-01 6.814613938331604004e-01 1.697077393531799316e+00
1.883000000000000000e+03 1.576491641998291016e+01 -7.031009197235107422e+00 3.700144767761230469e+00 -8.863653540611267090e-01 8.441338539123535156e-01 2.119117736816406250e+00
1.884000000000000000e+03 1.485126304626464844e+01 -6.529495239257812500e+00 2.253957986831665039e+00 -4.203833341598510742e-01 5.500724315643310547e-01 1.556846022605895996e+00
1.885000000000000000e+03 1.351395893096923828e+01 -5.891497611999511719e+00 9.190065860748291016e-01 1.589590013027191162e-01 3.233896791934967041e-01 1.066388010978698730e+00
1.886000000000000000e+03 1.436047744750976562e+01 -6.294757843017578125e+00 1.749346494674682617e+00 -2.645662128925323486e-01 4.454340934753417969e-01 1.307170867919921875e+00
1.887000000000000000e+03 1.275492668151855469e+01 -5.208859920501708984e+00 1.800133883953094482e-01 2.844850420951843262e-01 1.393495202064514160e-01 6.661502718925476074e-01
1.888000000000000000e+03 1.291613101959228516e+01 -5.926098346710205078e+00 6.453133225440979004e-01 3.297753632068634033e-01 2.925266027450561523e-01 9.350711107254028320e-01
1.889000000000000000e+03 1.856888771057128906e+01 -7.902972102165222168e-01 -6.671721935272216797e-01 1.588232755661010742e+00 2.763181924819946289e-01 -9.113951772451400757e-02
1.890000000000000000e+03 1.211105823516845703e+01 -5.491125583648681641e+00 1.611674875020980835e-01 5.066718459129333496e-01 2.003518044948577881e-01 6.427940726280212402e-01
1.891000000000000000e+03 1.056628608703613281e+01 -4.498088836669921875e+00 -4.814684987068176270e-01 5.912705063819885254e-01 3.294061124324798584e-02 1.820326447486877441e-01
1.892000000000000000e+03 1.501697254180908203e+01 -7.054836750030517578e+00 2.843135118484497070e+00 -4.324111044406890869e-01 7.232171893119812012e-01 2.127791881561279297e+00
1.893000000000000000e+03 1.760440254211425781e+01 2.671734690666198730e-01 -5.292987823486328125e-01 8.782325387001037598e-01 1.046801209449768066e-01 -3.496086597442626953e-02
1.894000000000000000e+03 1.792619323730468750e+01 8.708640933036804199e-01 -4.304175972938537598e-01 1.153978347778320312e+00 2.170682251453399658e-01 -7.614691555500030518e-02
1.895000000000000000e+03 8.591753005981445312e+00 -4.324303627014160156e+00 -5.937334299087524414e-01 6.082687973976135254e-01 4.360605962574481964e-03 -1.861049234867095947e-01
1.896000000000000000e+03 9.914212226867675781e+00 -5.139551162719726562e+00 -3.617912232875823975e-01 7.699344158172607422e-01 1.224429532885551453e-01 1.136688143014907837e-01
1.897000000000000000e+03 1.227454662322998047e+01 -4.963088512420654297e+00 -4.781780391931533813e-02 3.748238682746887207e-01 9.810181707143783569e-02 5.613439679145812988e-01
1.898000000000000000e+03 1.315866756439208984e+01 -6.291011333465576172e+00 9.387394785881042480e-01 3.484060466289520264e-01 3.861436545848846436e-01 1.184310436248779297e+00
1.899000000000000000e+03 1.254717636108398438e+01 -5.689967155456542969e+00 4.182168245315551758e-01 4.104568362236022949e-01 2.486020922660827637e-01 8.072348833084106445e-01
1.900000000000000000e+03 5.784741878509521484e+00 4.895197391510009766e+00 -1.264995634555816650e-01 -2.719978690147399902e-01 -1.195492297410964966e-01 4.738205373287200928e-01
1.901000000000000000e+03 4.517414093017578125e+00 4.177642822265625000e+00 -1.423922032117843628e-01 -2.240253984928131104e-01 -1.099252775311470032e-01 3.747087121009826660e-01
1.902000000000000000e+03 7.998643875122070312e+00 5.938609123229980469e+00 2.876764629036188126e-03 -3.244996964931488037e-01 -9.648688137531280518e-02 5.351572036743164062e-01
1.903000000000000000e+03 6.428411960601806641e+00 4.931595325469970703e+00 -1.309400051832199097e-01 -2.853201925754547119e-01 -1.248780563473701477e-01 5.144276022911071777e-01
1.904000000000000000e+03 8.225512504577636719e+00 5.261744022369384766e+00 -6.582336127758026123e-02 -3.225803077220916748e-01 -1.165210977196693420e-01 5.577691197395324707e-01
1.905000000000000000e+03 7.239538192749023438e+00 4.235288143157958984e+00 -2.252555489540100098e-01 -2.718609869480133057e-01 -1.491349637508392334e-01 5.475866198539733887e-01
1.906000000000000000e+03 8.626652717590332031e+00 -5.084875583648681641e+00 -4.554148912429809570e-01 7.661622166633605957e-01 9.322419762611389160e-02 -1.730939000844955444e-01
1.907000000000000000e+03 2.418561553955078125e+01 -1.185895538330078125e+01 -2.695887565612792969e+00 4.891184866428375244e-01 -6.620306968688964844e-01 -9.438036680221557617e-01
1.908000000000000000e+03 5.783473491668701172e+00 -5.415861606597900391e+00 -3.596208989620208740e-01 3.270554542541503906e-01 -9.769634343683719635e-03 -6.972156763076782227e-01
1.909000000000000000e+03 7.236943721771240234e+00 -5.178608894348144531e+00 -4.460399746894836426e-01 6.169435381889343262e-01 5.127106979489326477e-02 -4.746813178062438965e-01
1.910000000000000000e+03 7.149442672729492188e+00 -4.356491088867187500e+00 -5.361664295196533203e-01 4.646646678447723389e-01 -2.145053260028362274e-02 -4.464789927005767822e-01
1.911000000000000000e+03 5.657036304473876953e+00 -4.497558116912841797e+00 -4.134338796138763428e-01 2.177493572235107422e-01 -5.870535597205162048e-02 -6.328023076057434082e-01
1.912000000000000000e+03 5.022588253021240234e+00 -5.529468536376953125e+00 -2.994568943977355957e-01 1.444171667098999023e-01 -4.651191458106040955e-02 -7.498450875282287598e-01
1.913000000000000000e+03 1.679994773864746094e+01 3.146601438522338867e+00 -6.660789251327514648e-02 7.357326149940490723e-01 2.007374167442321777e-01 -4.978087171912193298e-02
1.914000000000000000e+03 2.214677047729492188e+01 -7.923171520233154297e+00 7.993863582611083984e+00 3.601028203964233398e+00 3.478467702865600586e+00 1.639229357242584229e-01
1.915000000000000000e+03 1.352991771697998047e+01 3.056727886199951172e+00 -2.407791614532470703e-01 -2.278336435556411743e-01 -1.405838429927825928e-01 3.329458236694335938e-01
1.916000000000000000e+03 1.857780647277832031e+01 6.919587850570678711e-01 -4.464693963527679443e-01 1.591647028923034668e+00 3.435532748699188232e-01 -1.061809211969375610e-01
1.917000000000000000e+03 7.726222991943359375e+00 -1.011149787902832031e+01 1.055156067013740540e-01 2.310430288314819336e+00 7.247837781906127930e-01 -1.127715930342674255e-01
1.918000000000000000e+03 9.272313117980957031e+00 -4.355029106140136719e+00 -5.764777064323425293e-01 6.270956993103027344e-01 1.518540456891059875e-02 -6.266736984252929688e-02
1.919000000000000000e+03 1.492950153350830078e+01 -1.051366710662841797e+01 1.487898111343383789e+00 1.685268878936767578e+00 9.519500732421875000e-01 4.975968837738037109e+00
1.920000000000000000e+03 1.671615600585937500e+01 -9.662987709045410156e+00 3.322586059570312500e+00 5.273859500885009766e-01 1.154991626739501953e+00 5.923601627349853516e+00
1.921000000000000000e+03 1.673131942749023438e+01 -7.146872043609619141e+00 5.567792892456054688e+00 -1.310052871704101562e+00 1.277322053909301758e+00 2.482984066009521484e+00
1.922000000000000000e+03 1.334394264221191406e+01 4.206243038177490234e+00 -1.522411871701478958e-02 -1.282780617475509644e-01 -4.305065423250198364e-02 2.906396985054016113e-01
1.923000000000000000e+03 1.732573890686035156e+01 1.284690976142883301e+00 -3.822680711746215820e-01 7.948637008666992188e-01 1.237786933779716492e-01 -4.955560341477394104e-02
1.924000000000000000e+03 1.393085098266601562e+01 3.729653835296630859e+00 -6.962445378303527832e-02 -7.917287945747375488e-02 -4.463919997215270996e-02 2.520387470722198486e-01
1.925000000000000000e+03 9.764682769775390625e+00 5.172520637512207031e+00 -1.971738226711750031e-02 -3.322971761226654053e-01 -1.056043654680252075e-01 5.311502218246459961e-01
1.926000000000000000e+03 2.553971862792968750e+01 -1.176004409790039062e+01 -1.804350137710571289e+00 6.061791777610778809e-01 -3.594512641429901123e-01 -1.162780046463012695e+00
1.927000000000000000e+03 1.521581268310546875e+01 2.884408473968505859e+00 -1.764198094606399536e-01 1.353819817304611206e-01 -1.231135055422782898e-02 1.400835514068603516e-01
1.928000000000000000e+03 3.331066894531250000e+01 -1.286800098419189453e+01 -5.065015554428100586e-01 1.837721705436706543e+00 3.993660509586334229e-01 -1.763730287551879883e+00
1.929000000000000000e+03 3.427439880371093750e+01 -1.340448093414306641e+01 -4.759311079978942871e-01 1.992531895637512207e+00 4.549802541732788086e-01 -1.943700075149536133e+00
1.930000000000000000e+03 3.171341323852539062e+01 -1.168396854400634766e+01 -3.345391750335693359e-01 1.602703213691711426e+00 3.804492354393005371e-01 -1.562589526176452637e+00
1.931000000000000000e+03 1.232199478149414062e+01 4.049366474151611328e+00 -9.746385365724563599e-02 -2.851570844650268555e-01 -1.147862747311592102e-01 4.047669768333435059e-01
1.932000000000000000e+03 4.512085723876953125e+01 -2.160044860839843750e+01 3.135356426239013672e+00 9.203707695007324219e+00 3.701719284057617188e+00 -2.383104324340820312e+00
1.933000000000000000e+03 3.953019332885742188e+01 -1.412456321716308594e+01 -5.963885188102722168e-01 5.737700462341308594e+00 1.542393565177917480e+00 -3.048084259033203125e+00
1.934000000000000000e+03 3.973252487182617188e+01 -1.599746036529541016e+01 1.252390295267105103e-01 6.133674144744873047e+00 1.877673983573913574e+00 -3.421036958694458008e+00
1.935000000000000000e+03 5.192732334136962891e+00 -2.516271209716796875e+01 1.733552813529968262e-01 4.080050468444824219e+00 1.276021718978881836e+00 3.078521251678466797e+00
1.936000000000000000e+03 7.459147644042968750e+01 5.099028110504150391e+00 4.126549065113067627e-01 8.540315628051757812e+00 2.685891151428222656e+00 6.033010482788085938e-01
1.937000000000000000e+03 7.344149780273437500e+01 6.230730533599853516e+00 4.050965905189514160e-01 9.541977882385253906e+00 2.984122276306152344e+00 6.576559543609619141e-01
1.938000000000000000e+03 8.794063568115234375e+00 5.509233474731445312e+00 -1.519434060901403427e-02 -3.286173641681671143e-01 -1.031435132026672363e-01 5.400619506835937500e-01
1.939000000000000000e+03 4.382257843017578125e+01 -1.505872368812561035e+00 2.956950664520263672e-01 5.692739963531494141e+00 1.796530604362487793e+00 -1.928797841072082520e+00
1.940000000000000000e+03 4.219359207153320312e+01 -3.624741792678833008e+00 2.237012609839439392e-02 5.586179733276367188e+00 1.682564973831176758e+00 -1.752724289894104004e+00
1.941000000000000000e+03 2.859333229064941406e+01 -1.193654537200927734e+01 -1.064312696456909180e+00 9.034816622734069824e-01 -4.824933409690856934e-02 -1.217157244682312012e+00
1.942000000000000000e+03 2.768465232849121094e+01 -1.165171623229980469e+01 -9.794880747795104980e-01 8.131990432739257812e-01 -4.988671466708183289e-02 -1.251312136650085449e+00
1.943000000000000000e+03 5.334984588623046875e+01 -1.979073333740234375e+01 3.286844491958618164e-01 2.084144115447998047e+00 7.238485813140869141e-01 -5.733810067176818848e-01
1.944000000000000000e+03 5.491775512695312500e+01 -2.221547889709472656e+01 1.172690629959106445e+00 2.352150678634643555e+00 1.057452440261840820e+00 -1.015780940651893616e-01
1.945000000000000000e+03 2.579523801803588867e+00 6.406179904937744141e+00 -1.195242814719676971e-02 -3.979364931583404541e-01 -1.229666769504547119e-01 2.805459797382354736e-01
1.946000000000000000e+03 3.243843460083007812e+01 -1.230936622619628906e+01 -4.473376870155334473e-01 1.671308636665344238e+00 3.671912848949432373e-01 -1.646910786628723145e+00
1.947000000000000000e+03 4.372999191284179688e+01 -4.443857192993164062e+00 -5.971351265907287598e-02 5.548334598541259766e+00 1.646586298942565918e+00 -1.778954267501831055e+00
1.948000000000000000e+03 1.332030582427978516e+01 -1.114733505249023438e+01 1.116499423980712891e+00 3.197923898696899414e+00 1.294326901435852051e+00 3.767424106597900391e+00
1.949000000000000000e+03 3.694799423217773438e+01 1.215915489196777344e+01 1.725044965744018555e+00 7.207150459289550781e+00 2.679658651351928711e+00 -2.986996471881866455e-01
1.950000000000000000e+03 3.650065231323242188e+01 1.354477882385253906e+01 1.617420434951782227e+00 6.948266983032226562e+00 2.569706201553344727e+00 -3.161273002624511719e-01
1.951000000000000000e+03 4.093142700195312500e+01 3.402832031250000000e+00 7.154647707939147949e-01 7.021654129028320312e+00 2.321135759353637695e+00 -1.434064626693725586e+00
1.952000000000000000e+03 4.077787780761718750e+01 1.358695745468139648e+00 5.009251832962036133e-01 6.398902893066406250e+00 2.069948434829711914e+00 -1.453322410583496094e+00
1.953000000000000000e+03 4.466367340087890625e+01 -6.958510875701904297e+00 -3.639479577541351318e-01 5.587769985198974609e+00 1.567146658897399902e+00 -1.559574842453002930e+00
1.954000000000000000e+03 4.582891464233398438e+01 -6.444404602050781250e+00 -1.546856015920639038e-01 5.419715404510498047e+00 1.579508900642395020e+00 -1.521353363990783691e+00
1.955000000000000000e+03 6.532132720947265625e+01 -1.610168647766113281e+01 3.757235109806060791e-01 2.135529279708862305e+00 7.533758282661437988e-01 1.002258896827697754e+00
1.956000000000000000e+03 7.351614379882812500e+01 1.754462814331054688e+01 8.157947659492492676e-02 8.523629188537597656e+00 2.581562519073486328e+00 5.223625302314758301e-01
1.957000000000000000e+03 7.465897369384765625e+01 2.054237937927246094e+01 1.049125194549560547e-01 8.352528572082519531e+00 2.537232398986816406e+00 5.534089803695678711e-01
1.958000000000000000e+03 3.965284585952758789e+00 -3.427754211425781250e+01 -5.535877943038940430e-01 4.085946559906005859e+00 1.059707641601562500e+00 6.189852356910705566e-01
1.959000000000000000e+03 7.846028327941894531e+00 -3.366090774536132812e+01 -1.268462538719177246e+00 2.491048336029052734e+00 3.667757213115692139e-01 5.144348144531250000e-01
1.960000000000000000e+03 6.860100555419921875e+01 -1.161469173431396484e+01 5.575480461120605469e-01 4.627097129821777344e+00 1.555393576622009277e+00 7.250747084617614746e-01
1.961000000000000000e+03 6.718823242187500000e+01 -1.432510280609130859e+01 6.216964125633239746e-01 3.119897365570068359e+00 1.122478127479553223e+00 6.267705559730529785e-01
1.962000000000000000e+03 4.911239147186279297e+00 -1.021276378631591797e+01 -1.231243181973695755e-02 5.543580055236816406e-01 1.626136600971221924e-01 -9.136534929275512695e-01
1.963000000000000000e+03 6.020779418945312500e+01 -2.008030509948730469e+01 -1.624542325735092163e-01 1.264259099960327148e+00 3.305414319038391113e-01 1.828438758850097656e+00
1.964000000000000000e+03 7.560868835449218750e+01 3.083841514587402344e+01 -1.813014447689056396e-01 8.580680847167968750e+00 2.519813776016235352e+00 6.677442193031311035e-01
1.965000000000000000e+03 4.466780853271484375e+01 -1.016456794738769531e+01 -8.994934558868408203e-01 6.125993251800537109e+00 1.567949891090393066e+00 -1.364818811416625977e+00
1.966000000000000000e+03 4.158110809326171875e+01 2.648247182369232178e-01 4.054035246372222900e-01 6.091650485992431641e+00 1.949116230010986328e+00 -1.660551071166992188e+00
1.967000000000000000e+03 7.579220581054687500e+01 2.211939430236816406e+01 1.126415506005287170e-01 8.323372840881347656e+00 2.530804157257080078e+00 5.982254147529602051e-01
1.968000000000000000e+03 7.351392364501953125e+01 2.044198417663574219e+01 1.102299988269805908e-01 8.423903465270996094e+00 2.560240030288696289e+00 5.024381279945373535e-01
1.969000000000000000e+03 4.023965454101562500e+01 4.914111137390136719e+00 9.461982846260070801e-01 7.391272068023681641e+00 2.501241207122802734e+00 -1.106402754783630371e+00
1.970000000000000000e+03 7.605091857910156250e+01 2.750967788696289062e+01 -3.283665701746940613e-02 8.574970245361328125e+00 2.562639951705932617e+00 7.838211059570312500e-01
1.971000000000000000e+03 7.510929107666015625e+01 2.682439422607421875e+01 5.825283378362655640e-02 8.248663902282714844e+00 2.492075204849243164e+00 7.983362078666687012e-01
1.972000000000000000e+03 7.367823791503906250e+01 9.444889068603515625e+00 -1.453257948160171509e-01 9.142410278320312500e+00 2.699125289916992188e+00 7.292459607124328613e-01
1.973000000000000000e+03 9.586340904235839844e+00 -1.459516906738281250e+01 2.314025163650512695e+00 5.984832763671875000e+00 2.489657402038574219e+00 2.018936157226562500e+00
1.974000000000000000e+03 6.200949192047119141e+00 -1.476583003997802734e+01 1.003538846969604492e+00 3.013839960098266602e+00 1.205213665962219238e+00 4.294582456350326538e-02
1.975000000000000000e+03 7.580049133300781250e+01 3.872756242752075195e+00 3.628270030021667480e-01 7.550381660461425781e+00 2.373962640762329102e+00 3.964122533798217773e-01
1.976000000000000000e+03 7.579100036621093750e+01 2.362349510192871094e+01 1.226892322301864624e-01 8.344027519226074219e+00 2.540014982223510742e+00 6.700637340545654297e-01
1.977000000000000000e+03 7.584990692138671875e+01 -1.960836601257324219e+01 -5.746845602989196777e-01 7.512710571289062500e+00 2.081407785415649414e+00 3.071230649948120117e-01
1.978000000000000000e+03 7.466355133056640625e+01 -2.314808082580566406e+01 4.655911028385162354e-02 8.152090072631835938e+00 2.459594726562500000e+00 8.691546916961669922e-01
1.979000000000000000e+03 7.452008819580078125e+01 -2.156228446960449219e+01 -6.167833805084228516e-01 7.920437335968017578e+00 2.191096067428588867e+00 6.318394541740417480e-01
1.980000000000000000e+03 7.423229980468750000e+01 -1.310906314849853516e+01 -1.845583617687225342e-01 6.466344356536865234e+00 1.884535789489746094e+00 -5.500298142433166504e-01
1.981000000000000000e+03 7.553598022460937500e+01 -1.298303508758544922e+01 -1.494731456041336060e-01 6.838222026824951172e+00 2.006624698638916016e+00 -5.233211517333984375e-01
1.982000000000000000e+03 7.585759735107421875e+01 1.226321411132812500e+01 -1.331221014261245728e-01 8.013719558715820312e+00 2.364179134368896484e+00 5.914302468299865723e-01
1.983000000000000000e+03 7.584731292724609375e+01 1.774227142333984375e+01 4.606985300779342651e-02 8.157736778259277344e+00 2.461142063140869141e+00 5.023524761199951172e-01
1.984000000000000000e+03 7.374592590332031250e+01 7.398768901824951172e+00 1.691337376832962036e-01 9.120966911315917969e+00 2.787030220031738281e+00 7.537488341331481934e-01
1.985000000000000000e+03 7.559457397460937500e+01 -5.678434848785400391e+00 2.221048623323440552e-02 7.036482334136962891e+00 2.117607831954956055e+00 -5.307949185371398926e-01
1.986000000000000000e+03 7.368333435058593750e+01 1.034718394279479980e+00 7.235202789306640625e-01 8.977526664733886719e+00 2.910314321517944336e+00 2.314602434635162354e-01
1.987000000000000000e+03 7.566877746582031250e+01 -2.769676446914672852e+00 1.724429726600646973e-01 7.186894893646240234e+00 2.207801342010498047e+00 -4.122725427150726318e-01
1.988000000000000000e+03 7.583261871337890625e+01 1.917070770263671875e+01 5.893700569868087769e-02 8.235038757324218750e+00 2.488192796707153320e+00 5.125067234039306641e-01
1.989000000000000000e+03 7.557212066650390625e+01 -1.010265159606933594e+01 -3.627423569560050964e-02 6.821755409240722656e+00 2.035644531250000000e+00 -5.633793473243713379e-01
1.990000000000000000e+03 7.433705902099609375e+01 -1.016903400421142578e+01 -6.041771918535232544e-02 6.718942165374755859e+00 1.997557401657104492e+00 -5.021939277648925781e-01
1.991000000000000000e+03 7.431208801269531250e+01 -1.161065673828125000e+01 -7.408636063337326050e-02 6.566485404968261719e+00 1.947719693183898926e+00 -4.996617138385772705e-01
1.992000000000000000e+03 7.574279022216796875e+01 -1.711609268188476562e+01 -4.827917814254760742e-01 7.222976207733154297e+00 2.022055149078369141e+00 -1.780430078506469727e-01
1.993000000000000000e+03 7.015785217285156250e+01 -1.897943496704101562e+01 -9.462872743606567383e-01 4.100209236145019531e+00 9.461766481399536133e-01 -1.218014597892761230e+00
1.994000000000000000e+03 7.366396331787109375e+01 -1.990909385681152344e+01 -1.080665111541748047e+00 7.308054447174072266e+00 1.868216753005981445e+00 -1.473838537931442261e-01
1.995000000000000000e+03 7.418433380126953125e+01 8.722426742315292358e-02 6.130789518356323242e-01 8.457231521606445312e+00 2.721092939376831055e+00 3.480734303593635559e-02
1.996000000000000000e+03 7.350305938720703125e+01 1.207123661041259766e+01 -3.173941075801849365e-01 8.957480430603027344e+00 2.592025995254516602e+00 5.076854825019836426e-01
1.997000000000000000e+03 7.468103790283203125e+01 1.350995731353759766e+01 -1.429747343063354492e-01 8.422626495361328125e+00 2.483895540237426758e+00 5.262858867645263672e-01
1.998000000000000000e+03 7.402259063720703125e+01 -1.709276437759399414e+00 4.256256222724914551e-01 8.231373786926269531e+00 2.597099781036376953e+00 -1.300596743822097778e-01
1.999000000000000000e+03 7.590110015869140625e+01 -2.240564972162246704e-01 3.980077207088470459e-01 7.267231464385986328e+00 2.299571752548217773e+00 -1.540030092000961304e-01
2.000000000000000000e+03 7.512261962890625000e+01 2.904603767395019531e+01 -1.265981644392013550e-01 8.310352325439453125e+00 2.455126285552978516e+00 7.700322866439819336e-01
2.001000000000000000e+03 7.437458038330078125e+01 -8.770268440246582031e+00 -1.161503046751022339e-02 6.855696678161621094e+00 2.053224563598632812e+00 -4.834946095943450928e-01
2.002000000000000000e+03 7.310129547119140625e+01 -8.774411201477050781e+00 -4.911453579552471638e-04 6.816332340240478516e+00 2.044752359390258789e+00 -2.453529685735702515e-01
2.003000000000000000e+03 7.428715515136718750e+01 -1.459936237335205078e+01 -3.032231926918029785e-01 6.523511886596679688e+00 1.866086602210998535e+00 -5.370887517929077148e-01
2.004000000000000000e+03 7.312641143798828125e+01 -1.497960567474365234e+01 -3.447172045707702637e-01 6.077608585357666016e+00 1.719867348670959473e+00 -5.999695062637329102e-01
2.005000000000000000e+03 5.207086181640625000e+01 -3.278606414794921875e+01 1.104420304298400879e+00 6.501010894775390625e+00 2.281629323959350586e+00 -1.262381315231323242e+00
2.006000000000000000e+03 4.676060867309570312e+01 -3.089029502868652344e+01 3.921645581722259521e-01 7.167971134185791016e+00 2.268040657043457031e+00 -1.876523017883300781e+00
2.007000000000000000e+03 7.584790039062500000e+01 -2.943243408203125000e+01 4.348657727241516113e-01 7.568049907684326172e+00 2.400874614715576172e+00 -6.636731028556823730e-01
2.008000000000000000e+03 7.437297058105468750e+01 3.477761459350585938e+01 -4.346607327461242676e-01 7.655320167541503906e+00 2.166198015213012695e+00 2.298533618450164795e-01
2.009000000000000000e+03 7.204666900634765625e+01 3.538121795654296875e+01 -5.063409805297851562e-01 5.948925018310546875e+00 1.632775187492370605e+00 7.487054914236068726e-02
2.010000000000000000e+03 7.100251007080078125e+01 -1.985804176330566406e+01 -1.238769650459289551e+00 4.999781608581542969e+00 1.128303647041320801e+00 -1.340203285217285156e+00
2.011000000000000000e+03 7.396768951416015625e+01 -2.087856483459472656e+01 -9.904131889343261719e-01 7.844704627990722656e+00 2.056287527084350586e+00 2.338837832212448120e-01
2.012000000000000000e+03 3.678210449218750000e+01 1.672273635864257812e+01 1.227078437805175781e+00 7.026025295257568359e+00 2.475931167602539062e+00 -2.125113904476165771e-01
2.013000000000000000e+03 3.600337982177734375e+01 1.486712646484375000e+01 1.449734330177307129e+00 6.731821060180664062e+00 2.454466581344604492e+00 -3.068284392356872559e-01
2.014000000000000000e+03 7.527584075927734375e+01 3.209263992309570312e+01 -3.368485569953918457e-01 8.416396141052246094e+00 2.423864364624023438e+00 5.328026413917541504e-01
2.015000000000000000e+03 6.686553001403808594e+00 3.215425491333007812e+01 -3.274665027856826782e-02 -2.530747791752219200e-03 -1.058321911841630936e-02 -1.753923892974853516e-01
2.016000000000000000e+03 4.747378826141357422e+00 -3.122055244445800781e+01 -1.077358484268188477e+00 3.879539251327514648e+00 8.406542539596557617e-01 1.419968843460083008e+00
2.017000000000000000e+03 5.694263458251953125e+00 -2.835178756713867188e+01 -1.364907145500183105e+00 4.282522678375244141e+00 8.752846717834472656e-01 2.429362535476684570e+00
2.018000000000000000e+03 7.353373718261718750e+01 -3.329378509521484375e+01 -5.610333085060119629e-01 7.044471740722656250e+00 1.945031523704528809e+00 -1.452032029628753662e-01
2.019000000000000000e+03 6.113331794738769531e+00 2.901718139648437500e+01 -3.146681236103177071e-03 -2.218370437622070312e-01 -6.749511510133743286e-02 -1.670130491256713867e-01
2.020000000000000000e+03 4.631952667236328125e+01 -1.071728801727294922e+01 -8.375417590141296387e-01 5.889538764953613281e+00 1.515599012374877930e+00 -9.612804651260375977e-01
2.021000000000000000e+03 1.100402450561523438e+01 -7.739479541778564453e+00 4.530541300773620605e-01 1.506699919700622559e+00 5.879262089729309082e-01 1.102363705635070801e+00
2.022000000000000000e+03 7.185713768005371094e+00 2.409558868408203125e+01 8.093660324811935425e-02 -1.233973205089569092e-01 -1.273821387439966202e-02 -1.402310281991958618e-01
2.023000000000000000e+03 5.003969669342041016e+00 -1.590386104583740234e+01 9.354233741760253906e-01 1.789754629135131836e+00 8.175534009933471680e-01 -6.771188974380493164e-02
2.024000000000000000e+03 5.094377517700195312e+00 -1.459529018402099609e+01 6.650537848472595215e-01 1.502718091011047363e+00 6.503315567970275879e-01 -4.163262546062469482e-01
2.025000000000000000e+03 3.953350305557250977e+00 -1.599702072143554688e+01 6.515374183654785156e-01 2.773963809013366699e-01 2.786801457405090332e-01 -2.583454549312591553e-01
2.026000000000000000e+03 5.354034900665283203e+00 -1.688706779479980469e+01 1.395860791206359863e+00 2.581864833831787109e+00 1.193317651748657227e+00 4.845154583454132080e-01
2.027000000000000000e+03 5.430981636047363281e+00 1.828903961181640625e+01 1.113259792327880859e-01 -5.011182427406311035e-01 -1.169376745820045471e-01 3.599970787763595581e-02
2.028000000000000000e+03 5.504829883575439453e+00 1.685630989074707031e+01 1.254456788301467896e-01 -5.009744167327880859e-01 -1.126586124300956726e-01 8.395052701234817505e-02
2.029000000000000000e+03 5.336828231811523438e+00 1.379051494598388672e+01 1.415451765060424805e-01 -5.093382596969604492e-01 -1.103379279375076294e-01 2.062958776950836182e-01
2.030000000000000000e+03 5.533853530883789062e+00 1.532876777648925781e+01 1.360521614551544189e-01 -4.967339336872100830e-01 -1.082045286893844604e-01 1.468489617109298706e-01
2.031000000000000000e+03 7.317779064178466797e+00 -1.113505744934082031e+01 2.617043256759643555e-01 2.441672563552856445e+00 8.110130429267883301e-01 -1.937345862388610840e-01
2.032000000000000000e+03 4.546158313751220703e+00 -2.848272514343261719e+01 -9.551993012428283691e-01 3.877710103988647461e+00 8.767532706260681152e-01 2.454727649688720703e+00
2.033000000000000000e+03 4.802419662475585938e+00 3.339265441894531250e+01 -1.323089189827442169e-02 -3.059405684471130371e-01 -9.575143456459045410e-02 -1.080632656812667847e-01
2.034000000000000000e+03 5.658883094787597656e+00 2.178577995300292969e+01 7.481160014867782593e-02 -4.378192722797393799e-01 -1.089022979140281677e-01 -6.975305080413818359e-02
2.035000000000000000e+03 5.244935989379882812e+00 1.957245826721191406e+01 9.816680103540420532e-02 -5.221887826919555664e-01 -1.272066086530685425e-01 -7.532937917858362198e-03
2.036000000000000000e+03 5.255484104156494141e+00 2.066969871520996094e+01 7.442459464073181152e-02 -5.166094899177551270e-01 -1.326554715633392334e-01 -3.477560728788375854e-02
2.037000000000000000e+03 6.808242321014404297e+00 -3.257668304443359375e+01 -1.479636549949645996e+00 3.141189813613891602e+00 4.984659552574157715e-01 8.463675975799560547e-01
2.038000000000000000e+03 7.909736633300781250e+00 -3.574499893188476562e+01 -8.038569092750549316e-01 2.324249982833862305e+00 4.561179280281066895e-01 3.270399272441864014e-01
2.039000000000000000e+03 5.791916847229003906e+00 2.798117446899414062e+01 2.504540374502539635e-03 -2.740810811519622803e-01 -8.147295564413070679e-02 -1.514233648777008057e-01
2.040000000000000000e+03 3.714197874069213867e+00 1.008704376220703125e+01 6.081109866499900818e-02 -5.856040716171264648e-01 -1.574378907680511475e-01 3.033935129642486572e-01
2.041000000000000000e+03 5.028188705444335938e+00 1.239261150360107422e+01 1.303630620241165161e-01 -5.319812297821044922e-01 -1.204854547977447510e-01 2.619737088680267334e-01
2.042000000000000000e+03 4.802969932556152344e+00 9.897602081298828125e+00 9.330341219902038574e-02 -5.019233226776123047e-01 -1.225859671831130981e-01 3.505496084690093994e-01
2.043000000000000000e+03 5.157827377319335938e+00 -1.160636138916015625e+01 1.571587771177291870e-01 9.675896763801574707e-01 3.374245464801788330e-01 -7.985128164291381836e-01
2.044000000000000000e+03 4.622268199920654297e+00 7.544255733489990234e+00 3.544729948043823242e-02 -4.201446175575256348e-01 -1.154091954231262207e-01 4.078408479690551758e-01
2.045000000000000000e+03 3.607695817947387695e+00 7.607402324676513672e+00 2.150908857583999634e-02 -4.594077169895172119e-01 -1.313695907592773438e-01 3.539596498012542725e-01
2.046000000000000000e+03 5.769852638244628906e+00 8.512053489685058594e+00 9.928949922323226929e-02 -4.079364538192749023e-01 -9.259408712387084961e-02 4.245462119579315186e-01
2.047000000000000000e+03 4.331915378570556641e+00 -6.647431850433349609e+00 -1.984215527772903442e-01 -3.120435774326324463e-02 -6.888777017593383789e-02 -8.445780873298645020e-01
2.048000000000000000e+03 3.717881011962890625e+01 1.870575523376464844e+01 9.980688095092773438e-01 6.869124412536621094e+00 2.360157966613769531e+00 -6.175967305898666382e-02
2.049000000000000000e+03 3.823140716552734375e+01 1.956078338623046875e+01 8.891236782073974609e-01 7.133576393127441406e+00 2.406810045242309570e+00 1.520810276269912720e-01
2.050000000000000000e+03 5.475819587707519531e+00 3.571796798706054688e+01 -1.056954637169837952e-02 -1.483451277017593384e-01 -4.767439886927604675e-02 -9.591178596019744873e-02
2.051000000000000000e+03 4.470045566558837891e+00 -7.754789829254150391e+00 -1.662757545709609985e-01 6.131034344434738159e-02 -3.148962557315826416e-02 -9.113769531250000000e-01
2.052000000000000000e+03 5.344719886779785156e+00 -7.578893184661865234e+00 -2.014183998107910156e-01 4.407606422901153564e-01 7.180267572402954102e-02 -8.218950629234313965e-01
2.053000000000000000e+03 4.517908096313476562e+01 -8.244799613952636719e+00 -5.316895842552185059e-01 5.711074352264404297e+00 1.553815484046936035e+00 -1.396409034729003906e+00
2.054000000000000000e+03 7.251720428466796875e+01 9.153220176696777344e+00 -1.534166783094406128e-01 9.629797935485839844e+00 2.842914342880249023e+00 6.596088409423828125e-01
2.055000000000000000e+03 7.446237945556640625e+01 -5.449717998504638672e+00 8.084334433078765869e-02 7.278203964233398438e+00 2.207714080810546875e+00 -4.221544861793518066e-01
2.056000000000000000e+03 3.882437896728515625e+01 -1.520527553558349609e+01 -2.947777509689331055e-01 5.476924896240234375e+00 1.554644107818603516e+00 -3.314394474029541016e+00
2.057000000000000000e+03 3.402308654785156250e+01 -3.767255783081054688e+01 -1.407792687416076660e+00 -1.253315806388854980e-01 -4.599372744560241699e-01 -1.089719831943511963e-01
2.058000000000000000e+03 3.537780380249023438e+01 -3.979802322387695312e+01 -1.141758680343627930e+00 4.859674572944641113e-01 -1.967373639345169067e-01 7.233066856861114502e-02
2.059000000000000000e+03 3.082219123840332031e+01 -1.253352642059326172e+01 -9.368971586227416992e-01 1.246796011924743652e+00 9.296967834234237671e-02 -1.261996626853942871e+00
2.060000000000000000e+03 4.716082763671875000e+01 -1.335305881500244141e+01 -1.141993999481201172e+00 6.183044910430908203e+00 1.512315273284912109e+00 -5.205203890800476074e-01
2.061000000000000000e+03 7.336738586425781250e+01 -7.467132568359375000e+00 3.333961218595504761e-02 7.126992225646972656e+00 2.148099660873413086e+00 -2.538338899612426758e-01
2.062000000000000000e+03 6.336233520507812500e+01 -1.579497528076171875e+01 4.470745921134948730e-01 1.745207905769348145e+00 6.576847434043884277e-01 1.277118086814880371e+00
2.063000000000000000e+03 6.208520889282226562e+01 -1.845079994201660156e+01 -4.629749059677124023e-01 1.448599457740783691e+00 2.956873774528503418e-01 1.774766325950622559e+00
2.064000000000000000e+03 7.236270141601562500e+01 -7.076536178588867188e+00 6.542377918958663940e-02 7.259522914886474609e+00 2.197484016418457031e+00 3.519750759005546570e-02
2.065000000000000000e+03 5.814635467529296875e+01 -1.977135086059570312e+01 -1.061783805489540100e-01 8.147447109222412109e-01 2.125698924064636230e-01 1.649606347084045410e+00
2.066000000000000000e+03 5.617396163940429688e+01 -1.982420158386230469e+01 2.342495620250701904e-01 4.600159227848052979e-01 2.082796394824981689e-01 8.292652964591979980e-01
2.067000000000000000e+03 7.514987182617187500e+01 -2.808739662170410156e+01 9.583470225334167480e-01 8.027520179748535156e+00 2.695760250091552734e+00 -3.644508123397827148e-01
2.068000000000000000e+03 6.476364898681640625e+01 -1.801534080505371094e+01 -1.381100416183471680e-01 1.554196357727050781e+00 4.248259067535400391e-01 1.270370483398437500e+00
2.069000000000000000e+03 6.331176757812500000e+01 -1.875115585327148438e+01 -4.517965316772460938e-01 1.437935233116149902e+00 2.958416044712066650e-01 1.628206014633178711e+00
2.070000000000000000e+03 7.204503631591796875e+01 -1.162837314605712891e+01 3.535921499133110046e-02 6.001598834991455078e+00 1.811087369918823242e+00 -2.434885799884796143e-01
2.071000000000000000e+03 4.540412902832031250e+01 -2.041280937194824219e+01 2.396449327468872070e+00 8.554034233093261719e+00 3.285145044326782227e+00 -1.580075025558471680e+00
2.072000000000000000e+03 3.900791168212890625e+01 9.551616668701171875e+00 1.811118125915527344e+00 8.268260955810546875e+00 3.023813962936401367e+00 -5.655016899108886719e-01
2.073000000000000000e+03 3.983022689819335938e+01 2.532113552093505859e+00 6.696255803108215332e-01 6.544944286346435547e+00 2.164371013641357422e+00 -1.096039772033691406e+00
2.074000000000000000e+03 6.622955322265625000e+01 -1.839727592468261719e+01 -1.332323700189590454e-01 1.339951276779174805e+00 3.620156645774841309e-01 7.507471442222595215e-01
2.075000000000000000e+03 4.115843200683593750e+01 2.307650566101074219e+01 6.411784291267395020e-01 6.901303768157958984e+00 2.262744665145874023e+00 9.633083939552307129e-01
2.076000000000000000e+03 7.194228363037109375e+01 -5.265003204345703125e+00 1.876135319471359253e-01 7.951619148254394531e+00 2.441769838333129883e+00 3.241750597953796387e-01
2.077000000000000000e+03 4.661554336547851562e+01 -2.975529479980468750e+01 7.966254949569702148e-01 7.578778743743896484e+00 2.512621164321899414e+00 -2.013423204421997070e+00
2.078000000000000000e+03 7.067564392089843750e+01 -1.246718311309814453e+01 1.626921594142913818e-01 5.304903984069824219e+00 1.640278935432434082e+00 -1.150049734860658646e-02
2.079000000000000000e+03 4.508338546752929688e+01 -3.298941421508789062e+01 -1.084855437278747559e+00 6.880914211273193359e+00 1.738817691802978516e+00 -6.908009052276611328e-01
2.080000000000000000e+03 7.349432373046875000e+01 1.340314006805419922e+01 -1.850605159997940063e-01 8.762907981872558594e+00 2.573354244232177734e+00 3.847160935401916504e-01
2.081000000000000000e+03 7.347586059570312500e+01 2.354720878601074219e+01 2.372132837772369385e-01 8.131444931030273438e+00 2.510597467422485352e+00 5.413063168525695801e-01
2.082000000000000000e+03 7.462294006347656250e+01 2.362414550781250000e+01 1.816114038228988647e-01 8.218305587768554688e+00 2.519974946975708008e+00 6.488552689552307129e-01
2.083000000000000000e+03 4.754795455932617188e+01 -2.495825958251953125e+01 2.392410516738891602e+00 7.336179256439208984e+00 2.918576955795288086e+00 -2.697438955307006836e+00
2.084000000000000000e+03 4.630134201049804688e+01 -2.631288909912109375e+01 2.043234586715698242e+00 8.501496315002441406e+00 3.163419485092163086e+00 -2.739371299743652344e+00
2.085000000000000000e+03 3.951878738403320312e+01 2.608778381347656250e+01 8.241719007492065430e-02 5.922128200531005859e+00 1.801363587379455566e+00 2.845802307128906250e-01
2.086000000000000000e+03 7.103532409667968750e+01 3.882253265380859375e+01 -1.120498478412628174e-01 5.099705696105957031e+00 1.496296763420104980e+00 -1.262089461088180542e-01
2.087000000000000000e+03 7.282559967041015625e+01 -2.311996841430664062e+01 1.255146414041519165e-01 8.370626449584960938e+00 2.548842430114746094e+00 6.280001401901245117e-01
2.088000000000000000e+03 1.858852005004882812e+01 -3.625053787231445312e+01 -1.365434408187866211e+00 -6.078009605407714844e-01 -5.919706225395202637e-01 5.770478844642639160e-01
2.089000000000000000e+03 6.914398956298828125e+01 -3.849613571166992188e+01 2.522453963756561279e-01 2.886234521865844727e+00 9.415439963340759277e-01 5.936734080314636230e-01
2.090000000000000000e+03 6.970046997070312500e+01 -3.659259033203125000e+01 -2.019833773374557495e-01 3.506231307983398438e+00 9.912744164466857910e-01 8.360144495964050293e-01
2.091000000000000000e+03 9.998669624328613281e+00 -1.346062278747558594e+01 1.713516354560852051e+00 5.365754604339599609e+00 2.123781204223632812e+00 1.836735844612121582e+00
2.092000000000000000e+03 1.068509864807128906e+01 -1.513301658630371094e+01 3.597898006439208984e+00 6.808542251586914062e+00 3.121932029724121094e+00 3.325551986694335938e+00
2.093000000000000000e+03 7.343962097167968750e+01 2.528921127319335938e+01 2.079957723617553711e-01 7.904153823852539062e+00 2.433644771575927734e+00 6.378310918807983398e-01
2.094000000000000000e+03 6.824309349060058594e+00 -1.672215270996093750e+01 1.874500632286071777e+00 4.685224533081054688e+00 1.967917561531066895e+00 1.053016185760498047e+00
2.095000000000000000e+03 8.154781341552734375e+00 -1.513529586791992188e+01 1.917739272117614746e+00 5.366791248321533203e+00 2.185359239578247070e+00 1.181810617446899414e+00
2.096000000000000000e+03 6.905596923828125000e+01 -1.331454372406005859e+01 3.869918882846832275e-01 4.322206020355224609e+00 1.412759423255920410e+00 2.492656558752059937e-01
2.097000000000000000e+03 5.653757095336914062e+01 -2.248762512207031250e+01 1.200866937637329102e+00 1.684650421142578125e+00 8.656551837921142578e-01 7.177708148956298828e-01
2.098000000000000000e+03 3.625656127929687500e+01 -1.462731361389160156e+01 -2.260748594999313354e-01 2.608594894409179688e+00 7.147560119628906250e-01 -2.575536489486694336e+00
2.099000000000000000e+03 3.491291046142578125e+01 -1.238657855987548828e+01 -2.555201947689056396e-01 2.624548435211181641e+00 7.107084989547729492e-01 -2.232151985168457031e+00
2.100000000000000000e+03 5.440090560913085938e+01 -2.379116249084472656e+01 1.397285223007202148e+00 3.279256582260131836e+00 1.402962565422058105e+00 -3.359214365482330322e-01
2.101000000000000000e+03 5.380744934082031250e+01 -2.544561767578125000e+01 1.561346888542175293e+00 4.474420547485351562e+00 1.810730218887329102e+00 -8.127539157867431641e-01
2.102000000000000000e+03 6.715126037597656250e+00 -3.047113800048828125e+01 -1.773755073547363281e+00 3.668869972229003906e+00 5.685344338417053223e-01 1.423518657684326172e+00
2.103000000000000000e+03 7.349884796142578125e+01 2.925655364990234375e+01 -2.503905892372131348e-01 7.498934745788574219e+00 2.174563169479370117e+00 7.434720993041992188e-01
2.104000000000000000e+03 4.072300720214843750e+01 2.942704200744628906e+01 -3.586444556713104248e-01 5.273100376129150391e+00 1.474336743354797363e+00 3.455498218536376953e-01
2.105000000000000000e+03 4.335828781127929688e+00 -2.460654640197753906e+01 3.458083868026733398e-01 3.012506484985351562e+00 1.007494449615478516e+00 2.961960554122924805e+00
2.106000000000000000e+03 7.327698516845703125e+01 -2.691320657730102539e+00 3.767239153385162354e-01 8.361093521118164062e+00 2.621345043182373047e+00 -2.016777172684669495e-02
2.107000000000000000e+03 7.313320159912109375e+01 -7.289873957633972168e-01 6.665636897087097168e-01 9.075036048889160156e+00 2.922479867935180664e+00 1.676409542560577393e-01
2.108000000000000000e+03 4.770959472656250000e+01 -1.457905673980712891e+01 -1.209193706512451172e+00 6.172465801239013672e+00 1.488981604576110840e+00 -4.353989958763122559e-01
2.109000000000000000e+03 4.567378616333007812e+01 -3.541877746582031250e+01 -1.675777435302734375e+00 6.248133659362792969e+00 1.371706843376159668e+00 -3.662659525871276855e-01
2.110000000000000000e+03 4.716214752197265625e+01 -3.253514862060546875e+01 -2.962912321090698242e-01 6.847718715667724609e+00 1.965428233146667480e+00 -1.400703191757202148e+00
2.111000000000000000e+03 4.326753234863281250e+01 -1.566387557983398438e+01 -6.119397878646850586e-01 7.965372562408447266e+00 2.206029891967773438e+00 -1.821007609367370605e+00
2.112000000000000000e+03 3.736400222778320312e+01 1.072712898254394531e+01 1.805303215980529785e+00 7.328176975250244141e+00 2.740044116973876953e+00 -3.233236670494079590e-01
2.113000000000000000e+03 4.733784103393554688e+01 4.104950332641601562e+01 -9.846963882446289062e-01 2.944588184356689453e+00 5.879675745964050293e-01 1.260915100574493408e-01
2.114000000000000000e+03 9.331577301025390625e+00 -3.607215881347656250e+01 -8.225387334823608398e-01 1.604769468307495117e+00 2.346692234277725220e-01 1.572468429803848267e-01
2.115000000000000000e+03 7.181641387939453125e+01 3.257252120971679688e+01 -6.973260641098022461e-01 6.062721729278564453e+00 1.609618663787841797e+00 3.312509953975677490e-01
2.116000000000000000e+03 4.434488296508789062e+01 -1.598960781097412109e+01 -7.672395110130310059e-01 8.192692756652832031e+00 2.227636098861694336e+00 -1.400172710418701172e+00
2.117000000000000000e+03 4.930488586425781250e+01 -1.532859230041503906e+01 -1.250179052352905273e+00 5.177919387817382812e+00 1.178322076797485352e+00 -2.832274138927459717e-01
2.118000000000000000e+03 4.873515701293945312e+01 -1.778819084167480469e+01 -1.442639380693435669e-01 5.726759910583496094e+00 1.674748778343200684e+00 -7.430835366249084473e-01
2.119000000000000000e+03 5.882958602905273438e+01 -2.084185791015625000e+01 3.157604038715362549e-01 1.065179705619812012e+00 4.142820239067077637e-01 1.610725998878479004e+00
2.120000000000000000e+03 7.408622741699218750e+01 3.152391624450683594e+01 -3.906879723072052002e-01 7.733445167541503906e+00 2.202827215194702148e+00 5.893633961677551270e-01
2.121000000000000000e+03 2.111162376403808594e+01 -4.072453498840332031e+00 -6.326323747634887695e-02 7.031383037567138672e+00 2.090435981750488281e+00 2.457336425781250000e+00
2.122000000000000000e+03 1.969829368591308594e+01 -2.500528335571289062e+00 -8.938315510749816895e-01 3.289113283157348633e+00 7.185845375061035156e-01 2.734220772981643677e-02
2.123000000000000000e+03 1.996648216247558594e+01 -3.065176725387573242e+00 -9.095997214317321777e-01 4.124109745025634766e+00 9.643529653549194336e-01 2.020063996315002441e-01
2.124000000000000000e+03 2.237299728393554688e+01 -6.110848426818847656e+00 7.891968250274658203e+00 3.996099948883056641e+00 3.566420316696166992e+00 4.305637359619140625e+00
2.125000000000000000e+03 2.233276367187500000e+01 -5.810185432434082031e+00 6.820869922637939453e+00 4.564585685729980469e+00 3.415636539459228516e+00 4.773018836975097656e+00
2.126000000000000000e+03 2.117843627929687500e+01 -8.919592857360839844e+00 4.419495582580566406e+00 5.607180118560791016e+00 3.008002758026123047e+00 6.284568309783935547e-01
2.127000000000000000e+03 1.795969772338867188e+01 -9.309919357299804688e+00 4.240934371948242188e+00 1.355269670486450195e+00 1.678861141204833984e+00 6.503862857818603516e+00
2.128000000000000000e+03 1.864186286926269531e+01 -1.021860218048095703e+01 1.584482908248901367e+00 1.594713330268859863e+00 9.537588953971862793e-01 5.753658294677734375e+00
2.129000000000000000e+03 2.105430030822753906e+01 -1.071905326843261719e+01 -5.996469259262084961e-01 2.333057880401611328e+00 5.200232267379760742e-01 1.455826282501220703e+00
2.130000000000000000e+03 2.259290122985839844e+01 -1.073699283599853516e+01 -4.605202376842498779e-01 1.270988225936889648e+00 2.431403994560241699e-01 -6.353597640991210938e-01
2.131000000000000000e+03 1.914576339721679688e+01 -1.002112770080566406e+01 1.694939732551574707e+00 2.748801946640014648e+00 1.333122491836547852e+00 5.261247634887695312e+00
2.132000000000000000e+03 1.960912322998046875e+01 -9.550826072692871094e+00 2.317368030548095703e+00 4.428339481353759766e+00 2.023712396621704102e+00 4.690274715423583984e+00
2.133000000000000000e+03 2.122513008117675781e+01 -1.005315589904785156e+01 1.204795598983764648e+00 3.497864723205566406e+00 1.410798072814941406e+00 9.824758768081665039e-01
2.134000000000000000e+03 2.039196586608886719e+01 -9.302462577819824219e+00 2.901068210601806641e+00 5.523696422576904297e+00 2.527429342269897461e+00 2.751217126846313477e+00
2.135000000000000000e+03 1.951089477539062500e+01 -1.230810284614562988e+00 -7.400096654891967773e-01 2.596690177917480469e+00 5.570041537284851074e-01 -4.469289910048246384e-03
2.136000000000000000e+03 1.772308349609375000e+01 -7.370512485504150391e+00 8.286783218383789062e+00 -1.221974372863769531e+00 2.119442462921142578e+00 3.535055637359619141e+00
2.137000000000000000e+03 1.341661453247070312e+01 -6.804398536682128906e+00 1.353693485260009766e+00 3.711366355419158936e-01 5.174490809440612793e-01 1.578594565391540527e+00
2.138000000000000000e+03 1.445822238922119141e+01 -6.692645072937011719e+00 2.070795297622680664e+00 -1.911226660013198853e-01 5.639017820358276367e-01 1.647145390510559082e+00
2.139000000000000000e+03 1.410641384124755859e+01 -6.614596843719482422e+00 1.776307344436645508e+00 -1.112913191318511963e-01 4.995048046112060547e-01 1.503891110420227051e+00
2.140000000000000000e+03 1.687462234497070312e+01 -6.840456962585449219e+00 5.198602676391601562e+00 -1.330611228942871094e+00 1.160397410392761230e+00 1.719850897789001465e+00
2.141000000000000000e+03 1.703398323059082031e+01 -7.960086822509765625e+00 6.121347427368164062e+00 -8.553183674812316895e-01 1.579808712005615234e+00 4.344463348388671875e+00
2.142000000000000000e+03 1.899748039245605469e+01 -4.752389490604400635e-01 -6.374073028564453125e-01 1.971360325813293457e+00 4.001859128475189209e-01 -8.308599144220352173e-02
2.143000000000000000e+03 1.388242340087890625e+01 -1.060492229461669922e+01 1.329433560371398926e+00 2.389237403869628906e+00 1.115601301193237305e+00 4.174159049987792969e+00
2.144000000000000000e+03 1.869946861267089844e+01 6.273145228624343872e-02 -5.399532914161682129e-01 1.686133503913879395e+00 3.438540697097778320e-01 -9.924271702766418457e-02
2.145000000000000000e+03 1.930929374694824219e+01 2.294014096260070801e-01 -5.039584040641784668e-01 2.192866563796997070e+00 5.066724419593811035e-01 -5.349352210760116577e-02
2.146000000000000000e+03 9.215256690979003906e+00 -7.228755474090576172e+00 -5.845620110630989075e-02 1.406553387641906738e+00 4.044291377067565918e-01 2.004504054784774780e-01
2.147000000000000000e+03 1.056575870513916016e+01 -6.568923950195312500e+00 1.019205674529075623e-01 1.109758853912353516e+00 3.635038435459136963e-01 5.574690103530883789e-01
2.148000000000000000e+03 1.105579566955566406e+01 -5.866322040557861328e+00 3.238195925951004028e-02 8.327755928039550781e-01 2.595472633838653564e-01 5.329493880271911621e-01
2.149000000000000000e+03 1.162221527099609375e+01 -5.346989631652832031e+00 -1.524773892015218735e-02 5.915703773498535156e-01 1.728968024253845215e-01 5.329474210739135742e-01
2.150000000000000000e+03 2.323677062988281250e+01 -1.045334815979003906e+01 3.584864735603332520e-01 1.046070933341979980e+00 4.213672280311584473e-01 -1.026419758796691895e+00
2.151000000000000000e+03 1.643673133850097656e+01 -1.042481517791748047e+01 1.902052640914916992e+00 9.502870440483093262e-01 8.557018637657165527e-01 5.836999416351318359e+00
2.152000000000000000e+03 2.181105613708496094e+01 -1.014201164245605469e+01 1.104448676109313965e+00 2.640912532806396484e+00 1.123608350753784180e+00 2.118364423513412476e-01
2.153000000000000000e+03 1.702275657653808594e+01 -1.026375579833984375e+01 2.047110080718994141e+00 9.746630787849426270e-01 9.065319299697875977e-01 6.077928543090820312e+00
2.154000000000000000e+03 1.383925342559814453e+01 -9.499131202697753906e+00 1.697517514228820801e+00 1.576402664184570312e+00 9.821760654449462891e-01 3.734314918518066406e+00
2.155000000000000000e+03 7.401383399963378906e+00 5.945162773132324219e+00 -8.468807674944400787e-03 -3.277954757213592529e-01 -1.008792817592620850e-01 5.330874323844909668e-01
2.156000000000000000e+03 6.165934562683105469e+00 -7.332276821136474609e+00 -2.344855964183807373e-01 7.298088073730468750e-01 1.485969573259353638e-01 -7.146164774894714355e-01
2.157000000000000000e+03 7.355578422546386719e+00 -5.968269348144531250e+00 -3.696696162223815918e-01 8.137490749359130859e-01 1.332238465547561646e-01 -4.554803073406219482e-01
2.158000000000000000e+03 7.040985584259033203e+00 5.015331745147705078e+00 -1.117850840091705322e-01 -3.009573817253112793e-01 -1.238227412104606628e-01 5.419440865516662598e-01
2.159000000000000000e+03 6.325008869171142578e+00 6.329616546630859375e+00 -7.293557282537221909e-03 -3.394256532192230225e-01 -1.040157675743103027e-01 5.002722740173339844e-01
2.160000000000000000e+03 7.634017944335937500e+00 5.127055168151855469e+00 -1.037962660193443298e-01 -3.133082091808319092e-01 -1.251313388347625732e-01 5.504922866821289062e-01
2.161000000000000000e+03 6.817397117614746094e+00 5.804289340972900391e+00 -3.761006891727447510e-02 -3.236394226551055908e-01 -1.083748489618301392e-01 5.184764266014099121e-01
2.162000000000000000e+03 1.919224548339843750e+01 1.303002238273620605e+00 -3.615923225879669189e-01 1.965775609016418457e+00 4.812549948692321777e-01 -8.185123652219772339e-02
2.163000000000000000e+03 5.155506134033203125e+00 -6.530431747436523438e+00 -2.540705204010009766e-01 2.510067224502563477e-01 -9.191349963657557964e-04 -8.166934847831726074e-01
2.164000000000000000e+03 8.014652252197265625e+00 -5.842094421386718750e+00 -3.643895387649536133e-01 8.979567289352416992e-01 1.600701659917831421e-01 -2.906132042407989502e-01
2.165000000000000000e+03 6.522632598876953125e+00 -5.289164066314697266e+00 -4.079687893390655518e-01 4.940559864044189453e-01 2.582616545259952545e-02 -5.884721279144287109e-01
2.166000000000000000e+03 9.280682563781738281e+00 -5.101301670074462891e+00 -4.242920279502868652e-01 7.806116938591003418e-01 1.068958938121795654e-01 -1.790741831064224243e-02
2.167000000000000000e+03 8.457390785217285156e+00 6.113604545593261719e+00 3.652631491422653198e-02 -3.101891875267028809e-01 -8.209886401891708374e-02 5.267829895019531250e-01
2.168000000000000000e+03 8.664006233215332031e+00 -5.809853076934814453e+00 -3.367857933044433594e-01 9.380742311477661133e-01 1.803865283727645874e-01 -1.176524758338928223e-01
2.169000000000000000e+03 1.678006744384765625e+01 1.758487462997436523e+00 -3.024828433990478516e-01 5.915145874023437500e-01 8.670952171087265015e-02 1.051026582717895508e-02
2.170000000000000000e+03 1.635886573791503906e+01 4.017707824707031250e+00 6.044935807585716248e-02 6.427814364433288574e-01 2.109692394733428955e-01 -2.179095335304737091e-02
2.171000000000000000e+03 1.715546989440917969e+01 2.234610080718994141e+00 -1.928602159023284912e-01 8.391908407211303711e-01 1.938991844654083252e-01 -5.458183959126472473e-02
2.172000000000000000e+03 1.818226051330566406e+01 1.486073493957519531e+00 -3.064145445823669434e-01 1.370921134948730469e+00 3.193519711494445801e-01 -1.019947156310081482e-01
2.173000000000000000e+03 1.768841743469238281e+01 1.881599903106689453e+00 -2.508263289928436279e-01 1.092027902603149414e+00 2.523604631423950195e-01 -9.416233748197555542e-02
2.174000000000000000e+03 1.455284309387207031e+01 3.290705204010009766e+00 -1.240698695182800293e-01 1.286595407873392105e-02 -3.336117416620254517e-02 1.982614547014236450e-01
2.175000000000000000e+03 1.376725769042968750e+01 4.891517162322998047e+00 1.174370944499969482e-01 1.690904237329959869e-02 4.030384123325347900e-02 2.165804207324981689e-01
2.176000000000000000e+03 1.614208984375000000e+01 3.312712430953979492e+00 -5.733181536197662354e-02 5.116229653358459473e-01 1.362873613834381104e-01 1.635489985346794128e-02
2.177000000000000000e+03 1.490767860412597656e+01 3.973870515823364258e+00 1.661476865410804749e-02 1.797615736722946167e-01 5.891289934515953064e-02 1.294016242027282715e-01
2.178000000000000000e+03 2.147041320800781250e+01 -9.331474304199218750e+00 3.060646772384643555e+00 4.306698799133300781e+00 2.210203647613525391e+00 3.937998414039611816e-01
2.179000000000000000e+03 3.939859008789062500e+01 8.031501770019531250e+00 1.588457465171813965e+00 8.137574195861816406e+00 2.917809486389160156e+00 -6.360922455787658691e-01
2.180000000000000000e+03 3.599938201904296875e+01 3.641468286514282227e+00 1.104617953300476074e+00 5.745057106018066406e+00 2.054902553558349609e+00 -1.444106996059417725e-01
2.181000000000000000e+03 2.481401252746582031e+01 -1.121165943145751953e+01 -1.088602423667907715e+00 6.255996227264404297e-01 -1.389008462429046631e-01 -1.291605710983276367e+00
2.182000000000000000e+03 1.998981666564941406e+01 -1.066699981689453125e+01 -3.622216582298278809e-01 2.372747421264648438e+00 6.031577587127685547e-01 3.348269701004028320e+00
2.183000000000000000e+03 2.952035140991210938e+01 -1.197449016571044922e+01 -8.658881187438964844e-01 1.128957152366638184e+00 7.892068475484848022e-02 -1.292451262474060059e+00
2.184000000000000000e+03 1.077118301391601562e+01 4.762422561645507812e+00 -4.346648231148719788e-02 -3.447378277778625488e-01 -1.164612919092178345e-01 4.954676628112792969e-01
2.185000000000000000e+03 1.812244606018066406e+01 -8.637294769287109375e+00 6.282872200012207031e+00 1.282404780387878418e+00 2.269582986831665039e+00 6.519469261169433594e+00
2.186000000000000000e+03 1.757288932800292969e+01 -9.903388977050781250e+00 2.789036750793457031e+00 1.079135179519653320e+00 1.160451531410217285e+00 6.376169204711914062e+00
2.187000000000000000e+03 1.182578563690185547e+01 -1.196958351135253906e+01 1.058862328529357910e+00 4.216456413269042969e+00 1.582595586776733398e+00 2.799868106842041016e+00
2.188000000000000000e+03 8.549056053161621094e+00 -1.411119270324707031e+01 1.564844250679016113e+00 4.949796199798583984e+00 1.954392194747924805e+00 1.074911713600158691e+00
2.189000000000000000e+03 4.418373107910156250e+01 -5.691784381866455078e+00 -1.973774582147598267e-01 5.560698509216308594e+00 1.608996391296386719e+00 -1.689922809600830078e+00
2.190000000000000000e+03 7.341637420654296875e+01 -1.877651023864746094e+01 -1.013392448425292969e+00 6.928344249725341797e+00 1.774485468864440918e+00 -3.602835834026336670e-01
2.191000000000000000e+03 6.956291961669921875e+01 -1.613255691528320312e+01 -3.371353074908256531e-02 3.900549411773681641e+00 1.160050749778747559e+00 -4.347430765628814697e-01
2.192000000000000000e+03 4.257913208007812500e+01 -4.868437767028808594e+00 -1.528727114200592041e-01 5.582736968994140625e+00 1.628959298133850098e+00 -1.762679338455200195e+00
2.193000000000000000e+03 1.224105739593505859e+01 -6.510085105895996094e+00 5.962097644805908203e-01 7.012842893600463867e-01 3.892482221126556396e-01 1.030726671218872070e+00
2.194000000000000000e+03 4.843738937377929688e+01 -2.170433235168457031e+01 1.885481595993041992e+00 6.254957199096679688e+00 2.442131757736206055e+00 -1.834595561027526855e+00
2.195000000000000000e+03 4.992535781860351562e+01 -2.700673866271972656e+01 1.915390133857727051e+00 6.044174194335937500e+00 2.387869358062744141e+00 -2.397474527359008789e+00
2.196000000000000000e+03 5.113494873046875000e+01 -2.898485946655273438e+01 1.821858286857604980e+00 5.963649749755859375e+00 2.335652351379394531e+00 -2.051336050033569336e+00
2.197000000000000000e+03 4.067407608032226562e+01 -3.540413677692413330e-01 3.460064828395843506e-01 6.019516468048095703e+00 1.909656882286071777e+00 -1.477482318878173828e+00
2.198000000000000000e+03 1.586628913879394531e+01 -1.025271129608154297e+01 2.104835271835327148e+00 8.863802552223205566e-01 8.973646163940429688e-01 5.552083969116210938e+00
2.199000000000000000e+03 3.239442825317382812e+01 -1.078708553314208984e+01 3.578624501824378967e-02 1.941449761390686035e+00 5.931708216667175293e-01 -1.753349184989929199e+00
2.200000000000000000e+03 4.639081478118896484e+00 6.425509452819824219e+00 -1.942131109535694122e-02 -3.601467013359069824e-01 -1.138703972101211548e-01 4.231966435909271240e-01
2.201000000000000000e+03 3.636542558670043945e+00 6.369789123535156250e+00 -1.782162673771381378e-02 -3.757658004760742188e-01 -1.180762276053428650e-01 3.604338467121124268e-01
2.202000000000000000e+03 1.277906799316406250e+01 4.719749927520751953e+00 4.943240806460380554e-02 -1.654452532529830933e-01 -3.480385243892669678e-02 3.274854719638824463e-01
2.203000000000000000e+03 1.130370616912841797e+01 5.172982215881347656e+00 2.911477908492088318e-02 -2.858373522758483887e-01 -7.701677083969116211e-02 4.412100613117218018e-01
2.204000000000000000e+03 6.290504455566406250e+01 -1.732285881042480469e+01 -2.648318409919738770e-01 1.636660575866699219e+00 4.115486443042755127e-01 1.535662889480590820e+00
2.205000000000000000e+03 4.141757202148437500e+01 -5.170613288879394531e+00 -1.381059437990188599e-01 5.487521171569824219e+00 1.604824542999267578e+00 -1.765606164932250977e+00
2.206000000000000000e+03 2.424315071105957031e+01 -1.062589836120605469e+01 -1.300597749650478363e-02 7.141743302345275879e-01 2.103505134582519531e-01 -1.375625014305114746e+00
2.207000000000000000e+03 2.641046714782714844e+01 -1.222495555877685547e+01 -2.138683080673217773e+00 6.613279581069946289e-01 -4.432065486907958984e-01 -1.012704849243164062e+00
2.208000000000000000e+03 1.433423519134521484e+01 -9.976384162902832031e+00 1.717095971107482910e+00 1.688917636871337891e+00 1.021804094314575195e+00 4.268915176391601562e+00
2.209000000000000000e+03 4.122690963745117188e+01 -1.370570755004882812e+01 -1.016073584556579590e+00 6.804367542266845703e+00 1.736488223075866699e+00 -2.395064115524291992e+00
2.210000000000000000e+03 4.351145553588867188e+01 -1.446056938171386719e+01 -1.174487948417663574e+00 7.710725784301757812e+00 1.960871338844299316e+00 -1.627682685852050781e+00
2.211000000000000000e+03 4.001677322387695312e+01 5.397260785102844238e-01 4.690779745578765869e-01 6.091271877288818359e+00 1.968104958534240723e+00 -1.251316308975219727e+00
2.212000000000000000e+03 4.123881912231445312e+01 -1.363677740097045898e+00 2.643300592899322510e-01 5.801646709442138672e+00 1.819793105125427246e+00 -1.608452439308166504e+00
2.213000000000000000e+03 4.221631240844726562e+01 -8.514173626899719238e-01 2.922904789447784424e-01 5.932588577270507812e+00 1.867463827133178711e+00 -1.757213592529296875e+00
2.214000000000000000e+03 4.631651306152343750e+01 -2.180526542663574219e+01 2.624075412750244141e+00 7.978178024291992188e+00 3.180675983428955078e+00 -1.963323831558227539e+00
2.215000000000000000e+03 8.748163223266601562e+00 -8.572186470031738281e+00 1.224037259817123413e-02 1.946688532829284668e+00 5.876786708831787109e-01 2.046288549900054932e-01
2.216000000000000000e+03 4.678961944580078125e+01 -1.196653747558593750e+01 -1.072956442832946777e+00 6.024806499481201172e+00 1.485555052757263184e+00 -6.618289351463317871e-01
2.217000000000000000e+03 5.592644500732421875e+01 -2.154857635498046875e+01 9.696173071861267090e-01 1.431714773178100586e+00 7.203996181488037109e-01 5.399334430694580078e-01
2.218000000000000000e+03 9.833453178405761719e+00 2.940774726867675781e+01 -9.292908944189548492e-03 4.704526960849761963e-01 1.383479386568069458e-01 -2.379442155361175537e-01
2.219000000000000000e+03 9.037290573120117188e+00 3.320887756347656250e+01 -7.103805989027023315e-02 4.165029227733612061e-01 1.036394536495208740e-01 -2.078975588083267212e-01
2.220000000000000000e+03 7.480457305908203125e+01 -2.069634246826171875e+01 -7.262076735496520996e-01 7.635052204132080078e+00 2.072653532028198242e+00 4.074513614177703857e-01
2.221000000000000000e+03 7.468099212646484375e+01 1.486503601074218750e+01 -5.890423431992530823e-02 8.373226165771484375e+00 2.494296550750732422e+00 4.623269736766815186e-01
2.222000000000000000e+03 7.468317413330078125e+01 1.624317359924316406e+01 2.357658557593822479e-02 8.333988189697265625e+00 2.507269620895385742e+00 5.122489333152770996e-01
2.223000000000000000e+03 7.468281555175781250e+01 1.764385986328125000e+01 4.760976135730743408e-02 8.364274978637695312e+00 2.523565530776977539e+00 5.119114518165588379e-01
2.224000000000000000e+03 7.470050048828125000e+01 9.646999359130859375e+00 -1.461712270975112915e-01 8.428710937500000000e+00 2.484761953353881836e+00 7.240909934043884277e-01
2.225000000000000000e+03 7.451130676269531250e+01 -4.218834877014160156e+00 1.359309107065200806e-01 7.522190570831298828e+00 2.297436475753784180e+00 -3.718783259391784668e-01
2.226000000000000000e+03 7.350361633300781250e+01 3.618426799774169922e+00 6.297917962074279785e-01 9.500447273254394531e+00 3.039071798324584961e+00 5.461193919181823730e-01
2.227000000000000000e+03 7.355805206298828125e+01 2.283071994781494141e+00 7.195112705230712891e-01 9.291673660278320312e+00 3.003355741500854492e+00 4.398186504840850830e-01
2.228000000000000000e+03 7.354029083251953125e+01 1.075506687164306641e+01 -3.012548387050628662e-01 9.033399581909179688e+00 2.619643449783325195e+00 6.180365681648254395e-01
2.229000000000000000e+03 7.444010925292968750e+01 -1.599298381805419922e+01 -5.182281732559204102e-01 6.721912384033203125e+00 1.861105203628540039e+00 -4.859719574451446533e-01
2.230000000000000000e+03 7.327637481689453125e+01 -1.752791595458984375e+01 -8.564202189445495605e-01 6.548582077026367188e+00 1.707648515701293945e+00 -5.797709822654724121e-01
2.231000000000000000e+03 7.438945770263671875e+01 -7.422699928283691406e+00 -2.381788333877921104e-03 7.019133567810058594e+00 2.105025529861450195e+00 -4.707190096378326416e-01
2.232000000000000000e+03 7.559340667724609375e+01 6.736744403839111328e+00 1.707658916711807251e-01 7.923492908477783203e+00 2.428277492523193359e+00 7.045243382453918457e-01
2.233000000000000000e+03 7.103607177734375000e+01 -1.506404018402099609e+01 -1.564439088106155396e-01 5.038528919219970703e+00 1.464625477790832520e+00 -4.830545186996459961e-01
2.234000000000000000e+03 7.452455902099609375e+01 -1.729836845397949219e+01 -6.508725881576538086e-01 6.953350543975830078e+00 1.890743374824523926e+00 -3.059626221656799316e-01
2.235000000000000000e+03 7.581220245361328125e+01 2.063077735900878906e+01 9.569099545478820801e-02 8.269936561584472656e+00 2.509688377380371094e+00 5.514217615127563477e-01
2.236000000000000000e+03 8.782898902893066406e+00 2.007999038696289062e+01 1.830938160419464111e-01 9.371813386678695679e-02 8.304358273744583130e-02 -7.910865545272827148e-02
2.237000000000000000e+03 8.435832023620605469e+00 2.489507865905761719e+01 9.049410372972488403e-02 1.278178989887237549e-01 6.549359858036041260e-02 -1.809323132038116455e-01
2.238000000000000000e+03 6.904644012451171875e+01 -1.872384834289550781e+01 -4.341692030429840088e-01 2.400366544723510742e+00 5.898591876029968262e-01 -7.816190123558044434e-01
2.239000000000000000e+03 5.853976726531982422e+00 2.690902709960937500e+01 2.782617881894111633e-02 -2.934087812900543213e-01 -7.967478036880493164e-02 -1.488720476627349854e-01
2.240000000000000000e+03 6.339540004730224609e+00 2.556925773620605469e+01 4.440772905945777893e-02 -2.463715225458145142e-01 -6.058913841843605042e-02 -1.473347842693328857e-01
2.241000000000000000e+03 5.990397930145263672e+00 -9.900756835937500000e+00 -2.249664440751075745e-02 1.223798394203186035e+00 3.603905141353607178e-01 -7.119014859199523926e-01
2.242000000000000000e+03 4.220417404174804688e+01 -1.541306495666503906e+01 -1.006746888160705566e+00 8.057675361633300781e+00 2.115278720855712891e+00 -2.214246034622192383e+00
2.243000000000000000e+03 6.574839019775390625e+01 -1.732903480529785156e+01 8.421499282121658325e-02 1.771394133567810059e+00 5.566827654838562012e-01 8.739441037178039551e-01
2.244000000000000000e+03 6.734535217285156250e+01 -1.794599151611328125e+01 -8.261022716760635376e-02 1.859744548797607422e+00 5.331403017044067383e-01 2.036109864711761475e-01
2.245000000000000000e+03 6.791424751281738281e+00 1.686215972900390625e+01 1.611128747463226318e-01 -3.128239810466766357e-01 -4.551333561539649963e-02 8.040051907300949097e-02
2.246000000000000000e+03 7.610543251037597656e+00 1.850734710693359375e+01 1.877582073211669922e-01 -1.437263041734695435e-01 1.320957113057374954e-02 4.555417690426111221e-04
2.247000000000000000e+03 5.614094734191894531e+00 -8.693389892578125000e+00 -1.338181048631668091e-01 7.224283814430236816e-01 1.765830814838409424e-01 -8.115114569664001465e-01
2.248000000000000000e+03 4.671700954437255859e+00 -8.939884185791015625e+00 -1.021312400698661804e-01 2.683723866939544678e-01 4.987234249711036682e-02 -9.203709959983825684e-01
2.249000000000000000e+03 4.009915161132812500e+01 -8.194413185119628906e+00 -4.984841346740722656e-01 5.358126640319824219e+00 1.457892775535583496e+00 -2.012166261672973633e+00
2.250000000000000000e+03 3.589319229125976562e+01 -1.299562549591064453e+01 -2.988585531711578369e-01 2.939667940139770508e+00 7.922428250312805176e-01 -2.497135400772094727e+00
2.251000000000000000e+03 5.222914218902587891e+00 -2.204478836059570312e+01 1.636835575103759766e+00 3.953686952590942383e+00 1.677156805992126465e+00 2.552014589309692383e+00
2.252000000000000000e+03 7.879786491394042969e+00 1.503598403930664062e+01 2.494105100631713867e-01 -1.762130856513977051e-01 2.195922844111919403e-02 1.350182890892028809e-01
2.253000000000000000e+03 6.052957057952880859e+00 2.003286933898925781e+01 1.082563027739524841e-01 -3.806207478046417236e-01 -8.170933276414871216e-02 -2.665269002318382263e-02
2.254000000000000000e+03 3.414635181427001953e+00 -5.645254611968994141e+00 -1.685849428176879883e-01 -3.193574845790863037e-01 -1.463827341794967651e-01 -7.471626400947570801e-01
2.255000000000000000e+03 5.944182872772216797e+00 -1.602678680419921875e+01 1.399866819381713867e+00 3.160184621810913086e+00 1.368015408515930176e+00 2.999578416347503662e-01
2.256000000000000000e+03 8.427353858947753906e+00 2.875639533996582031e+01 9.051773697137832642e-03 1.866167336702346802e-01 5.870055407285690308e-02 -2.127546221017837524e-01
2.257000000000000000e+03 7.160717964172363281e+00 2.860799980163574219e+01 1.112901046872138977e-02 -5.503357853740453720e-03 1.687695854343473911e-03 -2.006980329751968384e-01
2.258000000000000000e+03 7.812876701354980469e+00 7.683598041534423828e+00 1.349745839834213257e-01 -3.187427818775177002e-01 -5.513046309351921082e-02 4.678347408771514893e-01
2.259000000000000000e+03 6.821549415588378906e+00 8.178591728210449219e+00 1.189999207854270935e-01 -3.570469021797180176e-01 -7.141409814357757568e-02 4.521263837814331055e-01
2.260000000000000000e+03 3.849757385253906250e+01 6.280089378356933594e+00 1.304696202278137207e+00 7.202896595001220703e+00 2.552277803421020508e+00 -4.799888134002685547e-01
2.261000000000000000e+03 4.818313980102539062e+01 -2.008901596069335938e+01 1.286944150924682617e+00 6.285872936248779297e+00 2.271845102310180664e+00 -1.368043780326843262e+00
2.262000000000000000e+03 6.479718208312988281e+00 1.317002677917480469e+01 1.898248791694641113e-01 -3.841507434844970703e-01 -5.829775705933570862e-02 2.332934588193893433e-01
2.263000000000000000e+03 5.216502189636230469e+00 -1.312007999420166016e+01 4.164888262748718262e-01 1.388671159744262695e+00 5.415480136871337891e-01 -6.306808590888977051e-01
2.264000000000000000e+03 7.506005287170410156e+00 -1.371506118774414062e+01 9.725926518440246582e-01 3.860856771469116211e+00 1.450034856796264648e+00 2.767939865589141846e-01
2.265000000000000000e+03 5.941052436828613281e+00 -6.362124919891357422e+00 -2.996225357055664062e-01 4.986093342304229736e-01 5.969603732228279114e-02 -7.105731368064880371e-01
2.266000000000000000e+03 5.965883255004882812e+00 9.711800575256347656e+00 1.335891783237457275e-01 -4.164600968360900879e-01 -8.486127853393554688e-02 3.829042315483093262e-01
2.267000000000000000e+03 6.403569221496582031e+00 -1.332209014892578125e+01 6.479314565658569336e-01 2.556145906448364258e+00 9.612232446670532227e-01 -2.989841401576995850e-01
2.268000000000000000e+03 7.558047771453857422e+00 -1.591500759124755859e+01 1.925888061523437500e+00 5.006644725799560547e+00 2.079759836196899414e+00 1.086979627609252930e+00
2.269000000000000000e+03 3.776328277587890625e+01 9.269913673400878906e+00 1.751666426658630371e+00 7.388524532318115234e+00 2.742057323455810547e+00 -3.018405437469482422e-01
2.270000000000000000e+03 4.777874374389648438e+01 -2.618101882934570312e+01 2.166964530944824219e+00 6.926674842834472656e+00 2.728091955184936523e+00 -2.556514739990234375e+00
2.271000000000000000e+03 7.468931579589843750e+01 1.123680114746093750e+00 5.598387122154235840e-01 8.179780006408691406e+00 2.621885538101196289e+00 1.291963905096054077e-01
2.272000000000000000e+03 3.725699996948242188e+01 3.584573984146118164e+00 9.894564747810363770e-01 6.174581527709960938e+00 2.149211406707763672e+00 -3.729239106178283691e-01
2.273000000000000000e+03 3.819023895263671875e+01 2.341530561447143555e+00 7.583659291267395020e-01 6.126784801483154297e+00 2.065545082092285156e+00 -7.172502875328063965e-01
2.274000000000000000e+03 4.583890533447265625e+01 -1.501771831512451172e+01 -1.014015197753906250e+00 7.279906749725341797e+00 1.879767417907714844e+00 -8.962927460670471191e-01
2.275000000000000000e+03 9.040565490722656250e+00 -1.569805049896240234e+01 2.672420978546142578e+00 6.462356567382812500e+00 2.740433216094970703e+00 2.196356296539306641e+00
2.276000000000000000e+03 6.962654876708984375e+01 -1.206984329223632812e+01 3.474628329277038574e-01 4.958360671997070312e+00 1.591747045516967773e+00 3.149841427803039551e-01
2.277000000000000000e+03 6.858860015869140625e+01 -1.460636711120605469e+01 3.318158686161041260e-01 3.730353116989135742e+00 1.218650698661804199e+00 9.862901270389556885e-02
2.278000000000000000e+03 7.297145080566406250e+01 3.387284851074218750e+01 -5.321437120437622070e-01 6.945083141326904297e+00 1.923881888389587402e+00 2.669746279716491699e-01
2.279000000000000000e+03 3.561013412475585938e+01 1.178319358825683594e+01 1.711501359939575195e+00 6.434448719024658203e+00 2.443784952163696289e+00 -2.373761683702468872e-01
2.280000000000000000e+03 3.606591033935546875e+01 1.040474033355712891e+01 1.739434242248535156e+00 6.593932628631591797e+00 2.500010013580322266e+00 -1.694110333919525146e-01
2.281000000000000000e+03 4.463081359863281250e+01 -1.885174560546875000e+01 1.037735581398010254e+00 8.979076385498046875e+00 3.005043506622314453e+00 -1.320471048355102539e+00
2.282000000000000000e+03 4.702692794799804688e+01 -1.550276470184326172e+01 -9.464214444160461426e-01 6.693811893463134766e+00 1.724217057228088379e+00 -5.806393623352050781e-01
2.283000000000000000e+03 7.186007690429687500e+01 -8.435924530029296875e+00 9.437125176191329956e-02 6.755397319793701172e+00 2.054930686950683594e+00 1.014196872711181641e-01
2.284000000000000000e+03 7.112786865234375000e+01 -9.716719627380371094e+00 1.488623768091201782e-01 6.246286869049072266e+00 1.918544769287109375e+00 2.031715661287307739e-01
2.285000000000000000e+03 7.029187011718750000e+01 -1.087130355834960938e+01 2.648940980434417725e-01 5.552122592926025391e+00 1.745105028152465820e+00 3.234963417053222656e-01
2.286000000000000000e+03 5.064480209350585938e+01 -2.806081962585449219e+01 2.020734071731567383e+00 5.980737686157226562e+00 2.400441408157348633e+00 -2.420320272445678711e+00
2.287000000000000000e+03 4.617510986328125000e+01 -1.803717994689941406e+01 3.383012712001800537e-01 7.680434703826904297e+00 2.405620813369750977e+00 -9.259644746780395508e-01
2.288000000000000000e+03 5.293066787719726562e+01 -2.297845649719238281e+01 1.456414341926574707e+00 3.531839370727539062e+00 1.496476054191589355e+00 -9.894297719001770020e-01
2.289000000000000000e+03 3.749106216430664062e+01 2.249841308593750000e+01 5.691284537315368652e-01 6.340225219726562500e+00 2.072806119918823242e+00 -3.492780029773712158e-02
2.290000000000000000e+03 3.619505691528320312e+01 1.998058700561523438e+01 8.387186527252197266e-01 6.278166770935058594e+00 2.135065555572509766e+00 -2.014970332384109497e-01
2.291000000000000000e+03 7.177011108398437500e+01 -1.276149368286132812e+01 -2.847021818161010742e-02 5.705166339874267578e+00 1.703008890151977539e+00 -2.990443706512451172e-01
2.292000000000000000e+03 3.689010620117187500e+01 -1.367581748962402344e+01 -2.725663781166076660e-01 3.501977443695068359e+00 9.688233733177185059e-01 -2.786837577819824219e+00
2.293000000000000000e+03 3.883384704589843750e+01 2.510814476013183594e+01 2.063874006271362305e-01 6.034951210021972656e+00 1.872401475906372070e+00 1.759227514266967773e-01
2.294000000000000000e+03 3.984228897094726562e+01 2.402466201782226562e+01 4.242894947528839111e-01 6.441765308380126953e+00 2.059816360473632812e+00 4.856105744838714600e-01
2.295000000000000000e+03 4.297632598876953125e+01 -6.161526203155517578e+00 -3.143589794635772705e-01 5.608978271484375000e+00 1.588385820388793945e+00 -1.727932810783386230e+00
2.296000000000000000e+03 4.347417449951171875e+01 -7.460144519805908203e+00 -5.059508085250854492e-01 5.735083103179931641e+00 1.568739652633666992e+00 -1.669799566268920898e+00
2.297000000000000000e+03 7.023406219482421875e+01 -1.363228130340576172e+01 1.284131407737731934e-01 4.861925125122070312e+00 1.497101426124572754e+00 -1.216229945421218872e-01
2.298000000000000000e+03 4.228142547607421875e+01 2.837335205078125000e+01 -7.500635832548141479e-02 5.294282913208007812e+00 1.565783023834228516e+00 6.999192237854003906e-01
2.299000000000000000e+03 5.333053207397460938e+01 -2.186298942565917969e+01 1.111553192138671875e+00 2.900291681289672852e+00 1.203553438186645508e+00 -7.304267287254333496e-01
2.300000000000000000e+03 1.941787528991699219e+01 -3.983266830444335938e+01 -9.207537174224853516e-01 -6.339408159255981445e-01 -4.664083719253540039e-01 2.381913810968399048e-01
2.301000000000000000e+03 3.551569747924804688e+01 2.276460075378417969e+01 5.024604201316833496e-01 5.750009059906005859e+00 1.875740766525268555e+00 -3.222239911556243896e-01
2.302000000000000000e+03 3.203375625610351562e+01 -4.109880447387695312e+01 -1.151488184928894043e+00 -5.998048186302185059e-02 -3.634405732154846191e-01 -5.548331141471862793e-02
2.303000000000000000e+03 4.160920333862304688e+01 3.170709800720214844e+01 -6.349206566810607910e-01 4.859172344207763672e+00 1.267275571823120117e+00 3.433077633380889893e-01
2.304000000000000000e+03 4.788160705566406250e+01 -3.467479705810546875e+01 -9.263803958892822266e-01 6.603765964508056641e+00 1.703215718269348145e+00 -8.324353098869323730e-01
2.305000000000000000e+03 5.141830062866210938e+01 -1.900233459472656250e+01 -7.287668436765670776e-02 3.422242164611816406e+00 1.004809617996215820e+00 -1.021202325820922852e+00
2.306000000000000000e+03 5.436621093750000000e+01 -2.126178359985351562e+01 9.758786559104919434e-01 2.036987543106079102e+00 9.038598537445068359e-01 -2.410198301076889038e-01
2.307000000000000000e+03 5.529460525512695312e+01 -2.073435974121093750e+01 6.363428831100463867e-01 1.358228683471679688e+00 5.983714461326599121e-01 1.736198514699935913e-01
2.308000000000000000e+03 2.123112869262695312e+01 -4.378188133239746094e+00 5.917028188705444336e-01 7.543528556823730469e+00 2.440569400787353516e+00 3.230731487274169922e+00
2.309000000000000000e+03 2.006762886047363281e+01 -3.556122303009033203e+00 -1.001900672912597656e+00 4.767016887664794922e+00 1.129534840583801270e+00 3.109832406044006348e-01
2.310000000000000000e+03 2.023418807983398438e+01 -3.304147720336914062e+00 -8.999931216239929199e-01 4.931461334228515625e+00 1.209440469741821289e+00 4.799510836601257324e-01
2.311000000000000000e+03 2.031510543823242188e+01 -3.589906692504882812e+00 -8.958442211151123047e-01 5.388737678527832031e+00 1.347868084907531738e+00 6.715040802955627441e-01
2.312000000000000000e+03 2.147519493103027344e+01 -4.308445930480957031e+00 8.536720871925354004e-01 7.146088600158691406e+00 2.399928092956542969e+00 3.432371377944946289e+00
2.313000000000000000e+03 2.225588417053222656e+01 -5.226623535156250000e+00 4.763593673706054688e+00 5.578736782073974609e+00 3.102699041366577148e+00 4.966754913330078125e+00
2.314000000000000000e+03 2.214082908630371094e+01 -4.454535961151123047e+00 2.268234491348266602e+00 6.112314701080322266e+00 2.514164686203002930e+00 4.076289176940917969e+00
2.315000000000000000e+03 2.282143592834472656e+01 -7.084543228149414062e+00 8.091953277587890625e+00 2.355013847351074219e+00 3.134090185165405273e+00 1.800558209419250488e+00
2.316000000000000000e+03 2.283657836914062500e+01 -6.733227252960205078e+00 8.057603836059570312e+00 2.548043012619018555e+00 3.181694269180297852e+00 2.552674055099487305e+00
2.317000000000000000e+03 2.265396690368652344e+01 -9.391643524169921875e+00 3.212779045104980469e+00 2.149351835250854492e+00 1.608639359474182129e+00 -7.022116184234619141e-01
2.318000000000000000e+03 1.780265426635742188e+01 -8.117606163024902344e+00 7.352280616760253906e+00 -1.429172605276107788e-02 2.201396703720092773e+00 5.597918033599853516e+00
2.319000000000000000e+03 2.065546798706054688e+01 -9.240274429321289062e+00 3.160103321075439453e+00 5.522974491119384766e+00 2.604923248291015625e+00 2.137018918991088867e+00
2.320000000000000000e+03 2.205981636047363281e+01 -8.570664405822753906e+00 5.820996761322021484e+00 3.815556287765502930e+00 2.890965938568115234e+00 -2.705153226852416992e-01
2.321000000000000000e+03 2.170134162902832031e+01 -8.626721382141113281e+00 5.613711357116699219e+00 4.577633380889892578e+00 3.057403326034545898e+00 -1.729158759117126465e-01
2.322000000000000000e+03 2.293211364746093750e+01 -9.875074386596679688e+00 1.853837251663208008e+00 1.557014226913452148e+00 1.023255467414855957e+00 -9.249006509780883789e-01
2.323000000000000000e+03 1.848579788208007812e+01 -9.477036476135253906e+00 3.697529554367065430e+00 2.152544975280761719e+00 1.755022406578063965e+00 6.499381065368652344e+00
2.324000000000000000e+03 2.169289588928222656e+01 -9.005771636962890625e+00 4.260209083557128906e+00 4.255988121032714844e+00 2.554859161376953125e+00 -7.474141567945480347e-02
2.325000000000000000e+03 1.622859954833984375e+01 -9.852244377136230469e+00 2.720564842224121094e+00 6.589407920837402344e-01 1.013851761817932129e+00 5.646425724029541016e+00
2.326000000000000000e+03 2.203089332580566406e+01 -9.243645668029785156e+00 3.754774093627929688e+00 3.456916093826293945e+00 2.163506984710693359e+00 -2.405618131160736084e-01
2.327000000000000000e+03 2.002224922180175781e+01 -9.681997299194335938e+00 1.813677191734313965e+00 4.399723529815673828e+00 1.864020228385925293e+00 3.802587270736694336e+00
2.328000000000000000e+03 2.084442710876464844e+01 -9.727697372436523438e+00 1.759535908699035645e+00 4.159640789031982422e+00 1.775753021240234375e+00 1.666543364524841309e+00
2.329000000000000000e+03 1.997299003601074219e+01 -1.017004203796386719e+01 1.069993495941162109e+00 3.802500009536743164e+00 1.461748003959655762e+00 3.689398527145385742e+00
2.330000000000000000e+03 1.972637367248535156e+01 -2.137814283370971680e+00 -8.474022150039672852e-01 3.151308298110961914e+00 6.911718249320983887e-01 4.807028546929359436e-02
2.331000000000000000e+03 1.731907653808593750e+01 -7.732670783996582031e+00 7.005801200866699219e+00 -1.072469830513000488e+00 1.779999375343322754e+00 4.136852741241455078e+00
2.332000000000000000e+03 1.239542770385742188e+01 -6.137148857116699219e+00 5.446811318397521973e-01 5.742136836051940918e-01 3.356684446334838867e-01 9.341236352920532227e-01
2.333000000000000000e+03 1.921569252014160156e+01 7.525157332420349121e-01 -4.307459592819213867e-01 2.067674160003662109e+00 4.910784363746643066e-01 -7.441105693578720093e-02
2.334000000000000000e+03 1.982491111755371094e+01 -1.059431672096252441e+00 -6.866645812988281250e-01 2.894525527954101562e+00 6.623582839965820312e-01 6.378617882728576660e-02
2.335000000000000000e+03 1.255938243865966797e+01 -6.797071456909179688e+00 8.574011325836181641e-01 6.795945763587951660e-01 4.610987305641174316e-01 1.263959169387817383e+00
2.336000000000000000e+03 1.051314449310302734e+01 -5.872228622436523438e+00 -9.409163147211074829e-02 8.954707980155944824e-01 2.404137551784515381e-01 3.618792593479156494e-01
2.337000000000000000e+03 7.680625915527343750e+00 -8.698157310485839844e+00 -7.033763080835342407e-02 1.760027408599853516e+00 5.069069266319274902e-01 -2.028627991676330566e-01
2.338000000000000000e+03 5.535437107086181641e+00 6.479250431060791016e+00 -8.053705096244812012e-04 -3.537173569202423096e-01 -1.063568145036697388e-01 4.693732559680938721e-01
2.339000000000000000e+03 1.154286766052246094e+01 -6.378721237182617188e+00 3.422271907329559326e-01 8.445726037025451660e-01 3.560399413108825684e-01 8.142735958099365234e-01
2.340000000000000000e+03 1.199614143371582031e+01 -5.973158359527587891e+00 3.478513956069946289e-01 6.271453499794006348e-01 2.924990355968475342e-01 7.879159450531005859e-01
2.341000000000000000e+03 1.192753696441650391e+01 -6.379156112670898438e+00 4.572927951812744141e-01 7.215863466262817383e-01 3.536637425422668457e-01 8.816865086555480957e-01
2.342000000000000000e+03 1.860526084899902344e+01 1.798062801361083984e+00 -2.639631927013397217e-01 1.587943196296691895e+00 3.971939980983734131e-01 -1.021461337804794312e-01
2.343000000000000000e+03 7.414817333221435547e+00 6.819494247436523438e+00 5.515926703810691833e-02 -3.350270092487335205e-01 -8.396032452583312988e-02 5.026497244834899902e-01
2.344000000000000000e+03 9.296545028686523438e+00 -5.829354763031005859e+00 -2.763939499855041504e-01 9.646812081336975098e-01 2.064861804246902466e-01 3.940613195300102234e-02
2.345000000000000000e+03 6.951026916503906250e+00 -9.343358039855957031e+00 -4.634606465697288513e-02 1.630675673484802246e+00 4.752988815307617188e-01 -4.777918159961700439e-01
2.346000000000000000e+03 8.051615715026855469e+00 6.534440517425537109e+00 7.025382667779922485e-02 -3.193075060844421387e-01 -7.471609860658645630e-02 5.176700353622436523e-01
2.347000000000000000e+03 6.677113533020019531e+00 -6.163246154785156250e+00 -3.373505473136901855e-01 6.658332347869873047e-01 9.854480624198913574e-02 -6.032426357269287109e-01
2.348000000000000000e+03 7.557405471801757812e+00 -6.685057640075683594e+00 -2.847816348075866699e-01 1.033219695091247559e+00 2.245314121246337891e-01 -4.024105370044708252e-01
2.349000000000000000e+03 6.935344219207763672e+00 -7.034307003021240234e+00 -2.656609714031219482e-01 9.403772950172424316e-01 2.024148851633071899e-01 -5.383791923522949219e-01
2.350000000000000000e+03 9.335731506347656250e+00 5.923135280609130859e+00 4.500906914472579956e-02 -3.160992562770843506e-01 -8.132705837488174438e-02 5.164363384246826172e-01
2.351000000000000000e+03 8.291472434997558594e+00 8.639900207519531250e+00 1.991203427314758301e-01 -2.739492654800415039e-01 -2.244867384433746338e-02 4.213478863239288330e-01
2.352000000000000000e+03 9.918392181396484375e+00 -5.861919403076171875e+00 -1.926709711551666260e-01 9.457917213439941406e-01 2.259362339973449707e-01 2.233706563711166382e-01
2.353000000000000000e+03 2.240103912353515625e+01 -1.009844589233398438e+01 1.301436662673950195e+00 1.909615516662597656e+00 9.633156657218933105e-01 -5.126107335090637207e-01
2.354000000000000000e+03 1.659979248046875000e+01 2.384737014770507812e+00 -2.099910974502563477e-01 5.715715885162353516e-01 1.084741577506065369e-01 -1.076654158532619476e-02
2.355000000000000000e+03 1.742682456970214844e+01 2.918965816497802734e+00 -1.041979864239692688e-01 1.007708191871643066e+00 2.710530459880828857e-01 -8.888737857341766357e-02
2.356000000000000000e+03 2.530429077148437500e+01 -1.056180572509765625e+01 1.996831297874450684e-01 6.300694942474365234e-01 2.489257901906967163e-01 -1.418451189994812012e+00
2.357000000000000000e+03 1.919802665710449219e+01 -9.457955360412597656e+00 3.039009571075439453e+00 3.460956335067749023e+00 1.949989795684814453e+00 5.510388374328613281e+00
2.358000000000000000e+03 1.612915039062500000e+01 4.939321041107177734e+00 1.790170520544052124e-01 6.561501026153564453e-01 2.505501508712768555e-01 -1.468263566493988037e-02
2.359000000000000000e+03 1.857283401489257812e+01 2.411982536315917969e+00 -1.575327962636947632e-01 1.566307425498962402e+00 4.226323962211608887e-01 -9.770811349153518677e-02
2.360000000000000000e+03 1.799357986450195312e+01 2.578470468521118164e+00 -1.373471766710281372e-01 1.292591214179992676e+00 3.465732336044311523e-01 -1.056205332279205322e-01
2.361000000000000000e+03 2.629543113708496094e+01 -1.025251483917236328e+01 6.378983855247497559e-01 6.282786726951599121e-01 3.798531293869018555e-01 -1.367862343788146973e+00
2.362000000000000000e+03 2.807930564880371094e+01 -1.083631896972656250e+01 -7.928303629159927368e-02 8.775314092636108398e-01 2.394745051860809326e-01 -1.392603278160095215e+00
2.363000000000000000e+03 3.038672447204589844e+01 -1.165781021118164062e+01 -5.532656311988830566e-01 1.284790039062500000e+00 2.194573134183883667e-01 -1.386406898498535156e+00
2.364000000000000000e+03 1.578793907165527344e+01 -8.770939826965332031e+00 3.814080476760864258e+00 -1.304517686367034912e-01 1.105088591575622559e+00 4.449454307556152344e+00
2.365000000000000000e+03 7.187464237213134766e+00 1.412324523925781250e+01 2.101486772298812866e-01 -2.987706363201141357e-01 -2.658659219741821289e-02 1.919553130865097046e-01
2.366000000000000000e+03 1.580982398986816406e+01 4.290257930755615234e+00 8.827912062406539917e-02 4.968865513801574707e-01 1.755497008562088013e-01 2.747807092964649200e-02
2.367000000000000000e+03 1.551442527770996094e+01 3.599192619323730469e+00 -2.453592792153358459e-02 3.250183761119842529e-01 9.014473110437393188e-02 6.788264214992523193e-02
2.368000000000000000e+03 1.714367294311523438e+01 -9.384333610534667969e+00 4.099518775939941406e+00 5.192486047744750977e-01 1.385630249977111816e+00 6.062976837158203125e+00
2.369000000000000000e+03 1.526527214050292969e+01 4.649384975433349609e+00 1.297733783721923828e-01 3.571592867374420166e-01 1.460797935724258423e-01 6.748573482036590576e-02
2.370000000000000000e+03 1.432785129547119141e+01 4.407492637634277344e+00 6.365141272544860840e-02 8.813253790140151978e-02 4.553518444299697876e-02 1.729126423597335815e-01
2.371000000000000000e+03 1.340128040313720703e+01 -1.003430461883544922e+01 1.342271447181701660e+00 2.279207706451416016e+00 1.086443662643432617e+00 3.580513238906860352e+00
2.372000000000000000e+03 1.553583431243896484e+01 -9.217621803283691406e+00 2.993459939956665039e+00 3.687836825847625732e-01 1.008673071861267090e+00 4.803603649139404297e+00
2.373000000000000000e+03 7.469457244873046875e+01 2.420400857925415039e+00 5.416422486305236816e-01 8.272901535034179688e+00 2.644363164901733398e+00 2.867732942104339600e-01
2.374000000000000000e+03 2.802968597412109375e+01 -9.894799232482910156e+00 7.670446634292602539e-01 8.831023573875427246e-01 4.950441122055053711e-01 -1.332587122917175293e+00
2.375000000000000000e+03 2.679545402526855469e+01 -1.131911563873291016e+01 -7.869934439659118652e-01 7.062488198280334473e-01 -2.422338351607322693e-02 -1.330474495887756348e+00
2.376000000000000000e+03 8.456542015075683594e+00 7.067540645599365234e+00 1.220630034804344177e-01 -2.925013899803161621e-01 -5.113152042031288147e-02 4.880525171756744385e-01
2.377000000000000000e+03 1.320509719848632812e+01 5.412866592407226562e+00 1.576198935508728027e-01 -2.414285205304622650e-02 4.004311561584472656e-02 2.531130611896514893e-01
2.378000000000000000e+03 4.174705123901367188e+01 -2.454013586044311523e+00 1.345340758562088013e-01 5.711432933807373047e+00 1.753790140151977539e+00 -1.691201806068420410e+00
2.379000000000000000e+03 4.167628479003906250e+01 -6.603264331817626953e+00 -3.931790888309478760e-01 5.581019878387451172e+00 1.556352257728576660e+00 -1.804889917373657227e+00
2.380000000000000000e+03 4.583573913574218750e+01 -1.226905059814453125e+01 -1.129991769790649414e+00 6.407804965972900391e+00 1.583343982696533203e+00 -8.868896365165710449e-01
2.381000000000000000e+03 4.463816833496093750e+01 -1.473859405517578125e+01 -9.867318868637084961e-01 7.472450733184814453e+00 1.945715665817260742e+00 -1.227410793304443359e+00
2.382000000000000000e+03 4.116355514526367188e+01 -3.933620691299438477e+00 -4.838634282350540161e-03 5.542941093444824219e+00 1.661430716514587402e+00 -1.680154323577880859e+00
2.383000000000000000e+03 1.225258159637451172e+01 -1.082574462890625000e+01 9.650785923004150391e-01 3.233807325363159180e+00 1.259665727615356445e+00 2.947219133377075195e+00
2.384000000000000000e+03 1.288343620300292969e+01 -1.048004436492919922e+01 1.143689393997192383e+00 2.670095443725585938e+00 1.144135475158691406e+00 3.304060459136962891e+00
2.385000000000000000e+03 3.398849868774414062e+01 -1.183046150207519531e+01 -1.961339414119720459e-01 2.299257516860961914e+00 6.309370994567871094e-01 -2.029353618621826172e+00
2.386000000000000000e+03 3.975710296630859375e+01 -9.044430255889892578e-01 3.876685500144958496e-01 5.729756355285644531e+00 1.835227489471435547e+00 -1.292972087860107422e+00
2.387000000000000000e+03 3.814776992797851562e+01 7.785971164703369141e+00 1.567609190940856934e+00 7.366275787353515625e+00 2.680165529251098633e+00 -3.810611069202423096e-01
2.388000000000000000e+03 3.730607604980468750e+01 4.819630146026611328e+00 1.144012212753295898e+00 6.372924327850341797e+00 2.255080938339233398e+00 -2.982759177684783936e-01
2.389000000000000000e+03 1.221954917907714844e+01 5.242604732513427734e+00 9.504107385873794556e-02 -1.818659454584121704e-01 -2.604746259748935699e-02 3.538926541805267334e-01
2.390000000000000000e+03 2.849738121032714844e+01 -1.015093326568603516e+01 5.936842560768127441e-01 1.023377895355224609e+00 4.851186275482177734e-01 -1.357375979423522949e+00
2.391000000000000000e+03 4.027832031250000000e+01 -1.835513234138488770e+00 2.448099851608276367e-01 5.684672832489013672e+00 1.778844952583312988e+00 -1.472532629966735840e+00
2.392000000000000000e+03 4.402215194702148438e+01 -8.804859161376953125e+00 -7.223997712135314941e-01 5.869256496429443359e+00 1.544057011604309082e+00 -1.516613721847534180e+00
2.393000000000000000e+03 4.235460662841796875e+01 -1.418701362609863281e+01 -9.497538805007934570e-01 7.394399642944335938e+00 1.933393716812133789e+00 -2.222913742065429688e+00
2.394000000000000000e+03 7.059157562255859375e+01 -1.771206092834472656e+01 -6.151505112648010254e-01 4.431002140045166016e+00 1.144755482673645020e+00 -9.893901348114013672e-01
2.395000000000000000e+03 9.863594055175781250e+00 6.507363796234130859e+00 1.346365511417388916e-01 -2.695096433162689209e-01 -4.046192392706871033e-02 4.668469429016113281e-01
2.396000000000000000e+03 1.038452911376953125e+01 5.654912471771240234e+00 6.857102364301681519e-02 -2.868843972682952881e-01 -6.549400836229324341e-02 4.786044657230377197e-01
2.397000000000000000e+03 1.146777153015136719e+01 -1.110689830780029297e+01 8.109050393104553223e-01 3.605260133743286133e+00 1.324849605560302734e+00 2.351733922958374023e+00
2.398000000000000000e+03 5.131196975708007812e+01 -2.169500160217285156e+01 1.402250647544860840e+00 4.159762859344482422e+00 1.668604135513305664e+00 -1.341945290565490723e+00
2.399000000000000000e+03 3.787423324584960938e+01 -1.442137145996093750e+01 -2.298814505338668823e-01 4.207111358642578125e+00 1.193168997764587402e+00 -3.215133905410766602e+00
2.400000000000000000e+03 3.555510711669921875e+01 -1.133089065551757812e+01 -1.546776294708251953e-01 3.132682561874389648e+00 8.934014439582824707e-01 -2.347649574279785156e+00
2.401000000000000000e+03 7.323406219482421875e+00 2.195375442504882812e+01 1.178505197167396545e-01 -1.202142536640167236e-01 -7.091183215379714966e-04 -9.771715104579925537e-02
2.402000000000000000e+03 7.295113372802734375e+01 -1.302182579040527344e+01 -1.069924086332321167e-01 6.084545612335205078e+00 1.793265938758850098e+00 -4.670737981796264648e-01
2.403000000000000000e+03 7.190050506591796875e+01 -1.055421257019042969e+01 6.417885422706604004e-02 6.199468612670898438e+00 1.879094243049621582e+00 -9.798664599657058716e-02
2.404000000000000000e+03 7.195050811767578125e+01 -1.776668930053710938e+01 -8.396149873733520508e-01 5.685515403747558594e+00 1.453770160675048828e+00 -8.995876312255859375e-01
2.405000000000000000e+03 1.033944416046142578e+01 -1.230587673187255859e+01 1.030149340629577637e+00 4.652478694915771484e+00 1.704788446426391602e+00 1.787530541419982910e+00
2.406000000000000000e+03 3.862559127807617188e+01 3.349665403366088867e+00 8.562101721763610840e-01 6.532140254974365234e+00 2.216505050659179688e+00 -7.376407980918884277e-01
2.407000000000000000e+03 3.538025665283203125e+01 2.141918945312500000e+01 6.512334942817687988e-01 5.839890956878662109e+00 1.947337388992309570e+00 -3.233712613582611084e-01
2.408000000000000000e+03 7.256145954132080078e+00 -7.910305500030517578e+00 -1.910396218299865723e-01 1.306699633598327637e+00 3.346979916095733643e-01 -4.506351351737976074e-01
2.409000000000000000e+03 6.296934127807617188e+00 -1.121084117889404297e+01 1.763570904731750488e-01 1.811365127563476562e+00 5.963166952133178711e-01 -5.836165547370910645e-01
2.410000000000000000e+03 8.122674942016601562e+00 1.726731681823730469e+01 2.181476652622222900e-01 -1.039211824536323547e-01 3.426794335246086121e-02 3.845078125596046448e-02
2.411000000000000000e+03 4.482782745361328125e+01 -1.345914649963378906e+01 -1.237718224525451660e+00 7.159583091735839844e+00 1.776559472084045410e+00 -1.204548835754394531e+00
2.412000000000000000e+03 4.539764404296875000e+01 -1.124944496154785156e+01 -1.116109132766723633e+00 6.268065929412841797e+00 1.545587062835693359e+00 -1.055148363113403320e+00
2.413000000000000000e+03 8.264476776123046875e+00 1.932444381713867188e+01 2.045170366764068604e-01 -2.937634475529193878e-02 5.254220962524414062e-02 -5.019573867321014404e-02
2.414000000000000000e+03 6.686502075195312500e+01 -1.574369716644287109e+01 4.235037565231323242e-01 2.536978960037231445e+00 8.881447911262512207e-01 5.461942553520202637e-01
2.415000000000000000e+03 6.694801330566406250e+01 -1.696452331542968750e+01 1.733024269342422485e-01 2.202189207077026367e+00 7.126474976539611816e-01 4.958193004131317139e-01
2.416000000000000000e+03 6.886637687683105469e+00 -1.214736557006835938e+01 3.956481516361236572e-01 2.553939819335937500e+00 8.848764300346374512e-01 -2.644281983375549316e-01
2.417000000000000000e+03 7.904775619506835938e+00 -1.261535549163818359e+01 6.895681023597717285e-01 3.533914089202880859e+00 1.267044663429260254e+00 2.427008301019668579e-01
2.418000000000000000e+03 4.859188461303710938e+01 -1.893657112121582031e+01 4.993701875209808350e-01 5.774180412292480469e+00 1.882065176963806152e+00 -1.009348988533020020e+00
2.419000000000000000e+03 4.850445175170898438e+01 -1.675958633422851562e+01 -7.111523151397705078e-01 5.920075893402099609e+00 1.562677025794982910e+00 -5.826475024223327637e-01
2.420000000000000000e+03 4.730671310424804688e+01 -2.391408920288085938e+01 2.604021787643432617e+00 7.094861984252929688e+00 2.909665107727050781e+00 -2.419081926345825195e+00
2.421000000000000000e+03 5.126540374755859375e+01 -2.638656044006347656e+01 1.974903106689453125e+00 5.549741744995117188e+00 2.257393598556518555e+00 -2.134797334671020508e+00
2.422000000000000000e+03 9.120446205139160156e+00 7.096900939941406250e+00 1.458880305290222168e-01 -2.753245532512664795e-01 -3.883095830678939819e-02 4.664831757545471191e-01
2.423000000000000000e+03 7.976522445678710938e+00 3.022572517395019531e+01 -2.409207634627819061e-02 1.317253410816192627e-01 3.228997811675071716e-02 -2.004086375236511230e-01
2.424000000000000000e+03 1.192447185516357422e+01 2.854268455505371094e+01 2.222174964845180511e-02 8.325113654136657715e-01 2.564199268817901611e-01 -2.715699672698974609e-01
2.425000000000000000e+03 4.736252975463867188e+01 -2.296896553039550781e+01 2.457430839538574219e+00 7.100639820098876953e+00 2.867421150207519531e+00 -2.181812524795532227e+00
2.426000000000000000e+03 7.244536399841308594e+00 -1.490038681030273438e+01 1.441085219383239746e+00 4.108872413635253906e+00 1.664987325668334961e+00 5.214287042617797852e-01
2.427000000000000000e+03 4.997765350341796875e+01 -1.907389831542968750e+01 2.922118902206420898e-01 4.756901741027832031e+00 1.514734148979187012e+00 -1.071226239204406738e+00
2.428000000000000000e+03 5.245487976074218750e+01 -2.093240928649902344e+01 9.624494314193725586e-01 2.987441301345825195e+00 1.184967279434204102e+00 -8.773623108863830566e-01
2.429000000000000000e+03 4.224797439575195312e+01 -7.989247798919677734e+00 -5.841727256774902344e-01 5.698416709899902344e+00 1.534273147583007812e+00 -1.784814834594726562e+00
2.430000000000000000e+03 7.446904659271240234e+00 1.228623867034912109e+01 2.387599647045135498e-01 -2.768263220787048340e-01 -1.141991000622510910e-02 2.659136652946472168e-01
2.431000000000000000e+03 3.389929199218750000e+01 1.872361183166503906e+01 9.956456422805786133e-01 5.645486831665039062e+00 1.992339730262756348e+00 -4.025471508502960205e-01
2.432000000000000000e+03 3.412199020385742188e+01 1.565156745910644531e+01 1.347075700759887695e+00 5.847617626190185547e+00 2.158407926559448242e+00 -3.567689657211303711e-01
2.433000000000000000e+03 3.374294662475585938e+01 -1.027768898010253906e+01 1.401854306459426880e-01 2.512806653976440430e+00 7.958976626396179199e-01 -1.958379268646240234e+00
2.434000000000000000e+03 4.743567657470703125e+01 -2.855883026123046875e+01 1.402667641639709473e+00 7.251948356628417969e+00 2.596384763717651367e+00 -2.305616617202758789e+00
2.435000000000000000e+03 4.770032882690429688e+01 -2.745807456970214844e+01 1.818993568420410156e+00 7.216909885406494141e+00 2.710771083831787109e+00 -2.655780792236328125e+00
2.436000000000000000e+03 5.004918670654296875e+01 -2.156599998474121094e+01 1.481672525405883789e+00 4.775726795196533203e+00 1.877219796180725098e+00 -1.646017193794250488e+00
2.437000000000000000e+03 7.215882873535156250e+01 -1.915360260009765625e+01 -1.266950130462646484e+00 6.291354179382324219e+00 1.507321119308471680e+00 -9.164454340934753418e-01
2.438000000000000000e+03 5.025365447998046875e+01 -3.258027267456054688e+01 6.205139756202697754e-01 6.432785511016845703e+00 2.115989923477172852e+00 -1.402498722076416016e+00
2.439000000000000000e+03 5.226826477050781250e+01 -3.119740867614746094e+01 1.662674427032470703e+00 6.446021080017089844e+00 2.432608604431152344e+00 -1.601814150810241699e+00
2.440000000000000000e+03 4.971271896362304688e+01 -2.878232192993164062e+01 1.680811524391174316e+00 6.230447769165039062e+00 2.373377799987792969e+00 -2.287941932678222656e+00
2.441000000000000000e+03 5.038257598876953125e+01 -2.953229904174804688e+01 1.779354810714721680e+00 6.178980827331542969e+00 2.387500762939453125e+00 -2.321480035781860352e+00
2.442000000000000000e+03 4.229971694946289062e+01 -1.132617187500000000e+01 -1.142464160919189453e+00 6.434871196746826172e+00 1.587722063064575195e+00 -1.868835687637329102e+00
2.443000000000000000e+03 5.442930603027343750e+01 -2.026185798645019531e+01 5.518105626106262207e-01 1.678371787071228027e+00 6.690546870231628418e-01 -1.137113422155380249e-01
2.444000000000000000e+03 4.505472946166992188e+01 -1.761404991149902344e+01 2.363990545272827148e-01 8.448166847229003906e+00 2.605369567871093750e+00 -1.255674839019775391e+00
2.445000000000000000e+03 4.577154541015625000e+01 -1.922797393798828125e+01 1.499984502792358398e+00 8.330777168273925781e+00 2.949228525161743164e+00 -1.148140430450439453e+00
2.446000000000000000e+03 4.915119552612304688e+01 -2.083511161804199219e+01 1.357916951179504395e+00 5.403896808624267578e+00 2.028544187545776367e+00 -1.523515224456787109e+00
2.447000000000000000e+03 4.801449966430664062e+01 -3.045988845825195312e+01 6.974629759788513184e-01 6.844381809234619141e+00 2.262553453445434570e+00 -2.042499303817749023e+00
2.448000000000000000e+03 5.199347305297851562e+01 -3.483331298828125000e+01 -5.943270400166511536e-02 6.626892089843750000e+00 1.970237731933593750e+00 -8.222664594650268555e-01
2.449000000000000000e+03 3.658203887939453125e+01 2.373989868164062500e+01 3.738335371017456055e-01 5.881144046783447266e+00 1.876493334770202637e+00 -1.799493879079818726e-01
2.450000000000000000e+03 5.135956192016601562e+01 -2.037535858154296875e+01 7.093560695648193359e-01 3.558210849761962891e+00 1.280270099639892578e+00 -1.236785888671875000e+00
2.451000000000000000e+03 7.138337707519531250e+01 -1.389461803436279297e+01 -2.574544399976730347e-02 5.376705169677734375e+00 1.605287909507751465e+00 -3.468512892723083496e-01
2.452000000000000000e+03 3.836011505126953125e+01 2.792012405395507812e+01 -2.175980806350708008e-01 5.496762752532958984e+00 1.583749413490295410e+00 1.285466086119413376e-02
2.453000000000000000e+03 8.074088096618652344e+00 3.612258148193359375e+01 -7.639543712139129639e-02 3.386840522289276123e-01 7.868658006191253662e-02 -1.305449157953262329e-01
2.454000000000000000e+03 3.715542221069335938e+01 6.181041717529296875e+00 1.329372406005859375e+00 6.593055248260498047e+00 2.376728296279907227e+00 -2.296986430883407593e-01
2.455000000000000000e+03 5.203691101074218750e+01 -2.461336708068847656e+01 1.781308770179748535e+00 4.719069957733154297e+00 1.950113654136657715e+00 -1.561256885528564453e+00
2.456000000000000000e+03 9.729444503784179688e+00 2.560204505920410156e+01 9.655079245567321777e-02 3.799321651458740234e-01 1.429448872804641724e-01 -2.275231331586837769e-01
2.457000000000000000e+03 2.168252563476562500e+01 -3.443910121917724609e+00 1.463818997144699097e-01 6.032528400421142578e+00 1.853672981262207031e+00 2.445928573608398438e+00
2.458000000000000000e+03 2.126657676696777344e+01 -3.276404619216918945e+00 -3.204521536827087402e-01 5.846906661987304688e+00 1.657936334609985352e+00 1.815358996391296387e+00
2.459000000000000000e+03 2.175130462646484375e+01 -4.235410690307617188e+00 1.116812944412231445e+00 6.734722614288330078e+00 2.355460643768310547e+00 3.562763214111328125e+00
2.460000000000000000e+03 2.170582771301269531e+01 -3.846672773361206055e+00 6.153005957603454590e-01 6.366987228393554688e+00 2.094686508178710938e+00 2.974388360977172852e+00
2.461000000000000000e+03 2.234235763549804688e+01 -7.332343578338623047e+00 9.006572723388671875e+00 3.046263217926025391e+00 3.615850687026977539e+00 1.330775380134582520e+00
2.462000000000000000e+03 2.253950119018554688e+01 -8.125408172607421875e+00 6.825155735015869141e+00 2.683166503906250000e+00 2.852496623992919922e+00 -8.069106936454772949e-02
2.463000000000000000e+03 2.275635528564453125e+01 -6.067804336547851562e+00 7.144226074218750000e+00 3.353731155395507812e+00 3.149387121200561523e+00 3.848644018173217773e+00
2.464000000000000000e+03 2.267967605590820312e+01 -5.423402786254882812e+00 5.392747879028320312e+00 4.397784709930419922e+00 2.937159776687622070e+00 4.431026935577392578e+00
2.465000000000000000e+03 2.262796974182128906e+01 -5.120677947998046875e+00 4.535486698150634766e+00 4.858577728271484375e+00 2.818219184875488281e+00 4.501708030700683594e+00
2.466000000000000000e+03 2.267946052551269531e+01 -7.799221992492675781e+00 7.447429180145263672e+00 2.436862468719482422e+00 2.965287446975708008e+00 3.842362761497497559e-01
2.467000000000000000e+03 1.610578536987304688e+01 -8.337480545043945312e+00 4.421228885650634766e+00 -5.303863286972045898e-01 1.167252779006958008e+00 4.213310718536376953e+00
2.468000000000000000e+03 1.747672843933105469e+01 -8.976655960083007812e+00 5.007380485534667969e+00 3.715707063674926758e-01 1.613685369491577148e+00 6.110945701599121094e+00
2.469000000000000000e+03 1.768979644775390625e+01 -8.519029617309570312e+00 6.096362590789794922e+00 2.524897456169128418e-01 1.904655694961547852e+00 5.936017513275146484e+00
2.470000000000000000e+03 2.000554466247558594e+01 -1.871071219444274902e+00 -8.103471398353576660e-01 3.371062755584716797e+00 7.682147026062011719e-01 1.510472595691680908e-01
2.471000000000000000e+03 1.978540039062500000e+01 -1.856312036514282227e+00 -8.405753374099731445e-01 3.117586135864257812e+00 6.831032633781433105e-01 7.329741865396499634e-02
2.472000000000000000e+03 2.185105133056640625e+01 -9.609758377075195312e+00 2.552202939987182617e+00 3.340469121932983398e+00 1.767801642417907715e+00 3.131303563714027405e-02
2.473000000000000000e+03 2.226171493530273438e+01 -9.602109909057617188e+00 2.639529228210449219e+00 2.580217123031616211e+00 1.565923929214477539e+00 -4.360115230083465576e-01
2.474000000000000000e+03 1.288786888122558594e+01 -7.279815196990966797e+00 1.184425711631774902e+00 7.237866520881652832e-01 5.724636912345886230e-01 1.676690459251403809e+00
2.475000000000000000e+03 1.388725757598876953e+01 -7.172928810119628906e+00 1.856199622154235840e+00 2.179571837186813354e-01 6.222470402717590332e-01 2.009228229522705078e+00
2.476000000000000000e+03 1.255621623992919922e+01 -9.883954048156738281e+00 1.106231570243835449e+00 2.436548471450805664e+00 1.062834024429321289e+00 2.921383857727050781e+00
2.477000000000000000e+03 1.446449661254882812e+01 -7.267604827880859375e+00 2.461358308792114258e+00 -1.391422897577285767e-01 6.966648101806640625e-01 2.226622581481933594e+00
2.478000000000000000e+03 1.642669486999511719e+01 -6.964812278747558594e+00 4.791140079498291016e+00 -1.227814555168151855e+00 1.068997740745544434e+00 2.095733404159545898e+00
2.479000000000000000e+03 1.508681774139404297e+01 -8.797168731689453125e+00 2.910784482955932617e+00 2.917438149452209473e-01 9.607585072517395020e-01 4.069046020507812500e+00
2.480000000000000000e+03 1.969139289855957031e+01 -7.014688253402709961e-01 -6.698904037475585938e-01 2.670813083648681641e+00 6.002768278121948242e-01 3.051608800888061523e-02
2.481000000000000000e+03 1.972637557983398438e+01 -1.477724909782409668e+00 -7.563386559486389160e-01 2.928010940551757812e+00 6.515017151832580566e-01 5.163050442934036255e-02
2.482000000000000000e+03 1.675132942199707031e+01 -8.264947891235351562e+00 5.398671150207519531e+00 -6.654019951820373535e-01 1.419980764389038086e+00 4.587991237640380859e+00
2.483000000000000000e+03 1.948465919494628906e+01 -2.568103373050689697e-01 -5.902685523033142090e-01 2.386440992355346680e+00 5.388517379760742188e-01 -2.485530823469161987e-02
2.484000000000000000e+03 8.675837516784667969e+00 -6.490404605865478516e+00 -2.444458752870559692e-01 1.133448958396911621e+00 2.667009234428405762e-01 -7.991947978734970093e-02
2.485000000000000000e+03 1.126877689361572266e+01 -6.949268341064453125e+00 3.916271924972534180e-01 1.118664979934692383e+00 4.530876576900482178e-01 9.099513292312622070e-01
2.486000000000000000e+03 1.987552833557128906e+01 3.565980195999145508e-01 -4.720422327518463135e-01 2.580665349960327148e+00 6.325868964195251465e-01 3.393319994211196899e-02
2.487000000000000000e+03 9.938345909118652344e+00 -6.610100746154785156e+00 -1.977461203932762146e-02 1.171914696693420410e+00 3.456420004367828369e-01 3.601484298706054688e-01
2.488000000000000000e+03 1.044527435302734375e+01 -7.600001811981201172e+00 2.320352047681808472e-01 1.522787332534790039e+00 5.264467597007751465e-01 7.580006718635559082e-01
2.489000000000000000e+03 9.640516281127929688e+00 -8.107215881347656250e+00 1.104352995753288269e-01 1.800172805786132812e+00 5.731824636459350586e-01 5.401833653450012207e-01
2.490000000000000000e+03 1.471583175659179688e+01 -9.294694900512695312e+00 2.327611923217773438e+00 8.528432846069335938e-01 9.541365504264831543e-01 4.256020069122314453e+00
2.491000000000000000e+03 9.292276382446289062e+00 -6.541132926940917969e+00 -1.598428040742874146e-01 1.189363956451416016e+00 3.088563382625579834e-01 1.512556821107864380e-01
2.492000000000000000e+03 7.999611377716064453e+00 -7.047646045684814453e+00 -2.446813732385635376e-01 1.250478982925415039e+00 3.017393052577972412e-01 -2.524992823600769043e-01
2.493000000000000000e+03 8.863167762756347656e+00 6.497035980224609375e+00 9.041978418827056885e-02 -3.097074031829833984e-01 -6.578628718852996826e-02 5.057477951049804688e-01
2.494000000000000000e+03 1.981067466735839844e+01 8.499056696891784668e-01 -4.123235642910003662e-01 2.449188232421875000e+00 6.110593676567077637e-01 1.491004135459661484e-02
2.495000000000000000e+03 1.914734268188476562e+01 2.438388347625732422e+00 -1.600621789693832397e-01 1.894042372703552246e+00 5.201940536499023438e-01 -7.976111024618148804e-02
2.496000000000000000e+03 2.312159729003906250e+01 -7.976025581359863281e+00 6.470775604248046875e+00 1.801382541656494141e+00 2.481647491455078125e+00 9.357596188783645630e-02
2.497000000000000000e+03 2.379098129272460938e+01 -1.005494785308837891e+01 1.327734708786010742e+00 8.574849367141723633e-01 6.555659174919128418e-01 -1.268548011779785156e+00
2.498000000000000000e+03 2.234000587463378906e+01 -8.979074478149414062e+00 4.473020553588867188e+00 3.053162336349487305e+00 2.257854938507080078e+00 -4.951476454734802246e-01
2.499000000000000000e+03 2.598220062255859375e+01 -1.098623943328857422e+01 -4.245158135890960693e-01 6.658478975296020508e-01 7.239962369203567505e-02 -1.380953669548034668e+00
2.500000000000000000e+03 2.698448944091796875e+01 -1.045751476287841797e+01 3.419549167156219482e-01 7.386668920516967773e-01 3.241865336894989014e-01 -1.373728990554809570e+00
2.501000000000000000e+03 2.877244186401367188e+01 -1.111661434173583984e+01 -3.249669075012207031e-01 1.026275515556335449e+00 2.103925943374633789e-01 -1.408357977867126465e+00
2.502000000000000000e+03 3.103173255920410156e+01 -9.737027168273925781e+00 5.381944775581359863e-01 1.618977069854736328e+00 6.471514701843261719e-01 -1.519559383392333984e+00
2.503000000000000000e+03 3.314886474609375000e+01 -1.130724430084228516e+01 -1.062705293297767639e-01 2.148055315017700195e+00 6.125354170799255371e-01 -1.859699726104736328e+00
2.504000000000000000e+03 7.157979965209960938e+00 9.309630393981933594e+00 1.736585795879364014e-01 -3.413934707641601562e-01 -5.032046511769294739e-02 4.054760932922363281e-01
2.505000000000000000e+03 1.055310153961181641e+01 -1.116029930114746094e+01 6.566140651702880859e-01 3.726974487304687500e+00 1.315076589584350586e+00 1.780342340469360352e+00
2.506000000000000000e+03 9.304232597351074219e+00 -1.196678447723388672e+01 7.166952490806579590e-01 3.989105224609375000e+00 1.411740183830261230e+00 9.635425806045532227e-01
2.507000000000000000e+03 1.261109828948974609e+01 5.954240322113037109e+00 2.029395401477813721e-01 -7.279022037982940674e-02 3.904479742050170898e-02 2.931509912014007568e-01
2.508000000000000000e+03 1.166396141052246094e+01 5.708104133605957031e+00 1.349208950996398926e-01 -2.009836137294769287e-01 -1.981881447136402130e-02 3.828268647193908691e-01
2.509000000000000000e+03 1.691834068298339844e+01 3.853040695190429688e+00 4.131298884749412537e-02 8.521018028259277344e-01 2.680244147777557373e-01 -6.487996876239776611e-02
2.510000000000000000e+03 1.693158149719238281e+01 5.311995029449462891e+00 2.189560234546661377e-01 9.215687513351440430e-01 3.421574234962463379e-01 -6.179621815681457520e-02
2.511000000000000000e+03 3.519393539428710938e+01 -9.616379737854003906e+00 1.338870525360107422e-01 3.229454755783081055e+00 1.009002566337585449e+00 -2.103434324264526367e+00
2.512000000000000000e+03 1.828631210327148438e+01 3.276702404022216797e+00 -5.294648930430412292e-02 1.433855295181274414e+00 4.142726361751556396e-01 -1.030809730291366577e-01
2.513000000000000000e+03 1.707204437255859375e+01 4.438188076019287109e+00 1.233946233987808228e-01 9.314011931419372559e-01 3.164387643337249756e-01 -6.652998179197311401e-02
2.514000000000000000e+03 1.601599121093750000e+01 -9.273899078369140625e+00 3.434788942337036133e+00 2.063544094562530518e-01 1.092342972755432129e+00 5.143074035644531250e+00
2.515000000000000000e+03 1.646360206604003906e+01 -9.126250267028808594e+00 4.004518508911132812e+00 9.272147715091705322e-02 1.229171991348266602e+00 5.347183227539062500e+00
2.516000000000000000e+03 1.162101078033447266e+01 -6.795215129852294922e+00 4.997550249099731445e-01 9.067406058311462402e-01 4.219487011432647705e-01 9.607135653495788574e-01
2.517000000000000000e+03 1.564996337890625000e+01 5.297885417938232422e+00 2.152800858020782471e-01 5.357109308242797852e-01 2.252973169088363647e-01 2.702634036540985107e-02
2.518000000000000000e+03 3.111274909973144531e+01 -1.102852153778076172e+01 -1.281811147928237915e-01 1.501278519630432129e+00 4.119292199611663818e-01 -1.550299525260925293e+00
2.519000000000000000e+03 3.055281829833984375e+01 -1.044050598144531250e+01 1.926106065511703491e-01 1.440649747848510742e+00 4.899781048297882080e-01 -1.486517786979675293e+00
2.520000000000000000e+03 4.076351547241210938e+01 -2.842222929000854492e+00 1.483440697193145752e-01 5.566237926483154297e+00 1.714374661445617676e+00 -1.600364685058593750e+00
2.521000000000000000e+03 4.041473770141601562e+01 -5.161267757415771484e+00 -1.166225671768188477e-01 5.364848136901855469e+00 1.574467658996582031e+00 -1.714848518371582031e+00
2.522000000000000000e+03 4.732946777343750000e+01 -1.850724601745605469e+01 6.166133880615234375e-01 7.000431060791015625e+00 2.285113334655761719e+00 -9.521877765655517578e-01
2.523000000000000000e+03 3.983713150024414062e+01 -3.198738336563110352e+00 1.509520709514617920e-01 5.447550773620605469e+00 1.679550766944885254e+00 -1.518288969993591309e+00
2.524000000000000000e+03 1.364889907836914062e+01 6.120800018310546875e+00 2.555931210517883301e-01 1.174668595194816589e-01 1.119179949164390564e-01 1.855792850255966187e-01
2.525000000000000000e+03 1.420294857025146484e+01 5.572170734405517578e+00 2.105668336153030396e-01 1.816254407167434692e-01 1.176576837897300720e-01 1.470170617103576660e-01
2.526000000000000000e+03 3.930043411254882812e+01 -5.755193531513214111e-02 4.679651558399200439e-01 5.814519882202148438e+00 1.884745478630065918e+00 -1.182994008064270020e+00
2.527000000000000000e+03 3.832426071166992188e+01 -4.247182011604309082e-01 5.543592572212219238e-01 5.549575328826904297e+00 1.831180334091186523e+00 -1.001917362213134766e+00
2.528000000000000000e+03 4.596877288818359375e+01 -1.359037399291992188e+01 -1.201367020606994629e+00 6.725611209869384766e+00 1.657273173332214355e+00 -7.718378305435180664e-01
2.529000000000000000e+03 7.202141571044921875e+01 -1.638754463195800781e+01 -5.146050453186035156e-01 5.507893562316894531e+00 1.497986555099487305e+00 -7.315378785133361816e-01
2.530000000000000000e+03 3.003569602966308594e+01 -1.099866676330566406e+01 -1.665810495615005493e-01 1.289277911186218262e+00 3.368090689182281494e-01 -1.451110482215881348e+00
2.531000000000000000e+03 3.170085716247558594e+01 -1.025580883026123047e+01 2.579417526721954346e-01 1.809516787528991699e+00 6.202375888824462891e-01 -1.620041728019714355e+00
2.532000000000000000e+03 5.609252929687500000e+00 7.427095890045166016e+00 4.412525519728660583e-02 -3.828563094139099121e-01 -1.016193181276321411e-01 4.510428905487060547e-01
2.533000000000000000e+03 4.377481460571289062e+01 -1.323847484588623047e+01 -1.142643094062805176e+00 7.115496158599853516e+00 1.791855812072753906e+00 -1.546643614768981934e+00
2.534000000000000000e+03 6.828607940673828125e+01 -1.588936328887939453e+01 2.376760393381118774e-01 3.212362766265869141e+00 1.035011649131774902e+00 1.206963695585727692e-02
2.535000000000000000e+03 6.924903106689453125e+01 -1.745273971557617188e+01 -2.152479439973831177e-01 3.213150501251220703e+00 8.993707895278930664e-01 -5.854265093803405762e-01
2.536000000000000000e+03 1.141545486450195312e+01 -1.014093685150146484e+01 7.004927992820739746e-01 2.902371168136596680e+00 1.080859184265136719e+00 2.118617296218872070e+00
2.537000000000000000e+03 1.104358100891113281e+01 5.912583827972412109e+00 1.279153376817703247e-01 -2.463294118642807007e-01 -3.552422672510147095e-02 4.254985749721527100e-01
2.538000000000000000e+03 1.304501247406005859e+01 6.715920448303222656e+00 2.849997878074645996e-01 7.400117814540863037e-02 1.077002957463264465e-01 2.255736738443374634e-01
2.539000000000000000e+03 6.559448719024658203e+00 7.147107124328613281e+00 5.778653174638748169e-02 -3.544434010982513428e-01 -8.899706602096557617e-02 4.836635291576385498e-01
2.540000000000000000e+03 4.287896347045898438e+01 -1.028490924835205078e+01 -9.179810285568237305e-01 6.201116561889648438e+00 1.584940671920776367e+00 -1.745279312133789062e+00
2.541000000000000000e+03 6.481520175933837891e+00 -8.329967498779296875e+00 -1.622139364480972290e-01 1.060755491256713867e+00 2.695624530315399170e-01 -6.477537155151367188e-01
2.542000000000000000e+03 4.291200256347656250e+01 -9.199028968811035156e+00 -8.571389317512512207e-01 6.028889179229736328e+00 1.551525115966796875e+00 -1.730779051780700684e+00
2.543000000000000000e+03 8.215228080749511719e+00 -8.200359344482421875e+00 -7.826917618513107300e-02 1.629628658294677734e+00 4.654078483581542969e-01 -5.737285688519477844e-02
2.544000000000000000e+03 4.888851547241210938e+01 -2.792389678955078125e+01 1.944261074066162109e+00 6.416540145874023438e+00 2.508240461349487305e+00 -2.581943988800048828e+00
2.545000000000000000e+03 5.159697341918945312e+01 -2.315759086608886719e+01 1.652784466743469238e+00 4.258992195129394531e+00 1.773533105850219727e+00 -1.454529881477355957e+00
2.546000000000000000e+03 4.929753494262695312e+01 -2.577404975891113281e+01 2.168538570404052734e+00 6.177209377288818359e+00 2.503724336624145508e+00 -2.558182239532470703e+00
2.547000000000000000e+03 8.941977500915527344e+00 -1.303873157501220703e+01 1.086965441703796387e+00 4.553822040557861328e+00 1.692236185073852539e+00 9.812619090080261230e-01
2.548000000000000000e+03 1.106550693511962891e+01 2.625722312927246094e+01 7.668149471282958984e-02 6.332494020462036133e-01 2.129792720079421997e-01 -2.527405917644500732e-01
2.549000000000000000e+03 1.043582344055175781e+01 2.785819053649902344e+01 3.191747143864631653e-02 5.479447245597839355e-01 1.739586442708969116e-01 -2.456668317317962646e-01
2.550000000000000000e+03 4.828576660156250000e+01 -2.346882629394531250e+01 2.320887804031372070e+00 6.507125377655029297e+00 2.648403882980346680e+00 -2.362743139266967773e+00
2.551000000000000000e+03 4.493003082275390625e+01 -1.217666149139404297e+01 -1.155916213989257812e+00 6.606359481811523438e+00 1.635132908821105957e+00 -1.143958091735839844e+00
2.552000000000000000e+03 4.771504592895507812e+01 -1.740974617004394531e+01 -2.486387789249420166e-01 6.482904911041259766e+00 1.870279788970947266e+00 -7.030085325241088867e-01
2.553000000000000000e+03 4.657338714599609375e+01 -2.071924400329589844e+01 2.112641572952270508e+00 7.600051403045654297e+00 2.913807868957519531e+00 -1.679618835449218750e+00
2.554000000000000000e+03 3.753766632080078125e+01 -1.265252780914306641e+01 -4.173286259174346924e-01 4.156741619110107422e+00 1.121823906898498535e+00 -2.852758407592773438e+00
2.555000000000000000e+03 3.653761672973632812e+01 -1.196726894378662109e+01 -2.941047847270965576e-01 3.650341033935546875e+00 1.006870865821838379e+00 -2.586915254592895508e+00
2.556000000000000000e+03 8.915824890136718750e+00 2.165566444396972656e+01 1.633081734180450439e-01 1.342276781797409058e-01 8.926075696945190430e-02 -1.229272633790969849e-01
2.557000000000000000e+03 6.650805950164794922e+00 2.099641609191894531e+01 1.127478703856468201e-01 -2.624660730361938477e-01 -4.491546377539634705e-02 -5.540677532553672791e-02
2.558000000000000000e+03 9.495285987854003906e+00 1.782937240600585938e+01 2.786199152469635010e-01 1.458765119314193726e-01 1.273489296436309814e-01 -2.785526216030120850e-02
2.559000000000000000e+03 9.054628372192382812e+00 -9.683336257934570312e+00 1.488825529813766479e-01 2.574517965316772461e+00 8.170201778411865234e-01 4.903253614902496338e-01
2.560000000000000000e+03 3.876788711547851562e+01 -1.402292609214782715e+00 4.370693564414978027e-01 5.457661628723144531e+00 1.768419265747070312e+00 -1.196193337440490723e+00
2.561000000000000000e+03 3.895286560058593750e+01 1.751801729202270508e+00 6.562809348106384277e-01 6.158301353454589844e+00 2.044374704360961914e+00 -9.413828253746032715e-01
2.562000000000000000e+03 3.712507247924804688e+01 2.496168136596679688e+00 8.897587060928344727e-01 5.918372154235839844e+00 2.042439222335815430e+00 -4.691776931285858154e-01
2.563000000000000000e+03 4.019501113891601562e+01 -1.299931812286376953e+01 -9.263703823089599609e-01 6.247243881225585938e+00 1.596262097358703613e+00 -2.766025304794311523e+00
2.564000000000000000e+03 4.275725173950195312e+01 -1.292955398559570312e+01 -1.253400802612304688e+00 6.981021404266357422e+00 1.718286156654357910e+00 -1.832560420036315918e+00
2.565000000000000000e+03 4.121158599853515625e+01 -8.869607925415039062e+00 -7.010990381240844727e-01 5.769319057464599609e+00 1.520465970039367676e+00 -2.013150453567504883e+00
2.566000000000000000e+03 1.123727416992187500e+01 9.491371154785156250e+00 3.637166619300842285e-01 2.615690790116786957e-02 1.169620752334594727e-01 2.526944875717163086e-01
2.567000000000000000e+03 7.684462070465087891e+00 1.043603897094726562e+01 2.235665917396545410e-01 -2.895721197128295898e-01 -1.980166137218475342e-02 3.506326079368591309e-01
2.568000000000000000e+03 4.885275268554687500e+01 -2.451444816589355469e+01 2.272825002670288086e+00 6.028968811035156250e+00 2.490538120269775391e+00 -2.322288036346435547e+00
2.569000000000000000e+03 5.015065002441406250e+01 -2.378564834594726562e+01 1.982846021652221680e+00 5.306540012359619141e+00 2.186815738677978516e+00 -1.991938352584838867e+00
2.570000000000000000e+03 6.985932159423828125e+01 -1.485784053802490234e+01 8.784312754869461060e-02 4.413457870483398438e+00 1.350390315055847168e+00 -2.307295799255371094e-01
2.571000000000000000e+03 3.427420425415039062e+01 1.141513919830322266e+01 1.631157875061035156e+00 5.851480484008789062e+00 2.244791507720947266e+00 -1.436139941215515137e-01
2.572000000000000000e+03 3.648535156250000000e+01 9.008319854736328125e+00 1.688289165496826172e+00 6.674012660980224609e+00 2.508690595626831055e+00 -1.630536913871765137e-01
2.573000000000000000e+03 3.686020278930664062e+01 7.594942569732666016e+00 1.547750592231750488e+00 6.676113128662109375e+00 2.467159271240234375e+00 -1.544979214668273926e-01
2.574000000000000000e+03 3.485599899291992188e+01 4.856169223785400391e+00 1.255485892295837402e+00 5.555011272430419922e+00 2.043149232864379883e+00 7.339327037334442139e-02
2.575000000000000000e+03 8.130052566528320312e+00 2.095796585083007812e+01 1.520807445049285889e-01 -1.039600465446710587e-02 4.250542074441909790e-02 -9.442221373319625854e-02
2.576000000000000000e+03 3.700406265258789062e+01 2.594593238830566406e+01 4.788902401924133301e-02 5.614388465881347656e+00 1.698683142662048340e+00 -1.425971984863281250e-01
2.577000000000000000e+03 3.834245681762695312e+01 2.630705261230468750e+01 1.411205064505338669e-02 5.732803821563720703e+00 1.724074721336364746e+00 4.512148350477218628e-02
2.578000000000000000e+03 4.546302413940429688e+01 -1.635475349426269531e+01 -5.358556509017944336e-01 7.707355499267578125e+00 2.151449918746948242e+00 -9.467683434486389160e-01
2.579000000000000000e+03 8.647679328918457031e+00 1.599938392639160156e+01 2.599660456180572510e-01 -4.995365068316459656e-02 6.300371885299682617e-02 7.978430390357971191e-02
2.580000000000000000e+03 9.730304718017578125e+00 1.638170623779296875e+01 2.982794046401977539e-01 1.263227462768554688e-01 1.273806393146514893e-01 2.288026921451091766e-02
2.581000000000000000e+03 4.046625137329101562e+01 -1.004160499572753906e+01 -7.675226926803588867e-01 5.631377696990966797e+00 1.459156513214111328e+00 -2.207443714141845703e+00
2.582000000000000000e+03 1.134007930755615234e+01 3.027297782897949219e+01 -2.244793623685836792e-02 7.519990205764770508e-01 2.188653200864791870e-01 -2.725783288478851318e-01
2.583000000000000000e+03 9.143225669860839844e+00 3.078350639343261719e+01 -3.278817981481552124e-02 3.741796016693115234e-01 1.024174243211746216e-01 -2.261421978473663330e-01
2.584000000000000000e+03 5.086093902587890625e+01 -3.104885864257812500e+01 1.526222229003906250e+00 6.240675926208496094e+00 2.330069541931152344e+00 -1.898972153663635254e+00
2.585000000000000000e+03 5.380686569213867188e+01 -3.103191757202148438e+01 2.403523206710815430e+00 6.375134468078613281e+00 2.633597373962402344e+00 -1.616519451141357422e+00
2.586000000000000000e+03 3.512863540649414062e+01 1.312286949157714844e+01 1.603789091110229492e+00 6.290453433990478516e+00 2.368272781372070312e+00 -2.757892608642578125e-01
2.587000000000000000e+03 3.376631927490234375e+01 1.273946762084960938e+01 1.561598658561706543e+00 5.666463851928710938e+00 2.168418645858764648e+00 -2.236254215240478516e-01
2.588000000000000000e+03 8.956762313842773438e+00 1.246394443511962891e+01 3.035894930362701416e-01 -1.060870215296745300e-01 5.925074592232704163e-02 2.258370518684387207e-01
2.589000000000000000e+03 8.084186553955078125e+00 1.325177288055419922e+01 2.543017566204071045e-01 -1.990781277418136597e-01 1.656708866357803345e-02 2.189329564571380615e-01
2.590000000000000000e+03 3.471072769165039062e+01 1.741434478759765625e+01 1.163709521293640137e+00 6.024495124816894531e+00 2.156461477279663086e+00 -3.662320375442504883e-01
2.591000000000000000e+03 3.464133834838867188e+01 1.440983104705810547e+01 1.512120008468627930e+00 6.050413131713867188e+00 2.268759965896606445e+00 -3.143005371093750000e-01
2.592000000000000000e+03 3.401346206665039062e+01 2.098377227783203125e+01 6.969283819198608398e-01 5.507079124450683594e+00 1.861202359199523926e+00 -4.381039738655090332e-01
2.593000000000000000e+03 3.503556823730468750e+01 1.938536453247070312e+01 9.286181330680847168e-01 5.999326705932617188e+00 2.078383445739746094e+00 -3.476276099681854248e-01
2.594000000000000000e+03 3.348236083984375000e+01 1.685202598571777344e+01 1.193954467773437500e+00 5.556716918945312500e+00 2.025201320648193359e+00 -3.924695551395416260e-01
2.595000000000000000e+03 3.870095443725585938e+01 2.312540626525878906e+01 4.884529113769531250e-01 6.514654636383056641e+00 2.100932121276855469e+00 2.461089938879013062e-01
2.596000000000000000e+03 3.776026153564453125e+01 2.445194625854492188e+01 2.846429646015167236e-01 5.992442607879638672e+00 1.883125662803649902e+00 -3.815572010353207588e-03
2.597000000000000000e+03 8.981812477111816406e+00 2.717028808593750000e+01 4.483626782894134521e-02 2.689706385135650635e-01 9.414207190275192261e-02 -2.202560007572174072e-01
2.598000000000000000e+03 5.009812545776367188e+01 -2.035661888122558594e+01 8.499082922935485840e-01 4.650638103485107422e+00 1.650164008140563965e+00 -1.290415406227111816e+00
2.599000000000000000e+03 3.600688552856445312e+01 4.847546577453613281e+00 1.200646042823791504e+00 5.964672088623046875e+00 2.149595499038696289e+00 -8.447904884815216064e-02
2.600000000000000000e+03 3.475703430175781250e+01 1.008241176605224609e+01 1.655112504959106445e+00 5.973829269409179688e+00 2.288682460784912109e+00 -9.031901508569717407e-02
2.601000000000000000e+03 3.519572830200195312e+01 8.747841835021972656e+00 1.610539317131042480e+00 6.075618743896484375e+00 2.305847406387329102e+00 -1.948523335158824921e-02
2.602000000000000000e+03 1.046259403228759766e+01 2.408956718444824219e+01 1.406198740005493164e-01 4.625070989131927490e-01 1.809380948543548584e-01 -2.206378728151321411e-01
2.603000000000000000e+03 7.211090087890625000e+01 -1.520261669158935547e+01 -2.937271893024444580e-01 5.585913181304931641e+00 1.587655901908874512e+00 -5.843654274940490723e-01
2.604000000000000000e+03 7.248889923095703125e+01 -1.419107341766357422e+01 -2.023921459913253784e-01 5.855494022369384766e+00 1.695930600166320801e+00 -5.100864768028259277e-01
2.605000000000000000e+03 2.139451408386230469e+01 -3.930134773254394531e+00 2.214331030845642090e-01 6.696238517761230469e+00 2.075301408767700195e+00 2.694380521774291992e+00
2.606000000000000000e+03 2.011749076843261719e+01 -1.128594994544982910e+00 -6.973460316658020020e-01 3.178794384002685547e+00 7.444344758987426758e-01 1.615514308214187622e-01
2.607000000000000000e+03 1.994598960876464844e+01 -1.311683773994445801e+00 -7.642288208007812500e-01 3.095535039901733398e+00 6.993919014930725098e-01 9.708038717508316040e-02
2.608000000000000000e+03 2.106276512145996094e+01 -3.521065711975097656e+00 -4.060471355915069580e-01 6.179791927337646484e+00 1.732123494148254395e+00 1.789592385292053223e+00
2.609000000000000000e+03 2.079532814025878906e+01 -3.304944753646850586e+00 -6.925389170646667480e-01 5.658401966094970703e+00 1.489758849143981934e+00 1.186242699623107910e+00
2.610000000000000000e+03 2.320864868164062500e+01 -7.551547527313232422e+00 6.902875900268554688e+00 1.736445546150207520e+00 2.591796398162841797e+00 7.367351651191711426e-01
2.611000000000000000e+03 2.252588462829589844e+01 -4.019296169281005859e+00 1.865033149719238281e+00 5.448271751403808594e+00 2.193991422653198242e+00 3.581743240356445312e+00
2.612000000000000000e+03 2.039088630676269531e+01 -2.260498762130737305e+00 -8.296089172363281250e-01 4.155715942382812500e+00 9.978321194648742676e-01 4.235471487045288086e-01
2.613000000000000000e+03 2.294554519653320312e+01 -8.375455856323242188e+00 5.828355312347412109e+00 2.042243957519531250e+00 2.361179828643798828e+00 -2.516467273235321045e-01
2.614000000000000000e+03 2.371704101562500000e+01 -5.137442111968994141e+00 4.564035415649414062e+00 3.200604915618896484e+00 2.329392194747924805e+00 3.404815673828125000e+00
2.615000000000000000e+03 2.326402473449707031e+01 -7.135821342468261719e+00 7.171552658081054688e+00 1.845021486282348633e+00 2.704972267150878906e+00 1.489194750785827637e+00
2.616000000000000000e+03 2.322664070129394531e+01 -6.344104766845703125e+00 6.910387516021728516e+00 2.456217050552368164e+00 2.809981346130371094e+00 2.854354858398437500e+00
2.617000000000000000e+03 2.235220909118652344e+01 -8.405928611755371094e+00 6.154976844787597656e+00 3.038768291473388672e+00 2.758123636245727539e+00 -2.382361441850662231e-01
2.618000000000000000e+03 2.267645454406738281e+01 -8.714645385742187500e+00 5.200832366943359375e+00 2.432675838470458984e+00 2.290052413940429688e+00 -4.625979959964752197e-01
2.619000000000000000e+03 1.703292274475097656e+01 -7.055917263031005859e+00 6.162397861480712891e+00 -1.438202738761901855e+00 1.417258501052856445e+00 2.373915195465087891e+00
2.620000000000000000e+03 1.212897396087646484e+01 -7.090792179107666016e+00 7.646335363388061523e-01 9.306476712226867676e-01 5.085843801498413086e-01 1.282221078872680664e+00
2.621000000000000000e+03 1.531175708770751953e+01 -7.536126136779785156e+00 3.412075281143188477e+00 -5.103927254676818848e-01 8.705047965049743652e-01 2.747234344482421875e+00
2.622000000000000000e+03 2.340667343139648438e+01 -9.530797004699707031e+00 2.687655210494995117e+00 1.282882094383239746e+00 1.191161155700683594e+00 -1.042407512664794922e+00
2.623000000000000000e+03 2.011127471923828125e+01 -5.506265759468078613e-01 -6.275268793106079102e-01 3.002835273742675781e+00 7.125924825668334961e-01 1.284599453210830688e-01
2.624000000000000000e+03 1.681559562683105469e+01 -8.947246551513671875e+00 4.629716873168945312e+00 -4.065535962581634521e-02 1.376718521118164062e+00 5.519099235534667969e+00
2.625000000000000000e+03 1.680212593078613281e+01 -7.564790725708007812e+00 5.771743774414062500e+00 -1.182543992996215820e+00 1.376760005950927734e+00 3.372303009033203125e+00
2.626000000000000000e+03 1.609035110473632812e+01 -7.434090137481689453e+00 4.486743927001953125e+00 -9.724280834197998047e-01 1.054294824600219727e+00 2.844039440155029297e+00
2.627000000000000000e+03 1.164932537078857422e+01 -8.444512367248535156e+00 7.356233000755310059e-01 1.746020555496215820e+00 7.444931268692016602e-01 1.676036953926086426e+00
2.628000000000000000e+03 1.093714714050292969e+01 -8.417771339416503906e+00 4.570148289203643799e-01 1.859616160392761230e+00 6.949892640113830566e-01 1.246579885482788086e+00
2.629000000000000000e+03 9.849560737609863281e+00 -7.366092205047607422e+00 7.509692758321762085e-02 1.452905774116516113e+00 4.584008157253265381e-01 4.995445609092712402e-01
2.630000000000000000e+03 1.916113090515136719e+01 1.861106395721435547e+00 -2.446956932544708252e-01 1.919145345687866211e+00 5.023348927497863770e-01 -8.242081850767135620e-02
2.631000000000000000e+03 1.317184448242187500e+01 -8.640054702758789062e+00 1.505767703056335449e+00 1.241232991218566895e+00 8.241001963615417480e-01 2.613654851913452148e+00
2.632000000000000000e+03 1.162491703033447266e+01 -7.716015338897705078e+00 6.387342214584350586e-01 1.350862145423889160e+00 5.968789458274841309e-01 1.325875759124755859e+00
2.633000000000000000e+03 1.226698875427246094e+01 -7.595855712890625000e+00 8.976532816886901855e-01 1.156674861907958984e+00 6.162984371185302734e-01 1.604831099510192871e+00
2.634000000000000000e+03 8.303974151611328125e+00 -9.279679298400878906e+00 3.371448442339897156e-02 2.092219352722167969e+00 6.377801299095153809e-01 7.376591861248016357e-02
2.635000000000000000e+03 1.195248317718505859e+01 6.465787410736083984e+00 2.239116728305816650e-01 -1.139687821269035339e-01 3.298286721110343933e-02 3.269894719123840332e-01
2.636000000000000000e+03 1.236705589294433594e+01 7.325425148010253906e+00 3.036722242832183838e-01 3.359960392117500305e-03 9.210965782403945923e-02 2.636546492576599121e-01
2.637000000000000000e+03 9.043213844299316406e+00 -7.900670051574707031e+00 -1.031800918281078339e-02 1.644496440887451172e+00 4.902535378932952881e-01 2.668359279632568359e-01
2.638000000000000000e+03 2.474076080322265625e+01 -1.008953762054443359e+01 1.104356527328491211e+00 6.642323136329650879e-01 5.305766463279724121e-01 -1.363878726959228516e+00
2.639000000000000000e+03 2.339586830139160156e+01 -8.675614356994628906e+00 4.717616558074951172e+00 1.446024537086486816e+00 1.849092364311218262e+00 -5.728756785392761230e-01
2.640000000000000000e+03 3.217389678955078125e+01 -9.433459281921386719e+00 5.346022248268127441e-01 2.043821811676025391e+00 7.735272049903869629e-01 -1.641576766967773438e+00
2.641000000000000000e+03 9.365059852600097656e+00 7.996254920959472656e+00 2.187985181808471680e-01 -2.344986051321029663e-01 -4.710026085376739502e-03 4.216241240501403809e-01
2.642000000000000000e+03 1.205762672424316406e+01 -1.010082149505615234e+01 8.718771934509277344e-01 2.752440929412841797e+00 1.087295413017272949e+00 2.519851446151733398e+00
2.643000000000000000e+03 1.299966907501220703e+01 -9.495917320251464844e+00 1.332116246223449707e+00 1.959052324295043945e+00 9.873505830764770508e-01 3.065032482147216797e+00
2.644000000000000000e+03 1.872677230834960938e+01 3.044218778610229492e+00 -7.512038201093673706e-02 1.616910099983215332e+00 4.625369012355804443e-01 -1.010732054710388184e-01
2.645000000000000000e+03 1.971516227722167969e+01 1.936063766479492188e+00 -2.364251017570495605e-01 2.228178977966308594e+00 5.975261330604553223e-01 -3.216015547513961792e-02
2.646000000000000000e+03 3.964349365234375000e+01 -5.155625820159912109e+00 -1.723912282614037395e-04 5.214448928833007812e+00 1.564283013343811035e+00 -1.696094393730163574e+00
2.647000000000000000e+03 2.825272369384765625e+01 -9.302867889404296875e+00 1.296963095664978027e+00 9.944692254066467285e-01 6.874296665191650391e-01 -1.208323121070861816e+00
2.648000000000000000e+03 2.997268486022949219e+01 -9.982622146606445312e+00 5.263666510581970215e-01 1.318924069404602051e+00 5.535871982574462891e-01 -1.427947640419006348e+00
2.649000000000000000e+03 2.880083847045898438e+01 -9.450355529785156250e+00 9.986780285835266113e-01 1.093512654304504395e+00 6.276572346687316895e-01 -1.276436924934387207e+00
2.650000000000000000e+03 1.374275398254394531e+01 -7.911273956298828125e+00 1.853897690773010254e+00 5.854343175888061523e-01 7.317996025085449219e-01 2.450657367706298828e+00
2.651000000000000000e+03 1.307427120208740234e+01 -7.977288722991943359e+00 1.417588829994201660e+00 9.771343469619750977e-01 7.184169292449951172e-01 2.210620880126953125e+00
2.652000000000000000e+03 3.650020980834960938e+01 -7.666269302368164062e+00 1.917181462049484253e-01 4.033172607421875000e+00 1.267467260360717773e+00 -1.908501148223876953e+00
2.653000000000000000e+03 3.330593490600585938e+01 -8.920410156250000000e+00 5.375157594680786133e-01 2.528528451919555664e+00 9.198132157325744629e-01 -1.725183963775634766e+00
2.654000000000000000e+03 3.292934799194335938e+01 -9.858435630798339844e+00 3.236794173717498779e-01 2.316044330596923828e+00 7.919171452522277832e-01 -1.773639440536499023e+00
2.655000000000000000e+03 4.034422683715820312e+01 -6.873107910156250000e+00 -3.063231706619262695e-01 5.369781494140625000e+00 1.519037485122680664e+00 -1.910844922065734863e+00
2.656000000000000000e+03 4.021697998046875000e+01 -4.148837089538574219e+00 5.988423898816108704e-02 5.385169506072998047e+00 1.633516192436218262e+00 -1.644785881042480469e+00
2.657000000000000000e+03 8.752964973449707031e+00 9.695439338684082031e+00 2.591404020786285400e-01 -2.193071991205215454e-01 1.194996666163206100e-02 3.618684709072113037e-01
2.658000000000000000e+03 3.894517898559570312e+01 -3.566693782806396484e+00 2.413191795349121094e-01 5.214681148529052734e+00 1.636800050735473633e+00 -1.457441329956054688e+00
2.659000000000000000e+03 9.857792854309082031e+00 -9.960411071777343750e+00 3.380238413810729980e-01 2.822517156600952148e+00 9.481623172760009766e-01 1.053800702095031738e+00
2.660000000000000000e+03 1.742810821533203125e+01 4.073291301727294922e+00 6.349318474531173706e-02 1.054498910903930664e+00 3.353976309299468994e-01 -8.818702399730682373e-02
2.661000000000000000e+03 1.608435440063476562e+01 5.861986637115478516e+00 2.788315713405609131e-01 7.057051062583923340e-01 2.953610122203826904e-01 -1.293025258928537369e-02
2.662000000000000000e+03 1.781169509887695312e+01 3.623021364212036133e+00 9.232230484485626221e-03 1.210760951042175293e+00 3.659979701042175293e-01 -1.069568470120429993e-01
2.663000000000000000e+03 1.786026954650878906e+01 4.654245853424072266e+00 1.400572657585144043e-01 1.268323898315429688e+00 4.225143492221832275e-01 -1.045310869812965393e-01
2.664000000000000000e+03 1.740807342529296875e+01 5.020953178405761719e+00 1.872962713241577148e-01 1.076672554016113281e+00 3.791906535625457764e-01 -8.060658723115921021e-02
2.665000000000000000e+03 3.898945236206054688e+01 -5.399265766143798828e+00 2.006545476615428925e-02 5.105637550354003906e+00 1.537710905075073242e+00 -1.690827727317810059e+00
2.666000000000000000e+03 1.574625968933105469e+01 6.401514053344726562e+00 3.177172541618347168e-01 6.356917023658752441e-01 2.860226929187774658e-01 4.693405702710151672e-03
2.667000000000000000e+03 1.518396854400634766e+01 5.751820087432861328e+00 2.535907924175262451e-01 4.289737641811370850e-01 2.047693580389022827e-01 5.574360862374305725e-02
2.668000000000000000e+03 7.311987304687500000e+01 -1.162841415405273438e+01 -5.512718483805656433e-02 6.280106544494628906e+00 1.867493748664855957e+00 -4.091564714908599854e-01
2.669000000000000000e+03 1.117963218688964844e+01 6.866956710815429688e+00 2.219706773757934570e-01 -1.686088293790817261e-01 1.600855775177478790e-02 3.747848868370056152e-01
2.670000000000000000e+03 9.606401443481445312e+00 -1.092812252044677734e+01 4.349950253963470459e-01 3.492319822311401367e+00 1.178194403648376465e+00 9.877213239669799805e-01
2.671000000000000000e+03 2.960470390319824219e+01 -1.061139774322509766e+01 1.351843476295471191e-01 1.209061741828918457e+00 4.032738208770751953e-01 -1.448443055152893066e+00
2.672000000000000000e+03 2.944699668884277344e+01 -1.122000503540039062e+01 -3.734330236911773682e-01 1.131387472152709961e+00 2.273863404989242554e-01 -1.397100090980529785e+00
2.673000000000000000e+03 4.928971099853515625e+01 -2.262968826293945312e+01 1.965234398841857910e+00 5.407040119171142578e+00 2.211682319641113281e+00 -1.894846916198730469e+00
2.674000000000000000e+03 8.610755920410156250e+00 -7.120181083679199219e+00 -1.578144431114196777e-01 1.352687835693359375e+00 3.584620058536529541e-01 7.323966361582279205e-03
2.675000000000000000e+03 3.413811492919921875e+01 -6.457120418548583984e+00 8.190932273864746094e-01 3.255726575851440430e+00 1.222445964813232422e+00 -1.361955523490905762e+00
2.676000000000000000e+03 1.415600585937500000e+01 6.827034473419189453e+00 3.282937407493591309e-01 2.882665991783142090e-01 1.849680989980697632e-01 1.216502636671066284e-01
2.677000000000000000e+03 3.853860855102539062e+01 -1.337489128112792969e+01 -5.958120226860046387e-01 5.077119827270507812e+00 1.344392299652099609e+00 -2.988749027252197266e+00
2.678000000000000000e+03 3.981754302978515625e+01 -1.117917156219482422e+01 -8.091278672218322754e-01 5.669725894927978516e+00 1.458179473876953125e+00 -2.520072937011718750e+00
2.679000000000000000e+03 4.663998413085937500e+01 -1.680470275878906250e+01 -3.423264622688293457e-01 7.265000820159912109e+00 2.076802253723144531e+00 -8.104948401451110840e-01
2.680000000000000000e+03 4.177067184448242188e+01 -1.246088218688964844e+01 -1.079155921936035156e+00 6.706966876983642578e+00 1.688343286514282227e+00 -2.253279447555541992e+00
2.681000000000000000e+03 3.593419265747070312e+01 2.453174114227294922e+00 9.920975565910339355e-01 5.536139011383056641e+00 1.958470940589904785e+00 -2.204531133174896240e-01
2.682000000000000000e+03 3.806769180297851562e+01 1.510715603828430176e+00 7.347805500030517578e-01 5.849143028259277344e+00 1.975177049636840820e+00 -7.618626952171325684e-01
2.683000000000000000e+03 4.079908370971679688e+01 -1.185147953033447266e+01 -9.807125329971313477e-01 6.111328601837158203e+00 1.539184808731079102e+00 -2.340984821319580078e+00
2.684000000000000000e+03 4.204703903198242188e+01 -9.751813888549804688e+00 -8.669582009315490723e-01 5.971448421478271484e+00 1.531347036361694336e+00 -1.892874002456665039e+00
2.685000000000000000e+03 8.676391601562500000e+00 -1.057749557495117188e+01 3.040207326412200928e-01 2.906577110290527344e+00 9.631793498992919922e-01 3.963876068592071533e-01
2.686000000000000000e+03 4.893833541870117188e+01 -2.966306304931640625e+01 1.416679382324218750e+00 6.541199684143066406e+00 2.387363672256469727e+00 -2.357072591781616211e+00
2.687000000000000000e+03 8.751751899719238281e+00 1.421976947784423828e+01 2.875546514987945557e-01 -6.986782699823379517e-02 6.530605256557464600e-02 1.459431350231170654e-01
2.688000000000000000e+03 9.463159561157226562e+00 1.521811008453369141e+01 3.215827345848083496e-01 4.735380783677101135e-02 1.106809601187705994e-01 8.116520196199417114e-02
2.689000000000000000e+03 9.455533027648925781e+00 2.064633560180664062e+01 1.924690604209899902e-01 1.714493185281753540e-01 1.091755107045173645e-01 -1.098029538989067078e-01
2.690000000000000000e+03 3.882376098632812500e+01 -1.051836585998535156e+01 -5.706585645675659180e-01 4.994456768035888672e+00 1.327139496803283691e+00 -2.472742080688476562e+00
2.691000000000000000e+03 5.070940017700195312e+01 -2.512858772277832031e+01 1.902375459671020508e+00 5.205870628356933594e+00 2.132473707199096680e+00 -1.981964468955993652e+00
2.692000000000000000e+03 1.116774845123291016e+01 1.524156284332275391e+01 3.755655884742736816e-01 2.864326238632202148e-01 1.985994577407836914e-01 1.974297873675823212e-02
2.693000000000000000e+03 1.089996242523193359e+01 1.652151679992675781e+01 3.476388156414031982e-01 3.000575900077819824e-01 1.943089216947555542e-01 -1.834258809685707092e-02
2.694000000000000000e+03 1.100592136383056641e+01 2.258437156677246094e+01 1.795829683542251587e-01 5.229753851890563965e-01 2.107675075531005859e-01 -2.026513516902923584e-01
2.695000000000000000e+03 8.339433670043945312e+00 1.146667671203613281e+01 2.724693119525909424e-01 -2.093306034803390503e-01 1.894161477684974670e-02 2.896813452243804932e-01
2.696000000000000000e+03 3.586527252197265625e+01 6.109834194183349609e+00 1.358265757560729980e+00 6.059210777282714844e+00 2.225242853164672852e+00 -2.503583766520023346e-02
2.697000000000000000e+03 3.468114471435546875e+01 6.008715152740478516e+00 1.344780087471008301e+00 5.648925781250000000e+00 2.098111629486083984e+00 9.236350655555725098e-02
2.698000000000000000e+03 3.461878967285156250e+01 -1.075718402862548828e+01 -1.113349292427301407e-02 2.843486309051513672e+00 8.497058749198913574e-01 -2.136854648590087891e+00
2.699000000000000000e+03 8.303750991821289062e+00 -1.157065773010253906e+01 4.102757275104522705e-01 3.278913974761962891e+00 1.106756925582885742e+00 3.046642839908599854e-01
2.700000000000000000e+03 3.918621444702148438e+01 -1.229116821289062500e+01 -7.032577991485595703e-01 5.300876617431640625e+00 1.379285573959350586e+00 -2.750666379928588867e+00
2.701000000000000000e+03 3.344895172119140625e+01 9.749736785888671875e+00 1.547631859779357910e+00 5.472379207611083984e+00 2.106003284454345703e+00 8.914802223443984985e-03
2.702000000000000000e+03 1.187605381011962891e+01 2.466475105285644531e+01 1.424593180418014526e-01 7.611058354377746582e-01 2.710695564746856689e-01 -2.705498337745666504e-01
2.703000000000000000e+03 9.231056213378906250e+00 2.350070381164550781e+01 1.241724416613578796e-01 2.331689149141311646e-01 1.072024032473564148e-01 -1.760401427745819092e-01
2.704000000000000000e+03 3.541680908203125000e+01 1.614420509338378906e+01 1.311410546302795410e+00 6.372050285339355469e+00 2.305038213729858398e+00 -3.045643866062164307e-01
2.705000000000000000e+03 9.591667175292968750e+00 1.346069049835205078e+01 3.274155855178833008e-01 -4.206433892250061035e-03 9.696274250745773315e-02 1.565523743629455566e-01
2.706000000000000000e+03 5.375223922729492188e+01 -3.257197570800781250e+01 1.622914314270019531e+00 6.828585624694824219e+00 2.535449981689453125e+00 -9.058712124824523926e-01
2.707000000000000000e+03 4.879374313354492188e+01 -3.167845535278320312e+01 5.678196549415588379e-01 6.635367870330810547e+00 2.160956144332885742e+00 -1.751251578330993652e+00
2.708000000000000000e+03 4.986712646484375000e+01 -3.454468154907226562e+01 -2.897722721099853516e-01 6.577664375305175781e+00 1.886367678642272949e+00 -1.038920879364013672e+00
2.709000000000000000e+03 1.242093753814697266e+01 2.292434883117675781e+01 2.009478062391281128e-01 7.913631200790405273e-01 2.976932823657989502e-01 -2.638221979141235352e-01
2.710000000000000000e+03 1.365749168395996094e+01 2.716329956054687500e+01 6.134522706270217896e-02 1.164935469627380371e+00 3.678841888904571533e-01 -3.474720120429992676e-01
2.711000000000000000e+03 3.557805633544921875e+01 7.416410923004150391e+00 1.500192284584045410e+00 6.110445022583007812e+00 2.283191204071044922e+00 -1.799228228628635406e-02
2.712000000000000000e+03 3.275263595581054688e+01 1.807048034667968750e+01 1.058634519577026367e+00 5.243089675903320312e+00 1.890517234802246094e+00 -4.707891643047332764e-01
2.713000000000000000e+03 3.483877563476562500e+01 3.704887866973876953e+00 1.156820297241210938e+00 5.436653614044189453e+00 1.978042244911193848e+00 3.393517434597015381e-02
2.714000000000000000e+03 1.032874774932861328e+01 3.508761978149414062e+01 -1.109229996800422668e-01 6.793673634529113770e-01 1.705333143472671509e-01 -2.171436995267868042e-01
2.715000000000000000e+03 3.557656478881835938e+01 2.524236869812011719e+01 1.514756828546524048e-01 5.472290039062500000e+00 1.687129735946655273e+00 -3.187848031520843506e-01
2.716000000000000000e+03 2.203783035278320312e+01 -3.391310691833496094e+00 5.043898224830627441e-01 5.743386268615722656e+00 1.874332785606384277e+00 2.675141096115112305e+00
2.717000000000000000e+03 2.234626960754394531e+01 -4.667711257934570312e+00 2.990026950836181641e+00 5.765636920928955078e+00 2.626699209213256836e+00 4.327817916870117188e+00
2.718000000000000000e+03 2.022996711730957031e+01 -1.787506937980651855e+00 -8.153655529022216797e-01 3.613124370574951172e+00 8.393276333808898926e-01 2.480544596910476685e-01
2.719000000000000000e+03 2.061819076538085938e+01 -2.437643527984619141e+00 -7.685351967811584473e-01 4.531699180603027344e+00 1.128949284553527832e+00 6.874485015869140625e-01
2.720000000000000000e+03 2.033518600463867188e+01 -1.397641539573669434e+00 -7.366287112236022949e-01 3.550636053085327148e+00 8.442022204399108887e-01 2.878905832767486572e-01
2.721000000000000000e+03 2.199342536926269531e+01 -3.793825864791870117e+00 8.633367419242858887e-01 6.154832839965820312e+00 2.105450868606567383e+00 3.148911714553833008e+00
2.722000000000000000e+03 2.027301979064941406e+01 -2.750204086303710938e+00 -8.764096498489379883e-01 4.361507892608642578e+00 1.045529365539550781e+00 4.098741412162780762e-01
2.723000000000000000e+03 2.311286735534667969e+01 -6.009962558746337891e+00 6.603670597076416016e+00 3.002356052398681641e+00 2.881808042526245117e+00 3.507010936737060547e+00
2.724000000000000000e+03 2.329876518249511719e+01 -6.723007678985595703e+00 7.178084373474121094e+00 2.073693275451660156e+00 2.775533199310302734e+00 2.201810598373413086e+00
2.725000000000000000e+03 2.308377075195312500e+01 -5.337650299072265625e+00 5.098076820373535156e+00 3.772966146469116211e+00 2.661313056945800781e+00 3.946606636047363281e+00
2.726000000000000000e+03 2.336483955383300781e+01 -5.656939029693603516e+00 5.715176582336425781e+00 3.109023094177246094e+00 2.647259950637817383e+00 3.560051918029785156e+00
2.727000000000000000e+03 2.047271728515625000e+01 -1.698326706886291504e+00 -7.600187659263610840e-01 3.876054525375366211e+00 9.348106980323791504e-01 3.840068280696868896e-01
2.728000000000000000e+03 2.305760765075683594e+01 -4.958264350891113281e+00 4.213916301727294922e+00 4.204576492309570312e+00 2.525547742843627930e+00 4.011146545410156250e+00
2.729000000000000000e+03 2.178269767761230469e+01 -2.789382696151733398e+00 -1.165689155459403992e-01 5.391843795776367188e+00 1.582582473754882812e+00 1.926592469215393066e+00
2.730000000000000000e+03 2.426491737365722656e+01 -9.603630065917968750e+00 2.179241180419921875e+00 8.042419552803039551e-01 8.950449824333190918e-01 -1.244012236595153809e+00
2.731000000000000000e+03 1.366976356506347656e+01 -8.611344337463378906e+00 1.847415447235107422e+00 1.001448035240173340e+00 8.546590805053710938e-01 2.990862846374511719e+00
2.732000000000000000e+03 1.440114688873291016e+01 -8.053486824035644531e+00 2.516638517379760742e+00 2.318598031997680664e-01 8.245494365692138672e-01 2.976489305496215820e+00
2.733000000000000000e+03 1.497459316253662109e+01 -8.174950599670410156e+00 3.073319911956787109e+00 -7.583990693092346191e-02 8.992440104484558105e-01 3.344832897186279297e+00
2.734000000000000000e+03 1.643027877807617188e+01 -7.863983631134033203e+00 5.153873920440673828e+00 -8.997645974159240723e-01 1.276232719421386719e+00 3.696514368057250977e+00
2.735000000000000000e+03 1.540817928314208984e+01 -8.406147956848144531e+00 3.647582292556762695e+00 -2.928042113780975342e-01 1.006433367729187012e+00 3.883531332015991211e+00
2.736000000000000000e+03 1.081954097747802734e+01 -7.176689624786376953e+00 2.817389965057373047e-01 1.262174129486083984e+00 4.631739258766174316e-01 8.111780881881713867e-01
2.737000000000000000e+03 1.027228832244873047e+01 -8.297566413879394531e+00 2.684395909309387207e-01 1.838157057762145996e+00 6.319789886474609375e-01 8.781315088272094727e-01
2.738000000000000000e+03 1.008392810821533203e+01 -9.082015037536621094e+00 2.761335074901580811e-01 2.295632600784301758e+00 7.715298533439636230e-01 9.646795988082885742e-01
2.739000000000000000e+03 1.066009902954101562e+01 -1.011199378967285156e+01 5.102153420448303223e-01 2.910212516784667969e+00 1.026128292083740234e+00 1.571489930152893066e+00
2.740000000000000000e+03 1.261919498443603516e+01 -8.943325996398925781e+00 1.169270873069763184e+00 1.749650001525878906e+00 8.756762742996215820e-01 2.451560497283935547e+00
2.741000000000000000e+03 2.025021553039550781e+01 2.622340202331542969e+00 -1.133347302675247192e-01 2.421103477478027344e+00 6.923305988311767578e-01 2.887832187116146088e-02
2.742000000000000000e+03 2.568678092956542969e+01 -9.931175231933593750e+00 1.223135828971862793e+00 6.272498369216918945e-01 5.551156997680664062e-01 -1.335097908973693848e+00
2.743000000000000000e+03 3.145876121520996094e+01 -8.982682228088378906e+00 8.033172488212585449e-01 1.890835404396057129e+00 8.082458376884460449e-01 -1.449863076210021973e+00
2.744000000000000000e+03 1.418669414520263672e+01 -8.850366592407226562e+00 2.184082984924316406e+00 8.423153758049011230e-01 9.079194664955139160e-01 3.507539510726928711e+00
2.745000000000000000e+03 1.968342590332031250e+01 3.076775074005126953e+00 -7.030369341373443604e-02 2.097476005554199219e+00 6.081516742706298828e-01 -4.879647865891456604e-02
2.746000000000000000e+03 1.868780326843261719e+01 3.888904571533203125e+00 4.671917855739593506e-02 1.596789836883544922e+00 4.930527210235595703e-01 -1.051701009273529053e-01
2.747000000000000000e+03 2.707151985168457031e+01 -9.717300415039062500e+00 1.257784605026245117e+00 7.428753376007080078e-01 6.001979708671569824e-01 -1.280963778495788574e+00
2.748000000000000000e+03 2.762567520141601562e+01 -1.035024833679199219e+01 3.724173307418823242e-01 8.000696301460266113e-01 3.517460823059082031e-01 -1.372783303260803223e+00
2.749000000000000000e+03 1.154333400726318359e+01 -9.265812873840332031e+00 7.158375382423400879e-01 2.232981204986572266e+00 8.846456408500671387e-01 1.886729121208190918e+00
2.750000000000000000e+03 1.216314315795898438e+01 -9.443825721740722656e+00 9.582031965255737305e-01 2.169915914535522461e+00 9.384357333183288574e-01 2.351849317550659180e+00
2.751000000000000000e+03 3.787208938598632812e+01 -7.341308116912841797e+00 -2.908771485090255737e-02 4.591566085815429688e+00 1.368743538856506348e+00 -1.935321927070617676e+00
2.752000000000000000e+03 1.032185363769531250e+01 7.369751453399658203e+00 2.188462764024734497e-01 -1.974164098501205444e-01 6.428961642086505890e-03 4.038914144039154053e-01
2.753000000000000000e+03 1.216816520690917969e+01 8.952513694763183594e+00 3.862553536891937256e-01 1.106296852231025696e-01 1.490655094385147095e-01 2.129889577627182007e-01
2.754000000000000000e+03 3.855211639404296875e+01 -2.750739812850952148e+00 3.200148046016693115e-01 5.262047767639160156e+00 1.674618721008300781e+00 -1.333523273468017578e+00
2.755000000000000000e+03 3.855202865600585938e+01 -4.742556095123291016e+00 1.732670962810516357e-01 4.978634357452392578e+00 1.545570373535156250e+00 -1.578749179840087891e+00
2.756000000000000000e+03 3.798231124877929688e+01 -2.085607051849365234e+00 4.789186418056488037e-01 5.170884609222412109e+00 1.694940924644470215e+00 -1.130300164222717285e+00
2.757000000000000000e+03 3.772729873657226562e+01 -3.018426418304443359e+00 4.565103054046630859e-01 4.968876361846923828e+00 1.627615928649902344e+00 -1.240246295928955078e+00
2.758000000000000000e+03 2.402119636535644531e+01 -7.466418743133544922e+00 5.846888542175292969e+00 1.222808957099914551e+00 2.120909214019775391e+00 6.804941296577453613e-01
2.759000000000000000e+03 2.515241622924804688e+01 -9.548087120056152344e+00 2.005210161209106445e+00 6.323487162590026855e-01 7.912676930427551270e-01 -1.239769577980041504e+00
2.760000000000000000e+03 3.722495269775390625e+01 -5.679988861083984375e-01 6.589180231094360352e-01 5.271721839904785156e+00 1.779191970825195312e+00 -8.146570324897766113e-01
2.761000000000000000e+03 3.568217086791992188e+01 -2.553208351135253906e+00 8.077936768531799316e-01 4.491899013519287109e+00 1.589907765388488770e+00 -8.280819058418273926e-01
2.762000000000000000e+03 1.029649829864501953e+01 1.448999691009521484e+01 3.525301218032836914e-01 1.360546797513961792e-01 1.465754359960556030e-01 8.165850490331649780e-02
2.763000000000000000e+03 3.036725616455078125e+01 -9.260715484619140625e+00 8.773481249809265137e-01 1.520623087882995605e+00 7.193913459777832031e-01 -1.342549800872802734e+00
2.764000000000000000e+03 2.937620735168457031e+01 -9.661329269409179688e+00 8.194966912269592285e-01 1.221182584762573242e+00 6.122037768363952637e-01 -1.337046265602111816e+00
2.765000000000000000e+03 9.288384437561035156e+00 1.072856807708740234e+01 3.014351725578308105e-01 -1.318708956241607666e-01 5.086927860975265503e-02 2.944056987762451172e-01
2.766000000000000000e+03 9.850209236145019531e+00 1.174543762207031250e+01 3.450914323329925537e-01 -3.651420027017593384e-02 9.257316589355468750e-02 2.244006693363189697e-01
2.767000000000000000e+03 1.777697944641113281e+01 5.662021160125732422e+00 2.561749815940856934e-01 1.251387238502502441e+00 4.522686600685119629e-01 -9.914083778858184814e-02
2.768000000000000000e+03 3.917187881469726562e+01 -6.827128887176513672e+00 -1.964252889156341553e-01 5.047425746917724609e+00 1.455300092697143555e+00 -1.889929056167602539e+00
2.769000000000000000e+03 3.429156112670898438e+01 -8.075545310974121094e+00 5.190594792366027832e-01 3.083328723907470703e+00 1.080716371536254883e+00 -1.731238484382629395e+00
2.770000000000000000e+03 3.420790100097656250e+01 -9.177414894104003906e+00 3.405227661132812500e-01 2.945729494094848633e+00 9.858757257461547852e-01 -1.906827688217163086e+00
2.771000000000000000e+03 1.575868225097656250e+01 7.666726589202880859e+00 4.134637713432312012e-01 7.320963740348815918e-01 3.436680436134338379e-01 -4.559729713946580887e-03
2.772000000000000000e+03 1.469132518768310547e+01 6.258301258087158203e+00 2.917988002300262451e-01 3.455860316753387451e-01 1.912154406309127808e-01 8.608742058277130127e-02
2.773000000000000000e+03 1.828333473205566406e+01 4.262356281280517578e+00 8.871395140886306763e-02 1.443760275840759277e+00 4.597422778606414795e-01 -9.685951471328735352e-02
2.774000000000000000e+03 1.080976676940917969e+01 -9.206548690795898438e+00 4.980734884738922119e-01 2.295974254608154297e+00 8.382142782211303711e-01 1.433350682258605957e+00
2.775000000000000000e+03 4.140118026733398438e+01 -1.073818397521972656e+01 -9.460599422454833984e-01 6.138971328735351562e+00 1.557873487472534180e+00 -2.140349388122558594e+00
2.776000000000000000e+03 1.295760154724121094e+01 8.267101287841796875e+00 3.844618499279022217e-01 1.830115467309951782e-01 1.702420264482498169e-01 1.777782887220382690e-01
2.777000000000000000e+03 3.718943023681640625e+01 5.137904882431030273e-01 7.531731724739074707e-01 5.457565784454345703e+00 1.863221764564514160e+00 -6.814858913421630859e-01
2.778000000000000000e+03 3.253197097778320312e+01 -8.616513252258300781e+00 7.374560236930847168e-01 2.324617862701416016e+00 9.186221361160278320e-01 -1.563144922256469727e+00
2.779000000000000000e+03 3.618264770507812500e+01 -1.026253604888916016e+01 -1.137304306030273438e-01 3.708700895309448242e+00 1.078491091728210449e+00 -2.329434394836425781e+00
2.780000000000000000e+03 3.818342208862304688e+01 -1.159606552124023438e+01 -5.502770543098449707e-01 4.780404090881347656e+00 1.269038081169128418e+00 -2.691970825195312500e+00
2.781000000000000000e+03 9.228075981140136719e+00 1.913983726501464844e+01 2.274020612239837646e-01 1.329450011253356934e-01 1.081041172146797180e-01 -6.062430888414382935e-02
2.782000000000000000e+03 3.817163848876953125e+01 6.041037440299987793e-01 6.449616551399230957e-01 5.731338024139404297e+00 1.912889838218688965e+00 -8.365653753280639648e-01
2.783000000000000000e+03 3.433982467651367188e+01 7.201921939849853516e+00 1.448667049407958984e+00 5.634548664093017578e+00 2.124964714050292969e+00 1.104003041982650757e-01
2.784000000000000000e+03 3.946330642700195312e+01 -9.399687767028808594e+00 -5.726770162582397461e-01 5.314380645751953125e+00 1.422511100769042969e+00 -2.281964063644409180e+00
2.785000000000000000e+03 3.243198394775390625e+01 1.239297389984130859e+01 1.477546811103820801e+00 5.201574325561523438e+00 2.003736495971679688e+00 -1.721257567405700684e-01
2.786000000000000000e+03 1.160346126556396484e+01 7.879568099975585938e+00 3.116132020950317383e-01 -4.431298002600669861e-02 8.019006997346878052e-02 2.960616350173950195e-01
2.787000000000000000e+03 3.391864776611328125e+01 8.463060379028320312e+00 1.517155528068542480e+00 5.566437244415283203e+00 2.125077962875366211e+00 6.118175014853477478e-02
2.788000000000000000e+03 3.328433990478515625e+01 1.404226398468017578e+01 1.460869669914245605e+00 5.541894435882568359e+00 2.100829362869262695e+00 -3.023115098476409912e-01
2.789000000000000000e+03 3.214716720581054688e+01 9.386673927307128906e+00 1.441098928451538086e+00 5.027368545532226562e+00 1.940540194511413574e+00 7.290566712617874146e-02
2.790000000000000000e+03 3.162162208557128906e+01 1.068688964843750000e+01 1.417521119117736816e+00 4.918481349945068359e+00 1.900800704956054688e+00 -1.546114590018987656e-02
2.791000000000000000e+03 1.244275760650634766e+01 2.112209129333496094e+01 2.694048881530761719e-01 7.356111407279968262e-01 3.015048205852508545e-01 -2.219010144472122192e-01
2.792000000000000000e+03 3.470586776733398438e+01 2.504230976104736328e+00 1.095689177513122559e+00 5.199576377868652344e+00 1.888579726219177246e+00 -2.483126148581504822e-02
2.793000000000000000e+03 5.206202697753906250e+01 -3.755471801757812500e+01 -1.269867420196533203e+00 6.548166275024414062e+00 1.583489656448364258e+00 -5.840380787849426270e-01
2.794000000000000000e+03 3.188437843322753906e+01 1.382131385803222656e+01 1.381532192230224609e+00 4.999028682708740234e+00 1.914168238639831543e+00 -2.738879621028900146e-01
2.795000000000000000e+03 3.290831375122070312e+01 1.524735069274902344e+01 1.371822595596313477e+00 5.397705554962158203e+00 2.030858516693115234e+00 -3.503263592720031738e-01
2.796000000000000000e+03 1.405183696746826172e+01 2.290778160095214844e+01 2.331179976463317871e-01 1.075884342193603516e+00 3.927007019519805908e-01 -3.151103556156158447e-01
2.797000000000000000e+03 3.090280723571777344e+01 1.882409286499023438e+01 9.110784530639648438e-01 4.699517250061035156e+00 1.683178782463073730e+00 -5.311954021453857422e-01
2.798000000000000000e+03 3.154076004028320312e+01 1.743288040161132812e+01 1.078652024269104004e+00 4.903464794158935547e+00 1.794634938240051270e+00 -4.791973829269409180e-01
2.799000000000000000e+03 1.004973793029785156e+01 1.988490486145019531e+01 2.386247664690017700e-01 2.826439738273620605e-01 1.563806235790252686e-01 -1.085240244865417480e-01
2.800000000000000000e+03 2.112539482116699219e+01 -1.980717062950134277e+00 -6.003491878509521484e-01 4.528028964996337891e+00 1.178303956985473633e+00 9.196541309356689453e-01
2.801000000000000000e+03 2.091943550109863281e+01 3.474367856979370117e-01 -4.105436503887176514e-01 3.250065565109252930e+00 8.518565893173217773e-01 3.220660686492919922e-01
2.802000000000000000e+03 2.306832885742187500e+01 -5.681745052337646484e+00 6.026402473449707031e+00 3.374133110046386719e+00 2.820160627365112305e+00 3.851319789886474609e+00
2.803000000000000000e+03 2.051330566406250000e+01 -2.005824327468872070e+00 -7.994608879089355469e-01 4.114179134368896484e+00 9.944154024124145508e-01 4.845256209373474121e-01
2.804000000000000000e+03 2.077950668334960938e+01 -2.040768623352050781e+00 -7.085697650909423828e-01 4.398436069488525391e+00 1.106959939002990723e+00 7.002317309379577637e-01
2.805000000000000000e+03 2.214738655090332031e+01 -2.928960084915161133e+00 2.849666178226470947e-01 5.391672611236572266e+00 1.702991843223571777e+00 2.328634262084960938e+00
2.806000000000000000e+03 2.281414985656738281e+01 -4.109200477600097656e+00 2.297270774841308594e+00 5.105515003204345703e+00 2.220835685729980469e+00 3.665548324584960938e+00
2.807000000000000000e+03 2.343424224853515625e+01 -5.381702423095703125e+00 5.126833915710449219e+00 3.270828008651733398e+00 2.519298553466796875e+00 3.585845708847045898e+00
2.808000000000000000e+03 2.468275260925292969e+01 -9.145133018493652344e+00 2.919754028320312500e+00 6.824552416801452637e-01 1.080662846565246582e+00 -1.070069909095764160e+00
2.809000000000000000e+03 2.380246543884277344e+01 -6.758186340332031250e+00 6.366167545318603516e+00 1.654540419578552246e+00 2.406212329864501953e+00 1.782636046409606934e+00
2.810000000000000000e+03 2.156934928894042969e+01 -3.102025270462036133e+00 -1.395646184682846069e-01 5.707153320312500000e+00 1.670276641845703125e+00 1.995705008506774902e+00
2.811000000000000000e+03 2.042720985412597656e+01 -3.414726257324218750e-02 -5.200669169425964355e-01 3.093280792236328125e+00 7.719641327857971191e-01 1.941383481025695801e-01
2.812000000000000000e+03 1.237807941436767578e+01 -8.277481079101562500e+00 1.009370207786560059e+00 1.422895312309265137e+00 7.296796441078186035e-01 1.929119229316711426e+00
2.813000000000000000e+03 2.011803054809570312e+01 4.122382164001464844e+00 8.015728741884231567e-02 2.184083461761474609e+00 6.792722344398498535e-01 -2.875414304435253143e-02
2.814000000000000000e+03 1.904972648620605469e+01 3.514163494110107422e+00 -6.359251216053962708e-03 1.771315336227416992e+00 5.294868350028991699e-01 -8.293113857507705688e-02
2.815000000000000000e+03 1.975789070129394531e+01 1.378484129905700684e+00 -3.319264054298400879e-01 2.347483873367309570e+00 6.046672463417053223e-01 -1.306652557104825974e-02
2.816000000000000000e+03 2.652928733825683594e+01 -9.579732894897460938e+00 1.531861543655395508e+00 6.705809235572814941e-01 6.607327461242675781e-01 -1.244022965431213379e+00
2.817000000000000000e+03 2.773301506042480469e+01 -9.179910659790039062e+00 1.581293940544128418e+00 8.135652542114257812e-01 7.184577584266662598e-01 -1.147608876228332520e+00
2.818000000000000000e+03 2.838994789123535156e+01 -8.691047668457031250e+00 1.689132452011108398e+00 1.018076181411743164e+00 8.121625781059265137e-01 -1.035672307014465332e+00
2.819000000000000000e+03 3.012029838562011719e+01 -8.028426170349121094e+00 1.500540733337402344e+00 1.588350772857666016e+00 9.266674518585205078e-01 -1.038242936134338379e+00
2.820000000000000000e+03 1.828136825561523438e+01 5.282434940338134766e+00 2.136758267879486084e-01 1.435441851615905762e+00 4.947353005409240723e-01 -9.817473590373992920e-02
2.821000000000000000e+03 3.511422729492187500e+01 -7.747570514678955078e+00 4.379158616065979004e-01 3.448990583419799805e+00 1.166071891784667969e+00 -1.803007483482360840e+00
2.822000000000000000e+03 3.920839691162109375e+01 -6.030105590820312500e+00 -7.909876108169555664e-02 5.118147373199462891e+00 1.511714577674865723e+00 -1.809857010841369629e+00
2.823000000000000000e+03 2.599818038940429688e+01 -9.336173057556152344e+00 2.011541604995727539e+00 6.004707813262939453e-01 7.836036682128906250e-01 -1.143919587135314941e+00
2.824000000000000000e+03 2.505251884460449219e+01 -8.653715133666992188e+00 3.502404451370239258e+00 6.514657139778137207e-01 1.246161103248596191e+00 -7.135875225067138672e-01
2.825000000000000000e+03 3.792596435546875000e+01 -5.274530410766601562e+00 1.781364232301712036e-01 4.828587532043457031e+00 1.502017140388488770e+00 -1.618942618370056152e+00
2.826000000000000000e+03 3.674578857421875000e+01 -2.877226114273071289e+00 5.810420513153076172e-01 4.720608711242675781e+00 1.590495228767395020e+00 -1.073006510734558105e+00
2.827000000000000000e+03 3.077963256835937500e+01 -8.510701179504394531e+00 1.117542266845703125e+00 1.696942806243896484e+00 8.443455100059509277e-01 -1.280125498771667480e+00
2.828000000000000000e+03 2.969382286071777344e+01 -8.849068641662597656e+00 1.236554265022277832e+00 1.344822168350219727e+00 7.744129300117492676e-01 -1.197771072387695312e+00
2.829000000000000000e+03 3.802936935424804688e+01 -3.951781988143920898e+00 3.003237545490264893e-01 4.961395740509033203e+00 1.578515768051147461e+00 -1.394727945327758789e+00
2.830000000000000000e+03 3.853627777099609375e+01 -5.817372798919677734e+00 4.124919325113296509e-02 4.894141674041748047e+00 1.480617165565490723e+00 -1.717093706130981445e+00
2.831000000000000000e+03 3.347015380859375000e+01 -8.007241249084472656e+00 7.066242098808288574e-01 2.789754867553710938e+00 1.048913717269897461e+00 -1.617890954017639160e+00
2.832000000000000000e+03 1.422322463989257812e+01 8.158664703369140625e+00 4.051076173782348633e-01 4.021444916725158691e-01 2.421756386756896973e-01 9.015142172574996948e-02
2.833000000000000000e+03 3.718105697631835938e+01 -1.092041778564453125e+01 -3.201160430908203125e-01 4.094998359680175781e+00 1.132464647293090820e+00 -2.539616346359252930e+00
2.834000000000000000e+03 3.614728546142578125e+01 -4.317208230495452881e-01 8.179267644882202148e-01 5.047595024108886719e+00 1.759656429290771484e+00 -6.102797389030456543e-01
2.835000000000000000e+03 3.704180526733398438e+01 -1.715189576148986816e+00 6.346568465232849121e-01 5.048588752746582031e+00 1.704973697662353516e+00 -9.451460242271423340e-01
2.836000000000000000e+03 1.042375373840332031e+01 1.274440383911132812e+01 3.697233200073242188e-01 8.770097047090530396e-02 1.372272819280624390e-01 1.571690738201141357e-01
2.837000000000000000e+03 1.624487495422363281e+01 8.204668045043945312e+00 4.485603868961334229e-01 9.112429022789001465e-01 4.079409837722778320e-01 -4.365665093064308167e-02
2.838000000000000000e+03 9.788438796997070312e+00 9.028861999511718750e+00 2.849147915840148926e-01 -1.553239971399307251e-01 3.887723758816719055e-02 3.524372577667236328e-01
2.839000000000000000e+03 1.206591320037841797e+01 1.670011901855468750e+01 3.878521919250488281e-01 5.060256123542785645e-01 2.681633532047271729e-01 -7.818704843521118164e-02
2.840000000000000000e+03 1.819036865234375000e+01 6.306532382965087891e+00 3.074884116649627686e-01 1.393596768379211426e+00 5.103255510330200195e-01 -1.035158112645149231e-01
2.841000000000000000e+03 1.074829196929931641e+01 8.423058509826660156e+00 3.088289797306060791e-01 -9.887250512838363647e-02 6.298694014549255371e-02 3.292146921157836914e-01
2.842000000000000000e+03 1.635785484313964844e+01 7.569346904754638672e+00 4.096667468547821045e-01 8.785415887832641602e-01 3.864625096321105957e-01 -4.719197377562522888e-02
2.843000000000000000e+03 1.531013965606689453e+01 8.155780792236328125e+00 4.280917644500732422e-01 6.170671582221984863e-01 3.135476708412170410e-01 1.505802571773529053e-02
2.844000000000000000e+03 1.101517677307128906e+01 1.366355991363525391e+01 3.972537219524383545e-01 2.082843929529190063e-01 1.816614419221878052e-01 8.719071000814437866e-02
2.845000000000000000e+03 1.526899147033691406e+01 6.962162971496582031e+00 3.556519746780395508e-01 5.549621582031250000e-01 2.731842398643493652e-01 3.360701352357864380e-02
2.846000000000000000e+03 1.103588485717773438e+01 1.956617546081542969e+01 2.790538966655731201e-01 4.374394416809082031e-01 2.149479985237121582e-01 -1.257415860891342163e-01
2.847000000000000000e+03 1.085313129425048828e+01 1.803960037231445312e+01 3.117060363292694092e-01 3.537899851799011230e-01 1.996487975120544434e-01 -7.773926109075546265e-02
2.848000000000000000e+03 1.228709697723388672e+01 1.951370811462402344e+01 3.167155086994171143e-01 6.438786387443542480e-01 2.881782352924346924e-01 -1.752896159887313843e-01
2.849000000000000000e+03 3.315042114257812500e+01 6.887472629547119141e+00 1.382770776748657227e+00 5.222819805145263672e+00 1.981677174568176270e+00 1.950163394212722778e-01
2.850000000000000000e+03 3.376738357543945312e+01 3.875780105590820312e+00 1.212493896484375000e+00 5.135861873626708984e+00 1.904506683349609375e+00 1.736729592084884644e-01
2.851000000000000000e+03 3.539739608764648438e+01 8.318893313407897949e-01 9.498718380928039551e-01 5.111321449279785156e+00 1.818358063697814941e+00 -2.998569905757904053e-01
2.852000000000000000e+03 3.823119735717773438e+01 -6.499101638793945312e+00 -2.730479696765542030e-03 4.834075927734375000e+00 1.449403643608093262e+00 -1.842851638793945312e+00
2.853000000000000000e+03 3.739537048339843750e+01 -8.269824981689453125e+00 -6.779426336288452148e-02 4.422214984893798828e+00 1.306326150894165039e+00 -2.096149206161499023e+00
2.854000000000000000e+03 3.596992492675781250e+01 -1.480686902999877930e+00 7.878261208534240723e-01 4.783430099487304688e+00 1.671376824378967285e+00 -6.848151087760925293e-01
2.855000000000000000e+03 3.086077690124511719e+01 8.935756683349609375e+00 1.307397484779357910e+00 4.649207115173339844e+00 1.786981344223022461e+00 1.431434452533721924e-01
2.856000000000000000e+03 1.214575386047363281e+01 1.553723239898681641e+01 4.137872755527496338e-01 4.694240987300872803e-01 2.649634182453155518e-01 -3.584405034780502319e-02
2.857000000000000000e+03 3.387149047851562500e+01 4.876321315765380859e+00 1.264147281646728516e+00 5.294596672058105469e+00 1.967623114585876465e+00 1.736539155244827271e-01
2.858000000000000000e+03 3.114165306091308594e+01 1.205308532714843750e+01 1.385783910751342773e+00 4.786048889160156250e+00 1.851549983024597168e+00 -1.324231475591659546e-01
2.859000000000000000e+03 3.165489959716796875e+01 1.525839805603027344e+01 1.275392174720764160e+00 4.945770263671875000e+00 1.866348743438720703e+00 -3.705321848392486572e-01
2.860000000000000000e+03 5.230206680297851562e+01 -4.080169677734375000e+01 -1.709732651710510254e+00 6.182749748229980469e+00 1.341905117034912109e+00 -2.366759777069091797e-01
2.861000000000000000e+03 5.483405685424804688e+01 -3.668288803100585938e+01 -8.122845888137817383e-01 5.858646869659423828e+00 1.513908624649047852e+00 -9.880179762840270996e-01
2.862000000000000000e+03 5.856266021728515625e+00 -3.157963180541992188e+01 -1.353161811828613281e+00 3.631470680236816406e+00 6.834926009178161621e-01 1.265748739242553711e+00
2.863000000000000000e+03 6.594408988952636719e+00 -3.484161758422851562e+01 -8.629698157310485840e-01 3.067659378051757812e+00 6.614068746566772461e-01 4.962539374828338623e-01
2.864000000000000000e+03 2.147540664672851562e+01 -1.782833218574523926e+00 -4.558383226394653320e-01 4.573140144348144531e+00 1.235190629959106445e+00 1.100055932998657227e+00
2.865000000000000000e+03 2.195727348327636719e+01 -2.363531589508056641e+00 -1.094840094447135925e-01 5.038988590240478516e+00 1.478851437568664551e+00 1.736204981803894043e+00
2.866000000000000000e+03 2.087302780151367188e+01 -2.692652463912963867e+00 -7.081496715545654297e-01 4.994421005249023438e+00 1.285881519317626953e+00 9.781278967857360840e-01
2.867000000000000000e+03 2.361905479431152344e+01 -8.148821830749511719e+00 5.545990467071533203e+00 1.303112864494323730e+00 2.054730892181396484e+00 -1.258121132850646973e-01
2.868000000000000000e+03 2.314989662170410156e+01 -4.278075695037841797e+00 2.883615970611572266e+00 4.556089878082275391e+00 2.231911659240722656e+00 3.684557676315307617e+00
2.869000000000000000e+03 2.356289672851562500e+01 -4.364886283874511719e+00 3.258303165435791016e+00 4.008353710174560547e+00 2.179996967315673828e+00 3.512143135070800781e+00
2.870000000000000000e+03 2.032483482360839844e+01 -9.257162809371948242e-01 -6.717935204505920410e-01 3.287703514099121094e+00 7.847730517387390137e-01 2.224788665771484375e-01
2.871000000000000000e+03 2.365575027465820312e+01 -5.887876510620117188e+00 5.705804347991943359e+00 2.499468803405761719e+00 2.461581945419311523e+00 2.952425956726074219e+00
2.872000000000000000e+03 2.166662597656250000e+01 -2.125145673751831055e+00 -3.261350393295288086e-01 4.880933761596679688e+00 1.366439700126647949e+00 1.419376373291015625e+00
2.873000000000000000e+03 2.232233619689941406e+01 -3.508138656616210938e+00 9.027026295661926270e-01 5.578358173370361328e+00 1.944318175315856934e+00 2.950771570205688477e+00
2.874000000000000000e+03 2.311232185363769531e+01 -3.433645248413085938e+00 1.593301415443420410e+00 4.779590129852294922e+00 1.911867380142211914e+00 3.056790828704833984e+00
2.875000000000000000e+03 2.041761016845703125e+01 9.483659267425537109e-01 -3.703239560127258301e-01 2.825735330581665039e+00 7.366234064102172852e-01 1.323054730892181396e-01
2.876000000000000000e+03 2.033423233032226562e+01 1.483026385307312012e+00 -2.873504161834716797e-01 2.649811983108520508e+00 7.087384462356567383e-01 9.085011482238769531e-02
2.877000000000000000e+03 2.354763603210449219e+01 -6.170538902282714844e+00 6.292993545532226562e+00 2.311321973800659180e+00 2.581294536590576172e+00 2.755034208297729492e+00
2.878000000000000000e+03 2.361627006530761719e+01 -5.599515438079833984e+00 5.376327514648437500e+00 2.814970254898071289e+00 2.457389354705810547e+00 3.259236335754394531e+00
2.879000000000000000e+03 2.388561058044433594e+01 -6.303902626037597656e+00 6.036943912506103516e+00 1.959411978721618652e+00 2.398906707763671875e+00 2.334138154983520508e+00
2.880000000000000000e+03 2.431143569946289062e+01 -6.769538402557373047e+00 5.703760147094726562e+00 1.380058407783508301e+00 2.125145673751831055e+00 1.429114103317260742e+00
2.881000000000000000e+03 2.043727684020996094e+01 4.327396452426910400e-01 -4.416815340518951416e-01 2.955166101455688477e+00 7.540453672409057617e-01 1.699971109628677368e-01
2.882000000000000000e+03 1.342189216613769531e+01 -9.104512214660644531e+00 1.599773764610290527e+00 1.519038200378417969e+00 9.356436133384704590e-01 3.149077177047729492e+00
2.883000000000000000e+03 2.460076713562011719e+01 -8.364953041076660156e+00 4.093899250030517578e+00 7.690556049346923828e-01 1.458886384963989258e+00 -4.096731543540954590e-01
2.884000000000000000e+03 2.550678634643554688e+01 -9.015931129455566406e+00 2.660369157791137695e+00 6.149197816848754883e-01 9.825866818428039551e-01 -9.943580627441406250e-01
2.885000000000000000e+03 2.085389137268066406e+01 2.761387348175048828e+00 -7.247355580329895020e-02 2.661317586898803711e+00 7.766531705856323242e-01 1.091881617903709412e-01
2.886000000000000000e+03 2.028000831604003906e+01 2.042053461074829102e+00 -2.093454450368881226e-01 2.521336078643798828e+00 6.935971379280090332e-01 5.278959125280380249e-02
2.887000000000000000e+03 1.920914840698242188e+01 4.476005077362060547e+00 1.100921779870986938e-01 1.800338387489318848e+00 5.731291770935058594e-01 -7.940971106290817261e-02
2.888000000000000000e+03 9.384647369384765625e+00 -8.868432998657226562e+00 1.260853260755538940e-01 2.128861188888549805e+00 6.764839887619018555e-01 5.647631287574768066e-01
2.889000000000000000e+03 2.789719009399414062e+01 -8.582380294799804688e+00 1.987159490585327148e+00 9.410759806632995605e-01 8.784706592559814453e-01 -9.377637505531311035e-01
2.890000000000000000e+03 2.758304405212402344e+01 -9.762046813964843750e+00 1.049078345298767090e+00 8.018223643302917480e-01 5.552701950073242188e-01 -1.289535522460937500e+00
2.891000000000000000e+03 1.767441558837890625e+01 6.712909221649169922e+00 3.485398292541503906e-01 1.228438973426818848e+00 4.730936288833618164e-01 -9.346894174814224243e-02
2.892000000000000000e+03 1.687156295776367188e+01 8.498753547668457031e+00 4.672198593616485596e-01 1.020445704460144043e+00 4.462996423244476318e-01 -8.055114746093750000e-02
2.893000000000000000e+03 2.900652694702148438e+01 -8.671002388000488281e+00 1.520337224006652832e+00 1.219280123710632324e+00 8.218851685523986816e-01 -1.098176360130310059e+00
2.894000000000000000e+03 1.954131317138671875e+01 3.951903104782104492e+00 5.686212703585624695e-02 1.960128784179687500e+00 6.050972938537597656e-01 -6.596987694501876831e-02
2.895000000000000000e+03 1.869888114929199219e+01 5.922214031219482422e+00 2.834522128105163574e-01 1.568412065505981445e+00 5.555592775344848633e-01 -9.946462512016296387e-02
2.896000000000000000e+03 3.120949172973632812e+01 -7.785806179046630859e+00 1.288428068161010742e+00 1.978041052818298340e+00 9.799407124519348145e-01 -1.148939371109008789e+00
2.897000000000000000e+03 1.723845863342285156e+01 6.017257690429687500e+00 2.860960960388183594e-01 1.067412972450256348e+00 4.060527384281158447e-01 -7.547160238027572632e-02
2.898000000000000000e+03 3.641425704956054688e+01 -3.961012363433837891e+00 5.797313451766967773e-01 4.506374835968017578e+00 1.525831818580627441e+00 -1.214089751243591309e+00
2.899000000000000000e+03 1.172569847106933594e+01 1.058994960784912109e+01 4.079448878765106201e-01 1.469701379537582397e-01 1.664745062589645386e-01 1.795768290758132935e-01
2.900000000000000000e+03 1.078132724761962891e+01 1.111624717712402344e+01 3.746234476566314697e-01 5.818181857466697693e-02 1.298415809869766235e-01 2.120754122734069824e-01
2.901000000000000000e+03 3.276410675048828125e+01 -7.830478191375732422e+00 9.074074029922485352e-01 2.485655069351196289e+00 1.017918705940246582e+00 -1.429931163787841797e+00
2.902000000000000000e+03 1.490124893188476562e+01 8.694804191589355469e+00 4.490462243556976318e-01 5.770014524459838867e-01 3.078143000602722168e-01 2.446378208696842194e-02
2.903000000000000000e+03 3.890314483642578125e+01 -7.801812171936035156e+00 -2.550491392612457275e-01 5.012784957885742188e+00 1.427320718765258789e+00 -2.058481216430664062e+00
2.904000000000000000e+03 3.183092117309570312e+01 -8.242359161376953125e+00 9.804477691650390625e-01 2.100439786911010742e+00 9.242662787437438965e-01 -1.389535903930664062e+00
2.905000000000000000e+03 3.744916915893554688e+01 -5.987627983093261719e+00 2.098954021930694580e-01 4.536077976226806641e+00 1.423792004585266113e+00 -1.674012541770935059e+00
2.906000000000000000e+03 3.725874710083007812e+01 -4.568995475769042969e+00 3.977809250354766846e-01 4.622260093688964844e+00 1.506012201309204102e+00 -1.411021113395690918e+00
2.907000000000000000e+03 3.680726242065429688e+01 -9.240442276000976562e+00 -8.597785234451293945e-02 4.029129505157470703e+00 1.182945489883422852e+00 -2.232512474060058594e+00
2.908000000000000000e+03 3.214170074462890625e+01 -7.577322006225585938e+00 1.099501729011535645e+00 2.317436456680297852e+00 1.025081515312194824e+00 -1.309335947036743164e+00
2.909000000000000000e+03 1.128945827484130859e+01 1.213796520233154297e+01 4.127035737037658691e-01 1.731901466846466064e-01 1.757681220769882202e-01 1.382167190313339233e-01
2.910000000000000000e+03 1.027251243591308594e+01 1.007393932342529297e+01 3.381754159927368164e-01 -5.937074869871139526e-02 8.364140242338180542e-02 2.812066376209259033e-01
2.911000000000000000e+03 3.781365585327148438e+01 -9.880816459655761719e+00 -3.486898839473724365e-01 4.580080032348632812e+00 1.269417047500610352e+00 -2.395654916763305664e+00
2.912000000000000000e+03 1.266670989990234375e+01 1.015781879425048828e+01 4.383402466773986816e-01 2.643539905548095703e-01 2.108082622289657593e-01 1.334420442581176758e-01
2.913000000000000000e+03 1.317804718017578125e+01 1.669276618957519531e+01 4.241146743297576904e-01 6.961179375648498535e-01 3.360697925090789795e-01 -1.195116043090820312e-01
2.914000000000000000e+03 1.212025165557861328e+01 1.804937744140625000e+01 3.571852743625640869e-01 5.695480108261108398e-01 2.780199944972991943e-01 -1.228312924504280090e-01
2.915000000000000000e+03 3.362873458862304688e+01 5.805685997009277344e+00 1.324288487434387207e+00 5.278297424316406250e+00 1.980775833129882812e+00 1.982057243585586548e-01
2.916000000000000000e+03 3.251215362548828125e+01 3.194940805435180664e+00 1.207396388053894043e+00 4.702305316925048828e+00 1.772910475730895996e+00 3.324260115623474121e-01
2.917000000000000000e+03 3.202067184448242188e+01 6.616955280303955078e+00 1.315793395042419434e+00 4.893027305603027344e+00 1.862646222114562988e+00 2.703444659709930420e-01
2.918000000000000000e+03 3.700711059570312500e+01 -6.801034450531005859e+00 1.764267534017562866e-01 4.378509044647216797e+00 1.366480708122253418e+00 -1.800367712974548340e+00
2.919000000000000000e+03 3.610182952880859375e+01 1.416186690330505371e+00 9.136542677879333496e-01 5.367231369018554688e+00 1.884265661239624023e+00 -3.635161221027374268e-01
2.920000000000000000e+03 3.395089340209960938e+01 -5.504867553710937500e+00 9.798465371131896973e-01 3.359791755676269531e+00 1.301891446113586426e+00 -1.099873423576354980e+00
2.921000000000000000e+03 3.436245346069335938e+01 1.248622059822082520e+00 1.072336792945861816e+00 4.861287593841552734e+00 1.780087351799011230e+00 -4.859791323542594910e-02
2.922000000000000000e+03 3.412152099609375000e+01 4.112653434276580811e-02 1.090112924575805664e+00 4.564586639404296875e+00 1.696409940719604492e+00 -1.428275108337402344e-01
2.923000000000000000e+03 3.025572395324707031e+01 1.031212902069091797e+01 1.297592997550964355e+00 4.498152732849121094e+00 1.738723754882812500e+00 3.320626541972160339e-02
2.924000000000000000e+03 1.161356830596923828e+01 1.434862613677978516e+01 4.084160923957824707e-01 3.214729726314544678e-01 2.189667224884033203e-01 3.810584545135498047e-02
2.925000000000000000e+03 1.308793640136718750e+01 1.458861637115478516e+01 4.612246155738830566e-01 5.744525790214538574e-01 3.107031583786010742e-01 -3.981600329279899597e-02
2.926000000000000000e+03 1.313108730316162109e+01 2.563767051696777344e+01 1.203523427248001099e-01 9.993816018104553223e-01 3.359201848506927490e-01 -3.119389414787292480e-01
2.927000000000000000e+03 1.120902442932128906e+01 2.106807899475097656e+01 2.381087839603424072e-01 5.180432200431823730e-01 2.268455922603607178e-01 -1.787624508142471313e-01
2.928000000000000000e+03 1.021289539337158203e+01 2.098403358459472656e+01 2.173720896244049072e-01 3.491373062133789062e-01 1.699528098106384277e-01 -1.538705527782440186e-01
2.929000000000000000e+03 1.177911758422851562e+01 1.307981586456298828e+01 4.279715716838836670e-01 2.968369126319885254e-01 2.174425423145294189e-01 7.372545450925827026e-02
2.930000000000000000e+03 3.014190292358398438e+01 1.570675373077392578e+01 1.147897005081176758e+00 4.521016597747802734e+00 1.700674176216125488e+00 -3.913120925426483154e-01
2.931000000000000000e+03 2.370539474487304688e+01 -7.204095840454101562e+00 6.499713897705078125e+00 1.482398152351379395e+00 2.394633531570434570e+00 1.180076122283935547e+00
2.932000000000000000e+03 2.283545684814453125e+01 -3.330652475357055664e+00 1.257224678993225098e+00 5.037363052368164062e+00 1.888376235961914062e+00 2.967604398727416992e+00
2.933000000000000000e+03 2.331339454650878906e+01 -3.861681461334228516e+00 2.320974111557006836e+00 4.499775409698486328e+00 2.046224832534790039e+00 3.339857101440429688e+00
2.934000000000000000e+03 2.433492279052734375e+01 -6.320537090301513672e+00 5.553665637969970703e+00 1.657598614692687988e+00 2.163379192352294922e+00 1.952616810798645020e+00
2.935000000000000000e+03 2.079365158081054688e+01 4.083261966705322266e+00 1.036810725927352905e-01 2.467567443847656250e+00 7.713745236396789551e-01 4.080567136406898499e-02
2.936000000000000000e+03 2.085826301574707031e+01 2.162273645401000977e+00 -1.558195799589157104e-01 2.778565406799316406e+00 7.868237495422363281e-01 1.518730968236923218e-01
2.937000000000000000e+03 2.116415023803710938e+01 -4.397223591804504395e-01 -4.619632661342620850e-01 3.665451049804687500e+00 9.610463380813598633e-01 5.436039566993713379e-01
2.938000000000000000e+03 2.426836395263671875e+01 -8.733337402343750000e+00 3.966516256332397461e+00 8.894400596618652344e-01 1.456786870956420898e+00 -7.596021890640258789e-01
2.939000000000000000e+03 1.907128715515136719e+01 6.529832363128662109e+00 3.382761478424072266e-01 1.679772853851318359e+00 6.054146885871887207e-01 -9.397321194410324097e-02
2.940000000000000000e+03 2.627041625976562500e+01 -8.797296524047851562e+00 2.544722795486450195e+00 6.632155179977416992e-01 9.623815417289733887e-01 -9.081950187683105469e-01
2.941000000000000000e+03 2.723142433166503906e+01 -9.084199905395507812e+00 1.807162404060363770e+00 7.722311615943908691e-01 7.738180756568908691e-01 -1.095004439353942871e+00
2.942000000000000000e+03 2.739503097534179688e+01 -8.461204528808593750e+00 2.275132656097412109e+00 8.159353137016296387e-01 9.273204207420349121e-01 -8.486841320991516113e-01
2.943000000000000000e+03 2.827246093750000000e+01 -8.153623580932617188e+00 2.121075391769409180e+00 1.037143826484680176e+00 9.474657773971557617e-01 -8.336756229400634766e-01
2.944000000000000000e+03 1.990499496459960938e+01 3.572154283523559570e+00 -2.377123106271028519e-03 2.155354738235473633e+00 6.458932757377624512e-01 -3.548391908407211304e-02
2.945000000000000000e+03 3.438867568969726562e+01 -4.302289485931396484e+00 9.472414851188659668e-01 3.766533136367797852e+00 1.414132356643676758e+00 -9.230503439903259277e-01
2.946000000000000000e+03 3.011723327636718750e+01 -6.763518810272216797e+00 1.851288080215454102e+00 1.850719571113586426e+00 1.110602259635925293e+00 -6.403654217720031738e-01
2.947000000000000000e+03 3.625848388671875000e+01 -6.231615066528320312e+00 4.108665287494659424e-01 4.072076320648193359e+00 1.344882845878601074e+00 -1.617646932601928711e+00
2.948000000000000000e+03 3.406632995605468750e+01 -7.134267330169677734e+00 7.732791304588317871e-01 3.169796466827392578e+00 1.182922720909118652e+00 -1.504885196685791016e+00
2.949000000000000000e+03 1.976247787475585938e+01 5.157757759094238281e+00 2.035483121871948242e-01 1.996997475624084473e+00 6.601637601852416992e-01 -7.258555293083190918e-02
2.950000000000000000e+03 1.876039123535156250e+01 4.897209644317626953e+00 1.714020371437072754e-01 1.620189070701599121e+00 5.374773740768432617e-01 -9.402014315128326416e-02
2.951000000000000000e+03 2.025264739990234375e+01 4.775626659393310547e+00 1.724984198808670044e-01 2.200473785400390625e+00 7.118916511535644531e-01 -2.932637929916381836e-02
2.952000000000000000e+03 3.542387771606445312e+01 -3.594910621643066406e+00 7.962362170219421387e-01 4.196616172790527344e+00 1.497855663299560547e+00 -9.578419327735900879e-01
2.953000000000000000e+03 3.464318466186523438e+01 -6.938638687133789062e+00 6.567634940147399902e-01 3.398035049438476562e+00 1.216439604759216309e+00 -1.530842542648315430e+00
2.954000000000000000e+03 3.672496795654296875e+01 -5.410908222198486328e+00 3.908412158489227295e-01 4.403893470764160156e+00 1.438420295715332031e+00 -1.514575839042663574e+00
2.955000000000000000e+03 1.362965297698974609e+01 1.003228092193603516e+01 4.670169353485107422e-01 4.078309535980224609e-01 2.624543607234954834e-01 8.227910846471786499e-02
2.956000000000000000e+03 3.575584030151367188e+01 -7.022558212280273438e+00 3.880165815353393555e-01 3.861657857894897461e+00 1.274902343750000000e+00 -1.723992109298706055e+00
2.957000000000000000e+03 3.287166976928710938e+01 -7.119282245635986328e+00 1.030615091323852539e+00 2.712169647216796875e+00 1.122835397720336914e+00 -1.301111578941345215e+00
2.958000000000000000e+03 2.871305465698242188e+01 -6.307943344116210938e+00 2.480566501617431641e+00 1.599941015243530273e+00 1.224152207374572754e+00 -1.037189811468124390e-01
2.959000000000000000e+03 3.154385948181152344e+01 3.627266645431518555e+00 1.194535851478576660e+00 4.537567138671875000e+00 1.719630956649780273e+00 4.519464671611785889e-01
2.960000000000000000e+03 1.218060302734375000e+01 1.168138790130615234e+01 4.440496563911437988e-01 2.866160869598388672e-01 2.191997319459915161e-01 1.075822040438652039e-01
2.961000000000000000e+03 3.584361267089843750e+01 -8.567266464233398438e+00 1.762161552906036377e-01 3.707477807998657227e+00 1.165108203887939453e+00 -2.013490676879882812e+00
2.962000000000000000e+03 3.841054153442382812e+01 -8.838329315185546875e+00 -3.226734697818756104e-01 4.779091835021972656e+00 1.336925506591796875e+00 -2.197376012802124023e+00
2.963000000000000000e+03 1.218199539184570312e+01 1.386834526062011719e+01 4.384537637233734131e-01 3.919994533061981201e-01 2.491359561681747437e-01 2.991667948663234711e-02
2.964000000000000000e+03 1.387095737457275391e+01 1.114210987091064453e+01 4.872611463069915771e-01 5.276123881340026855e-01 3.044620752334594727e-01 2.941867150366306305e-02
2.965000000000000000e+03 3.009476470947265625e+01 6.545567512512207031e+00 1.169201731681823730e+00 4.407083988189697266e+00 1.672885775566101074e+00 3.639165163040161133e-01
2.966000000000000000e+03 3.155537033081054688e+01 7.757613658905029297e+00 1.336890101432800293e+00 4.811466217041015625e+00 1.844506978988647461e+00 2.169970870018005371e-01
2.967000000000000000e+03 3.498737335205078125e+01 -1.203564524650573730e+00 9.569800496101379395e-01 4.568048954010009766e+00 1.657508730888366699e+00 -4.688764512538909912e-01
2.968000000000000000e+03 3.005764007568359375e+01 -5.594668865203857422e+00 2.034413576126098633e+00 2.137288808822631836e+00 1.251510739326477051e+00 -2.260913550853729248e-01
2.969000000000000000e+03 1.228529930114746094e+01 1.461798858642578125e+01 4.245623350143432617e-01 4.439809322357177734e-01 2.605629861354827881e-01 -1.409615390002727509e-03
2.970000000000000000e+03 1.823682975769042969e+01 7.335576534271240234e+00 4.010897278785705566e-01 1.432306766510009766e+00 5.500189661979675293e-01 -1.086359024047851562e-01
2.971000000000000000e+03 1.599120521545410156e+01 8.827799797058105469e+00 4.811338186264038086e-01 8.732475638389587402e-01 4.063144326210021973e-01 -3.676271438598632812e-02
2.972000000000000000e+03 3.212113189697265625e+01 5.516634941101074219e+00 1.266175508499145508e+00 4.861012458801269531e+00 1.838156342506408691e+00 3.175007402896881104e-01
2.973000000000000000e+03 1.309765815734863281e+01 1.557378196716308594e+01 4.477109909057617188e-01 6.358401179313659668e-01 3.250653147697448730e-01 -8.356159180402755737e-02
2.974000000000000000e+03 3.243613815307617188e+01 -6.167605400085449219e+00 1.289812326431274414e+00 2.738943576812744141e+00 1.208626747131347656e+00 -9.616625905036926270e-01
2.975000000000000000e+03 2.984107017517089844e+01 1.179325866699218750e+01 1.252068281173706055e+00 4.380875587463378906e+00 1.689883112907409668e+00 -1.031669154763221741e-01
2.976000000000000000e+03 1.576007556915283203e+01 1.734140777587890625e+01 4.858269989490509033e-01 1.193719267845153809e+00 5.038638710975646973e-01 -2.494525015354156494e-01
2.977000000000000000e+03 3.065164756774902344e+01 1.345621871948242188e+01 1.304850816726684570e+00 4.650475025177001953e+00 1.786597847938537598e+00 -2.484595626592636108e-01
2.978000000000000000e+03 2.871592712402343750e+01 8.820218086242675781e+00 1.120711922645568848e+00 4.131707668304443359e+00 1.575725913047790527e+00 1.568470448255538940e-01
2.979000000000000000e+03 2.965424346923828125e+01 1.441019153594970703e+01 1.216815590858459473e+00 4.397132873535156250e+00 1.684184551239013672e+00 -3.109918832778930664e-01
2.980000000000000000e+03 1.381867218017578125e+01 2.103100395202636719e+01 3.021491467952728271e-01 9.604265093803405762e-01 3.787727057933807373e-01 -2.695300281047821045e-01
2.981000000000000000e+03 3.293097686767578125e+01 2.276755523681640625e+01 4.826498031616210938e-01 5.122148990631103516e+00 1.681439638137817383e+00 -5.242817401885986328e-01
2.982000000000000000e+03 2.983659172058105469e+01 1.831192398071289062e+01 9.281218647956848145e-01 4.439669609069824219e+00 1.610337376594543457e+00 -5.227162837982177734e-01
2.983000000000000000e+03 2.520233154296875000e+01 -7.134122371673583984e+00 4.639366149902343750e+00 9.507853388786315918e-01 1.677045345306396484e+00 6.055199503898620605e-01
2.984000000000000000e+03 2.252403640747070312e+01 -2.953001499176025391e+00 6.438931226730346680e-01 5.226004123687744141e+00 1.760969161987304688e+00 2.565208911895751953e+00
2.985000000000000000e+03 2.074030876159667969e+01 -1.612211108207702637e+00 -6.975666880607604980e-01 4.047610759735107422e+00 1.005013108253479004e+00 5.680876374244689941e-01
2.986000000000000000e+03 2.343857955932617188e+01 -3.464117765426635742e+00 1.859014868736267090e+00 4.480150222778320312e+00 1.901749491691589355e+00 3.053791999816894531e+00
2.987000000000000000e+03 2.429688644409179688e+01 -7.798089504241943359e+00 5.213240146636962891e+00 9.592234492301940918e-01 1.851739048957824707e+00 1.354811489582061768e-01
2.988000000000000000e+03 2.393386268615722656e+01 -5.469850540161132812e+00 4.980923175811767578e+00 2.662803888320922852e+00 2.293118238449096680e+00 3.012307643890380859e+00
2.989000000000000000e+03 2.408217048645019531e+01 -3.929530382156372070e+00 2.740864515304565430e+00 3.727377653121948242e+00 1.940472602844238281e+00 3.053385972976684570e+00
2.990000000000000000e+03 2.584011077880859375e+01 -8.520914077758789062e+00 3.093665599822998047e+00 6.120645999908447266e-01 1.111719012260437012e+00 -7.298685908317565918e-01
2.991000000000000000e+03 2.101068115234375000e+01 1.097778558731079102e+00 -3.022679388523101807e-01 3.080460786819458008e+00 8.334578275680541992e-01 2.645734846591949463e-01
2.992000000000000000e+03 2.480113601684570312e+01 -6.713450431823730469e+00 5.107038021087646484e+00 1.235996007919311523e+00 1.902910232543945312e+00 1.203277468681335449e+00
2.993000000000000000e+03 2.479880523681640625e+01 -6.296613693237304688e+00 5.042847156524658203e+00 1.493997931480407715e+00 1.961053490638732910e+00 1.625098466873168945e+00
2.994000000000000000e+03 2.651851844787597656e+01 -8.335712432861328125e+00 2.883237361907958984e+00 7.065360546112060547e-01 1.076932072639465332e+00 -6.740009784698486328e-01
2.995000000000000000e+03 2.673873519897460938e+01 -8.982313156127929688e+00 2.118087053298950195e+00 7.160119414329528809e-01 8.502297401428222656e-01 -1.025357484817504883e+00
2.996000000000000000e+03 2.090628051757812500e+01 1.609103798866271973e+00 -2.484844624996185303e-01 2.914949893951416016e+00 7.999396324157714844e-01 1.905492991209030151e-01
2.997000000000000000e+03 2.543848228454589844e+01 -8.180890083312988281e+00 3.677456855773925781e+00 7.113909721374511719e-01 1.316654324531555176e+00 -4.101059734821319580e-01
2.998000000000000000e+03 1.950881958007812500e+01 6.959862232208251953e+00 3.899273574352264404e-01 1.858525991439819336e+00 6.745359897613525391e-01 -9.007374942302703857e-02
2.999000000000000000e+03 2.036482048034667969e+01 5.730732917785644531e+00 2.818331718444824219e-01 2.177850008010864258e+00 7.379049658775329590e-01 -4.042929410934448242e-02
3.000000000000000000e+03 1.955820274353027344e+01 6.309046268463134766e+00 3.261484801769256592e-01 1.891063332557678223e+00 6.651635169982910156e-01 -7.961922883987426758e-02
3.001000000000000000e+03 2.799343872070312500e+01 -7.619455337524414062e+00 2.433427572250366211e+00 1.111354112625122070e+00 1.063434481620788574e+00 -5.127291083335876465e-01
3.002000000000000000e+03 2.891235542297363281e+01 -7.900001525878906250e+00 1.938738346099853516e+00 1.269782304763793945e+00 9.625561833381652832e-01 -8.032984733581542969e-01
3.003000000000000000e+03 3.167446517944335938e+01 -7.130747795104980469e+00 1.328918099403381348e+00 2.255274295806884766e+00 1.075257658958435059e+00 -1.077444076538085938e+00
3.004000000000000000e+03 2.911665725708007812e+01 -6.819353103637695312e+00 2.239940404891967773e+00 1.552280187606811523e+00 1.137666225433349609e+00 -4.083577096462249756e-01
3.005000000000000000e+03 1.924942779541015625e+01 5.581686019897460938e+00 2.454518079757690430e-01 1.797770738601684570e+00 6.129667758941650391e-01 -8.081331104040145874e-02
3.006000000000000000e+03 1.349245643615722656e+01 1.244728279113769531e+01 4.902637600898742676e-01 5.441424846649169922e-01 3.103218674659729004e-01 1.490411348640918732e-02
3.007000000000000000e+03 3.344930267333984375e+01 -7.172274589538574219e+00 8.625258803367614746e-01 2.920091152191162109e+00 1.134785175323486328e+00 -1.417363643646240234e+00
3.008000000000000000e+03 3.489064407348632812e+01 -5.276404380798339844e+00 7.945389151573181152e-01 3.714001178741455078e+00 1.352562069892883301e+00 -1.219257235527038574e+00
3.009000000000000000e+03 3.412475967407226562e+01 -9.766343832015991211e-01 1.078694939613342285e+00 4.350028991699218750e+00 1.628617286682128906e+00 -2.487718015909194946e-01
3.010000000000000000e+03 3.312178421020507812e+01 -1.424297094345092773e-01 1.196457266807556152e+00 4.293996334075927734e+00 1.647136092185974121e+00 6.688078492879867554e-02
3.011000000000000000e+03 3.512312316894531250e+01 -6.400121212005615234e+00 6.244632005691528320e-01 3.598043918609619141e+00 1.266752123832702637e+00 -1.526231884956359863e+00
3.012000000000000000e+03 1.865770912170410156e+01 6.927322864532470703e+00 3.726183176040649414e-01 1.537732958793640137e+00 5.731053948402404785e-01 -1.118629053235054016e-01
3.013000000000000000e+03 1.876121520996093750e+01 8.001040458679199219e+00 4.549575746059417725e-01 1.576808333396911621e+00 6.095297932624816895e-01 -1.202229037880897522e-01
3.014000000000000000e+03 1.261930179595947266e+01 1.270841789245605469e+01 4.647691547870635986e-01 4.098443984985351562e-01 2.623840868473052979e-01 4.734190925955772400e-02
3.015000000000000000e+03 3.519134521484375000e+01 -4.514003753662109375e+00 7.844147682189941406e-01 4.006227493286132812e+00 1.437192678451538086e+00 -1.130115270614624023e+00
3.016000000000000000e+03 1.690272712707519531e+01 1.388068866729736328e+01 5.890515446662902832e-01 1.276482462882995605e+00 5.596601963043212891e-01 -1.813287436962127686e-01
3.017000000000000000e+03 3.267880630493164062e+01 -3.898258924484252930e+00 1.360764384269714355e+00 3.291153430938720703e+00 1.395575404167175293e+00 -4.656382501125335693e-01
3.018000000000000000e+03 3.120222282409667969e+01 -6.554276466369628906e+00 1.559270858764648438e+00 2.229868650436401367e+00 1.136741876602172852e+00 -8.145328760147094727e-01
3.019000000000000000e+03 3.318898010253906250e+01 1.690698623657226562e+00 1.168141007423400879e+00 4.659873008728027344e+00 1.748404264450073242e+00 1.862701922655105591e-01
3.020000000000000000e+03 3.350473785400390625e+01 -2.428980350494384766e+00 1.171961665153503418e+00 3.919536828994750977e+00 1.527449488639831543e+00 -3.455658555030822754e-01
3.021000000000000000e+03 3.191901397705078125e+01 4.529357910156250000e+00 1.222155570983886719e+00 4.716787338256835938e+00 1.781682968139648438e+00 3.695902228355407715e-01
3.022000000000000000e+03 3.470286941528320312e+01 -2.156188011169433594e+00 9.856017827987670898e-01 4.251903057098388672e+00 1.571251392364501953e+00 -5.577999353408813477e-01
3.023000000000000000e+03 1.400428295135498047e+01 1.546303558349609375e+01 4.734068512916564941e-01 7.838422656059265137e-01 3.771747350692749023e-01 -1.118248850107192993e-01
3.024000000000000000e+03 1.489087677001953125e+01 1.914077377319335938e+01 4.030594825744628906e-01 1.090277075767517090e+00 4.480009675025939941e-01 -2.621138393878936768e-01
3.025000000000000000e+03 1.357174682617187500e+01 1.940160942077636719e+01 3.593951761722564697e-01 8.642628788948059082e-01 3.670974373817443848e-01 -2.184120267629623413e-01
3.026000000000000000e+03 3.101963806152343750e+01 6.424413204193115234e+00 1.229409575462341309e+00 4.627238273620605469e+00 1.756994366645812988e+00 3.322060108184814453e-01
3.027000000000000000e+03 2.985618400573730469e+01 5.623949527740478516e+00 1.104176759719848633e+00 4.332666873931884766e+00 1.631053090095520020e+00 4.377116262912750244e-01
3.028000000000000000e+03 1.462754249572753906e+01 1.099440860748291016e+01 5.062548518180847168e-01 6.546201109886169434e-01 3.482624888420104980e-01 5.059848539531230927e-03
3.029000000000000000e+03 1.622632598876953125e+01 1.870426368713378906e+01 4.506895542144775391e-01 1.326673388481140137e+00 5.332089066505432129e-01 -2.931527197360992432e-01
3.030000000000000000e+03 2.853666687011718750e+01 1.165979957580566406e+01 1.157421827316284180e+00 4.056320190429687500e+00 1.564122557640075684e+00 -1.040264889597892761e-01
3.031000000000000000e+03 2.890074539184570312e+01 1.017720127105712891e+01 1.179053425788879395e+00 4.163657665252685547e+00 1.602813363075256348e+00 3.517335280776023865e-02
3.032000000000000000e+03 2.805561828613281250e+01 1.325865840911865234e+01 1.112642765045166016e+00 3.929973602294921875e+00 1.512784838676452637e+00 -2.233891785144805908e-01
3.033000000000000000e+03 1.530706787109375000e+01 1.610839080810546875e+01 5.115674734115600586e-01 1.053767919540405273e+00 4.696006178855895996e-01 -1.992782205343246460e-01
3.034000000000000000e+03 1.526699542999267578e+01 2.072284698486328125e+01 3.452927172183990479e-01 1.218751430511474609e+00 4.692132472991943359e-01 -3.084012866020202637e-01
3.035000000000000000e+03 2.907740974426269531e+01 1.752777099609375000e+01 9.811980128288269043e-01 4.201251983642578125e+00 1.554734945297241211e+00 -4.962058067321777344e-01
3.036000000000000000e+03 2.948961067199707031e+01 1.319108486175537109e+01 1.218559145927429199e+00 4.311322212219238281e+00 1.658964395523071289e+00 -2.206683307886123657e-01
3.037000000000000000e+03 2.195549964904785156e+01 -1.808035850524902344e+00 -1.812590658664703369e-01 4.677361011505126953e+00 1.348830580711364746e+00 1.452435255050659180e+00
3.038000000000000000e+03 2.247796440124511719e+01 -2.097510576248168945e+00 1.229650229215621948e-01 4.814168930053710938e+00 1.481140255928039551e+00 1.863063812255859375e+00
3.039000000000000000e+03 2.229986953735351562e+01 -2.486495971679687500e+00 1.825197935104370117e-01 5.054599285125732422e+00 1.571135640144348145e+00 2.048706531524658203e+00
3.040000000000000000e+03 2.176996231079101562e+01 -1.571209192276000977e+00 -3.616268634796142578e-01 4.550333499908447266e+00 1.256612062454223633e+00 1.198838829994201660e+00
3.041000000000000000e+03 2.109103775024414062e+01 -1.184193372726440430e+00 -5.752138495445251465e-01 3.990332603454589844e+00 1.024535655975341797e+00 6.569635272026062012e-01
3.042000000000000000e+03 2.344518470764160156e+01 -3.131670475006103516e+00 1.548279166221618652e+00 4.475323677062988281e+00 1.807080864906311035e+00 2.819160461425781250e+00
3.043000000000000000e+03 2.479762268066406250e+01 -5.860862255096435547e+00 4.796247005462646484e+00 1.808899521827697754e+00 1.981544017791748047e+00 2.043380022048950195e+00
3.044000000000000000e+03 2.281214714050292969e+01 -2.912798881530761719e+00 8.967773318290710449e-01 4.980285167694091797e+00 1.763118743896484375e+00 2.636157989501953125e+00
3.045000000000000000e+03 2.149658775329589844e+01 3.305967152118682861e-01 -3.338127136230468750e-01 3.536598205566406250e+00 9.608356356620788574e-01 5.165217518806457520e-01
3.046000000000000000e+03 2.152259635925292969e+01 2.835402011871337891e+00 -1.663999632000923157e-02 2.919011831283569336e+00 8.707115650177001953e-01 2.232508063316345215e-01
3.047000000000000000e+03 2.402661514282226562e+01 -4.361915588378906250e+00 3.361236333847045898e+00 3.466156244277954102e+00 2.048217773437500000e+00 3.142710685729980469e+00
3.048000000000000000e+03 2.529631423950195312e+01 -6.716350555419921875e+00 4.595487117767333984e+00 1.160861849784851074e+00 1.726904749870300293e+00 9.443761110305786133e-01
3.049000000000000000e+03 2.145390319824218750e+01 1.723016858100891113e+00 -1.775178164243698120e-01 3.117181777954101562e+00 8.818992376327514648e-01 3.034531474113464355e-01
3.050000000000000000e+03 2.168957901000976562e+01 8.527597784996032715e-01 -2.330723404884338379e-01 3.410766601562500000e+00 9.533082842826843262e-01 4.869375824928283691e-01
3.051000000000000000e+03 2.196462821960449219e+01 1.806616187095642090e+00 -9.322798252105712891e-02 3.268982648849487305e+00 9.527263641357421875e-01 4.219312071800231934e-01
3.052000000000000000e+03 2.685226249694824219e+01 -8.001323699951171875e+00 2.911142349243164062e+00 8.049069046974182129e-01 1.114814758300781250e+00 -4.955964386463165283e-01
3.053000000000000000e+03 2.617732620239257812e+01 -8.076706886291503906e+00 3.249735116958618164e+00 7.169792056083679199e-01 1.190014362335205078e+00 -4.812667369842529297e-01
3.054000000000000000e+03 2.857290840148925781e+01 -7.262767791748046875e+00 2.332925081253051758e+00 1.321343898773193359e+00 1.096280694007873535e+00 -4.822671413421630859e-01
3.055000000000000000e+03 2.653774261474609375e+01 -7.663879871368408203e+00 3.274941205978393555e+00 8.314665555953979492e-01 1.231922268867492676e+00 -2.515784800052642822e-01
3.056000000000000000e+03 2.068181228637695312e+01 5.237970829010009766e+00 2.283456474542617798e-01 2.306709051132202148e+00 7.605164051055908203e-01 -1.167637202888727188e-02
3.057000000000000000e+03 2.961331748962402344e+01 -6.249498844146728516e+00 2.132878303527832031e+00 1.808172464370727539e+00 1.182315230369567871e+00 -3.402935862541198730e-01
3.058000000000000000e+03 2.081621360778808594e+01 3.400977849960327148e+00 2.614624332636594772e-03 2.544889926910400391e+00 7.642513513565063477e-01 7.156785577535629272e-02
3.059000000000000000e+03 3.387117767333984375e+01 -1.736787319183349609e+00 1.132396340370178223e+00 4.140055179595947266e+00 1.581735491752624512e+00 -3.189550638198852539e-01
3.060000000000000000e+03 1.564037227630615234e+01 1.158597946166992188e+01 5.514243245124816895e-01 9.400360584259033203e-01 4.474381208419799805e-01 -7.665365189313888550e-02
3.061000000000000000e+03 1.920247268676757812e+01 7.515996932983398438e+00 4.296339452266693115e-01 1.723938465118408203e+00 6.460717320442199707e-01 -9.806580096483230591e-02
3.062000000000000000e+03 3.556366729736328125e+01 -5.700747489929199219e+00 6.018172502517700195e-01 3.938339710235595703e+00 1.362047076225280762e+00 -1.437795281410217285e+00
3.063000000000000000e+03 1.296335601806640625e+01 1.366177749633789062e+01 4.582794308662414551e-01 5.028430819511413574e-01 2.883367538452148438e-01 2.590960124507546425e-03
3.064000000000000000e+03 1.457942485809326172e+01 1.019247817993164062e+01 4.947195351123809814e-01 6.178974509239196777e-01 3.337850868701934814e-01 1.699165441095829010e-02
3.065000000000000000e+03 3.230486297607421875e+01 -6.275063753128051758e-01 1.305672883987426758e+00 3.996375560760498047e+00 1.590614557266235352e+00 1.928246319293975830e-01
3.066000000000000000e+03 3.174289321899414062e+01 -5.745377540588378906e+00 1.516890645027160645e+00 2.553550243377685547e+00 1.221132278442382812e+00 -7.222194671630859375e-01
3.067000000000000000e+03 3.215165710449218750e+01 2.249887943267822266e+00 1.204980373382568359e+00 4.493559837341308594e+00 1.709562063217163086e+00 3.846801519393920898e-01
3.068000000000000000e+03 3.261121749877929688e+01 -1.488947510719299316e+00 1.306411385536193848e+00 3.885052680969238281e+00 1.557439208030700684e+00 1.633697934448719025e-02
3.069000000000000000e+03 3.115176963806152344e+01 2.733717441558837891e+00 1.189494371414184570e+00 4.383248805999755859e+00 1.671823024749755859e+00 5.133504271507263184e-01
3.070000000000000000e+03 3.292070388793945312e+01 -5.413025379180908203e+00 1.242145061492919922e+00 3.054929256439208984e+00 1.289122223854064941e+00 -8.615196943283081055e-01
3.071000000000000000e+03 1.455606937408447266e+01 1.773815917968750000e+01 4.441199600696563721e-01 9.749132990837097168e-01 4.257099926471710205e-01 -2.108649015426635742e-01
3.072000000000000000e+03 1.810165214538574219e+01 1.606473159790039062e+01 5.831410288810729980e-01 1.603505492210388184e+00 6.559939384460449219e-01 -2.891986668109893799e-01
3.073000000000000000e+03 2.923083686828613281e+01 7.165714740753173828e+00 1.112201452255249023e+00 4.233149528503417969e+00 1.603605270385742188e+00 3.173565864562988281e-01
3.074000000000000000e+03 3.119228744506835938e+01 5.558181762695312500e+00 1.229096293449401855e+00 4.629340171813964844e+00 1.757530927658081055e+00 3.772739768028259277e-01
3.075000000000000000e+03 2.829666709899902344e+01 7.616963863372802734e+00 1.039255857467651367e+00 4.042026996612548828e+00 1.524384856224060059e+00 2.741493880748748779e-01
3.076000000000000000e+03 2.984191131591796875e+01 8.161375045776367188e+00 1.212730765342712402e+00 4.397599220275878906e+00 1.683098912239074707e+00 2.205544114112854004e-01
3.077000000000000000e+03 2.080649757385253906e+01 6.631960868835449219e+00 3.584679961204528809e-01 2.257683038711547852e+00 7.848452925682067871e-01 -4.696872830390930176e-02
3.078000000000000000e+03 1.821524620056152344e+01 8.298449516296386719e+00 4.679552018642425537e-01 1.468119859695434570e+00 5.808225274085998535e-01 -1.217687353491783142e-01
3.079000000000000000e+03 1.478898906707763672e+01 1.502730655670166016e+01 5.089576840400695801e-01 8.970992565155029297e-01 4.218170642852783203e-01 -1.363517791032791138e-01
3.080000000000000000e+03 2.737764167785644531e+01 1.143367290496826172e+01 1.076027274131774902e+00 3.798682212829589844e+00 1.462412834167480469e+00 -8.788377791643142700e-02
3.081000000000000000e+03 1.426079368591308594e+01 1.650230026245117188e+01 4.659165143966674805e-01 8.636260032653808594e-01 3.988627493381500244e-01 -1.583985239267349243e-01
3.082000000000000000e+03 1.304972743988037109e+01 1.135945415496826172e+01 4.675325155258178711e-01 4.077033102512359619e-01 2.625707387924194336e-01 6.751026958227157593e-02
3.083000000000000000e+03 1.456220436096191406e+01 2.488380241394042969e+01 1.559401750564575195e-01 1.227710962295532227e+00 4.150953292846679688e-01 -3.585948944091796875e-01
3.084000000000000000e+03 1.400915431976318359e+01 1.454390716552734375e+01 4.958040714263916016e-01 7.376784086227416992e-01 3.700447380542755127e-01 -8.205106854438781738e-02
3.085000000000000000e+03 1.392841625213623047e+01 1.353013896942138672e+01 4.982331097126007080e-01 6.796894669532775879e-01 3.533767759799957275e-01 -4.281311854720115662e-02
3.086000000000000000e+03 2.850915718078613281e+01 6.552450180053710938e+00 1.007460832595825195e+00 4.084491729736328125e+00 1.527585744857788086e+00 3.742449581623077393e-01
3.087000000000000000e+03 2.855863189697265625e+01 1.633073043823242188e+01 9.943232536315917969e-01 4.039388179779052734e+00 1.510113358497619629e+00 -4.234226346015930176e-01
3.088000000000000000e+03 2.805389404296875000e+01 1.489289093017578125e+01 1.070222735404968262e+00 3.923058509826660156e+00 1.497984409332275391e+00 -3.448760211467742920e-01
3.089000000000000000e+03 3.201987838745117188e+01 1.931011962890625000e+01 8.945521712303161621e-01 4.997484683990478516e+00 1.767611145973205566e+00 -5.389934778213500977e-01
3.090000000000000000e+03 2.711737060546875000e+01 1.722065544128417969e+01 8.948423266410827637e-01 3.702565670013427734e+00 1.379222393035888672e+00 -4.656216800212860107e-01
3.091000000000000000e+03 2.219520378112792969e+01 -1.988375306129455566e+00 -6.701474636793136597e-02 4.775804042816162109e+00 1.412636876106262207e+00 1.652890801429748535e+00
3.092000000000000000e+03 2.146909713745117188e+01 -4.235234856605529785e-01 -3.962550759315490723e-01 3.800133466720581055e+00 1.021163463592529297e+00 6.581723093986511230e-01
3.093000000000000000e+03 2.087218284606933594e+01 -7.501642704010009766e-01 -5.703494548797607422e-01 3.640372991561889648e+00 9.210070371627807617e-01 4.585036039352416992e-01
3.094000000000000000e+03 2.318099021911621094e+01 -2.967373132705688477e+00 1.187422871589660645e+00 4.672172546386718750e+00 1.757878541946411133e+00 2.672431707382202148e+00
3.095000000000000000e+03 2.435906982421875000e+01 -5.406039714813232422e+00 4.643293380737304688e+00 2.441552877426147461e+00 2.125453948974609375e+00 2.723337173461914062e+00
3.096000000000000000e+03 2.400085449218750000e+01 -3.171806097030639648e+00 1.863759994506835938e+00 4.077870845794677734e+00 1.782489299774169922e+00 2.757201194763183594e+00
3.097000000000000000e+03 2.457462310791015625e+01 -4.569515228271484375e+00 3.599230289459228516e+00 2.952664852142333984e+00 1.965568542480468750e+00 2.834217071533203125e+00
3.098000000000000000e+03 2.114300346374511719e+01 -1.154406890273094177e-01 -4.362417459487915039e-01 3.530832529067993164e+00 9.283772706985473633e-01 4.731927216053009033e-01
3.099000000000000000e+03 2.154851150512695312e+01 1.266646742820739746e+00 -2.155256122350692749e-01 3.270302057266235352e+00 9.164329171180725098e-01 3.886797726154327393e-01
3.100000000000000000e+03 2.260754203796386719e+01 3.057195663452148438e+00 1.162600517272949219e-01 3.214284896850585938e+00 9.991635084152221680e-01 3.778689801692962646e-01
3.101000000000000000e+03 2.057625579833984375e+01 -1.247375845909118652e+00 -6.701706051826477051e-01 3.699143648147583008e+00 9.086918830871582031e-01 3.931365311145782471e-01
3.102000000000000000e+03 2.552908134460449219e+01 -7.417642593383789062e+00 4.197670459747314453e+00 8.656241893768310547e-01 1.518988370895385742e+00 2.448654025793075562e-01
3.103000000000000000e+03 2.738112831115722656e+01 -7.833940029144287109e+00 2.710090398788452148e+00 9.320518970489501953e-01 1.092642664909362793e+00 -5.202944874763488770e-01
3.104000000000000000e+03 2.148680877685546875e+01 4.902142524719238281e+00 2.267254739999771118e-01 2.617483615875244141e+00 8.532627224922180176e-01 7.751430571079254150e-02
3.105000000000000000e+03 2.082369995117187500e+01 4.729249000549316406e+00 1.804911345243453979e-01 2.402416229248046875e+00 7.748722434043884277e-01 1.602616719901561737e-02
3.106000000000000000e+03 2.142962265014648438e+01 2.240910530090332031e+00 -1.188221946358680725e-01 3.007389545440673828e+00 8.665701746940612793e-01 2.488874495029449463e-01
3.107000000000000000e+03 2.156993293762207031e+01 3.493430614471435547e+00 6.664364784955978394e-02 2.836806535720825195e+00 8.710350990295410156e-01 1.774913072586059570e-01
3.108000000000000000e+03 2.208582115173339844e+01 2.696705579757690430e+00 1.629274338483810425e-02 3.127907037734985352e+00 9.432598948478698730e-01 3.367556929588317871e-01
3.109000000000000000e+03 3.062331771850585938e+01 -6.050004482269287109e+00 1.811892271041870117e+00 2.154028415679931641e+00 1.189776182174682617e+00 -5.295931696891784668e-01
3.110000000000000000e+03 2.524975395202636719e+01 -5.005220413208007812e+00 3.894411087036132812e+00 2.240751028060913086e+00 1.840548634529113770e+00 2.203347682952880859e+00
3.111000000000000000e+03 3.352382659912109375e+01 -6.024819374084472656e+00 1.017956018447875977e+00 3.156970977783203125e+00 1.252478003501892090e+00 -1.169223070144653320e+00
3.112000000000000000e+03 3.225085830688476562e+01 -4.856317520141601562e+00 1.438054323196411133e+00 2.981101989746093750e+00 1.325746893882751465e+00 -5.905876159667968750e-01
3.113000000000000000e+03 1.550636386871337891e+01 9.368989944458007812e+00 4.893668293952941895e-01 7.841404080390930176e-01 3.820521831512451172e-01 -2.779856137931346893e-02
3.114000000000000000e+03 1.687763595581054688e+01 9.205391883850097656e+00 5.090578198432922363e-01 1.089775323867797852e+00 4.796499311923980713e-01 -8.798570185899734497e-02
3.115000000000000000e+03 3.196265983581542969e+01 -2.587248802185058594e+00 1.466992497444152832e+00 3.439945459365844727e+00 1.472081422805786133e+00 -3.550011431798338890e-03
3.116000000000000000e+03 3.354303359985351562e+01 -4.196279048919677734e+00 1.171457052230834961e+00 3.510042667388916016e+00 1.404449939727783203e+00 -7.235394120216369629e-01
3.117000000000000000e+03 2.703898048400878906e+01 9.993870735168457031e+00 9.677651524543762207e-01 3.719801664352416992e+00 1.406270027160644531e+00 2.667013928294181824e-02
3.118000000000000000e+03 2.075710296630859375e+01 1.255290126800537109e+01 6.938050985336303711e-01 2.145557165145874023e+00 8.518086671829223633e-01 -2.340785413980484009e-01
3.119000000000000000e+03 3.184187126159667969e+01 7.851210236549377441e-02 1.298278927803039551e+00 4.045132160186767578e+00 1.603023409843444824e+00 3.432014286518096924e-01
3.120000000000000000e+03 3.183959770202636719e+01 -3.535459995269775391e+00 1.533851623535156250e+00 3.198731660842895508e+00 1.419775009155273438e+00 -1.795745790004730225e-01
3.121000000000000000e+03 3.255912399291992188e+01 7.575848698616027832e-01 1.216314315795898438e+00 4.344188690185546875e+00 1.668151021003723145e+00 2.385386228561401367e-01
3.122000000000000000e+03 2.018590927124023438e+01 6.416013240814208984e+00 3.264897763729095459e-01 2.103205919265747070e+00 7.289087176322937012e-01 -7.176604121923446655e-02
3.123000000000000000e+03 2.152540779113769531e+01 4.185502052307128906e+00 1.546000391244888306e-01 2.722912311553955078e+00 8.632537126541137695e-01 1.285791248083114624e-01
3.124000000000000000e+03 1.603277969360351562e+01 1.034749507904052734e+01 5.245881676673889160e-01 9.334111809730529785e-01 4.373998045921325684e-01 -6.756586581468582153e-02
3.125000000000000000e+03 1.838385200500488281e+01 9.156715393066406250e+00 5.317857861518859863e-01 1.515076756477355957e+00 6.140587329864501953e-01 -1.332693845033645630e-01
3.126000000000000000e+03 1.763623428344726562e+01 8.211265563964843750e+00 4.655630588531494141e-01 1.304945707321166992e+00 5.311526060104370117e-01 -8.424354344606399536e-02
3.127000000000000000e+03 1.569055271148681641e+01 1.434400272369384766e+01 5.484297871589660645e-01 1.044012904167175293e+00 4.777328372001647949e-01 -1.527362018823623657e-01
3.128000000000000000e+03 1.694154357910156250e+01 1.678504371643066406e+01 5.317971110343933105e-01 1.401679754257202148e+00 5.800430178642272949e-01 -2.637523114681243896e-01
3.129000000000000000e+03 3.083184623718261719e+01 1.851881861686706543e+00 1.214149713516235352e+00 4.187986850738525391e+00 1.620640993118286133e+00 5.734291672706604004e-01
3.130000000000000000e+03 3.170293617248535156e+01 1.386696815490722656e+00 1.232327222824096680e+00 4.302478313446044922e+00 1.660441756248474121e+00 4.362915158271789551e-01
3.131000000000000000e+03 2.973982048034667969e+01 4.827247142791748047e+00 1.096162796020507812e+00 4.284874916076660156e+00 1.614311218261718750e+00 4.995895326137542725e-01
3.132000000000000000e+03 3.119179725646972656e+01 4.808251857757568359e+00 1.206910490989685059e+00 4.592381000518798828e+00 1.739787459373474121e+00 4.222214519977569580e-01
3.133000000000000000e+03 2.297489738464355469e+01 1.064290904998779297e+01 7.268219590187072754e-01 2.693088531494140625e+00 1.025973081588745117e+00 -1.198590844869613647e-01
3.134000000000000000e+03 1.497009944915771484e+01 1.319719696044921875e+01 5.324854254722595215e-01 8.527457118034362793e-01 4.155693352222442627e-01 -9.058719873428344727e-02
3.135000000000000000e+03 3.084431076049804688e+01 4.132330417633056641e+00 1.159062147140502930e+00 4.458479881286621094e+00 1.685262560844421387e+00 4.998224675655364990e-01
3.136000000000000000e+03 2.665740585327148438e+01 1.288930606842041016e+01 1.027921795845031738e+00 3.587600469589233398e+00 1.384656667709350586e+00 -2.052406221628189087e-01
3.137000000000000000e+03 2.698032760620117188e+01 6.709646224975585938e+00 8.916913270950317383e-01 3.812666893005371094e+00 1.411307454109191895e+00 3.439658284187316895e-01
3.138000000000000000e+03 1.730986404418945312e+01 2.191156387329101562e+01 3.402128815650939941e-01 1.645633578300476074e+00 5.957539081573486328e-01 -4.077731370925903320e-01
3.139000000000000000e+03 1.797030830383300781e+01 2.379006385803222656e+01 2.524340748786926270e-01 1.833434462547302246e+00 6.257605552673339844e-01 -4.624667465686798096e-01
3.140000000000000000e+03 2.015962982177734375e+01 1.633035659790039062e+01 6.343934535980224609e-01 2.054385662078857422e+00 8.066337108612060547e-01 -3.518502414226531982e-01
3.141000000000000000e+03 2.795460891723632812e+01 1.850247192382812500e+01 8.415077924728393555e-01 3.904919385910034180e+00 1.423928141593933105e+00 -5.245931744575500488e-01
3.142000000000000000e+03 2.573442268371582031e+01 1.835623741149902344e+01 7.560213804244995117e-01 3.368575096130371094e+00 1.237378954887390137e+00 -5.094248056411743164e-01
3.143000000000000000e+03 3.128515434265136719e+01 2.234763526916503906e+01 5.130348801612854004e-01 4.703673839569091797e+00 1.565012693405151367e+00 -5.844990611076354980e-01
3.144000000000000000e+03 3.022486877441406250e+01 2.025447082519531250e+01 7.472458481788635254e-01 4.498588085174560547e+00 1.573750138282775879e+00 -5.730191469192504883e-01
3.145000000000000000e+03 2.153314018249511719e+01 -8.118150830268859863e-01 -4.419800639152526855e-01 4.036822795867919922e+00 1.078452706336975098e+00 7.908075451850891113e-01
3.146000000000000000e+03 2.280229949951171875e+01 -2.181282281875610352e+00 3.635427057743072510e-01 4.748637199401855469e+00 1.533653974533081055e+00 2.051133394241333008e+00
3.147000000000000000e+03 2.324446487426757812e+01 -2.543608427047729492e+00 9.441127777099609375e-01 4.586503505706787109e+00 1.659184813499450684e+00 2.437206029891967773e+00
3.148000000000000000e+03 2.480545806884765625e+01 -5.418341636657714844e+00 4.392442703247070312e+00 2.163619995117187500e+00 1.966818809509277344e+00 2.325666904449462891e+00
3.149000000000000000e+03 2.581493759155273438e+01 -6.673506736755371094e+00 4.175411701202392578e+00 1.106966137886047363e+00 1.584713459014892578e+00 7.482549548149108887e-01
3.150000000000000000e+03 2.165883064270019531e+01 6.343629793263971806e-04 -3.132053911685943604e-01 3.704577445983886719e+00 1.017411589622497559e+00 6.403403282165527344e-01
3.151000000000000000e+03 2.449213981628417969e+01 -3.924624204635620117e+00 2.876708745956420898e+00 3.400221586227416992e+00 1.883079051971435547e+00 2.846863031387329102e+00
3.152000000000000000e+03 2.485272979736328125e+01 -4.990206718444824219e+00 3.977551698684692383e+00 2.420256614685058594e+00 1.919342517852783203e+00 2.440746068954467773e+00
3.153000000000000000e+03 2.524357604980468750e+01 -5.838450908660888672e+00 4.427542686462402344e+00 1.681447029113769531e+00 1.832696795463562012e+00 1.723423719406127930e+00
3.154000000000000000e+03 2.223702621459960938e+01 -5.814252495765686035e-01 -1.898677498102188110e-01 4.107041358947753906e+00 1.175152063369750977e+00 1.040649414062500000e+00
3.155000000000000000e+03 2.442913055419921875e+01 -4.312073707580566406e+00 3.272653579711914062e+00 3.189018011093139648e+00 1.938501477241516113e+00 2.862755537033081055e+00
3.156000000000000000e+03 2.192697906494140625e+01 2.247142553329467773e+00 -6.524869054555892944e-02 3.146681785583496094e+00 9.244299530982971191e-01 3.502303361892700195e-01
3.157000000000000000e+03 2.235894203186035156e+01 2.331259965896606445e+00 1.659793406724929810e-02 3.303769111633300781e+00 9.961101412773132324e-01 4.455451965332031250e-01
3.158000000000000000e+03 2.727900505065917969e+01 -7.262261867523193359e+00 3.001403093338012695e+00 1.037260174751281738e+00 1.211598992347717285e+00 -1.452540159225463867e-01
3.159000000000000000e+03 2.822683334350585938e+01 -6.719556808471679688e+00 2.640635967254638672e+00 1.364625930786132812e+00 1.201578617095947266e+00 -1.424869000911712646e-01
3.160000000000000000e+03 3.164497947692871094e+01 -1.016883969306945801e+00 1.398195385932922363e+00 3.763158321380615234e+00 1.548406124114990234e+00 2.787498831748962402e-01
3.161000000000000000e+03 2.212650489807128906e+01 9.589709043502807617e-01 -1.513747721910476685e-01 3.540342569351196289e+00 1.016690373420715332e+00 5.915476083755493164e-01
3.162000000000000000e+03 3.150256919860839844e+01 -4.446244716644287109e+00 1.633872389793395996e+00 2.826054573059082031e+00 1.337978124618530273e+00 -3.070107698440551758e-01
3.163000000000000000e+03 2.522535514831542969e+01 -5.417880058288574219e+00 4.170371532440185547e+00 1.969280719757080078e+00 1.841895699501037598e+00 2.017983913421630859e+00
3.164000000000000000e+03 2.100111579895019531e+01 6.075789928436279297e+00 3.426769673824310303e-01 2.356579542160034180e+00 8.097769021987915039e-01 -1.099926605820655823e-02
3.165000000000000000e+03 3.275777435302734375e+01 -2.410095930099487305e+00 1.316858172416687012e+00 3.709746599197387695e+00 1.507981419563293457e+00 -2.018665075302124023e-01
3.166000000000000000e+03 2.566919517517089844e+01 1.015195274353027344e+01 8.842415213584899902e-01 3.383192539215087891e+00 1.280230164527893066e+00 -2.357608452439308167e-02
3.167000000000000000e+03 2.084376525878906250e+01 7.282735824584960938e+00 4.323245882987976074e-01 2.269185066223144531e+00 8.104528784751892090e-01 -6.272407621145248413e-02
3.168000000000000000e+03 2.894794273376464844e+01 5.614831447601318359e+00 1.042485594749450684e+00 4.165078639984130859e+00 1.562269210815429688e+00 4.628056287765502930e-01
3.169000000000000000e+03 3.012419700622558594e+01 3.062856435775756836e+00 1.141474008560180664e+00 4.222043514251708984e+00 1.609055161476135254e+00 6.145514249801635742e-01
3.170000000000000000e+03 3.105340385437011719e+01 -3.313543558120727539e+00 1.698782563209533691e+00 3.029402017593383789e+00 1.418455362319946289e+00 9.938436746597290039e-02
3.171000000000000000e+03 1.562840270996093750e+01 1.247223472595214844e+01 5.538036227226257324e-01 9.598661661148071289e-01 4.541009366512298584e-01 -1.004793494939804077e-01
3.172000000000000000e+03 1.526980018615722656e+01 1.071260261535644531e+01 5.143530964851379395e-01 7.927529811859130859e-01 3.921318054199218750e-01 -3.255457803606987000e-02
3.173000000000000000e+03 1.431459999084472656e+01 1.216711616516113281e+01 5.033464431762695312e-01 6.503137350082397461e-01 3.460980355739593506e-01 -1.619554869830608368e-02
3.174000000000000000e+03 1.755618476867675781e+01 1.809411048889160156e+01 5.097236633300781250e-01 1.564342617988586426e+00 6.222199201583862305e-01 -3.284011483192443848e-01
3.175000000000000000e+03 1.632951927185058594e+01 1.556221866607666016e+01 5.521615147590637207e-01 1.253852128982543945e+00 5.418040752410888672e-01 -2.203887403011322021e-01
3.176000000000000000e+03 2.642830467224121094e+01 1.092344379425048828e+01 9.789558053016662598e-01 3.554485797882080078e+00 1.360032558441162109e+00 -5.150467529892921448e-02
3.177000000000000000e+03 2.995140457153320312e+01 2.180587530136108398e+00 1.174818158149719238e+00 4.116544723510742188e+00 1.587408781051635742e+00 6.757577657699584961e-01
3.178000000000000000e+03 3.119827461242675781e+01 6.090329289436340332e-01 1.290096879005432129e+00 4.044980525970458984e+00 1.600523233413696289e+00 4.978386759757995605e-01
3.179000000000000000e+03 3.112127494812011719e+01 -1.874315261840820312e+00 1.538307189941406250e+00 3.444705724716186523e+00 1.494903922080993652e+00 3.349177539348602295e-01
3.180000000000000000e+03 2.767499542236328125e+01 9.284258842468261719e+00 1.039266347885131836e+00 3.871878623962402344e+00 1.473343491554260254e+00 1.058015674352645874e-01
3.181000000000000000e+03 2.716520500183105469e+01 7.726863861083984375e+00 9.371171593666076660e-01 3.825456619262695312e+00 1.428772091865539551e+00 2.425143569707870483e-01
3.182000000000000000e+03 2.129452705383300781e+01 7.919672012329101562e+00 5.040087103843688965e-01 2.352596282958984375e+00 8.569815158843994141e-01 -7.406884431838989258e-02
3.183000000000000000e+03 2.698596763610839844e+01 8.745450973510742188e+00 9.846432805061340332e-01 3.773621082305908203e+00 1.427479267120361328e+00 1.442738920450210571e-01
3.184000000000000000e+03 2.970583915710449219e+01 1.366200804710388184e+00 1.218517661094665527e+00 3.962252855300903320e+00 1.554231166839599609e+00 7.477321028709411621e-01
3.185000000000000000e+03 2.779671287536621094e+01 1.023809337615966797e+01 1.061940670013427734e+00 3.888706684112548828e+00 1.485194206237792969e+00 9.137226268649101257e-03
3.186000000000000000e+03 2.543854904174804688e+01 1.432090377807617188e+01 9.214323759078979492e-01 3.288067579269409180e+00 1.262849926948547363e+00 -3.106129765510559082e-01
3.187000000000000000e+03 2.688458824157714844e+01 5.840651988983154297e+00 8.099496364593505859e-01 3.798257827758789062e+00 1.382462263107299805e+00 4.374855160713195801e-01
3.188000000000000000e+03 2.482100296020507812e+01 1.691946792602539062e+01 7.936596870422363281e-01 3.125108718872070312e+00 1.175630569458007812e+00 -4.416580200195312500e-01
3.189000000000000000e+03 1.673898124694824219e+01 2.022650527954101562e+01 4.031483829021453857e-01 1.482433915138244629e+00 5.656746625900268555e-01 -3.553038835525512695e-01
3.190000000000000000e+03 2.389451599121093750e+01 1.550241184234619141e+01 8.042740225791931152e-01 2.900374412536621094e+00 1.111394524574279785e+00 -3.688219487667083740e-01
3.191000000000000000e+03 2.949368286132812500e+01 2.199665641784667969e+01 5.231962203979492188e-01 4.296759605407714844e+00 1.445986747741699219e+00 -6.257569789886474609e-01
3.192000000000000000e+03 2.798627662658691406e+01 2.096488952636718750e+01 6.002950668334960938e-01 3.926407814025878906e+00 1.358010888099670410e+00 -6.060615181922912598e-01
3.193000000000000000e+03 2.828928184509277344e+01 2.390611267089843750e+01 3.105351924896240234e-01 4.026295661926269531e+00 1.301049232482910156e+00 -6.480106115341186523e-01
3.194000000000000000e+03 2.257434082031250000e+01 -3.691930770874023438e-01 -7.908986508846282959e-02 4.065721988677978516e+00 1.195989608764648438e+00 1.094322800636291504e+00
3.195000000000000000e+03 2.395297622680664062e+01 -2.589507579803466797e+00 1.366437673568725586e+00 4.206876277923583984e+00 1.671994209289550781e+00 2.493593215942382812e+00
3.196000000000000000e+03 2.616268348693847656e+01 -7.428503990173339844e+00 3.670986890792846680e+00 8.676008582115173340e-01 1.361576318740844727e+00 1.386362593621015549e-02
3.197000000000000000e+03 2.738192176818847656e+01 -6.768163204193115234e+00 3.086997747421264648e+00 1.237559556961059570e+00 1.297367215156555176e+00 1.100324988365173340e-01
3.198000000000000000e+03 2.225849914550781250e+01 5.970427393913269043e-01 -1.652916818857192993e-01 3.701466798782348633e+00 1.060852527618408203e+00 7.167850136756896973e-01
3.199000000000000000e+03 2.248071098327636719e+01 -1.774906873703002930e+00 6.037069484591484070e-02 4.656948089599609375e+00 1.415195584297180176e+00 1.683689951896667480e+00
3.200000000000000000e+03 2.913756370544433594e+01 -5.795243263244628906e+00 2.362199544906616211e+00 1.848232746124267578e+00 1.263129711151123047e+00 -1.487511768937110901e-02
3.201000000000000000e+03 2.687972068786621094e+01 -6.623544216156005859e+00 3.386042356491088867e+00 1.214246153831481934e+00 1.380086541175842285e+00 3.874800503253936768e-01
3.202000000000000000e+03 2.457491302490234375e+01 -3.475100517272949219e+00 2.390632152557373047e+00 3.579369068145751953e+00 1.791000366210937500e+00 2.699803113937377930e+00
3.203000000000000000e+03 2.633072853088378906e+01 -7.055466175079345703e+00 3.680491685867309570e+00 9.884023666381835938e-01 1.400668263435363770e+00 2.678712904453277588e-01
3.204000000000000000e+03 2.591208457946777344e+01 -7.119760990142822266e+00 3.985967159271240234e+00 9.727950096130371094e-01 1.487628579139709473e+00 3.501908183097839355e-01
3.205000000000000000e+03 2.601484107971191406e+01 5.143605232238769531e+00 6.768157482147216797e-01 3.669859170913696289e+00 1.304002523422241211e+00 4.736351072788238525e-01
3.206000000000000000e+03 2.244428062438964844e+01 1.900249958038330078e+00 -1.558179780840873718e-02 3.388953447341918945e+00 1.012011528015136719e+00 5.123128890991210938e-01
3.207000000000000000e+03 2.236495208740234375e+01 3.649736404418945312e+00 1.502102017402648926e-01 3.052644014358520508e+00 9.608562588691711426e-01 2.852579653263092041e-01
3.208000000000000000e+03 2.155033874511718750e+01 6.413612365722656250e+00 3.946191370487213135e-01 2.474610567092895508e+00 8.607689142227172852e-01 3.358129179105162621e-04
3.209000000000000000e+03 3.354973220825195312e+01 -4.960423469543457031e+00 1.122641682624816895e+00 3.351779222488403320e+00 1.342326283454895020e+00 -8.718639016151428223e-01
3.210000000000000000e+03 3.045207595825195312e+01 -4.878300666809082031e+00 1.926276683807373047e+00 2.426566839218139648e+00 1.305853128433227539e+00 -1.221470758318901062e-01
3.211000000000000000e+03 3.109141731262207031e+01 -5.280990600585937500e+00 1.731191873550415039e+00 2.511363744735717773e+00 1.272766590118408203e+00 -4.144111871719360352e-01
3.212000000000000000e+03 3.121739006042480469e+01 -2.553694963455200195e+00 1.611944556236267090e+00 3.272041320800781250e+00 1.465195775032043457e+00 1.741725057363510132e-01
3.213000000000000000e+03 2.971998786926269531e+01 -2.790062189102172852e+00 1.899971723556518555e+00 2.915705919265747070e+00 1.444703340530395508e+00 6.089697480201721191e-01
3.214000000000000000e+03 3.072509574890136719e+01 -1.505098491907119751e-01 1.368800520896911621e+00 3.831305503845214844e+00 1.560031771659851074e+00 5.564332008361816406e-01
3.215000000000000000e+03 2.029053497314453125e+01 9.592990875244140625e+00 5.822951197624206543e-01 2.047018527984619141e+00 7.887941598892211914e-01 -1.389430016279220581e-01
3.216000000000000000e+03 2.345624542236328125e+01 7.360978603363037109e+00 5.713360905647277832e-01 2.937152624130249023e+00 1.052546620368957520e+00 8.629260212182998657e-02
3.217000000000000000e+03 2.913513755798339844e+01 3.175664663314819336e+00 1.072255849838256836e+00 4.103594303131103516e+00 1.552754998207092285e+00 6.827527880668640137e-01
3.218000000000000000e+03 2.908832931518554688e+01 2.383048057556152344e+00 1.098718047142028809e+00 4.022284030914306641e+00 1.536300539970397949e+00 7.615686655044555664e-01
3.219000000000000000e+03 1.811042213439941406e+01 1.417040061950683594e+01 6.161661148071289062e-01 1.558950543403625488e+00 6.525350213050842285e-01 -2.307723015546798706e-01
3.220000000000000000e+03 2.297238922119140625e+01 4.466752529144287109e+00 2.942006886005401611e-01 3.115588188171386719e+00 1.022936701774597168e+00 2.891514897346496582e-01
3.221000000000000000e+03 2.220241928100585938e+01 5.015000820159912109e+00 2.870500385761260986e-01 2.821207284927368164e+00 9.324772357940673828e-01 1.494278460741043091e-01
3.222000000000000000e+03 1.712003707885742188e+01 1.018402385711669922e+01 5.464594364166259766e-01 1.167261362075805664e+00 5.141162276268005371e-01 -1.124901250004768372e-01
3.223000000000000000e+03 2.864280700683593750e+01 4.523731231689453125e+00 9.966634511947631836e-01 4.102999687194824219e+00 1.529899001121520996e+00 5.782582163810729980e-01
3.224000000000000000e+03 1.734691429138183594e+01 1.498689746856689453e+01 5.833207964897155762e-01 1.414714097976684570e+00 5.994104743003845215e-01 -2.294138073921203613e-01
3.225000000000000000e+03 2.295925903320312500e+01 1.962572455406188965e+00 8.938491344451904297e-02 3.532417774200439453e+00 1.086540818214416504e+00 6.332202553749084473e-01
3.226000000000000000e+03 2.823766899108886719e+01 3.250031471252441406e+00 9.565271139144897461e-01 3.980713844299316406e+00 1.481172323226928711e+00 7.363020181655883789e-01
3.227000000000000000e+03 2.176912879943847656e+01 8.649868965148925781e+00 5.716657638549804688e-01 2.442446708679199219e+00 9.042337536811828613e-01 -7.200238108634948730e-02
3.228000000000000000e+03 2.228987503051757812e+01 9.587342262268066406e+00 6.558865308761596680e-01 2.544792890548706055e+00 9.602038264274597168e-01 -1.008274108171463013e-01
3.229000000000000000e+03 1.819943428039550781e+01 1.955507850646972656e+01 4.678694605827331543e-01 1.738331198692321777e+00 6.618602275848388672e-01 -3.848162591457366943e-01
3.230000000000000000e+03 2.232905197143554688e+01 2.380798530578613281e+01 2.926778197288513184e-01 2.695768594741821289e+00 8.965339064598083496e-01 -5.692964792251586914e-01
3.231000000000000000e+03 2.557100677490234375e+01 1.200664710998535156e+01 9.326785206794738770e-01 3.314763069152832031e+00 1.274232506752014160e+00 -1.554802805185317993e-01
3.232000000000000000e+03 2.644149589538574219e+01 9.467832565307617188e+00 9.324463605880737305e-01 3.606958627700805664e+00 1.361821532249450684e+00 4.997422546148300171e-02
3.233000000000000000e+03 3.423959732055664062e+01 2.404536819458007812e+01 3.291988670825958252e-01 5.346701145172119141e+00 1.702769994735717773e+00 -4.364107549190521240e-01
3.234000000000000000e+03 2.543717193603515625e+01 2.108298301696777344e+01 5.374679565429687500e-01 3.339586019515991211e+00 1.163116216659545898e+00 -5.914489626884460449e-01
3.235000000000000000e+03 2.434230804443359375e+01 1.959014129638671875e+01 6.268631815910339355e-01 3.057179212570190430e+00 1.105212688446044922e+00 -5.341341495513916016e-01
3.236000000000000000e+03 1.966180801391601562e+01 2.298520851135253906e+01 3.206239640712738037e-01 2.129928112030029297e+00 7.351655960083007812e-01 -4.961407184600830078e-01
3.237000000000000000e+03 3.652592086791992188e+01 2.779855537414550781e+01 -2.265928387641906738e-01 5.313145160675048828e+00 1.525965690612792969e+00 -2.212383002042770386e-01
3.238000000000000000e+03 3.285095977783203125e+01 2.585537338256835938e+01 4.000622034072875977e-02 4.872683525085449219e+00 1.473806977272033691e+00 -5.438356399536132812e-01
3.239000000000000000e+03 1.689484596252441406e+01 2.654774284362792969e+01 9.111396968364715576e-02 1.717850327491760254e+00 5.426893234252929688e-01 -4.480338096618652344e-01
3.240000000000000000e+03 1.312229728698730469e+01 3.117630958557128906e+01 -6.614771485328674316e-02 1.124314188957214355e+00 3.174499273300170898e-01 -2.689263224601745605e-01
3.241000000000000000e+03 6.815087890625000000e+01 -4.106819915771484375e+01 6.702228188514709473e-01 2.199965953826904297e+00 8.610566854476928711e-01 2.237889468669891357e-01
3.242000000000000000e+03 1.516903686523437500e+01 2.693047904968261719e+01 7.140416651964187622e-02 1.426161289215087891e+00 4.492696225643157959e-01 -3.847184479236602783e-01
3.243000000000000000e+03 2.559775924682617188e+01 -5.033989429473876953e+00 3.731436729431152344e+00 2.129940748214721680e+00 1.758413195610046387e+00 1.975968956947326660e+00
3.244000000000000000e+03 2.188492202758789062e+01 -7.162848114967346191e-01 -3.138244450092315674e-01 4.128664970397949219e+00 1.144452214241027832e+00 9.454686045646667480e-01
3.245000000000000000e+03 2.336005973815917969e+01 -2.071116447448730469e+00 6.773846745491027832e-01 4.504569530487060547e+00 1.554586291313171387e+00 2.163207054138183594e+00
3.246000000000000000e+03 2.527612304687500000e+01 -6.267807483673095703e+00 4.555324554443359375e+00 1.389054417610168457e+00 1.783313751220703125e+00 1.354821085929870605e+00
3.247000000000000000e+03 2.243531417846679688e+01 -1.420108556747436523e+00 -3.037553466856479645e-02 4.467761993408203125e+00 1.331215977668762207e+00 1.469372868537902832e+00
3.248000000000000000e+03 2.307021141052246094e+01 -1.805398464202880859e+00 3.830512166023254395e-01 4.534133434295654297e+00 1.475155353546142578e+00 1.912585616111755371e+00
3.249000000000000000e+03 2.429579734802246094e+01 -2.823141813278198242e+00 1.696728467941284180e+00 3.971049785614013672e+00 1.700333476066589355e+00 2.543884515762329102e+00
3.250000000000000000e+03 2.256068992614746094e+01 2.603043019771575928e-01 -9.830525517463684082e-02 3.859003782272338867e+00 1.128209471702575684e+00 8.917419314384460449e-01
3.251000000000000000e+03 2.576019859313964844e+01 -6.207703590393066406e+00 4.175484180450439453e+00 1.366906046867370605e+00 1.662717103958129883e+00 1.131349325180053711e+00
3.252000000000000000e+03 2.561875724792480469e+01 -5.392240524291992188e+00 3.944604396820068359e+00 1.896440267562866211e+00 1.752313375473022461e+00 1.767713546752929688e+00
3.253000000000000000e+03 3.010820007324218750e+01 -3.808574438095092773e+00 1.962446093559265137e+00 2.670099496841430664e+00 1.389763712882995605e+00 2.786697447299957275e-01
3.254000000000000000e+03 2.635340309143066406e+01 -6.575251102447509766e+00 3.711569070816040039e+00 1.188504695892333984e+00 1.470022201538085938e+00 5.687615275382995605e-01
3.255000000000000000e+03 2.251126861572265625e+01 8.608028292655944824e-01 -7.832574099302291870e-02 3.679974317550659180e+00 1.080494642257690430e+00 7.347178459167480469e-01
3.256000000000000000e+03 2.205768394470214844e+01 1.368558406829833984e+00 -1.270750612020492554e-01 3.404724121093750000e+00 9.832946658134460449e-01 5.108102560043334961e-01
3.257000000000000000e+03 2.250299835205078125e+01 1.482454776763916016e+00 -3.599889203906059265e-02 3.524898529052734375e+00 1.046669960021972656e+00 6.141048669815063477e-01
3.258000000000000000e+03 2.530919647216796875e+01 4.451828479766845703e+00 5.869207382202148438e-01 3.599121332168579102e+00 1.255812644958496094e+00 5.233197808265686035e-01
3.259000000000000000e+03 2.951063728332519531e+01 -5.195497512817382812e+00 2.231282472610473633e+00 2.102261543273925781e+00 1.300063133239746094e+00 7.249563187360763550e-02
3.260000000000000000e+03 2.289459228515625000e+01 2.504887819290161133e+00 1.120567470788955688e-01 3.399698972702026367e+00 1.053526759147644043e+00 5.236840844154357910e-01
3.261000000000000000e+03 2.849111938476562500e+01 -4.635386466979980469e+00 2.525796890258789062e+00 2.133053064346313477e+00 1.397655010223388672e+00 6.405389308929443359e-01
3.262000000000000000e+03 2.266517829895019531e+01 6.325067043304443359e+00 4.598322212696075439e-01 2.813043594360351562e+00 9.818627834320068359e-01 9.406108409166336060e-02
3.263000000000000000e+03 2.226103401184082031e+01 4.312247276306152344e+00 2.099999487400054932e-01 2.925238132476806641e+00 9.405713677406311035e-01 2.106525748968124390e-01
3.264000000000000000e+03 3.128664398193359375e+01 -5.124560594558715820e-01 1.388621449470520020e+00 3.808537244796752930e+00 1.559147596359252930e+00 4.361168444156646729e-01
3.265000000000000000e+03 3.009332084655761719e+01 2.319423407316207886e-01 1.356128931045532227e+00 3.796736955642700195e+00 1.545859694480895996e+00 6.923014521598815918e-01
3.266000000000000000e+03 2.910459327697753906e+01 -2.613318443298339844e+00 1.923441529273986816e+00 2.966979503631591797e+00 1.467126250267028809e+00 8.142548799514770508e-01
3.267000000000000000e+03 2.214492225646972656e+01 6.613350868225097656e+00 4.507947862148284912e-01 2.688449144363403320e+00 9.417731761932373047e-01 4.443961754441261292e-02
3.268000000000000000e+03 2.183256530761718750e+01 5.977182865142822266e+00 3.577089905738830566e-01 2.648520708084106445e+00 9.018688797950744629e-01 6.260463595390319824e-02
3.269000000000000000e+03 1.829177665710449219e+01 1.140302085876464844e+01 5.997957587242126465e-01 1.539264082908630371e+00 6.417179703712463379e-01 -1.637396365404129028e-01
3.270000000000000000e+03 2.129109001159667969e+01 5.540654659271240234e+00 2.850089669227600098e-01 2.489882469177246094e+00 8.324674367904663086e-01 3.045369684696197510e-02
3.271000000000000000e+03 2.829287528991699219e+01 2.497133731842041016e+00 1.016857504844665527e+00 3.947240829467773438e+00 1.489229559898376465e+00 8.238540887832641602e-01
3.272000000000000000e+03 2.080898857116699219e+01 8.625181198120117188e+00 5.534676909446716309e-01 2.203518867492675781e+00 8.270959854125976562e-01 -1.039697080850601196e-01
3.273000000000000000e+03 2.195308113098144531e+01 7.331779003143310547e+00 4.807742536067962646e-01 2.570017099380493164e+00 9.152374267578125000e-01 -5.183114670217037201e-03
3.274000000000000000e+03 2.630685997009277344e+01 1.972721338272094727e+00 7.496549487113952637e-01 3.808732748031616211e+00 1.367516279220581055e+00 9.656960368156433105e-01
3.275000000000000000e+03 2.603085899353027344e+01 6.897418498992919922e+00 7.967407107353210449e-01 3.588337421417236328e+00 1.315523505210876465e+00 2.870925366878509521e-01
3.276000000000000000e+03 2.605866050720214844e+01 7.880606651306152344e+00 8.160659670829772949e-01 3.554372072219848633e+00 1.311131358146667480e+00 1.895111501216888428e-01
3.277000000000000000e+03 1.671263885498046875e+01 1.264151382446289062e+01 5.704166889190673828e-01 1.205138206481933594e+00 5.326664447784423828e-01 -1.524707078933715820e-01
3.278000000000000000e+03 2.766625404357910156e+01 6.092642784118652344e+00 9.077255129814147949e-01 3.946387052536010742e+00 1.456233739852905273e+00 4.176807403564453125e-01
3.279000000000000000e+03 2.528057289123535156e+01 5.157603740692138672e+00 5.965365171432495117e-01 3.563943147659301758e+00 1.248143911361694336e+00 4.423289000988006592e-01
3.280000000000000000e+03 2.870582008361816406e+01 9.308851361274719238e-01 1.208062887191772461e+00 3.811619758605957031e+00 1.505904793739318848e+00 9.334097504615783691e-01
3.281000000000000000e+03 2.940411376953125000e+01 5.978780984878540039e-01 1.305006504058837891e+00 3.799543857574462891e+00 1.531365036964416504e+00 8.384538292884826660e-01
3.282000000000000000e+03 1.498953437805175781e+01 1.181570625305175781e+01 5.234889984130859375e-01 7.491500377655029297e-01 3.817917108535766602e-01 -3.787290677428245544e-02
3.283000000000000000e+03 2.513655853271484375e+01 9.186374664306640625e+00 8.148955702781677246e-01 3.279105424880981445e+00 1.228200316429138184e+00 3.866500779986381531e-02
3.284000000000000000e+03 2.472513580322265625e+01 1.097864818572998047e+01 8.537032008171081543e-01 3.138190507888793945e+00 1.197568178176879883e+00 -1.034185811877250671e-01
3.285000000000000000e+03 1.734790229797363281e+01 1.127437496185302734e+01 5.744950175285339355e-01 1.259178876876831055e+00 5.501021742820739746e-01 -1.291038095951080322e-01
3.286000000000000000e+03 2.439753913879394531e+01 1.309504127502441406e+01 8.701861500740051270e-01 3.037348270416259766e+00 1.172260403633117676e+00 -2.366808205842971802e-01
3.287000000000000000e+03 1.888749504089355469e+01 2.117844772338867188e+01 4.068697988986968994e-01 1.930073499679565430e+00 7.010830044746398926e-01 -4.474470615386962891e-01
3.288000000000000000e+03 1.963939666748046875e+01 1.871309661865234375e+01 5.415076017379760742e-01 2.007175683975219727e+00 7.646049857139587402e-01 -4.101053476333618164e-01
3.289000000000000000e+03 1.887187194824218750e+01 1.730500602722167969e+01 5.719019174575805664e-01 1.804233551025390625e+00 7.128406763076782227e-01 -3.457001149654388428e-01
3.290000000000000000e+03 2.290844726562500000e+01 1.406568050384521484e+01 7.969341278076171875e-01 2.663882017135620117e+00 1.038244843482971191e+00 -2.985301315784454346e-01
3.291000000000000000e+03 2.523301887512207031e+01 2.413673019409179688e+01 2.726624608039855957e-01 3.348668813705444336e+00 1.086399316787719727e+00 -6.298679113388061523e-01
3.292000000000000000e+03 2.396161842346191406e+01 2.247132492065429688e+01 4.038298726081848145e-01 3.029391527175903320e+00 1.029966354370117188e+00 -5.838613510131835938e-01
3.293000000000000000e+03 1.153019332885742188e+01 -3.761320877075195312e+01 -5.947872400283813477e-01 6.678237915039062500e-01 2.191097475588321686e-02 1.641738712787628174e-01
3.294000000000000000e+03 1.041778087615966797e+01 3.192195320129394531e+01 -5.868143960833549500e-02 6.258164644241333008e-01 1.701405048370361328e-01 -2.530305683612823486e-01
3.295000000000000000e+03 1.191004753112792969e+01 3.742737197875976562e+01 -1.949132978916168213e-01 1.025478839874267578e+00 2.491696625947952271e-01 -1.539264917373657227e-01
3.296000000000000000e+03 2.119916152954101562e+01 -3.597254180908203125e+01 -1.575666666030883789e+00 -4.041316807270050049e-01 -5.939394831657409668e-01 4.785702526569366455e-01
3.297000000000000000e+03 3.391695785522460938e+01 2.964949226379394531e+01 -4.294683039188385010e-01 4.841905117034912109e+00 1.323730945587158203e+00 -4.274405241012573242e-01
3.298000000000000000e+03 5.712215042114257812e+01 -4.094628143310546875e+01 -6.310737133026123047e-01 4.244232654571533203e+00 1.083947658538818359e+00 -4.774509072303771973e-01
3.299000000000000000e+03 7.275094509124755859e+00 -3.714961242675781250e+01 -5.203436017036437988e-01 2.635259866714477539e+00 6.344748735427856445e-01 2.310617417097091675e-01
3.300000000000000000e+03 7.156542968750000000e+01 -3.645095825195312500e+01 -4.952170848846435547e-01 5.083632946014404297e+00 1.376524686813354492e+00 6.015354394912719727e-01
3.301000000000000000e+03 3.960142517089843750e+01 -3.823252105712890625e+01 -1.596185445785522461e+00 2.488632202148437500e+00 2.677339911460876465e-01 6.489454507827758789e-01
3.302000000000000000e+03 2.912798118591308594e+01 -3.608992385864257812e+01 -1.779391527175903320e+00 -4.530808329582214355e-02 -5.474098920822143555e-01 -3.642341494560241699e-02
3.303000000000000000e+03 2.824913787841796875e+01 -3.839330673217773438e+01 -1.431008696556091309e+00 -2.263303250074386597e-01 -4.972017109394073486e-01 -4.769341647624969482e-02
3.304000000000000000e+03 4.269282913208007812e+01 -4.116562652587890625e+01 -1.876417994499206543e+00 4.241788387298583984e+00 7.096111178398132324e-01 1.365784257650375366e-01
3.305000000000000000e+03 1.357393932342529297e+01 2.904419898986816406e+01 -1.411240175366401672e-02 1.210314035415649414e+00 3.588604927062988281e-01 -3.242205381393432617e-01
3.306000000000000000e+03 2.049594306945800781e+01 3.107750320434570312e+01 -1.925108283758163452e-01 2.439384222030639648e+00 6.740620732307434082e-01 -4.563128948211669922e-01
3.307000000000000000e+03 8.047624588012695312e+00 -4.148303604125976562e+01 -1.261930465698242188e-01 2.236590623855590820e+00 6.331192255020141602e-01 3.552474826574325562e-02
3.308000000000000000e+03 1.872099494934082031e+01 2.592043876647949219e+01 1.291606426239013672e-01 2.033348321914672852e+00 6.487526893615722656e-01 -4.918964803218841553e-01
3.309000000000000000e+03 8.532296180725097656e+00 3.841075897216796875e+01 -1.071381047368049622e-01 3.955107927322387695e-01 8.651180565357208252e-02 -7.267576456069946289e-02
3.310000000000000000e+03 7.250768280029296875e+01 -4.111367034912109375e+01 1.027054861187934875e-01 5.067327022552490234e+00 1.551009774208068848e+00 4.849429056048393250e-02
3.311000000000000000e+03 4.004906845092773438e+01 3.504974365234375000e+01 -1.039127826690673828e+00 4.673898220062255859e+00 1.090431094169616699e+00 1.055296063423156738e-01
3.312000000000000000e+03 4.767599105834960938e+01 3.839648818969726562e+01 -9.066094160079956055e-01 2.841431617736816406e+00 5.804466605186462402e-01 3.371467292308807373e-01
3.313000000000000000e+03 3.920694732666015625e+01 3.236381530761718750e+01 -7.947805523872375488e-01 4.970511436462402344e+00 1.252719283103942871e+00 5.173738300800323486e-02
3.314000000000000000e+03 3.644677734375000000e+01 3.263136291503906250e+01 -8.154808878898620605e-01 4.890909194946289062e+00 1.222628593444824219e+00 -1.948952227830886841e-01
3.315000000000000000e+03 2.364255142211914062e+01 -2.344558715820312500e+00 1.009392619132995605e+00 4.388977527618408203e+00 1.619511127471923828e+00 2.341738224029541016e+00
3.316000000000000000e+03 2.341835594177246094e+01 -1.454441785812377930e+00 4.590994119644165039e-01 4.348926067352294922e+00 1.442407608032226562e+00 1.826031804084777832e+00
3.317000000000000000e+03 2.492589950561523438e+01 -4.003250122070312500e+00 2.973325014114379883e+00 3.071367740631103516e+00 1.813407897949218750e+00 2.578453540802001953e+00
3.318000000000000000e+03 2.476860046386718750e+01 -4.337771892547607422e+00 3.246314525604248047e+00 2.975189447402954102e+00 1.866451263427734375e+00 2.625531911849975586e+00
3.319000000000000000e+03 2.390011787414550781e+01 -2.061522960662841797e+00 9.886847734451293945e-01 4.247597694396972656e+00 1.570884704589843750e+00 2.213582992553710938e+00
3.320000000000000000e+03 2.541857719421386719e+01 -4.112954616546630859e+00 3.061517000198364258e+00 2.761382818222045898e+00 1.746869921684265137e+00 2.282692193984985352e+00
3.321000000000000000e+03 2.589093780517578125e+01 -4.983968257904052734e+00 3.562361478805541992e+00 2.080124855041503906e+00 1.692745923995971680e+00 1.765853881835937500e+00
3.322000000000000000e+03 2.470854949951171875e+01 -2.987147092819213867e+00 1.996702313423156738e+00 3.678151369094848633e+00 1.702456116676330566e+00 2.492023706436157227e+00
3.323000000000000000e+03 2.289676475524902344e+01 -7.820715010166168213e-02 9.727367199957370758e-03 4.022325038909912109e+00 1.209615707397460938e+00 1.110861659049987793e+00
3.324000000000000000e+03 2.669231033325195312e+01 -5.803397655487060547e+00 3.495376110076904297e+00 1.514107942581176758e+00 1.502845168113708496e+00 8.985824584960937500e-01
3.325000000000000000e+03 2.626101112365722656e+01 -6.086385726928710938e+00 3.777143716812133789e+00 1.375994205474853516e+00 1.545941352844238281e+00 9.420898556709289551e-01
3.326000000000000000e+03 2.568069458007812500e+01 -5.785157203674316406e+00 4.067967891693115234e+00 1.617946147918701172e+00 1.705774188041687012e+00 1.473436713218688965e+00
3.327000000000000000e+03 2.278028106689453125e+01 -1.526221513748168945e+00 1.423594355583190918e-01 4.488237380981445312e+00 1.389179110527038574e+00 1.661531567573547363e+00
3.328000000000000000e+03 2.869127464294433594e+01 -5.424911499023437500e+00 2.540996789932250977e+00 1.866420507431030273e+00 1.322225213050842285e+00 2.725652456283569336e-01
3.329000000000000000e+03 2.313246536254882812e+01 3.888253211975097656e+00 2.556940317153930664e-01 3.231707572937011719e+00 1.046220541000366211e+00 3.734688758850097656e-01
3.330000000000000000e+03 2.834747695922851562e+01 -5.890852451324462891e+00 2.695301771163940430e+00 1.636931061744689941e+00 1.299669861793518066e+00 1.927133202552795410e-01
3.331000000000000000e+03 2.752848434448242188e+01 -6.312530040740966797e+00 3.033143520355224609e+00 1.377245306968688965e+00 1.323116660118103027e+00 2.826211452484130859e-01
3.332000000000000000e+03 2.756443977355957031e+01 4.497889995574951172e+00 8.831837773323059082e-01 3.921302318572998047e+00 1.441345810890197754e+00 5.950266718864440918e-01
3.333000000000000000e+03 2.332631874084472656e+01 3.311354637145996094e+00 2.314236760139465332e-01 3.342420339584350586e+00 1.072153210639953613e+00 4.695015549659729004e-01
3.334000000000000000e+03 2.398230171203613281e+01 5.779679298400878906e+00 4.879164695739746094e-01 3.214025497436523438e+00 1.110582590103149414e+00 2.630699574947357178e-01
3.335000000000000000e+03 2.898793029785156250e+01 -4.869529247283935547e+00 2.388867855072021484e+00 2.141300201416015625e+00 1.359050393104553223e+00 3.751289546489715576e-01
3.336000000000000000e+03 2.821967887878417969e+01 1.803645968437194824e+00 1.064200758934020996e+00 3.887642145156860352e+00 1.485552906990051270e+00 9.022634029388427734e-01
3.337000000000000000e+03 2.827505302429199219e+01 3.994291305541992188e+00 9.704712033271789551e-01 4.020290374755859375e+00 1.497228503227233887e+00 6.537538170814514160e-01
3.338000000000000000e+03 3.061636924743652344e+01 -2.293459892272949219e+00 1.670135021209716797e+00 3.229795455932617188e+00 1.469979166984558105e+00 4.042167365550994873e-01
3.339000000000000000e+03 2.598609733581542969e+01 -3.744688749313354492e+00 2.739365816116333008e+00 2.761360406875610352e+00 1.650217890739440918e+00 2.024229049682617188e+00
3.340000000000000000e+03 2.602632522583007812e+01 5.965994358062744141e+00 7.303817272186279297e-01 3.640903711318969727e+00 1.311385631561279297e+00 4.009475409984588623e-01
3.341000000000000000e+03 2.355234718322753906e+01 2.717046260833740234e+00 2.236146330833435059e-01 3.493473291397094727e+00 1.115126371383666992e+00 5.964451432228088379e-01
3.342000000000000000e+03 2.983065414428710938e+01 -4.529041767120361328e+00 2.093439102172851562e+00 2.416265964508056641e+00 1.352911472320556641e+00 1.824799180030822754e-01
3.343000000000000000e+03 1.841944503784179688e+01 1.027824592590332031e+01 5.740282535552978516e-01 1.535554289817810059e+00 6.328747272491455078e-01 -1.357811838388442993e-01
3.344000000000000000e+03 1.878755950927734375e+01 1.310224723815917969e+01 6.320725083351135254e-01 1.658493876457214355e+00 6.871699094772338867e-01 -2.146387398242950439e-01
3.345000000000000000e+03 2.264803314208984375e+01 7.982350826263427734e+00 5.583848357200622559e-01 2.727288246154785156e+00 9.857019186019897461e-01 4.437130875885486603e-03
3.346000000000000000e+03 2.913418579101562500e+01 -9.851400554180145264e-02 1.384740471839904785e+00 3.649450302124023438e+00 1.510257244110107422e+00 9.214314222335815430e-01
3.347000000000000000e+03 2.135547256469726562e+01 1.028742122650146484e+01 6.470184326171875000e-01 2.310633659362792969e+00 8.872956633567810059e-01 -1.489170342683792114e-01
3.348000000000000000e+03 1.974186897277832031e+01 1.070169734954833984e+01 6.253802180290222168e-01 1.894861817359924316e+00 7.560725808143615723e-01 -1.645851433277130127e-01
3.349000000000000000e+03 3.035566902160644531e+01 -3.049398899078369141e+00 1.808034896850585938e+00 2.983270168304443359e+00 1.437391519546508789e+00 3.716838955879211426e-01
3.350000000000000000e+03 2.335089492797851562e+01 8.856122970581054688e+00 6.788047552108764648e-01 2.872066497802734375e+00 1.065261363983154297e+00 -6.826256867498159409e-03
3.351000000000000000e+03 2.894034004211425781e+01 1.627021074295043945e+00 1.155551195144653320e+00 3.925026655197143555e+00 1.524173378944396973e+00 8.437207937240600586e-01
3.352000000000000000e+03 2.360259437561035156e+01 1.184363842010498047e+01 8.048271536827087402e-01 2.864354133605957031e+00 1.100754380226135254e+00 -1.769603639841079712e-01
3.353000000000000000e+03 2.511045265197753906e+01 6.994320869445800781e+00 6.859884262084960938e-01 3.377755403518676758e+00 1.219123125076293945e+00 2.266019582748413086e-01
3.354000000000000000e+03 2.421883392333984375e+01 2.960994243621826172e+00 3.466600179672241211e-01 3.567822456359863281e+00 1.174344778060913086e+00 6.532449126243591309e-01
3.355000000000000000e+03 1.918262100219726562e+01 1.513558864593505859e+01 6.389587521553039551e-01 1.821992874145507812e+00 7.382854819297790527e-01 -2.943335473537445068e-01
3.356000000000000000e+03 2.407705116271972656e+01 7.978534698486328125e+00 6.659607887268066406e-01 3.086805105209350586e+00 1.125829815864562988e+00 7.713835686445236206e-02
3.357000000000000000e+03 2.814615440368652344e+01 5.193450450897216797e+00 9.508219361305236816e-01 4.015006065368652344e+00 1.489748477935791016e+00 5.159077644348144531e-01
3.358000000000000000e+03 2.224740791320800781e+01 1.254662513732910156e+01 7.413710355758666992e-01 2.507246494293212891e+00 9.745852947235107422e-01 -2.251191139221191406e-01
3.359000000000000000e+03 2.337451171875000000e+01 1.809172439575195312e+01 6.810618042945861816e-01 2.811704635620117188e+00 1.047829866409301758e+00 -4.652922451496124268e-01
3.360000000000000000e+03 2.144439697265625000e+01 1.515799140930175781e+01 7.111682295799255371e-01 2.324780464172363281e+00 9.107846021652221680e-01 -3.341265618801116943e-01
3.361000000000000000e+03 2.244431304931640625e+01 1.662003898620605469e+01 7.115877866744995117e-01 2.593869209289550781e+00 9.916371107101440430e-01 -4.068785011768341064e-01
3.362000000000000000e+03 2.287752151489257812e+01 2.082316207885742188e+01 5.074562430381774902e-01 2.752573490142822266e+00 9.780089259147644043e-01 -5.380706191062927246e-01
3.363000000000000000e+03 2.335731697082519531e+01 -3.816387939453125000e+01 -1.369906425476074219e+00 -4.057072997093200684e-01 -5.326841473579406738e-01 2.567721307277679443e-01
3.364000000000000000e+03 8.869732856750488281e+00 -3.950301361083984375e+01 -2.499941140413284302e-01 1.852496504783630371e+00 4.807507097721099854e-01 5.715611949563026428e-02
3.365000000000000000e+03 2.981528854370117188e+01 2.546282005310058594e+01 1.442206054925918579e-01 4.331922531127929688e+00 1.342842936515808105e+00 -6.361225247383117676e-01
3.366000000000000000e+03 2.665978050231933594e+01 2.574223709106445312e+01 1.073032170534133911e-01 3.659081697463989258e+00 1.129915475845336914e+00 -6.440854072570800781e-01
3.367000000000000000e+03 2.056327056884765625e+01 2.499489784240722656e+01 1.927223503589630127e-01 2.372445344924926758e+00 7.695503234863281250e-01 -5.428295135498046875e-01
3.368000000000000000e+03 1.954041862487792969e+01 2.833373069763183594e+01 -1.698463410139083862e-02 2.253092527389526367e+00 6.708323359489440918e-01 -5.135431885719299316e-01
3.369000000000000000e+03 1.210855865478515625e+01 3.333904647827148438e+01 -1.066728159785270691e-01 9.215292930603027344e-01 2.444569468498229980e-01 -2.485210150480270386e-01
3.370000000000000000e+03 4.231678390502929688e+01 4.098393249511718750e+01 -1.263533353805541992e+00 4.063458442687988281e+00 8.399775624275207520e-01 5.345610529184341431e-02
3.371000000000000000e+03 4.661716461181640625e+01 -3.807528305053710938e+01 -1.865760803222656250e+00 6.134579658508300781e+00 1.280645608901977539e+00 -8.183573931455612183e-02
3.372000000000000000e+03 2.310977745056152344e+01 -1.135030984878540039e+00 2.360472381114959717e-01 4.325496673583984375e+00 1.368463158607482910e+00 1.587691187858581543e+00
3.373000000000000000e+03 2.286729812622070312e+01 5.756986141204833984e-01 -5.544110899791121483e-04 3.820611238479614258e+00 1.146017074584960938e+00 9.035947322845458984e-01
3.374000000000000000e+03 2.449771499633789062e+01 -2.406878232955932617e+00 1.475702524185180664e+00 3.937412261962890625e+00 1.623934507369995117e+00 2.332304477691650391e+00
3.375000000000000000e+03 2.532865524291992188e+01 -4.578412532806396484e+00 3.453998804092407227e+00 2.513534069061279297e+00 1.790259838104248047e+00 2.280321598052978516e+00
3.376000000000000000e+03 2.486939430236816406e+01 -2.501317977905273438e+00 1.666266798973083496e+00 3.724964857101440430e+00 1.617369532585144043e+00 2.272188901901245117e+00
3.377000000000000000e+03 2.597688674926757812e+01 -5.313993930816650391e+00 3.701554536819458008e+00 1.852397680282592773e+00 1.666185736656188965e+00 1.575656652450561523e+00
3.378000000000000000e+03 2.367629814147949219e+01 -1.768645167350769043e+00 7.162804007530212402e-01 4.324276447296142578e+00 1.512166976928710938e+00 2.029070615768432617e+00
3.379000000000000000e+03 2.706972694396972656e+01 -6.107225418090820312e+00 3.306684017181396484e+00 1.427838087081909180e+00 1.420356631278991699e+00 5.811338424682617188e-01
3.380000000000000000e+03 2.609036064147949219e+01 -5.676259040832519531e+00 3.785438060760498047e+00 1.649927377700805664e+00 1.630609631538391113e+00 1.309819817543029785e+00
3.381000000000000000e+03 2.686915397644042969e+01 -1.502978444099426270e+00 1.614194154739379883e+00 3.386912822723388672e+00 1.500332117080688477e+00 1.549964785575866699e+00
3.382000000000000000e+03 2.552046966552734375e+01 -3.644656181335449219e+00 2.637685775756835938e+00 2.996969223022460938e+00 1.690396547317504883e+00 2.243592023849487305e+00
3.383000000000000000e+03 2.504450988769531250e+01 -3.551764726638793945e+00 2.557585716247558594e+00 3.239838600158691406e+00 1.739227294921875000e+00 2.462209939956665039e+00
3.384000000000000000e+03 2.351008605957031250e+01 -7.817047834396362305e-01 3.288439512252807617e-01 4.164988994598388672e+00 1.348149895668029785e+00 1.531481385231018066e+00
3.385000000000000000e+03 2.282022666931152344e+01 -7.622581720352172852e-01 3.671682253479957581e-02 4.231545925140380859e+00 1.280478835105895996e+00 1.339084029197692871e+00
3.386000000000000000e+03 2.734692573547363281e+01 -5.663459300994873047e+00 3.096505165100097656e+00 1.651298999786376953e+00 1.424341320991516113e+00 7.012674808502197266e-01
3.387000000000000000e+03 2.343902015686035156e+01 1.812012553215026855e+00 1.684038788080215454e-01 3.613762855529785156e+00 1.134649991989135742e+00 7.318125367164611816e-01
3.388000000000000000e+03 2.273276901245117188e+01 1.170767545700073242e+00 -3.218238055706024170e-02 3.646820306777954102e+00 1.084391355514526367e+00 7.193857431411743164e-01
3.389000000000000000e+03 2.799113845825195312e+01 -5.562250614166259766e+00 2.834357261657714844e+00 1.725579977035522461e+00 1.367981195449829102e+00 4.909653067588806152e-01
3.390000000000000000e+03 2.923175430297851562e+01 -4.240628242492675781e+00 2.232169389724731445e+00 2.380529880523681641e+00 1.383809804916381836e+00 4.652318358421325684e-01
3.391000000000000000e+03 2.289231872558593750e+01 1.508988499641418457e+00 4.041348397731781006e-02 3.609644412994384766e+00 1.095017313957214355e+00 7.046877741813659668e-01
3.392000000000000000e+03 2.444296836853027344e+01 2.412360429763793945e+00 3.775147795677185059e-01 3.665838718414306641e+00 1.213006019592285156e+00 7.672336101531982422e-01
3.393000000000000000e+03 2.553656959533691406e+01 3.258155345916748047e+00 5.821262598037719727e-01 3.705142736434936523e+00 1.286180734634399414e+00 7.297150492668151855e-01
3.394000000000000000e+03 2.946899986267089844e+01 -3.548708438873291016e+00 2.067546129226684570e+00 2.671627044677734375e+00 1.421751976013183594e+00 5.444657206535339355e-01
3.395000000000000000e+03 2.615613555908203125e+01 -3.329594373703002930e+00 2.461814165115356445e+00 2.898935317993164062e+00 1.608224868774414062e+00 1.942513465881347656e+00
3.396000000000000000e+03 3.032109832763671875e+01 -9.948133230209350586e-01 1.518613338470458984e+00 3.525629043579101562e+00 1.513272762298583984e+00 6.115645766258239746e-01
3.397000000000000000e+03 2.999048614501953125e+01 -1.922837734222412109e+00 1.686078667640686035e+00 3.261276006698608398e+00 1.484206438064575195e+00 6.248743534088134766e-01
3.398000000000000000e+03 2.926304626464843750e+01 -1.812802553176879883e+00 1.725163817405700684e+00 3.210503339767456055e+00 1.480700135231018066e+00 8.441151380538940430e-01
3.399000000000000000e+03 2.230667304992675781e+01 5.713267803192138672e+00 3.489377498626708984e-01 2.754789352416992188e+00 9.311181306838989258e-01 9.642434865236282349e-02
3.400000000000000000e+03 2.287117004394531250e+01 5.074981689453125000e+00 3.457621932029724121e-01 3.019932031631469727e+00 1.009708285331726074e+00 2.191941738128662109e-01
3.401000000000000000e+03 2.452995872497558594e+01 5.864816665649414062e+00 5.678191781044006348e-01 3.352198123931884766e+00 1.176005244255065918e+00 3.021317422389984131e-01
3.402000000000000000e+03 2.756118965148925781e+01 1.904125690460205078e+00 9.608967304229736328e-01 3.868377923965454102e+00 1.448782444000244141e+00 9.394065737724304199e-01
3.403000000000000000e+03 2.649527931213378906e+01 4.302898406982421875e+00 7.392628788948059082e-01 3.781044483184814453e+00 1.356092214584350586e+00 6.057798862457275391e-01
3.404000000000000000e+03 2.331410789489746094e+01 6.545062065124511719e+00 5.183195471763610840e-01 2.966322898864746094e+00 1.045392751693725586e+00 1.338890790939331055e-01
3.405000000000000000e+03 2.405688667297363281e+01 9.853884696960449219e+00 7.572757601737976074e-01 3.005538940429687500e+00 1.128844380378723145e+00 -4.509364813566207886e-02
3.406000000000000000e+03 2.744299888610839844e+01 3.132560968399047852e+00 8.743247389793395996e-01 3.897747993469238281e+00 1.431621789932250977e+00 7.725706100463867188e-01
3.407000000000000000e+03 2.805723381042480469e+01 1.172996401786804199e+00 1.106009840965270996e+00 3.824774265289306641e+00 1.479235172271728516e+00 9.991739988327026367e-01
3.408000000000000000e+03 2.519915390014648438e+01 6.004893779754638672e+00 6.532115936279296875e-01 3.465305805206298828e+00 1.235555171966552734e+00 3.332567811012268066e-01
3.409000000000000000e+03 2.426273727416992188e+01 7.078945636749267578e+00 6.336053609848022461e-01 3.224934101104736328e+00 1.157561779022216797e+00 1.807050853967666626e-01
3.410000000000000000e+03 2.917111778259277344e+01 -1.074707627296447754e+00 1.586511731147766113e+00 3.411456823348999023e+00 1.499390602111816406e+00 9.005100727081298828e-01
3.411000000000000000e+03 2.700011062622070312e+01 3.778016567230224609e+00 7.966752648353576660e-01 3.849975109100341797e+00 1.393995165824890137e+00 6.958531141281127930e-01
3.412000000000000000e+03 2.193203926086425781e+01 1.923004341125488281e+01 5.764064192771911621e-01 2.517689943313598633e+00 9.282289147377014160e-01 -4.814362227916717529e-01
3.413000000000000000e+03 2.105095481872558594e+01 1.771721076965332031e+01 6.249617934226989746e-01 2.278277873992919922e+00 8.709719181060791016e-01 -4.184810221195220947e-01
3.414000000000000000e+03 2.131082916259765625e+01 2.197789382934570312e+01 4.020899534225463867e-01 2.447847604751586914e+00 8.549812436103820801e-01 -5.266183614730834961e-01
3.415000000000000000e+03 1.939819908142089844e+01 1.194680786132812500e+01 6.329795122146606445e-01 1.780374288558959961e+00 7.240061163902282715e-01 -1.974057853221893311e-01
3.416000000000000000e+03 1.777629089355468750e+01 1.224132633209228516e+01 5.932500958442687988e-01 1.430406689643859863e+00 6.070970296859741211e-01 -1.683456748723983765e-01
3.417000000000000000e+03 2.899147033691406250e+01 1.952704620361328125e+01 7.893585562705993652e-01 4.200881481170654297e+00 1.497071981430053711e+00 -5.744697451591491699e-01
3.418000000000000000e+03 1.493790626525878906e+01 -3.899373245239257812e+01 -5.941374301910400391e-01 -2.781174778938293457e-01 -2.616764605045318604e-01 2.749689221382141113e-01
3.419000000000000000e+03 2.352374267578125000e+01 2.571527481079101562e+01 1.248278617858886719e-01 3.002192974090576172e+00 9.381062388420104980e-01 -5.870873332023620605e-01
3.420000000000000000e+03 3.119643592834472656e+01 2.723054885864257812e+01 -9.517849981784820557e-02 4.548790931701660156e+00 1.336083650588989258e+00 -5.739154815673828125e-01
3.421000000000000000e+03 3.671029281616210938e+01 3.544495391845703125e+01 -1.071495294570922852e+00 4.711201190948486328e+00 1.091911792755126953e+00 -1.442263424396514893e-01
3.422000000000000000e+03 2.977789497375488281e+01 3.462530899047851562e+01 -7.787567377090454102e-01 4.134442806243896484e+00 1.006705880165100098e+00 -3.807204067707061768e-01
3.423000000000000000e+03 2.650757789611816406e+01 2.935068130493164062e+01 -2.443177998065948486e-01 3.642153978347778320e+00 1.019350886344909668e+00 -5.834283828735351562e-01
3.424000000000000000e+03 2.517790222167968750e+01 -3.077805519104003906e+00 2.199672222137451172e+00 3.386883735656738281e+00 1.675966858863830566e+00 2.351799011230468750e+00
3.425000000000000000e+03 2.419549751281738281e+01 -1.902379870414733887e+00 1.080056309700012207e+00 4.098793983459472656e+00 1.553655147552490234e+00 2.127774000167846680e+00
3.426000000000000000e+03 2.381877517700195312e+01 -1.134616494178771973e+00 5.512741804122924805e-01 4.189123153686523438e+00 1.422119259834289551e+00 1.746628642082214355e+00
3.427000000000000000e+03 2.698991203308105469e+01 -5.367797851562500000e+00 3.211245298385620117e+00 1.767512440681457520e+00 1.493627309799194336e+00 1.003906369209289551e+00
3.428000000000000000e+03 2.320333099365234375e+01 -4.306974709033966064e-01 1.654675006866455078e-01 4.117130279541015625e+00 1.284779310226440430e+00 1.324954986572265625e+00
3.429000000000000000e+03 2.827436256408691406e+01 -5.141934394836425781e+00 2.684333086013793945e+00 1.918640375137329102e+00 1.380892038345336914e+00 5.385715365409851074e-01
3.430000000000000000e+03 2.861767768859863281e+01 3.456119447946548462e-02 1.332629919052124023e+00 3.676270246505737305e+00 1.502670049667358398e+00 1.010559082031250000e+00
3.431000000000000000e+03 2.630202102661132812e+01 -5.196190357208251953e+00 3.500771999359130859e+00 1.899763822555541992e+00 1.620160698890686035e+00 1.463871240615844727e+00
3.432000000000000000e+03 2.355075454711914062e+01 6.451655626296997070e-01 1.865731328725814819e-01 3.858293294906616211e+00 1.213459968566894531e+00 1.042692303657531738e+00
3.433000000000000000e+03 2.862784385681152344e+01 -4.023297786712646484e+00 2.343523025512695312e+00 2.423681974411010742e+00 1.430161595344543457e+00 7.503916025161743164e-01
3.434000000000000000e+03 2.314789390563964844e+01 9.466646909713745117e-01 7.333010435104370117e-02 3.768269300460815430e+00 1.152479887008666992e+00 8.776221275329589844e-01
3.435000000000000000e+03 2.567639923095703125e+01 1.701027870178222656e+00 6.500111222267150879e-01 3.790560483932495117e+00 1.332171440124511719e+00 1.016705036163330078e+00
3.436000000000000000e+03 2.884444808959960938e+01 -3.336989641189575195e+00 2.155591487884521484e+00 2.650844812393188477e+00 1.441930890083312988e+00 8.084882497787475586e-01
3.437000000000000000e+03 2.322133064270019531e+01 2.614247202873229980e-01 9.748438745737075806e-02 3.941794157028198242e+00 1.211783528327941895e+00 1.085061669349670410e+00
3.438000000000000000e+03 2.390730857849121094e+01 2.795163094997406006e-01 3.253816962242126465e-01 3.945443153381347656e+00 1.281247377395629883e+00 1.228718161582946777e+00
3.439000000000000000e+03 2.631253814697265625e+01 2.676128149032592773e+00 7.162696123123168945e-01 3.792684316635131836e+00 1.352686166763305664e+00 8.468954563140869141e-01
3.440000000000000000e+03 2.625920295715332031e+01 3.391979932785034180e+00 6.973965764045715332e-01 3.783364534378051758e+00 1.344228267669677734e+00 7.331715822219848633e-01
3.441000000000000000e+03 2.387108802795410156e+01 4.158897876739501953e+00 3.735206425189971924e-01 3.355973958969116211e+00 1.118848443031311035e+00 4.314452409744262695e-01
3.442000000000000000e+03 2.761463165283203125e+01 2.516075849533081055e+00 9.496365785598754883e-01 3.893830060958862305e+00 1.453040003776550293e+00 8.545038104057312012e-01
3.443000000000000000e+03 2.477949714660644531e+01 -2.108307361602783203e+00 1.409050941467285156e+00 3.841571331024169922e+00 1.575186610221862793e+00 2.157265901565551758e+00
3.444000000000000000e+03 2.602297592163085938e+01 3.960299730300903320e+00 6.724528670310974121e-01 3.732886791229248047e+00 1.321601986885070801e+00 6.401472091674804688e-01
3.445000000000000000e+03 2.457953834533691406e+01 5.092090606689453125e+00 5.277787446975708008e-01 3.411203384399414062e+00 1.181694626808166504e+00 3.974417746067047119e-01
3.446000000000000000e+03 2.362659263610839844e+01 4.691126823425292969e+00 3.943477869033813477e-01 3.252880334854125977e+00 1.094168424606323242e+00 3.467862010002136230e-01
3.447000000000000000e+03 2.603017234802246094e+01 -4.502545833587646484e+00 3.228352308273315430e+00 2.340348482131958008e+00 1.670610189437866211e+00 1.868790626525878906e+00
3.448000000000000000e+03 2.854971694946289062e+01 -1.866014480590820312e+00 1.796970367431640625e+00 3.163433551788330078e+00 1.488121151924133301e+00 1.077294349670410156e+00
3.449000000000000000e+03 2.839882278442382812e+01 4.275591969490051270e-01 1.261432766914367676e+00 3.720913410186767578e+00 1.494703888893127441e+00 1.015201687812805176e+00
3.450000000000000000e+03 2.702122306823730469e+01 2.616525173187255859e+00 8.295196890830993652e-01 3.849364757537841797e+00 1.403665304183959961e+00 8.572241663932800293e-01
3.451000000000000000e+03 2.559280204772949219e+01 2.665953874588012695e+00 5.890104174613952637e-01 3.755696296691894531e+00 1.303412079811096191e+00 8.313667774200439453e-01
3.452000000000000000e+03 2.194059371948242188e+01 1.121782493591308594e+01 7.048752903938293457e-01 2.445118188858032227e+00 9.449980854988098145e-01 -1.758334189653396606e-01
3.453000000000000000e+03 2.404546546936035156e+01 -1.522032380104064941e+00 7.867441773414611816e-01 4.149318218231201172e+00 1.480818748474121094e+00 1.928257822990417480e+00
3.454000000000000000e+03 2.532459640502929688e+01 -2.557678699493408203e+00 1.842173457145690918e+00 3.530260086059570312e+00 1.611730098724365234e+00 2.182714223861694336e+00
3.455000000000000000e+03 2.663665199279785156e+01 -5.171801090240478516e+00 3.341113328933715820e+00 1.829082727432250977e+00 1.551058769226074219e+00 1.249961733818054199e+00
3.456000000000000000e+03 2.621091461181640625e+01 -4.854989051818847656e+00 3.423193693161010742e+00 2.037272691726684570e+00 1.638139843940734863e+00 1.632535338401794434e+00
3.457000000000000000e+03 2.389057922363281250e+01 -4.295404553413391113e-01 4.234288930892944336e-01 4.060911178588867188e+00 1.345301985740661621e+00 1.469756841659545898e+00
3.458000000000000000e+03 2.565565872192382812e+01 -3.187845706939697266e+00 2.336295843124389648e+00 3.153963327407836914e+00 1.647077679634094238e+00 2.166820764541625977e+00
3.459000000000000000e+03 2.580873680114746094e+01 -2.703998804092407227e+00 2.039020061492919922e+00 3.272708415985107422e+00 1.593518614768981934e+00 2.036866903305053711e+00
3.460000000000000000e+03 2.790339279174804688e+01 -4.928773403167724609e+00 2.771182775497436523e+00 1.974521398544311523e+00 1.423711180686950684e+00 7.676450014114379883e-01
3.461000000000000000e+03 2.643680381774902344e+01 -4.364798069000244141e+00 3.013650894165039062e+00 2.309273719787597656e+00 1.596877336502075195e+00 1.645043373107910156e+00
3.462000000000000000e+03 2.355965232849121094e+01 -8.050044625997543335e-02 2.459436208009719849e-01 4.012154102325439453e+00 1.277429342269897461e+00 1.279988884925842285e+00
3.463000000000000000e+03 2.711890220642089844e+01 -3.937845468521118164e+00 2.670120716094970703e+00 2.436317682266235352e+00 1.531931519508361816e+00 1.416192054748535156e+00
3.464000000000000000e+03 2.668612480163574219e+01 -3.439329624176025391e+00 2.522274494171142578e+00 2.725085496902465820e+00 1.574207901954650879e+00 1.711999893188476562e+00
3.465000000000000000e+03 2.577937889099121094e+01 -1.462121605873107910e+00 1.363975644111633301e+00 3.636788845062255859e+00 1.500229358673095703e+00 1.781727910041809082e+00
3.466000000000000000e+03 2.811674118041992188e+01 -3.685399591922760010e-01 1.374144792556762695e+00 3.587391614913940430e+00 1.488460898399353027e+00 1.129540801048278809e+00
3.467000000000000000e+03 2.392911148071289062e+01 9.983705878257751465e-01 2.774598002433776855e-01 3.820080518722534180e+00 1.229262113571166992e+00 1.015147686004638672e+00
3.468000000000000000e+03 2.385465621948242188e+01 2.164231538772583008e+00 2.561706304550170898e-01 3.619904518127441406e+00 1.162822484970092773e+00 7.440586090087890625e-01
3.469000000000000000e+03 2.403823661804199219e+01 3.541346788406372070e+00 3.543903529644012451e-01 3.475517749786376953e+00 1.148972392082214355e+00 5.405749082565307617e-01
3.470000000000000000e+03 2.850834274291992188e+01 -2.511575698852539062e+00 1.969275474548339844e+00 2.942832708358764648e+00 1.473632454872131348e+00 1.034297108650207520e+00
3.471000000000000000e+03 2.460746574401855469e+01 4.364850521087646484e+00 4.816094040870666504e-01 3.486333131790161133e+00 1.190382838249206543e+00 4.822387695312500000e-01
3.472000000000000000e+03 2.819196319580078125e+01 4.842887073755264282e-02 1.294230818748474121e+00 3.649932861328125000e+00 1.483249187469482422e+00 1.098837971687316895e+00
3.473000000000000000e+03 2.832665824890136719e+01 -3.075438737869262695e+00 2.181799650192260742e+00 2.721194505691528320e+00 1.470898270606994629e+00 1.022854804992675781e+00
3.474000000000000000e+03 2.855935478210449219e+01 -1.256652832031250000e+00 1.629884123802185059e+00 3.325316190719604492e+00 1.486560106277465820e+00 1.079487681388854980e+00
3.475000000000000000e+03 2.540211677551269531e+01 3.835551738739013672e+00 5.802966952323913574e-01 3.661288022994995117e+00 1.272475481033325195e+00 6.272051930427551270e-01
3.476000000000000000e+03 2.786862182617187500e+01 6.182584762573242188e-01 1.173787832260131836e+00 3.739616155624389648e+00 1.474021196365356445e+00 1.080864191055297852e+00
3.477000000000000000e+03 2.345051002502441406e+01 5.186053752899169922e+00 3.904582858085632324e-01 3.146889209747314453e+00 1.061204195022583008e+00 2.578455507755279541e-01
3.478000000000000000e+03 2.018234825134277344e+01 1.396516895294189453e+01 6.838451027870178223e-01 2.034821033477783203e+00 8.155998587608337402e-01 -2.747244238853454590e-01
3.479000000000000000e+03 2.090949249267578125e+01 1.122678184509277344e+01 6.714055538177490234e-01 2.195816040039062500e+00 8.601664900779724121e-01 -1.850391328334808350e-01
3.480000000000000000e+03 2.043434333801269531e+01 2.027579689025878906e+01 4.878894984722137451e-01 2.211755990982055664e+00 8.098936676979064941e-01 -4.695875048637390137e-01
3.481000000000000000e+03 2.161629295349121094e+01 2.716938591003417969e+01 3.854189440608024597e-02 2.610953330993652344e+00 7.948486208915710449e-01 -5.461088418960571289e-01
3.482000000000000000e+03 2.443151092529296875e+01 -1.436327457427978516e+00 8.961377739906311035e-01 4.042393207550048828e+00 1.481559276580810547e+00 1.905328154563903809e+00
3.483000000000000000e+03 2.689668655395507812e+01 1.386183142662048340e+00 9.091899394989013672e-01 3.809889793395996094e+00 1.415723919868469238e+00 1.056625604629516602e+00
3.484000000000000000e+03 2.421659469604492188e+01 -7.839832901954650879e-01 6.205058097839355469e-01 4.054723262786865234e+00 1.402568817138671875e+00 1.659776210784912109e+00
3.485000000000000000e+03 2.771410179138183594e+01 -3.193832039833068848e-01 1.329438567161560059e+00 3.583539724349975586e+00 1.473893523216247559e+00 1.214346885681152344e+00
3.486000000000000000e+03 2.886611938476562500e+01 -5.963954329490661621e-01 1.471079945564270020e+00 3.534017324447631836e+00 1.501529216766357422e+00 9.768562316894531250e-01
3.487000000000000000e+03 2.681152725219726562e+01 -4.210021972656250000e+00 2.895740270614624023e+00 2.312692165374755859e+00 1.562529802322387695e+00 1.496519804000854492e+00
3.488000000000000000e+03 2.763131713867187500e+01 -5.279448986053466797e+00 2.929990053176879883e+00 1.825928926467895508e+00 1.426775693893432617e+00 7.372829318046569824e-01
3.489000000000000000e+03 2.529415321350097656e+01 2.159354925155639648e+00 5.524705648422241211e-01 3.759052991867065430e+00 1.293457031250000000e+00 9.045372605323791504e-01
3.490000000000000000e+03 2.473367691040039062e+01 3.719272375106811523e+00 4.672671556472778320e-01 3.561654090881347656e+00 1.208676338195800781e+00 5.916699767112731934e-01
3.491000000000000000e+03 2.734568977355957031e+01 -1.638305425643920898e+00 1.705069661140441895e+00 3.298255920410156250e+00 1.500997662544250488e+00 1.454538941383361816e+00
3.492000000000000000e+03 2.723561668395996094e+01 -3.085458278656005859e+00 2.282060384750366211e+00 2.799270391464233398e+00 1.524399280548095703e+00 1.464446425437927246e+00
3.493000000000000000e+03 2.667297363281250000e+01 -3.856936454772949219e+00 2.707102060317993164e+00 2.539875268936157227e+00 1.574093222618103027e+00 1.654722929000854492e+00
3.494000000000000000e+03 2.487507820129394531e+01 3.143829584121704102e+00 4.655401408672332764e-01 3.643624544143676758e+00 1.232749462127685547e+00 6.962840557098388672e-01
3.495000000000000000e+03 2.790165710449218750e+01 -1.799080729484558105e+00 1.785722017288208008e+00 3.183952093124389648e+00 1.490902185440063477e+00 1.274943232536315918e+00
3.496000000000000000e+03 2.629741477966308594e+01 -2.857940196990966797e+00 2.179100751876831055e+00 3.074645757675170898e+00 1.576123952865600586e+00 1.862667918205261230e+00
3.497000000000000000e+03 2.487153434753417969e+01 -8.042839765548706055e-01 8.538038730621337891e-01 3.916059017181396484e+00 1.430958867073059082e+00 1.680880665779113770e+00
3.498000000000000000e+03 2.425822257995605469e+01 -6.985092908143997192e-02 4.859885275363922119e-01 3.965832233428955078e+00 1.335546255111694336e+00 1.390713691711425781e+00
3.499000000000000000e+03 2.729756927490234375e+01 6.870002746582031250e-01 1.083336591720581055e+00 3.752041101455688477e+00 1.450613379478454590e+00 1.146919846534729004e+00
3.500000000000000000e+03 2.745138359069824219e+01 1.296716570854187012e+00 1.006774187088012695e+00 3.811161279678344727e+00 1.445380687713623047e+00 1.038657188415527344e+00
3.501000000000000000e+03 2.329927062988281250e+01 1.375598073005676270e+00 1.106449067592620850e-01 3.692308902740478516e+00 1.140886068344116211e+00 8.062893152236938477e-01
3.502000000000000000e+03 2.498861694335937500e+01 -2.980138547718524933e-02 7.106771469116210938e-01 3.877930879592895508e+00 1.376582384109497070e+00 1.427994132041931152e+00
3.503000000000000000e+03 2.694777107238769531e+01 1.978542685508728027e+00 8.598529696464538574e-01 3.823065996170043945e+00 1.404875755310058594e+00 9.603720307350158691e-01
3.504000000000000000e+03 2.804821395874023438e+01 -7.954472303390502930e-01 1.490804553031921387e+00 3.458728075027465820e+00 1.484859824180603027e+00 1.189958095550537109e+00
3.505000000000000000e+03 2.524485588073730469e+01 1.206050753593444824e+00 5.864613056182861328e-01 3.807787418365478516e+00 1.318274617195129395e+00 1.098024845123291016e+00
3.506000000000000000e+03 2.798891448974609375e+01 -4.009561538696289062e+00 2.494958162307739258e+00 2.367337942123413086e+00 1.458688855171203613e+00 1.004642009735107422e+00
3.507000000000000000e+03 2.736115264892578125e+01 -2.717620372772216797e+00 2.122290372848510742e+00 2.932272434234619141e+00 1.516368865966796875e+00 1.458451390266418457e+00
3.508000000000000000e+03 2.461143112182617188e+01 -4.230998456478118896e-01 6.939328312873840332e-01 3.943387031555175781e+00 1.391195893287658691e+00 1.539204239845275879e+00
3.509000000000000000e+03 2.552651786804199219e+01 -2.009851932525634766e+00 1.565158724784851074e+00 3.595627307891845703e+00 1.548235774040222168e+00 1.987668037414550781e+00
3.510000000000000000e+03 2.803308868408203125e+01 -4.533581256866455078e+00 2.632029533386230469e+00 2.159219264984130859e+00 1.437374591827392578e+00 8.295551538467407227e-01
3.511000000000000000e+03 2.774955368041992188e+01 1.227107495069503784e-01 1.255270004272460938e+00 3.663618803024291992e+00 1.475666642189025879e+00 1.150494575500488281e+00
3.512000000000000000e+03 2.647231101989746094e+01 -2.386245250701904297e+00 1.937473177909851074e+00 3.201150655746459961e+00 1.541587114334106445e+00 1.760632991790771484e+00
3.513000000000000000e+03 2.667369842529296875e+01 -1.930087327957153320e+00 1.752162575721740723e+00 3.311485290527343750e+00 1.519094347953796387e+00 1.652755141258239746e+00
3.514000000000000000e+03 2.849002456665039062e+01 -7.948468923568725586e-01 1.517994999885559082e+00 3.467605352401733398e+00 1.495680093765258789e+00 1.064060568809509277e+00
3.515000000000000000e+03 2.425570297241210938e+01 6.298316717147827148e-01 3.945302069187164307e-01 3.881874561309814453e+00 1.282921433448791504e+00 1.177533745765686035e+00
3.516000000000000000e+03 2.802152824401855469e+01 -2.674132823944091797e+00 2.065076112747192383e+00 2.913296222686767578e+00 1.493511676788330078e+00 1.220918416976928711e+00
3.517000000000000000e+03 2.764577102661132812e+01 -4.659499168395996094e+00 2.764841079711914062e+00 2.108604669570922852e+00 1.462033748626708984e+00 9.748136997222900391e-01
3.518000000000000000e+03 2.639630889892578125e+01 1.427565455436706543e+00 8.222315311431884766e-01 3.797289371490478516e+00 1.385856270790100098e+00 1.081836581230163574e+00
3.519000000000000000e+03 2.799228096008300781e+01 -1.260896325111389160e+00 1.622933745384216309e+00 3.349668264389038086e+00 1.491780638694763184e+00 1.219944477081298828e+00
3.520000000000000000e+03 2.678313446044921875e+01 -2.993197441101074219e+00 2.271408081054687500e+00 2.886118412017822266e+00 1.547257900238037109e+00 1.668857693672180176e+00
3.521000000000000000e+03 2.469729423522949219e+01 1.886996865272521973e+00 4.440003335475921631e-01 3.742136478424072266e+00 1.255841016769409180e+00 9.234483242034912109e-01
3.522000000000000000e+03 2.458584976196289062e+01 9.698808193206787109e-01 4.584687650203704834e-01 3.842336416244506836e+00 1.290241599082946777e+00 1.121933221817016602e+00
3.523000000000000000e+03 2.763618469238281250e+01 -2.995878219604492188e+00 2.201004266738891602e+00 2.812436103820800781e+00 1.504032135009765625e+00 1.334171533584594727e+00
3.524000000000000000e+03 2.563983345031738281e+01 8.683819770812988281e-01 7.306044697761535645e-01 3.812465667724609375e+00 1.362920999526977539e+00 1.197531104087829590e+00
3.525000000000000000e+03 2.494175720214843750e+01 7.177157402038574219e-01 5.682431459426879883e-01 3.852979660034179688e+00 1.326366782188415527e+00 1.217661142349243164e+00
3.526000000000000000e+03 2.597906684875488281e+01 1.256085515022277832e+00 7.643814682960510254e-01 3.809124469757080078e+00 1.372051835060119629e+00 1.117237925529479980e+00
3.527000000000000000e+03 2.645131111145019531e+01 2.737055718898773193e-01 1.019800543785095215e+00 3.742193698883056641e+00 1.428598284721374512e+00 1.298681259155273438e+00
3.528000000000000000e+03 2.783197975158691406e+01 -3.447259902954101562e+00 2.338569402694702148e+00 2.618553400039672852e+00 1.487136840820312500e+00 1.160245776176452637e+00
3.529000000000000000e+03 2.644372367858886719e+01 -4.793515503406524658e-01 1.199880838394165039e+00 3.653621673583984375e+00 1.456050753593444824e+00 1.458528041839599609e+00
3.530000000000000000e+03 2.715722846984863281e+01 -2.107300758361816406e+00 1.856954216957092285e+00 3.183288097381591797e+00 1.512072682380676270e+00 1.519507408142089844e+00
3.531000000000000000e+03 2.478328514099121094e+01 1.384994506835937500e+00 4.782308340072631836e-01 3.803202390670776367e+00 1.284429907798767090e+00 1.035789966583251953e+00
3.532000000000000000e+03 2.745698738098144531e+01 -1.141294121742248535e+00 1.540024161338806152e+00 3.409251689910888672e+00 1.484782814979553223e+00 1.357845902442932129e+00
3.533000000000000000e+03 2.760018730163574219e+01 -7.047277092933654785e-01 1.434849739074707031e+00 3.509203910827636719e+00 1.483216047286987305e+00 1.278704404830932617e+00
3.534000000000000000e+03 2.677308082580566406e+01 -8.751609921455383301e-02 1.149122953414916992e+00 3.684954643249511719e+00 1.450223207473754883e+00 1.321591615676879883e+00
3.535000000000000000e+03 2.694233703613281250e+01 -2.551229953765869141e+00 2.045689582824707031e+00 3.054727554321289062e+00 1.530125141143798828e+00 1.595599770545959473e+00
3.536000000000000000e+03 2.766119003295898438e+01 -2.315167188644409180e+00 1.960482478141784668e+00 3.047587633132934570e+00 1.502421021461486816e+00 1.359082698822021484e+00
3.537000000000000000e+03 2.630887413024902344e+01 9.806723594665527344e-01 8.666702508926391602e-01 3.793948888778686523e+00 1.398185729980468750e+00 1.170536994934082031e+00
3.538000000000000000e+03 2.622152900695800781e+01 -1.715834736824035645e+00 1.573448657989501953e+00 3.470845937728881836e+00 1.513288378715515137e+00 1.742803692817687988e+00
3.539000000000000000e+03 2.611722564697265625e+01 -9.500690102577209473e-01 1.264297127723693848e+00 3.640166759490966797e+00 1.471339225769042969e+00 1.603708982467651367e+00
3.540000000000000000e+03 2.461099624633789062e+01 3.031943738460540771e-01 5.348094701766967773e-01 3.905869007110595703e+00 1.332203507423400879e+00 1.309706091880798340e+00
3.541000000000000000e+03 2.603153419494628906e+01 5.578970313072204590e-01 8.730445504188537598e-01 3.791257381439208984e+00 1.399290561676025391e+00 1.262539982795715332e+00
3.542000000000000000e+03 2.692647933959960938e+01 -1.063701272010803223e+00 1.448191285133361816e+00 3.504014253616333008e+00 1.485661625862121582e+00 1.472363591194152832e+00
3.543000000000000000e+03 2.688630676269531250e+01 -5.675993561744689941e-01 1.303993940353393555e+00 3.586874008178710938e+00 1.467260360717773438e+00 1.401147127151489258e+00
3.544000000000000000e+03 2.532482528686523438e+01 -7.592504620552062988e-01 9.991376399993896484e-01 3.816535472869873047e+00 1.444701910018920898e+00 1.637986779212951660e+00
3.545000000000000000e+03 2.531917381286621094e+01 -1.276177525520324707e+00 1.191294670104980469e+00 3.760847568511962891e+00 1.485642671585083008e+00 1.804661750793457031e+00
3.546000000000000000e+03 2.650056838989257812e+01 -1.274068832397460938e+00 1.451782703399658203e+00 3.516016244888305664e+00 1.490339756011962891e+00 1.599585652351379395e+00
3.547000000000000000e+03 2.608460235595703125e+01 -1.751720756292343140e-01 1.054047584533691406e+00 3.732167959213256836e+00 1.435864686965942383e+00 1.445819497108459473e+00
3.548000000000000000e+03 2.570847702026367188e+01 1.278661936521530151e-01 8.716169595718383789e-01 3.802755594253540039e+00 1.402311801910400391e+00 1.383396744728088379e+00
3.549000000000000000e+03 2.531771659851074219e+01 4.249761402606964111e-01 7.138873934745788574e-01 3.832348108291625977e+00 1.363870620727539062e+00 1.299310684204101562e+00
3.550000000000000000e+03 2.452913284301757812e+01 3.163923263549804688e+01 -3.700283765792846680e-01 3.332318067550659180e+00 8.886868953704833984e-01 -4.973543584346771240e-01
3.551000000000000000e+03 3.082690048217773438e+01 3.184454154968261719e+01 -5.913570523262023926e-01 4.360146999359130859e+00 1.130636930465698242e+00 -4.894728064537048340e-01
3.552000000000000000e+03 2.816710090637207031e+01 2.728197288513183594e+01 -7.922256737947463989e-02 3.960690498352050781e+00 1.164440393447875977e+00 -6.306310892105102539e-01
3.553000000000000000e+03 2.760013580322265625e+01 -4.108468246459960938e+01 -1.274822473526000977e+00 -3.677794933319091797e-01 -4.927805960178375244e-01 -6.235262844711542130e-03
3.554000000000000000e+03 7.658616638183593750e+01 -3.879683685302734375e+01 -2.962806522846221924e-01 7.290088653564453125e+00 2.098142385482788086e+00 -5.545961111783981323e-02
3.555000000000000000e+03 8.045808792114257812e+00 4.105747222900390625e+01 -1.048137843608856201e-01 2.661750018596649170e-01 4.840836301445960999e-02 -1.579274795949459076e-02
3.556000000000000000e+03 3.318095779418945312e+01 3.529195785522460938e+01 -9.725365042686462402e-01 4.543909072875976562e+00 1.071411848068237305e+00 -2.889609038829803467e-01
3.557000000000000000e+03 1.232645893096923828e+01 -4.155152130126953125e+01 -2.522042095661163330e-01 3.726214766502380371e-01 3.612517938017845154e-02 7.500225212424993515e-03
3.558000000000000000e+03 1.542070865631103516e+01 2.923390197753906250e+01 -3.512310609221458435e-02 1.545141339302062988e+00 4.530054628849029541e-01 -3.898837864398956299e-01
3.559000000000000000e+03 3.738950729370117188e+01 4.113691711425781250e+01 -1.325467109680175781e+00 4.603957653045654297e+00 9.835471510887145996e-01 -2.534991316497325897e-02
3.560000000000000000e+03 2.182926750183105469e+01 3.417549896240234375e+01 -4.203731417655944824e-01 2.806322336196899414e+00 7.157847285270690918e-01 -3.555625677108764648e-01
3.561000000000000000e+03 2.864612007141113281e+01 3.767882919311523438e+01 -8.917751312255859375e-01 3.969093084335327148e+00 9.231953620910644531e-01 -2.355886995792388916e-01
3.562000000000000000e+03 2.844206428527832031e+01 3.083036041259765625e+01 -4.080757200717926025e-01 3.986988544464111328e+00 1.073673844337463379e+00 -5.505647063255310059e-01
3.563000000000000000e+03 1.781026077270507812e+01 3.198383712768554688e+01 -1.795434057712554932e-01 2.032016277313232422e+00 5.557418465614318848e-01 -4.300714731216430664e-01
3.564000000000000000e+03 2.460850715637207031e+01 3.655402374267578125e+01 -6.322814226150512695e-01 3.304291725158691406e+00 8.016030788421630859e-01 -2.998184859752655029e-01
3.565000000000000000e+03 2.679371261596679688e+01 3.342654418945312500e+01 -5.595917701721191406e-01 3.696666240692138672e+00 9.411223530769348145e-01 -4.712229669094085693e-01
3.566000000000000000e+03 1.733338165283203125e+01 -6.527395248413085938e+00 5.590540885925292969e+00 -1.327517747879028320e+00 1.278906941413879395e+00 9.362898468971252441e-01
3.567000000000000000e+03 1.724876976013183594e+01 -6.801723480224609375e+00 6.040795326232910156e+00 -1.446703195571899414e+00 1.378227710723876953e+00 1.733903408050537109e+00
3.568000000000000000e+03 1.785797691345214844e+01 -7.097195625305175781e+00 8.716484069824218750e+00 -1.392469882965087891e+00 2.197204113006591797e+00 2.610162258148193359e+00
3.569000000000000000e+03 1.838090324401855469e+01 -7.357336997985839844e+00 1.080526924133300781e+01 -4.963668882846832275e-01 3.092670679092407227e+00 4.589538097381591797e+00
3.570000000000000000e+03 1.853204536437988281e+01 -7.508752822875976562e+00 1.094550132751464844e+01 5.076692104339599609e-01 3.435950994491577148e+00 5.628782272338867188e+00
3.571000000000000000e+03 2.093760871887207031e+01 -8.503152847290039062e+00 5.785738468170166016e+00 6.969650745391845703e+00 3.826616764068603516e+00 9.157354831695556641e-01
3.572000000000000000e+03 2.142742347717285156e+01 -8.209505081176757812e+00 7.266127109527587891e+00 5.624566555023193359e+00 3.867208242416381836e+00 4.041348770260810852e-02
3.573000000000000000e+03 2.174887275695800781e+01 -7.723861217498779297e+00 9.194973945617675781e+00 4.645784378051757812e+00 4.152227401733398438e+00 3.289625048637390137e-01
3.574000000000000000e+03 2.139839744567871094e+01 -5.064588546752929688e+00 2.719713687896728516e+00 8.188723564147949219e+00 3.272531032562255859e+00 5.062208175659179688e+00
3.575000000000000000e+03 1.952325630187988281e+01 -3.276454448699951172e+00 -9.186660647392272949e-01 3.196709871292114258e+00 6.834131479263305664e-01 -8.085846900939941406e-02
3.576000000000000000e+03 1.962326812744140625e+01 -3.940303087234497070e+00 -8.816132545471191406e-01 3.808151483535766602e+00 8.779614567756652832e-01 -1.351963877677917480e-01
3.577000000000000000e+03 1.979041099548339844e+01 -3.751900672912597656e+00 -9.464007616043090820e-01 4.193754196166992188e+00 9.742060899734497070e-01 1.017646398395299911e-02
3.578000000000000000e+03 1.997074890136718750e+01 -3.838221549987792969e+00 -9.260569214820861816e-01 4.828610897064208984e+00 1.170766115188598633e+00 1.664635092020034790e-01
3.579000000000000000e+03 2.055162239074707031e+01 -4.372499942779541016e+00 -6.014415621757507324e-01 7.427877902984619141e+00 2.047930955886840820e+00 1.621024966239929199e+00
3.580000000000000000e+03 2.098566246032714844e+01 -4.902987480163574219e+00 9.989702701568603516e-01 8.948533058166503906e+00 2.984251022338867188e+00 3.937668800354003906e+00
3.581000000000000000e+03 2.117492294311523438e+01 -4.982881069183349609e+00 1.803438663482666016e+00 8.705390930175781250e+00 3.152648925781250000e+00 4.555544376373291016e+00
3.582000000000000000e+03 6.330204010009765625e+01 -3.709094238281250000e+01 2.396631538867950439e-01 2.547555565834045410e-01 1.483256071805953979e-01 -2.401587814092636108e-01
3.583000000000000000e+03 6.738014221191406250e+01 4.134487152099609375e+01 2.753777503967285156e-01 2.018972396850585938e+00 6.883050799369812012e-01 -6.849436461925506592e-02
3.584000000000000000e+03 1.859900474548339844e+01 -8.565202713012695312e+00 6.591443538665771484e+00 2.502049446105957031e+00 2.728047847747802734e+00 6.822815418243408203e+00
3.585000000000000000e+03 1.867909240722656250e+01 -8.995318412780761719e+00 5.123369693756103516e+00 2.658978223800659180e+00 2.334704399108886719e+00 6.592689514160156250e+00
3.586000000000000000e+03 2.044477272033691406e+01 -8.981999397277832031e+00 3.746200323104858398e+00 6.443291187286376953e+00 3.056847333908081055e+00 2.549218416213989258e+00
3.587000000000000000e+03 2.091075515747070312e+01 -9.076904296875000000e+00 3.749716758728027344e+00 5.630144119262695312e+00 2.813958406448364258e+00 1.303478240966796875e+00
3.588000000000000000e+03 2.201849365234375000e+01 -8.210105895996093750e+00 7.124845981597900391e+00 3.943534851074218750e+00 3.320514202117919922e+00 -1.600320786237716675e-01
3.589000000000000000e+03 2.200568008422851562e+01 -6.418164253234863281e+00 9.651796340942382812e+00 4.298556327819824219e+00 4.185105800628662109e+00 4.223249912261962891e+00
3.590000000000000000e+03 2.241162300109863281e+01 -6.716507434844970703e+00 9.051288604736328125e+00 3.166099309921264648e+00 3.665216207504272461e+00 2.915241003036499023e+00
3.591000000000000000e+03 2.229101753234863281e+01 -5.517682552337646484e+00 5.814356803894042969e+00 5.121286869049072266e+00 3.280693054199218750e+00 4.952148914337158203e+00
3.592000000000000000e+03 2.189583396911621094e+01 -5.292091846466064453e+00 4.823359966278076172e+00 6.476038932800292969e+00 3.389819860458374023e+00 5.383171558380126953e+00
3.593000000000000000e+03 1.799079895019531250e+01 -7.479868888854980469e+00 9.168791770935058594e+00 -8.290987014770507812e-01 2.501907825469970703e+00 4.257100105285644531e+00
3.594000000000000000e+03 1.787150764465332031e+01 -7.784128665924072266e+00 8.387045860290527344e+00 -4.979099035263061523e-01 2.366740942001342773e+00 4.973714828491210938e+00
3.595000000000000000e+03 1.748273658752441406e+01 -7.189200878143310547e+00 7.362782001495361328e+00 -1.437701821327209473e+00 1.777523994445800781e+00 2.857704877853393555e+00
3.596000000000000000e+03 1.715447616577148438e+01 -6.454411506652832031e+00 4.942098617553710938e+00 -1.311598777770996094e+00 1.089149832725524902e+00 9.475432634353637695e-01
3.597000000000000000e+03 7.724288940429687500e+01 3.833343124389648438e+01 -1.799720227718353271e-01 1.004402065277099609e+01 2.959214687347412109e+00 -2.624244987964630127e-01
3.598000000000000000e+03 1.671389389038085938e+01 -6.596604347229003906e+00 4.535511493682861328e+00 -1.266841173171997070e+00 9.806011915206909180e-01 1.398717045783996582e+00
3.599000000000000000e+03 6.311342716217041016e+00 -2.357323074340820312e+01 1.268338322639465332e+00 5.839364051818847656e+00 2.132310628890991211e+00 2.647810459136962891e+00
3.600000000000000000e+03 4.374625015258789062e+01 -2.790583610534667969e+01 1.243921279907226562e+00 9.895470619201660156e+00 3.341817617416381836e+00 -5.666110515594482422e-01
3.601000000000000000e+03 6.098052978515625000e+00 -1.944981575012207031e+01 1.888632774353027344e+00 5.080848693847656250e+00 2.090844392776489258e+00 1.619958519935607910e+00
3.602000000000000000e+03 5.965817260742187500e+01 -3.656616973876953125e+01 -3.114197030663490295e-02 2.018222808837890625e+00 5.961242318153381348e-01 -1.606606245040893555e+00
3.603000000000000000e+03 2.583978843688964844e+01 -3.709548950195312500e+01 -1.538578867912292480e+00 -2.435040771961212158e-01 -5.346248745918273926e-01 1.275875270366668701e-01
3.604000000000000000e+03 4.451992797851562500e+01 3.668712997436523438e+01 -1.012721061706542969e+00 3.806873798370361328e+00 8.382458090782165527e-01 3.065929114818572998e-01
3.605000000000000000e+03 3.672863769531250000e+01 -3.499765396118164062e+01 -1.987421631813049316e+00 1.314934790134429932e-01 -5.567784309387207031e-01 1.853494495153427124e-01
3.606000000000000000e+03 2.106280899047851562e+01 -4.673881053924560547e+00 7.364009618759155273e-01 8.294168472290039062e+00 2.709171056747436523e+00 3.544505596160888672e+00
3.607000000000000000e+03 2.065202331542968750e+01 -4.694589138031005859e+00 -2.292771786451339722e-01 8.475584030151367188e+00 2.473891973495483398e+00 2.433576822280883789e+00
3.608000000000000000e+03 1.929958343505859375e+01 -2.408943414688110352e+00 -8.483365774154663086e-01 2.554684400558471680e+00 5.119043588638305664e-01 -1.245468780398368835e-01
3.609000000000000000e+03 2.181817245483398438e+01 -4.626334190368652344e+00 2.245641469955444336e+00 6.780010223388671875e+00 2.707695484161376953e+00 4.282915592193603516e+00
3.610000000000000000e+03 2.046714973449707031e+01 -3.985409259796142578e+00 -7.738691568374633789e-01 6.406435489654541016e+00 1.689769864082336426e+00 1.103442549705505371e+00
3.611000000000000000e+03 2.060163497924804688e+01 -3.652383804321289062e+00 -7.726423740386962891e-01 5.933357238769531250e+00 1.548214435577392578e+00 1.096384286880493164e+00
3.612000000000000000e+03 2.070011901855468750e+01 -4.108294486999511719e+00 -5.597197413444519043e-01 6.962428569793701172e+00 1.920812726020812988e+00 1.676680445671081543e+00
3.613000000000000000e+03 2.125569725036621094e+01 -4.685492992401123047e+00 1.204422116279602051e+00 8.103476524353027344e+00 2.792369604110717773e+00 3.953367471694946289e+00
3.614000000000000000e+03 2.295792198181152344e+01 -3.610119247436523438e+01 -1.651340365409851074e+00 -2.644152343273162842e-01 -5.747266411781311035e-01 3.690957725048065186e-01
3.615000000000000000e+03 3.264089345932006836e+00 -3.815160989761352539e+00 -2.175287902355194092e-01 -2.139931768178939819e-01 -1.294565945863723755e-01 -5.612844228744506836e-01
3.616000000000000000e+03 4.773224830627441406e+00 -3.667469263076782227e+00 -3.878744244575500488e-01 2.266135625541210175e-02 -1.095639243721961975e-01 -5.960378050804138184e-01
3.617000000000000000e+03 2.332904100418090820e+00 3.618251085281372070e+00 -7.225522398948669434e-02 -1.502487808465957642e-01 -6.675119698047637939e-02 1.766771972179412842e-01
3.618000000000000000e+03 1.388934516906738281e+01 -5.431193828582763672e+00 7.354382276535034180e-01 -7.004718482494354248e-02 1.996173262596130371e-01 8.646019697189331055e-01
3.619000000000000000e+03 2.280782890319824219e+01 -6.397022724151611328e+00 7.769166946411132812e+00 2.898252725601196289e+00 3.200225830078125000e+00 3.210344076156616211e+00
3.620000000000000000e+03 2.271327972412109375e+01 -5.741293907165527344e+00 6.362528324127197266e+00 3.888109922409057617e+00 3.075191497802734375e+00 4.225371837615966797e+00
3.621000000000000000e+03 3.269113779067993164e+00 3.729911804199218750e+01 1.650784164667129517e-02 -6.193000674247741699e-01 -1.808376759290695190e-01 -9.029127657413482666e-02
3.622000000000000000e+03 1.888114356994628906e+01 -9.275455474853515625e+00 3.617865324020385742e+00 3.049753189086914062e+00 2.000285625457763672e+00 6.183323383331298828e+00
3.623000000000000000e+03 1.810667610168457031e+01 -7.831542491912841797e+00 8.853532791137695312e+00 2.993834018707275391e-02 2.665041208267211914e+00 5.458620548248291016e+00
3.624000000000000000e+03 2.393858146667480469e+01 -3.421301269531250000e+01 -1.875825285911560059e+00 -8.298679441213607788e-02 -5.876436233520507812e-01 3.003283739089965820e-01
3.625000000000000000e+03 1.571464157104492188e+01 -7.920419692993164062e+00 4.033507347106933594e+00 -5.680854320526123047e-01 1.039626479148864746e+00 3.464601278305053711e+00
3.626000000000000000e+03 7.457349395751953125e+01 -3.549499130249023438e+01 -4.847212135791778564e-01 6.680411338806152344e+00 1.858707070350646973e+00 -1.237050294876098633e-01
3.627000000000000000e+03 3.127627372741699219e+01 -3.423736572265625000e+01 -2.181862354278564453e+00 5.390305072069168091e-02 -6.383877992630004883e-01 -4.442539811134338379e-02
3.628000000000000000e+03 4.939795017242431641e+00 -2.358397483825683594e+01 8.367436528205871582e-01 3.327250957489013672e+00 1.249198436737060547e+00 2.908501148223876953e+00
3.629000000000000000e+03 2.046736526489257812e+01 -9.810585021972656250e+00 1.622299313545227051e+00 4.206282615661621094e+00 1.748574495315551758e+00 2.530268430709838867e+00
3.630000000000000000e+03 2.041672325134277344e+01 -1.040981674194335938e+01 1.529899835586547852e-01 2.882133007049560547e+00 9.105368852615356445e-01 2.591809988021850586e+00
3.631000000000000000e+03 1.526826095581054688e+01 3.188980293273925781e+01 -1.423666179180145264e-01 1.629251718521118164e+00 4.460655152797698975e-01 -3.304055929183959961e-01
3.632000000000000000e+03 4.503725051879882812e+01 -2.770057678222656250e+01 1.394823789596557617e+00 9.162678718566894531e+00 3.167250871658325195e+00 -2.036506414413452148e+00
3.633000000000000000e+03 5.397306823730468750e+01 -1.871067237854003906e+01 -4.490148127079010010e-01 1.050440192222595215e+00 1.804276257753372192e-01 -2.743358016014099121e-01
3.634000000000000000e+03 6.125038623809814453e+00 -1.767974662780761719e+01 1.699137449264526367e+00 4.183429718017578125e+00 1.764770269393920898e+00 1.030981421470642090e+00
3.635000000000000000e+03 1.955383872985839844e+01 -1.004473781585693359e+01 1.477502226829528809e+00 3.252661466598510742e+00 1.419049143791198730e+00 4.400033473968505859e+00
3.636000000000000000e+03 1.380116462707519531e+01 -6.297146797180175781e+00 1.387644886970520020e+00 -9.651549160480499268e-03 4.133979976177215576e-01 1.312628507614135742e+00
3.637000000000000000e+03 2.117088317871093750e+01 -9.545124053955078125e+00 2.349928140640258789e+00 4.334975242614746094e+00 2.005470991134643555e+00 9.121003746986389160e-01
3.638000000000000000e+03 2.089855575561523438e+01 -4.273291110992431641e+00 -1.769042909145355225e-01 7.472414970397949219e+00 2.188653230667114258e+00 2.344407320022583008e+00
3.639000000000000000e+03 2.008925056457519531e+01 -2.448578357696533203e+00 -8.664502501487731934e-01 3.844818592071533203e+00 8.935104608535766602e-01 2.397799789905548096e-01
3.640000000000000000e+03 2.103487396240234375e+01 -4.465175151824951172e+00 3.034660518169403076e-01 7.842687606811523438e+00 2.443846225738525391e+00 2.996506214141845703e+00
3.641000000000000000e+03 6.432823181152343750e+01 -1.892449951171875000e+01 -4.408893585205078125e-01 1.257056593894958496e+00 2.448501735925674438e-01 1.547133207321166992e+00
3.642000000000000000e+03 1.760465049743652344e+01 -7.688306808471679688e+00 7.763887882232666016e+00 -8.756252527236938477e-01 2.066478729248046875e+00 4.314398765563964844e+00
3.643000000000000000e+03 1.732424926757812500e+01 -8.280170440673828125e+00 6.214388847351074219e+00 -4.017181098461151123e-01 1.743801236152648926e+00 5.278943061828613281e+00
3.644000000000000000e+03 1.021489524841308594e+01 -3.405655670166015625e+01 -1.368834853172302246e+00 1.211307525634765625e+00 -4.725821688771247864e-02 2.271464765071868896e-01
3.645000000000000000e+03 8.852591514587402344e+00 -3.478205108642578125e+01 -1.109146475791931152e+00 1.951597094535827637e+00 2.527351975440979004e-01 2.872290015220642090e-01
3.646000000000000000e+03 4.129853439331054688e+01 -1.578436088562011719e+01 -4.402190446853637695e-01 7.472180843353271484e+00 2.109588623046875000e+00 -2.658696651458740234e+00
3.647000000000000000e+03 4.203125381469726562e+01 -1.645472717285156250e+01 -6.766943633556365967e-02 8.428287506103515625e+00 2.508185386657714844e+00 -2.683848619461059570e+00
3.648000000000000000e+03 3.283976316452026367e+00 3.551724243164062500e+01 3.932538907974958420e-03 -6.081655621528625488e-01 -1.812699139118194580e-01 -4.565982148051261902e-02
3.649000000000000000e+03 7.445520019531250000e+01 3.019173622131347656e+01 -2.320818006992340088e-01 7.954226016998291016e+00 2.316643238067626953e+00 6.857815980911254883e-01
3.650000000000000000e+03 9.070684432983398438e+00 -3.260580825805664062e+01 -1.799296498298645020e+00 2.006606817245483398e+00 6.219312176108360291e-02 4.297940135002136230e-01
3.651000000000000000e+03 2.222613143920898438e+01 -4.930369377136230469e+00 3.636528968811035156e+00 5.897291660308837891e+00 2.860146284103393555e+00 4.685041427612304688e+00
3.652000000000000000e+03 2.253432655334472656e+01 -4.854618549346923828e+00 3.841037034988403320e+00 5.200438022613525391e+00 2.712442398071289062e+00 4.444788455963134766e+00
3.653000000000000000e+03 2.239038467407226562e+01 -4.257655620574951172e+00 2.161518573760986328e+00 5.654358386993408203e+00 2.344763040542602539e+00 3.823923349380493164e+00
3.654000000000000000e+03 2.202972602844238281e+01 -4.142870426177978516e+00 1.439661264419555664e+00 6.287738323211669922e+00 2.318219900131225586e+00 3.640506029129028320e+00
3.655000000000000000e+03 4.621092224121093750e+01 -2.513517189025878906e+01 2.466506958007812500e+00 8.228825569152832031e+00 3.208599805831909180e+00 -2.549089908599853516e+00
3.656000000000000000e+03 2.228008270263671875e+01 -4.050150871276855469e+00 1.612162590026855469e+00 5.852933406829833984e+00 2.239528894424438477e+00 3.591149568557739258e+00
3.657000000000000000e+03 7.250989532470703125e+01 3.000596237182617188e+01 -3.953969478607177734e-01 6.880930900573730469e+00 1.945660233497619629e+00 5.834144353866577148e-01
3.658000000000000000e+03 2.287319564819335938e+01 -4.633406639099121094e+00 3.405499696731567383e+00 4.767349243164062500e+00 2.451854705810546875e+00 4.042123794555664062e+00
3.659000000000000000e+03 2.276981735229492188e+01 -7.445830821990966797e+00 7.857784271240234375e+00 2.339230060577392578e+00 3.059104204177856445e+00 1.018647313117980957e+00
3.660000000000000000e+03 2.053374862670898438e+01 -3.036247253417968750e+00 -8.298069238662719727e-01 5.009778976440429688e+00 1.253991603851318359e+00 7.401992082595825195e-01
3.661000000000000000e+03 2.028780364990234375e+01 -2.046671390533447266e+00 -8.374288082122802734e-01 3.847065925598144531e+00 9.028910994529724121e-01 2.909818291664123535e-01
3.662000000000000000e+03 2.003118133544921875e+01 -2.134059429168701172e+00 -8.636595010757446289e-01 3.526014328002929688e+00 7.987064719200134277e-01 1.679004281759262085e-01
3.663000000000000000e+03 1.953297424316406250e+01 -1.719063878059387207e+00 -8.269075751304626465e-01 2.753813266754150391e+00 5.780717134475708008e-01 -1.674006134271621704e-02
3.664000000000000000e+03 1.939326858520507812e+01 -2.035198688507080078e+00 -8.494517207145690918e-01 2.648157835006713867e+00 5.396118164062500000e-01 -5.559808760881423950e-02
3.665000000000000000e+03 1.924430465698242188e+01 -1.502253055572509766e+00 -7.520272731781005859e-01 2.336816549301147461e+00 4.754367470741271973e-01 -6.290329247713088989e-02
3.666000000000000000e+03 5.549583911895751953e+00 -3.365339279174804688e+01 -8.501872420310974121e-01 3.544920444488525391e+00 8.084199428558349609e-01 7.384368777275085449e-01
3.667000000000000000e+03 7.474456787109375000e+01 -1.966864013671875000e+01 -8.169940114021301270e-01 7.513331413269042969e+00 2.008901357650756836e+00 1.694136112928390503e-01
3.668000000000000000e+03 3.867666721343994141e+00 3.632041549682617188e+01 2.674824930727481842e-02 -4.695873260498046875e-01 -1.328517198562622070e-01 -5.875359103083610535e-02
3.669000000000000000e+03 4.764793014526367188e+01 -2.106191253662109375e+01 1.956515073776245117e+00 6.583105564117431641e+00 2.561886072158813477e+00 -1.662253618240356445e+00
3.670000000000000000e+03 1.648873710632324219e+01 -8.649869918823242188e+00 4.595633029937744141e+00 -2.853284776210784912e-01 1.293091297149658203e+00 4.862389087677001953e+00
3.671000000000000000e+03 3.398071050643920898e+00 3.284419775009155273e+00 -1.301910728216171265e-01 -1.477920413017272949e-01 -8.339492976665496826e-02 2.483094483613967896e-01
3.672000000000000000e+03 5.679820537567138672e+00 -2.420122528076171875e+01 5.704036951065063477e-01 4.836671352386474609e+00 1.622122526168823242e+00 3.246121644973754883e+00
3.673000000000000000e+03 1.235560131072998047e+01 2.692189407348632812e+01 5.691163241863250732e-02 8.847864866256713867e-01 2.825094461441040039e-01 -2.883107364177703857e-01
3.674000000000000000e+03 1.177818679809570312e+01 4.600956439971923828e+00 -2.233963459730148315e-02 -2.905952036380767822e-01 -9.388045221567153931e-02 4.286964833736419678e-01
3.675000000000000000e+03 1.154696750640869141e+01 -5.889265060424804688e+00 1.672486066818237305e-01 7.157374620437622070e-01 2.648958265781402588e-01 6.391382813453674316e-01
3.676000000000000000e+03 1.277510070800781250e+01 -6.354677200317382812e+00 8.106058239936828613e-01 4.950420856475830078e-01 3.916943669319152832e-01 1.142919898033142090e+00
3.677000000000000000e+03 2.108239173889160156e+01 -3.006506681442260742e+00 -5.264703631401062012e-01 5.437965393066406250e+00 1.473448514938354492e+00 1.396267414093017578e+00
3.678000000000000000e+03 1.708754920959472656e+01 -8.621315002441406250e+00 5.283316135406494141e+00 -1.232430115342140198e-01 1.548022031784057617e+00 5.442143917083740234e+00
3.679000000000000000e+03 2.127887153625488281e+01 -2.402847528457641602e+00 -5.080899596214294434e-01 4.947071552276611328e+00 1.331694483757019043e+00 1.244963884353637695e+00
3.680000000000000000e+03 1.991301727294921875e+01 -1.669394969940185547e+00 -8.232725858688354492e-01 3.185188770294189453e+00 7.085748314857482910e-01 8.710163831710815430e-02
3.681000000000000000e+03 2.364900779724121094e+01 -7.627727508544921875e+00 6.181164741516113281e+00 1.364646673202514648e+00 2.263743400573730469e+00 5.417068004608154297e-01
3.682000000000000000e+03 2.260914611816406250e+01 -4.423083782196044922e+00 2.647320985794067383e+00 5.351059436798095703e+00 2.399514198303222656e+00 4.001856803894042969e+00
3.683000000000000000e+03 2.224867439270019531e+01 -3.783936977386474609e+00 1.195732593536376953e+00 5.809617519378662109e+00 2.101604938507080078e+00 3.287752151489257812e+00
3.684000000000000000e+03 2.304066467285156250e+01 -9.083270072937011719e+00 3.930878400802612305e+00 1.776219606399536133e+00 1.712129354476928711e+00 -8.183662295341491699e-01
3.685000000000000000e+03 2.383971977233886719e+01 -9.099860191345214844e+00 3.520127058029174805e+00 1.007555246353149414e+00 1.358304738998413086e+00 -9.496821761131286621e-01
3.686000000000000000e+03 3.925435638427734375e+01 2.177410507202148438e+01 6.635157465934753418e-01 6.980155944824218750e+00 2.293101549148559570e+00 3.987835049629211426e-01
3.687000000000000000e+03 4.826074218750000000e+01 -2.889413070678710938e+01 1.382190108299255371e+00 6.911186695098876953e+00 2.488013029098510742e+00 -2.396790981292724609e+00
3.688000000000000000e+03 1.865205955505371094e+01 1.275621652603149414e+00 -3.546725213527679443e-01 1.627958893775939941e+00 3.819859027862548828e-01 -1.093108654022216797e-01
3.689000000000000000e+03 2.134853172302246094e+01 -3.568961381912231445e+00 -1.409262269735336304e-01 6.301474094390869141e+00 1.848164319992065430e+00 2.206854343414306641e+00
3.690000000000000000e+03 2.142797660827636719e+01 -2.780563116073608398e+00 -3.768847584724426270e-01 5.315079212188720703e+00 1.481458306312561035e+00 1.564810752868652344e+00
3.691000000000000000e+03 2.249109077453613281e+01 -3.739144563674926758e+00 1.496373057365417480e+00 5.442632675170898438e+00 2.081701755523681641e+00 3.330146074295043945e+00
3.692000000000000000e+03 4.755344772338867188e+01 -2.947264671325683594e+01 1.243044495582580566e+00 7.096275329589843750e+00 2.501796007156372070e+00 -2.272771120071411133e+00
3.693000000000000000e+03 7.469480133056640625e+01 1.088227653503417969e+01 -1.997593194246292114e-01 8.516222000122070312e+00 2.494938611984252930e+00 6.857562661170959473e-01
3.694000000000000000e+03 3.159727859497070312e+01 2.931068229675292969e+01 -3.460651040077209473e-01 4.544022083282470703e+00 1.259387016296386719e+00 -5.335903167724609375e-01
3.695000000000000000e+03 3.457542800903320312e+01 2.719166183471679688e+01 -1.380272507667541504e-01 5.115118503570556641e+00 1.493127346038818359e+00 -4.110816717147827148e-01
3.696000000000000000e+03 1.109633731842041016e+01 -6.441555023193359375e+00 2.123324871063232422e-01 9.632833003997802734e-01 3.526847362518310547e-01 6.814947724342346191e-01
3.697000000000000000e+03 2.297987747192382812e+01 -3.756918668746948242e+00 1.920462727546691895e+00 4.915964603424072266e+00 2.050928115844726562e+00 3.334750890731811523e+00
3.698000000000000000e+03 1.997018814086914062e+01 -1.108253076672554016e-01 -5.510517358779907227e-01 2.762108325958251953e+00 6.633169651031494141e-01 7.256674021482467651e-02
3.699000000000000000e+03 3.726025390625000000e+01 2.063820648193359375e+01 7.581660151481628418e-01 6.540413379669189453e+00 2.189573764801025391e+00 -5.957631766796112061e-02
3.700000000000000000e+03 2.412895774841308594e+01 -8.248460769653320312e+00 4.853125095367431641e+00 9.708545207977294922e-01 1.747193932533264160e+00 -2.695096135139465332e-01
3.701000000000000000e+03 2.904939651489257812e+01 -1.038731765747070312e+01 3.355482518672943115e-01 1.086850881576538086e+00 4.267197549343109131e-01 -1.412085533142089844e+00
3.702000000000000000e+03 2.011480522155761719e+01 -1.536139845848083496e+00 -7.549338936805725098e-01 3.333766222000122070e+00 7.736496925354003906e-01 1.753514409065246582e-01
3.703000000000000000e+03 7.387823486328125000e+01 -6.475538730621337891e+00 4.356510564684867859e-02 7.263095378875732422e+00 2.191998243331909180e+00 -3.430536091327667236e-01
3.704000000000000000e+03 3.819078445434570312e+01 2.136373710632324219e+01 6.989113688468933105e-01 6.681774139404296875e+00 2.214205741882324219e+00 9.586850553750991821e-02
3.705000000000000000e+03 7.926605701446533203e+00 -7.657480716705322266e+00 -1.657582074403762817e-01 1.404778599739074707e+00 3.717061281204223633e-01 -2.007439136505126953e-01
3.706000000000000000e+03 4.314538192749023438e+01 -1.180661869049072266e+01 -1.111905694007873535e+00 6.676054477691650391e+00 1.669244766235351562e+00 -1.805846214294433594e+00
3.707000000000000000e+03 1.197775745391845703e+01 -6.721455097198486328e+00 5.699188113212585449e-01 8.277418613433837891e-01 4.192982017993927002e-01 1.018144130706787109e+00
3.708000000000000000e+03 2.439527130126953125e+01 -7.202491760253906250e+00 5.481820106506347656e+00 1.127536773681640625e+00 1.982807159423828125e+00 8.896233439445495605e-01
3.709000000000000000e+03 2.367951583862304688e+01 -3.921914339065551758e+00 2.533951997756958008e+00 4.140163898468017578e+00 2.002234697341918945e+00 3.227114677429199219e+00
3.710000000000000000e+03 2.352455711364746094e+01 -4.806760311126708984e+00 3.960779428482055664e+00 3.765892744064331055e+00 2.318001747131347656e+00 3.635362863540649414e+00
3.711000000000000000e+03 2.340412712097167969e+01 -5.928364276885986328e+00 6.202030181884765625e+00 2.744661808013916016e+00 2.684007644653320312e+00 3.280387878417968750e+00
3.712000000000000000e+03 2.377998733520507812e+01 -3.509265899658203125e+00 2.095179080963134766e+00 4.181798934936523438e+00 1.883093357086181641e+00 3.000958919525146484e+00
3.713000000000000000e+03 1.473374462127685547e+01 5.080972194671630859e+00 1.732524037361145020e-01 2.495385855436325073e-01 1.268372982740402222e-01 1.110077723860740662e-01
3.714000000000000000e+03 2.458672523498535156e+01 -7.559484004974365234e+00 5.117938041687011719e+00 9.435642361640930176e-01 1.818450689315795898e+00 4.011913836002349854e-01
3.715000000000000000e+03 6.772320747375488281e+00 2.748289871215820312e+01 2.185396105051040649e-02 -1.001657545566558838e-01 -2.349353767931461334e-02 -1.846872270107269287e-01
3.716000000000000000e+03 2.132805061340332031e+01 -1.410411596298217773e+00 -5.368588566780090332e-01 4.268086910247802734e+00 1.119368314743041992e+00 8.521890044212341309e-01
3.717000000000000000e+03 2.103893089294433594e+01 -1.549195289611816406e+00 -6.253312826156616211e-01 4.162988662719726562e+00 1.061297178268432617e+00 7.017351984977722168e-01
3.718000000000000000e+03 2.436255455017089844e+01 -5.874296188354492188e+00 5.180736064910888672e+00 2.028692960739135742e+00 2.162828683853149414e+00 2.378478050231933594e+00
3.719000000000000000e+03 4.901000976562500000e+00 5.541571617126464844e+00 -6.581319123506546021e-02 -3.081049919128417969e-01 -1.121754571795463562e-01 4.326192736625671387e-01
3.720000000000000000e+03 5.618911743164062500e+00 5.661266326904296875e+00 -6.753885746002197266e-02 -3.148211538791656494e-01 -1.147080063819885254e-01 4.753433465957641602e-01
3.721000000000000000e+03 2.470157051086425781e+01 -7.922240257263183594e+00 4.547591209411621094e+00 7.792049646377563477e-01 1.598038911819458008e+00 -1.636510640382766724e-01
3.722000000000000000e+03 2.514208412170410156e+01 -7.774250984191894531e+00 4.323480129241943359e+00 7.676743865013122559e-01 1.527346372604370117e+00 -5.870614573359489441e-02
3.723000000000000000e+03 1.164270496368408203e+01 -7.184155464172363281e+00 5.653659701347351074e-01 1.121945500373840332e+00 5.061934590339660645e-01 1.138198018074035645e+00
3.724000000000000000e+03 6.270084857940673828e+00 5.663631439208984375e+00 -5.887712910771369934e-02 -3.178053498268127441e-01 -1.130047440528869629e-01 4.998275637626647949e-01
3.725000000000000000e+03 2.271391868591308594e+01 -3.581117391586303711e+00 1.480144381523132324e+00 5.260119438171386719e+00 2.022078990936279297e+00 3.232063055038452148e+00
3.726000000000000000e+03 2.255703353881835938e+01 -3.316108465194702148e+00 9.551847577095031738e-01 5.342346191406250000e+00 1.889259219169616699e+00 2.887008428573608398e+00
3.727000000000000000e+03 4.373307037353515625e+01 -1.090693950653076172e+01 -1.117486715316772461e+00 6.367713928222656250e+00 1.575068116188049316e+00 -1.464203476905822754e+00
3.728000000000000000e+03 2.396786499023437500e+01 -5.887933731079101562e+00 5.430825233459472656e+00 2.269539833068847656e+00 2.310109615325927734e+00 2.674866676330566406e+00
3.729000000000000000e+03 2.396587562561035156e+01 -4.807990550994873047e+00 3.943259716033935547e+00 3.207019805908203125e+00 2.145083904266357422e+00 3.200495004653930664e+00
3.730000000000000000e+03 2.583252906799316406e+01 -7.779298782348632812e+00 3.685038089752197266e+00 7.680034041404724121e-01 1.335912466049194336e+00 -1.914365142583847046e-01
3.731000000000000000e+03 2.414298629760742188e+01 -3.502366781234741211e+00 2.265988826751708984e+00 3.870229244232177734e+00 1.840865373611450195e+00 2.858639001846313477e+00
3.732000000000000000e+03 2.206640815734863281e+01 -1.471282839775085449e+00 -2.039181888103485107e-01 4.497045040130615234e+00 1.287938117980957031e+00 1.327424526214599609e+00
3.733000000000000000e+03 2.163666343688964844e+01 -1.217638850212097168e+00 -4.177046120166778564e-01 4.295902252197265625e+00 1.163459300994873047e+00 9.766504168510437012e-01
3.734000000000000000e+03 2.199624633789062500e+01 -1.096029639244079590e+00 -2.729083597660064697e-01 4.314556121826171875e+00 1.212494373321533203e+00 1.131493449211120605e+00
3.735000000000000000e+03 1.661465644836425781e+01 4.668958187103271484e+00 1.490430235862731934e-01 8.075336813926696777e-01 2.869730293750762939e-01 -5.002344772219657898e-02
3.736000000000000000e+03 2.082855033874511719e+01 -4.956937208771705627e-02 -4.787607789039611816e-01 3.322818756103515625e+00 8.532173633575439453e-01 3.345277309417724609e-01
3.737000000000000000e+03 3.916098022460937500e+01 8.191440105438232422e-01 5.742268562316894531e-01 6.011685371398925781e+00 1.975773692131042480e+00 -1.058286309242248535e+00
3.738000000000000000e+03 2.481448554992675781e+01 -7.089046478271484375e+00 5.072380065917968750e+00 1.137455821037292480e+00 1.862950682640075684e+00 8.801816105842590332e-01
3.739000000000000000e+03 9.859023094177246094e+00 2.219364166259765625e+01 1.751494854688644409e-01 3.042483627796173096e-01 1.438193470239639282e-01 -1.693962216377258301e-01
3.740000000000000000e+03 2.048836135864257812e+01 -4.388824701309204102e-01 -5.761636495590209961e-01 3.249590396881103516e+00 8.020280003547668457e-01 2.478488236665725708e-01
3.741000000000000000e+03 8.493481636047363281e+00 -7.703766822814941406e+00 -1.020560860633850098e-01 1.541079640388488770e+00 4.317070543766021729e-01 -3.560412442311644554e-03
3.742000000000000000e+03 1.918841934204101562e+01 3.029989242553710938e+00 -7.560624927282333374e-02 1.872132062911987305e+00 5.389577746391296387e-01 -7.405926287174224854e-02
3.743000000000000000e+03 2.493377494812011719e+01 -7.407319068908691406e+00 4.870187759399414062e+00 9.101545214653015137e-01 1.734102606773376465e+00 4.164860248565673828e-01
3.744000000000000000e+03 2.240000724792480469e+01 -9.837208986282348633e-01 -1.038525328040122986e-01 4.296123981475830078e+00 1.257681488990783691e+00 1.269076585769653320e+00
3.745000000000000000e+03 2.689884185791015625e+01 -8.458530426025390625e+00 2.520457267761230469e+00 7.869828343391418457e-01 9.922320246696472168e-01 -7.770743370056152344e-01
3.746000000000000000e+03 2.079541206359863281e+01 -1.039184689521789551e+00 -6.270544528961181641e-01 3.725747585296630859e+00 9.296079277992248535e-01 4.696077704429626465e-01
3.747000000000000000e+03 2.118698692321777344e+01 -8.158633112907409668e-01 -5.159528851509094238e-01 3.850716114044189453e+00 1.000429034233093262e+00 6.152104735374450684e-01
3.748000000000000000e+03 3.711969375610351562e+01 1.502760648727416992e+00 7.837510704994201660e-01 5.690306663513183594e+00 1.942217350006103516e+00 -5.603590607643127441e-01
3.749000000000000000e+03 2.371288299560546875e+01 -2.922176837921142578e+00 1.479472756385803223e+00 4.323122978210449219e+00 1.740778803825378418e+00 2.665734291076660156e+00
3.750000000000000000e+03 4.701344490051269531e+00 8.706607818603515625e+00 7.035888731479644775e-02 -4.654308259487152100e-01 -1.185215786099433899e-01 3.850217759609222412e-01
3.751000000000000000e+03 3.027368164062500000e+01 1.711101722717285156e+01 1.066205024719238281e+00 4.568773746490478516e+00 1.690493583679199219e+00 -4.711720645427703857e-01
3.752000000000000000e+03 2.323584175109863281e+01 -2.812877416610717773e+00 1.078327298164367676e+00 4.628064632415771484e+00 1.711917638778686523e+00 2.572983026504516602e+00
3.753000000000000000e+03 2.316722297668457031e+01 -3.166474819183349609e+00 1.389438748359680176e+00 4.731948852539062500e+00 1.836416244506835938e+00 2.879254579544067383e+00
3.754000000000000000e+03 2.292244529724121094e+01 -3.104568004608154297e+00 1.120233297348022461e+00 4.926907062530517578e+00 1.814142107963562012e+00 2.780346870422363281e+00
3.755000000000000000e+03 2.288677787780761719e+01 -2.629718303680419922e+00 6.843182444572448730e-01 4.893560886383056641e+00 1.673363804817199707e+00 2.445418357849121094e+00
3.756000000000000000e+03 2.441265487670898438e+01 -4.926341056823730469e+00 4.022506237030029297e+00 2.811310052871704102e+00 2.050144910812377930e+00 2.859620332717895508e+00
3.757000000000000000e+03 2.262062835693359375e+01 -2.557245969772338867e+00 4.145987033843994141e-01 5.005330085754394531e+00 1.625978708267211914e+00 2.254185438156127930e+00
3.758000000000000000e+03 2.123220825195312500e+01 6.698614358901977539e-01 -3.289314210414886475e-01 3.294590950012207031e+00 8.896979093551635742e-01 3.681036233901977539e-01
3.759000000000000000e+03 2.123603439331054688e+01 1.429928541183471680e-01 -3.788791298866271973e-01 3.488895177841186523e+00 9.330047965049743652e-01 4.626740515232086182e-01
3.760000000000000000e+03 1.646315002441406250e+01 5.533618927001953125e+00 2.404291033744812012e-01 8.155696988105773926e-01 3.167996406555175781e-01 -4.346651583909988403e-02
3.761000000000000000e+03 1.358323192596435547e+01 7.488675117492675781e+00 3.625754714012145996e-01 2.266454845666885376e-01 1.767662912607192993e-01 1.499271541833877563e-01
3.762000000000000000e+03 1.472345542907714844e+01 7.505395889282226562e+00 3.855121433734893799e-01 4.547729492187500000e-01 2.520855367183685303e-01 6.291473656892776489e-02
3.763000000000000000e+03 3.597708511352539062e+01 -4.889120578765869141e+00 6.011136770248413086e-01 4.144422054290771484e+00 1.423660635948181152e+00 -1.310757756233215332e+00
3.764000000000000000e+03 3.452654647827148438e+01 -5.909449100494384766e+00 8.277927637100219727e-01 3.508802175521850586e+00 1.300978541374206543e+00 -1.295026302337646484e+00
3.765000000000000000e+03 7.470111846923828125e+00 2.014310455322265625e+01 1.464151144027709961e-01 -1.480538547039031982e-01 -4.916194011457264423e-04 -5.528018251061439514e-02
3.766000000000000000e+03 4.001493835449218750e+01 -5.851724624633789062e+00 -1.570060402154922485e-01 5.316965579986572266e+00 1.547987937927246094e+00 -1.780296444892883301e+00
3.767000000000000000e+03 2.300510597229003906e+01 -2.920652627944946289e+00 1.043556809425354004e+00 4.785942077636718750e+00 1.748849630355834961e+00 2.626130104064941406e+00
3.768000000000000000e+03 2.308425712585449219e+01 -2.358700275421142578e+00 6.550979018211364746e-01 4.680598258972167969e+00 1.600708961486816406e+00 2.268468141555786133e+00
3.769000000000000000e+03 2.084009170532226562e+01 -4.163190722465515137e-01 -5.264930129051208496e-01 3.486392736434936523e+00 8.879698514938354492e-01 3.867598176002502441e-01
3.770000000000000000e+03 2.059861183166503906e+01 -7.807896137237548828e-01 -6.308411955833435059e-01 3.451300382614135742e+00 8.461377620697021484e-01 3.159965276718139648e-01
3.771000000000000000e+03 2.334370994567871094e+01 -2.682422637939453125e+00 1.048960328102111816e+00 4.630310535430908203e+00 1.703781247138977051e+00 2.580345392227172852e+00
3.772000000000000000e+03 2.308135795593261719e+01 -2.720937490463256836e+00 9.321796894073486328e-01 4.714837551116943359e+00 1.694105267524719238e+00 2.521833896636962891e+00
3.773000000000000000e+03 3.225314331054687500e+01 -6.917017936706542969e+00 1.219236254692077637e+00 2.478047609329223633e+00 1.109185099601745605e+00 -1.109508633613586426e+00
3.774000000000000000e+03 2.345450401306152344e+01 -2.559097290039062500e+00 1.037386178970336914e+00 4.521589279174804688e+00 1.667692661285400391e+00 2.486989736557006836e+00
3.775000000000000000e+03 2.187674140930175781e+01 4.571445882320404053e-01 -2.489582747220993042e-01 3.631523609161376953e+00 1.014769673347473145e+00 6.288002729415893555e-01
3.776000000000000000e+03 2.198289108276367188e+01 8.706356585025787354e-02 -2.452300488948822021e-01 3.791770696640014648e+00 1.063962221145629883e+00 7.406425476074218750e-01
3.777000000000000000e+03 2.417316627502441406e+01 -2.248030424118041992e+00 1.254972934722900391e+00 4.103455066680908203e+00 1.607528448104858398e+00 2.304192543029785156e+00
3.778000000000000000e+03 2.570699691772460938e+01 -4.717285633087158203e+00 3.457275867462158203e+00 2.305915355682373047e+00 1.728957414627075195e+00 2.010536432266235352e+00
3.779000000000000000e+03 3.310433197021484375e+01 -6.561040401458740234e+00 1.042337894439697266e+00 2.917883634567260742e+00 1.188066482543945312e+00 -1.209724903106689453e+00
3.780000000000000000e+03 2.491217803955078125e+01 -4.598201751708984375e+00 3.569972038269042969e+00 2.741461753845214844e+00 1.893430233001708984e+00 2.591796875000000000e+00
3.781000000000000000e+03 2.206805419921875000e+01 -2.395057678222656250e-01 -2.527532875537872314e-01 3.963438034057617188e+00 1.113205432891845703e+00 8.666814565658569336e-01
3.782000000000000000e+03 2.177093124389648438e+01 -3.468170762062072754e-01 -3.306390345096588135e-01 3.915626764297485352e+00 1.075496315956115723e+00 7.766032814979553223e-01
3.783000000000000000e+03 1.663673782348632812e+01 6.149355888366699219e+00 2.994327545166015625e-01 8.981042504310607910e-01 3.592610955238342285e-01 -4.898039251565933228e-02
3.784000000000000000e+03 1.377365493774414062e+01 8.984625816345214844e+00 4.387447535991668701e-01 3.660055994987487793e-01 2.414251118898391724e-01 1.020791977643966675e-01
3.785000000000000000e+03 1.469265747070312500e+01 9.385978698730468750e+00 4.818688631057739258e-01 6.037840247154235840e-01 3.256958723068237305e-01 2.331532165408134460e-02
3.786000000000000000e+03 3.423078918457031250e+01 -4.982499599456787109e+00 9.560955762863159180e-01 3.630835056304931641e+00 1.376079201698303223e+00 -1.027213573455810547e+00
3.787000000000000000e+03 3.625093841552734375e+01 5.307015180587768555e-01 8.286763429641723633e-01 5.244090080261230469e+00 1.821829915046691895e+00 -5.198410749435424805e-01
3.788000000000000000e+03 5.951690196990966797e+00 1.092371654510498047e+01 1.578200012445449829e-01 -4.315560758113861084e-01 -8.212082087993621826e-02 3.358169496059417725e-01
3.789000000000000000e+03 3.514813613891601562e+01 -1.868224292993545532e-01 9.379023313522338867e-01 4.824390411376953125e+00 1.728687882423400879e+00 -3.365799784660339355e-01
3.790000000000000000e+03 3.337100601196289062e+01 -1.119556665420532227e+00 1.195209860801696777e+00 4.127711772918701172e+00 1.596876382827758789e+00 -1.456692963838577271e-01
3.791000000000000000e+03 2.230509185791015625e+01 -3.229955583810806274e-02 -1.781546026468276978e-01 3.912640810012817383e+00 1.120345830917358398e+00 8.902110457420349121e-01
3.792000000000000000e+03 2.139485359191894531e+01 -1.002559959888458252e-01 -3.820977509021759033e-01 3.658069372177124023e+00 9.827915430068969727e-01 5.711361765861511230e-01
3.793000000000000000e+03 2.335411453247070312e+01 -2.927287817001342773e+00 1.262136697769165039e+00 4.565415382385253906e+00 1.748265624046325684e+00 2.662448644638061523e+00
3.794000000000000000e+03 2.349861907958984375e+01 -2.761791467666625977e+00 1.180835485458374023e+00 4.480202198028564453e+00 1.698311209678649902e+00 2.553642272949218750e+00
3.795000000000000000e+03 6.585696697235107422e+00 1.823579406738281250e+01 1.600949615240097046e-01 -3.256196081638336182e-01 -4.965739697217941284e-02 2.722666971385478973e-02
3.796000000000000000e+03 3.452940368652343750e+01 -3.513010978698730469e+00 9.753368496894836426e-01 3.979990243911743164e+00 1.486598134040832520e+00 -7.917505502700805664e-01
3.797000000000000000e+03 2.599632263183593750e+01 -2.202692747116088867e+00 1.779706239700317383e+00 3.393984556198120117e+00 1.552107214927673340e+00 1.899127602577209473e+00
3.798000000000000000e+03 2.677821159362792969e+01 -7.181692600250244141e+00 3.319556474685668945e+00 1.007057070732116699e+00 1.297984123229980469e+00 7.297996897250413895e-03
3.799000000000000000e+03 2.643495559692382812e+01 -5.488362789154052734e+00 3.554691553115844727e+00 1.681100726127624512e+00 1.570737719535827637e+00 1.210775971412658691e+00
3.800000000000000000e+03 2.589800071716308594e+01 -4.126629829406738281e+00 3.025499820709228516e+00 2.562668561935424805e+00 1.676450490951538086e+00 2.026941776275634766e+00
3.801000000000000000e+03 3.302220535278320312e+01 5.174122810363769531e+00 1.282480001449584961e+00 5.053186893463134766e+00 1.900699973106384277e+00 2.560074925422668457e-01
3.802000000000000000e+03 3.047104835510253906e+01 1.028763055801391602e+00 1.270340323448181152e+00 4.020202159881591797e+00 1.587162852287292480e+00 6.328931450843811035e-01
3.803000000000000000e+03 2.775329780578613281e+01 -7.075963973999023438e+00 2.804713249206542969e+00 1.180905580520629883e+00 1.195685625076293945e+00 -1.885599195957183838e-01
3.804000000000000000e+03 2.453125190734863281e+01 -1.793652772903442383e+00 1.120175480842590332e+00 3.977933645248413086e+00 1.529432773590087891e+00 2.049729347229003906e+00
3.805000000000000000e+03 3.078913116455078125e+01 -4.110434055328369141e+00 1.804341316223144531e+00 2.769656419754028320e+00 1.372199296951293945e+00 -4.482909105718135834e-03
3.806000000000000000e+03 1.703418159484863281e+01 7.869109630584716797e+00 4.395234882831573486e-01 1.063659906387329102e+00 4.509550333023071289e-01 -6.555717438459396362e-02
3.807000000000000000e+03 1.784987831115722656e+01 7.721261024475097656e+00 4.216739833354949951e-01 1.336540102958679199e+00 5.274642109870910645e-01 -1.025339141488075256e-01
3.808000000000000000e+03 2.610921478271484375e+01 8.785189628601074219e+00 8.976839184761047363e-01 3.538959264755249023e+00 1.330992937088012695e+00 1.162324771285057068e-01
3.809000000000000000e+03 2.501604843139648438e+01 8.089276313781738281e+00 7.429124712944030762e-01 3.292787075042724609e+00 1.210709929466247559e+00 1.177290305495262146e-01
3.810000000000000000e+03 3.422008514404296875e+01 -2.860219478607177734e+00 1.055248141288757324e+00 4.023635387420654297e+00 1.523664951324462891e+00 -5.955481529235839844e-01
3.811000000000000000e+03 3.379405975341796875e+01 -3.443093538284301758e+00 1.159881353378295898e+00 3.669698715209960938e+00 1.448873996734619141e+00 -5.981395840644836426e-01
3.812000000000000000e+03 3.311099243164062500e+01 -3.092638969421386719e+00 1.267883181571960449e+00 3.633046865463256836e+00 1.470278978347778320e+00 -3.971990048885345459e-01
3.813000000000000000e+03 2.628017425537109375e+01 -3.990913629531860352e+00 2.838146924972534180e+00 2.553568840026855469e+00 1.617514729499816895e+00 1.804075837135314941e+00
3.814000000000000000e+03 2.660711288452148438e+01 -4.759933948516845703e+00 3.200891494750976562e+00 2.060403347015380859e+00 1.578388452529907227e+00 1.436892986297607422e+00
3.815000000000000000e+03 2.015045356750488281e+01 7.247745990753173828e+00 4.279031455516815186e-01 2.055130720138549805e+00 7.449101805686950684e-01 -7.250830531120300293e-02
3.816000000000000000e+03 2.510880088806152344e+01 -1.777786493301391602e+00 1.344470739364624023e+00 3.767635583877563477e+00 1.533631920814514160e+00 1.991700649261474609e+00
3.817000000000000000e+03 2.477122688293457031e+01 -1.547847509384155273e+00 1.106203675270080566e+00 3.900041341781616211e+00 1.501873493194580078e+00 1.929866909980773926e+00
3.818000000000000000e+03 2.454681777954101562e+01 -1.063414812088012695e+00 8.113359808921813965e-01 4.007073879241943359e+00 1.445523023605346680e+00 1.771665930747985840e+00
3.819000000000000000e+03 1.748742866516113281e+01 8.874334335327148438e+00 5.016701221466064453e-01 1.242148399353027344e+00 5.231455564498901367e-01 -8.472692221403121948e-02
3.820000000000000000e+03 1.644753265380859375e+01 1.145559883117675781e+01 5.665810704231262207e-01 1.087330460548400879e+00 4.961734414100646973e-01 -1.243313997983932495e-01
3.821000000000000000e+03 2.723857879638671875e+01 -3.514168262481689453e+00 2.489338159561157227e+00 2.568368434906005859e+00 1.517311930656433105e+00 1.406666040420532227e+00
3.822000000000000000e+03 2.770156669616699219e+01 -5.918673038482666016e+00 2.992652177810668945e+00 1.572382450103759766e+00 1.369510412216186523e+00 4.412068128585815430e-01
3.823000000000000000e+03 2.969595527648925781e+01 -5.484804511070251465e-01 1.477700591087341309e+00 3.577041625976562500e+00 1.516422629356384277e+00 7.849130630493164062e-01
3.824000000000000000e+03 3.184398841857910156e+01 -1.731167197227478027e+00 1.430769801139831543e+00 3.659614562988281250e+00 1.527115345001220703e+00 1.553585231304168701e-01
3.825000000000000000e+03 3.101146125793457031e+01 -1.173672795295715332e+00 1.492332100868225098e+00 3.595207691192626953e+00 1.526261925697326660e+00 4.205525517463684082e-01
3.826000000000000000e+03 2.796276473999023438e+01 -6.250420093536376953e+00 2.852545976638793945e+00 1.461761832237243652e+00 1.294292330741882324e+00 1.609248816967010498e-01
3.827000000000000000e+03 2.284413528442382812e+01 5.706442832946777344e+00 4.001096487045288086e-01 2.961745738983154297e+00 1.008556604385375977e+00 1.775841563940048218e-01
3.828000000000000000e+03 2.489995193481445312e+01 -1.192822575569152832e+00 1.039299726486206055e+00 3.894269943237304688e+00 1.480070829391479492e+00 1.835068941116333008e+00
3.829000000000000000e+03 2.702795219421386719e+01 -4.581521034240722656e+00 2.984553575515747070e+00 2.113590478897094727e+00 1.529443264007568359e+00 1.307339787483215332e+00
3.830000000000000000e+03 2.744713973999023438e+01 -4.261598110198974609e+00 2.702170133590698242e+00 2.289944648742675781e+00 1.497634410858154297e+00 1.178216814994812012e+00
3.831000000000000000e+03 2.729359626770019531e+01 -4.967588424682617188e+00 2.988507270812988281e+00 1.961583495140075684e+00 1.485027194023132324e+00 1.028554081916809082e+00
3.832000000000000000e+03 2.131903457641601562e+01 6.921190261840820312e+00 4.137951135635375977e-01 2.418301820755004883e+00 8.496291041374206543e-01 -3.774550929665565491e-02
3.833000000000000000e+03 2.574798011779785156e+01 -5.945363044738769531e-01 1.073905467987060547e+00 3.745313167572021484e+00 1.445765614509582520e+00 1.579670906066894531e+00
3.834000000000000000e+03 3.019641685485839844e+01 3.892990589141845703e+00 1.137848138809204102e+00 4.307363986968994141e+00 1.633563756942749023e+00 5.598835945129394531e-01
3.835000000000000000e+03 2.952908706665039062e+01 4.235493659973144531e+00 1.084789514541625977e+00 4.201285362243652344e+00 1.585822463035583496e+00 5.765009522438049316e-01
3.836000000000000000e+03 2.370776367187500000e+01 1.427984714508056641e+00 2.121679186820983887e-01 3.730832099914550781e+00 1.182900071144104004e+00 8.804847002029418945e-01
3.837000000000000000e+03 2.414787101745605469e+01 1.688654780387878418e+00 3.130508959293365479e-01 3.747028350830078125e+00 1.218023777008056641e+00 8.979761004447937012e-01
3.838000000000000000e+03 2.397250175476074219e+01 5.147362232208251953e+00 4.552641212940216064e-01 3.276662111282348633e+00 1.119577884674072266e+00 3.262548744678497314e-01
3.839000000000000000e+03 2.340807342529296875e+01 5.802525043487548828e+00 4.400970339775085449e-01 3.085710525512695312e+00 1.057742238044738770e+00 2.098800987005233765e-01
3.840000000000000000e+03 2.408893966674804688e+01 6.369163990020751953e+00 5.703660845756530762e-01 3.212613821029663086e+00 1.134894013404846191e+00 2.214427739381790161e-01
3.841000000000000000e+03 2.501734542846679688e+01 2.616811990737915039e+00 4.630627632141113281e-01 3.697063684463500977e+00 1.248037934303283691e+00 7.905275225639343262e-01
3.842000000000000000e+03 3.060494613647460938e+01 5.202887535095214844e+00 1.175034880638122559e+00 4.470230579376220703e+00 1.693579554557800293e+00 4.498045742511749268e-01
3.843000000000000000e+03 3.032542037963867188e+01 4.563372611999511719e+00 1.118737936019897461e+00 4.381099224090576172e+00 1.649951219558715820e+00 5.217978358268737793e-01
3.844000000000000000e+03 3.064115905761718750e+01 7.282473564147949219e+00 1.261338710784912109e+00 4.572619915008544922e+00 1.750187516212463379e+00 2.814970910549163818e-01
3.845000000000000000e+03 2.851902580261230469e+01 -4.115318655967712402e-01 1.409111142158508301e+00 3.575637578964233398e+00 1.495424628257751465e+00 1.049763083457946777e+00
3.846000000000000000e+03 2.539883613586425781e+01 -2.982348501682281494e-01 8.729662299156188965e-01 3.831930875778198242e+00 1.411469101905822754e+00 1.508292675018310547e+00
3.847000000000000000e+03 2.433542823791503906e+01 1.271477937698364258e+00 3.731342554092407227e-01 3.788182497024536133e+00 1.248395085334777832e+00 1.004777550697326660e+00
3.848000000000000000e+03 2.917648315429687500e+01 4.821601390838623047e+00 1.038666725158691406e+00 4.175769805908203125e+00 1.564330935478210449e+00 5.369054675102233887e-01
3.849000000000000000e+03 2.900068855285644531e+01 3.912147760391235352e+00 1.043267607688903809e+00 4.125176906585693359e+00 1.550533413887023926e+00 6.311376690864562988e-01
3.850000000000000000e+03 2.724986648559570312e+01 1.050364002585411072e-01 1.176949262619018555e+00 3.676281213760375977e+00 1.455969214439392090e+00 1.249227166175842285e+00
3.851000000000000000e+03 2.675800514221191406e+01 7.990094423294067383e-01 9.819162487983703613e-01 3.763491153717041016e+00 1.423622131347656250e+00 1.181288957595825195e+00
3.852000000000000000e+03 2.681127357482910156e+01 4.976713657379150391e+00 7.818027138710021973e-01 3.809681653976440430e+00 1.377445340156555176e+00 5.304294824600219727e-01
3.853000000000000000e+03 2.594527435302734375e+01 4.488941192626953125e+00 6.713137626647949219e-01 3.700473546981811523e+00 1.311536192893981934e+00 5.574060678482055664e-01
3.854000000000000000e+03 2.733286094665527344e+01 -4.035809636116027832e-01 1.340476751327514648e+00 3.576029777526855469e+00 1.474951982498168945e+00 1.305335760116577148e+00
3.855000000000000000e+03 1.114702796936035156e+01 -1.674520134925842285e+00 -1.219905257225036621e+00 5.391144379973411560e-02 -3.497981429100036621e-01 3.166093528270721436e-01
3.856000000000000000e+03 1.155607700347900391e+01 -1.043098807334899902e+00 -1.418031811714172363e+00 -1.699548065662384033e-01 -4.763959646224975586e-01 5.208005905151367188e-01
3.857000000000000000e+03 1.007052421569824219e+01 -1.379528045654296875e+00 -1.194415807723999023e+00 1.588996350765228271e-01 -3.106548488140106201e-01 2.019125819206237793e-01
3.858000000000000000e+03 1.091052532196044922e+01 -7.195191383361816406e-01 -1.291409850120544434e+00 -1.320040822029113770e-01 -4.270241558551788330e-01 4.367233514785766602e-01
3.859000000000000000e+03 1.189208316802978516e+01 -2.005299091339111328e+00 -1.251309871673583984e+00 -1.064051873981952667e-02 -3.785851299762725830e-01 4.586721360683441162e-01
3.860000000000000000e+03 1.224500656127929688e+01 -1.350578069686889648e+00 -1.427207946777343750e+00 -2.005006968975067139e-01 -4.883126020431518555e-01 5.919818282127380371e-01
3.861000000000000000e+03 1.012131404876708984e+01 -8.739756941795349121e-01 -1.219932317733764648e+00 9.910351783037185669e-02 -3.362486660480499268e-01 2.227855771780014038e-01
3.862000000000000000e+03 1.027311420440673828e+01 -4.096257984638214111e-01 -1.023127675056457520e+00 -1.143336575478315353e-02 -3.103682994842529297e-01 2.746340632438659668e-01
3.863000000000000000e+03 1.058933448791503906e+01 -1.247088074684143066e+00 -1.214453935623168945e+00 9.711624681949615479e-02 -3.352012932300567627e-01 2.464347034692764282e-01
3.864000000000000000e+03 8.909210205078125000e+00 -3.212539851665496826e-01 -1.231595993041992188e+00 1.513851340860128403e-02 -3.649372458457946777e-01 5.869124084711074829e-03
3.865000000000000000e+03 9.317807197570800781e+00 -1.205478549003601074e+00 -1.120453238487243652e+00 1.898707300424575806e-01 -2.791747748851776123e-01 9.929540753364562988e-02
3.866000000000000000e+03 9.460213661193847656e+00 -6.912539601325988770e-01 -1.175938606262207031e+00 1.197290271520614624e-01 -3.168628811836242676e-01 1.826823204755783081e-01
3.867000000000000000e+03 8.266005516052246094e+00 -6.800254583358764648e-01 -1.197037339210510254e+00 3.303854539990425110e-02 -3.491996526718139648e-01 -6.465698592364788055e-03
3.868000000000000000e+03 7.622209548950195312e+00 -4.054784178733825684e-01 -1.228603601455688477e+00 4.981723614037036896e-03 -3.670865595340728760e-01 -5.016302317380905151e-02
3.869000000000000000e+03 6.825774669647216797e+00 -3.814763724803924561e-01 -1.126657009124755859e+00 1.382087077945470810e-02 -3.338508605957031250e-01 -6.523474305868148804e-02
3.870000000000000000e+03 6.001619815826416016e+00 -3.739211261272430420e-01 -9.785875678062438965e-01 -2.213005907833576202e-03 -2.942401766777038574e-01 -9.170082956552505493e-02
3.871000000000000000e+03 5.174842834472656250e+00 -3.715220093727111816e-01 -7.772104740142822266e-01 2.862538676708936691e-03 -2.323043793439865112e-01 -8.944420516490936279e-02
3.872000000000000000e+03 4.347759723663330078e+00 -3.725122809410095215e-01 -5.745031237602233887e-01 -6.621609907597303391e-03 -1.743374317884445190e-01 -9.348674863576889038e-02
3.873000000000000000e+03 3.520621299743652344e+00 -3.760701715946197510e-01 -3.701541423797607422e-01 -5.298803094774484634e-03 -1.126358881592750549e-01 -7.903415709733963013e-02
3.874000000000000000e+03 2.694509983062744141e+00 -3.805325925350189209e-01 -1.998798996210098267e-01 -1.432131975889205933e-02 -6.426036357879638672e-02 -6.378186494112014771e-02
3.875000000000000000e+03 1.143715500831604004e+00 -3.599454164505004883e-01 -1.144183985888957977e-02 -1.099983043968677521e-02 -6.732501089572906494e-03 -1.057191286236047745e-02
3.876000000000000000e+03 4.021799862384796143e-01 -5.506002306938171387e-01 1.021907664835453033e-03 3.071666928008198738e-03 1.228072331286966801e-03 1.822075340896844864e-03
3.877000000000000000e+03 7.210693359375000000e-01 -1.099945425987243652e+00 -2.480549737811088562e-02 -2.594459243118762970e-02 -1.522502675652503967e-02 -2.517446316778659821e-02
3.878000000000000000e+03 8.506304740905761719e+00 -1.218084216117858887e+00 -1.088202714920043945e+00 1.034903600811958313e-01 -2.954137027263641357e-01 3.243596991524100304e-03
3.879000000000000000e+03 7.803927898406982422e+00 -1.221213579177856445e+00 -1.031688213348388672e+00 8.895831555128097534e-02 -2.828189730644226074e-01 -1.143802702426910400e-01
3.880000000000000000e+03 7.101232528686523438e+00 -1.145478367805480957e+00 -9.541002511978149414e-01 6.215779855847358704e-02 -2.675827443599700928e-01 -1.564596891403198242e-01
3.881000000000000000e+03 6.317089557647705078e+00 -1.121476411819458008e+00 -8.719668984413146973e-01 2.972929924726486206e-02 -2.526712715625762939e-01 -2.170137763023376465e-01
3.882000000000000000e+03 5.505225658416748047e+00 -1.113921165466308594e+00 -7.301097512245178223e-01 1.122878678143024445e-02 -2.156642824411392212e-01 -2.404069006443023682e-01
3.883000000000000000e+03 4.690740108489990234e+00 -1.111521959304809570e+00 -5.895292162895202637e-01 -7.713919971138238907e-03 -1.791729331016540527e-01 -2.560945153236389160e-01
3.884000000000000000e+03 3.875948190689086914e+00 -1.112512230873107910e+00 -4.324238300323486328e-01 -2.188136987388134003e-02 -1.362915635108947754e-01 -2.408899515867233276e-01
3.885000000000000000e+03 3.061101198196411133e+00 -1.116070151329040527e+00 -2.925592362880706787e-01 -4.531725496053695679e-02 -1.013629510998725891e-01 -2.150001078844070435e-01
3.886000000000000000e+03 2.247281074523925781e+00 -1.120532631874084473e+00 -1.632932275533676147e-01 -6.049503758549690247e-02 -6.713648140430450439e-02 -1.539252400398254395e-01
3.887000000000000000e+03 1.882497906684875488e+00 -3.807797729969024658e-01 -7.279840111732482910e-02 -9.989214129745960236e-03 -2.483628503978252411e-02 -3.330071642994880676e-02
3.888000000000000000e+03 9.580569267272949219e+00 -2.457754313945770264e-01 -1.025532960891723633e+00 3.017162717878818512e-02 -2.986083924770355225e-01 9.121169149875640869e-02
3.889000000000000000e+03 1.447560310363769531e+00 -1.120779752731323242e+00 -7.835268974304199219e-02 -5.744650959968566895e-02 -4.073975980281829834e-02 -8.445936441421508789e-02
3.890000000000000000e+03 1.984078598022460938e+01 -6.469473361968994141e+00 3.076668548583984375e+01 9.923707962036132812e+00 1.220711803436279297e+01 -1.522144412994384766e+01
3.891000000000000000e+03 1.983016586303710938e+01 -6.485790252685546875e+00 4.378893661499023438e+01 4.212635517120361328e+00 1.440047168731689453e+01 -8.983375549316406250e+00
3.892000000000000000e+03 1.982292556762695312e+01 -6.503862380981445312e+00 5.097158050537109375e+01 4.258841037750244141e+00 1.656912612915039062e+01 -2.774388313293457031e+00
3.893000000000000000e+03 1.981934356689453125e+01 -6.522998332977294922e+00 5.512931060791015625e+01 6.019034385681152344e+00 1.834450340270996094e+01 4.234878540039062500e+00
3.894000000000000000e+03 1.981955337524414062e+01 -6.542465686798095703e+00 5.644527053833007812e+01 1.019044494628906250e+01 1.999071502685546875e+01 1.063922691345214844e+01
3.895000000000000000e+03 1.982355117797851562e+01 -6.561519622802734375e+00 5.495455551147460938e+01 1.569268703460693359e+01 2.119417190551757812e+01 1.619836807250976562e+01
3.896000000000000000e+03 1.983118057250976562e+01 -6.579430580139160156e+00 5.162166976928710938e+01 2.250998878479003906e+01 2.223949813842773438e+01 1.992450332641601562e+01
3.897000000000000000e+03 1.984215164184570312e+01 -6.595513820648193359e+00 4.675965881347656250e+01 2.936170005798339844e+01 2.283640670776367188e+01 2.168103408813476562e+01
3.898000000000000000e+03 1.985604286193847656e+01 -6.609153270721435547e+00 4.182993698120117188e+01 3.593063354492187500e+01 2.332817268371582031e+01 2.117165565490722656e+01
3.899000000000000000e+03 1.987232589721679688e+01 -6.619826793670654297e+00 3.712347412109375000e+01 4.109416580200195312e+01 2.346529197692871094e+01 1.886755943298339844e+01
3.900000000000000000e+03 1.989037322998046875e+01 -6.627126693725585938e+00 3.379286193847656250e+01 4.462269210815429688e+01 2.352466583251953125e+01 1.521404170989990234e+01
3.901000000000000000e+03 1.990949821472167969e+01 -6.630773067474365234e+00 3.192006683349609375e+01 4.621794891357421875e+01 2.344140434265136719e+01 1.092212772369384766e+01
3.902000000000000000e+03 1.992896461486816406e+01 -6.630626201629638672e+00 3.162503814697265625e+01 4.597980117797851562e+01 2.328145217895507812e+01 6.668204784393310547e+00
3.903000000000000000e+03 1.994803237915039062e+01 -6.626692295074462891e+00 3.290852737426757812e+01 4.430086898803710938e+01 2.316281890869140625e+01 3.054953336715698242e+00
3.904000000000000000e+03 1.996596908569335938e+01 -6.619122028350830078e+00 3.524451828002929688e+01 4.144759368896484375e+01 2.300763320922851562e+01 3.942896723747253418e-01
3.905000000000000000e+03 1.998208808898925781e+01 -6.608203887939453125e+00 3.847748947143554688e+01 3.811040496826171875e+01 2.297636795043945312e+01 -9.344586133956909180e-01
3.906000000000000000e+03 1.999577331542968750e+01 -6.594357013702392578e+00 4.202046203613281250e+01 3.445755004882812500e+01 2.294340324401855469e+01 -9.087888598442077637e-01
3.907000000000000000e+03 2.000650024414062500e+01 -6.578110694885253906e+00 4.549061584472656250e+01 3.120116424560546875e+01 2.300753402709960938e+01 5.788940191268920898e-01
3.908000000000000000e+03 2.001386070251464844e+01 -6.560086727142333984e+00 4.830430221557617188e+01 2.855103492736816406e+01 2.305660057067871094e+01 3.416744232177734375e+00
3.909000000000000000e+03 2.001756858825683594e+01 -6.540974617004394531e+00 4.995301437377929688e+01 2.710447502136230469e+01 2.311724662780761719e+01 7.356092453002929688e+00
3.910000000000000000e+03 2.001748657226562500e+01 -6.521506309509277344e+00 4.988895034790039062e+01 2.705235671997070312e+01 2.308239173889160156e+01 1.198261737823486328e+01
3.911000000000000000e+03 2.001361656188964844e+01 -6.502426624298095703e+00 4.780110168457031250e+01 2.861240196228027344e+01 2.292405128479003906e+01 1.662031555175781250e+01
3.912000000000000000e+03 2.000610542297363281e+01 -6.484465122222900391e+00 4.359812927246093750e+01 3.163450813293457031e+01 2.256978988647460938e+01 2.057094573974609375e+01
3.913000000000000000e+03 1.999523925781250000e+01 -6.468309879302978516e+00 3.758377075195312500e+01 3.573471450805664062e+01 2.199554443359375000e+01 2.310954093933105469e+01
3.914000000000000000e+03 1.998143768310546875e+01 -6.454579353332519531e+00 3.024154663085937500e+01 4.000311660766601562e+01 2.107339859008789062e+01 2.377936553955078125e+01
3.915000000000000000e+03 1.996522712707519531e+01 -6.443798065185546875e+00 2.258381843566894531e+01 4.392663955688476562e+01 1.995313835144042969e+01 2.228158187866210938e+01
3.916000000000000000e+03 1.994722747802734375e+01 -6.436379432678222656e+00 1.501626682281494141e+01 4.625904846191406250e+01 1.838259506225585938e+01 1.897243881225585938e+01
3.917000000000000000e+03 1.992812728881835938e+01 -6.432607173919677734e+00 8.699659347534179688e+00 4.677323150634765625e+01 1.664186668395996094e+01 1.412532615661621094e+01
3.918000000000000000e+03 1.990865898132324219e+01 -6.432624816894531250e+00 3.698566436767578125e+00 4.485572433471679688e+01 1.456628704071044922e+01 8.618411064147949219e+00
3.919000000000000000e+03 1.988956642150878906e+01 -6.436432838439941406e+00 6.528320908546447754e-01 4.047241210937500000e+01 1.233757400512695312e+01 2.625962018966674805e+00
3.920000000000000000e+03 1.987158012390136719e+01 -6.443884849548339844e+00 -5.561626553535461426e-01 3.382743453979492188e+01 9.981381416320800781e+00 -2.600799560546875000e+00
3.921000000000000000e+03 1.985539054870605469e+01 -6.454696178436279297e+00 4.029534339904785156e+00 2.154859161376953125e+01 7.673437595367431641e+00 -8.177224159240722656e+00
