# el_label, x, y, sXX, sYY, sZZ, sXY
1.000000000000000000e+00 6.030066680908203125e+01 -1.677532386779785156e+01 8.998646140098571777e-01 -2.132593870162963867e+00 -3.698188066482543945e-01 -4.516261816024780273e-01
2.000000000000000000e+00 6.014121246337890625e+01 -1.689444923400878906e+01 2.241210699081420898e+00 1.117803454399108887e+00 1.007704257965087891e+00 1.377927184104919434e+00
3.000000000000000000e+00 5.998175430297851562e+01 -1.701357650756835938e+01 2.352826118469238281e+00 7.356895208358764648e-01 9.265546798706054688e-01 1.379558086395263672e+00
4.000000000000000000e+00 5.982229995727539062e+01 -1.713270187377929688e+01 2.299636363983154297e+00 8.681235313415527344e-01 9.503279328346252441e-01 1.462752938270568848e+00
5.000000000000000000e+00 6.034003448486328125e+01 -1.681847190856933594e+01 4.796238899230957031e+00 4.422220885753631592e-01 1.571538329124450684e+00 3.479963779449462891e+00
6.000000000000000000e+00 6.020682525634765625e+01 -1.696636390686035156e+01 3.353003978729248047e+00 1.194243550300598145e+00 1.364174246788024902e+00 2.029214143753051758e+00
7.000000000000000000e+00 6.007361221313476562e+01 -1.711425590515136719e+01 3.048268556594848633e+00 1.792097687721252441e+00 1.452109813690185547e+00 2.315066337585449219e+00
8.000000000000000000e+00 5.994040298461914062e+01 -1.726214981079101562e+01 2.775972843170166016e+00 1.490132808685302734e+00 1.279831647872924805e+00 2.024536609649658203e+00
9.000000000000000000e+00 6.038705062866210938e+01 -1.685313034057617188e+01 4.880268573760986328e+00 5.014413356781005859e+00 2.968404531478881836e+00 5.076921939849853516e+00
1.000000000000000000e+01 6.028518295288085938e+01 -1.702412796020507812e+01 3.924290895462036133e+00 3.047378778457641602e+00 2.091500759124755859e+00 3.764137744903564453e+00
1.100000000000000000e+01 6.018331527709960938e+01 -1.719512557983398438e+01 3.299923896789550781e+00 2.949819564819335938e+00 1.874922990798950195e+00 2.823441028594970703e+00
1.200000000000000000e+01 6.008144760131835938e+01 -1.736612510681152344e+01 2.746326446533203125e+00 2.805344820022583008e+00 1.665501356124877930e+00 2.774925470352172852e+00
1.300000000000000000e+01 6.043991470336914062e+01 -1.687796974182128906e+01 4.232716560363769531e+00 9.035080909729003906e+00 3.980339288711547852e+00 5.587885856628417969e+00
1.400000000000000000e+01 6.037328720092773438e+01 -1.706552886962890625e+01 3.508594989776611328e+00 6.037026882171630859e+00 2.863686561584472656e+00 4.037138938903808594e+00
1.500000000000000000e+01 6.030666351318359375e+01 -1.725308799743652344e+01 2.995080232620239258e+00 4.741076469421386719e+00 2.320847034454345703e+00 3.502363920211791992e+00
1.600000000000000000e+01 6.024003982543945312e+01 -1.744064712524414062e+01 2.585293769836425781e+00 4.272706508636474609e+00 2.057400226593017578e+00 2.934669256210327148e+00
1.700000000000000000e+01 6.049660110473632812e+01 -1.689204406738281250e+01 3.538074731826782227e+00 1.298325443267822266e+01 4.956398963928222656e+00 4.390938282012939453e+00
1.800000000000000000e+01 6.046776962280273438e+01 -1.708898544311523438e+01 2.860632419586181641e+00 8.666224479675292969e+00 3.458056926727294922e+00 3.732914686203002930e+00
1.900000000000000000e+01 6.043893432617187500e+01 -1.728592681884765625e+01 2.601181268692016602e+00 6.912092208862304688e+00 2.853981971740722656e+00 3.021689176559448242e+00
2.000000000000000000e+01 6.041010284423828125e+01 -1.748286819458007812e+01 2.109004259109497070e+00 5.741801261901855469e+00 2.355241775512695312e+00 2.848286628723144531e+00
2.100000000000000000e+01 6.055494308471679688e+01 -1.689480972290039062e+01 3.096997261047363281e+00 1.580185413360595703e+01 5.669655323028564453e+00 2.483607769012451172e+00
2.200000000000000000e+01 6.056500625610351562e+01 -1.709359741210937500e+01 2.785278558731079102e+00 1.090389537811279297e+01 4.106752395629882812e+00 2.244982481002807617e+00
2.300000000000000000e+01 6.057506942749023438e+01 -1.729238319396972656e+01 2.179799556732177734e+00 8.617121696472167969e+00 3.239076375961303711e+00 2.266708135604858398e+00
2.400000000000000000e+01 6.058513259887695312e+01 -1.749117088317871094e+01 1.928406119346618652e+00 7.312300205230712891e+00 2.772211790084838867e+00 1.819565653800964355e+00
2.500000000000000000e+01 6.061270904541015625e+01 -1.688616561889648438e+01 3.891466140747070312e+00 1.740718269348144531e+01 6.389594554901123047e+00 -2.501181364059448242e-01
2.600000000000000000e+01 6.066128158569335938e+01 -1.707918930053710938e+01 2.988480091094970703e+00 1.230431461334228516e+01 4.587838172912597656e+00 5.634388923645019531e-01
2.700000000000000000e+01 6.070985794067382812e+01 -1.727221107482910156e+01 2.630290508270263672e+00 9.626827239990234375e+00 3.677135467529296875e+00 6.719761490821838379e-01
2.800000000000000000e+01 6.075843048095703125e+01 -1.746523475646972656e+01 1.904558897018432617e+00 8.279372215270996094e+00 3.055179357528686523e+00 1.007936358451843262e+00
2.900000000000000000e+01 6.066768646240234375e+01 -1.686643981933593750e+01 5.565102577209472656e+00 1.770154953002929688e+01 6.979995727539062500e+00 -2.832153558731079102e+00
3.000000000000000000e+01 6.075291061401367188e+01 -1.704631233215332031e+01 4.175691604614257812e+00 1.258492279052734375e+01 5.028184413909912109e+00 -1.371394276618957520e+00
3.100000000000000000e+01 6.083813858032226562e+01 -1.722618293762207031e+01 3.340500354766845703e+00 1.013644123077392578e+01 4.043082237243652344e+00 -8.299322724342346191e-01
3.200000000000000000e+01 6.092336273193359375e+01 -1.740605545043945312e+01 3.073537111282348633e+00 8.075198173522949219e+00 3.344620704650878906e+00 -4.406367242336273193e-01
3.300000000000000000e+01 6.071777343750000000e+01 -1.683638763427734375e+01 8.168127059936523438e+00 1.660809326171875000e+01 7.432866096496582031e+00 -4.943854808807373047e+00
3.400000000000000000e+01 6.083638763427734375e+01 -1.699622344970703125e+01 5.993524551391601562e+00 1.220700168609619141e+01 5.460157871246337891e+00 -2.914412498474121094e+00
3.500000000000000000e+01 6.095500183105468750e+01 -1.715605926513671875e+01 4.759027481079101562e+00 9.503738403320312500e+00 4.278829574584960938e+00 -2.142785072326660156e+00
3.600000000000000000e+01 6.107361602783203125e+01 -1.731589698791503906e+01 4.230708122253417969e+00 8.037329673767089844e+00 3.680411338806152344e+00 -1.818509459495544434e+00
3.700000000000000000e+01 6.076104736328125000e+01 -1.679715728759765625e+01 1.151734161376953125e+01 1.496742057800292969e+01 7.945428848266601562e+00 -6.002660274505615234e+00
3.800000000000000000e+01 6.090851211547851562e+01 -1.693084144592285156e+01 8.119889259338378906e+00 1.081603145599365234e+01 5.680776119232177734e+00 -3.883958101272583008e+00
3.900000000000000000e+01 6.105597686767578125e+01 -1.706452560424804688e+01 6.668367385864257812e+00 8.679637908935546875e+00 4.604401588439941406e+00 -2.927434682846069336e+00
4.000000000000000000e+01 6.120344161987304688e+01 -1.719820976257324219e+01 5.479757308959960938e+00 7.032613277435302734e+00 3.753711223602294922e+00 -2.395686626434326172e+00
4.100000000000000000e+01 6.079585647583007812e+01 -1.675025367736816406e+01 1.446644401550292969e+01 1.269009494781494141e+01 8.146962165832519531e+00 -6.071723937988281250e+00
4.200000000000000000e+01 6.096652603149414062e+01 -1.685266876220703125e+01 1.077427959442138672e+01 9.443271636962890625e+00 6.065265178680419922e+00 -3.987679004669189453e+00
4.300000000000000000e+01 6.113719940185546875e+01 -1.695508384704589844e+01 8.415979385375976562e+00 7.098340034484863281e+00 4.654295921325683594e+00 -2.973894119262695312e+00
4.400000000000000000e+01 6.130786895751953125e+01 -1.705749893188476562e+01 7.154296875000000000e+00 5.953463554382324219e+00 3.932328224182128906e+00 -2.274294853210449219e+00
4.500000000000000000e+01 6.082086563110351562e+01 -1.669747161865234375e+01 1.753998756408691406e+01 1.117020225524902344e+01 8.613057136535644531e+00 -4.858308315277099609e+00
4.600000000000000000e+01 6.100820922851562500e+01 -1.676469612121582031e+01 1.259967136383056641e+01 7.589582920074462891e+00 6.056776046752929688e+00 -3.482848405838012695e+00
4.700000000000000000e+01 6.119555664062500000e+01 -1.683192253112792969e+01 1.060559654235839844e+01 5.904857635498046875e+00 4.953136444091796875e+00 -2.239820003509521484e+00
4.800000000000000000e+01 6.138290023803710938e+01 -1.689914703369140625e+01 8.479758262634277344e+00 4.307403564453125000e+00 3.836148738861083984e+00 -1.471767306327819824e+00
4.900000000000000000e+01 6.083512115478515625e+01 -1.664082717895507812e+01 1.911328697204589844e+01 9.471743583679199219e+00 8.575509071350097656e+00 -3.290949344635009766e+00
5.000000000000000000e+01 6.103196716308593750e+01 -1.667029190063476562e+01 1.452443695068359375e+01 6.834392070770263672e+00 6.407648563385009766e+00 -1.969787240028381348e+00
5.100000000000000000e+01 6.122881698608398438e+01 -1.669975471496582031e+01 1.156629180908203125e+01 4.348495960235595703e+00 4.774436473846435547e+00 -1.266579270362854004e+00
5.200000000000000000e+01 6.142566680908203125e+01 -1.672921943664550781e+01 1.039124965667724609e+01 3.429033041000366211e+00 4.146084785461425781e+00 -2.927756309509277344e-01
5.300000000000000000e+01 6.083807754516601562e+01 -1.658249282836914062e+01 2.029158592224121094e+01 9.672746658325195312e+00 8.989299774169921875e+00 -1.004672765731811523e+00
5.400000000000000000e+01 6.103689193725585938e+01 -1.657306671142578125e+01 1.506211471557617188e+01 5.646951675415039062e+00 6.212719917297363281e+00 -4.700867235660552979e-01
5.500000000000000000e+01 6.123571014404296875e+01 -1.656364250183105469e+01 1.240058612823486328e+01 4.242424011230468750e+00 4.992902755737304688e+00 4.707131385803222656e-01
5.600000000000000000e+01 6.143452835083007812e+01 -1.655421638488769531e+01 1.032698535919189453e+01 2.537294149398803711e+00 3.859283685684204102e+00 5.613070726394653320e-01
5.700000000000000000e+01 6.082961654663085938e+01 -1.652470016479492188e+01 2.006868743896484375e+01 9.427253723144531250e+00 8.848782539367675781e+00 9.385529756546020508e-01
5.800000000000000000e+01 6.102279281616210938e+01 -1.647674560546875000e+01 1.505062198638916016e+01 6.408125877380371094e+00 6.437624454498291016e+00 1.467565298080444336e+00
5.900000000000000000e+01 6.121597290039062500e+01 -1.642879104614257812e+01 1.194093513488769531e+01 3.660070180892944336e+00 4.680301666259765625e+00 1.749956965446472168e+00
6.000000000000000000e+01 6.140914916992187500e+01 -1.638083648681640625e+01 9.690136909484863281e+00 3.187979221343994141e+00 3.863435029983520508e+00 2.360417604446411133e+00
6.100000000000000000e+01 6.081006622314453125e+01 -1.646965980529785156e+01 1.926948738098144531e+01 1.074044513702392578e+01 9.002979278564453125e+00 2.544043540954589844e+00
6.200000000000000000e+01 6.099021148681640625e+01 -1.638501167297363281e+01 1.416156768798828125e+01 6.807131767272949219e+00 6.290609836578369141e+00 3.048490524291992188e+00
6.300000000000000000e+01 6.117035293579101562e+01 -1.630036544799804688e+01 1.059797000885009766e+01 4.974622249603271484e+00 4.671777725219726562e+00 3.178951978683471680e+00
6.400000000000000000e+01 6.135049819946289062e+01 -1.621571731567382812e+01 8.106870651245117188e+00 2.913604497909545898e+00 3.306142568588256836e+00 3.374621868133544922e+00
6.500000000000000000e+01 6.078017425537109375e+01 -1.641947937011718750e+01 1.797248649597167969e+01 1.221853542327880859e+01 9.057306289672851562e+00 3.481966495513916016e+00
6.600000000000000000e+01 6.094039154052734375e+01 -1.630137825012207031e+01 1.250713253021240234e+01 7.980373859405517578e+00 6.146252155303955078e+00 4.173604965209960938e+00
6.700000000000000000e+01 6.110060501098632812e+01 -1.618327713012695312e+01 9.092194557189941406e+00 6.214381217956542969e+00 4.591972827911376953e+00 4.197382926940917969e+00
6.800000000000000000e+01 6.126082229614257812e+01 -1.606517410278320312e+01 5.649722576141357422e+00 4.363823890686035156e+00 3.004063844680786133e+00 4.393724441528320312e+00
6.900000000000000000e+01 6.074108505249023438e+01 -1.637607955932617188e+01 1.599015140533447266e+01 1.371526432037353516e+01 8.911624908447265625e+00 3.923417568206787109e+00
7.000000000000000000e+01 6.087524032592773438e+01 -1.622904396057128906e+01 1.095294952392578125e+01 9.498320579528808594e+00 6.135380744934082031e+00 4.298985004425048828e+00
7.100000000000000000e+01 6.100939559936523438e+01 -1.608200836181640625e+01 6.786286354064941406e+00 7.192210674285888672e+00 4.193549156188964844e+00 4.732089996337890625e+00
7.200000000000000000e+01 6.114355468750000000e+01 -1.593497371673583984e+01 5.213671684265136719e+00 6.070490837097167969e+00 3.385248661041259766e+00 5.050838470458984375e+00
7.300000000000000000e+01 6.069429016113281250e+01 -1.634111976623535156e+01 1.459164333343505859e+01 1.521258354187011719e+01 8.941267967224121094e+00 3.512151241302490234e+00
7.400000000000000000e+01 6.079725265502929688e+01 -1.617077827453613281e+01 8.731372833251953125e+00 1.090087032318115234e+01 5.889673233032226562e+00 3.776310682296752930e+00
7.500000000000000000e+01 6.090021514892578125e+01 -1.600043869018554688e+01 5.343448162078857422e+00 7.966028213500976562e+00 3.992842912673950195e+00 4.193070888519287109e+00
7.600000000000000000e+01 6.100317764282226562e+01 -1.583009719848632812e+01 3.696309804916381836e+00 6.141406536102294922e+00 2.951314926147460938e+00 4.028377056121826172e+00
7.700000000000000000e+01 6.064159011840820312e+01 -1.631594085693359375e+01 1.302981472015380859e+01 1.623734855651855469e+01 8.780149459838867188e+00 2.398642539978027344e+00
7.800000000000000000e+01 6.070941543579101562e+01 -1.612881278991699219e+01 7.270502090454101562e+00 1.200381088256835938e+01 5.782293796539306641e+00 2.711973190307617188e+00
7.900000000000000000e+01 6.077724456787109375e+01 -1.594168567657470703e+01 3.651575565338134766e+00 8.640477180480957031e+00 3.687615633010864258e+00 2.541810512542724609e+00
8.000000000000000000e+01 6.084507369995117188e+01 -1.575455760955810547e+01 8.665251135826110840e-01 5.591663360595703125e+00 1.937456488609313965e+00 1.537734985351562500e+00
8.100000000000000000e+01 6.058499526977539062e+01 -1.630150413513183594e+01 1.265982246398925781e+01 1.743437767028808594e+01 9.028260231018066406e+00 4.768805205821990967e-01
8.200000000000000000e+01 6.061508941650390625e+01 -1.610475158691406250e+01 5.836031913757324219e+00 1.175631999969482422e+01 5.277705669403076172e+00 1.103952765464782715e+00
8.300000000000000000e+01 6.064518737792968750e+01 -1.590799903869628906e+01 2.711611032485961914e+00 9.082741737365722656e+00 3.538305997848510742e+00 6.120265722274780273e-01
8.400000000000000000e+01 6.067528533935546875e+01 -1.571124649047851562e+01 -2.239817142486572266e+00 6.985089302062988281e+00 1.423581600189208984e+00 -4.521152973175048828e-01
8.500000000000000000e+01 6.052666854858398438e+01 -1.629836082458496094e+01 1.054481410980224609e+01 1.654945373535156250e+01 8.128279685974121094e+00 -1.113156914710998535e+00
8.600000000000000000e+01 6.051788330078125000e+01 -1.609951400756835938e+01 7.492824554443359375e+00 1.194508171081542969e+01 5.831371784210205078e+00 -1.301247000694274902e+00
8.700000000000000000e+01 6.050909805297851562e+01 -1.590066719055175781e+01 5.492988824844360352e-01 7.933005809783935547e+00 2.544691324234008789e+00 -9.937202930450439453e-01
8.800000000000000000e+01 6.050031280517578125e+01 -1.570182037353515625e+01 -1.748555064201354980e+00 7.212773323059082031e+00 1.639265537261962891e+00 -1.205519556999206543e+00
8.900000000000000000e+01 6.046885299682617188e+01 -1.630663490295410156e+01 1.404176044464111328e+01 1.648082351684570312e+01 9.156775474548339844e+00 -3.021870613098144531e+00
9.000000000000000000e+01 6.042151641845703125e+01 -1.611330413818359375e+01 5.151844978332519531e+00 1.009306526184082031e+01 4.573472976684570312e+00 -3.364263772964477539e+00
9.100000000000000000e+01 6.037418365478515625e+01 -1.591997337341308594e+01 4.237758159637451172e+00 7.239388942718505859e+00 3.443144083023071289e+00 -2.694325685501098633e+00
9.200000000000000000e+01 6.032685089111328125e+01 -1.572664165496826172e+01 -3.507516622543334961e+00 3.617584705352783203e+00 3.302042931318283081e-02 -2.332586050033569336e+00
9.300000000000000000e+01 6.041374969482421875e+01 -1.632600784301757812e+01 1.304111289978027344e+01 1.329613208770751953e+01 7.901173114776611328e+00 -5.466449737548828125e+00
9.400000000000000000e+01 6.032968139648437500e+01 -1.614559173583984375e+01 9.120007514953613281e+00 9.065951347351074219e+00 5.455787658691406250e+00 -3.874966144561767578e+00
9.500000000000000000e+01 6.024561309814453125e+01 -1.596517562866210938e+01 2.745574951171875000e+00 4.713022708892822266e+00 2.237579345703125000e+00 -4.964218616485595703e+00
9.600000000000000000e+01 6.016154479980468750e+01 -1.578475952148437500e+01 2.120898723602294922e+00 2.750636100769042969e+00 1.461460471153259277e+00 -3.762584447860717773e+00
9.700000000000000000e+01 6.036347198486328125e+01 -1.635573768615722656e+01 1.606092643737792969e+01 1.176420974731445312e+01 8.347540855407714844e+00 -5.694292068481445312e+00
9.800000000000000000e+01 6.024588775634765625e+01 -1.619514083862304688e+01 1.010626506805419922e+01 5.719692230224609375e+00 4.747786998748779297e+00 -5.211923122406005859e+00
9.900000000000000000e+01 6.012830352783203125e+01 -1.603454589843750000e+01 5.548743724822998047e+00 3.540319681167602539e+00 2.726719141006469727e+00 -4.768784999847412109e+00
1.000000000000000000e+02 6.001071548461914062e+01 -1.587395000457763672e+01 2.452529907226562500e+00 5.411552786827087402e-01 8.981055617332458496e-01 -5.749354839324951172e+00
1.010000000000000000e+02 6.031994628906250000e+01 -1.639468765258789062e+01 1.902458953857421875e+01 8.079773902893066406e+00 8.131309509277343750e+00 -5.501835823059082031e+00
1.020000000000000000e+02 6.017334365844726562e+01 -1.626005744934082031e+01 1.166556930541992188e+01 3.708233833312988281e+00 4.612141132354736328e+00 -4.902394771575927734e+00
1.030000000000000000e+02 6.002674102783203125e+01 -1.612542915344238281e+01 8.059158325195312500e+00 1.393553853034973145e+00 2.835813760757446289e+00 -4.491805553436279297e+00
1.040000000000000000e+02 5.988013839721679688e+01 -1.599079895019531250e+01 3.346056222915649414e+00 -1.680381536483764648e+00 4.997024238109588623e-01 -5.549197673797607422e+00
1.050000000000000000e+02 6.028483581542968750e+01 -1.644136619567871094e+01 2.028864288330078125e+01 4.385600090026855469e+00 7.402272701263427734e+00 -4.534296512603759766e+00
1.060000000000000000e+02 6.011482620239257812e+01 -1.633785629272460938e+01 1.416378688812255859e+01 2.294901132583618164e+00 4.937606334686279297e+00 -2.991223096847534180e+00
1.070000000000000000e+02 5.994482040405273438e+01 -1.623434638977050781e+01 8.956641197204589844e+00 -1.056680560111999512e+00 2.369988203048706055e+00 -4.060775279998779297e+00
1.080000000000000000e+02 5.977481079101562500e+01 -1.613083648681640625e+01 6.419087409973144531e+00 -1.550156116485595703e+00 1.460679411888122559e+00 -4.523221492767333984e+00
1.090000000000000000e+02 6.025948715209960938e+01 -1.649398803710937500e+01 2.239454650878906250e+01 3.058626651763916016e+00 7.635951995849609375e+00 -1.474158883094787598e+00
1.100000000000000000e+02 6.007257843017578125e+01 -1.642555809020996094e+01 1.450267791748046875e+01 -2.462737709283828735e-01 4.276921272277832031e+00 -1.465662360191345215e+00
1.110000000000000000e+02 5.988566970825195312e+01 -1.635712814331054688e+01 1.073100376129150391e+01 -7.152616381645202637e-01 3.004722595214843750e+00 -1.955970168113708496e+00
1.120000000000000000e+02 5.969876098632812500e+01 -1.628869819641113281e+01 6.839608669281005859e+00 -3.001295804977416992e+00 1.151493906974792480e+00 -3.357157468795776367e+00
1.130000000000000000e+02 6.024486923217773438e+01 -1.655053710937500000e+01 2.187721443176269531e+01 6.186437606811523438e-01 6.748757362365722656e+00 1.676905632019042969e+00
1.140000000000000000e+02 6.004821395874023438e+01 -1.651980781555175781e+01 1.487269496917724609e+01 3.253792524337768555e-01 4.559422016143798828e+00 1.136707425117492676e+00
1.150000000000000000e+02 5.985155868530273438e+01 -1.648907661437988281e+01 1.073057079315185547e+01 -1.614885568618774414e+00 2.734705448150634766e+00 -3.210253715515136719e-01
1.160000000000000000e+02 5.965490341186523438e+01 -1.645834732055664062e+01 8.380095481872558594e+00 -2.215018033981323242e+00 1.849523305892944336e+00 -1.127119660377502441e+00
1.170000000000000000e+02 6.024153900146484375e+01 -1.660885047912597656e+01 2.030432128906250000e+01 1.143778681755065918e+00 6.434430122375488281e+00 5.082221508026123047e+00
1.180000000000000000e+02 6.004266357421875000e+01 -1.661699676513671875e+01 1.360159873962402344e+01 3.157179057598114014e-01 4.175195217132568359e+00 3.216501235961914062e+00
1.190000000000000000e+02 5.984378814697265625e+01 -1.662514305114746094e+01 1.057966709136962891e+01 -3.879092633724212646e-01 3.057527303695678711e+00 1.735067367553710938e+00
1.200000000000000000e+02 5.964491271972656250e+01 -1.663328933715820312e+01 8.695285797119140625e+00 -1.764483094215393066e+00 2.079240798950195312e+00 8.491866174153983593e-04
1.210000000000000000e+02 6.024962615966796875e+01 -1.666669654846191406e+01 1.655577278137207031e+01 2.059328794479370117e+00 5.584530353546142578e+00 7.725857257843017578e+00
1.220000000000000000e+02 6.005614471435546875e+01 -1.671340751647949219e+01 1.172638511657714844e+01 1.834720373153686523e+00 4.068331718444824219e+00 4.631537914276123047e+00
1.230000000000000000e+02 5.986265945434570312e+01 -1.676011657714843750e+01 1.036597537994384766e+01 4.696471393108367920e-01 3.250686645507812500e+00 2.866219997406005859e+00
1.240000000000000000e+02 5.966917800903320312e+01 -1.680682563781738281e+01 7.999281883239746094e+00 -2.065168172121047974e-01 2.337829351425170898e+00 2.198808670043945312e+00
1.250000000000000000e+02 6.026882171630859375e+01 -1.672186279296875000e+01 1.073292064666748047e+01 3.154074907302856445e+00 4.166098594665527344e+00 7.476305007934570312e+00
1.260000000000000000e+02 6.008813476562500000e+01 -1.680534744262695312e+01 1.178920936584472656e+01 2.982081890106201172e+00 4.431387424468994141e+00 5.185249328613281250e+00
1.270000000000000000e+02 5.990744781494140625e+01 -1.688883399963378906e+01 9.016201972961425781e+00 1.899444460868835449e+00 3.274693965911865234e+00 4.636218547821044922e+00
1.280000000000000000e+02 5.972676467895507812e+01 -1.697231864929199219e+01 7.785258769989013672e+00 1.191635370254516602e+00 2.693068265914916992e+00 3.292553663253784180e+00
1.290000000000000000e+02 4.454376983642578125e+01 -2.153533744812011719e+01 -5.198003649711608887e-01 -1.112293079495429993e-01 -1.893088966608047485e-01 -2.608886659145355225e-01
1.300000000000000000e+02 4.525796890258789062e+01 -2.133341026306152344e+01 -7.355498075485229492e-01 -1.267938464879989624e-01 -2.587031126022338867e-01 -3.292581737041473389e-01
1.310000000000000000e+02 4.405188369750976562e+01 -2.244241142272949219e+01 -2.820174992084503174e-01 -2.144143730401992798e-01 -1.489295661449432373e-01 -3.644758164882659912e-01
1.320000000000000000e+02 4.615114593505859375e+01 -2.184869003295898438e+01 -7.778355479240417480e-01 -1.978202313184738159e-01 -2.926967442035675049e-01 -5.444598197937011719e-01
1.330000000000000000e+02 4.545270156860351562e+01 -2.204736137390136719e+01 -5.876561403274536133e-01 -2.091916799545288086e-01 -2.390543520450592041e-01 -4.922176599502563477e-01
1.340000000000000000e+02 4.475288772583007812e+01 -2.224522018432617188e+01 -4.093294143676757812e-01 -2.381855100393295288e-01 -1.942544728517532349e-01 -4.526377916336059570e-01
1.350000000000000000e+02 4.597079086303710938e+01 -2.113067054748535156e+01 -9.460530877113342285e-01 -1.041344106197357178e-01 -3.150562644004821777e-01 -3.668211996555328369e-01
1.360000000000000000e+02 4.382838821411132812e+01 -2.173659515380859375e+01 -3.013605177402496338e-01 -8.625879138708114624e-02 -1.162857934832572937e-01 -2.035909146070480347e-01
1.370000000000000000e+02 4.742242813110351562e+01 -2.080677986145019531e+01 -1.493561506271362305e+00 -1.039531752467155457e-01 -4.792543947696685791e-01 -4.403749108314514160e-01
1.380000000000000000e+02 4.815383148193359375e+01 -2.066137695312500000e+01 -1.767194867134094238e+00 -1.292272359132766724e-01 -5.689266324043273926e-01 -4.861891567707061768e-01
1.390000000000000000e+02 4.686201095581054688e+01 -2.167665290832519531e+01 -9.705954194068908691e-01 -1.776744723320007324e-01 -3.444809615612030029e-01 -5.883003473281860352e-01
1.400000000000000000e+02 4.830693054199218750e+01 -2.138541984558105469e+01 -1.357368826866149902e+00 -1.732212007045745850e-01 -4.591769874095916748e-01 -6.391023397445678711e-01
1.410000000000000000e+02 4.888698577880859375e+01 -2.051945686340332031e+01 -2.018491744995117188e+00 -1.105004474520683289e-01 -6.386976838111877441e-01 -5.260159373283386230e-01
1.420000000000000000e+02 4.903206253051757812e+01 -2.124509811401367188e+01 -1.549001693725585938e+00 -1.700376123189926147e-01 -5.157117843627929688e-01 -6.574468016624450684e-01
1.430000000000000000e+02 4.758355331420898438e+01 -2.152922821044921875e+01 -1.153602480888366699e+00 -1.919264346361160278e-01 -4.036586880683898926e-01 -6.246420145034790039e-01
1.440000000000000000e+02 4.669285964965820312e+01 -2.095580101013183594e+01 -1.197099804878234863e+00 -1.073641255497932434e-01 -3.913391828536987305e-01 -3.964191377162933350e-01
1.450000000000000000e+02 5.036022949218750000e+01 -2.024225044250488281e+01 -2.481269836425781250e+00 -1.124358177185058594e-01 -7.781116366386413574e-01 -5.795017480850219727e-01
1.460000000000000000e+02 5.123764038085937500e+01 -2.082924842834472656e+01 -2.015765666961669922e+00 -9.663099795579910278e-02 -6.337189674377441406e-01 -6.039946079254150391e-01
1.470000000000000000e+02 4.976291656494140625e+01 -2.110580253601074219e+01 -1.730604171752929688e+00 -1.403102129697799683e-01 -5.612743496894836426e-01 -6.559172868728637695e-01
1.480000000000000000e+02 5.197274780273437500e+01 -2.068717575073242188e+01 -2.110028982162475586e+00 -7.229007035493850708e-02 -6.546957492828369141e-01 -5.504528880119323730e-01
1.490000000000000000e+02 5.050101470947265625e+01 -2.096874237060546875e+01 -1.881953477859497070e+00 -1.344123184680938721e-01 -6.049097180366516113e-01 -6.400873064994812012e-01
1.500000000000000000e+02 5.183234024047851562e+01 -1.996061325073242188e+01 -2.810521364212036133e+00 -1.064780801534652710e-01 -8.750998377799987793e-01 -6.011595129966735840e-01
1.510000000000000000e+02 4.962194442749023438e+01 -2.037934684753417969e+01 -2.258593797683715820e+00 -1.289985179901123047e-01 -7.162776589393615723e-01 -5.528531670570373535e-01
1.520000000000000000e+02 5.109704208374023438e+01 -2.010272216796875000e+01 -2.665773868560791016e+00 -1.275939047336578369e-01 -8.380103111267089844e-01 -5.935128331184387207e-01
1.530000000000000000e+02 5.405023574829101562e+01 -1.952743339538574219e+01 -2.806084156036376953e+00 -7.262573391199111938e-02 -8.636129498481750488e-01 -4.913895726203918457e-01
1.540000000000000000e+02 5.331044006347656250e+01 -1.967299842834472656e+01 -2.885957241058349609e+00 -7.301824539899826050e-02 -8.876926302909851074e-01 -5.537142157554626465e-01
1.550000000000000000e+02 5.271442794799804688e+01 -2.054370307922363281e+01 -2.157269477844238281e+00 -6.641598884016275406e-03 -6.491733789443969727e-01 -4.625400304794311523e-01
1.560000000000000000e+02 5.495590972900390625e+01 -2.010264968872070312e+01 -1.900868892669677734e+00 1.755957007408142090e-01 -5.175819396972656250e-01 -1.482561230659484863e-02
1.570000000000000000e+02 5.478977203369140625e+01 -1.938115119934082031e+01 -2.640420913696289062e+00 -3.016634657979011536e-02 -8.011761903762817383e-01 -4.190180003643035889e-01
1.580000000000000000e+02 5.420899581909179688e+01 -2.025038337707519531e+01 -2.082627534866333008e+00 1.366639733314514160e-01 -5.837890505790710449e-01 -2.038160264492034912e-01
1.590000000000000000e+02 5.257042312622070312e+01 -1.981785011291503906e+01 -2.888608694076538086e+00 -1.136124208569526672e-01 -9.006662964820861816e-01 -5.886237621307373047e-01
1.600000000000000000e+02 5.346182250976562500e+01 -2.039739990234375000e+01 -2.154126644134521484e+00 4.139595478773117065e-02 -6.338191628456115723e-01 -3.572058379650115967e-01
1.610000000000000000e+02 5.554148864746093750e+01 -1.919480705261230469e+01 -2.248965978622436523e+00 -6.159403920173645020e-02 -6.931680440902709961e-01 -3.279505074024200439e-01
1.620000000000000000e+02 5.637474060058593750e+01 -1.980684280395507812e+01 -1.388865470886230469e+00 4.920302033424377441e-01 -2.690505981445312500e-01 4.895583689212799072e-01
1.630000000000000000e+02 5.814567565917968750e+01 -1.910924530029296875e+01 -2.434644103050231934e-01 1.166713237762451172e+00 2.769746482372283936e-01 1.194221735000610352e+00
1.640000000000000000e+02 5.568741226196289062e+01 -1.992215728759765625e+01 -1.675570130348205566e+00 3.589848577976226807e-01 -3.949756026268005371e-01 2.508316338062286377e-01
1.650000000000000000e+02 5.822897720336914062e+01 -1.950413894653320312e+01 -4.047075808048248291e-01 1.551828980445861816e+00 3.441364169120788574e-01 1.500250220298767090e+00
1.660000000000000000e+02 5.803321075439453125e+01 -1.892645645141601562e+01 -1.442753374576568604e-01 9.559203982353210449e-01 2.434935122728347778e-01 1.037875652313232422e+00
1.670000000000000000e+02 5.707373428344726562e+01 -1.932448196411132812e+01 -9.983282685279846191e-01 6.345146298408508301e-01 -1.091440990567207336e-01 6.827380061149597168e-01
1.680000000000000000e+02 5.625719070434570312e+01 -1.891233253479003906e+01 -1.702883481979370117e+00 3.502907231450080872e-03 -5.098142027854919434e-01 -2.417525500059127808e-01
1.690000000000000000e+02 5.772735595703125000e+01 -1.833316040039062500e+01 3.116673603653907776e-02 1.914278566837310791e-01 6.677837669849395752e-02 2.233586460351943970e-01
1.700000000000000000e+02 5.757511901855468750e+01 -1.914575576782226562e+01 -6.285868883132934570e-01 8.502079844474792480e-01 6.648632138967514038e-02 8.779416680335998535e-01
1.710000000000000000e+02 5.794298553466796875e+01 -1.872058105468750000e+01 -3.908254578709602356e-02 7.954893112182617188e-01 2.269220352172851562e-01 8.283149600028991699e-01
1.720000000000000000e+02 5.821210479736328125e+01 -1.929512596130371094e+01 -3.627169728279113770e-01 1.395897865295410156e+00 3.099542558193206787e-01 1.363979101181030273e+00
1.730000000000000000e+02 5.748120880126953125e+01 -1.886127471923828125e+01 -6.168072223663330078e-01 4.999668896198272705e-01 -3.505209460854530334e-02 5.425048470497131348e-01
1.740000000000000000e+02 5.781146621704101562e+01 -1.932405471801757812e+01 -5.449903607368469238e-01 1.046610236167907715e+00 1.504859626293182373e-01 1.118411064147949219e+00
1.750000000000000000e+02 5.764585113525390625e+01 -1.962341690063476562e+01 -7.319629788398742676e-01 1.108410120010375977e+00 1.129341498017311096e-01 1.140287280082702637e+00
1.760000000000000000e+02 5.691062927246093750e+01 -1.864684295654296875e+01 -9.759762883186340332e-01 -1.560066267848014832e-02 -2.974731028079986572e-01 -8.849602192640304565e-02
1.770000000000000000e+02 5.657725906372070312e+01 -1.927470970153808594e+01 -1.367907285690307617e+00 3.259130418300628662e-01 -3.125982880592346191e-01 2.972692847251892090e-01
1.780000000000000000e+02 5.702589797973632812e+01 -1.973129653930664062e+01 -9.698286056518554688e-01 8.641406297683715820e-01 -3.170639276504516602e-02 8.918883204460144043e-01
1.790000000000000000e+02 5.787466049194335938e+01 -1.851523971557617188e+01 8.143555372953414917e-02 5.629006624221801758e-01 1.933008730411529541e-01 6.592280268669128418e-01
1.800000000000000000e+02 5.700876998901367188e+01 -1.899368667602539062e+01 -1.035176634788513184e+00 3.157031238079071045e-01 -2.158420532941818237e-01 2.875647544860839844e-01
1.810000000000000000e+02 5.744203186035156250e+01 -1.856852722167968750e+01 -3.983160853385925293e-01 2.241275608539581299e-01 -5.225655436515808105e-02 2.065258622169494629e-01
1.820000000000000000e+02 6.134489059448242188e+01 -1.735511779785156250e+01 4.844687938690185547e+00 6.268921852111816406e+00 3.334083080291748047e+00 -2.096199035644531250e+00
1.830000000000000000e+02 5.784252929687500000e+01 -1.659842300415039062e+01 3.028676986694335938e+00 -2.868577241897583008e+00 4.802989214658737183e-02 -3.861042261123657227e+00
1.840000000000000000e+02 5.977186203002929688e+01 -1.552161598205566406e+01 -4.583941936492919922e+00 -3.699849128723144531e+00 -2.485137462615966797e+00 -5.667763710021972656e+00
1.850000000000000000e+02 6.154986953735351562e+01 -1.698601722717285156e+01 7.724492549896240234e+00 3.360197305679321289e+00 3.325407028198242188e+00 -9.981340169906616211e-01
1.860000000000000000e+02 6.102114486694335938e+01 -1.789421653747558594e+01 1.553913712501525879e+00 6.333249568939208984e+00 2.366148948669433594e+00 1.796219497919082642e-01
1.870000000000000000e+02 5.860261917114257812e+01 -1.938072204589843750e+01 -2.519468367099761963e-01 1.652150273323059082e+00 4.200610220432281494e-01 1.579668998718261719e+00
1.880000000000000000e+02 5.853300857543945312e+01 -1.919227218627929688e+01 -1.167318001389503479e-01 1.567351937294006348e+00 4.351860582828521729e-01 1.518677711486816406e+00
1.890000000000000000e+02 5.847107696533203125e+01 -1.899588012695312500e+01 -3.717212704941630363e-03 1.381776213645935059e+00 4.134176969528198242e-01 1.352692723274230957e+00
1.900000000000000000e+02 6.039057159423828125e+01 -1.769042968750000000e+01 1.760005474090576172e+00 5.214475631713867188e+00 2.092344284057617188e+00 2.430246829986572266e+00
1.910000000000000000e+02 6.004457092285156250e+01 -1.825692749023437500e+01 1.117503643035888672e+00 3.268571138381958008e+00 1.315822482109069824e+00 2.136568784713745117e+00
1.920000000000000000e+02 5.891930007934570312e+01 -1.919602012634277344e+01 1.930587738752365112e-02 1.825238466262817383e+00 5.533633232116699219e-01 1.703638315200805664e+00
1.930000000000000000e+02 5.774715423583984375e+01 -1.689905738830566406e+01 2.767161846160888672e+00 -3.284813642501831055e+00 -1.552954912185668945e-01 -3.558760166168212891e+00
1.940000000000000000e+02 5.950498580932617188e+01 -1.624534225463867188e+01 5.195641517639160156e+00 -3.250432729721069336e+00 5.835626721382141113e-01 -3.496922016143798828e+00
1.950000000000000000e+02 5.800036621093750000e+01 -1.796057701110839844e+01 -4.342217922210693359e+00 1.332849077880382538e-02 -1.298666834831237793e+00 -2.632119894027709961e+00
1.960000000000000000e+02 5.902117919921875000e+01 -1.734276962280273438e+01 1.813269853591918945e+00 -7.310252189636230469e-01 3.246733844280242920e-01 1.720516383647918701e-01
1.970000000000000000e+02 5.919408416748046875e+01 -1.724041175842285156e+01 3.455123186111450195e+00 1.807328760623931885e-01 1.090756773948669434e+00 4.157103300094604492e-01
1.980000000000000000e+02 5.908906555175781250e+01 -1.700190925598144531e+01 4.576292037963867188e+00 -2.366792678833007812e+00 6.628498435020446777e-01 -6.032640933990478516e-01
1.990000000000000000e+02 5.954784011840820312e+01 -1.705686950683593750e+01 6.134292602539062500e+00 1.089562296867370605e+00 2.167156457901000977e+00 2.431227684020996094e+00
2.000000000000000000e+02 6.085767745971679688e+01 -1.556933307647705078e+01 -3.431840181350708008e+00 3.638515472412109375e+00 6.200253963470458984e-02 5.727006793022155762e-01
2.010000000000000000e+02 6.068602371215820312e+01 -1.555487823486328125e+01 -2.828174829483032227e+00 6.448557376861572266e+00 1.086114764213562012e+00 -2.432480305433273315e-01
2.020000000000000000e+02 6.045364761352539062e+01 -1.543511486053466797e+01 -3.301664829254150391e+00 3.691984653472900391e+00 1.170959696173667908e-01 -2.356608629226684570e+00
2.030000000000000000e+02 5.968855667114257812e+01 -1.589223384857177734e+01 1.891368269920349121e+00 -2.319640636444091797e+00 -1.284817010164260864e-01 -5.817937850952148438e+00
2.040000000000000000e+02 5.956908035278320312e+01 -1.606183624267578125e+01 2.771095991134643555e+00 -3.520634174346923828e+00 -2.248614281415939331e-01 -5.440279483795166016e+00
2.050000000000000000e+02 5.947530364990234375e+01 -1.685569000244140625e+01 6.976556777954101562e+00 -1.450543761253356934e+00 1.657803893089294434e+00 5.103989243507385254e-01
2.060000000000000000e+02 5.965958786010742188e+01 -1.727569580078125000e+01 2.170674562454223633e+00 9.098412990570068359e-01 9.241547584533691406e-01 1.420492768287658691e+00
2.070000000000000000e+02 5.929439544677734375e+01 -1.748057556152343750e+01 1.888539433479309082e+00 9.221608042716979980e-01 8.432100415229797363e-01 1.253829836845397949e+00
2.080000000000000000e+02 6.018795394897460938e+01 -1.765567970275878906e+01 2.048080921173095703e+00 4.008632659912109375e+00 1.817014098167419434e+00 2.730925321578979492e+00
2.090000000000000000e+02 6.031141662597656250e+01 -1.802474212646484375e+01 1.294918298721313477e+00 4.344130039215087891e+00 1.691714525222778320e+00 2.239768505096435547e+00
2.100000000000000000e+02 6.078180694580078125e+01 -1.769952392578125000e+01 1.625335931777954102e+00 6.967813491821289062e+00 2.577944755554199219e+00 9.066100716590881348e-01
2.110000000000000000e+02 6.149542999267578125e+01 -1.752613067626953125e+01 3.950347185134887695e+00 5.104946136474609375e+00 2.716588020324707031e+00 -1.424730181694030762e+00
2.120000000000000000e+02 5.874880981445312500e+01 -1.803867149353027344e+01 1.209554314613342285e+00 8.182576894760131836e-01 6.083436012268066406e-01 1.113242626190185547e+00
2.130000000000000000e+02 5.831732940673828125e+01 -1.858179473876953125e+01 3.567311167716979980e-01 9.176232814788818359e-01 3.823063373565673828e-01 1.067830920219421387e+00
2.140000000000000000e+02 5.810490036010742188e+01 -1.819551658630371094e+01 7.795796394348144531e-01 4.256527721881866455e-01 3.615697324275970459e-01 6.272663474082946777e-01
2.150000000000000000e+02 6.081494522094726562e+01 -1.528687095642089844e+01 -6.205297470092773438e+00 2.447895050048828125e+00 -1.127220869064331055e+00 -4.162539541721343994e-01
2.160000000000000000e+02 6.027927017211914062e+01 -1.528961181640625000e+01 -9.550930976867675781e+00 -1.539835184812545776e-01 -2.911474466323852539e+00 -5.856712818145751953e+00
2.170000000000000000e+02 5.913627624511718750e+01 -1.640035629272460938e+01 3.348509073257446289e+00 -4.989592075347900391e+00 -4.923249483108520508e-01 -3.086473464965820312e+00
2.180000000000000000e+02 5.848052597045898438e+01 -1.662245368957519531e+01 2.796521902084350586e+00 -3.832779169082641602e+00 -3.108771741390228271e-01 -4.123200893402099609e+00
2.190000000000000000e+02 6.106951522827148438e+01 -1.555378341674804688e+01 -8.794490694999694824e-01 3.450232744216918945e+00 7.712351083755493164e-01 2.905146598815917969e+00
2.200000000000000000e+02 5.980342102050781250e+01 -1.574966621398925781e+01 -3.012435197830200195e+00 -1.804772496223449707e+00 -1.445162296295166016e+00 -6.409863948822021484e+00
2.210000000000000000e+02 6.138046264648437500e+01 -1.570984268188476562e+01 1.672986745834350586e+00 3.772295236587524414e+00 1.633584618568420410e+00 4.544768333435058594e+00
2.220000000000000000e+02 5.855871963500976562e+01 -1.623180961608886719e+01 1.110782504081726074e+00 -4.015635967254638672e+00 -8.714560270309448242e-01 -4.876888751983642578e+00
2.230000000000000000e+02 5.955369949340820312e+01 -1.554442310333251953e+01 -4.862092971801757812e+00 -3.798280477523803711e+00 -2.598111867904663086e+00 -8.356483459472656250e+00
2.240000000000000000e+02 6.151761627197265625e+01 -1.614755630493164062e+01 6.695847988128662109e+00 3.126183271408081055e+00 2.946609497070312500e+00 4.336512565612792969e+00
2.250000000000000000e+02 6.157558441162109375e+01 -1.629965972900390625e+01 7.523171901702880859e+00 1.796006202697753906e+00 2.795753479003906250e+00 2.221198081970214844e+00
2.260000000000000000e+02 6.152587509155273438e+01 -1.597069740295410156e+01 4.374528884887695312e+00 2.717453002929687500e+00 2.127594709396362305e+00 3.841763734817504883e+00
2.270000000000000000e+02 6.058211898803710938e+01 -1.770677185058593750e+01 1.519416213035583496e+00 6.277331829071044922e+00 2.339024543762207031e+00 1.936885714530944824e+00
2.280000000000000000e+02 6.163771057128906250e+01 -1.650075531005859375e+01 8.856910705566406250e+00 2.434971332550048828e+00 3.387564659118652344e+00 1.663168787956237793e+00
2.290000000000000000e+02 6.097935867309570312e+01 -1.762272262573242188e+01 1.974979400634765625e+00 7.100539684295654297e+00 2.722655773162841797e+00 1.947452723979949951e-01
2.300000000000000000e+02 6.018183517456054688e+01 -1.817246055603027344e+01 1.103433370590209961e+00 3.832464694976806641e+00 1.480769395828247070e+00 2.182280063629150391e+00
2.310000000000000000e+02 5.998900604248046875e+01 -1.756182670593261719e+01 2.466330051422119141e+00 2.592185974121093750e+00 1.517554879188537598e+00 2.463222503662109375e+00
2.320000000000000000e+02 5.971307373046875000e+01 -1.770952224731445312e+01 2.187605619430541992e+00 1.777718901634216309e+00 1.189597368240356445e+00 2.009680271148681641e+00
2.330000000000000000e+02 5.952450561523437500e+01 -1.766209411621093750e+01 2.037203550338745117e+00 1.405075073242187500e+00 1.032683610916137695e+00 1.724893569946289062e+00
2.340000000000000000e+02 6.116211700439453125e+01 -1.751873970031738281e+01 3.564506530761718750e+00 6.409824371337890625e+00 2.992299318313598633e+00 -1.036569952964782715e+00
2.350000000000000000e+02 6.184129333496093750e+01 -1.687720489501953125e+01 7.036025047302246094e+00 2.085966825485229492e+00 2.736597537994384766e+00 -1.695593893527984619e-01
2.360000000000000000e+02 6.146949386596679688e+01 -1.715581321716308594e+01 5.804115772247314453e+00 4.916723728179931641e+00 3.216251850128173828e+00 -1.604975700378417969e+00
2.370000000000000000e+02 5.874412536621093750e+01 -1.725051498413085938e+01 1.607483625411987305e+00 -2.845546483993530273e+00 -3.714188933372497559e-01 -1.914509296417236328e+00
2.380000000000000000e+02 5.783260345458984375e+01 -1.755757904052734375e+01 -2.303458452224731445e+00 -1.360482215881347656e+00 -1.099182128906250000e+00 -3.972785234451293945e+00
2.390000000000000000e+02 5.868817520141601562e+01 -1.755903434753417969e+01 -8.179094195365905762e-01 -1.438190460205078125e+00 -6.768299341201782227e-01 -1.345511317253112793e+00
2.400000000000000000e+02 5.791833877563476562e+01 -1.775658035278320312e+01 -4.097960472106933594e+00 -2.280093908309936523e+00 -1.913416266441345215e+00 -3.515845537185668945e+00
2.410000000000000000e+02 5.937061309814453125e+01 -1.714543724060058594e+01 4.800323963165283203e+00 -3.782025575637817383e-01 1.326636433601379395e+00 1.712038755416870117e+00
2.420000000000000000e+02 5.920948791503906250e+01 -1.666562271118164062e+01 6.107772350311279297e+00 -3.540115118026733398e+00 7.702971696853637695e-01 -1.859094023704528809e+00
2.430000000000000000e+02 5.894478988647460938e+01 -1.600223541259765625e+01 1.291820406913757324e+00 -5.197076320648193359e+00 -1.171576738357543945e+00 -3.971843481063842773e+00
2.440000000000000000e+02 5.875524902343750000e+01 -1.613224983215332031e+01 1.968960762023925781e-01 -6.160083293914794922e+00 -1.788956165313720703e+00 -5.253876209259033203e+00
2.450000000000000000e+02 5.801675415039062500e+01 -1.650909042358398438e+01 2.654670715332031250e+00 -3.120051383972167969e+00 -1.396141648292541504e-01 -3.854751586914062500e+00
2.460000000000000000e+02 5.955821228027343750e+01 -1.568992519378662109e+01 -2.509636878967285156e+00 -3.684593439102172852e+00 -1.858269095420837402e+00 -7.174467563629150391e+00
2.470000000000000000e+02 5.946521759033203125e+01 -1.582803249359130859e+01 -3.102834224700927734e+00 -3.348689794540405273e+00 -1.935457229614257812e+00 -6.658722877502441406e+00
2.480000000000000000e+02 5.933610916137695312e+01 -1.599521732330322266e+01 1.965297698974609375e+00 -3.724814176559448242e+00 -5.278549790382385254e-01 -4.653597831726074219e+00
2.490000000000000000e+02 5.856113815307617188e+01 -1.691376304626464844e+01 2.888265848159790039e+00 -4.254745006561279297e+00 -4.099437594413757324e-01 -3.489158868789672852e+00
2.500000000000000000e+02 5.774268341064453125e+01 -1.737008857727050781e+01 8.519952297210693359e-01 -2.786957740783691406e+00 -5.804887413978576660e-01 -4.391376018524169922e+00
2.510000000000000000e+02 5.917988586425781250e+01 -1.617795181274414062e+01 1.714503884315490723e+00 -5.059863090515136719e+00 -1.003607749938964844e+00 -4.954325199127197266e+00
2.520000000000000000e+02 5.926578140258789062e+01 -1.573045730590820312e+01 -4.250343322753906250e+00 -2.414624929428100586e+00 -1.999490499496459961e+00 -7.556126117706298828e+00
2.530000000000000000e+02 5.837418746948242188e+01 -1.632687950134277344e+01 1.862813353538513184e+00 -3.080976009368896484e+00 -3.654488325119018555e-01 -4.230754375457763672e+00
2.540000000000000000e+02 6.063843536376953125e+01 -1.810476112365722656e+01 1.005673646926879883e+00 5.205514907836914062e+00 1.863356471061706543e+00 1.539333701133728027e+00
2.550000000000000000e+02 6.046529388427734375e+01 -1.823397827148437500e+01 8.097990751266479492e-01 4.636798858642578125e+00 1.633979320526123047e+00 1.905865907669067383e+00
2.560000000000000000e+02 6.013415527343750000e+01 -1.845026016235351562e+01 7.563829421997070312e-01 3.560868263244628906e+00 1.295175433158874512e+00 1.997971892356872559e+00
2.570000000000000000e+02 5.985559463500976562e+01 -1.804013442993164062e+01 1.541284799575805664e+00 2.747162103652954102e+00 1.286534070968627930e+00 2.206097126007080078e+00
2.580000000000000000e+02 5.995881271362304688e+01 -1.853642272949218750e+01 7.568157315254211426e-01 2.986347913742065430e+00 1.122949123382568359e+00 2.002582788467407227e+00
2.590000000000000000e+02 5.840983200073242188e+01 -1.878743934631347656e+01 2.061282992362976074e-01 1.190565824508666992e+00 4.190082550048828125e-01 1.208250522613525391e+00
2.600000000000000000e+02 5.877509307861328125e+01 -1.929867744445800781e+01 -1.591996699571609497e-01 1.854939579963684082e+00 5.087220072746276855e-01 1.633446455001831055e+00
2.610000000000000000e+02 5.959477233886718750e+01 -1.872576332092285156e+01 5.988810062408447266e-01 2.502340316772460938e+00 9.303663969039916992e-01 1.954749941825866699e+00
2.620000000000000000e+02 6.082923507690429688e+01 -1.798936271667480469e+01 1.169539809226989746e+00 5.836867809295654297e+00 2.101922273635864258e+00 1.123964190483093262e+00
2.630000000000000000e+02 5.977722167968750000e+01 -1.862211608886718750e+01 6.775277256965637207e-01 2.789152860641479492e+00 1.040004134178161621e+00 1.995464086532592773e+00
2.640000000000000000e+02 5.925623703002929688e+01 -1.897034835815429688e+01 3.085235953330993652e-01 2.069396972656250000e+00 7.133761644363403320e-01 1.816251158714294434e+00
2.650000000000000000e+02 5.895622634887695312e+01 -1.765867805480957031e+01 1.620424866676330566e+00 7.413380742073059082e-01 7.085288763046264648e-01 1.048664689064025879e+00
2.660000000000000000e+02 5.903971862792968750e+01 -1.781004524230957031e+01 1.550009012222290039e+00 8.788937330245971680e-01 7.286708354949951172e-01 1.223679780960083008e+00
2.670000000000000000e+02 5.828554534912109375e+01 -1.808850669860839844e+01 9.676743745803833008e-01 5.495070219039916992e-01 4.551544189453125000e-01 7.030344009399414062e-01
2.680000000000000000e+02 5.879225540161132812e+01 -1.776323509216308594e+01 1.446553349494934082e+00 6.172405481338500977e-01 6.191381812095642090e-01 1.006203413009643555e+00
2.690000000000000000e+02 5.800971603393554688e+01 -1.741477394104003906e+01 2.216569185256958008e-01 -2.977872610092163086e+00 -8.268647193908691406e-01 -3.917053937911987305e+00
2.700000000000000000e+02 5.817454910278320312e+01 -1.785380363464355469e+01 -3.954101800918579102e+00 -2.127677917480468750e+00 -1.824533939361572266e+00 -2.490272998809814453e+00
2.710000000000000000e+02 5.765725326538085938e+01 -1.718329429626464844e+01 -4.961707890033721924e-01 -2.209318399429321289e+00 -8.116466999053955078e-01 -3.931298494338989258e+00
2.720000000000000000e+02 5.766915893554687500e+01 -1.669103050231933594e+01 2.013100385665893555e+00 -1.749905943870544434e+00 7.895830273628234863e-02 -3.410642147064208984e+00
2.730000000000000000e+02 5.780987167358398438e+01 -1.709470367431640625e+01 2.388290882110595703e+00 -2.640693426132202148e+00 -7.572075724601745605e-02 -4.688912391662597656e+00
2.740000000000000000e+02 5.907645416259765625e+01 -1.907938194274902344e+01 1.292463093996047974e-01 1.995760679244995117e+00 6.375020742416381836e-01 1.694384336471557617e+00
2.750000000000000000e+02 5.820421981811523438e+01 -1.838859558105468750e+01 3.721582293510437012e-01 7.204950451850891113e-01 3.277959823608398438e-01 7.829058170318603516e-01
2.760000000000000000e+02 5.935060119628906250e+01 -1.770579147338867188e+01 1.806149721145629883e+00 1.031275629997253418e+00 8.512275815010070801e-01 1.392657041549682617e+00
2.770000000000000000e+02 5.928141784667968750e+01 -1.691803741455078125e+01 5.261029720306396484e+00 -1.562785983085632324e+00 1.109472990036010742e+00 -6.748667359352111816e-02
2.780000000000000000e+02 5.851784896850585938e+01 -1.765605545043945312e+01 -2.103063821792602539e+00 -1.587402582168579102e+00 -1.107139945030212402e+00 -2.188444852828979492e+00
2.790000000000000000e+02 5.827080535888671875e+01 -1.752979660034179688e+01 -7.181735038757324219e-01 -2.814097166061401367e+00 -1.059681177139282227e+00 -3.052818298339843750e+00
2.800000000000000000e+02 5.749665069580078125e+01 -1.678818511962890625e+01 3.385623931884765625e+00 -2.829121589660644531e+00 1.669507473707199097e-01 -3.115748167037963867e+00
2.810000000000000000e+02 5.819380569458007812e+01 -1.641902542114257812e+01 2.408078193664550781e+00 -3.200989723205566406e+00 -2.378734052181243896e-01 -3.575525283813476562e+00
2.820000000000000000e+02 5.819666671752929688e+01 -1.729370498657226562e+01 3.115811944007873535e-01 -2.359260320663452148e+00 -6.143037080764770508e-01 -2.998530149459838867e+00
2.830000000000000000e+02 5.980866622924804688e+01 -1.744875335693359375e+01 2.413653612136840820e+00 1.611193895339965820e+00 1.207454204559326172e+00 2.070083379745483398e+00
2.840000000000000000e+02 5.942173004150390625e+01 -1.884850120544433594e+01 4.488268196582794189e-01 2.330365896224975586e+00 8.337578177452087402e-01 1.881819367408752441e+00
2.850000000000000000e+02 5.845900344848632812e+01 -1.797996139526367188e+01 1.125230908393859863e+00 5.300377607345581055e-01 4.965806007385253906e-01 8.400460481643676758e-01
2.860000000000000000e+02 5.965374374389648438e+01 -1.833133125305175781e+01 1.109680891036987305e+00 2.357931137084960938e+00 1.040283560752868652e+00 2.000727653503417969e+00
2.870000000000000000e+02 5.890029907226562500e+01 -1.791882133483886719e+01 1.428174018859863281e+00 8.867408037185668945e-01 6.944744586944580078e-01 1.139497280120849609e+00
2.880000000000000000e+02 5.858188629150390625e+01 -1.815397644042968750e+01 1.010748863220214844e+00 8.491040468215942383e-01 5.579559206962585449e-01 9.939597249031066895e-01
2.890000000000000000e+02 5.943405532836914062e+01 -1.663562583923339844e+01 6.666911125183105469e+00 -2.679090976715087891e+00 1.196345925331115723e+00 -5.376966595649719238e-01
2.900000000000000000e+02 5.899133682250976562e+01 -1.674090194702148438e+01 4.156476497650146484e+00 -4.020956516265869141e+00 4.065607488155364990e-02 -2.659285545349121094e+00
2.910000000000000000e+02 5.844321060180664062e+01 -1.744206237792968750e+01 -2.310013622045516968e-01 -1.961447834968566895e+00 -6.577347517013549805e-01 -2.023726463317871094e+00
2.920000000000000000e+02 5.946065521240234375e+01 -1.642824745178222656e+01 6.205854415893554688e+00 -3.394217967987060547e+00 8.434909582138061523e-01 -2.694030046463012695e+00
2.930000000000000000e+02 5.838879394531250000e+01 -1.721625137329101562e+01 1.590033769607543945e+00 -3.660942792892456055e+00 -6.212727427482604980e-01 -3.415594100952148438e+00
2.940000000000000000e+02 6.011828994750976562e+01 -1.787926673889160156e+01 1.716543912887573242e+00 3.718056440353393555e+00 1.630380153656005859e+00 2.417743206024169922e+00
2.950000000000000000e+02 5.924392700195312500e+01 -1.864562225341796875e+01 6.902049779891967773e-01 1.872979640960693359e+00 7.689554095268249512e-01 1.765187978744506836e+00
2.960000000000000000e+02 5.796457672119140625e+01 -1.706037330627441406e+01 2.644006729125976562e+00 -3.152123689651489258e+00 -1.524350643157958984e-01 -3.710447072982788086e+00
2.970000000000000000e+02 5.868316650390625000e+01 -1.653866195678710938e+01 3.453595161437988281e+00 -5.465417861938476562e+00 -6.035468578338623047e-01 -4.247095584869384766e+00
2.980000000000000000e+02 5.814456558227539062e+01 -1.703414916992187500e+01 1.764323592185974121e+00 -3.517065286636352539e+00 -5.258225798606872559e-01 -4.219128608703613281e+00
2.990000000000000000e+02 5.878071594238281250e+01 -1.683787345886230469e+01 3.551879167556762695e+00 -3.268837690353393555e+00 8.491242676973342896e-02 -2.559347152709960938e+00
3.000000000000000000e+02 5.872650527954101562e+01 -1.894726943969726562e+01 1.515650004148483276e-01 1.599633097648620605e+00 5.253594517707824707e-01 1.511225819587707520e+00
3.010000000000000000e+02 5.852859115600585938e+01 -1.844230079650878906e+01 5.600517392158508301e-01 1.057572364807128906e+00 4.852872490882873535e-01 1.067288994789123535e+00
3.020000000000000000e+02 5.944686126708984375e+01 -1.791366958618164062e+01 1.726037025451660156e+00 1.624448537826538086e+00 1.005145668983459473e+00 1.781054735183715820e+00
3.030000000000000000e+02 5.874418258666992188e+01 -1.913922119140625000e+01 -7.993405684828758240e-03 1.692685246467590332e+00 5.054075121879577637e-01 1.552363038063049316e+00
3.040000000000000000e+02 5.893927764892578125e+01 -1.873383331298828125e+01 4.695775508880615234e-01 1.643943667411804199e+00 6.340563893318176270e-01 1.578988313674926758e+00
3.050000000000000000e+02 5.834683227539062500e+01 -1.775259780883789062e+01 -3.327161312103271484e+00 -1.118209123611450195e+00 -1.333611130714416504e+00 -2.442984819412231445e+00
3.060000000000000000e+02 5.809579849243164062e+01 -1.763558578491210938e+01 -2.693405389785766602e+00 -1.033498167991638184e+00 -1.118071079254150391e+00 -3.159089326858520508e+00
3.070000000000000000e+02 5.885467529296875000e+01 -1.745268630981445312e+01 7.009506225585937500e-01 -7.513254284858703613e-01 -1.511242985725402832e-02 -7.301130890846252441e-01
3.080000000000000000e+02 5.860749053955078125e+01 -1.736775970458984375e+01 3.882988691329956055e-01 -2.098809957504272461e+00 -5.131533741950988770e-01 -2.422110795974731445e+00
3.090000000000000000e+02 5.757799530029296875e+01 -1.698721504211425781e+01 3.903070688247680664e+00 -1.370095014572143555e+00 7.598927021026611328e-01 -4.926289081573486328e+00
3.100000000000000000e+02 5.858255767822265625e+01 -1.716786575317382812e+01 2.645719051361083984e+00 -2.398452997207641602e+00 7.417978346347808838e-02 -1.958203911781311035e+00
3.110000000000000000e+02 5.889778518676757812e+01 -1.710798454284667969e+01 3.530960083007812500e+00 -2.557829856872558594e+00 2.919390201568603516e-01 -1.787093043327331543e+00
3.120000000000000000e+02 5.791934204101562500e+01 -1.682830429077148438e+01 1.870707154273986816e+00 -2.728370428085327148e+00 -2.572990059852600098e-01 -3.929193973541259766e+00
3.130000000000000000e+02 5.809646606445312500e+01 -1.676655197143554688e+01 2.633073329925537109e+00 -3.189821481704711914e+00 -1.670244187116622925e-01 -3.694665908813476562e+00
3.140000000000000000e+02 5.828378677368164062e+01 -1.669754791259765625e+01 2.550773620605468750e+00 -3.662045478820800781e+00 -3.333815038204193115e-01 -4.112210273742675781e+00
3.150000000000000000e+02 5.895670318603515625e+01 -1.890710258483886719e+01 2.788455188274383545e-01 1.727905035018920898e+00 6.020251512527465820e-01 1.619904637336730957e+00
3.160000000000000000e+02 5.889998245239257812e+01 -1.644753456115722656e+01 4.294524192810058594e+00 -4.190795898437500000e+00 3.111851587891578674e-02 -3.337453126907348633e+00
3.170000000000000000e+02 5.911180877685546875e+01 -1.585696506500244141e+01 -5.650819778442382812e+00 -4.554813861846923828e+00 -3.061690092086791992e+00 -4.534024715423583984e+00
3.180000000000000000e+02 5.940228271484375000e+01 -1.561887454986572266e+01 -5.338259220123291016e+00 -3.554944992065429688e+00 -2.667961359024047852e+00 -7.998574733734130859e+00
3.190000000000000000e+02 5.933151245117187500e+01 -1.631764030456542969e+01 5.103643894195556641e+00 -3.519171714782714844e+00 4.753416776657104492e-01 -3.109342575073242188e+00
3.200000000000000000e+02 5.873015213012695312e+01 -1.851518821716308594e+01 6.548731327056884766e-01 1.256277441978454590e+00 5.733451843261718750e-01 1.345360159873962402e+00
3.210000000000000000e+02 5.840267944335937500e+01 -1.827099990844726562e+01 7.712292075157165527e-01 7.439631223678588867e-01 4.545577168464660645e-01 8.981849551200866699e-01
3.220000000000000000e+02 5.911381530761718750e+01 -1.880879974365234375e+01 4.251027405261993408e-01 1.907813191413879395e+00 6.998747587203979492e-01 1.663793683052062988e+00
3.230000000000000000e+02 5.942589187622070312e+01 -1.845167160034179688e+01 9.646368026733398438e-01 2.105363845825195312e+00 9.210001826286315918e-01 1.845221996307373047e+00
3.240000000000000000e+02 6.030148696899414062e+01 -1.834984397888183594e+01 8.126204013824462891e-01 4.035915374755859375e+00 1.454560756683349609e+00 2.020257711410522461e+00
3.250000000000000000e+02 6.047836685180664062e+01 -1.788258934020996094e+01 1.344543337821960449e+00 5.384184837341308594e+00 2.018618345260620117e+00 2.069492340087890625e+00
3.260000000000000000e+02 6.120641708374023438e+01 -1.778910064697265625e+01 1.927127599716186523e+00 5.777589321136474609e+00 2.311414957046508789e+00 1.690568216145038605e-02
3.270000000000000000e+02 6.165717697143554688e+01 -1.717937850952148438e+01 5.911392688751220703e+00 3.701022624969482422e+00 2.883724689483642578e+00 -9.342681169509887695e-01
3.280000000000000000e+02 5.862765121459960938e+01 -1.787164688110351562e+01 1.320458054542541504e+00 6.423504352569580078e-01 5.888425707817077637e-01 8.833780884742736816e-01
3.290000000000000000e+02 5.918654632568359375e+01 -1.775689506530761719e+01 1.729800343513488770e+00 1.023123741149902344e+00 8.258772492408752441e-01 1.333640217781066895e+00
3.300000000000000000e+02 5.912261962890625000e+01 -1.756660652160644531e+01 1.739369273185729980e+00 7.340936064720153809e-01 7.420388460159301758e-01 1.173937916755676270e+00
3.310000000000000000e+02 5.947931671142578125e+01 -1.739765167236328125e+01 2.028990507125854492e+00 8.741906285285949707e-01 8.709543347358703613e-01 1.398712873458862305e+00
3.320000000000000000e+02 6.031547927856445312e+01 -1.554968738555908203e+01 -3.821590662002563477e+00 2.465967893600463867e+00 -4.066867828369140625e-01 -3.353264570236206055e+00
3.330000000000000000e+02 6.163116073608398438e+01 -1.677293014526367188e+01 8.441009521484375000e+00 2.489874601364135742e+00 3.279265165328979492e+00 -3.163265287876129150e-01
3.340000000000000000e+02 6.183780670166015625e+01 -1.632728958129882812e+01 6.173825263977050781e+00 1.242283463478088379e+00 2.224832534790039062e+00 2.954061508178710938e+00
3.350000000000000000e+02 6.049522781372070312e+01 -1.554788112640380859e+01 -4.528894901275634766e+00 5.806850433349609375e+00 3.833866119384765625e-01 -1.969653367996215820e+00
3.360000000000000000e+02 6.006626510620117188e+01 -1.553133678436279297e+01 -7.438123226165771484e+00 -7.909690737724304199e-01 -2.468727588653564453e+00 -5.530785560607910156e+00
3.370000000000000000e+02 6.070794296264648438e+01 -1.543925189971923828e+01 -4.426454544067382812e+00 5.008940219879150391e+00 1.747456192970275879e-01 2.409833967685699463e-01
3.380000000000000000e+02 5.790045928955078125e+01 -1.724543952941894531e+01 -1.106447339057922363e+00 -2.045517444610595703e+00 -9.455894827842712402e-01 -3.942171335220336914e+00
3.390000000000000000e+02 5.869511795043945312e+01 -1.873256111145019531e+01 3.982745707035064697e-01 1.381548643112182617e+00 5.339469313621520996e-01 1.398642778396606445e+00
3.400000000000000000e+02 5.900537872314453125e+01 -1.853020286560058594e+01 7.193738222122192383e-01 1.570751309394836426e+00 6.870375275611877441e-01 1.516300320625305176e+00
3.410000000000000000e+02 5.870767974853515625e+01 -1.832342338562011719e+01 8.901615738868713379e-01 1.037727236747741699e+00 5.783666372299194336e-01 1.199090600013732910e+00
3.420000000000000000e+02 5.888345336914062500e+01 -1.820517921447753906e+01 1.056528925895690918e+00 1.157657504081726074e+00 6.642559170722961426e-01 1.257036685943603516e+00
3.430000000000000000e+02 5.915185165405273438e+01 -1.792079162597656250e+01 1.649914383888244629e+00 1.127860903739929199e+00 8.333325982093811035e-01 1.461896896362304688e+00
3.440000000000000000e+02 6.167812728881835938e+01 -1.608886528015136719e+01 5.206894874572753906e+00 1.687808156013488770e+00 2.068410873413085938e+00 3.573792695999145508e+00
3.450000000000000000e+02 5.964069366455078125e+01 -1.801607322692871094e+01 1.575233459472656250e+00 2.088774919509887695e+00 1.099202513694763184e+00 2.004749536514282227e+00
3.460000000000000000e+02 5.991059875488281250e+01 -1.779218864440917969e+01 2.000602245330810547e+00 2.626879930496215820e+00 1.388244628906250000e+00 2.378766059875488281e+00
3.470000000000000000e+02 6.003895568847656250e+01 -1.807306480407714844e+01 1.381460309028625488e+00 3.324878692626953125e+00 1.411901712417602539e+00 2.321862459182739258e+00
3.480000000000000000e+02 5.907149505615234375e+01 -1.832212066650390625e+01 1.070633292198181152e+00 1.472735285758972168e+00 7.630105614662170410e-01 1.557257056236267090e+00
3.490000000000000000e+02 5.986870193481445312e+01 -1.829356575012207031e+01 1.106470465660095215e+00 2.920520305633544922e+00 1.208097219467163086e+00 2.135057449340820312e+00
3.500000000000000000e+02 5.915001296997070312e+01 -1.816452980041503906e+01 1.236120581626892090e+00 1.320968389511108398e+00 7.671266794204711914e-01 1.466512560844421387e+00
3.510000000000000000e+02 5.834527206420898438e+01 -1.696837997436523438e+01 2.196988105773925781e+00 -3.096629619598388672e+00 -2.698924839496612549e-01 -3.548580408096313477e+00
3.520000000000000000e+02 5.902254867553710938e+01 -1.805490112304687500e+01 1.317988157272338867e+00 1.178877353668212891e+00 7.490596771240234375e-01 1.416345715522766113e+00
3.530000000000000000e+02 5.927418899536132812e+01 -1.826221275329589844e+01 1.191634893417358398e+00 1.609367251396179199e+00 8.403006196022033691e-01 1.693545937538146973e+00
3.540000000000000000e+02 5.929198455810546875e+01 -1.806400680541992188e+01 1.413915514945983887e+00 1.467320680618286133e+00 8.643708229064941406e-01 1.616789221763610840e+00
3.550000000000000000e+02 5.734045410156250000e+01 -1.772467994689941406e+01 -5.156866073608398438e+00 -1.829270482063293457e+00 -2.095840930938720703e+00 -4.453117847442626953e+00
3.560000000000000000e+02 5.608383941650390625e+01 -1.748051261901855469e+01 -2.806317090988159180e+00 7.498379349708557129e-01 -6.169437170028686523e-01 -3.647572517395019531e+00
3.570000000000000000e+02 5.684868240356445312e+01 -1.811881446838378906e+01 -1.077740097045898438e+01 1.729036420583724976e-01 -3.181349039077758789e+00 -3.514415264129638672e+00
3.580000000000000000e+02 5.613456344604492188e+01 -1.823405838012695312e+01 -1.124934005737304688e+01 -9.311401247978210449e-01 -3.654144048690795898e+00 -2.734447002410888672e+00
3.590000000000000000e+02 5.726531600952148438e+01 -1.714377021789550781e+01 7.354035973548889160e-01 -2.003568887710571289e+00 -3.804495632648468018e-01 -3.761270999908447266e+00
3.600000000000000000e+02 5.707449340820312500e+01 -1.694747161865234375e+01 4.498183250427246094e+00 -7.745119929313659668e-01 1.117101311683654785e+00 -3.893829584121704102e+00
3.610000000000000000e+02 5.677470779418945312e+01 -1.731329727172851562e+01 1.206306219100952148e+00 5.240530371665954590e-01 5.191077589988708496e-01 -4.521943092346191406e+00
3.620000000000000000e+02 5.523251724243164062e+01 -1.770762634277343750e+01 -5.728529453277587891e+00 1.188061714172363281e+00 -1.362140417098999023e+00 -4.790295958518981934e-01
3.630000000000000000e+02 5.536264038085937500e+01 -1.843932342529296875e+01 -1.091497325897216797e+01 -4.479942619800567627e-01 -3.408890008926391602e+00 -2.735012054443359375e+00
3.640000000000000000e+02 5.760847854614257812e+01 -1.767847824096679688e+01 -4.143531799316406250e+00 -1.816192030906677246e+00 -1.787917137145996094e+00 -4.233473777770996094e+00
3.650000000000000000e+02 5.764374542236328125e+01 -1.808695411682128906e+01 -7.751988410949707031e+00 -1.306601405143737793e+00 -2.717576980590820312e+00 -2.887729883193969727e+00
3.660000000000000000e+02 5.766126251220703125e+01 -1.786801528930664062e+01 -4.459508895874023438e+00 -8.667684793472290039e-01 -1.597883224487304688e+00 -3.766123771667480469e+00
3.670000000000000000e+02 5.738630676269531250e+01 -1.734419822692871094e+01 1.482255935668945312e+00 -2.054557561874389648e+00 -1.716904938220977783e-01 -4.263945579528808594e+00
3.680000000000000000e+02 5.701034545898437500e+01 -1.764219093322753906e+01 -3.183615207672119141e+00 -4.748311042785644531e-01 -1.097533941268920898e+00 -5.071727752685546875e+00
3.690000000000000000e+02 5.733323669433593750e+01 -1.800863838195800781e+01 -7.947584629058837891e+00 -2.358243942260742188e+00 -3.091748714447021484e+00 -3.221328020095825195e+00
3.700000000000000000e+02 5.752548980712890625e+01 -1.750859069824218750e+01 -1.700037956237792969e+00 -2.016889572143554688e+00 -1.115078330039978027e+00 -5.046083450317382812e+00
3.710000000000000000e+02 5.388480377197265625e+01 -1.876910972595214844e+01 -9.847849845886230469e+00 -5.891546010971069336e-01 -3.131101131439208984e+00 -1.065374374389648438e+00
3.720000000000000000e+02 5.300137710571289062e+01 -1.818867683410644531e+01 -5.265371322631835938e+00 1.673912256956100464e-01 -1.529394030570983887e+00 5.583989620208740234e-01
3.730000000000000000e+02 5.444890213012695312e+01 -1.790010070800781250e+01 -4.930881023406982422e+00 9.624459147453308105e-01 -1.190530538558959961e+00 -3.385165631771087646e-01
3.740000000000000000e+02 5.227499008178710938e+01 -1.832779121398925781e+01 -4.754158973693847656e+00 2.978647053241729736e-01 -1.336888313293457031e+00 2.189999818801879883e-01
3.750000000000000000e+02 5.241899490356445312e+01 -1.905364608764648438e+01 -7.436841011047363281e+00 -2.522470057010650635e-01 -2.306726455688476562e+00 -7.472138404846191406e-01
3.760000000000000000e+02 5.315275955200195312e+01 -1.891308021545410156e+01 -8.526477813720703125e+00 2.124204188585281372e-01 -2.494217395782470703e+00 -1.173509716987609863e+00
3.770000000000000000e+02 5.372604370117187500e+01 -1.804615974426269531e+01 -5.447767257690429688e+00 4.079602956771850586e-01 -1.511942148208618164e+00 1.867672950029373169e-01
3.780000000000000000e+02 5.461503982543945312e+01 -1.862159919738769531e+01 -1.075200080871582031e+01 5.306719541549682617e-01 -3.066398859024047852e+00 -1.794338464736938477e+00
3.790000000000000000e+02 5.021003341674804688e+01 -1.947287559509277344e+01 -4.791715621948242188e+00 -3.727677837014198303e-02 -1.448697686195373535e+00 -5.908555984497070312e-01
3.800000000000000000e+02 5.094702148437500000e+01 -1.933323669433593750e+01 -5.508656024932861328e+00 -1.444634050130844116e-01 -1.695935845375061035e+00 -6.137180924415588379e-01
3.810000000000000000e+02 4.947301483154296875e+01 -1.961274909973144531e+01 -4.204782485961914062e+00 -8.342160284519195557e-02 -1.286461234092712402e+00 -4.978277683258056641e-01
3.820000000000000000e+02 5.168397521972656250e+01 -1.919383239746093750e+01 -6.327725410461425781e+00 4.055496305227279663e-03 -1.897100925445556641e+00 -7.584601640701293945e-01
3.830000000000000000e+02 5.154356384277343750e+01 -1.846726989746093750e+01 -4.594935417175292969e+00 -5.084110796451568604e-02 -1.393733024597167969e+00 3.559438884258270264e-01
3.840000000000000000e+02 4.933204269409179688e+01 -1.888629341125488281e+01 -3.364714384078979492e+00 1.001164168119430542e-01 -9.793793559074401855e-01 7.596006989479064941e-02
3.850000000000000000e+02 5.080642700195312500e+01 -1.860671043395996094e+01 -4.131087303161621094e+00 1.646842658519744873e-01 -1.189920902252197266e+00 1.102675646543502808e-01
3.860000000000000000e+02 5.006925201416015625e+01 -1.874638557434082031e+01 -3.789132118225097656e+00 2.314409241080284119e-02 -1.129796385765075684e+00 1.846119165420532227e-01
3.870000000000000000e+02 4.725450897216796875e+01 -2.004898452758789062e+01 -2.771949529647827148e+00 -4.764369502663612366e-02 -8.458779454231262207e-01 -3.548092246055603027e-01
3.880000000000000000e+02 4.709337997436523438e+01 -1.932653617858886719e+01 -2.403708457946777344e+00 3.083712421357631683e-02 -7.118613719940185547e-01 5.439584329724311829e-02
3.890000000000000000e+02 4.651494979858398438e+01 -2.019693183898925781e+01 -2.426841974258422852e+00 -6.172403320670127869e-02 -7.465698122978210449e-01 -3.261705338954925537e-01
3.900000000000000000e+02 4.799435043334960938e+01 -1.990183448791503906e+01 -3.180097341537475586e+00 -5.303604155778884888e-02 -9.699400067329406738e-01 -4.027081429958343506e-01
3.910000000000000000e+02 4.873443222045898438e+01 -1.975547790527343750e+01 -3.659323692321777344e+00 -5.870262160897254944e-02 -1.115407824516296387e+00 -4.606243371963500977e-01
3.920000000000000000e+02 4.858935928344726562e+01 -1.902983856201171875e+01 -3.041306018829345703e+00 2.637049369513988495e-02 -9.044806957244873047e-01 1.012855321168899536e-01
3.930000000000000000e+02 4.634579849243164062e+01 -1.947607994079589844e+01 -2.090601444244384766e+00 4.737462848424911499e-02 -6.129680275917053223e-01 5.568723008036613464e-02
3.940000000000000000e+02 4.784125137329101562e+01 -1.917778968811035156e+01 -2.704425811767578125e+00 7.946453243494033813e-02 -7.874884009361267090e-01 5.134189873933792114e-02
3.950000000000000000e+02 4.432126998901367188e+01 -2.078344535827636719e+01 -1.223944067955017090e+00 -1.220393925905227661e-02 -3.708444237709045410e-01 -1.637001484632492065e-01
3.960000000000000000e+02 4.505051040649414062e+01 -2.057725715637207031e+01 -1.573379635810852051e+00 -1.714658178389072418e-02 -4.771578609943389893e-01 -2.496342957019805908e-01
3.970000000000000000e+02 4.359247589111328125e+01 -2.099166297912597656e+01 -9.010336399078369141e-01 1.382704731076955795e-02 -2.661619782447814941e-01 -9.616811573505401611e-02
3.980000000000000000e+02 4.411215209960937500e+01 -2.007356262207031250e+01 -1.314768195152282715e+00 1.300328224897384644e-01 -3.554206192493438721e-01 1.022633537650108337e-01
3.990000000000000000e+02 4.578023910522460938e+01 -2.037289810180664062e+01 -2.015255928039550781e+00 -6.962956488132476807e-02 -6.254656314849853516e-01 -3.052804768085479736e-01
4.000000000000000000e+02 4.559988403320312500e+01 -1.965488052368164062e+01 -1.831761837005615234e+00 6.720733642578125000e-02 -5.293663740158081055e-01 9.358066320419311523e-02
4.010000000000000000e+02 4.336897659301757812e+01 -2.028584671020507812e+01 -1.062501788139343262e+00 1.557997614145278931e-01 -2.720105946063995361e-01 1.589462459087371826e-01
4.020000000000000000e+02 4.485577392578125000e+01 -1.986330604553222656e+01 -1.585852384567260742e+00 1.168891191482543945e-01 -4.406889975070953369e-01 8.240075409412384033e-02
4.030000000000000000e+02 4.104784393310546875e+01 -2.109504699707031250e+01 -1.902761161327362061e-01 -8.234960585832595825e-02 -8.178772032260894775e-02 1.652152687311172485e-01
4.040000000000000000e+02 4.266473007202148438e+01 -2.049994087219238281e+01 -8.771135807037353516e-01 1.313511431217193604e-01 -2.237287163734436035e-01 1.817056834697723389e-01
4.050000000000000000e+02 4.164785385131835938e+01 -2.166072845458984375e+01 -1.094170436263084412e-01 -6.856512278318405151e-03 -3.488206863403320312e-02 2.748208492994308472e-02
4.060000000000000000e+02 4.282600402832031250e+01 -2.122967720031738281e+01 -5.246711969375610352e-01 3.821252658963203430e-02 -1.459376066923141479e-01 -8.105306886136531830e-03
4.070000000000000000e+02 4.148378753662109375e+01 -2.086083030700683594e+01 -4.136269092559814453e-01 -2.048293687403202057e-02 -1.302329450845718384e-01 2.462859153747558594e-01
4.080000000000000000e+02 4.205922317504882812e+01 -2.122107124328613281e+01 -3.490511476993560791e-01 2.217276953160762787e-02 -9.806351363658905029e-02 8.069666475057601929e-02
4.090000000000000000e+02 4.202204132080078125e+01 -2.066273307800292969e+01 -7.179692983627319336e-01 1.099383309483528137e-01 -1.824092864990234375e-01 1.982240676879882812e-01
4.100000000000000000e+02 4.183971786499023438e+01 -2.302727508544921875e+01 -1.039171591401100159e-02 -8.481603860855102539e-02 -2.856232598423957825e-02 -2.222166163846850395e-03
4.110000000000000000e+02 4.219042205810546875e+01 -2.229762840270996094e+01 -7.689710706472396851e-03 -3.649800270795822144e-02 -1.325631327927112579e-02 -4.462111368775367737e-02
4.120000000000000000e+02 4.326124572753906250e+01 -2.270085716247558594e+01 -1.446989178657531738e-01 -2.223154306411743164e-01 -1.101043000817298889e-01 -2.849067151546478271e-01
4.130000000000000000e+02 4.302730941772460938e+01 -2.199828910827636719e+01 -1.260884255170822144e-01 -8.796325325965881348e-02 -6.421550363302230835e-02 -1.117693707346916199e-01
4.140000000000000000e+02 4.243085479736328125e+01 -2.299776458740234375e+01 -5.272704735398292542e-02 -2.253528684377670288e-01 -8.342397958040237427e-02 -1.359502673149108887e-01
4.150000000000000000e+02 4.424402618408203125e+01 -2.327782440185546875e+01 -1.895979940891265869e-01 -3.922201395034790039e-01 -1.745454370975494385e-01 -5.212441086769104004e-01
4.160000000000000000e+02 4.359397506713867188e+01 -2.457675361633300781e+01 -6.172534450888633728e-02 -6.392702460289001465e-01 -2.102986723184585571e-01 -5.020538568496704102e-01
4.170000000000000000e+02 4.781224822998046875e+01 -2.225199890136718750e+01 -8.755986690521240234e-01 -2.170725762844085693e-01 -3.278013765811920166e-01 -7.353040575981140137e-01
4.180000000000000000e+02 4.569892883300781250e+01 -2.283574867248535156e+01 -4.425276517868041992e-01 -3.049167394638061523e-01 -2.242333143949508667e-01 -6.559103131294250488e-01
4.190000000000000000e+02 4.249990844726562500e+01 -2.835043525695800781e+01 -3.034214079380035400e-01 -1.946413636207580566e+00 -6.749505400657653809e-01 -4.982603788375854492e-01
4.200000000000000000e+02 4.335330200195312500e+01 -3.327233123779296875e+01 1.023608595132827759e-01 -6.999819278717041016e-01 -1.792863160371780396e-01 8.834003657102584839e-02
4.210000000000000000e+02 4.089265823364257812e+01 -3.144180107116699219e+01 -7.016667127609252930e-01 -9.415822625160217285e-01 -4.929746985435485840e-01 -5.911999344825744629e-01
4.220000000000000000e+02 3.632902145385742188e+01 -3.290113067626953125e+01 -2.835326492786407471e-01 -5.325360596179962158e-02 -1.010358780622482300e-01 -1.185998991131782532e-01
4.230000000000000000e+02 3.518442153930664062e+01 -3.456581878662109375e+01 -1.152958050370216370e-01 -8.762152493000030518e-02 -6.087519973516464233e-02 -1.481052637100219727e-01
4.240000000000000000e+02 3.335171508789062500e+01 -3.300447082519531250e+01 -3.549618646502494812e-02 -1.255585346370935440e-02 -1.441561151295900345e-02 -3.495044633746147156e-02
4.250000000000000000e+02 3.247065353393554688e+01 -3.484228515625000000e+01 -4.941572621464729309e-02 -2.604820393025875092e-02 -2.263917960226535797e-02 -5.628215894103050232e-02
4.260000000000000000e+02 2.928530311584472656e+01 -3.193279457092285156e+01 3.213502094149589539e-02 -3.031096421182155609e-04 9.549573063850402832e-03 -5.128383636474609375e-03
4.270000000000000000e+02 2.386890983581542969e+01 -3.148059082031250000e+01 2.388956211507320404e-02 -1.469971030019223690e-03 6.725877523422241211e-03 1.454155077226459980e-03
4.280000000000000000e+02 1.837387084960937500e+01 -3.135058212280273438e+01 1.306309923529624939e-02 -4.481722135096788406e-04 3.784478176385164261e-03 1.011734828352928162e-03
4.290000000000000000e+02 1.695248222351074219e+01 -3.137378311157226562e+01 9.691474959254264832e-03 8.682911866344511509e-04 3.167929826304316521e-03 5.119456327520310879e-04
4.300000000000000000e+02 1.400231742858886719e+01 -3.062714576721191406e+01 4.331886302679777145e-03 3.131293051410466433e-04 1.393504673615098000e-03 -2.206360295531339943e-05
4.310000000000000000e+02 1.189160823822021484e+01 -3.123309326171875000e+01 3.138888860121369362e-03 -4.734545655082911253e-04 7.996303029358386993e-04 1.002094475552439690e-03
4.320000000000000000e+02 1.006788349151611328e+01 -3.679900360107421875e+01 -2.676358562894165516e-04 9.034345275722444057e-04 1.907395926536992192e-04 2.097593853250145912e-03
4.330000000000000000e+02 1.653085136413574219e+01 -3.882625961303710938e+01 -4.057948943227529526e-03 2.522553317248821259e-03 -4.606186412274837494e-04 2.858280204236507416e-03
4.340000000000000000e+02 1.542022991180419922e+01 -3.637202835083007812e+01 -1.988106872886419296e-03 1.556789502501487732e-03 -1.293952373089268804e-04 4.669693764299154282e-03
4.350000000000000000e+02 2.028355598449707031e+01 -3.821398162841796875e+01 -8.067233487963676453e-03 3.972355916630476713e-04 -2.300999360159039497e-03 4.740857053548097610e-03
4.360000000000000000e+02 2.330089950561523438e+01 -3.729838943481445312e+01 -4.751590546220541000e-03 -2.189543098211288452e-03 -2.082340186461806297e-03 3.539837896823883057e-03
4.370000000000000000e+02 3.872596359252929688e+01 -3.589308929443359375e+01 4.881446063518524170e-02 -4.225520193576812744e-01 -1.121212691068649292e-01 -2.344980388879776001e-01
4.380000000000000000e+02 4.248299407958984375e+01 -4.147368240356445312e+01 2.539416849613189697e-01 -1.705016046762466431e-01 2.503201924264431000e-02 9.405389428138732910e-03
4.390000000000000000e+02 4.599647903442382812e+01 -3.731014251708984375e+01 1.602747291326522827e-01 1.873887181282043457e-01 1.042990386486053467e-01 3.144215941429138184e-01
4.400000000000000000e+02 5.692695617675781250e+01 -3.629160690307617188e+01 -4.468281865119934082e-01 1.511639118194580078e+00 3.194432854652404785e-01 -6.712086200714111328e-01
4.410000000000000000e+02 6.949203491210937500e+01 -3.573544692993164062e+01 -5.755023360252380371e-01 3.211414337158203125e+00 7.907736301422119141e-01 5.979465842247009277e-01
4.420000000000000000e+02 7.811897277832031250e+01 -4.177043914794921875e+01 3.638598620891571045e-01 9.316720008850097656e+00 2.904173851013183594e+00 1.017923578619956970e-01
4.430000000000000000e+02 7.747346496582031250e+01 -3.595119857788085938e+01 -1.180042028427124023e-01 8.778227806091308594e+00 2.598067045211791992e+00 -3.059672415256500244e-01
4.440000000000000000e+02 7.938625335693359375e+01 -3.342012405395507812e+01 -6.945352256298065186e-02 9.127302169799804688e+00 2.717354536056518555e+00 -2.140663415193557739e-01
4.450000000000000000e+02 7.815984344482421875e+01 -2.931096076965332031e+01 5.922437459230422974e-02 7.865077972412109375e+00 2.377290725708007812e+00 -6.166760921478271484e-01
4.460000000000000000e+02 7.939711761474609375e+01 -2.649068260192871094e+01 9.294916689395904541e-02 6.761136531829833984e+00 2.056225776672363281e+00 -6.113661825656890869e-02
4.470000000000000000e+02 7.169691467285156250e+01 -2.387702560424804688e+01 1.656602263450622559e+00 1.204452800750732422e+01 4.110339164733886719e+00 -2.250077247619628906e+00
4.480000000000000000e+02 7.190125274658203125e+01 -2.599202537536621094e+01 7.698699831962585449e-01 1.354647254943847656e+01 4.294902801513671875e+00 -4.049223065376281738e-01
4.490000000000000000e+02 7.158299255371093750e+01 -2.842404365539550781e+01 1.171033978462219238e+00 1.176824474334716797e+01 3.881783485412597656e+00 1.955313324928283691e+00
4.500000000000000000e+02 7.004875946044921875e+01 -3.137543487548828125e+01 5.350532531738281250e-01 3.487638711929321289e+00 1.206807613372802734e+00 1.416229486465454102e+00
4.510000000000000000e+02 6.909291839599609375e+01 -3.229475402832031250e+01 -1.760848462581634521e-01 1.548472046852111816e+00 4.117161631584167480e-01 6.557998061180114746e-01
4.520000000000000000e+02 6.572077941894531250e+01 -3.469425964355468750e+01 -1.412421703338623047e+00 -1.811029762029647827e-01 -4.780574142932891846e-01 -3.675923943519592285e-01
4.530000000000000000e+02 6.426757812500000000e+01 -3.521027755737304688e+01 -1.379217743873596191e+00 -8.313976973295211792e-02 -4.387072622776031494e-01 -3.545685708522796631e-01
4.540000000000000000e+02 6.262038421630859375e+01 -3.538861083984375000e+01 -1.245426893234252930e+00 -1.366108804941177368e-01 -4.146113395690917969e-01 -2.802670896053314209e-01
4.550000000000000000e+02 5.969831848144531250e+01 -3.508532333374023438e+01 -5.735515952110290527e-01 2.791924774646759033e-01 -8.830773830413818359e-02 -3.265948295593261719e-01
4.560000000000000000e+02 5.691186904907226562e+01 -3.361734771728515625e+01 4.127734899520874023e-01 1.935768604278564453e+00 7.045626044273376465e-01 -9.285459518432617188e-01
4.570000000000000000e+02 5.820697402954101562e+01 -3.468522262573242188e+01 -1.060841381549835205e-01 1.000733256340026855e+00 2.683947384357452393e-01 -6.061658859252929688e-01
4.580000000000000000e+02 5.594048690795898438e+01 -3.250389099121093750e+01 7.594887018203735352e-01 4.046594619750976562e+00 1.441825032234191895e+00 -7.714567780494689941e-01
4.590000000000000000e+02 5.420890426635742188e+01 -3.369166946411132812e+01 8.909540623426437378e-02 2.573866844177246094e+00 7.988886833190917969e-01 5.979452133178710938e-01
4.600000000000000000e+02 5.361942672729492188e+01 -3.061794090270996094e+01 1.202416658401489258e+00 2.792178153991699219e+00 1.198378443717956543e+00 6.654884219169616699e-01
4.610000000000000000e+02 5.567250061035156250e+01 -3.031637001037597656e+01 7.593777775764465332e-01 6.169266700744628906e+00 2.078593254089355469e+00 3.140442073345184326e-01
4.620000000000000000e+02 5.488747787475585938e+01 -2.864126777648925781e+01 1.564298868179321289e+00 4.054766654968261719e+00 1.685719609260559082e+00 7.925963997840881348e-01
4.630000000000000000e+02 5.531900024414062500e+01 -2.747068214416503906e+01 1.438215374946594238e+00 3.686992406845092773e+00 1.537562370300292969e+00 1.087397694587707520e+00
4.640000000000000000e+02 5.366038894653320312e+01 -2.107425880432128906e+01 -1.599984169006347656e+00 2.713107764720916748e-01 -3.986020088195800781e-01 -1.577802151441574097e-01
4.650000000000000000e+02 5.582234954833984375e+01 -2.062958717346191406e+01 -1.328700304031372070e+00 7.600439190864562988e-01 -1.705969274044036865e-01 5.852409005165100098e-01
4.660000000000000000e+02 5.646346282958984375e+01 -2.046538352966308594e+01 -1.226760983467102051e+00 9.562526345252990723e-01 -8.115251362323760986e-02 8.655442595481872559e-01
4.670000000000000000e+02 6.117432403564453125e+01 -1.828874397277832031e+01 1.010278940200805664e+00 4.838403701782226562e+00 1.754604816436767578e+00 4.221528172492980957e-01
4.680000000000000000e+02 5.769002914428710938e+01 -2.005796241760253906e+01 -8.080306649208068848e-01 1.436213493347167969e+00 1.884548515081405640e-01 1.344246029853820801e+00
4.690000000000000000e+02 1.069202804565429688e+01 -3.022687911987304688e+01 8.806452387943863869e-04 -2.699449250940233469e-04 1.832100970204919577e-04 1.353549741907045245e-04
4.700000000000000000e+02 3.674153089523315430e+00 -2.416482543945312500e+01 -4.470637650229036808e-04 -2.284461515955626965e-05 -1.409725082339718938e-04 -2.768642443697899580e-04
4.710000000000000000e+02 7.051351666450500488e-01 -3.038032341003417969e+01 6.740264361724257469e-04 -4.111666930839419365e-05 1.898729387903586030e-04 1.148023293353617191e-04
4.720000000000000000e+02 7.230465412139892578e-01 -3.179226112365722656e+01 -6.583604263141751289e-04 2.619287806737702340e-05 -1.896502653835341334e-04 -2.021211366809438914e-05
4.730000000000000000e+02 8.936097621917724609e-01 -3.737907028198242188e+01 -4.533093015197664499e-04 8.287730743177235126e-04 1.126391216530464590e-04 4.782935502589680254e-05
4.740000000000000000e+02 2.799032211303710938e+00 -3.826365280151367188e+01 -5.427415017038583755e-04 7.972135790623724461e-04 7.634161738678812981e-05 1.166465153801254928e-04
4.750000000000000000e+02 1.055858230590820312e+01 -2.811594963073730469e+01 4.261443391442298889e-04 -9.314467024523764849e-05 9.989990212488919497e-05 2.124979364452883601e-04
4.760000000000000000e+02 8.595803260803222656e+00 -2.529300308227539062e+01 -9.742521215230226517e-04 -2.647120854817330837e-04 -3.716892679221928120e-04 2.796306507661938667e-04
4.770000000000000000e+02 8.647612571716308594e+00 -2.251713752746582031e+01 -6.293816841207444668e-04 -2.540714012866374105e-05 -1.964366529136896133e-04 1.117315187002532184e-04
4.780000000000000000e+02 8.886444091796875000e+00 -2.113764190673828125e+01 5.965731688775122166e-04 8.202768185583408922e-06 1.814327697502449155e-04 -1.188790120068006217e-04
4.790000000000000000e+02 7.905217170715332031e+00 -2.095253944396972656e+01 -5.648382939398288727e-04 -4.607892697094939649e-05 -1.832751731853932142e-04 1.210007685585878789e-04
4.800000000000000000e+02 8.227748870849609375e+00 -1.962288856506347656e+01 5.385984550230205059e-04 2.991535984619986266e-05 1.705541508272290230e-04 -7.377055590040981770e-05
4.810000000000000000e+02 1.165921974182128906e+01 -1.568551063537597656e+01 3.870805085171014071e-05 1.732001401251181960e-04 6.357245729304850101e-05 -1.615046785445883870e-04
4.820000000000000000e+02 1.396257877349853516e+01 -1.417102146148681641e+01 4.770935629494488239e-05 1.571439497638493776e-04 6.145599036244675517e-05 -5.788497219327837229e-05
4.830000000000000000e+02 1.678256797790527344e+01 -1.334119033813476562e+01 3.278459416833356954e-06 1.415521401213482022e-04 4.344917761045508087e-05 -7.296896001207642257e-06
4.840000000000000000e+02 1.970435905456542969e+01 -1.327951526641845703e+01 -6.625045443797716871e-06 1.194626092910766602e-04 3.385126910870894790e-05 -2.512062792447977699e-06
4.850000000000000000e+02 1.825128746032714844e+01 -1.318129634857177734e+01 -8.009044904611073434e-06 -1.179076280095614493e-04 -3.777500023716129363e-05 7.374975666607497260e-06
4.860000000000000000e+02 2.077824974060058594e+01 -1.339621353149414062e+01 -3.348993050167337060e-05 -1.542923419037833810e-04 -5.633468026644550264e-05 -7.172554433054756373e-06
4.870000000000000000e+02 2.092382812500000000e+01 -1.265451622009277344e+01 5.293696631269995123e-06 -5.369246719055809081e-05 -1.451963180443271995e-05 2.502134066162398085e-06
4.880000000000000000e+02 2.220420646667480469e+01 -1.316534900665283203e+01 2.737121758400462568e-05 2.071586823149118572e-05 1.442612574464874342e-05 2.595621845102868974e-05
4.890000000000000000e+02 1.778875541687011719e+01 -7.030735492706298828e+00 -7.015306618995964527e-05 -2.709637556108646095e-05 -2.917483288911171257e-05 -2.552125442889519036e-05
4.900000000000000000e+02 1.638832855224609375e+01 -6.509054660797119141e+00 8.596613042755052447e-05 2.324454908375628293e-05 3.276320421718992293e-05 6.115554697316838428e-06
4.910000000000000000e+02 1.346401119232177734e+01 -3.677973508834838867e+00 -5.557988333748653531e-05 -5.980772766633890569e-05 -3.461628512013703585e-05 -2.640003731357865036e-05
4.920000000000000000e+02 1.076472091674804688e+01 -2.358718872070312500e+00 -3.179942359565757215e-05 -9.359271643916144967e-05 -3.761764310183934867e-05 -2.777842746581882238e-05
4.930000000000000000e+02 1.248454093933105469e+01 -3.975075483322143555e+00 -6.677567580481991172e-05 -6.887385097797960043e-05 -4.069485657964833081e-05 -1.772496398189105093e-05
4.940000000000000000e+02 9.215030670166015625e+00 -1.931456565856933594e+00 -1.650142075959593058e-05 -8.640308078611269593e-05 -3.087134973611682653e-05 -2.811626291077118367e-05
4.950000000000000000e+02 3.521738767623901367e+00 -2.091682910919189453e+00 8.778393385000526905e-05 -1.503446310380240902e-05 2.182484240620397031e-05 6.203227530932053924e-05
4.960000000000000000e+02 6.098223924636840820e-01 -1.065105819702148438e+01 2.623939944896847010e-04 -3.352698740854975767e-06 7.771238597342744470e-05 1.987560062843840569e-05
4.970000000000000000e+02 1.814579963684082031e+00 -1.057899856567382812e+01 -2.804501564241945744e-04 9.793071512831375003e-06 -8.119712583720684052e-05 -2.565038812463171780e-05
4.980000000000000000e+02 6.337680220603942871e-01 -1.772364425659179688e+01 -3.471355303190648556e-04 -1.528850407339632511e-05 -1.087272103177383542e-04 -2.954656338260974735e-05
4.990000000000000000e+02 9.311172485351562500e+00 -1.981558990478515625e+01 -6.044882466085255146e-04 -3.155957892886362970e-05 -1.908143603941425681e-04 1.210831760545261204e-04
5.000000000000000000e+02 1.902049899101257324e+00 -1.766209220886230469e+01 3.654327010735869408e-04 4.214022555970586836e-05 1.222718710778281093e-04 3.526454020175151527e-05
5.010000000000000000e+02 5.730746984481811523e-01 -2.334402084350585938e+01 -6.493491819128394127e-04 -5.119695197208784521e-05 -2.101638383464887738e-04 -1.052876614267006516e-04
5.020000000000000000e+02 7.377695465087890625e+01 -2.558351516723632812e+01 1.342164158821105957e+00 9.557680130004882812e+00 3.269953489303588867e+00 -6.571241468191146851e-02
5.030000000000000000e+02 7.941024780273437500e+01 -2.091648674011230469e+01 -3.450831770896911621e-02 8.020816802978515625e+00 2.395892620086669922e+00 2.022085189819335938e-01
5.040000000000000000e+02 6.710659790039062500e+01 -1.058260345458984375e+01 3.162311017513275146e-01 3.102329730987548828e+00 1.025568246841430664e+00 7.683873772621154785e-01
5.050000000000000000e+02 6.586065673828125000e+01 -1.004674243927001953e+01 4.128579497337341309e-01 2.197286128997802734e+00 7.830432057380676270e-01 9.784281849861145020e-01
5.060000000000000000e+02 6.505509185791015625e+01 -1.126916408538818359e+01 5.465272068977355957e-01 1.641195178031921387e+00 6.563166975975036621e-01 7.673083543777465820e-01
5.070000000000000000e+02 6.332112884521484375e+01 -1.443869781494140625e+01 -1.777526974678039551e+00 1.395279765129089355e+00 -1.146741658449172974e-01 1.474744558334350586e+00
5.080000000000000000e+02 6.172908782958984375e+01 -1.434727191925048828e+01 -5.976065635681152344e+00 -2.755485177040100098e-01 -1.875484347343444824e+00 -9.153831005096435547e-01
5.090000000000000000e+02 6.077082443237304688e+01 -1.490621852874755859e+01 -1.171611881256103516e+01 6.857053637504577637e-01 -3.309123992919921875e+00 -3.063824892044067383e+00
5.100000000000000000e+02 5.940336608886718750e+01 -1.536594772338867188e+01 -7.083170413970947266e+00 -1.155316114425659180e+00 -2.471545934677124023e+00 -1.070242595672607422e+01
5.110000000000000000e+02 5.626912689208984375e+01 -1.655087661743164062e+01 9.937969207763671875e+00 1.225357413291931152e+00 3.348997831344604492e+00 -1.926799416542053223e+00
5.120000000000000000e+02 5.434315872192382812e+01 -1.696607208251953125e+01 8.540966510772705078e-01 1.446858644485473633e+00 6.902865767478942871e-01 1.205867156386375427e-01
5.130000000000000000e+02 5.354413223266601562e+01 -1.707743835449218750e+01 2.169667631387710571e-01 6.013281941413879395e-01 2.454884946346282959e-01 2.686399817466735840e-01
5.140000000000000000e+02 5.277951812744140625e+01 -1.735894393920898438e+01 -1.339366436004638672e+00 5.359075069427490234e-01 -2.410376667976379395e-01 4.551597237586975098e-01
5.150000000000000000e+02 5.176123809814453125e+01 -1.379611015319824219e+01 2.913076877593994141e+00 3.050522327423095703e+00 1.789079785346984863e+00 -2.266007661819458008e+00
5.160000000000000000e+02 4.984941482543945312e+01 -1.802260017395019531e+01 -2.498558759689331055e+00 1.596910506486892700e-01 -7.016603350639343262e-01 5.034391283988952637e-01
5.170000000000000000e+02 4.613541030883789062e+01 -1.878641510009765625e+01 -1.791968703269958496e+00 9.409849345684051514e-02 -5.093610882759094238e-01 3.580276370048522949e-01
5.180000000000000000e+02 7.828096008300781250e+01 -1.549995231628417969e+01 -8.136223256587982178e-02 8.411362648010253906e+00 2.499000072479248047e+00 -3.808964788913726807e-02
5.190000000000000000e+02 7.937603759765625000e+01 -1.260194301605224609e+01 -1.872351020574569702e-02 8.715585708618164062e+00 2.609058856964111328e+00 -8.724862337112426758e-02
5.200000000000000000e+02 6.718186187744140625e+01 -7.498062610626220703e+00 4.893452823162078857e-01 3.721968650817871094e+00 1.263394236564636230e+00 1.358255624771118164e+00
5.210000000000000000e+02 6.777192687988281250e+01 -6.208244323730468750e+00 6.218452453613281250e-01 4.635067939758300781e+00 1.577073931694030762e+00 1.586827516555786133e+00
5.220000000000000000e+02 7.810034179687500000e+01 -8.481785774230957031e+00 -4.257934540510177612e-02 7.740509510040283203e+00 2.309379100799560547e+00 -3.796411752700805664e-01
5.230000000000000000e+02 7.938861846923828125e+01 -5.619879722595214844e+00 2.929549955297261477e-04 7.309208393096923828e+00 2.192850351333618164e+00 -1.802369803190231323e-01
5.240000000000000000e+02 7.014823150634765625e+01 1.918617844581604004e+00 4.541715085506439209e-01 1.268851375579833984e+01 3.942805767059326172e+00 8.923506140708923340e-01
5.250000000000000000e+02 6.926938629150390625e+01 -2.235328197479248047e+00 6.036370992660522461e-01 8.342386245727539062e+00 2.683806896209716797e+00 2.042376279830932617e+00
5.260000000000000000e+02 6.964633941650390625e+01 -8.727585673332214355e-01 6.060302853584289551e-01 9.857837677001953125e+00 3.139160394668579102e+00 2.047155380249023438e+00
5.270000000000000000e+02 7.817587280273437500e+01 -1.604468584060668945e+00 4.929812997579574585e-02 6.657291889190673828e+00 2.011976957321166992e+00 -3.999901711940765381e-01
5.280000000000000000e+02 7.936944580078125000e+01 2.732053995132446289e+00 1.634463295340538025e-02 5.521270751953125000e+00 1.661284685134887695e+00 -5.143865942955017090e-02
5.290000000000000000e+02 7.016377258300781250e+01 7.543327808380126953e+00 3.577291667461395264e-01 1.176329708099365234e+01 3.636307954788208008e+00 -8.036348819732666016e-01
5.300000000000000000e+02 7.137988281250000000e+01 6.205845832824707031e+00 4.420472383499145508e-01 1.056676959991455078e+01 3.302645206451416016e+00 -2.101680636405944824e-01
5.310000000000000000e+02 7.812967681884765625e+01 5.464642524719238281e+00 7.490142434835433960e-02 6.295017242431640625e+00 1.910975575447082520e+00 1.032981947064399719e-01
5.320000000000000000e+02 7.939816284179687500e+01 9.708995819091796875e+00 3.059606067836284637e-03 5.973766326904296875e+00 1.793047785758972168e+00 7.048282772302627563e-02
5.330000000000000000e+02 7.000751495361328125e+01 1.584605884552001953e+01 2.391934581100940704e-02 1.012043285369873047e+01 3.043305635452270508e+00 1.099798828363418579e-01
5.340000000000000000e+02 6.982809448242187500e+01 1.029365348815917969e+01 -1.840892285108566284e-01 8.503904342651367188e+00 2.495944499969482422e+00 -6.414590477943420410e-01
5.350000000000000000e+02 7.000189971923828125e+01 8.926123619079589844e+00 9.200507402420043945e-02 1.004558086395263672e+01 3.041275978088378906e+00 -1.018800377845764160e+00
5.360000000000000000e+02 7.819922637939453125e+01 1.238667583465576172e+01 -3.685157001018524170e-02 6.717144012451171875e+00 2.004087686538696289e+00 1.186012625694274902e-01
5.370000000000000000e+02 7.939111328125000000e+01 1.666656112670898438e+01 8.932845667004585266e-03 6.394884109497070312e+00 1.921145081520080566e+00 2.248741313815116882e-02
5.380000000000000000e+02 6.986664581298828125e+01 2.425977516174316406e+01 1.926791667938232422e-01 1.017826557159423828e+01 3.111283302307128906e+00 -5.022751092910766602e-01
5.390000000000000000e+02 6.998161315917968750e+01 1.725691795349121094e+01 2.402150072157382965e-02 9.961885452270507812e+00 2.995772123336791992e+00 5.833192914724349976e-02
5.400000000000000000e+02 7.818123626708984375e+01 1.936915969848632812e+01 1.203854009509086609e-02 6.916779994964599609e+00 2.078645467758178711e+00 7.519190758466720581e-02
5.410000000000000000e+02 7.938259124755859375e+01 2.365733528137207031e+01 2.815010258927941322e-03 6.835755825042724609e+00 2.051571369171142578e+00 9.676060825586318970e-02
5.420000000000000000e+02 6.908996582031250000e+01 2.848419952392578125e+01 7.328040003776550293e-01 7.199644565582275391e+00 2.379734516143798828e+00 -1.766602993011474609e+00
5.430000000000000000e+02 6.972817993164062500e+01 2.567417335510253906e+01 3.840495347976684570e-01 9.750858306884765625e+00 3.040472269058227539e+00 -1.009618878364562988e+00
5.440000000000000000e+02 7.694505310058593750e+01 2.352872085571289062e+01 1.178740710020065308e-01 7.428436756134033203e+00 2.263893127441406250e+00 3.015226125717163086e-01
5.450000000000000000e+02 7.932709503173828125e+01 3.064604568481445312e+01 -1.634134911000728607e-02 8.387358665466308594e+00 2.511305332183837891e+00 1.848875433206558228e-01
5.460000000000000000e+02 6.679724884033203125e+01 3.212141799926757812e+01 -7.163876201957464218e-03 1.399413347244262695e+00 4.176748394966125488e-01 -5.435156822204589844e-01
5.470000000000000000e+02 6.584107971191406250e+01 3.321402359008789062e+01 -4.155635237693786621e-01 6.060018539428710938e-01 5.713149905204772949e-02 -1.856736093759536743e-02
5.480000000000000000e+02 6.770696258544921875e+01 3.100878143310546875e+01 5.032392144203186035e-01 2.794887781143188477e+00 9.894381165504455566e-01 -1.234345197677612305e+00
5.490000000000000000e+02 7.930178833007812500e+01 3.204561233520507812e+01 5.948156118392944336e-03 8.720972061157226562e+00 2.618076086044311523e+00 1.733458638191223145e-01
5.500000000000000000e+02 7.940068817138671875e+01 3.748046112060546875e+01 -5.020561441779136658e-02 9.357630729675292969e+00 2.792227745056152344e+00 -7.044997531920671463e-03
5.510000000000000000e+02 7.191212463378906250e+01 4.121032333374023438e+01 -9.794159233570098877e-02 5.569425106048583984e+00 1.641445159912109375e+00 -2.655542083084583282e-02
5.520000000000000000e+02 6.982726287841796875e+01 3.458364105224609375e+01 -5.953652262687683105e-01 4.733654975891113281e+00 1.241487026214599609e+00 -3.664829134941101074e-01
5.530000000000000000e+02 6.212919235229492188e+01 3.544437408447265625e+01 -9.513894915580749512e-01 -8.204121887683868408e-02 -3.100292086601257324e-01 3.629401326179504395e-01
5.540000000000000000e+02 6.068441390991210938e+01 3.589702987670898438e+01 -7.942354679107666016e-01 -1.330390572547912598e-01 -2.781823575496673584e-01 2.812978923320770264e-01
5.550000000000000000e+02 6.309417343139648438e+01 3.699508285522460938e+01 -2.048607170581817627e-01 -6.044164299964904785e-02 -7.959070801734924316e-02 1.291210055351257324e-01
5.560000000000000000e+02 6.352153015136718750e+01 3.496834182739257812e+01 -1.131343364715576172e+00 -1.339989304542541504e-01 -3.796027004718780518e-01 3.609652817249298096e-01
5.570000000000000000e+02 7.664346313476562500e+01 3.906753540039062500e+01 -1.656593531370162964e-01 8.609794616699218750e+00 2.533240556716918945e+00 1.135545894503593445e-01
5.580000000000000000e+02 5.579810333251953125e+01 3.562488555908203125e+01 -2.637757062911987305e-01 -3.282687813043594360e-02 -8.898077160120010376e-02 -1.464670989662408829e-03
5.590000000000000000e+02 5.736330032348632812e+01 3.620739746093750000e+01 -5.000443458557128906e-01 -7.205745577812194824e-02 -1.716305464506149292e-01 9.468507021665573120e-02
5.600000000000000000e+02 4.805793380737304688e+01 2.912091445922851562e+01 1.114141419529914856e-01 3.068690299987792969e-01 1.254849582910537720e-01 1.856703162193298340e-01
5.610000000000000000e+02 4.988367462158203125e+01 3.138396072387695312e+01 4.567691683769226074e-02 1.812696456909179688e-01 6.808397173881530762e-02 1.126963421702384949e-01
5.620000000000000000e+02 4.839913940429687500e+01 3.234659957885742188e+01 -1.439841277897357941e-02 2.730415165424346924e-01 7.759293168783187866e-02 9.539735317230224609e-02
5.630000000000000000e+02 5.352221298217773438e+01 3.414828491210937500e+01 -6.387484073638916016e-02 3.011895343661308289e-02 -1.012676581740379333e-02 -3.798052901402115822e-03
5.640000000000000000e+02 5.465483093261718750e+01 3.473017501831054688e+01 -1.089436560869216919e-01 -6.015305873006582260e-03 -3.448768705129623413e-02 -3.370437771081924438e-02
5.650000000000000000e+02 4.424768066406250000e+01 3.767990875244140625e+01 -1.617656499147415161e-01 4.094808995723724365e-01 7.431457191705703735e-02 1.895075663924217224e-02
5.660000000000000000e+02 4.282662200927734375e+01 4.076018142700195312e+01 -1.785407811403274536e-01 4.270575642585754395e-01 7.455503940582275391e-02 4.567575175315141678e-03
5.670000000000000000e+02 4.484681701660156250e+01 3.098142814636230469e+01 -4.399627074599266052e-02 4.528867006301879883e-01 1.226671338081359863e-01 7.929062843322753906e-02
5.680000000000000000e+02 4.448132705688476562e+01 2.295594406127929688e+01 1.460940539836883545e-01 8.238573670387268066e-01 2.909854352474212646e-01 3.030168116092681885e-01
5.690000000000000000e+02 4.573859405517578125e+01 2.550657844543457031e+01 1.406611949205398560e-01 5.770607590675354004e-01 2.153165936470031738e-01 2.687280178070068359e-01
5.700000000000000000e+02 4.643627166748046875e+01 2.675356674194335938e+01 1.372548788785934448e-01 4.940750002861022949e-01 1.893989592790603638e-01 2.489163726568222046e-01
5.710000000000000000e+02 4.744714355468750000e+01 3.120415687561035156e+01 1.760274637490510941e-03 3.276091217994689941e-01 9.881082177162170410e-02 1.155497208237648010e-01
5.720000000000000000e+02 4.589333724975585938e+01 3.234506607055664062e+01 -6.093428283929824829e-02 3.972459137439727783e-01 1.008934825658798218e-01 7.284411787986755371e-02
5.730000000000000000e+02 3.760297012329101562e+01 4.034890365600585938e+01 -1.698664426803588867e-01 4.548975825309753418e-01 8.550934493541717529e-02 -9.795167483389377594e-03
5.740000000000000000e+02 3.784682464599609375e+01 3.637403869628906250e+01 -1.501574218273162842e-01 4.747978746891021729e-01 9.739214181900024414e-02 -2.484815008938312531e-02
5.750000000000000000e+02 3.515200424194335938e+01 2.888511085510253906e+01 -4.079050198197364807e-02 5.056647658348083496e-01 1.394622772932052612e-01 -8.062681555747985840e-02
5.760000000000000000e+02 4.018155670166015625e+01 2.401849746704101562e+01 4.210633039474487305e-02 7.383038997650146484e-01 2.341230660676956177e-01 2.636490575969219208e-02
5.770000000000000000e+02 3.973009109497070312e+01 1.477225303649902344e+01 1.638572961091995239e-01 1.195317864418029785e+00 4.077525436878204346e-01 -1.110370531678199768e-01
5.780000000000000000e+02 3.973785400390625000e+01 1.160587310791015625e+01 3.096756339073181152e-01 1.273415923118591309e+00 4.749274551868438721e-01 -2.509339451789855957e-01
5.790000000000000000e+02 3.724252319335937500e+01 5.493334293365478516e+00 3.178991079330444336e-01 7.544844150543212891e-01 3.217150568962097168e-01 -1.953170001506805420e-01
5.800000000000000000e+02 3.990066146850585938e+01 -2.468819856643676758e+00 2.361566126346588135e-01 6.032357811927795410e-01 2.518177032470703125e-01 -2.877665758132934570e-01
5.810000000000000000e+02 3.582720565795898438e+01 -1.483775997161865234e+01 -5.646157860755920410e-01 -2.062502801418304443e-01 -2.312598228454589844e-01 4.251855909824371338e-01
5.820000000000000000e+02 3.542132568359375000e+01 -1.797624397277832031e+01 -1.225581169128417969e+00 -2.858367189764976501e-02 -3.762494623661041260e-01 1.440596878528594971e-01
5.830000000000000000e+02 3.683650970458984375e+01 -1.707570457458496094e+01 -1.154115200042724609e+00 -2.892946600914001465e-01 -4.330229461193084717e-01 4.601997435092926025e-01
5.840000000000000000e+02 3.812691116333007812e+01 -1.827730369567871094e+01 -1.793558597564697266e+00 -4.048613011837005615e-01 -6.595259904861450195e-01 6.230530738830566406e-01
5.850000000000000000e+02 4.245679092407226562e+01 -1.980387115478515625e+01 -1.027596831321716309e+00 1.831047534942626953e-01 -2.533476352691650391e-01 3.150832653045654297e-01
5.860000000000000000e+02 4.464157867431640625e+01 -1.918190956115722656e+01 -1.474945306777954102e+00 1.678826659917831421e-01 -3.921188116073608398e-01 3.151736259460449219e-01
5.870000000000000000e+02 4.715696716308593750e+01 -9.497493743896484375e+00 6.927028298377990723e-01 9.678156971931457520e-01 4.981555640697479248e-01 -7.950756549835205078e-01
5.880000000000000000e+02 4.673120117187500000e+01 -8.274153709411621094e+00 5.704178810119628906e-01 1.002435803413391113e+00 4.718561172485351562e-01 -7.157886028289794922e-01
5.890000000000000000e+02 5.096217727661132812e+01 -1.006354713439941406e+01 4.286802113056182861e-01 2.626108884811401367e+00 9.164367318153381348e-01 -1.038473844528198242e+00
5.900000000000000000e+02 5.068944549560546875e+01 -1.618032455444335938e+01 1.092391490936279297e+00 3.164941817522048950e-02 3.372122645378112793e-01 5.663182735443115234e-01
5.910000000000000000e+02 3.237284851074218750e+01 4.056040954589843750e+01 -1.395674198865890503e-01 4.094213247299194336e-01 8.095616847276687622e-02 -1.768950000405311584e-02
5.920000000000000000e+02 2.751864624023437500e+01 4.092150878906250000e+01 -9.643250703811645508e-02 3.041948974132537842e-01 6.232872232794761658e-02 -1.038431562483310699e-02
5.930000000000000000e+02 2.840998840332031250e+01 3.125131225585937500e+01 -2.852582931518554688e-02 3.083560764789581299e-01 8.394907414913177490e-02 -8.933415263891220093e-02
5.940000000000000000e+02 3.265897369384765625e+01 2.464779663085937500e+01 5.831672251224517822e-02 4.581488966941833496e-01 1.549396812915802002e-01 -1.287077069282531738e-01
5.950000000000000000e+02 3.217211151123046875e+01 2.039708709716796875e+01 1.530723571777343750e-01 4.521286487579345703e-01 1.815603077411651611e-01 -1.587101221084594727e-01
5.960000000000000000e+02 3.147648048400878906e+01 1.110490703582763672e+01 3.095279932022094727e-01 3.304201662540435791e-01 1.919844448566436768e-01 -1.441513746976852417e-01
5.970000000000000000e+02 2.885323715209960938e+01 -5.623375773429870605e-01 1.321967411786317825e-02 -1.761678606271743774e-02 -1.319133210927248001e-03 9.547442197799682617e-02
5.980000000000000000e+02 2.904428291320800781e+01 -6.151103973388671875e+00 -1.912077516317367554e-01 -9.687447547912597656e-02 -8.642467111349105835e-02 2.675914764404296875e-01
5.990000000000000000e+02 2.544595336914062500e+01 -1.154169559478759766e+01 -3.020455241203308105e-01 -3.528436422348022461e-01 -1.964667439460754395e-01 3.718376755714416504e-01
6.000000000000000000e+02 2.752769088745117188e+01 -1.645570755004882812e+01 -3.089801073074340820e-01 -7.911857217550277710e-02 -1.164296045899391174e-01 1.674990057945251465e-01
6.010000000000000000e+02 2.928355979919433594e+01 -1.693301773071289062e+01 -4.066239297389984131e-01 -6.408867239952087402e-02 -1.412137746810913086e-01 1.920063644647598267e-01
6.020000000000000000e+02 3.154327583312988281e+01 -1.772392082214355469e+01 -5.531490445137023926e-01 -4.109549918211996555e-04 -1.660679876804351807e-01 1.445177793502807617e-01
6.030000000000000000e+02 1.780734443664550781e+01 4.065732574462890625e+01 -3.283563628792762756e-02 4.199099913239479065e-02 2.746609738096594810e-03 -9.203465655446052551e-03
6.040000000000000000e+02 2.274229431152343750e+01 4.073415756225585938e+01 -5.884651839733123779e-02 1.674928665161132812e-01 3.259390592575073242e-02 -1.221915241330862045e-02
6.050000000000000000e+02 1.996341514587402344e+01 3.270391464233398438e+01 4.077802295796573162e-04 7.315670698881149292e-02 2.206934615969657898e-02 -4.861104860901832581e-02
6.060000000000000000e+02 2.565669441223144531e+01 2.208525657653808594e+01 1.343031525611877441e-01 1.667371243238449097e-01 9.031207859516143799e-02 -1.113863289356231689e-01
6.070000000000000000e+02 2.678842735290527344e+01 1.491983890533447266e+01 2.396658211946487427e-01 1.195087581872940063e-01 1.077523753046989441e-01 -1.038086265325546265e-01
6.080000000000000000e+02 2.296909141540527344e+01 8.896531105041503906e+00 1.937787383794784546e-01 -1.309701204299926758e-01 1.884258538484573364e-02 2.490674518048763275e-02
6.090000000000000000e+02 2.097544097900390625e+01 -1.990714818239212036e-01 -1.659507602453231812e-01 -3.744046688079833984e-01 -1.621066331863403320e-01 2.285147756338119507e-01
6.100000000000000000e+02 1.929520416259765625e+01 -3.325845241546630859e+00 -4.627975523471832275e-01 -5.029152631759643555e-01 -2.897138595581054688e-01 4.275433421134948730e-01
6.110000000000000000e+02 1.988188743591308594e+01 -3.881171464920043945e+00 -4.664044082164764404e-01 -5.253385305404663086e-01 -2.975228726863861084e-01 4.378079473972320557e-01
6.120000000000000000e+02 2.205196762084960938e+01 -6.252644062042236328e+00 -4.355928897857666016e-01 -5.683488249778747559e-01 -3.011825084686279297e-01 4.477370083332061768e-01
6.130000000000000000e+02 2.301857376098632812e+01 -7.519353389739990234e+00 -4.061651527881622314e-01 -5.568735003471374512e-01 -2.889116108417510986e-01 4.370518922805786133e-01
6.140000000000000000e+02 2.347229003906250000e+01 -8.171971321105957031e+00 -3.896988034248352051e-01 -5.389551520347595215e-01 -2.785961925983428955e-01 4.291297197341918945e-01
6.150000000000000000e+02 1.772670555114746094e+01 3.713583374023437500e+01 -2.368853799998760223e-02 3.520854935050010681e-02 3.456003032624721527e-03 -2.442305721342563629e-02
6.160000000000000000e+02 1.643707275390625000e+01 2.349647140502929688e+01 8.851327002048492432e-02 -8.493062853813171387e-02 1.074792118743062019e-03 -1.500311121344566345e-02
6.170000000000000000e+02 1.086909008026123047e+01 1.811433315277099609e+00 -2.302512973546981812e-01 -1.620291024446487427e-01 -1.176841184496879578e-01 2.025875896215438843e-01
6.180000000000000000e+02 1.396926879882812500e+01 3.077145814895629883e-01 -3.643400073051452637e-01 -2.599647343158721924e-01 -1.872914284467697144e-01 2.921266257762908936e-01
6.190000000000000000e+02 1.509807682037353516e+01 5.067427754402160645e-01 -3.114956617355346680e-01 -3.148400485515594482e-01 -1.879007071256637573e-01 2.998042404651641846e-01
6.200000000000000000e+02 1.581038856506347656e+01 8.997721225023269653e-02 -3.288881182670593262e-01 -3.436485826969146729e-01 -2.017610073089599609e-01 3.136429786682128906e-01
6.210000000000000000e+02 1.739801597595214844e+01 -1.821203947067260742e+00 -4.504822492599487305e-01 -4.201312363147735596e-01 -2.611840367317199707e-01 3.917986750602722168e-01
6.220000000000000000e+02 1.293807697296142578e+01 4.086683273315429688e+01 -1.417704951018095016e-02 -9.444455057382583618e-02 -3.258647769689559937e-02 -3.842480713501572609e-03
6.230000000000000000e+02 6.059009552001953125e+00 3.804835891723632812e+01 4.441710654646158218e-03 -2.670909166336059570e-01 -7.879476249217987061e-02 8.028895827010273933e-04
6.240000000000000000e+02 8.301897048950195312e+00 2.955890846252441406e+01 1.385936420410871506e-02 -2.283132076263427734e-01 -6.433615088462829590e-02 1.096496125683188438e-03
6.250000000000000000e+02 8.354438781738281250e+00 2.362736701965332031e+01 3.360591828823089600e-02 -2.339098453521728516e-01 -6.009117886424064636e-02 2.804782800376415253e-02
6.260000000000000000e+02 9.472024917602539062e+00 1.512466335296630859e+01 6.365714222192764282e-02 -2.261137515306472778e-01 -4.873698204755783081e-02 1.051992699503898621e-01
6.270000000000000000e+02 8.378018379211425781e+00 8.093374252319335938e+00 -3.039031056687235832e-03 -1.881440430879592896e-01 -5.735492333769798279e-02 1.664746850728988647e-01
6.280000000000000000e+02 6.254615783691406250e+00 1.877772331237792969e+00 -8.851566165685653687e-02 -2.026772126555442810e-02 -3.263501450419425964e-02 6.342038512229919434e-02
6.290000000000000000e+02 1.167361354827880859e+01 1.409094572067260742e+00 -2.755595147609710693e-01 -1.857368648052215576e-01 -1.383889019489288330e-01 2.176561951637268066e-01
6.300000000000000000e+02 2.037025213241577148e+00 4.163217926025390625e+01 -9.686178527772426605e-03 -3.771800994873046875e-01 -1.160598844289779663e-01 -2.741450676694512367e-03
6.310000000000000000e+02 4.568081855773925781e+00 3.783897018432617188e+01 5.844417028129100800e-03 -3.232317864894866943e-01 -9.521621465682983398e-02 4.273221828043460846e-03
6.320000000000000000e+02 2.168188571929931641e+00 3.543798065185546875e+01 3.621496492996811867e-03 -3.777293264865875244e-01 -1.122323498129844666e-01 -5.396913271397352219e-03
6.330000000000000000e+02 1.886865019798278809e+00 2.868784141540527344e+01 5.688056699000298977e-04 -3.837894499301910400e-01 -1.149661988019943237e-01 2.052251249551773071e-03
6.340000000000000000e+02 1.958306193351745605e+00 2.306703186035156250e+01 3.135571023449301720e-03 -3.641461133956909180e-01 -1.083031594753265381e-01 1.310653612017631531e-02
6.350000000000000000e+02 1.869623422622680664e+00 1.743638610839843750e+01 3.842597827315330505e-03 -3.092423975467681885e-01 -9.161994606256484985e-02 3.014421649277210236e-02
6.360000000000000000e+02 5.113633871078491211e-01 6.392477512359619141e+00 -1.020639436319470406e-03 -5.424885824322700500e-02 -1.658084988594055176e-02 1.282907184213399887e-02
6.370000000000000000e+02 1.660297513008117676e+00 9.052516937255859375e+00 -6.762103876098990440e-04 -1.368870586156845093e-01 -4.126898199319839478e-02 4.603236168622970581e-02
6.380000000000000000e+02 4.780203342437744141e+00 2.739089727401733398e+00 -5.413692444562911987e-02 -3.125263005495071411e-02 -2.561686560511589050e-02 5.671092867851257324e-02
6.390000000000000000e+02 4.043529129028320312e+01 -2.037135124206542969e+01 -5.356349349021911621e-01 -3.306319713592529297e-01 -2.598800659179687500e-01 4.115051329135894775e-01
6.400000000000000000e+02 4.111774444580078125e+01 -2.021630096435546875e+01 -7.477992773056030273e-01 1.549696829169988632e-02 -2.196906805038452148e-01 3.289944529533386230e-01
6.410000000000000000e+02 5.762306594848632812e+01 -1.651004981994628906e+01 2.623180627822875977e+00 -1.554386615753173828e+00 3.206381797790527344e-01 -3.331949234008789062e+00
6.420000000000000000e+02 6.256127166748046875e+01 -1.685649490356445312e+01 4.829949855804443359e+00 1.025088310241699219e+00 1.756511449813842773e+00 9.409164190292358398e-01
6.430000000000000000e+02 6.224623107910156250e+01 -1.850451087951660156e+01 1.583830237388610840e+00 2.536828517913818359e+00 1.236197590827941895e+00 -1.074924096465110779e-01
6.440000000000000000e+02 6.905059051513671875e+01 -1.962981605529785156e+01 -3.089137673377990723e-01 2.215772151947021484e+00 5.720574855804443359e-01 -1.647758483886718750e+00
6.450000000000000000e+02 6.984845733642578125e+01 -2.062605476379394531e+01 -1.164345979690551758e+00 3.486900806427001953e+00 6.967664361000061035e-01 -1.832821369171142578e+00
6.460000000000000000e+02 7.047256469726562500e+01 -2.167343139648437500e+01 -3.739089891314506531e-02 4.681882381439208984e+00 1.393347501754760742e+00 -1.821909427642822266e+00
6.470000000000000000e+02 7.214232635498046875e+01 -2.188034439086914062e+01 -8.326436281204223633e-01 8.846343994140625000e+00 2.404110193252563477e+00 -4.293843209743499756e-01
6.480000000000000000e+02 6.249734115600585938e+01 -1.762905311584472656e+01 3.687205076217651367e+00 2.007251262664794922e+00 1.708336949348449707e+00 -3.746522963047027588e-01
6.490000000000000000e+02 6.181340789794921875e+01 -1.790485000610351562e+01 2.821243762969970703e+00 3.753735303878784180e+00 1.972493648529052734e+00 -6.726670861244201660e-01
6.500000000000000000e+02 6.097748947143554688e+01 -2.119786643981933594e+01 -1.043336629867553711e+00 2.368571043014526367e+00 3.975703120231628418e-01 1.382072567939758301e+00
6.510000000000000000e+02 6.173805999755859375e+01 -2.255757331848144531e+01 -1.224748849868774414e+00 1.036115050315856934e+00 -5.659013986587524414e-02 9.114600419998168945e-01
6.520000000000000000e+02 6.434313201904296875e+01 -2.258635139465332031e+01 -2.128739118576049805e+00 -4.067203495651483536e-03 -6.398419141769409180e-01 -7.037064433097839355e-01
6.530000000000000000e+02 6.076546096801757812e+01 -2.290296745300292969e+01 -1.268255710601806641e+00 1.745984435081481934e+00 1.433186233043670654e-01 1.280508160591125488e+00
6.540000000000000000e+02 6.081080627441406250e+01 -2.383127593994140625e+01 1.517307311296463013e-01 1.068345546722412109e+00 3.660228848457336426e-01 7.611206173896789551e-01
6.550000000000000000e+02 5.218123626708984375e+01 -2.138658332824707031e+01 -1.540005207061767578e+00 5.804035812616348267e-02 -4.445894360542297363e-01 -4.744570851325988770e-01
6.560000000000000000e+02 4.811516571044921875e+01 -2.294849777221679688e+01 -6.123450994491577148e-01 -2.262824177742004395e-01 -2.515882551670074463e-01 -7.997207641601562500e-01
6.570000000000000000e+02 4.349332427978515625e+01 -3.170152282714843750e+01 -1.334264278411865234e-01 -6.723664999008178711e-01 -2.417378872632980347e-01 7.049024850130081177e-02
6.580000000000000000e+02 5.246883010864257812e+01 -2.980958366394042969e+01 1.314861297607421875e+00 1.858624815940856934e+00 9.520457983016967773e-01 4.064593613147735596e-01
6.590000000000000000e+02 5.067541503906250000e+01 -3.600376510620117188e+01 -2.630957402288913727e-02 1.255164027214050293e+00 3.686563372611999512e-01 5.227933526039123535e-01
6.600000000000000000e+02 6.558534240722656250e+01 -2.203418350219726562e+01 -2.616872787475585938e+00 -3.831050992012023926e-01 -8.999933600425720215e-01 -1.045083403587341309e+00
6.610000000000000000e+02 6.687597656250000000e+01 -2.159274482727050781e+01 -3.551864385604858398e+00 -5.556688308715820312e-01 -1.232259988784790039e+00 -9.362751245498657227e-01
6.620000000000000000e+02 4.897990036010742188e+01 -7.712445735931396484e+00 4.068092703819274902e-01 1.677363753318786621e+00 6.252519488334655762e-01 -8.111282587051391602e-01
6.630000000000000000e+02 4.880472564697265625e+01 -3.494268178939819336e+00 2.305038571357727051e-01 1.459534168243408203e+00 5.070114135742187500e-01 -5.703538060188293457e-01
6.640000000000000000e+02 4.470949554443359375e+01 2.287693500518798828e+00 2.983368933200836182e-01 1.187075376510620117e+00 4.456236660480499268e-01 -6.018153429031372070e-01
6.650000000000000000e+02 4.454147720336914062e+01 5.211859703063964844e+00 3.893551528453826904e-01 1.348318576812744141e+00 5.213021039962768555e-01 -7.212887406349182129e-01
6.660000000000000000e+02 4.327438735961914062e+01 7.738883018493652344e+00 3.260031342506408691e-01 1.698367476463317871e+00 6.073111891746520996e-01 -7.112565040588378906e-01
6.670000000000000000e+02 4.238943862915039062e+01 1.045626544952392578e+01 1.908155530691146851e-01 2.185371875762939453e+00 7.128562331199645996e-01 -3.784063458442687988e-01
6.680000000000000000e+02 3.830866622924804688e+01 1.480531215667724609e+01 2.047837674617767334e-01 1.013116121292114258e+00 3.653699457645416260e-01 -1.569908261299133301e-01
6.690000000000000000e+02 4.711063003540039062e+01 -2.603264093399047852e+00 2.598863840103149414e-01 1.240649342536926270e+00 4.501607120037078857e-01 -6.161589622497558594e-01
6.700000000000000000e+02 4.126856613159179688e+01 1.026354217529296875e+01 3.441263437271118164e-01 1.617144942283630371e+00 5.883814096450805664e-01 -3.193582296371459961e-01
6.710000000000000000e+02 4.237206649780273438e+01 1.473041725158691406e+01 3.231531381607055664e-02 1.537944793701171875e+00 4.710780382156372070e-01 9.006709605455398560e-02
6.720000000000000000e+02 4.177122116088867188e+01 1.912335205078125000e+01 8.010004460811614990e-02 1.087409973144531250e+00 3.502529859542846680e-01 1.384198516607284546e-01
6.730000000000000000e+02 3.971986389160156250e+01 2.882342529296875000e+01 -4.611714556813240051e-02 5.829757452011108398e-01 1.610575765371322632e-01 -1.086891256272792816e-02
6.740000000000000000e+02 6.821462249755859375e+01 -2.136552238464355469e+01 -2.698467969894409180e+00 1.086874771863222122e-02 -8.062797188758850098e-01 -6.373492479324340820e-01
6.750000000000000000e+02 2.511344146728515625e+01 -3.958560562133789062e+01 -1.532566174864768982e-02 -1.580606028437614441e-02 -9.339516982436180115e-03 -1.949316938407719135e-03
6.760000000000000000e+02 2.524361228942871094e+01 -3.153436851501464844e+01 2.860595285892486572e-02 -1.467320180381648242e-05 8.577384054660797119e-03 3.960749018006026745e-04
6.770000000000000000e+02 3.010633087158203125e+01 -3.367840194702148438e+01 3.651563310995697975e-03 -5.570921115577220917e-03 -5.758074112236499786e-04 -8.623105473816394806e-03
6.780000000000000000e+02 4.649556732177734375e+01 -3.942005538940429688e+01 8.622387051582336426e-02 3.848054111003875732e-01 1.413087844848632812e-01 2.121888399124145508e-01
6.790000000000000000e+02 4.161766052246093750e+01 -3.307902908325195312e+01 -3.719407692551612854e-02 -9.679893851280212402e-01 -3.015550374984741211e-01 -2.571680843830108643e-01
6.800000000000000000e+02 3.777875518798828125e+01 -3.932123184204101562e+01 1.805846393108367920e-01 -3.319986164569854736e-01 -4.542419686913490295e-02 -1.045420989394187927e-01
6.810000000000000000e+02 5.793753433227539062e+01 -4.092880630493164062e+01 -1.217341944575309753e-01 9.172009825706481934e-01 2.386400401592254639e-01 -2.336707860231399536e-01
6.820000000000000000e+02 7.059285736083984375e+01 -3.480313110351562500e+01 -8.936455845832824707e-01 4.814860820770263672e+00 1.176364541053771973e+00 6.823269128799438477e-01
6.830000000000000000e+02 7.083193206787109375e+01 -3.274241638183593750e+01 -8.517888784408569336e-01 5.583388328552246094e+00 1.419479846954345703e+00 9.381587505340576172e-01
6.840000000000000000e+02 7.156961822509765625e+01 -3.413322448730468750e+01 -1.012713670730590820e+00 5.962234497070312500e+00 1.484856247901916504e+00 4.277245700359344482e-01
6.850000000000000000e+02 1.209103775024414062e+01 -1.383205413818359375e+01 8.205410995287820697e-05 1.492257433710619807e-04 6.938395381439477205e-05 -5.416049680206924677e-05
6.860000000000000000e+02 1.214913558959960938e+01 -1.218584918975830078e+01 2.209155500167980790e-04 9.787384624360129237e-05 9.563681669533252716e-05 5.001409135729772970e-06
6.870000000000000000e+02 3.831971740722656250e+01 3.100755310058593750e+01 -8.565611392259597778e-02 5.362913012504577637e-01 1.351905614137649536e-01 -3.341665863990783691e-02
6.880000000000000000e+02 2.391970634460449219e+01 3.751442718505859375e+01 -5.505580082535743713e-02 1.938855051994323730e-01 4.164890944957733154e-02 -3.340541571378707886e-02
6.890000000000000000e+02 1.381716823577880859e+01 3.457633972167968750e+01 4.111615708097815514e-04 -7.701026648283004761e-02 -2.297973260283470154e-02 -1.911242492496967316e-02
6.900000000000000000e+02 7.816276550292968750e+00 3.235530090332031250e+01 7.741425652056932449e-03 -2.304256558418273926e-01 -6.680527329444885254e-02 -4.020973574370145798e-03
6.910000000000000000e+02 7.015681743621826172e+00 2.512562751770019531e+01 2.282745763659477234e-02 -2.593716382980346680e-01 -7.096324861049652100e-02 1.994335651397705078e-02
6.920000000000000000e+02 1.797402381896972656e+01 2.781656265258789062e+01 5.100408196449279785e-02 -1.221863273531198502e-02 1.163563411682844162e-02 -4.177409037947654724e-02
6.930000000000000000e+02 1.999326133728027344e+01 2.669821929931640625e+01 6.491274386644363403e-02 3.087125904858112335e-02 2.873520180583000183e-02 -5.589253082871437073e-02
6.940000000000000000e+02 2.805866050720214844e+01 2.435062026977539062e+01 8.856674283742904663e-02 2.746949195861816406e-01 1.089785024523735046e-01 -1.279166638851165771e-01
6.950000000000000000e+02 2.030374288558959961e+00 3.142610931396484375e+01 1.174440607428550720e-03 -3.822013437747955322e-01 -1.143080741167068481e-01 -9.337719529867172241e-04
6.960000000000000000e+02 7.089548492431640625e+01 3.100572967529296875e+01 -2.382384538650512695e-01 6.289797306060791016e+00 1.815467715263366699e+00 -4.327006638050079346e-02
6.970000000000000000e+02 7.180507659912109375e+00 1.757857322692871094e+01 3.903575241565704346e-02 -2.435056269168853760e-01 -6.134096533060073853e-02 7.587702572345733643e-02
6.980000000000000000e+02 1.233989334106445312e+01 1.967789649963378906e+01 8.315737545490264893e-02 -1.860769540071487427e-01 -3.087587654590606689e-02 4.694945365190505981e-02
6.990000000000000000e+02 3.212928771972656250e+01 1.692524337768554688e+01 2.292156517505645752e-01 4.418165981769561768e-01 2.013096809387207031e-01 -1.729909628629684448e-01
7.000000000000000000e+02 4.278384399414062500e+01 1.754214668273925781e+01 7.919111847877502441e-02 1.296074628829956055e+00 4.125797450542449951e-01 2.356060445308685303e-01
7.010000000000000000e+02 3.843500900268554688e+01 1.640239715576171875e+01 1.698503047227859497e-01 9.709811806678771973e-01 3.422494232654571533e-01 -1.137011796236038208e-01
7.020000000000000000e+02 6.237782478332519531e+00 1.104764461517333984e+01 1.783206686377525330e-02 -1.992203742265701294e-01 -5.441648885607719421e-02 1.249646022915840149e-01
7.030000000000000000e+02 1.405385398864746094e+01 7.159163951873779297e+00 3.360585123300552368e-02 -2.745718359947204590e-01 -7.228979468345642090e-02 1.882574856281280518e-01
7.040000000000000000e+02 2.129143714904785156e+01 8.532197952270507812e+00 1.667215228080749512e-01 -1.936524212360382080e-01 -8.079268969595432281e-03 5.896599218249320984e-02
7.050000000000000000e+02 3.046385002136230469e+01 1.269917392730712891e+01 2.909350395202636719e-01 2.837611138820648193e-01 1.724088490009307861e-01 -1.426630765199661255e-01
7.060000000000000000e+02 1.841445207595825195e+00 1.603154945373535156e+01 3.666230011731386185e-03 -2.878904342651367188e-01 -8.526726067066192627e-02 3.467229008674621582e-02
7.070000000000000000e+02 2.038548851013183594e+01 2.791283130645751953e-01 -1.599098592996597290e-01 -3.746567666530609131e-01 -1.603699922561645508e-01 2.282472252845764160e-01
7.080000000000000000e+02 3.195008277893066406e+01 6.168716907501220703e+00 2.785690724849700928e-01 3.009036183357238770e-01 1.738418042659759521e-01 -8.920756727457046509e-02
7.090000000000000000e+02 3.984207534790039062e+01 3.346050739288330078e+00 2.519791424274444580e-01 9.347285032272338867e-01 3.560122847557067871e-01 -3.100653290748596191e-01
7.100000000000000000e+02 2.695527076721191406e+01 -5.660844802856445312e+00 -2.435234338045120239e-01 -1.924048811197280884e-01 -1.307784914970397949e-01 2.754516005516052246e-01
7.110000000000000000e+02 4.595410919189453125e+01 -2.994445562362670898e+00 2.516483962535858154e-01 1.128855824470520020e+00 4.141512513160705566e-01 -6.196545362472534180e-01
7.120000000000000000e+02 4.541279983520507812e+01 -1.783759951591491699e+00 2.701722681522369385e-01 1.103263020515441895e+00 4.120306074619293213e-01 -5.829970240592956543e-01
7.130000000000000000e+02 2.739043998718261719e+01 -1.205746650695800781e+01 -3.191565573215484619e-01 -1.936058849096298218e-01 -1.538287401199340820e-01 3.857409358024597168e-01
7.140000000000000000e+02 3.494994735717773438e+01 -1.343917560577392578e+01 -3.901644349098205566e-01 -1.455941498279571533e-01 -1.607275754213333130e-01 4.119082391262054443e-01
7.150000000000000000e+02 4.521792984008789062e+01 -2.390849304199218750e+01 -2.106413841247558594e-01 -4.237389862537384033e-01 -1.903141140937805176e-01 -7.124484181404113770e-01
7.160000000000000000e+02 3.891344833374023438e+01 -3.235943603515625000e+01 -6.064168810844421387e-01 -3.255911171436309814e-01 -2.796024084091186523e-01 -3.838019073009490967e-01
7.170000000000000000e+02 3.767768478393554688e+01 -3.263497924804687500e+01 -4.665004312992095947e-01 -1.133894994854927063e-01 -1.739669740200042725e-01 -2.173419147729873657e-01
7.180000000000000000e+02 3.195090675354003906e+01 -3.253169631958007812e+01 1.248059235513210297e-02 2.038530772551894188e-03 4.355737008154392242e-03 -1.295590307563543320e-02
7.190000000000000000e+02 3.062210273742675781e+01 -3.216535568237304688e+01 2.556622587144374847e-02 -1.850885455496609211e-03 7.114601787179708481e-03 -9.621215984225273132e-03
7.200000000000000000e+02 2.684139442443847656e+01 -3.446797561645507812e+01 4.480346571654081345e-03 -8.242973126471042633e-03 -1.128787756897509098e-03 -2.802097005769610405e-04
7.210000000000000000e+02 2.246578407287597656e+01 -3.149313926696777344e+01 2.045492641627788544e-02 1.054432708770036697e-03 6.452807690948247910e-03 2.029179595410823822e-03
7.220000000000000000e+02 2.080305099487304688e+01 -3.303762054443359375e+01 1.149853598326444626e-02 1.220569480210542679e-03 3.815731499344110489e-03 4.804603289812803268e-03
7.230000000000000000e+02 2.109689331054687500e+01 -3.145100784301757812e+01 1.850505173206329346e-02 -6.929216324351727962e-04 5.343639291822910309e-03 1.608275575563311577e-03
7.240000000000000000e+02 1.545771026611328125e+01 -3.116120147705078125e+01 7.084626704454421997e-03 -1.842487545218318701e-04 2.070113318040966988e-03 -1.452678261557593942e-04
7.250000000000000000e+02 1.268139648437500000e+01 -2.994652557373046875e+01 2.021432854235172272e-03 4.050359711982309818e-04 7.279406418092548847e-04 -4.486026009544730186e-04
7.260000000000000000e+02 9.594221115112304688e+00 -2.725180625915527344e+01 -1.493713789386674762e-04 -2.607684582471847534e-04 -1.230419438797980547e-04 1.205113294417969882e-04
7.270000000000000000e+02 8.549001693725585938e+00 -2.392495727539062500e+01 6.425340543501079082e-04 -8.642480679554864764e-05 1.668327749939635396e-04 -5.425098788691684604e-05
7.280000000000000000e+02 9.824193954467773438e+00 -1.856238365173339844e+01 6.067703361622989178e-04 2.192971442127600312e-05 1.886100071715191007e-04 -1.259754208149388433e-04
7.290000000000000000e+02 1.033273220062255859e+01 -1.604791641235351562e+01 4.929883871227502823e-04 -5.158665953786112368e-05 1.324205222772434354e-04 8.500833791913464665e-05
7.300000000000000000e+02 1.276733398437500000e+01 -1.495728969573974609e+01 -3.230663787689991295e-05 -2.419191150693222880e-04 -8.226772479247301817e-05 7.650702900718897581e-05
7.310000000000000000e+02 1.532254409790039062e+01 -1.360797023773193359e+01 2.289086842210963368e-05 -1.371353573631495237e-04 -3.427334377192892134e-05 5.277408126858063042e-05
7.320000000000000000e+02 1.808294868469238281e+01 -8.555010795593261719e+00 8.891106699593365192e-05 2.018415761995129287e-05 3.272856702096760273e-05 2.244720963062718511e-05
7.330000000000000000e+02 2.146308135986328125e+01 -1.207674121856689453e+01 8.129707566695287824e-05 1.136597347795031965e-05 2.779891656246036291e-05 2.251973637612536550e-05
7.340000000000000000e+02 2.251030540466308594e+01 -1.429018974304199219e+01 1.257682470168219879e-05 4.124924089410342276e-05 1.614782013348303735e-05 -2.749711256910813972e-06
7.350000000000000000e+02 2.236282539367675781e+01 -1.373555469512939453e+01 -1.489703845436451957e-05 -1.034976230585016310e-05 -7.574040409963345155e-06 -6.321225555439013988e-06
7.360000000000000000e+02 2.161750602722167969e+01 -1.301297473907470703e+01 -2.174995279347058386e-05 3.170102900185156614e-06 -5.573955149884568527e-06 -3.419604763621464372e-05
7.370000000000000000e+02 2.040388107299804688e+01 -1.033788967132568359e+01 -5.810146467410959303e-05 -3.579315307433716953e-05 -2.816838423314038664e-05 5.326559175955480896e-07
7.380000000000000000e+02 2.110743522644042969e+01 -1.145287036895751953e+01 -7.140910747693851590e-05 -5.359777333069359884e-06 -2.303066503372974694e-05 -1.128420080931391567e-05
7.390000000000000000e+02 2.081270217895507812e+01 -1.087247657775878906e+01 8.002571121323853731e-05 5.967004881313187070e-07 2.418672374915331602e-05 1.124100981542142108e-05
7.400000000000000000e+02 1.999041366577148438e+01 -9.762724876403808594e+00 4.227644967613741755e-05 5.012435940443538129e-05 2.772024163277819753e-05 1.794703166524413973e-05
7.410000000000000000e+02 1.870415687561035156e+01 -8.062236785888671875e+00 -6.687306449748575687e-05 -2.533993756514973938e-05 -2.766390025499276817e-05 -2.733193468884564936e-05
7.420000000000000000e+02 1.683174514770507812e+01 -6.045605182647705078e+00 -7.101456139935180545e-05 -3.413157901377417147e-05 -3.154384103254415095e-05 -2.189942642871756107e-05
7.430000000000000000e+02 1.731423377990722656e+01 -6.531800746917724609e+00 7.219128747237846255e-05 2.777543704723939300e-05 2.999001844727899879e-05 2.435564601910300553e-05
7.440000000000000000e+02 1.430905342102050781e+01 -4.951428413391113281e+00 7.159936649259179831e-05 5.710151526727713645e-05 3.861026561935432255e-05 2.563224916229955852e-05
7.450000000000000000e+02 1.522393417358398438e+01 -4.773536205291748047e+00 6.125208892626687884e-05 5.255020369077101350e-05 3.414068851270712912e-05 2.752712498477194458e-05
7.460000000000000000e+02 1.466012859344482422e+01 -4.379609107971191406e+00 -6.079372906242497265e-05 -5.512432107934728265e-05 -3.477541395113803446e-05 -2.769790626189205796e-05
7.470000000000000000e+02 1.222484683990478516e+01 -3.000881433486938477e+00 -4.929248461849056184e-05 -7.813118281774222851e-05 -3.822709913947619498e-05 -2.779926580842584372e-05
7.480000000000000000e+02 1.284683322906494141e+01 -3.339171409606933594e+00 5.262881677481345832e-05 6.724346894770860672e-05 3.596168608055450022e-05 2.552925252530258149e-05
7.490000000000000000e+02 1.339047908782958984e+01 -5.242846012115478516e+00 8.878529479261487722e-05 5.685438009095378220e-05 4.369189991848543286e-05 2.177769601985346526e-05
7.500000000000000000e+02 9.056462287902832031e+00 -2.756199598312377930e+00 3.799397745751775801e-05 8.537715621059760451e-05 3.701134119182825089e-05 5.065632285550236702e-05
7.510000000000000000e+02 9.989335060119628906e+00 -2.079506874084472656e+00 2.861363100237213075e-05 9.404115553479641676e-05 3.679643850773572922e-05 2.831898564181756228e-05
7.520000000000000000e+02 8.431597709655761719e+00 -1.905380487442016602e+00 4.751120286528021097e-05 7.237002864712849259e-05 3.596436727093532681e-05 3.024013858521357179e-05
7.530000000000000000e+02 6.837519168853759766e+00 -1.899652242660522461e+00 7.603118865517899394e-05 2.369395770074333996e-05 2.991754263348411769e-05 2.292112003488000482e-05
7.540000000000000000e+02 7.637364387512207031e+00 -1.896259307861328125e+00 -6.892360397614538670e-05 -6.180565833346918225e-05 -3.921877942048013210e-05 -2.914506694651208818e-05
7.550000000000000000e+02 5.205943107604980469e+00 -1.960619807243347168e+00 3.240814112359657884e-05 3.745853291547973640e-06 1.084619816538179293e-05 2.225131720479112118e-05
7.560000000000000000e+02 1.936115026473999023e+00 -1.978177428245544434e+00 5.581272853305563331e-05 4.974122566636651754e-05 3.166618625982664526e-05 -5.194194091018289328e-05
7.570000000000000000e+02 3.344890117645263672e+00 -3.340008497238159180e+00 -1.041999275912530720e-04 -1.534297734906431288e-05 -3.586287130019627512e-05 -6.510962703032419086e-05
7.580000000000000000e+02 4.367444038391113281e+00 -2.032881259918212891e+00 -2.332289659534581006e-05 -4.034796347696101293e-06 -8.207308383134659380e-06 -4.948453351971693337e-05
7.590000000000000000e+02 2.689455747604370117e+00 -2.081094264984130859e+00 -1.321308809565380216e-04 1.505976706539513543e-05 -3.512133480398915708e-05 -6.776598411306622438e-07
7.600000000000000000e+02 1.217139720916748047e+00 -1.994424581527709961e+00 2.944166953966487199e-05 -6.897861021570861340e-05 -1.186108147521736100e-05 -6.772379947506124154e-06
7.610000000000000000e+02 4.220365285873413086e-01 -2.147076845169067383e+00 9.614485315978527069e-05 3.523988198139704764e-05 3.941541945096105337e-05 4.093778625247068703e-05
7.620000000000000000e+02 2.018176794052124023e+00 -4.165892791748046875e+01 2.024758141487836838e-04 1.273415517061948776e-03 4.427673993632197380e-04 -6.888736243126913905e-05
7.630000000000000000e+02 3.409297704696655273e+00 -3.935400390625000000e+01 3.416851395741105080e-04 1.205254462547600269e-03 4.640818806365132332e-04 7.901319768279790878e-04
7.640000000000000000e+02 1.015220284461975098e+00 -3.875141143798828125e+01 5.676312721334397793e-04 1.153733814135193825e-03 5.164095200598239899e-04 3.051238018088042736e-04
7.650000000000000000e+02 7.770037651062011719e-01 -3.460472869873046875e+01 -5.561681464314460754e-04 4.234208900015801191e-04 -3.982418274972587824e-05 1.193263233290053904e-04
7.660000000000000000e+02 7.436944246292114258e-01 -3.320045089721679688e+01 6.753694615326821804e-04 1.834652648540213704e-04 2.576504193712025881e-04 1.499044738011434674e-04
7.670000000000000000e+02 6.798636317253112793e-01 -2.896438789367675781e+01 -6.455573602579534054e-04 -1.194540673168376088e-04 -2.295034355483949184e-04 -7.166404247982427478e-05
7.680000000000000000e+02 6.441168785095214844e-01 -2.755241203308105469e+01 6.749315070919692516e-04 -8.920289837988093495e-05 1.757185818860307336e-04 7.086893310770392418e-05
7.690000000000000000e+02 5.766236782073974609e-01 -2.474694824218750000e+01 6.848619668744504452e-04 -5.216302452026866376e-05 1.898096816148608923e-04 7.989880396053195000e-05
7.700000000000000000e+02 6.049845218658447266e-01 -2.614868736267089844e+01 -6.906481576152145863e-04 -9.788624447537586093e-05 -2.365603140788152814e-04 -9.175267769023776054e-05
7.710000000000000000e+02 5.900043845176696777e-01 -2.194324874877929688e+01 5.768369883298873901e-04 -1.623739649403432850e-06 1.725639740470796824e-04 8.688220259500667453e-05
7.720000000000000000e+02 6.110395789146423340e-01 -2.054188156127929688e+01 -4.860976769123226404e-04 -3.120720066362991929e-05 -1.551914610899984837e-04 -7.798562728567048907e-05
7.730000000000000000e+02 1.834799408912658691e+00 -2.048060798645019531e+01 4.495603498071432114e-04 5.328047700459137559e-05 1.508522400399670005e-04 1.037198380799964070e-04
7.740000000000000000e+02 6.347984671592712402e-01 -1.630980110168457031e+01 3.164449881296604872e-04 5.674276508216280490e-06 9.663577657192945480e-05 1.771807546901982278e-05
7.750000000000000000e+02 6.328103542327880859e-01 -1.489613628387451172e+01 -3.019586438313126564e-04 -8.225300007325131446e-06 -9.305518324254080653e-05 -1.099933888326631859e-05
7.760000000000000000e+02 6.276329755783081055e-01 -1.348356628417968750e+01 2.936178934760391712e-04 -1.556770143906760495e-06 8.761834033066406846e-05 9.834747288550715894e-06
7.770000000000000000e+02 1.878368258476257324e+00 -1.341676425933837891e+01 -3.188636328559368849e-04 -4.108378107048338279e-06 -9.689159924164414406e-05 -6.677074452454689890e-06
7.780000000000000000e+02 6.069958209991455078e-01 -9.230127334594726562e+00 -2.360116050112992525e-04 -1.597758796378911939e-06 -7.128281140467151999e-05 -2.613717151689343154e-05
7.790000000000000000e+02 6.169676184654235840e-01 -7.804041385650634766e+00 2.044833527179434896e-04 1.947383225342491642e-06 6.192921864567324519e-05 2.846195638994686306e-05
7.800000000000000000e+02 4.312171936035156250e+00 -3.102749109268188477e+00 -2.176426824007648975e-05 -5.964208753539423924e-07 -6.708206910843728110e-06 3.374700099811889231e-05
7.810000000000000000e+02 4.603515148162841797e+00 -3.858910799026489258e+00 1.986495335586369038e-04 6.937894067959859967e-05 8.040854299906641245e-05 -9.879165190795902163e-06
7.820000000000000000e+02 7.278973388671875000e+01 -4.088970184326171875e+01 7.708375155925750732e-02 5.504661560058593750e+00 1.674523591995239258e+00 7.339192181825637817e-02
7.830000000000000000e+02 5.147353744506835938e+01 -4.121443557739257812e+01 -3.205034136772155762e-01 1.277650475502014160e+00 2.871440947055816650e-01 6.911238282918930054e-02
7.840000000000000000e+02 3.301707077026367188e+01 -4.127011871337890625e+01 5.322707816958427429e-02 -1.649661064147949219e-01 -3.352170810103416443e-02 -3.086741082370281219e-02
7.850000000000000000e+02 7.870610046386718750e+01 4.007870864868164062e+01 -9.482963383197784424e-02 9.083840370178222656e+00 2.696703195571899414e+00 -1.541427969932556152e-01
7.860000000000000000e+02 7.911885833740234375e+01 3.872715759277343750e+01 -1.326647214591503143e-02 9.261976242065429688e+00 2.774612903594970703e+00 -5.600729212164878845e-02
7.870000000000000000e+02 7.765445709228515625e+01 3.794997024536132812e+01 -1.245373412966728210e-01 8.623515129089355469e+00 2.549693346023559570e+00 -9.580527432262897491e-03
7.880000000000000000e+02 7.936852264404296875e+01 3.625789642333984375e+01 6.742394994944334030e-03 9.310285568237304688e+00 2.795108318328857422e+00 6.089168041944503784e-02
7.890000000000000000e+02 7.776734924316406250e+01 3.483127975463867188e+01 -1.116346716880798340e-01 8.618490219116210938e+00 2.552056550979614258e+00 2.873180806636810303e-01
7.900000000000000000e+02 7.927751922607421875e+01 3.344918823242187500e+01 -3.462515398859977722e-02 9.004359245300292969e+00 2.690920352935791016e+00 1.451151072978973389e-01
7.910000000000000000e+02 7.798966217041015625e+01 3.061517143249511719e+01 -2.506653591990470886e-02 8.103357315063476562e+00 2.423487186431884766e+00 4.709574878215789795e-01
7.920000000000000000e+02 7.937251281738281250e+01 2.645427131652832031e+01 8.461895398795604706e-03 7.335929393768310547e+00 2.203317403793334961e+00 1.529605984687805176e-01
7.930000000000000000e+02 7.687308502197265625e+01 2.636443138122558594e+01 1.069368049502372742e-01 7.574862003326416016e+00 2.304539680480957031e+00 4.987326264381408691e-01
7.940000000000000000e+02 7.938624572753906250e+01 2.225801277160644531e+01 2.241212874650955200e-02 6.669927120208740234e+00 2.007701873779296875e+00 6.996288150548934937e-02
7.950000000000000000e+02 7.938914489746093750e+01 2.085941886901855469e+01 -4.992310423403978348e-03 6.556807518005371094e+00 1.965544581413269043e+00 4.801163077354431152e-02
7.960000000000000000e+02 7.816847229003906250e+01 2.218431663513183594e+01 3.689590096473693848e-02 7.048446655273437500e+00 2.125602722167968750e+00 1.658992469310760498e-01
7.970000000000000000e+02 7.939080810546875000e+01 1.946091842651367188e+01 1.790547184646129608e-02 6.479704856872558594e+00 1.949283123016357422e+00 3.555190190672874451e-02
7.980000000000000000e+02 7.939160919189453125e+01 1.527330493927001953e+01 -6.519748363643884659e-03 6.360809326171875000e+00 1.906286835670471191e+00 1.770471595227718353e-02
7.990000000000000000e+02 7.939441680908203125e+01 1.388196182250976562e+01 -5.712803453207015991e-03 6.314538002014160156e+00 1.892647504806518555e+00 3.254901990294456482e-02
8.000000000000000000e+02 7.939842224121093750e+01 1.249020099639892578e+01 -3.678205423057079315e-03 6.235802173614501953e+00 1.869637131690979004e+00 4.298014566302299500e-02
8.010000000000000000e+02 7.940061187744140625e+01 1.109873771667480469e+01 -1.122920773923397064e-02 6.122728347778320312e+00 1.833449721336364746e+00 6.042074039578437805e-02
8.020000000000000000e+02 7.939182281494140625e+01 8.321928024291992188e+00 -6.665495224297046661e-03 5.807258129119873047e+00 1.740177750587463379e+00 7.455816119909286499e-02
8.030000000000000000e+02 7.938404083251953125e+01 6.933185100555419922e+00 1.797522231936454773e-02 5.647127628326416016e+00 1.699530839920043945e+00 6.246859580278396606e-02
8.040000000000000000e+02 7.814874267578125000e+01 6.872612476348876953e+00 3.558155149221420288e-02 6.366795539855957031e+00 1.920713186264038086e+00 1.729063242673873901e-01
8.050000000000000000e+02 7.937635040283203125e+01 5.536175251007080078e+00 5.689618177711963654e-03 5.529800415039062500e+00 1.660647034645080566e+00 3.559549525380134583e-02
8.060000000000000000e+02 7.937406158447265625e+01 1.330076217651367188e+00 1.836019381880760193e-02 5.657308101654052734e+00 1.702700495719909668e+00 -9.002353250980377197e-02
8.070000000000000000e+02 7.938181304931640625e+01 -6.760455667972564697e-02 1.960803568363189697e-02 5.880039215087890625e+00 1.769894123077392578e+00 -1.316053718328475952e-01
8.080000000000000000e+02 7.939147949218750000e+01 -1.460203409194946289e+00 4.484029021114110947e-03 6.183388233184814453e+00 1.856361746788024902e+00 -1.605946719646453857e-01
8.090000000000000000e+02 7.939856719970703125e+01 -2.850648164749145508e+00 1.009691972285509109e-02 6.540211677551269531e+00 1.965092539787292480e+00 -1.755237132310867310e-01
8.100000000000000000e+02 7.937865447998046875e+01 -7.007336139678955078e+00 -8.880432695150375366e-03 7.669697761535644531e+00 2.298245191574096680e+00 -1.707737594842910767e-01
8.110000000000000000e+02 7.937030792236328125e+01 -8.401459693908691406e+00 -4.120480734854936600e-03 7.995550155639648438e+00 2.397428989410400391e+00 -1.545879393815994263e-01
8.120000000000000000e+02 7.936511993408203125e+01 -9.799633026123046875e+00 -1.222258806228637695e-02 8.281444549560546875e+00 2.480766534805297852e+00 -1.369757950305938721e-01
8.130000000000000000e+02 7.939754486083984375e+01 -1.399676322937011719e+01 -2.985407598316669464e-03 8.854138374328613281e+00 2.655345916748046875e+00 -5.999227985739707947e-02
8.140000000000000000e+02 7.942225646972656250e+01 -1.537793254852294922e+01 -2.887246571481227875e-02 8.930843353271484375e+00 2.670591354370117188e+00 -2.537969686090946198e-02
8.150000000000000000e+02 7.942793273925781250e+01 -1.675772094726562500e+01 -1.816543377935886383e-02 8.899449348449707031e+00 2.664385080337524414e+00 3.425019606947898865e-02
8.160000000000000000e+02 7.940180206298828125e+01 -2.231493568420410156e+01 2.403356134891510010e-02 7.514726161956787109e+00 2.261627912521362305e+00 2.169342339038848877e-01
8.170000000000000000e+02 7.815036010742187500e+01 -2.513069343566894531e+01 2.449457049369812012e-01 7.432355403900146484e+00 2.303190469741821289e+00 1.424910724163055420e-01
8.180000000000000000e+02 7.938771057128906250e+01 -2.370918083190917969e+01 3.368385136127471924e-02 7.078380107879638672e+00 2.133619070053100586e+00 1.495968401432037354e-01
8.190000000000000000e+02 7.939850616455078125e+01 -2.788944244384765625e+01 6.329979747533798218e-03 7.014114856719970703e+00 2.106133460998535156e+00 -1.788695156574249268e-01
8.200000000000000000e+02 7.939087677001953125e+01 -2.928136634826660156e+01 5.882361903786659241e-02 7.475445747375488281e+00 2.260280847549438477e+00 -2.516598999500274658e-01
8.210000000000000000e+02 7.939318084716796875e+01 -3.066404151916503906e+01 -4.332955926656723022e-02 8.035825729370117188e+00 2.397748947143554688e+00 -2.705031931400299072e-01
8.220000000000000000e+02 7.930049896240234375e+01 -3.479935455322265625e+01 1.083453092724084854e-02 9.487627983093261719e+00 2.849538564682006836e+00 -1.522641181945800781e-01
8.230000000000000000e+02 7.915394592285156250e+01 -3.618306350708007812e+01 -7.487262040376663208e-02 9.679121017456054688e+00 2.881274461746215820e+00 -8.860816061496734619e-02
8.240000000000000000e+02 7.901480102539062500e+01 -3.758421707153320312e+01 5.169608071446418762e-02 9.782878875732421875e+00 2.950372457504272461e+00 -7.712300121784210205e-02
8.250000000000000000e+02 7.885551452636718750e+01 -3.899682617187500000e+01 -2.884600460529327393e-01 9.760157585144042969e+00 2.841509342193603516e+00 9.030056744813919067e-02
8.260000000000000000e+02 4.812599182128906250e+01 3.851678085327148438e+01 -1.396619975566864014e-01 2.687303721904754639e-01 3.872050717473030090e-02 2.930148318409919739e-02
8.270000000000000000e+02 6.800892639160156250e+01 3.646504592895507812e+01 -3.193870484828948975e-01 3.077965736389160156e+00 8.275735974311828613e-01 -5.359686613082885742e-01
8.280000000000000000e+02 3.710824847221374512e-01 2.166379928588867188e+00 -4.617301747202873230e-04 5.477629601955413818e-03 1.504769781604409218e-03 -4.141876124776899815e-04
8.290000000000000000e+02 2.562186002731323242e+00 2.912754535675048828e+00 -1.869399473071098328e-02 -2.083193324506282806e-02 -1.185777876526117325e-02 2.138920687139034271e-02
8.300000000000000000e+02 1.528206348419189453e+00 6.292187213897705078e+00 -3.903249744325876236e-03 -7.034114748239517212e-02 -2.227331884205341339e-02 3.563149645924568176e-02
8.310000000000000000e+02 5.532447099685668945e-01 9.204295158386230469e+00 -5.660241586156189442e-04 -1.325416415929794312e-01 -3.993229940533638000e-02 1.618272438645362854e-02
8.320000000000000000e+02 5.820551514625549316e-01 1.201491451263427734e+01 8.501098636770620942e-05 -2.134606540203094482e-01 -6.401269137859344482e-02 1.597361639142036438e-02
8.330000000000000000e+02 1.744832515716552734e+00 1.183125019073486328e+01 2.231970429420471191e-03 -2.042367607355117798e-01 -6.060143560171127319e-02 4.582564160227775574e-02
8.340000000000000000e+02 6.155281066894531250e-01 1.624173164367675781e+01 8.344638044945895672e-04 -3.132658898830413818e-01 -9.372942894697189331e-02 1.194898784160614014e-02
8.350000000000000000e+02 6.242733597755432129e-01 1.765242004394531250e+01 6.649233400821685791e-04 -3.384808897972106934e-01 -1.013447940349578857e-01 1.026333775371313095e-02
8.360000000000000000e+02 6.482189893722534180e-01 2.188606834411621094e+01 6.951842806302011013e-04 -3.906431794166564941e-01 -1.169843971729278564e-01 5.636971443891525269e-03
8.370000000000000000e+02 6.555523872375488281e-01 2.329971313476562500e+01 7.330289809033274651e-04 -4.010662734508514404e-01 -1.200999692082405090e-01 4.071041010320186615e-03
8.380000000000000000e+02 6.582096815109252930e-01 2.471544837951660156e+01 1.953957253135740757e-04 -4.087870717048645020e-01 -1.225775033235549927e-01 3.180362982675433159e-03
8.390000000000000000e+02 6.381316184997558594e-01 2.894205856323242188e+01 6.156454910524189472e-04 -4.199149310588836670e-01 -1.257897913455963135e-01 5.789342103525996208e-04
8.400000000000000000e+02 6.495422720909118652e-01 3.035132408142089844e+01 3.338517126394435763e-05 -4.204788506031036377e-01 -1.261336356401443481e-01 -1.495759715908206999e-05
8.410000000000000000e+02 1.932506084442138672e+00 3.007241439819335938e+01 1.818192424252629280e-03 -3.837768435478210449e-01 -1.145875975489616394e-01 5.518465768545866013e-04
8.420000000000000000e+02 6.726661324501037598e-01 3.175007057189941406e+01 6.764384452253580093e-04 -4.194092154502868652e-01 -1.256198287010192871e-01 -9.125843644142150879e-04
8.430000000000000000e+02 7.328042984008789062e-01 3.590703582763671875e+01 2.930947994173038751e-05 -4.091617465019226074e-01 -1.227397322654724121e-01 -2.653941744938492775e-03
8.440000000000000000e+02 2.669171094894409180e+00 3.796200180053710938e+01 3.992581740021705627e-03 -3.659875690937042236e-01 -1.085985004901885986e-01 -1.040165219455957413e-02
8.450000000000000000e+02 9.859697222709655762e-01 3.867433547973632812e+01 4.328636568970978260e-04 -3.912966847419738770e-01 -1.172591522336006165e-01 -6.467470899224281311e-03
8.460000000000000000e+02 1.341474413871765137e+00 4.006135177612304688e+01 2.095689997076988220e-03 -3.812087178230285645e-01 -1.137339100241661072e-01 -8.552148938179016113e-03
8.470000000000000000e+02 1.002621078491210938e+01 1.975746273994445801e+00 -2.027917504310607910e-01 -1.339121907949447632e-01 -1.010111793875694275e-01 1.804278045892715454e-01
8.480000000000000000e+02 9.215265274047851562e+00 1.906418204307556152e+00 -1.830711513757705688e-01 -9.609021246433258057e-02 -8.374840766191482544e-02 1.597809791564941406e-01
8.490000000000000000e+02 8.463785171508789062e+00 1.874699473381042480e+00 -1.757554262876510620e-01 -5.854582041501998901e-02 -7.029037177562713623e-02 1.343443095684051514e-01
8.500000000000000000e+02 7.725079059600830078e+00 2.590427875518798828e+00 -1.316847354173660278e-01 -6.192064285278320312e-02 -5.808161199092864990e-02 1.286662369966506958e-01
8.510000000000000000e+02 6.990252017974853516e+00 1.867129325866699219e+00 -1.144497618079185486e-01 -2.931813336908817291e-02 -4.313036799430847168e-02 8.183675259351730347e-02
8.520000000000000000e+02 4.777528762817382812e+00 1.910327792167663574e+00 -4.936098679900169373e-02 -1.525778323411941528e-02 -1.938563026487827301e-02 3.816847503185272217e-02
8.530000000000000000e+02 4.037530899047851562e+00 1.931762695312500000e+00 -3.504224121570587158e-02 -1.487767323851585388e-02 -1.497597526758909225e-02 2.839151024818420410e-02
8.540000000000000000e+02 3.302071094512939453e+00 1.951667547225952148e+00 -2.396129257977008820e-02 -1.209824997931718826e-02 -1.081786304712295532e-02 1.884979568421840668e-02
8.550000000000000000e+02 1.841891288757324219e+00 1.997562766075134277e+00 -8.147040382027626038e-03 -9.536835364997386932e-03 -5.305162630975246429e-03 5.893409252166748047e-03
8.560000000000000000e+02 1.108767151832580566e+00 2.071154594421386719e+00 -2.722744131460785866e-03 -4.142573568969964981e-03 -2.059595426544547081e-03 4.638461105059832335e-04
8.570000000000000000e+02 1.322726249694824219e+01 6.801965832710266113e-01 -3.384068608283996582e-01 -2.338946461677551270e-01 -1.716904491186141968e-01 2.691021263599395752e-01
8.580000000000000000e+02 1.554373455047607422e+01 1.080136895179748535e+00 -2.484872937202453613e-01 -3.323312699794769287e-01 -1.742455810308456421e-01 2.826996445655822754e-01
8.590000000000000000e+02 1.607221794128417969e+01 -8.943513631820678711e-01 -4.211524724960327148e-01 -3.566723763942718506e-01 -2.333474606275558472e-01 3.533886969089508057e-01
8.600000000000000000e+02 1.804184913635253906e+01 -2.306094646453857422e+00 -4.557014703750610352e-01 -4.511433243751525879e-01 -2.720534503459930420e-01 4.064489603042602539e-01
8.610000000000000000e+02 2.102599334716796875e+01 -5.012782573699951172e+00 -4.527761042118072510e-01 -5.573194026947021484e-01 -3.030286431312561035e-01 4.446583092212677002e-01
8.620000000000000000e+02 2.155694580078125000e+01 -5.620097160339355469e+00 -4.432750642299652100e-01 -5.646035671234130859e-01 -3.023636043071746826e-01 4.466080367565155029e-01
8.630000000000000000e+02 2.253731536865234375e+01 -6.884739875793457031e+00 -4.202558398246765137e-01 -5.670763850212097168e-01 -2.961996793746948242e-01 4.452137351036071777e-01
8.640000000000000000e+02 2.389636421203613281e+01 -8.840806961059570312e+00 -3.750012218952178955e-01 -5.158628821372985840e-01 -2.672592401504516602e-01 4.204775094985961914e-01
8.650000000000000000e+02 2.431493568420410156e+01 -9.511951446533203125e+00 -3.540450632572174072e-01 -4.858748912811279297e-01 -2.519759833812713623e-01 4.108279645442962646e-01
8.660000000000000000e+02 2.472961807250976562e+01 -1.018804168701171875e+01 -3.365503847599029541e-01 -4.455710351467132568e-01 -2.346364408731460571e-01 3.968045115470886230e-01
8.670000000000000000e+02 2.577679061889648438e+01 -1.221803188323974609e+01 -2.786158919334411621e-01 -3.110735416412353516e-01 -1.769068241119384766e-01 3.652688860893249512e-01
8.680000000000000000e+02 2.640913009643554688e+01 -1.180326461791992188e+01 -3.097167909145355225e-01 -2.618443667888641357e-01 -1.714683473110198975e-01 3.775021433830261230e-01
8.690000000000000000e+02 2.644030189514160156e+01 -1.357447910308837891e+01 -2.380732297897338867e-01 -2.192878425121307373e-01 -1.372083127498626709e-01 3.183966577053070068e-01
8.700000000000000000e+02 2.677702522277832031e+01 -1.425643157958984375e+01 -2.363233119249343872e-01 -1.687470823526382446e-01 -1.215211153030395508e-01 2.982267141342163086e-01
8.710000000000000000e+02 2.739458465576171875e+01 -1.565061950683593750e+01 -2.589715421199798584e-01 -1.086969152092933655e-01 -1.103005334734916687e-01 2.299123406410217285e-01
8.720000000000000000e+02 3.035391044616699219e+01 -1.741783523559570312e+01 -4.670256078243255615e-01 -4.744491726160049438e-02 -1.543411612510681152e-01 1.698651164770126343e-01
8.730000000000000000e+02 3.676747512817382812e+01 -1.805393981933593750e+01 -1.672218561172485352e+00 -1.181973740458488464e-01 -5.371247529983520508e-01 3.132852315902709961e-01
8.740000000000000000e+02 4.018910598754882812e+01 -1.942808532714843750e+01 -9.362561702728271484e-01 -2.592532038688659668e-01 -3.586528301239013672e-01 5.181956291198730469e-01
8.750000000000000000e+02 4.179255676269531250e+01 -2.001300621032714844e+01 -8.644935488700866699e-01 1.176728084683418274e-01 -2.240462154150009155e-01 3.011824488639831543e-01
8.760000000000000000e+02 4.513105392456054688e+01 -1.830402374267578125e+01 -1.394257545471191406e+00 1.616624593734741211e-01 -3.697785139083862305e-01 4.891021251678466797e-01
8.770000000000000000e+02 4.538698196411132812e+01 -1.897204399108886719e+01 -1.615907430648803711e+00 1.556905955076217651e-01 -4.380650520324707031e-01 3.057482242584228516e-01
8.780000000000000000e+02 4.763032913208007812e+01 -1.847078895568847656e+01 -2.150358915328979492e+00 5.403925478458404541e-02 -6.288958787918090820e-01 4.279894232749938965e-01
8.790000000000000000e+02 4.837594223022460938e+01 -1.831818389892578125e+01 -2.269087076187133789e+00 1.358272284269332886e-01 -6.399779319763183594e-01 4.112037420272827148e-01
8.800000000000000000e+02 4.911528396606445312e+01 -1.816963195800781250e+01 -2.505353212356567383e+00 4.015761613845825195e-02 -7.395586967468261719e-01 5.695788264274597168e-01
8.810000000000000000e+02 5.058607864379882812e+01 -1.786831474304199219e+01 -2.717611312866210938e+00 4.191495850682258606e-02 -8.027088642120361328e-01 7.676457762718200684e-01
8.820000000000000000e+02 5.132357406616210938e+01 -1.770994377136230469e+01 -2.458532571792602539e+00 1.850714236497879028e-01 -6.820383071899414062e-01 5.679745078086853027e-01
8.830000000000000000e+02 5.308520507812500000e+01 -1.602585601806640625e+01 4.166227817535400391e+00 1.162221193313598633e+00 1.598534703254699707e+00 -8.508907556533813477e-01
8.840000000000000000e+02 5.475909423828125000e+01 -1.602451896667480469e+01 1.030368900299072266e+01 3.395000696182250977e+00 4.109607219696044922e+00 -4.594350814819335938e+00
8.850000000000000000e+02 5.711771774291992188e+01 -1.652199935913085938e+01 5.763710498809814453e+00 2.274164259433746338e-01 1.797338128089904785e+00 -1.851656436920166016e+00
8.860000000000000000e+02 5.778693008422851562e+01 -1.632861900329589844e+01 5.104461669921875000e+00 -1.766747832298278809e+00 1.001314163208007812e+00 -2.637231349945068359e+00
8.870000000000000000e+02 5.778329849243164062e+01 -1.643622779846191406e+01 2.974126338958740234e+00 -1.325319170951843262e+00 4.946421384811401367e-01 -4.772458553314208984e+00
8.880000000000000000e+02 5.852659225463867188e+01 -1.586645793914794922e+01 -4.017881393432617188e+00 -2.889767646789550781e+00 -2.072294712066650391e+00 -2.926534652709960938e+00
8.890000000000000000e+02 5.918049240112304688e+01 -1.559741497039794922e+01 -6.817370891571044922e+00 -1.535763621330261230e+00 -2.505940437316894531e+00 -8.014565467834472656e+00
8.900000000000000000e+02 5.970670700073242188e+01 -1.531241989135742188e+01 -1.220339679718017578e+01 -9.602818489074707031e+00 -6.541864871978759766e+00 -6.952433586120605469e+00
8.910000000000000000e+02 5.916436004638671875e+01 -1.536340332031250000e+01 -1.249283504486083984e+01 -3.777618885040283203e+00 -4.881135940551757812e+00 -8.766860961914062500e+00
8.920000000000000000e+02 5.953665542602539062e+01 -1.540128326416015625e+01 -5.652051925659179688e+00 -4.908651828765869141e+00 -3.168211221694946289e+00 -8.545738220214843750e+00
8.930000000000000000e+02 6.020453262329101562e+01 -1.483895397186279297e+01 -1.551672267913818359e+01 -2.435642719268798828e+00 -5.385709762573242188e+00 -6.949812412261962891e+00
8.940000000000000000e+02 6.053654098510742188e+01 -1.845935821533203125e+01 5.866192579269409180e-01 4.390528202056884766e+00 1.493144273757934570e+00 1.648578286170959473e+00
8.950000000000000000e+02 6.072286987304687500e+01 -1.841805839538574219e+01 5.797274112701416016e-01 4.639253616333007812e+00 1.565694332122802734e+00 1.381333947181701660e+00
8.960000000000000000e+02 5.925457763671875000e+01 -1.933032035827636719e+01 -3.520934656262397766e-02 2.215754270553588867e+00 6.541634798049926758e-01 1.871742725372314453e+00
8.970000000000000000e+02 5.888947296142578125e+01 -1.953618621826171875e+01 -2.889842092990875244e-01 1.937467932701110840e+00 4.945451021194458008e-01 1.742317914962768555e+00
8.980000000000000000e+02 5.911323928833007812e+01 -1.977995681762695312e+01 -3.946184217929840088e-01 2.261534214019775391e+00 5.600747466087341309e-01 1.832472801208496094e+00
8.990000000000000000e+02 5.708417892456054688e+01 -2.027061653137207031e+01 -1.059888839721679688e+00 1.112479329109191895e+00 1.577714644372463226e-02 1.073016047477722168e+00
9.000000000000000000e+02 5.917802047729492188e+01 -2.484381294250488281e+01 1.401601314544677734e+00 1.970763444900512695e+00 1.011709451675415039e+00 1.829273819923400879e+00
9.010000000000000000e+02 5.512962722778320312e+01 -2.078004646301269531e+01 -1.446320652961730957e+00 5.587395429611206055e-01 -2.662743330001831055e-01 3.151144385337829590e-01
9.020000000000000000e+02 5.531811904907226562e+01 -2.142024421691894531e+01 -1.118790268898010254e+00 9.005131721496582031e-01 -6.548313796520233154e-02 4.819486737251281738e-01
9.030000000000000000e+02 5.291977310180664062e+01 -2.122748565673828125e+01 -1.595824480056762695e+00 1.412049084901809692e-01 -4.363858699798583984e-01 -3.508750200271606445e-01
9.040000000000000000e+02 4.996709823608398438e+01 -2.181176757812500000e+01 -1.266201853752136230e+00 -1.294768452644348145e-01 -4.187035858631134033e-01 -7.061252593994140625e-01
9.050000000000000000e+02 4.924000930786132812e+01 -2.195074844360351562e+01 -1.146862745285034180e+00 -1.632260233163833618e-01 -3.930266201496124268e-01 -7.245854735374450684e-01
9.060000000000000000e+02 4.640332412719726562e+01 -2.261492538452148438e+01 -5.878722071647644043e-01 -2.636666297912597656e-01 -2.554616630077362061e-01 -6.876990199089050293e-01
9.070000000000000000e+02 4.710453414916992188e+01 -2.241856384277343750e+01 -7.274628281593322754e-01 -2.460007965564727783e-01 -2.920390963554382324e-01 -7.227306962013244629e-01
9.080000000000000000e+02 4.497533798217773438e+01 -2.304689407348632812e+01 -3.216292560100555420e-01 -3.260980248451232910e-01 -1.943181902170181274e-01 -5.960659980773925781e-01
9.090000000000000000e+02 7.264002227783203125e+01 -2.838611030578613281e+01 9.923373460769653320e-01 1.000416374206542969e+01 3.298950195312500000e+00 1.918160319328308105e-01
9.100000000000000000e+02 7.089897918701171875e+01 -3.044581604003906250e+01 8.827201724052429199e-01 6.748981952667236328e+00 2.289510488510131836e+00 2.080264806747436523e+00
9.110000000000000000e+02 6.693695831298828125e+01 -3.397502136230468750e+01 -1.253788471221923828e+00 -1.465793792158365250e-02 -3.805339336395263672e-01 -3.980086743831634521e-01
9.120000000000000000e+02 5.600691223144531250e+01 -2.129175949096679688e+01 -1.089463114738464355e+00 1.181510567665100098e+00 2.761423774063587189e-02 8.260386586189270020e-01
9.130000000000000000e+02 5.970121002197265625e+01 -2.389743041992187500e+01 4.447049498558044434e-01 1.876901268959045410e+00 6.964818835258483887e-01 1.400388121604919434e+00
9.140000000000000000e+02 6.478392791748046875e+01 3.422822189331054688e+01 -8.370725512504577637e-01 8.676531165838241577e-02 -2.250921726226806641e-01 2.891354560852050781e-01
9.150000000000000000e+02 6.851012420654296875e+01 2.981297111511230469e+01 8.884068727493286133e-01 5.175560474395751953e+00 1.819190144538879395e+00 -1.774334192276000977e+00
9.160000000000000000e+02 6.947585296630859375e+01 2.708691787719726562e+01 4.786686003208160400e-01 8.644009590148925781e+00 2.736803531646728516e+00 -1.477429389953613281e+00
9.170000000000000000e+02 6.992509460449218750e+01 2.285246276855468750e+01 1.308643072843551636e-01 1.010034084320068359e+01 3.069361686706542969e+00 -1.415901035070419312e-01
9.180000000000000000e+02 6.996327972412109375e+01 1.865802574157714844e+01 -5.917613394558429718e-03 9.877655982971191406e+00 2.961521625518798828e+00 3.480958193540573120e-02
9.190000000000000000e+02 6.999285888671875000e+01 1.442883205413818359e+01 2.195716947317123413e-01 1.036651706695556641e+01 3.175826787948608398e+00 3.639590740203857422e-01
9.200000000000000000e+02 6.986494445800781250e+01 1.303106403350830078e+01 2.869815006852149963e-02 9.182352066040039062e+00 2.763314962387084961e+00 5.141624212265014648e-01
9.210000000000000000e+02 7.140318298339843750e+01 4.773226261138916016e+00 2.279919534921646118e-01 1.095540046691894531e+01 3.355017662048339844e+00 4.915537685155868530e-02
9.220000000000000000e+02 6.995395660400390625e+01 5.121320486068725586e-01 5.838121175765991211e-01 1.169481658935546875e+01 3.683588504791259766e+00 1.714463710784912109e+00
9.230000000000000000e+02 6.883042907714843750e+01 -3.580437660217285156e+00 6.579878330230712891e-01 7.048217296600341797e+00 2.311861515045166016e+00 1.946625947952270508e+00
9.240000000000000000e+02 6.833044433593750000e+01 -4.906659126281738281e+00 6.487655043601989746e-01 5.841123580932617188e+00 1.946966648101806641e+00 1.815240740776062012e+00
9.250000000000000000e+02 6.959347534179687500e+01 -8.140822410583496094e+00 -2.333005145192146301e-02 5.338871002197265625e+00 1.594662308692932129e+00 5.521162152290344238e-01
9.260000000000000000e+02 6.409012603759765625e+01 -1.244911670684814453e+01 -4.608108848333358765e-02 9.965142607688903809e-01 2.851299345493316650e-01 5.809308290481567383e-01
9.270000000000000000e+02 6.213833618164062500e+01 -1.517344188690185547e+01 -1.833173274993896484e+00 2.248964071273803711e+00 1.247372031211853027e-01 3.159693956375122070e+00
9.280000000000000000e+02 5.935899734497070312e+01 -1.549886131286621094e+01 -6.096199035644531250e+00 -3.484416484832763672e+00 -2.874184846878051758e+00 -9.072351455688476562e+00
9.290000000000000000e+02 5.055114746093750000e+01 -8.751802444458007812e+00 3.477978408336639404e-01 2.278233051300048828e+00 7.878092527389526367e-01 -8.410112261772155762e-01
9.300000000000000000e+02 5.013658523559570312e+01 -7.432673454284667969e+00 2.444376647472381592e-01 1.978109240531921387e+00 6.667640805244445801e-01 -7.386350631713867188e-01
9.310000000000000000e+02 4.761422729492187500e+01 -3.858558654785156250e+00 2.432611435651779175e-01 1.311548948287963867e+00 4.664430320262908936e-01 -6.434856057167053223e-01
9.320000000000000000e+02 4.777606582641601562e+01 -9.337146282196044922e-01 2.560383081436157227e-01 1.229998588562011719e+00 4.458110630512237549e-01 -5.733683109283447266e-01
9.330000000000000000e+02 4.717662429809570312e+01 3.116809427738189697e-01 2.763504087924957275e-01 1.219650030136108398e+00 4.488001167774200439e-01 -6.120765209197998047e-01
9.340000000000000000e+02 4.655091476440429688e+01 1.550480723381042480e+00 3.205868005752563477e-01 1.216782808303833008e+00 4.612108767032623291e-01 -6.151092648506164551e-01
9.350000000000000000e+02 4.523186874389648438e+01 3.996404647827148438e+00 3.728718161582946777e-01 1.232600331306457520e+00 4.816416501998901367e-01 -6.681260466575622559e-01
9.360000000000000000e+02 4.274760437011718750e+01 9.067941665649414062e+00 3.184367120265960693e-01 2.006552457809448242e+00 6.974967122077941895e-01 -6.246511936187744141e-01
9.370000000000000000e+02 4.225478363037109375e+01 1.188687419891357422e+01 8.584877848625183105e-02 1.978284001350402832e+00 6.192398071289062500e-01 -1.022210866212844849e-01
9.380000000000000000e+02 4.228012466430664062e+01 1.331234931945800781e+01 3.081056103110313416e-02 1.686725258827209473e+00 5.152607560157775879e-01 2.964043989777565002e-02
9.390000000000000000e+02 4.252144622802734375e+01 1.614486122131347656e+01 7.033966481685638428e-02 1.475150704383850098e+00 4.636471271514892578e-01 1.676087528467178345e-01
9.400000000000000000e+02 4.351324081420898438e+01 2.028417205810546875e+01 9.932083636522293091e-02 1.032229423522949219e+00 3.394650816917419434e-01 2.745693624019622803e-01
9.410000000000000000e+02 4.396002578735351562e+01 2.163275527954101562e+01 1.150275543332099915e-01 9.388397932052612305e-01 3.161602020263671875e-01 2.940750420093536377e-01
9.420000000000000000e+02 4.508300781250000000e+01 2.424386978149414062e+01 1.418212056159973145e-01 6.877865195274353027e-01 2.488823086023330688e-01 2.951239347457885742e-01
9.430000000000000000e+02 4.720559692382812500e+01 2.796422576904296875e+01 1.414880752563476562e-01 4.041026830673217773e-01 1.636772304773330688e-01 2.194367945194244385e-01
9.440000000000000000e+02 5.206658935546875000e+01 3.369296264648437500e+01 -2.981353364884853363e-02 9.201458841562271118e-02 1.866031624376773834e-02 3.196372836828231812e-02
9.450000000000000000e+02 5.822710418701171875e+01 -1.613678169250488281e+01 6.066406369209289551e-01 -2.537717819213867188e+00 -5.793231129646301270e-01 -2.903281927108764648e+00
9.460000000000000000e+02 5.808980178833007812e+01 -1.604186630249023438e+01 9.654750823974609375e-01 -2.746042013168334961e+00 -5.341700911521911621e-01 -3.781409025192260742e+00
9.470000000000000000e+02 5.941595458984375000e+01 -1.919061279296875000e+01 8.298081159591674805e-02 2.415567636489868164e+00 7.495645284652709961e-01 1.892259359359741211e+00
9.480000000000000000e+02 5.869234085083007812e+01 -1.968987274169921875e+01 -4.026660621166229248e-01 1.942404389381408691e+00 4.619215130805969238e-01 1.705429077148437500e+00
9.490000000000000000e+02 5.828310394287109375e+01 -1.985970306396484375e+01 -5.595455765724182129e-01 1.661789655685424805e+00 3.306732177734375000e-01 1.585183143615722656e+00
9.500000000000000000e+02 6.547015380859375000e+01 -2.093840789794921875e+01 -1.446625351905822754e+00 -1.603208831511437893e-03 -4.344685673713684082e-01 -2.771147489547729492e-01
9.510000000000000000e+02 6.142806625366210938e+01 -1.818715095520019531e+01 1.433371663093566895e+00 4.968046188354492188e+00 1.920425295829772949e+00 -2.626796662807464600e-01
9.520000000000000000e+02 4.156589508056640625e+01 -1.923833465576171875e+01 -1.052869319915771484e+00 1.191024705767631531e-01 -2.801300287246704102e-01 4.269967079162597656e-01
9.530000000000000000e+02 5.901674270629882812e+01 -2.275782775878906250e+01 -5.675337910652160645e-01 2.387915134429931641e+00 5.461143851280212402e-01 1.612167596817016602e+00
9.540000000000000000e+02 5.733308792114257812e+01 -2.091156959533691406e+01 -9.785035252571105957e-01 1.653458237648010254e+00 2.024863958358764648e-01 1.357551693916320801e+00
9.550000000000000000e+02 5.788261413574218750e+01 -2.058574676513671875e+01 -8.970803618431091309e-01 1.736544966697692871e+00 2.518393695354461670e-01 1.572977542877197266e+00
9.560000000000000000e+02 5.439495849609375000e+01 -2.092737197875976562e+01 -1.534219503402709961e+00 3.483901321887969971e-01 -3.557488322257995605e-01 3.206450864672660828e-02
9.570000000000000000e+02 5.669774246215820312e+01 -2.116834259033203125e+01 -1.003750920295715332e+00 1.360152602195739746e+00 1.069205254316329956e-01 1.105147361755371094e+00
9.580000000000000000e+02 4.316107940673828125e+01 -1.959830093383789062e+01 -1.185280323028564453e+00 2.165561467409133911e-01 -2.906172573566436768e-01 2.941460609436035156e-01
9.590000000000000000e+02 3.930202865600585938e+01 -1.889874076843261719e+01 -1.273595213890075684e+00 -4.792745113372802734e-01 -5.258609056472778320e-01 6.611704230308532715e-01
9.600000000000000000e+02 1.632069778442382812e+01 -5.595609188079833984e+00 7.011085108388215303e-05 4.024828740512020886e-05 3.310773900011554360e-05 2.352461888222023845e-05
9.610000000000000000e+02 1.577865219116210938e+01 -5.179389953613281250e+00 -6.506970385089516640e-05 -4.760313822771422565e-05 -3.380185444257222116e-05 -2.529859557398594916e-05
9.620000000000000000e+02 1.407413673400878906e+01 -4.016767501831054688e+00 5.883970516151748598e-05 5.571555811911821365e-05 3.436657789279706776e-05 2.830215453286655247e-05
9.630000000000000000e+02 1.591507530212402344e+01 -6.075088500976562500e+00 -8.171170338755473495e-05 -3.503695552353747189e-05 -3.502459730952978134e-05 -5.297160896589048207e-06
9.640000000000000000e+02 1.540945529937744141e+01 -5.674459934234619141e+00 7.180468674050644040e-05 4.702949809143319726e-05 3.565025690477341413e-05 1.085862186300801113e-05
9.650000000000000000e+02 1.825665664672851562e+01 -7.535409450531005859e+00 6.979250611038878560e-05 2.718023642955813557e-05 2.909182148869149387e-05 2.406072599114850163e-05
9.660000000000000000e+02 1.720831680297851562e+01 -1.088235950469970703e+01 -7.203748100437223911e-05 -1.124265108956024051e-04 -5.533919829758815467e-05 -6.655379365838598460e-06
9.670000000000000000e+02 1.372156047821044922e+01 -4.627079010009765625e+00 -7.443414506269618869e-05 -5.682147093466483057e-05 -3.937668589060194790e-05 -2.555105675128288567e-05
9.680000000000000000e+02 1.153303432464599609e+01 -2.669963121414184570e+00 3.654260217444971204e-05 8.413437171839177608e-05 3.620309144025668502e-05 2.729715743043925613e-05
9.690000000000000000e+02 1.310980892181396484e+01 -4.303418636322021484e+00 7.069823914207518101e-05 6.050020238035358489e-05 3.935953282052651048e-05 2.164024590456392616e-05
9.700000000000000000e+02 1.934213256835937500e+01 -1.033092212677001953e+01 -4.784528573509305716e-05 -7.438469765475019813e-05 -3.666899647214449942e-05 -3.458010905887931585e-05
9.710000000000000000e+02 1.913534355163574219e+01 -8.619052886962890625e+00 5.811587470816448331e-05 2.868438787118066102e-05 2.604007931950036436e-05 3.159455445711500943e-05
9.720000000000000000e+02 1.956497764587402344e+01 -9.189064979553222656e+00 -4.855027873418293893e-05 -3.786713568842969835e-05 -2.592522469058167189e-05 -3.115876825177110732e-05
9.730000000000000000e+02 1.786162185668945312e+01 -1.115629005432128906e+01 -1.631804843782447278e-05 7.066078978823497891e-05 1.630282167752739042e-05 3.512686816975474358e-05
9.740000000000000000e+02 2.039604949951171875e+01 -1.144909095764160156e+01 -6.083504922571592033e-05 -9.290594789490569383e-06 -2.103769293171353638e-05 -1.519895590718078893e-06
9.750000000000000000e+02 1.979266738891601562e+01 -1.094799709320068359e+01 5.575926843448542058e-05 8.229767990997061133e-05 4.141708268434740603e-05 -1.069812242349144071e-05
9.760000000000000000e+02 4.507904815673828125e+01 -2.472659111022949219e+01 -9.237338602542877197e-02 -5.326751470565795898e-01 -1.875145584344863892e-01 -7.087833285331726074e-01
9.770000000000000000e+02 4.343557357788085938e+01 -2.356251144409179688e+01 -1.079982519149780273e-01 -3.811095058917999268e-01 -1.467323303222656250e-01 -3.713231086730957031e-01
9.780000000000000000e+02 4.674649429321289062e+01 -2.339275932312011719e+01 -3.952947854995727539e-01 -3.138577342033386230e-01 -2.127457559108734131e-01 -7.880879044532775879e-01
9.790000000000000000e+02 4.365816116333007812e+01 -2.568459701538085938e+01 -1.499640755355358124e-02 -8.328488469123840332e-01 -2.543535828590393066e-01 -5.410142540931701660e-01
9.800000000000000000e+02 2.154186630249023438e+01 -1.351606750488281250e+01 -1.594496097823139280e-05 4.969940709997899830e-05 1.012633401842322201e-05 8.415621778112836182e-06
9.810000000000000000e+02 4.743367767333984375e+01 -2.314961814880371094e+01 -5.143330097198486328e-01 -2.619341909885406494e-01 -2.328801602125167847e-01 -7.908034324645996094e-01
9.820000000000000000e+02 4.909733200073242188e+01 -2.343327140808105469e+01 -4.404910504817962646e-01 -1.342360526323318481e-01 -1.724181324243545532e-01 -7.877854108810424805e-01
9.830000000000000000e+02 4.852389907836914062e+01 -2.209697723388671875e+01 -1.006185650825500488e+00 -2.020689398050308228e-01 -3.624763488769531250e-01 -7.451995611190795898e-01
9.840000000000000000e+02 4.880536270141601562e+01 -2.277535438537597656e+01 -7.190927267074584961e-01 -1.773092746734619141e-01 -2.689206004142761230e-01 -7.735768556594848633e-01
9.850000000000000000e+02 5.070490646362304688e+01 -2.167687606811523438e+01 -1.391089677810668945e+00 -6.662018597126007080e-02 -4.373129606246948242e-01 -6.489284038543701172e-01
9.860000000000000000e+02 5.522001647949218750e+01 -1.681308937072753906e+01 6.739958763122558594e+00 2.813803434371948242e+00 2.866128683090209961e+00 -2.084431648254394531e+00
9.870000000000000000e+02 5.378612899780273438e+01 -1.526202487945556641e+01 6.235057353973388672e+00 3.929829835891723633e+00 3.049466133117675781e+00 -4.371287822723388672e+00
9.880000000000000000e+02 5.103445053100585938e+01 -1.690426445007324219e+01 -8.836343884468078613e-01 7.962391525506973267e-02 -2.412031441926956177e-01 9.673836827278137207e-01
9.890000000000000000e+02 5.205525207519531250e+01 -1.755620384216308594e+01 -2.422005891799926758e+00 1.036285329610109329e-02 -7.234929203987121582e-01 8.878003954887390137e-01
9.900000000000000000e+02 8.410198211669921875e+00 3.350706338882446289e+00 -1.249402165412902832e-01 -1.030443161725997925e-01 -6.839536130428314209e-02 1.630614101886749268e-01
9.910000000000000000e+02 8.448749542236328125e+00 2.610121965408325195e+00 -1.410786360502243042e-01 -8.587077260017395020e-02 -6.808482110500335693e-02 1.507012099027633667e-01
9.920000000000000000e+02 1.597140192985534668e+00 7.668093681335449219e+00 -2.729809843003749847e-03 -1.025887429714202881e-01 -3.159556537866592407e-02 4.241649061441421509e-02
9.930000000000000000e+02 5.517660617828369141e+00 1.892005324363708496e+00 -6.734694540500640869e-02 -1.921510882675647736e-02 -2.596861682832241058e-02 5.097702890634536743e-02
9.940000000000000000e+02 9.183376312255859375e+00 2.680642127990722656e+00 -1.588028967380523682e-01 -1.102533712983131409e-01 -8.071687817573547363e-02 1.708495467901229858e-01
9.950000000000000000e+02 7.726385593414306641e+00 1.864497065544128418e+00 -1.415505111217498779e-01 -3.566039726138114929e-02 -5.316327512264251709e-02 1.004472449421882629e-01
9.960000000000000000e+02 6.995186328887939453e+00 2.604686498641967773e+00 -1.079603210091590881e-01 -4.640883952379226685e-02 -4.631074890494346619e-02 1.037583798170089722e-01
9.970000000000000000e+02 7.717014312744140625e+00 3.320091724395751953e+00 -1.080757454037666321e-01 -8.626703917980194092e-02 -5.830283463001251221e-02 1.435706019401550293e-01
9.980000000000000000e+02 1.710028886795043945e+00 3.798937082290649414e+00 -8.644375018775463104e-03 -2.623664774000644684e-02 -1.046430692076683044e-02 1.983145065605640411e-02
9.990000000000000000e+02 4.042686939239501953e+00 3.700756311416625977e+00 -3.921907767653465271e-02 -4.569308087229728699e-02 -2.547364681959152222e-02 5.897771939635276794e-02
1.000000000000000000e+03 1.212247490882873535e+00 3.178949594497680664e+00 -5.625037010759115219e-03 -1.430033612996339798e-02 -5.977611988782882690e-03 9.436949156224727631e-03
1.001000000000000000e+03 2.572048187255859375e+00 1.969842076301574707e+00 -1.576158776879310608e-02 -1.092812232673168182e-02 -8.006912656128406525e-03 1.207485049962997437e-02
1.002000000000000000e+03 1.872620105743408203e+00 2.934969186782836914e+00 -1.280930824577808380e-02 -1.751453988254070282e-02 -9.097154252231121063e-03 1.490823552012443542e-02
1.003000000000000000e+03 2.610730552673339844e+01 -1.289519119262695312e+01 -2.582229375839233398e-01 -2.729168832302093506e-01 -1.593419462442398071e-01 3.444704115390777588e-01
1.004000000000000000e+03 2.675843811035156250e+01 -1.248324298858642578e+01 -2.939025163650512695e-01 -2.235973924398422241e-01 -1.552499681711196899e-01 3.711747527122497559e-01
1.005000000000000000e+03 2.711589241027832031e+01 -1.494787979125976562e+01 -2.354950904846191406e-01 -1.453317850828170776e-01 -1.142480596899986267e-01 2.655552327632904053e-01
1.006000000000000000e+03 2.605700111389160156e+01 -1.112352085113525391e+01 -3.201194107532501221e-01 -2.966780066490173340e-01 -1.850392222404479980e-01 3.864704072475433350e-01
1.007000000000000000e+03 2.510785102844238281e+01 -1.086561775207519531e+01 -3.160722553730010986e-01 -4.008918702602386475e-01 -2.150892317295074463e-01 3.841613829135894775e-01
1.008000000000000000e+03 2.800907707214355469e+01 -1.162435150146484375e+01 -3.223427236080169678e-01 -1.665828227996826172e-01 -1.466776579618453979e-01 3.972268700599670410e-01
1.009000000000000000e+03 2.711835670471191406e+01 -1.316531085968017578e+01 -2.891522645950317383e-01 -1.900667995214462280e-01 -1.437657177448272705e-01 3.592690825462341309e-01
1.010000000000000000e+03 2.568694114685058594e+01 -1.044430351257324219e+01 -3.374597132205963135e-01 -3.334806263446807861e-01 -2.012820988893508911e-01 3.871280550956726074e-01
1.011000000000000000e+03 3.092082023620605469e+01 -1.653804206848144531e+01 -5.020835399627685547e-01 -2.316924370825290680e-02 -1.575758308172225952e-01 2.247894853353500366e-01
1.012000000000000000e+03 2.788176155090332031e+01 -1.455036258697509766e+01 -2.949079275131225586e-01 -1.341494768857955933e-01 -1.287172138690948486e-01 3.093076050281524658e-01
1.013000000000000000e+03 5.144517135620117188e+01 -2.153769683837890625e+01 -1.474660396575927734e+00 -2.717315964400768280e-02 -4.505500495433807373e-01 -5.726693272590637207e-01
1.014000000000000000e+03 5.827450942993164062e+01 -2.571309661865234375e+01 2.199636459350585938e+00 2.755633592605590820e+00 1.486581087112426758e+00 2.311301469802856445e+00
1.015000000000000000e+03 5.173168563842773438e+01 -2.223774909973144531e+01 -1.028359532356262207e+00 1.352956295013427734e-01 -2.679191529750823975e-01 -5.033851265907287598e-01
1.016000000000000000e+03 4.950729370117187500e+01 -2.262486076354980469e+01 -7.996066808700561523e-01 -1.331195384263992310e-01 -2.798178493976593018e-01 -7.596916556358337402e-01
1.017000000000000000e+03 5.022724151611328125e+01 -2.249169540405273438e+01 -8.876708745956420898e-01 -5.517025664448738098e-02 -2.828523516654968262e-01 -6.982284188270568848e-01
1.018000000000000000e+03 5.028231048583984375e+01 -1.712133789062500000e+01 -1.030991673469543457e+00 1.298465877771377563e-01 -2.703435420989990234e-01 7.062651515007019043e-01
1.019000000000000000e+03 4.954865646362304688e+01 -1.729315948486328125e+01 -1.517377138137817383e+00 3.376174718141555786e-02 -4.450846314430236816e-01 8.620114922523498535e-01
1.020000000000000000e+03 5.040741348266601562e+01 -1.264932537078857422e+01 1.961799979209899902e+00 1.432358860969543457e+00 1.018247604370117188e+00 -1.423819184303283691e+00
1.021000000000000000e+03 5.177838516235351562e+01 -1.676848793029785156e+01 -1.203752234578132629e-01 3.967766761779785156e-01 8.292043209075927734e-02 4.155746996402740479e-01
1.022000000000000000e+03 4.882108306884765625e+01 -1.744728088378906250e+01 -1.437447786331176758e+00 1.168304830789566040e-01 -3.961851894855499268e-01 6.689693927764892578e-01
1.023000000000000000e+03 5.247426605224609375e+01 -2.206082534790039062e+01 -1.094111323356628418e+00 2.247827947139739990e-01 -2.607985436916351318e-01 -3.749157190322875977e-01
1.024000000000000000e+03 5.216090774536132812e+01 -2.503813743591308594e+01 3.325781524181365967e-01 8.199774026870727539e-01 3.457666635513305664e-01 -2.968484163284301758e-01
1.025000000000000000e+03 5.485858154296875000e+01 -2.228569221496582031e+01 -8.078657984733581543e-01 1.041784048080444336e+00 7.017545402050018311e-02 3.921240568161010742e-01
1.026000000000000000e+03 5.282340621948242188e+01 -2.274628067016601562e+01 -6.829161643981933594e-01 5.036005377769470215e-01 -5.379467830061912537e-02 -2.394490391016006470e-01
1.027000000000000000e+03 4.688333511352539062e+01 -1.862623786926269531e+01 -1.936897516250610352e+00 1.165140569210052490e-01 -5.461150407791137695e-01 3.363756239414215088e-01
1.028000000000000000e+03 4.661502456665039062e+01 -1.793314170837402344e+01 -1.510547518730163574e+00 8.716907352209091187e-02 -4.270135462284088135e-01 5.791355371475219727e-01
1.029000000000000000e+03 4.809062957763671875e+01 -1.760248184204101562e+01 -1.573754429817199707e+00 3.934311121702194214e-02 -4.603233933448791504e-01 7.097944021224975586e-01
1.030000000000000000e+03 4.735459136962890625e+01 -1.776476860046386719e+01 -1.489023804664611816e+00 1.091161891818046570e-01 -4.139722883701324463e-01 5.647146105766296387e-01
1.031000000000000000e+03 4.587320327758789062e+01 -1.810969543457031250e+01 -1.425390958786010742e+00 1.517448723316192627e-01 -3.820938169956207275e-01 4.837842583656311035e-01
1.032000000000000000e+03 6.324526977539062500e+01 -1.780327415466308594e+01 3.385324716567993164e+00 8.661844730377197266e-01 1.275452733039855957e+00 1.345473900437355042e-02
1.033000000000000000e+03 6.253283691406250000e+01 -1.597211456298828125e+01 3.391568422317504883e+00 1.048942685127258301e+00 1.332153320312500000e+00 2.944924354553222656e+00
1.034000000000000000e+03 6.367384719848632812e+01 -1.533070468902587891e+01 5.503176450729370117e-01 1.129843235015869141e+00 5.040482282638549805e-01 2.641466379165649414e+00
1.035000000000000000e+03 6.507873535156250000e+01 -1.311137962341308594e+01 1.337673217058181763e-01 1.706681847572326660e+00 5.521347522735595703e-01 7.787333726882934570e-01
1.036000000000000000e+03 4.413180160522460938e+01 -1.781745338439941406e+01 -1.156711220741271973e+00 2.008838802576065063e-01 -2.867482006549835205e-01 5.211842060089111328e-01
1.037000000000000000e+03 4.390084838867187500e+01 -1.939257431030273438e+01 -1.316112875938415527e+00 2.199326455593109131e-01 -3.288540840148925781e-01 2.961128950119018555e-01
1.038000000000000000e+03 4.368127822875976562e+01 -1.872355842590332031e+01 -1.266551375389099121e+00 2.287856489419937134e-01 -3.113297224044799805e-01 4.165559709072113037e-01
1.039000000000000000e+03 4.296863937377929688e+01 -1.891993141174316406e+01 -1.175564527511596680e+00 2.398765683174133301e-01 -2.807063758373260498e-01 3.882191777229309082e-01
1.040000000000000000e+03 4.257331848144531250e+01 -1.762240219116210938e+01 -1.028074026107788086e+00 2.054793685674667358e-01 -2.467783838510513306e-01 4.395907819271087646e-01
1.041000000000000000e+03 2.528791809082031250e+01 -9.763765335083007812e+00 -3.465736806392669678e-01 -3.717899620532989502e-01 -2.155091017484664917e-01 3.916559517383575439e-01
1.042000000000000000e+03 2.444035720825195312e+01 -8.422904014587402344e+00 -3.692560493946075439e-01 -4.365010261535644531e-01 -2.417271286249160767e-01 3.957530558109283447e-01
1.043000000000000000e+03 2.400263977050781250e+01 -7.764164447784423828e+00 -3.814255595207214355e-01 -4.617815613746643066e-01 -2.529621422290802002e-01 3.964338898658752441e-01
1.044000000000000000e+03 2.308412170410156250e+01 -6.463677883148193359e+00 -3.956771194934844971e-01 -4.933712184429168701e-01 -2.667145133018493652e-01 3.972988128662109375e-01
1.045000000000000000e+03 2.158533287048339844e+01 -4.522290229797363281e+00 -3.980514109134674072e-01 -5.007794499397277832e-01 -2.696492671966552734e-01 3.864659965038299561e-01
1.046000000000000000e+03 2.260966491699218750e+01 -5.817872047424316406e+00 -3.966486155986785889e-01 -4.992280304431915283e-01 -2.687630057334899902e-01 3.952298760414123535e-01
1.047000000000000000e+03 2.365001106262207031e+01 -6.039423465728759766e+00 -3.623618483543395996e-01 -4.277086555957794189e-01 -2.370211482048034668e-01 3.590270280838012695e-01
1.048000000000000000e+03 1.696680831909179688e+01 1.845493614673614502e-01 -2.785628736019134521e-01 -3.773198127746582031e-01 -1.967648118734359741e-01 3.015908300876617432e-01
1.049000000000000000e+03 1.245238113403320312e+01 1.037509560585021973e+00 -3.151959776878356934e-01 -2.036257535219192505e-01 -1.556465178728103638e-01 2.450895458459854126e-01
1.050000000000000000e+03 1.467663574218750000e+01 -8.581311255693435669e-02 -3.870076835155487061e-01 -2.922815978527069092e-01 -2.037867903709411621e-01 3.156889975070953369e-01
1.051000000000000000e+03 1.537697124481201172e+01 -4.854310154914855957e-01 -4.042514264583587646e-01 -3.234257698059082031e-01 -2.183031588792800903e-01 3.358018696308135986e-01
1.052000000000000000e+03 2.045938491821289062e+01 -4.440750598907470703e+00 -4.594243168830871582e-01 -5.441887378692626953e-01 -3.010838925838470459e-01 4.440807998180389404e-01
1.053000000000000000e+03 1.868089866638183594e+01 -2.799410104751586914e+00 -4.623145461082458496e-01 -4.789599478244781494e-01 -2.823823392391204834e-01 4.156526327133178711e-01
1.054000000000000000e+03 2.040083312988281250e+01 -3.377397298812866211e+00 -3.947489857673645020e-01 -4.898724555969238281e-01 -2.653864324092864990e-01 3.801128864288330078e-01
1.055000000000000000e+03 2.089225959777832031e+01 -2.842963933944702148e+00 -3.405850231647491455e-01 -4.535443186759948730e-01 -2.382387965917587280e-01 3.313242495059967041e-01
1.056000000000000000e+03 2.211485099792480469e+01 -5.164175033569335938e+00 -4.001617133617401123e-01 -5.012414455413818359e-01 -2.704209387302398682e-01 3.908348679542541504e-01
1.057000000000000000e+03 1.851366806030273438e+01 -1.794033885002136230e+00 -3.821679949760437012e-01 -4.434815049171447754e-01 -2.476948499679565430e-01 3.604577183723449707e-01
1.058000000000000000e+03 1.786300849914550781e+01 -1.298150181770324707e+00 -3.698396682739257812e-01 -4.205740392208099365e-01 -2.371241152286529541e-01 3.516783118247985840e-01
1.059000000000000000e+03 1.674687385559082031e+01 -1.341109037399291992e+00 -4.355526864528656006e-01 -3.860577940940856934e-01 -2.464831471443176270e-01 3.729921877384185791e-01
1.060000000000000000e+03 1.978260040283203125e+01 -2.836112499237060547e+00 -3.973332047462463379e-01 -4.787095487117767334e-01 -2.628128230571746826e-01 3.748421669006347656e-01
1.061000000000000000e+03 1.087780666351318359e+01 -3.990074157714843750e+00 6.687819404760375619e-05 8.830324804875999689e-05 4.655443262890912592e-05 -6.184547146403929219e-06
1.062000000000000000e+03 6.030036449432373047e+00 -1.917806744575500488e+00 -6.341917469399049878e-05 -1.363523892905504908e-06 -1.943481038324534893e-05 -2.217681503680069000e-05
1.063000000000000000e+03 7.555196285247802734e+00 -2.689071178436279297e+00 8.979300037026405334e-05 2.132229019480291754e-05 3.333458880661055446e-05 5.377133857109583914e-05
1.064000000000000000e+03 6.781183242797851562e+00 -2.691956996917724609e+00 -9.867713379207998514e-05 -2.597105321910930797e-06 -3.038227077922783792e-05 -5.442064139060676098e-05
1.065000000000000000e+03 8.317004203796386719e+00 -2.708003520965576172e+00 -5.982747461530379951e-05 -5.791572039015591145e-05 -3.532295886543579400e-05 -4.995054041501134634e-05
1.066000000000000000e+03 5.984316349029541016e+00 -3.478406190872192383e+00 -1.225484302267432213e-04 3.139584805467166007e-05 -2.734577356022782624e-05 -7.611693581566214561e-05
1.067000000000000000e+03 1.800055742263793945e+00 -9.155508995056152344e+00 2.582477463874965906e-04 -7.635396286786999553e-06 7.518370694015175104e-05 3.558295793482102454e-05
1.068000000000000000e+03 6.431865692138671875e-01 -6.365172386169433594e+00 -1.699247513897716999e-04 -3.776707728775363648e-07 -5.109072662889957428e-05 -3.320189352962188423e-05
1.069000000000000000e+03 6.814824938774108887e-01 -4.880355834960937500e+00 1.382061745971441269e-04 1.173125383502338082e-05 4.498122507357038558e-05 3.152983845211565495e-05
1.070000000000000000e+03 5.712496042251586914e-01 -3.456730842590332031e+00 -1.265991159016266465e-04 3.659172534753452055e-06 -3.688198194140568376e-05 -4.639849430532194674e-05
1.071000000000000000e+03 1.214108562469482422e+01 2.165766239166259766e+00 -2.128740996122360229e-01 -2.188077419996261597e-01 -1.295045465230941772e-01 2.338860780000686646e-01
1.072000000000000000e+03 1.363680076599121094e+01 1.305954456329345703e+00 -2.733792960643768311e-01 -2.608901560306549072e-01 -1.602808386087417603e-01 2.664106786251068115e-01
1.073000000000000000e+03 1.437531375885009766e+01 9.082608222961425781e-01 -2.944461703300476074e-01 -2.896763086318969727e-01 -1.752367466688156128e-01 2.839033901691436768e-01
1.074000000000000000e+03 1.115057945251464844e+01 -4.922903537750244141e+00 1.188034948427230120e-04 5.396860433393158019e-05 5.183163011679425836e-05 1.391747105117246974e-06
1.075000000000000000e+03 1.119462108612060547e+01 -3.337862491607666016e+00 -4.812260885955765843e-05 -8.615225669927895069e-05 -4.028245894005522132e-05 -1.044765122060198337e-05
1.076000000000000000e+03 4.241718292236328125e+01 -2.576212120056152344e+01 -2.965450845658779144e-02 -9.759666323661804199e-01 -3.016863465309143066e-01 -2.071346193552017212e-01
1.077000000000000000e+03 4.244342422485351562e+01 -2.706400489807128906e+01 8.359625935554504395e-03 -1.472655534744262695e+00 -4.392887651920318604e-01 -2.299985587596893311e-01
1.078000000000000000e+03 6.943438720703125000e+01 -2.170346260070800781e+01 -2.950823307037353516e-01 1.964664816856384277e+00 5.008747577667236328e-01 -1.393536686897277832e+00
1.079000000000000000e+03 6.631603240966796875e+01 -1.954793357849121094e+01 4.389624595642089844e-01 -5.044927075505256653e-02 1.165539547801017761e-01 -2.541322708129882812e-01
1.080000000000000000e+03 6.313056182861328125e+01 -2.300384140014648438e+01 -2.326831340789794922e+00 6.586977839469909668e-02 -6.782884597778320312e-01 -3.076501190662384033e-01
1.081000000000000000e+03 6.193368911743164062e+01 -2.334462165832519531e+01 -1.809350013732910156e+00 4.047388210892677307e-02 -5.306628346443176270e-01 -7.213673740625381470e-02
1.082000000000000000e+03 5.599288558959960938e+01 -2.908474540710449219e+01 8.554697632789611816e-01 6.362473011016845703e+00 2.165382862091064453e+00 1.686065316200256348e+00
1.083000000000000000e+03 5.649004364013671875e+01 -2.781236267089843750e+01 1.867192506790161133e+00 5.454951286315917969e+00 2.196643114089965820e+00 2.405002117156982422e+00
1.084000000000000000e+03 7.104544067382812500e+01 -2.281324005126953125e+01 1.348125696182250977e+00 7.410058021545410156e+00 2.627455234527587891e+00 -2.819721221923828125e+00
1.085000000000000000e+03 7.821939086914062500e+01 -2.234652328491210938e+01 6.681096553802490234e-02 7.789743423461914062e+00 2.356966257095336914e+00 5.303713083267211914e-01
1.086000000000000000e+03 7.191455078125000000e+01 -2.983834075927734375e+01 6.487982869148254395e-01 9.223769187927246094e+00 2.961770057678222656e+00 1.198044776916503906e+00
1.087000000000000000e+03 3.279993057250976562e+01 -1.786233139038085938e+01 -6.937437653541564941e-01 -7.388482801616191864e-03 -2.103396654129028320e-01 1.103202253580093384e-01
1.088000000000000000e+03 5.783516693115234375e+01 -2.305946540832519531e+01 -4.013284444808959961e-01 2.459677457809448242e+00 6.175046563148498535e-01 1.505546569824218750e+00
1.089000000000000000e+03 7.172950744628906250e+01 -2.720106124877929688e+01 2.924778163433074951e-01 1.357989311218261719e+01 4.161711215972900391e+00 9.599724411964416504e-01
1.090000000000000000e+03 7.309508514404296875e+01 -2.655187034606933594e+01 1.392437338829040527e+00 1.059737110137939453e+01 3.596942663192749023e+00 -2.959059178829193115e-01
1.091000000000000000e+03 4.209563064575195312e+01 -1.838733291625976562e+01 -1.120484590530395508e+00 2.023508548736572266e-01 -2.754401266574859619e-01 4.094583094120025635e-01
1.092000000000000000e+03 6.804431152343750000e+01 -3.316056442260742188e+01 -8.635325431823730469e-01 5.661090612411499023e-01 -8.922705799341201782e-02 -7.214121520519256592e-02
1.093000000000000000e+03 5.729670715332031250e+01 -2.666547203063964844e+01 2.179729461669921875e+00 3.911784172058105469e+00 1.827454090118408203e+00 2.644796609878540039e+00
1.094000000000000000e+03 7.145815277099609375e+01 -2.085834693908691406e+01 -1.051116585731506348e+00 7.041169643402099609e+00 1.797016024589538574e+00 -1.620011687278747559e+00
1.095000000000000000e+03 5.435097503662109375e+01 -2.968146324157714844e+01 1.483966827392578125e+00 3.274482011795043945e+00 1.427534699440002441e+00 6.447256803512573242e-01
1.096000000000000000e+03 5.486963272094726562e+01 -3.148036384582519531e+01 1.058027505874633789e+00 4.345439910888671875e+00 1.621040105819702148e+00 1.454054117202758789e-01
1.097000000000000000e+03 3.426744842529296875e+01 -1.687729072570800781e+01 -8.549268841743469238e-01 -4.356545954942703247e-02 -2.695477008819580078e-01 2.840411663055419922e-01
1.098000000000000000e+03 2.861625862121582031e+01 -1.617738914489746094e+01 -3.649986982345581055e-01 -9.572555124759674072e-02 -1.382172703742980957e-01 2.127954661846160889e-01
1.099000000000000000e+03 3.409924697875976562e+01 -1.792680168151855469e+01 -9.205902814865112305e-01 -4.410643014125525951e-04 -2.763094007968902588e-01 1.131033450365066528e-01
1.100000000000000000e+03 6.885805511474609375e+01 -3.437961196899414062e+01 -7.461776137351989746e-01 2.171473503112792969e+00 4.275887608528137207e-01 7.603917121887207031e-01
1.101000000000000000e+03 6.809735870361328125e+01 -3.547962951660156250e+01 -4.389489293098449707e-01 1.627727866172790527e+00 3.566336929798126221e-01 4.447439610958099365e-01
1.102000000000000000e+03 3.553300857543945312e+01 -1.698459434509277344e+01 -1.046028375625610352e+00 -9.682087600231170654e-02 -3.428547680377960205e-01 3.526668250560760498e-01
1.103000000000000000e+03 3.185722923278808594e+01 -1.671563720703125000e+01 -5.895015001296997070e-01 -1.834825612604618073e-02 -1.823549270629882812e-01 2.360643446445465088e-01
1.104000000000000000e+03 6.110788726806640625e+01 -3.516831588745117188e+01 -1.013562560081481934e+00 -1.538567710667848587e-02 -3.086844682693481445e-01 -1.893410086631774902e-01
1.105000000000000000e+03 6.511706542968750000e+01 -3.784311676025390625e+01 1.695846617221832275e-01 3.891965448856353760e-01 1.676343679428100586e-01 9.225025027990341187e-02
1.106000000000000000e+03 5.391065979003906250e+01 -2.171121978759765625e+01 -1.166954994201660156e+00 5.200539231300354004e-01 -1.940703094005584717e-01 2.215947490185499191e-03
1.107000000000000000e+03 6.241307830810546875e+01 -3.805517959594726562e+01 1.237549483776092529e-01 1.941559165716171265e-01 9.537325799465179443e-02 -3.995801508426666260e-01
1.108000000000000000e+03 6.656645965576171875e+01 -4.084976196289062500e+01 5.524198412895202637e-01 1.461658120155334473e+00 6.042233705520629883e-01 8.648299425840377808e-02
1.109000000000000000e+03 7.477112579345703125e+01 -2.808896255493164062e+01 8.106369376182556152e-01 8.837635993957519531e+00 2.894481897354125977e+00 -7.132588624954223633e-01
1.110000000000000000e+03 7.260412597656250000e+01 -2.481314086914062500e+01 1.521575212478637695e+00 1.172937870025634766e+01 3.975286245346069336e+00 -7.275118827819824219e-01
1.111000000000000000e+03 5.867955017089843750e+01 -2.351206398010253906e+01 -1.112711802124977112e-01 2.454504728317260742e+00 7.029700875282287598e-01 1.723388552665710449e+00
1.112000000000000000e+03 5.749605178833007812e+01 -2.201899337768554688e+01 -7.952260375022888184e-01 2.073937892913818359e+00 3.836135268211364746e-01 1.442937135696411133e+00
1.113000000000000000e+03 6.665667724609375000e+01 -2.060226440429687500e+01 -1.228760242462158203e+00 -5.586186051368713379e-01 -5.362136960029602051e-01 -2.977243363857269287e-01
1.114000000000000000e+03 6.214421844482421875e+01 -1.944848060607910156e+01 3.790495395660400391e-01 2.602292537689208984e+00 8.944026827812194824e-01 3.047960400581359863e-01
1.115000000000000000e+03 7.176505279541015625e+01 -3.200924301147460938e+01 -9.493873715400695801e-01 7.037445068359375000e+00 1.826417326927185059e+00 2.937377393245697021e-01
1.116000000000000000e+03 5.678464508056640625e+01 3.847282791137695312e+01 -1.035962775349617004e-01 -1.300447583198547363e-01 -7.009231299161911011e-02 1.984874308109283447e-01
1.117000000000000000e+03 5.909252929687500000e+01 3.625320816040039062e+01 -7.005920410156250000e-01 -1.035309284925460815e-01 -2.412368953227996826e-01 2.027012854814529419e-01
1.118000000000000000e+03 6.294728469848632812e+01 4.139432907104492188e+01 4.134109020233154297e-01 4.161377847194671631e-01 2.488646060228347778e-01 -2.974670939147472382e-02
1.119000000000000000e+03 8.401696205139160156e+00 -2.674955368041992188e+01 8.314428268931806087e-04 3.488323127385228872e-04 3.540825273375958204e-04 -2.461363910697400570e-04
1.120000000000000000e+03 4.191263580322265625e+01 -3.054973983764648438e+01 -6.101676225662231445e-01 -1.597814083099365234e+00 -6.623945236206054688e-01 -6.719503402709960938e-01
1.121000000000000000e+03 4.311457061767578125e+01 -2.964462471008300781e+01 -4.711129367351531982e-01 -1.445720553398132324e+00 -5.750500559806823730e-01 -4.661971628665924072e-01
1.122000000000000000e+03 4.396921157836914062e+01 -2.798180770874023438e+01 -2.548368275165557861e-01 -8.032892942428588867e-01 -3.174378573894500732e-01 -6.152185201644897461e-01
1.123000000000000000e+03 9.898586273193359375e+00 -1.466549491882324219e+01 -3.242696984671056271e-04 1.059146306943148375e-04 -6.550651596626266837e-05 -2.011719334404915571e-04
1.124000000000000000e+03 4.018554306030273438e+01 -3.266826629638671875e+01 -4.812109470367431641e-01 -6.436398625373840332e-01 -3.374552428722381592e-01 -4.735656082630157471e-01
1.125000000000000000e+03 5.344606781005859375e+01 3.570764160156250000e+01 -1.363068521022796631e-01 6.893995404243469238e-02 -2.021006867289543152e-02 9.764633141458034515e-03
1.126000000000000000e+03 1.154631900787353516e+01 -2.907320213317871094e+01 8.796042529866099358e-04 -2.882745175156742334e-04 1.773989206412807107e-04 -4.287864430807530880e-04
1.127000000000000000e+03 6.458708190917968750e+01 3.644297790527343750e+01 -1.799215525388717651e-01 7.617270350456237793e-01 1.745416522026062012e-01 -1.061977669596672058e-01
1.128000000000000000e+03 5.173187255859375000e+01 -1.261169147491455078e+01 1.721416354179382324e+00 4.025738716125488281e+00 1.724146604537963867e+00 -2.228093862533569336e+00
1.129000000000000000e+03 5.135376739501953125e+01 -1.136423873901367188e+01 6.085734367370605469e-01 3.226453542709350586e+00 1.150508165359497070e+00 -1.347628712654113770e+00
1.130000000000000000e+03 2.221676254272460938e+01 -3.330858612060546875e+01 1.240918692201375961e-02 -9.821123676374554634e-04 3.428122494369745255e-03 4.104248713701963425e-03
1.131000000000000000e+03 4.106156921386718750e+01 1.177158546447753906e+01 2.207448780536651611e-01 1.588321805000305176e+00 5.427200198173522949e-01 -2.456973493099212646e-01
1.132000000000000000e+03 1.614645385742187500e+01 -3.368404388427734375e+01 3.315899986773729324e-03 -5.863671540282666683e-04 8.188598440028727055e-04 2.964966697618365288e-03
1.133000000000000000e+03 6.703604888916015625e+01 3.414431381225585938e+01 -4.848283529281616211e-01 2.349081993103027344e+00 5.592761039733886719e-01 -5.130233168601989746e-01
1.134000000000000000e+03 3.486373519897460938e+01 -3.312735366821289062e+01 -1.148191913962364197e-01 -9.393218904733657837e-03 -3.726372122764587402e-02 -5.852515622973442078e-02
1.135000000000000000e+03 3.641255950927734375e+01 -3.407502365112304688e+01 -1.968572437763214111e-01 -1.407744288444519043e-01 -1.012895032763481140e-01 -2.240244001150131226e-01
1.136000000000000000e+03 4.036412429809570312e+01 1.932048988342285156e+01 9.015876054763793945e-02 9.923341870307922363e-01 3.247478902339935303e-01 3.315881639719009399e-02
1.137000000000000000e+03 4.108175277709960938e+01 1.475469875335693359e+01 9.010948985815048218e-02 1.401392936706542969e+00 4.474507272243499756e-01 -6.492306012660264969e-03
1.138000000000000000e+03 7.023227691650390625e+01 6.140414237976074219e+00 1.957694888114929199e-01 1.212802124023437500e+01 3.697137117385864258e+00 -2.370893061161041260e-01
1.139000000000000000e+03 7.475208282470703125e+01 9.564293861389160156e+00 -1.283134073019027710e-01 8.153333663940429688e+00 2.407506227493286133e+00 2.979077100753784180e-01
1.140000000000000000e+03 7.672365188598632812e+00 -2.233232498168945312e+01 6.210693973116576672e-04 1.280816923099337146e-05 1.901632786029949784e-04 -1.494318275945261121e-04
1.141000000000000000e+03 9.796689987182617188e+00 -2.924152946472167969e+01 8.689339156262576580e-04 2.404641563771292567e-04 3.328194143250584602e-04 -3.010095388162881136e-04
1.142000000000000000e+03 1.703019714355468750e+01 -8.488355636596679688e+00 1.129919619415886700e-04 -1.682944821368437260e-05 2.884875539166387171e-05 5.555863481276901439e-06
1.143000000000000000e+03 7.799531555175781250e+01 -3.462320709228515625e+01 -2.105786055326461792e-01 8.895183563232421875e+00 2.605381488800048828e+00 -3.873223066329956055e-01
1.144000000000000000e+03 7.708244323730468750e+01 -2.657736968994140625e+01 5.124158859252929688e-01 7.880765914916992188e+00 2.517954587936401367e+00 -2.455692738294601440e-01
1.145000000000000000e+03 7.534426116943359375e+01 -2.172935295104980469e+01 -9.753304719924926758e-02 8.211999893188476562e+00 2.434340238571166992e+00 5.888829231262207031e-01
1.146000000000000000e+03 7.938700866699218750e+01 -2.509724044799804688e+01 2.928249165415763855e-02 6.804812431335449219e+00 2.050228357315063477e+00 7.887596637010574341e-02
1.147000000000000000e+03 7.815180206298828125e+01 -2.374288558959960938e+01 1.518366783857345581e-01 7.553005218505859375e+00 2.311452627182006836e+00 4.287418425083160400e-01
1.148000000000000000e+03 7.816035461425781250e+01 -3.068813514709472656e+01 4.174756258726119995e-02 8.162683486938476562e+00 2.461329460144042969e+00 -6.877261400222778320e-01
1.149000000000000000e+03 7.940393829345703125e+01 -3.204195022583007812e+01 3.464343026280403137e-02 8.609586715698242188e+00 2.593269109725952148e+00 -2.589733600616455078e-01
1.150000000000000000e+03 7.822572326660156250e+01 -3.203514480590820312e+01 -8.932568877935409546e-02 8.501612663269042969e+00 2.523686170578002930e+00 -6.428641080856323242e-01
1.151000000000000000e+03 7.621215820312500000e+01 -3.520500564575195312e+01 -3.689961135387420654e-01 8.203055381774902344e+00 2.350217819213867188e+00 -4.296250045299530029e-01
1.152000000000000000e+03 7.531887054443359375e+01 -3.773493957519531250e+01 -3.153380453586578369e-01 7.629620075225830078e+00 2.194284439086914062e+00 -1.389395743608474731e-01
1.153000000000000000e+03 7.618058013916015625e+01 -4.064844512939453125e+01 -5.010757222771644592e-02 8.519598007202148438e+00 2.540847301483154297e+00 -3.085637986660003662e-01
1.154000000000000000e+03 7.874526977539062500e+01 -4.037178039550781250e+01 -6.808368861675262451e-02 9.538005828857421875e+00 2.840976715087890625e+00 2.896559238433837891e-01
1.155000000000000000e+03 7.817323303222656250e+01 1.655834579467773438e+01 -4.573277663439512253e-03 6.841648578643798828e+00 2.051122665405273438e+00 3.928034007549285889e-02
1.156000000000000000e+03 7.783912658691406250e+01 3.343012619018554688e+01 -9.029942005872726440e-02 8.448451042175292969e+00 2.507445335388183594e+00 3.523946106433868408e-01
1.157000000000000000e+03 7.805213928222656250e+01 2.921043777465820312e+01 1.529202423989772797e-02 7.890163421630859375e+00 2.371636629104614258e+00 4.553481340408325195e-01
1.158000000000000000e+03 7.936319732666015625e+01 2.785098838806152344e+01 8.229815401136875153e-03 7.662528514862060547e+00 2.301227569580078125e+00 1.711478084325790405e-01
1.159000000000000000e+03 7.812053680419921875e+01 2.641061019897460938e+01 5.487559363245964050e-02 7.471930980682373047e+00 2.258041858673095703e+00 3.658343255519866943e-01
1.160000000000000000e+03 7.814051818847656250e+01 2.500448226928710938e+01 4.935049638152122498e-02 7.298706531524658203e+00 2.204417228698730469e+00 3.063471615314483643e-01
1.161000000000000000e+03 7.937824249267578125e+01 2.505651855468750000e+01 1.965517178177833557e-02 7.056253910064697266e+00 2.122772693634033203e+00 1.228521764278411865e-01
1.162000000000000000e+03 7.817945098876953125e+01 1.796248626708984375e+01 2.195217832922935486e-02 6.871296882629394531e+00 2.067974805831909180e+00 6.121479719877243042e-02
1.163000000000000000e+03 7.939133453369140625e+01 1.806286048889160156e+01 -7.925534620881080627e-03 6.430658340454101562e+00 1.926819801330566406e+00 2.147659473121166229e-02
1.164000000000000000e+03 7.817054748535156250e+01 1.516246795654296875e+01 -7.757677696645259857e-03 6.809256076812744141e+00 2.040449380874633789e+00 6.042889133095741272e-02
1.165000000000000000e+03 7.443769073486328125e+01 8.472962379455566406e+00 2.167829871177673340e-02 8.432583808898925781e+00 2.536278724670410156e+00 3.399292230606079102e-01
1.166000000000000000e+03 7.820715332031250000e+01 1.100273799896240234e+01 -2.446364983916282654e-02 6.633488178253173828e+00 1.982707262039184570e+00 1.541624665260314941e-01
1.167000000000000000e+03 7.940913391113281250e+01 -1.952580451965332031e+01 -1.501755136996507645e-02 8.442125320434570312e+00 2.528132200241088867e+00 1.449031531810760498e-01
1.168000000000000000e+03 7.824484252929687500e+01 -2.094975090026855469e+01 -9.710846841335296631e-02 8.023867607116699219e+00 2.378027677536010742e+00 5.078004598617553711e-01
1.169000000000000000e+03 7.818913269042968750e+01 -1.415500450134277344e+01 -5.500006675720214844e-02 8.336933135986328125e+00 2.484580039978027344e+00 -1.226141452789306641e-01
1.170000000000000000e+03 7.811952209472656250e+01 -7.084834575653076172e+00 -2.843625098466873169e-02 7.540177822113037109e+00 2.253522634506225586e+00 -4.205790758132934570e-01
1.171000000000000000e+03 7.812149810791015625e+01 1.192103505134582520e+00 9.042211621999740601e-02 6.362725734710693359e+00 1.935944318771362305e+00 -2.382519990205764771e-01
1.172000000000000000e+03 7.694222259521484375e+01 8.200939178466796875e+00 2.354764007031917572e-02 7.085518360137939453e+00 2.132719755172729492e+00 2.631353735923767090e-01
1.173000000000000000e+03 7.934830474853515625e+01 2.924775695800781250e+01 1.119384076446294785e-02 8.023482322692871094e+00 2.410403013229370117e+00 1.911817789077758789e-01
1.174000000000000000e+03 7.797944641113281250e+01 4.163821411132812500e+01 1.865064352750778198e-01 9.004674911499023438e+00 2.757354259490966797e+00 -5.232202261686325073e-02
1.175000000000000000e+03 7.924317169189453125e+01 3.489055633544921875e+01 -2.814082987606525421e-02 9.199213027954101562e+00 2.751321554183959961e+00 8.426862955093383789e-02
1.176000000000000000e+03 7.375393676757812500e+01 3.601109313964843750e+01 -3.217045664787292480e-01 6.780589580535888672e+00 1.937665462493896484e+00 2.053505480289459229e-01
1.177000000000000000e+03 7.260609436035156250e+01 4.802780628204345703e+00 4.962267577648162842e-01 9.736439704895019531e+00 3.069799900054931641e+00 1.369843035936355591e-01
1.178000000000000000e+03 7.937026977539062500e+01 4.134332656860351562e+00 2.848214656114578247e-02 5.479529380798339844e+00 1.652403354644775391e+00 -1.434531994163990021e-03
1.179000000000000000e+03 7.811085510253906250e+01 4.041880130767822266e+00 9.144094586372375488e-02 6.277327537536621094e+00 1.910630583763122559e+00 -4.612694028764963150e-03
1.180000000000000000e+03 7.686711883544921875e+01 1.026176571846008301e+00 2.050909548997879028e-01 6.982865810394287109e+00 2.156387090682983398e+00 -3.092671632766723633e-01
1.181000000000000000e+03 7.819519042968750000e+01 -2.981695890426635742e+00 1.899621449410915375e-02 6.867560863494873047e+00 2.065967082977294922e+00 -4.442565441131591797e-01
1.182000000000000000e+03 7.939717864990234375e+01 -4.236849308013916016e+00 -2.842976013198494911e-03 6.924953937530517578e+00 2.076633214950561523e+00 -1.849530935287475586e-01
1.183000000000000000e+03 7.814774322509765625e+01 -5.706626892089843750e+00 -2.167043648660182953e-02 7.322795391082763672e+00 2.190337419509887695e+00 -4.498697519302368164e-01
1.184000000000000000e+03 7.808708953857421875e+01 -9.892457008361816406e+00 -3.840981423854827881e-02 7.915832996368408203e+00 2.363226890563964844e+00 -3.276756107807159424e-01
1.185000000000000000e+03 7.936572265625000000e+01 -1.120045089721679688e+01 -6.938493810594081879e-03 8.523357391357421875e+00 2.554925680160522461e+00 -1.143819242715835571e-01
1.186000000000000000e+03 7.812558746337890625e+01 -1.274237632751464844e+01 -5.773513019084930420e-02 8.217216491699218750e+00 2.447844266891479492e+00 -2.051534801721572876e-01
1.187000000000000000e+03 7.830200195312500000e+01 -1.682439994812011719e+01 -1.120786517858505249e-01 8.423583030700683594e+00 2.493451356887817383e+00 8.495659381151199341e-02
1.188000000000000000e+03 7.941510772705078125e+01 -1.814224243164062500e+01 -2.981069684028625488e-02 8.732508659362792969e+00 2.610809564590454102e+00 9.081626683473587036e-02
1.189000000000000000e+03 7.823389434814453125e+01 -1.818918418884277344e+01 -9.923577308654785156e-02 8.352060317993164062e+00 2.475847482681274414e+00 2.305841743946075439e-01
1.190000000000000000e+03 1.032061100006103516e+01 -1.736594581604003906e+01 -6.983557250350713730e-04 -5.559473356697708368e-05 -2.261851332150399685e-04 5.026374856242910028e-05
1.191000000000000000e+03 8.574367523193359375e+00 -1.838098144531250000e+01 -5.842247628606855869e-04 -2.899248283938504755e-05 -1.839651813497766852e-04 3.317799928481690586e-05
1.192000000000000000e+03 2.376758384704589844e+01 -3.308460617065429688e+01 1.302026864141225815e-02 2.104936720570549369e-04 3.969228826463222504e-03 4.016638733446598053e-03
1.193000000000000000e+03 2.507002639770507812e+01 -3.313746261596679688e+01 1.399448327720165253e-02 -2.701321383938193321e-03 3.387948498129844666e-03 4.520040936768054962e-03
1.194000000000000000e+03 3.761291122436523438e+01 -3.386130905151367188e+01 -2.883018851280212402e-01 -2.343395501375198364e-01 -1.567924320697784424e-01 -3.121957480907440186e-01
1.195000000000000000e+03 8.828767776489257812e+00 -1.722010421752929688e+01 5.818054778501391411e-04 1.183935237349942327e-04 2.100597048411145806e-04 1.283534038520883769e-05
1.196000000000000000e+03 3.864238739013671875e+01 -3.391068649291992188e+01 -2.118001133203506470e-01 -4.262272715568542480e-01 -1.914082169532775879e-01 -3.741073608398437500e-01
1.197000000000000000e+03 3.979051971435546875e+01 -3.445816040039062500e+01 -1.132569368928670883e-02 -5.783492922782897949e-01 -1.769025027751922607e-01 -3.018624186515808105e-01
1.198000000000000000e+03 3.124377822875976562e+01 -3.407093429565429688e+01 -2.210347354412078857e-02 -9.777556173503398895e-03 -9.564308449625968933e-03 -2.638937719166278839e-02
1.199000000000000000e+03 7.119195556640625000e+01 1.304606723785400391e+01 -2.179340720176696777e-01 9.144644737243652344e+00 2.678013086318969727e+00 -2.829138040542602539e-01
1.200000000000000000e+03 2.881360244750976562e+01 -3.351362609863281250e+01 6.443435791879892349e-03 -3.289776854217052460e-03 9.460976580157876015e-04 -6.459498777985572815e-03
1.201000000000000000e+03 1.974784851074218750e+01 -3.137291526794433594e+01 1.572368666529655457e-02 9.045854676514863968e-04 4.988481290638446808e-03 1.542964251711964607e-03
1.202000000000000000e+03 1.701905131340026855e+00 -2.458249282836914062e+01 -6.781591800972819328e-04 -2.028404742304701358e-05 -2.095329691655933857e-04 -1.301246229559183121e-04
1.203000000000000000e+03 2.794671058654785156e+01 -3.174896621704101562e+01 3.380267694592475891e-02 -6.714113405905663967e-04 9.939379058778285980e-03 -3.451465861871838570e-03
1.204000000000000000e+03 8.941094398498535156e+00 -2.862813758850097656e+01 1.338937901891767979e-03 -4.031925345771014690e-05 3.895855916198343039e-04 -3.271920140832662582e-04
1.205000000000000000e+03 2.635571861267089844e+01 -3.318260955810546875e+01 1.433003786951303482e-02 -3.702867776155471802e-03 3.188150934875011444e-03 2.420250326395034790e-03
1.206000000000000000e+03 2.659536361694335938e+01 -3.162755012512207031e+01 3.272560611367225647e-02 -1.429311349056661129e-03 9.388888254761695862e-03 -1.179911894723773003e-03
1.207000000000000000e+03 1.334689807891845703e+01 -3.210438537597656250e+01 3.474076511338353157e-03 -1.295233814744278789e-04 1.003365963697433472e-03 7.277490803971886635e-04
1.208000000000000000e+03 4.594673156738281250e+01 -2.501539230346679688e+01 -1.191824749112129211e-01 -4.423694908618927002e-01 -1.684655845165252686e-01 -8.057137131690979004e-01
1.209000000000000000e+03 1.974069786071777344e+01 -3.395629882812500000e+01 5.744429305195808411e-03 1.173701137304306030e-03 2.075439086183905602e-03 6.091400980949401855e-03
1.210000000000000000e+03 1.842223930358886719e+01 -3.261671066284179688e+01 1.084330957382917404e-02 4.804701165994629264e-05 3.267407184466719627e-03 3.347565419971942902e-03
1.211000000000000000e+03 5.231959152221679688e+01 -1.528551101684570312e+01 3.851198673248291016e+00 1.425080776214599609e+00 1.582883834838867188e+00 -1.733931899070739746e+00
1.212000000000000000e+03 5.287890625000000000e+01 -1.431923389434814453e+01 3.633659362792968750e+00 4.033683776855468750e+00 2.300202846527099609e+00 -3.464476585388183594e+00
1.213000000000000000e+03 4.387392807006835938e+01 6.452468872070312500e+00 4.147591590881347656e-01 1.545102596282958984e+00 5.879585146903991699e-01 -7.269781231880187988e-01
1.214000000000000000e+03 7.098925018310546875e+01 2.441637611389160156e+01 4.590902328491210938e-01 9.152644157409667969e+00 2.883520364761352539e+00 -3.118153512477874756e-01
1.215000000000000000e+03 7.084017944335937500e+01 2.587360763549804688e+01 5.230200886726379395e-01 8.733917236328125000e+00 2.777081012725830078e+00 -4.140567481517791748e-01
1.216000000000000000e+03 6.975928497314453125e+01 1.165867042541503906e+01 -4.188462495803833008e-01 7.944540500640869141e+00 2.257708311080932617e+00 3.291129693388938904e-02
1.217000000000000000e+03 4.831531524658203125e+01 -2.202741861343383789e+00 1.960709691047668457e-01 1.320508360862731934e+00 4.549738168716430664e-01 -5.698520541191101074e-01
1.218000000000000000e+03 4.598253631591796875e+01 -1.409769058227539062e-01 2.703389823436737061e-01 1.170339703559875488e+00 4.322036206722259521e-01 -5.808472633361816406e-01
1.219000000000000000e+03 5.943269348144531250e+01 3.834303283691406250e+01 -4.827498644590377808e-02 -1.684370636940002441e-01 -6.501360982656478882e-02 2.195370346307754517e-01
1.220000000000000000e+03 6.655090332031250000e+01 -8.778923034667968750e+00 5.633796453475952148e-01 2.909764766693115234e+00 1.041943311691284180e+00 1.125350117683410645e+00
1.221000000000000000e+03 7.022926330566406250e+01 2.889142227172851562e+01 4.399935603141784668e-01 6.968182086944580078e+00 2.222452640533447266e+00 -6.237214207649230957e-01
1.222000000000000000e+03 6.295184707641601562e+01 -1.347241020202636719e+01 -1.011343955993652344e+00 5.463293194770812988e-01 -1.395044028759002686e-01 -7.754425704479217529e-02
1.223000000000000000e+03 6.604571533203125000e+01 3.556049346923828125e+01 -3.953140676021575928e-01 1.593074679374694824e+00 3.593282103538513184e-01 -3.968500792980194092e-01
1.224000000000000000e+03 4.101731872558593750e+01 1.327054977416992188e+01 1.218556612730026245e-01 1.512619495391845703e+00 4.903425574302673340e-01 -1.233035027980804443e-01
1.225000000000000000e+03 4.493398284912109375e+01 2.737296295166015625e+01 6.997463107109069824e-02 5.382302403450012207e-01 1.824614703655242920e-01 1.670283526182174683e-01
1.226000000000000000e+03 4.310129928588867188e+01 2.331790351867675781e+01 9.139037877321243286e-02 7.979698777198791504e-01 2.668080627918243408e-01 1.848098039627075195e-01
1.227000000000000000e+03 5.081554412841796875e+01 3.265499114990234375e+01 1.042094081640243530e-03 1.309662014245986938e-01 3.960248827934265137e-02 6.539335846900939941e-02
1.228000000000000000e+03 4.567206192016601562e+01 2.871120834350585938e+01 4.349541291594505310e-02 4.665162861347198486e-01 1.530035138130187988e-01 1.464091092348098755e-01
1.229000000000000000e+03 6.880573272705078125e+01 3.168087959289550781e+01 -2.971110045909881592e-01 4.550330638885498047e+00 1.275965929031372070e+00 -7.701503634452819824e-01
1.230000000000000000e+03 6.791097259521484375e+01 3.288361358642578125e+01 -4.308417141437530518e-01 3.240667581558227539e+00 8.429477214813232422e-01 -7.471969127655029297e-01
1.231000000000000000e+03 4.970430374145507812e+01 -6.115864276885986328e+00 2.703086137771606445e-01 1.794231891632080078e+00 6.193621754646301270e-01 -6.596350073814392090e-01
1.232000000000000000e+03 4.864416885375976562e+01 -1.046724891662597656e+01 8.954843878746032715e-01 1.342182755470275879e+00 6.713001728057861328e-01 -1.067244529724121094e+00
1.233000000000000000e+03 4.312303924560546875e+01 1.892011260986328125e+01 7.698275148868560791e-02 1.140109658241271973e+00 3.651277124881744385e-01 2.605389058589935303e-01
1.234000000000000000e+03 4.926269912719726562e+01 -4.801137924194335938e+00 2.001149058341979980e-01 1.615719914436340332e+00 5.447504520416259766e-01 -6.154479980468750000e-01
1.235000000000000000e+03 4.854425048828125000e+01 -6.420660972595214844e+00 3.133800029754638672e-01 1.525326609611511230e+00 5.516120195388793945e-01 -7.303960323333740234e-01
1.236000000000000000e+03 7.111802673339843750e+01 1.169807624816894531e+01 -6.052588820457458496e-01 9.458090782165527344e+00 2.655849456787109375e+00 -1.377015709877014160e-01
1.237000000000000000e+03 7.044349670410156250e+01 -2.387196779251098633e+00 3.516779243946075439e-01 8.464943885803222656e+00 2.644986391067504883e+00 1.045256853103637695e+00
1.238000000000000000e+03 7.022146606445312500e+01 3.329376697540283203e+00 1.143849715590476990e-01 1.218339633941650391e+01 3.689334392547607422e+00 2.171095609664916992e-01
1.239000000000000000e+03 4.157637786865234375e+01 5.620729446411132812e+00 3.071407377719879150e-01 1.282418370246887207e+00 4.768677353858947754e-01 -4.301444888114929199e-01
1.240000000000000000e+03 4.808916854858398438e+01 -5.133713722229003906e+00 3.101112842559814453e-01 1.412446260452270508e+00 5.167672634124755859e-01 -6.696509122848510742e-01
1.241000000000000000e+03 7.060176086425781250e+01 2.736725997924804688e+01 5.240698456764221191e-01 8.030812263488769531e+00 2.566464662551879883e+00 -5.397433042526245117e-01
1.242000000000000000e+03 7.002322387695312500e+01 -3.782644748687744141e+00 2.965713739395141602e-01 7.443722724914550781e+00 2.322088241577148438e+00 1.092283725738525391e+00
1.243000000000000000e+03 4.535904693603515625e+01 1.077134370803833008e+00 2.674650251865386963e-01 1.151927113533020020e+00 4.258176386356353760e-01 -6.002793312072753906e-01
1.244000000000000000e+03 6.896377563476562500e+01 -6.504465579986572266e+00 1.885296404361724854e-01 5.538465499877929688e+00 1.718098521232604980e+00 1.031853437423706055e+00
1.245000000000000000e+03 6.837556457519531250e+01 -7.833477497100830078e+00 2.471914589405059814e-01 4.620283126831054688e+00 1.460242390632629395e+00 9.868980050086975098e-01
1.246000000000000000e+03 7.023697662353515625e+01 4.732856273651123047e+00 3.167681396007537842e-02 1.176928043365478516e+01 3.540287256240844727e+00 3.381624817848205566e-02
1.247000000000000000e+03 7.126278686523437500e+01 9.010348320007324219e+00 -5.065384879708290100e-02 9.788370132446289062e+00 2.921314716339111328e+00 8.810320496559143066e-02
1.248000000000000000e+03 7.115441894531250000e+01 1.036808586120605469e+01 -5.836800336837768555e-01 9.420134544372558594e+00 2.650936365127563477e+00 6.133003160357475281e-02
1.249000000000000000e+03 4.590729141235351562e+01 2.780818223953247070e+00 3.074104189872741699e-01 1.189848661422729492e+00 4.491777420043945312e-01 -6.399670839309692383e-01
1.250000000000000000e+03 4.214854812622070312e+01 2.054028892517089844e+01 8.214510977268218994e-02 9.839691519737243652e-01 3.198342621326446533e-01 1.692550778388977051e-01
1.251000000000000000e+03 6.843715667724609375e+01 -1.227068042755126953e+01 3.792810440063476562e-02 3.674308538436889648e+00 1.113671064376831055e+00 4.146927595138549805e-01
1.252000000000000000e+03 5.014062500000000000e+01 -1.149792671203613281e+01 1.204458117485046387e+00 2.088100910186767578e+00 9.877676963806152344e-01 -1.535330891609191895e+00
1.253000000000000000e+03 4.895761871337890625e+01 3.024599075317382812e+01 9.151668101549148560e-02 2.409039139747619629e-01 9.972617775201797485e-02 1.452189981937408447e-01
1.254000000000000000e+03 4.897564315795898438e+01 3.372896957397460938e+01 -6.418707966804504395e-02 2.496387809514999390e-01 5.563551187515258789e-02 7.415909320116043091e-02
1.255000000000000000e+03 6.951929473876953125e+01 -5.156816959381103516e+00 2.854234278202056885e-01 6.434116363525390625e+00 2.015861988067626953e+00 1.065194487571716309e+00
1.256000000000000000e+03 4.427418899536132812e+01 2.602603721618652344e+01 7.252306491136550903e-02 6.256744265556335449e-01 2.094592452049255371e-01 1.862702071666717529e-01
1.257000000000000000e+03 4.366537094116210938e+01 2.467831993103027344e+01 8.534812927246093750e-02 7.153738141059875488e-01 2.402165830135345459e-01 1.847304403781890869e-01
1.258000000000000000e+03 4.215833663940429688e+01 7.378972053527832031e+00 3.323081433773040771e-01 1.556419849395751953e+00 5.666183829307556152e-01 -5.074357390403747559e-01
1.259000000000000000e+03 4.338097000122070312e+01 4.744488716125488281e+00 3.219130337238311768e-01 1.328348517417907715e+00 4.950784742832183838e-01 -5.720060467720031738e-01
1.260000000000000000e+03 6.994171905517578125e+01 2.145206832885742188e+01 -4.879493266344070435e-03 9.847579002380371094e+00 2.952809810638427734e+00 -4.980785306543111801e-03
1.261000000000000000e+03 7.107613372802734375e+01 2.298815727233886719e+01 2.571235299110412598e-01 9.340622901916503906e+00 2.879323720932006836e+00 -1.928717792034149170e-01
1.262000000000000000e+03 4.353438949584960938e+01 1.798629403114318848e+00 2.445982992649078369e-01 1.118393898010253906e+00 4.088976681232452393e-01 -5.404900908470153809e-01
1.263000000000000000e+03 4.146314239501953125e+01 1.768821716308593750e+01 8.777895569801330566e-02 1.191290259361267090e+00 3.837207555770874023e-01 8.579762279987335205e-02
1.264000000000000000e+03 6.995191955566406250e+01 2.005484580993652344e+01 2.258577756583690643e-02 9.839002609252929688e+00 2.958476543426513672e+00 1.886281184852123260e-02
1.265000000000000000e+03 7.112352752685546875e+01 2.157967567443847656e+01 1.164844259619712830e-01 9.450835227966308594e+00 2.870195865631103516e+00 -6.467751413583755493e-02
1.266000000000000000e+03 7.565148162841796875e+01 1.494930362701416016e+01 -3.730539977550506592e-02 7.767679214477539062e+00 2.319112062454223633e+00 8.813896030187606812e-02
1.267000000000000000e+03 7.117538452148437500e+01 1.879043197631835938e+01 4.125238209962844849e-02 9.459659576416015625e+00 2.850273609161376953e+00 8.324569463729858398e-02
1.268000000000000000e+03 1.317157983779907227e+00 -4.012776184082031250e+01 -6.551950937137007713e-04 1.307379221543669701e-03 1.956552296178415418e-04 2.919443613791372627e-05
1.269000000000000000e+03 8.052210211753845215e-01 3.729538345336914062e+01 1.855089445598423481e-03 -4.011959731578826904e-01 -1.198022663593292236e-01 -5.035121459513902664e-03
1.270000000000000000e+03 7.139086723327636719e-01 3.452003097534179688e+01 8.521719719283282757e-04 -4.139634072780609131e-01 -1.239333748817443848e-01 -2.037283498793840408e-03
1.271000000000000000e+03 6.981840133666992188e-01 3.313567352294921875e+01 -2.474089851602911949e-04 -4.172807335853576660e-01 -1.252584457397460938e-01 -1.137497602030634880e-03
1.272000000000000000e+03 6.393000483512878418e-01 2.753589630126953125e+01 -8.942995191318914294e-05 -4.178225398063659668e-01 -1.253735870122909546e-01 1.309844898059964180e-03
1.273000000000000000e+03 6.498762965202331543e-01 2.612951850891113281e+01 8.334087906405329704e-04 -4.142614901065826416e-01 -1.240284293889999390e-01 1.956166932359337807e-03
1.274000000000000000e+03 8.262594342231750488e-01 -3.599913787841796875e+01 4.665174346882849932e-04 6.832142244093120098e-04 3.449195064604282379e-04 1.591252948855981231e-04
1.275000000000000000e+03 2.221673965454101562e+00 -3.296824264526367188e+01 -7.037134491838514805e-04 3.409150522202253342e-04 -1.088395219994708896e-04 2.378178760409355164e-04
1.276000000000000000e+03 3.220349788665771484e+00 2.574780464172363281e+01 4.868080373853445053e-03 -3.442889451980590820e-01 -1.018262580037117004e-01 1.050895545631647110e-02
1.277000000000000000e+03 3.263614177703857422e+00 2.427515029907226562e+01 6.792001426219940186e-03 -3.378887176513671875e-01 -9.932901710271835327e-02 1.573798060417175293e-02
1.278000000000000000e+03 2.179325819015502930e+00 3.410063552856445312e+01 -1.185517539852298796e-04 -3.786883652210235596e-01 -1.136420741677284241e-01 -2.621726598590612411e-03
1.279000000000000000e+03 2.136561632156372070e+00 3.275597381591796875e+01 1.567522296682000160e-03 -3.794088363647460938e-01 -1.133523955941200256e-01 -2.861215034499764442e-03
1.280000000000000000e+03 3.472531795501708984e+00 3.906825256347656250e+01 -1.901822834042832255e-04 -3.633619546890258789e-01 -1.090656444430351257e-01 -5.291337147355079651e-03
1.281000000000000000e+03 2.113625049591064453e+00 -3.016314888000488281e+01 -6.513308617286384106e-04 1.521057947684312239e-05 -1.908360864035785198e-04 -6.126827884145313874e-06
1.282000000000000000e+03 7.477341651916503906e+00 -2.373786926269531250e+01 -7.291320944204926491e-04 -7.846051448723301291e-05 -2.422777761239558458e-04 2.696051669772714376e-04
1.283000000000000000e+03 2.635961294174194336e+00 -3.701795959472656250e+01 4.443509678822010756e-04 1.047399127855896950e-03 4.475250025279819965e-04 4.892505821771919727e-04
1.284000000000000000e+03 2.887591600418090820e+00 -2.186410140991210938e+01 5.105996970087289810e-04 4.473343506106175482e-05 1.665999443503096700e-04 1.405503280693665147e-04
1.285000000000000000e+03 6.401486992835998535e-01 2.047431564331054688e+01 5.968530895188450813e-04 -3.768557012081146240e-01 -1.128776594996452332e-01 7.057187147438526154e-03
1.286000000000000000e+03 6.319434046745300293e-01 1.906329154968261719e+01 8.105795131996273994e-04 -3.595356643199920654e-01 -1.076175272464752197e-01 8.593308739364147186e-03
1.287000000000000000e+03 6.048950552940368652e-01 1.483156013488769531e+01 4.723022284451872110e-04 -2.839498817920684814e-01 -8.504327386617660522e-02 1.350453589111566544e-02
1.288000000000000000e+03 5.935518741607666016e-01 1.342252635955810547e+01 7.417587330564856529e-04 -2.504855990409851074e-01 -7.492315024137496948e-02 1.489567384123802185e-02
1.289000000000000000e+03 5.324178338050842285e-01 7.800437927246093750e+00 -4.739222640637308359e-04 -9.202326089143753052e-02 -2.774915657937526703e-02 1.481836196035146713e-02
1.290000000000000000e+03 4.960353374481201172e+00 -4.052449035644531250e+01 -1.060067326761782169e-03 9.368766914121806622e-04 -3.695717532536946237e-05 5.596807386609725654e-05
1.291000000000000000e+03 6.399626731872558594e+00 -3.645727539062500000e+01 7.338188588619232178e-04 1.276877941563725471e-03 6.032090168446302414e-04 4.227916360832750797e-04
1.292000000000000000e+03 2.477004528045654297e+00 -3.570550537109375000e+01 -6.348983733914792538e-04 5.581576260738074780e-04 -2.302222492289729416e-05 5.272971466183662415e-04
1.293000000000000000e+03 2.167763471603393555e+00 -3.157408523559570312e+01 8.370908908545970917e-04 1.335213164566084743e-04 2.911836782004684210e-04 2.523494185879826546e-04
1.294000000000000000e+03 1.921733379364013672e+00 -2.731704711914062500e+01 -6.849201163277029991e-04 -4.393817653181031346e-05 -2.186574856750667095e-04 -7.772419485263526440e-05
1.295000000000000000e+03 2.729756116867065430e+00 -2.315369224548339844e+01 -6.316681392490863800e-04 4.754270776174962521e-06 -1.880741619970649481e-04 -1.945678086485713720e-04
1.296000000000000000e+03 1.795747637748718262e+00 -2.594097518920898438e+01 7.133792387321591377e-04 -2.593815042928326875e-05 2.062323183054104447e-04 5.610914013232104480e-05
1.297000000000000000e+03 6.266135573387145996e-01 -1.913503456115722656e+01 4.013882135041058064e-04 1.584102392371278256e-05 1.251687790500000119e-04 4.859019099967554212e-05
1.298000000000000000e+03 3.062664985656738281e+00 -2.049190902709960938e+01 -4.215420049149543047e-04 -1.009877378237433732e-04 -1.567589206388220191e-04 -1.214898584294132888e-04
1.299000000000000000e+03 1.898569464683532715e+00 -1.624429512023925781e+01 -3.492903197184205055e-04 -2.706321902223862708e-05 -1.129060619859956205e-04 -1.235003219335339963e-05
1.300000000000000000e+03 6.186896562576293945e-01 -1.206918716430664062e+01 -2.815368643496185541e-04 -1.634511022530205082e-06 -8.495141082676127553e-05 -1.407251602358883247e-05
1.301000000000000000e+03 1.846917867660522461e+00 -1.200112438201904297e+01 2.984603343065828085e-04 -8.876659194356761873e-06 8.687510126037523150e-05 1.236510706803528592e-05
1.302000000000000000e+03 1.895942449569702148e+00 -6.259816646575927734e+00 2.034880162682384253e-04 1.191451337945181876e-05 6.462076271418482065e-05 2.491121085768099874e-05
1.303000000000000000e+03 3.238510131835937500e+00 -4.748137950897216797e+00 1.387769152643159032e-04 3.586632374208420515e-05 5.239297388470731676e-05 4.836959124077111483e-05
1.304000000000000000e+03 1.496841549873352051e+00 -2.874563455581665039e+00 -4.064991662744432688e-05 -5.682666596840135753e-05 -2.924297405115794390e-05 2.387538006587419659e-05
1.305000000000000000e+03 5.052406191825866699e-01 4.946265220642089844e+00 -1.633338164538145065e-03 -2.283613383769989014e-02 -7.340841926634311676e-03 9.161245077848434448e-03
1.306000000000000000e+03 6.366230964660644531e+00 4.260260105133056641e+00 -7.099252194166183472e-02 -8.157492429018020630e-02 -4.577023163437843323e-02 1.209561601281166077e-01
1.307000000000000000e+03 1.707096695899963379e+00 1.044028377532958984e+01 5.063035641796886921e-04 -1.711177974939346313e-01 -5.118344724178314209e-02 4.706920683383941650e-02
1.308000000000000000e+03 5.689486861228942871e-01 1.060901451110839844e+01 3.022442106157541275e-04 -1.736286133527755737e-01 -5.199791118502616882e-02 1.641560345888137817e-02
1.309000000000000000e+03 1.778633594512939453e+00 1.322659397125244141e+01 2.771934727206826210e-03 -2.350340336561203003e-01 -6.967862695455551147e-02 4.285845533013343811e-02
1.310000000000000000e+03 1.915680527687072754e+00 2.024628639221191406e+01 3.422637004405260086e-03 -3.424957692623138428e-01 -1.017219424247741699e-01 2.108670026063919067e-02
1.311000000000000000e+03 1.893014073371887207e+00 1.884156608581542969e+01 3.719118190929293633e-03 -3.275372684001922607e-01 -9.714544564485549927e-02 2.541205286979675293e-02
1.312000000000000000e+03 1.966399788856506348e+00 2.449413108825683594e+01 2.559059998020529747e-03 -3.714605867862701416e-01 -1.106704548001289368e-01 9.071722626686096191e-03
1.313000000000000000e+03 1.995932769775390625e+01 -1.226299285888671875e+01 5.115972453495487571e-05 5.758922634413465858e-05 3.262468453613109887e-05 2.287702045578043908e-05
1.314000000000000000e+03 1.312428188323974609e+01 -1.305248928070068359e+01 -1.893876615213230252e-04 -1.644232106627896428e-04 -1.061432631104253232e-04 6.770989421056583524e-05
1.315000000000000000e+03 5.567314910888671875e+01 -3.779861831665039062e+01 -4.248861372470855713e-01 1.742846608161926270e+00 3.953881561756134033e-01 -2.427053749561309814e-01
1.316000000000000000e+03 6.019988632202148438e+01 -3.702192306518554688e+01 -2.094717919826507568e-01 3.150785565376281738e-01 3.168203309178352356e-02 -6.698885560035705566e-01
1.317000000000000000e+03 1.103591442108154297e+01 -1.436245536804199219e+01 9.382009739056229591e-05 -6.635404133703559637e-05 8.239815542765427381e-06 1.852017157943919301e-04
1.318000000000000000e+03 5.759266662597656250e+01 -1.637490653991699219e+01 4.606823921203613281e+00 -2.123938322067260742e+00 7.448657751083374023e-01 -4.810456752777099609e+00
1.319000000000000000e+03 6.026702117919921875e+01 -1.859838294982910156e+01 5.795627236366271973e-01 3.770243167877197266e+00 1.304941773414611816e+00 1.946663260459899902e+00
1.320000000000000000e+03 5.997912979125976562e+01 -1.889179801940917969e+01 3.444432020187377930e-01 3.077484130859375000e+00 1.026578187942504883e+00 1.920614957809448242e+00
1.321000000000000000e+03 5.976504516601562500e+01 -1.898396110534667969e+01 2.546218633651733398e-01 2.801778793334960938e+00 9.169201850891113281e-01 1.921922206878662109e+00
1.322000000000000000e+03 5.907223129272460938e+01 -1.943513107299804688e+01 -1.689137220382690430e-01 2.169988870620727539e+00 6.003225445747375488e-01 1.800953984260559082e+00
1.323000000000000000e+03 6.038798522949218750e+01 -1.850232315063476562e+01 5.879941582679748535e-01 4.214843750000000000e+00 1.440851449966430664e+00 1.880487322807312012e+00
1.324000000000000000e+03 5.958359527587890625e+01 -1.907944107055664062e+01 1.951686441898345947e-01 2.543342590332031250e+00 8.215533494949340820e-01 1.924124360084533691e+00
1.325000000000000000e+03 1.631629753112792969e+01 -9.487012863159179688e+00 -4.374665877548977733e-05 -6.385907181538641453e-05 -3.228171772207133472e-05 -8.299368346342816949e-05
1.326000000000000000e+03 1.581141853332519531e+01 -7.777809619903564453e+00 -5.984527160762809217e-05 -1.844352595981035847e-06 -1.850688749982509762e-05 4.090525180799886584e-05
1.327000000000000000e+03 1.370995712280273438e+01 -6.121604919433593750e+00 4.300209548091515899e-05 7.639043178642168641e-05 3.581775672500953078e-05 3.335305518703535199e-05
1.328000000000000000e+03 1.866856002807617188e+01 -1.084479713439941406e+01 8.601360605098307133e-05 3.667949567898176610e-05 3.680793088278733194e-05 5.652484105667099357e-05
1.329000000000000000e+03 1.683106994628906250e+01 -6.982893466949462891e+00 -8.680135942995548248e-05 -1.444555618945742026e-05 -3.037407623196486384e-05 -9.913786925608292222e-06
1.330000000000000000e+03 6.134375762939453125e+01 -1.883882904052734375e+01 4.555586874485015869e-01 4.033041954040527344e+00 1.346580147743225098e+00 5.106639862060546875e-01
1.331000000000000000e+03 1.893514251708984375e+01 -9.708413124084472656e+00 6.688814755761995912e-05 3.524639396346174181e-05 3.064036354771815240e-05 4.800119859282858670e-05
1.332000000000000000e+03 5.843315505981445312e+01 -2.034960365295410156e+01 -7.412551045417785645e-01 1.971950531005859375e+00 3.692086040973663330e-01 1.708062529563903809e+00
1.333000000000000000e+03 5.461817169189453125e+01 -2.157708549499511719e+01 -1.153082728385925293e+00 6.695451140403747559e-01 -1.450612694025039673e-01 2.653626501560211182e-01
1.334000000000000000e+03 5.614379119873046875e+01 -2.197584915161132812e+01 -8.208472728729248047e-01 1.484573483467102051e+00 1.991178542375564575e-01 9.077933430671691895e-01
1.335000000000000000e+03 4.601056289672851562e+01 -2.370055389404296875e+01 -2.966812551021575928e-01 -3.561686873435974121e-01 -1.958549916744232178e-01 -7.491896748542785645e-01
1.336000000000000000e+03 4.715273284912109375e+01 -2.409548568725585938e+01 -2.564723193645477295e-01 -3.006014823913574219e-01 -1.671221405267715454e-01 -8.117396235466003418e-01
1.337000000000000000e+03 4.226007843017578125e+01 -1.908721923828125000e+01 -1.135182023048400879e+00 2.100551277399063110e-01 -2.775380611419677734e-01 3.899339139461517334e-01
1.338000000000000000e+03 1.503695678710937500e+01 -6.171776771545410156e+00 -7.086512778187170625e-05 -5.591115404968149960e-05 -3.803288564085960388e-05 1.909000820887740701e-05
1.339000000000000000e+03 1.487220287322998047e+01 -5.298136711120605469e+00 -6.744678103132173419e-05 -5.429240627563558519e-05 -3.652175655588507652e-05 -1.892254294943995774e-05
1.340000000000000000e+03 1.398434925079345703e+01 -5.523632049560546875e+00 -7.764479960314929485e-05 -6.297445361269637942e-05 -4.218577669234946370e-05 -3.180952262482605875e-05
1.341000000000000000e+03 1.766291809082031250e+01 -8.020356178283691406e+00 -8.699191675987094641e-05 -1.995461025217082351e-05 -3.208395719411782920e-05 -2.137704177584964782e-05
1.342000000000000000e+03 1.185301113128662109e+01 -3.649444580078125000e+00 5.922702621319331229e-05 8.239320595748722553e-05 4.248607001500204206e-05 1.299754876527003944e-05
1.343000000000000000e+03 1.276603698730468750e+01 -4.928908824920654297e+00 -8.417381468461826444e-05 -6.237579509615898132e-05 -4.396488293423317373e-05 -1.548050568089820445e-05
1.344000000000000000e+03 1.150106048583984375e+01 -4.287295818328857422e+00 -8.577587868785485625e-05 -6.985764775890856981e-05 -4.669006011681631207e-05 -1.595620460648206063e-06
1.345000000000000000e+03 1.851557350158691406e+01 -9.112049102783203125e+00 -8.481766417389735579e-05 -1.487911140429787338e-05 -2.990903158206492662e-05 -3.603583900257945061e-05
1.346000000000000000e+03 1.745698165893554688e+01 -9.044514656066894531e+00 -1.273939269594848156e-04 -1.273837551707401872e-05 -4.203969001537188888e-05 -4.234792140778154135e-05
1.347000000000000000e+03 1.640543937683105469e+01 -1.120741271972656250e+01 1.472064013796625659e-05 -1.472257764589812723e-07 4.372024250187678263e-06 -6.096034485381096601e-05
1.348000000000000000e+03 8.165966987609863281e+00 -4.305490493774414062e+00 -7.475022721337154508e-05 -3.187580296071246266e-05 -3.198780905222520232e-05 -9.845718886936083436e-05
1.349000000000000000e+03 9.602730751037597656e+00 -3.580832958221435547e+00 2.775857501546852291e-05 1.005344311124645174e-04 3.848790220217779279e-05 4.060471474076621234e-05
1.350000000000000000e+03 4.446380233764648438e+01 -2.420182991027832031e+01 -1.328801363706588745e-01 -4.970602691173553467e-01 -1.889821290969848633e-01 -6.198575496673583984e-01
1.351000000000000000e+03 4.648602676391601562e+01 -2.444820404052734375e+01 -1.547666639089584351e-01 -3.831219971179962158e-01 -1.613665968179702759e-01 -8.007656335830688477e-01
1.352000000000000000e+03 4.477434158325195312e+01 -2.565357398986816406e+01 -7.870479673147201538e-02 -6.624097228050231934e-01 -2.223343551158905029e-01 -7.500050663948059082e-01
1.353000000000000000e+03 4.762131500244140625e+01 -2.474573898315429688e+01 -8.355750888586044312e-02 -2.504473030567169189e-01 -1.002014428377151489e-01 -8.037058115005493164e-01
1.354000000000000000e+03 5.242708969116210938e+01 -1.654363822937011719e+01 6.465535163879394531e-01 2.789169251918792725e-01 2.776411473751068115e-01 5.962739586830139160e-01
1.355000000000000000e+03 5.185764312744140625e+01 -1.604249763488769531e+01 2.211331844329833984e+00 2.200764715671539307e-01 7.294225096702575684e-01 4.661938846111297607e-01
1.356000000000000000e+03 5.528235435485839844e+00 2.682616472244262695e+00 -7.003764808177947998e-02 -3.306037932634353638e-02 -3.092940896749496460e-02 6.983698904514312744e-02
1.357000000000000000e+03 2.500985860824584961e+00 3.871326923370361328e+00 -1.689833402633666992e-02 -3.730693832039833069e-02 -1.626158133149147034e-02 3.299444541335105896e-02
1.358000000000000000e+03 3.288736820220947266e+00 2.867625713348388672e+00 -2.802019380033016205e-02 -2.587702311575412750e-02 -1.616916619241237640e-02 3.208211436867713928e-02
1.359000000000000000e+03 4.029879570007324219e+00 2.806262493133544922e+00 -3.971678391098976135e-02 -2.765234932303428650e-02 -2.021073922514915466e-02 4.316839203238487244e-02
1.360000000000000000e+03 5.559743404388427734e+00 3.493182897567749023e+00 -6.738059967756271362e-02 -5.349906906485557556e-02 -3.626389801502227783e-02 8.942261338233947754e-02
1.361000000000000000e+03 6.293847084045410156e+00 3.422855377197265625e+00 -8.170015364885330200e-02 -5.804314836859703064e-02 -4.192299023270606995e-02 1.044923737645149231e-01
1.362000000000000000e+03 9.066276550292968750e+00 3.384974956512451172e+00 -1.261869370937347412e-01 -1.271493881940841675e-01 -7.600089907646179199e-02 1.813114881515502930e-01
1.363000000000000000e+03 6.264701843261718750e+00 2.639810800552368164e+00 -8.901495486497879028e-02 -3.995217755436897278e-02 -3.869013860821723938e-02 8.738823235034942627e-02
1.364000000000000000e+03 7.009540557861328125e+00 3.349571704864501953e+00 -9.708053618669509888e-02 -6.864969432353973389e-02 -4.971906915307044983e-02 1.230360120534896851e-01
1.365000000000000000e+03 5.097019958496093750e+01 -2.237019729614257812e+01 -9.415782094001770020e-01 3.156390041112899780e-02 -2.730042934417724609e-01 -6.337163448333740234e-01
1.366000000000000000e+03 9.977112770080566406e+00 2.869596958160400391e+00 -1.577256321907043457e-01 -1.523567140102386475e-01 -9.302470088005065918e-02 1.964360475540161133e-01
1.367000000000000000e+03 5.051348495483398438e+01 -1.465902996063232422e+01 2.229160308837890625e+00 8.919610977172851562e-01 9.363364577293395996e-01 -5.741415023803710938e-01
1.368000000000000000e+03 2.627496910095214844e+01 -1.001134872436523438e+01 -3.382616043090820312e-01 -2.788188755512237549e-01 -1.851241439580917358e-01 3.872213363647460938e-01
1.369000000000000000e+03 2.749374771118164062e+01 -1.385040569305419922e+01 -2.759376168251037598e-01 -1.654116511344909668e-01 -1.324047744274139404e-01 3.402991294860839844e-01
1.370000000000000000e+03 2.703422927856445312e+01 -1.137915420532226562e+01 -3.218600153923034668e-01 -2.189751714468002319e-01 -1.622505486011505127e-01 3.910032808780670166e-01
1.371000000000000000e+03 2.666708564758300781e+01 -1.069569110870361328e+01 -3.342238962650299072e-01 -2.490513324737548828e-01 -1.749825626611709595e-01 3.876517117023468018e-01
1.372000000000000000e+03 2.776827812194824219e+01 -1.272992897033691406e+01 -3.084552288055419922e-01 -1.686431467533111572e-01 -1.431295126676559448e-01 3.815403580665588379e-01
1.373000000000000000e+03 2.486801528930664062e+01 -9.087668418884277344e+00 -3.615812957286834717e-01 -4.062415063381195068e-01 -2.303468286991119385e-01 3.925541341304779053e-01
1.374000000000000000e+03 2.959417152404785156e+01 -1.541865062713623047e+01 -3.964774310588836670e-01 -7.589779794216156006e-02 -1.417125612497329712e-01 2.887787818908691406e-01
1.375000000000000000e+03 3.100146102905273438e+01 -1.527708435058593750e+01 -4.716438055038452148e-01 -4.801824688911437988e-02 -1.558986157178878784e-01 3.280712664127349854e-01
1.376000000000000000e+03 5.120640945434570312e+01 -2.304895019531250000e+01 -5.840334892272949219e-01 1.764633655548095703e-01 -1.222710460424423218e-01 -5.750189423561096191e-01
1.377000000000000000e+03 4.977053451538085938e+01 -2.328223228454589844e+01 -5.048195719718933105e-01 -5.710922926664352417e-02 -1.685786396265029907e-01 -7.266590595245361328e-01
1.378000000000000000e+03 5.046622085571289062e+01 -2.315345573425292969e+01 -5.349804162979125977e-01 3.201654180884361267e-02 -1.508891582489013672e-01 -6.876266598701477051e-01
1.379000000000000000e+03 4.997970581054687500e+01 -1.637462043762207031e+01 -1.694779694080352783e-01 6.494836509227752686e-02 -3.135888278484344482e-02 8.280000090599060059e-01
1.380000000000000000e+03 4.925286865234375000e+01 -1.652843093872070312e+01 -2.345765382051467896e-01 7.496675848960876465e-02 -4.788293689489364624e-02 6.957907676696777344e-01
1.381000000000000000e+03 5.319260787963867188e+01 -2.186260795593261719e+01 -1.135286688804626465e+00 3.929986059665679932e-01 -2.226864397525787354e-01 -2.014387100934982300e-01
1.382000000000000000e+03 5.646869277954101562e+01 -2.586364746093750000e+01 1.162647485733032227e+00 3.437510251998901367e+00 1.380047321319580078e+00 1.450913667678833008e+00
1.383000000000000000e+03 5.336372756958007812e+01 -2.334635543823242188e+01 -3.630283474922180176e-01 8.485226035118103027e-01 1.456482857465744019e-01 -7.720632106065750122e-02
1.384000000000000000e+03 5.202843856811523438e+01 -2.295390510559082031e+01 -5.893585681915283203e-01 3.473555743694305420e-01 -7.260088622570037842e-02 -4.260388612747192383e-01
1.385000000000000000e+03 5.347275161743164062e+01 -2.245788002014160156e+01 -8.140722513198852539e-01 5.924704670906066895e-01 -6.648052483797073364e-02 -1.041972860693931580e-01
1.386000000000000000e+03 5.741585922241210938e+01 -2.506990814208984375e+01 9.275469779968261719e-01 2.965461492538452148e+00 1.167902588844299316e+00 1.734421253204345703e+00
1.387000000000000000e+03 4.633305740356445312e+01 -1.721169662475585938e+01 -1.009424209594726562e+00 1.063472256064414978e-01 -2.709230780601501465e-01 5.978505015373229980e-01
1.388000000000000000e+03 4.439827346801757812e+01 -1.851307678222656250e+01 -1.309383511543273926e+00 2.182422727346420288e-01 -3.273423612117767334e-01 4.267429411411285400e-01
1.389000000000000000e+03 4.852575302124023438e+01 -1.668068313598632812e+01 -6.845069527626037598e-01 -2.552182879298925400e-03 -2.061177343130111694e-01 8.056840896606445312e-01
1.390000000000000000e+03 4.706762313842773438e+01 -1.702780342102050781e+01 -9.871090054512023926e-01 4.566669836640357971e-02 -2.824327051639556885e-01 7.074569463729858398e-01
1.391000000000000000e+03 4.349593353271484375e+01 -1.635757064819335938e+01 -7.443231344223022461e-01 1.345679610967636108e-01 -1.829265654087066650e-01 4.898173511028289795e-01
1.392000000000000000e+03 4.485404586791992188e+01 -1.760281753540039062e+01 -1.107418656349182129e+00 1.816235482692718506e-01 -2.777385115623474121e-01 5.258597731590270996e-01
1.393000000000000000e+03 4.133801651000976562e+01 -1.845005226135253906e+01 -1.191847801208496094e+00 1.226067095994949341e-01 -3.207723498344421387e-01 4.058128893375396729e-01
1.394000000000000000e+03 4.036571884155273438e+01 -1.643848609924316406e+01 -8.653699159622192383e-01 -7.347594201564788818e-02 -2.816537618637084961e-01 3.255756795406341553e-01
1.395000000000000000e+03 4.371164321899414062e+01 -2.686309242248535156e+01 -1.056472659111022949e-01 -1.069264650344848633e+00 -3.524735569953918457e-01 -6.702437996864318848e-01
1.396000000000000000e+03 2.499488067626953125e+01 -7.993205070495605469e+00 -3.612462282180786133e-01 -3.694383800029754639e-01 -2.192053794860839844e-01 3.719514608383178711e-01
1.397000000000000000e+03 2.542984771728515625e+01 -8.654196739196777344e+00 -3.523785769939422607e-01 -3.413242101669311523e-01 -2.081108391284942627e-01 3.777255713939666748e-01
1.398000000000000000e+03 2.354952430725097656e+01 -7.110484123229980469e+00 -3.871205747127532959e-01 -4.805610775947570801e-01 -2.603044807910919189e-01 3.988370597362518311e-01
1.399000000000000000e+03 2.423768615722656250e+01 -5.614881515502929688e+00 -3.340768516063690186e-01 -3.695663511753082275e-01 -2.110929489135742188e-01 3.244683146476745605e-01
1.400000000000000000e+03 2.318626022338867188e+01 -5.382524490356445312e+00 -3.629370033740997314e-01 -4.387310743331909180e-01 -2.405004203319549561e-01 3.514611721038818359e-01
1.401000000000000000e+03 1.651071548461914062e+01 -3.491534888744354248e-01 -3.435685634613037109e-01 -3.687500059604644775e-01 -2.136955708265304565e-01 3.273813426494598389e-01
1.402000000000000000e+03 1.410621261596679688e+01 1.911631107330322266e+00 -2.140636742115020752e-01 -2.876300215721130371e-01 -1.505081057548522949e-01 2.597065269947052002e-01
1.403000000000000000e+03 1.719632339477539062e+01 -8.143392801284790039e-01 -3.599405586719512939e-01 -3.967233598232269287e-01 -2.269991785287857056e-01 3.404454588890075684e-01
1.404000000000000000e+03 1.673557090759277344e+01 1.183712124824523926e+00 -2.060991972684860229e-01 -3.608187437057495117e-01 -1.700753867626190186e-01 2.712831795215606689e-01
1.405000000000000000e+03 1.288507938385009766e+01 1.715406656265258789e+00 -2.460624724626541138e-01 -2.404848337173461914e-01 -1.459641903638839722e-01 2.463896870613098145e-01
1.406000000000000000e+03 1.915320587158203125e+01 -2.305794715881347656e+00 -3.890593349933624268e-01 -4.622801542282104492e-01 -2.554018497467041016e-01 3.695227801799774170e-01
1.407000000000000000e+03 2.100867843627929688e+01 -3.929518938064575195e+00 -3.995098471641540527e-01 -4.974297285079956055e-01 -2.690818607807159424e-01 3.823702335357666016e-01
1.408000000000000000e+03 2.156667327880859375e+01 -3.366363763809204102e+00 -3.360743522644042969e-01 -4.488510191440582275e-01 -2.354776114225387573e-01 3.298246562480926514e-01
1.409000000000000000e+03 2.219207572937011719e+01 -3.992393970489501953e+00 -3.439071178436279297e-01 -4.443173408508300781e-01 -2.364673316478729248e-01 3.325162529945373535e-01
1.410000000000000000e+03 1.898312187194824219e+01 -1.287113308906555176e+00 -3.145591020584106445e-01 -4.309642314910888672e-01 -2.236570119857788086e-01 3.225105702877044678e-01
1.411000000000000000e+03 1.832946968078613281e+01 -7.830936312675476074e-01 -3.054360449314117432e-01 -4.157573878765106201e-01 -2.163580358028411865e-01 3.162200152873992920e-01
1.412000000000000000e+03 1.765652656555175781e+01 -2.929278910160064697e-01 -2.904768586158752441e-01 -3.967724740505218506e-01 -2.061748057603836060e-01 3.097796142101287842e-01
1.413000000000000000e+03 1.054444694519042969e+01 -4.623886108398437500e+00 -1.038020491250790656e-04 -6.931807001819834113e-05 -5.193603647057898343e-05 2.732561915763653815e-05
1.414000000000000000e+03 5.995100021362304688e+00 -2.722880840301513672e+00 9.467088966630399227e-05 -2.166314880014397204e-05 2.190232225984800607e-05 4.424359212862327695e-05
1.415000000000000000e+03 7.480786800384521484e+00 -3.489257335662841797e+00 -1.049778657034039497e-04 -1.079595494957175106e-05 -3.473214746918529272e-05 -7.970170554472133517e-05
1.416000000000000000e+03 5.179641246795654297e+00 -2.824682950973510742e+00 -5.983706068946048617e-05 3.623144948505796492e-05 -7.081683179421816021e-06 -2.771012987068388611e-05
1.417000000000000000e+03 6.731134891510009766e+00 -3.479788303375244141e+00 1.246677857125177979e-04 -1.421636261511594057e-05 3.313542765681631863e-05 7.078490307321771979e-05
1.418000000000000000e+03 4.099018573760986328e+00 -7.784455299377441406e+00 -2.600500301923602819e-04 -1.336614514002576470e-05 -8.202485332731157541e-05 -2.435535861877724528e-05
1.419000000000000000e+03 1.996394753456115723e+00 -4.747315883636474609e+00 -1.847145613282918930e-04 -2.476510417181998491e-05 -6.284390110522508621e-05 2.357296352784032933e-06
1.420000000000000000e+03 4.559342575073242188e+01 -1.740055656433105469e+01 -1.109324216842651367e+00 1.227076575160026550e-01 -2.959849536418914795e-01 6.108674407005310059e-01
1.421000000000000000e+03 1.271630859375000000e+01 2.846116304397583008e+00 -1.624923944473266602e-01 -2.485991120338439941e-01 -1.233274489641189575e-01 2.349687218666076660e-01
1.422000000000000000e+03 1.211314678192138672e+01 3.433919429779052734e+00 -1.258956789970397949e-01 -2.358040362596511841e-01 -1.085099130868911743e-01 2.290657460689544678e-01
1.423000000000000000e+03 1.139998722076416016e+01 2.688331365585327148e+00 -1.764790266752243042e-01 -2.010295987129211426e-01 -1.132525876164436340e-01 2.179800719022750854e-01
1.424000000000000000e+03 9.777570724487304688e+00 -2.866220712661743164e+00 -3.944576019421219826e-05 -9.365656296722590923e-05 -3.993069913121871650e-05 -3.406161704333499074e-05
1.425000000000000000e+03 2.455317878723144531e+01 -7.340260505676269531e+00 -3.615386188030242920e-01 -3.932972848415374756e-01 -2.264507710933685303e-01 3.689541816711425781e-01
1.426000000000000000e+03 2.270576286315917969e+01 -4.702569007873535156e+00 -3.517287075519561768e-01 -4.421651661396026611e-01 -2.381681501865386963e-01 3.434853851795196533e-01
1.427000000000000000e+03 2.025850486755371094e+01 -2.322495460510253906e+00 -3.332629799842834473e-01 -4.514798820018768311e-01 -2.354228645563125610e-01 3.313857913017272949e-01
1.428000000000000000e+03 1.962337303161621094e+01 -1.801790475845336914e+00 -3.265343904495239258e-01 -4.436168968677520752e-01 -2.310453802347183228e-01 3.270092904567718506e-01
1.429000000000000000e+03 1.482299327850341797e+01 1.495885491371154785e+00 -2.316549122333526611e-01 -3.076273798942565918e-01 -1.617846935987472534e-01 2.727935910224914551e-01
1.430000000000000000e+03 8.927407264709472656e+00 -3.522799015045166016e+00 -4.015870581497438252e-05 -7.803143671480938792e-05 -3.545704385032877326e-05 -7.123318937374278903e-05
1.431000000000000000e+03 1.049476528167724609e+01 -3.065480470657348633e+00 3.786501110880635679e-05 9.095257701119408011e-05 3.864527388941496611e-05 1.713130586722400039e-05
1.432000000000000000e+03 1.144376754760742188e+01 -1.289040279388427734e+01 -2.109801862388849258e-04 -2.192241299781017005e-05 -6.987078086240217090e-05 2.381987178523559123e-05
1.433000000000000000e+03 8.868891716003417969e+00 -1.605709838867187500e+01 -4.560166853480041027e-04 -1.861035161709878594e-05 -1.423881185473874211e-04 -8.764112067183305044e-07
1.434000000000000000e+03 7.243010711669921875e+01 1.300960063934326172e+01 -2.461335211992263794e-01 8.974784851074218750e+00 2.618595361709594727e+00 -2.429542317986488342e-02
1.435000000000000000e+03 3.018686103820800781e+01 -1.603057861328125000e+01 -4.555985331535339355e-01 -6.056813895702362061e-02 -1.548499912023544312e-01 2.534563541412353516e-01
1.436000000000000000e+03 3.301821899414062500e+01 -1.674354171752929688e+01 -7.045483589172363281e-01 -1.096509210765361786e-02 -2.146540433168411255e-01 2.646759152412414551e-01
1.437000000000000000e+03 3.236999893188476562e+01 -1.523256206512451172e+01 -5.474455952644348145e-01 -4.618198797106742859e-02 -1.780882626771926880e-01 3.559999465942382812e-01
1.438000000000000000e+03 2.986527252197265625e+01 -1.407452964782714844e+01 -3.804096281528472900e-01 -8.939677476882934570e-02 -1.409419178962707520e-01 3.616150617599487305e-01
1.439000000000000000e+03 2.234660911560058594e+01 -3.525045776367187500e+01 -1.859350013546645641e-04 -4.168912346358411014e-05 -6.828723417129367590e-05 5.656004417687654495e-03
1.440000000000000000e+03 2.422220611572265625e+01 -3.445016479492187500e+01 6.813146639615297318e-03 -7.743764435872435570e-04 1.811631023883819580e-03 5.657859612256288528e-03
1.441000000000000000e+03 3.163434982299804688e+01 -1.590246677398681641e+01 -5.612431764602661133e-01 -3.444020450115203857e-02 -1.787050217390060425e-01 3.007246255874633789e-01
1.442000000000000000e+03 2.998339080810546875e+01 -3.514519882202148438e+01 -2.350681088864803314e-02 -1.792509853839874268e-02 -1.242957264184951782e-02 -2.791097946465015411e-02
1.443000000000000000e+03 2.973429107666015625e+01 -3.822072982788085938e+01 -5.829825066030025482e-03 -5.729384720325469971e-02 -1.893710158765316010e-02 -3.435674309730529785e-02
1.444000000000000000e+03 4.656838989257812500e+01 -1.366774559020996094e+00 2.238056361675262451e-01 1.204785108566284180e+00 4.285772144794464111e-01 -6.071594357490539551e-01
1.445000000000000000e+03 4.484672164916992188e+01 -3.370136260986328125e+00 3.048546910285949707e-01 9.955956339836120605e-01 3.901351094245910645e-01 -5.776373744010925293e-01
1.446000000000000000e+03 6.379240798950195312e+01 -2.153967857360839844e+01 -1.463838458061218262e+00 5.816437005996704102e-01 -2.646584212779998779e-01 -2.626971006393432617e-01
1.447000000000000000e+03 4.482825851440429688e+01 -5.822766423225402832e-01 2.381836175918579102e-01 1.091315865516662598e+00 3.988498449325561523e-01 -5.751984715461730957e-01
1.448000000000000000e+03 4.979125976562500000e+01 -1.026522636413574219e+01 6.897466182708740234e-01 1.993720412254333496e+00 8.050401210784912109e-01 -1.112356305122375488e+00
1.449000000000000000e+03 4.897893524169921875e+01 -1.163853359222412109e+01 1.299308657646179199e+00 1.049226641654968262e+00 7.045605778694152832e-01 -9.685746431350708008e-01
1.450000000000000000e+03 4.412459731101989746e-01 3.519504070281982422e+00 -1.885261852294206619e-03 -2.962368074804544449e-03 -1.454288954846560955e-03 4.307229537516832352e-03
1.451000000000000000e+03 7.701016998291015625e+01 1.227450370788574219e+01 -7.536645978689193726e-02 7.208567142486572266e+00 2.139960289001464844e+00 1.390060037374496460e-01
1.452000000000000000e+03 4.939797210693359375e+01 -8.998493194580078125e+00 5.067468881607055664e-01 1.807631611824035645e+00 6.943135261535644531e-01 -9.579682946205139160e-01
1.453000000000000000e+03 4.826163864135742188e+01 -9.246100425720214844e+00 6.483291387557983398e-01 1.361767888069152832e+00 6.030290722846984863e-01 -8.867939710617065430e-01
1.454000000000000000e+03 4.274566650390625000e+01 2.651079940795898438e+01 3.190071880817413330e-02 6.390156149864196777e-01 2.012749016284942627e-01 1.015098094940185547e-01
1.455000000000000000e+03 6.386059951782226562e+01 -1.842184829711914062e+01 1.932061195373535156e+00 6.975174546241760254e-01 7.888736128807067871e-01 1.856494396924972534e-01
1.456000000000000000e+03 5.816347885131835938e+01 -2.428718566894531250e+01 4.355639219284057617e-01 2.683626174926757812e+00 9.357570409774780273e-01 1.672089457511901855e+00
1.457000000000000000e+03 4.286348342895507812e+01 3.015596389770507812e+00 2.729317545890808105e-01 1.170775294303894043e+00 4.331121444702148438e-01 -5.046933293342590332e-01
1.458000000000000000e+03 4.404459762573242188e+01 3.502526998519897461e+00 2.782137393951416016e-01 1.238030672073364258e+00 4.548732936382293701e-01 -6.032846570014953613e-01
1.459000000000000000e+03 4.694306564331054688e+01 -5.467449665069580078e+00 3.283883929252624512e-01 1.205218434333801270e+00 4.600820541381835938e-01 -6.869131922721862793e-01
1.460000000000000000e+03 3.472861862182617188e+01 -1.465291690826416016e+01 -5.534610152244567871e-01 -1.431085020303726196e-01 -2.089708596467971802e-01 4.293777942657470703e-01
1.461000000000000000e+03 3.448536300659179688e+01 -1.578827571868896484e+01 -7.275984287261962891e-01 -9.008583426475524902e-02 -2.453052848577499390e-01 3.945688903331756592e-01
1.462000000000000000e+03 3.333039093017578125e+01 -1.560094165802001953e+01 -6.346143484115600586e-01 -5.726159363985061646e-02 -2.075627893209457397e-01 3.576626479625701904e-01
1.463000000000000000e+03 7.251822662353515625e+01 6.259530067443847656e+00 3.825180828571319580e-01 9.633435249328613281e+00 3.004786014556884766e+00 1.277565956115722656e-01
1.464000000000000000e+03 4.644868469238281250e+01 -2.645048332214355469e+01 2.103595435619354248e-02 -3.450181186199188232e-01 -9.719464927911758423e-02 -7.323980331420898438e-01
1.465000000000000000e+03 7.709468841552734375e+01 -2.790415573120117188e+01 3.990189135074615479e-01 7.981935977935791016e+00 2.514286518096923828e+00 -5.297708511352539062e-01
1.466000000000000000e+03 7.396534442901611328e+00 -2.987608528137207031e+01 1.180429826490581036e-03 1.992386969504877925e-04 4.139005613978952169e-04 -4.138433723710477352e-04
1.467000000000000000e+03 1.093870067596435547e+01 -3.257623672485351562e+01 1.015201094560325146e-03 -9.147581295110285282e-05 2.771175641100853682e-04 8.407475543208420277e-04
1.468000000000000000e+03 4.740205764770507812e+01 -6.729575157165527344e+00 4.193717539310455322e-01 1.268125295639038086e+00 5.062491297721862793e-01 -7.299255728721618652e-01
1.469000000000000000e+03 7.569170379638671875e+01 2.488464164733886719e+01 2.214717566967010498e-01 7.668583869934082031e+00 2.367016792297363281e+00 4.135346114635467529e-01
1.470000000000000000e+03 7.135749816894531250e+01 3.350664615631103516e+00 4.094865024089813232e-01 1.092707920074462891e+01 3.400969743728637695e+00 4.447653293609619141e-01
1.471000000000000000e+03 7.810674285888671875e+01 2.617272377014160156e+00 9.338065236806869507e-02 6.293901443481445312e+00 1.916184663772583008e+00 -1.123567670583724976e-01
1.472000000000000000e+03 7.271225738525390625e+01 -3.131911659240722656e+01 -4.652701616287231445e-01 7.614590167999267578e+00 2.144795894622802734e+00 -2.059510350227355957e-01
1.473000000000000000e+03 7.822119903564453125e+01 -3.334408569335937500e+01 -7.915811985731124878e-02 8.794288635253906250e+00 2.614539146423339844e+00 -5.425504446029663086e-01
1.474000000000000000e+03 7.817726898193359375e+01 2.077635574340820312e+01 4.325579479336738586e-02 6.966345310211181641e+00 2.102880239486694336e+00 1.139883548021316528e-01
1.475000000000000000e+03 7.352885437011718750e+01 1.650931549072265625e+01 3.446666523814201355e-02 8.519882202148437500e+00 2.566304683685302734e+00 7.921911031007766724e-02
1.476000000000000000e+03 7.840480041503906250e+01 3.684678649902343750e+01 -6.495445966720581055e-02 9.022958755493164062e+00 2.687401294708251953e+00 4.823563992977142334e-02
1.477000000000000000e+03 7.634859466552734375e+01 3.474444961547851562e+01 -2.588651180267333984e-01 7.943879127502441406e+00 2.305504083633422852e+00 3.770280182361602783e-01
1.478000000000000000e+03 7.709131622314453125e+01 -2.233950614929199219e+01 2.365734614431858063e-02 7.992183208465576172e+00 2.404752254486083984e+00 7.168857455253601074e-01
1.479000000000000000e+03 7.821251678466796875e+01 -2.791952133178710938e+01 2.083637267351150513e-01 7.586594581604003906e+00 2.338487386703491211e+00 -4.467941224575042725e-01
1.480000000000000000e+03 7.461586761474609375e+01 -2.266469955444335938e+01 1.224683821201324463e-01 8.633667945861816406e+00 2.626840829849243164e+00 6.960003376007080078e-01
1.481000000000000000e+03 7.820787048339843750e+01 -2.652178573608398438e+01 2.397533208131790161e-01 7.453835964202880859e+00 2.308076858520507812e+00 -1.332966834306716919e-01
1.482000000000000000e+03 7.685611724853515625e+01 -2.374343109130859375e+01 4.508128464221954346e-01 7.997591495513916016e+00 2.534521341323852539e+00 5.025342106819152832e-01
1.483000000000000000e+03 7.563095092773437500e+01 -2.561744880676269531e+01 9.002499580383300781e-01 8.314025878906250000e+00 2.764282703399658203e+00 5.578496959060430527e-03
1.484000000000000000e+03 7.708650207519531250e+01 -3.210735321044921875e+01 -1.528426408767700195e-01 8.441306114196777344e+00 2.486539125442504883e+00 -8.594850897789001465e-01
1.485000000000000000e+03 7.445268249511718750e+01 -3.182595634460449219e+01 -4.826096892356872559e-01 8.128899574279785156e+00 2.293886899948120117e+00 -7.422037720680236816e-01
1.486000000000000000e+03 7.697820281982421875e+01 -3.423434066772460938e+01 -2.645795643329620361e-01 8.570328712463378906e+00 2.491724729537963867e+00 -5.805239081382751465e-01
1.487000000000000000e+03 7.489429473876953125e+01 -3.595991134643554688e+01 -4.858749210834503174e-01 7.362952709197998047e+00 2.063123226165771484e+00 -1.999496072530746460e-01
1.488000000000000000e+03 7.711401367187500000e+01 -3.738283157348632812e+01 -2.220250517129898071e-01 8.544440269470214844e+00 2.496724605560302734e+00 -1.183523759245872498e-01
1.489000000000000000e+03 7.815587615966796875e+01 2.359447669982910156e+01 6.328108906745910645e-02 7.151342391967773438e+00 2.164386987686157227e+00 2.281052917242050171e-01
1.490000000000000000e+03 7.697007751464843750e+01 2.210975837707519531e+01 1.093609929084777832e-01 7.374606132507324219e+00 2.245190143585205078e+00 2.109704166650772095e-01
1.491000000000000000e+03 7.691273498535156250e+01 2.494880485534667969e+01 1.381064355373382568e-01 7.483085632324218750e+00 2.286357641220092773e+00 3.940737843513488770e-01
1.492000000000000000e+03 7.693305206298828125e+01 1.504963874816894531e+01 -3.496632352471351624e-02 7.275609493255615234e+00 2.172192811965942383e+00 6.285843998193740845e-02
1.493000000000000000e+03 7.818124389648437500e+01 1.377389049530029297e+01 -2.614092454314231873e-02 6.765635490417480469e+00 2.021848201751708984e+00 6.716871261596679688e-02
1.494000000000000000e+03 7.695674896240234375e+01 1.365397930145263672e+01 -5.694333463907241821e-02 7.255773544311523438e+00 2.159649133682250977e+00 1.162941828370094299e-01
1.495000000000000000e+03 7.223003387451171875e+01 2.312573242187500000e+01 3.403144478797912598e-01 8.779546737670898438e+00 2.735958337783813477e+00 -4.630974680185317993e-02
1.496000000000000000e+03 7.809317016601562500e+01 2.781149864196777344e+01 3.330823034048080444e-02 7.677930831909179688e+00 2.313371658325195312e+00 4.320982098579406738e-01
1.497000000000000000e+03 7.569522857666015625e+01 1.350441360473632812e+01 -1.143234074115753174e-01 7.767479896545410156e+00 2.295947074890136719e+00 9.078156203031539917e-02
1.498000000000000000e+03 7.821537017822265625e+01 -1.956560516357421875e+01 -1.167197376489639282e-01 8.223657608032226562e+00 2.432081222534179688e+00 3.697002530097961426e-01
1.499000000000000000e+03 7.713588714599609375e+01 -2.100849533081054688e+01 -1.445882767438888550e-01 8.081321716308593750e+00 2.381020069122314453e+00 5.918771028518676758e-01
1.500000000000000000e+03 7.791072082519531250e+01 3.202595138549804688e+01 -5.612159892916679382e-02 8.302081108093261719e+00 2.473787784576416016e+00 4.280679821968078613e-01
1.501000000000000000e+03 7.668019104003906250e+01 3.056318855285644531e+01 -3.495205193758010864e-02 7.853128433227539062e+00 2.345453023910522461e+00 6.110600233078002930e-01
1.502000000000000000e+03 7.700393676757812500e+01 9.554307937622070312e+00 -2.173537947237491608e-02 7.123863220214843750e+00 2.130638360977172852e+00 2.701232135295867920e-01
1.503000000000000000e+03 7.700769042968750000e+01 -1.818752861022949219e+01 -2.726882994174957275e-01 8.074569702148437500e+00 2.340564250946044922e+00 2.588051259517669678e-01
1.504000000000000000e+03 7.551014709472656250e+01 -8.627676010131835938e+00 -1.485103666782379150e-01 7.254826545715332031e+00 2.131894826889038086e+00 -5.251255035400390625e-01
1.505000000000000000e+03 7.695381927490234375e+01 -1.441970729827880859e+01 -1.481672227382659912e-01 7.863719940185546875e+00 2.314665794372558594e+00 -1.618617773056030273e-01
1.506000000000000000e+03 7.417559814453125000e+01 -5.954871177673339844e+00 -1.051368787884712219e-01 7.269528388977050781e+00 2.149317502975463867e+00 -5.149085521697998047e-01
1.507000000000000000e+03 7.695162963867187500e+01 -4.433118343353271484e+00 -1.393203530460596085e-02 7.241614818572998047e+00 2.168304681777954102e+00 -6.130104660987854004e-01
1.508000000000000000e+03 7.690746307373046875e+01 6.827243804931640625e+00 7.284727692604064941e-02 7.055906772613525391e+00 2.138626337051391602e+00 2.334249168634414673e-01
1.509000000000000000e+03 7.550366210937500000e+01 3.762437820434570312e+01 -2.033662647008895874e-01 7.815238475799560547e+00 2.283561706542968750e+00 3.938411474227905273e-01
1.510000000000000000e+03 7.550862884521484375e+01 2.912801933288574219e+01 6.694842129945755005e-02 7.654615402221679688e+00 2.316469192504882812e+00 6.504780054092407227e-01
1.511000000000000000e+03 7.698661041259765625e+01 2.069593048095703125e+01 6.406807899475097656e-02 7.351177692413330078e+00 2.224573850631713867e+00 1.478929817676544189e-01
1.512000000000000000e+03 7.817236328125000000e+01 8.251802444458007812e+00 1.079724449664354324e-02 6.450114727020263672e+00 1.938273668289184570e+00 1.939263492822647095e-01
1.513000000000000000e+03 7.567675018310546875e+01 8.191961288452148438e+00 6.645765900611877441e-02 7.759610652923583984e+00 2.347820520401000977e+00 3.355365097522735596e-01
1.514000000000000000e+03 7.814602661132812500e+01 -2.167691737413406372e-01 6.626012176275253296e-02 6.494789600372314453e+00 1.968314886093139648e+00 -3.296897709369659424e-01
1.515000000000000000e+03 7.695422363281250000e+01 -1.779694437980651855e+00 9.202584624290466309e-02 7.070613384246826172e+00 2.148791790008544922e+00 -5.316131711006164551e-01
1.516000000000000000e+03 7.680768585205078125e+01 -8.559447288513183594e+00 -8.801490068435668945e-02 7.493040561676025391e+00 2.221507787704467773e+00 -5.042979121208190918e-01
1.517000000000000000e+03 7.718038177490234375e+01 -1.571327495574951172e+01 -1.794486194849014282e-01 7.998506546020507812e+00 2.345717430114746094e+00 -5.514773726463317871e-02
1.518000000000000000e+03 7.638465881347656250e+01 3.340898132324218750e+01 -1.672826558351516724e-01 7.956090927124023438e+00 2.336642503738403320e+00 4.945822358131408691e-01
1.519000000000000000e+03 7.699279022216796875e+01 1.928534507751464844e+01 5.520753189921379089e-02 7.312987327575683594e+00 2.210458517074584961e+00 1.085392683744430542e-01
1.520000000000000000e+03 7.467640686035156250e+01 1.913911819458007812e+01 9.755298495292663574e-02 8.087230682373046875e+00 2.455435037612915039e+00 1.193164363503456116e-01
1.521000000000000000e+03 7.819674682617187500e+01 9.623810768127441406e+00 -1.946983113884925842e-02 6.543971061706542969e+00 1.957350373268127441e+00 1.895685195922851562e-01
1.522000000000000000e+03 7.703063201904296875e+01 1.091184234619140625e+01 -8.730925619602203369e-02 7.189216136932373047e+00 2.130572080612182617e+00 2.239876687526702881e-01
1.523000000000000000e+03 7.688027954101562500e+01 -1.291461753845214844e+01 -1.310474723577499390e-01 7.751305580139160156e+00 2.286077499389648438e+00 -2.797068059444427490e-01
1.524000000000000000e+03 7.682494354248046875e+01 -7.156981468200683594e+00 -6.966664642095565796e-02 7.412660598754882812e+00 2.202898263931274414e+00 -5.529811978340148926e-01
1.525000000000000000e+03 7.746379852294921875e+01 3.610133361816406250e+01 -1.611976623535156250e-01 8.521360397338867188e+00 2.508048772811889648e+00 1.254823356866836548e-01
1.526000000000000000e+03 7.670665740966796875e+01 3.699131393432617188e+01 -1.941646039485931396e-01 8.416135787963867188e+00 2.466591358184814453e+00 1.204769238829612732e-01
1.527000000000000000e+03 7.553918457031250000e+01 2.352748870849609375e+00 3.635390698909759521e-01 7.646368503570556641e+00 2.402972221374511719e+00 -1.326600164175033569e-01
1.528000000000000000e+03 7.689588165283203125e+01 5.400561332702636719e+00 1.732753217220306396e-01 7.020074367523193359e+00 2.158004999160766602e+00 1.539361178874969482e-01
1.529000000000000000e+03 7.685169982910156250e+01 3.951230287551879883e+00 2.125827074050903320e-01 6.972668170928955078e+00 2.155575275421142578e+00 9.850523434579372406e-03
1.530000000000000000e+03 7.690420532226562500e+01 -4.013124108314514160e-01 1.524758487939834595e-01 7.003185749053955078e+00 2.146698474884033203e+00 -4.517905116081237793e-01
1.531000000000000000e+03 7.818191528320312500e+01 -4.346044540405273438e+00 3.390521276742219925e-03 7.098925590515136719e+00 2.130694866180419922e+00 -4.539865851402282715e-01
1.532000000000000000e+03 7.699743652343750000e+01 -3.117924928665161133e+00 5.827345699071884155e-02 7.136579990386962891e+00 2.158456087112426758e+00 -5.821059942245483398e-01
1.533000000000000000e+03 7.809251403808593750e+01 -1.131355953216552734e+01 -5.048967152833938599e-02 8.070836067199707031e+00 2.406104087829589844e+00 -2.744528651237487793e-01
1.534000000000000000e+03 7.678606414794921875e+01 -9.988926887512207031e+00 -1.031529605388641357e-01 7.580258846282958984e+00 2.243131637573242188e+00 -4.392058849334716797e-01
1.535000000000000000e+03 7.726385498046875000e+01 -1.684708404541015625e+01 -2.017794102430343628e-01 8.096909523010253906e+00 2.368539094924926758e+00 7.201718538999557495e-02
1.536000000000000000e+03 7.134163665771484375e+01 1.596066761016845703e+01 1.240992769598960876e-01 9.431223869323730469e+00 2.866596937179565430e+00 1.935466080904006958e-01
1.537000000000000000e+03 7.122271728515625000e+01 1.915346622467041016e+00 7.226470708847045898e-01 1.064088153839111328e+01 3.409058570861816406e+00 5.557616353034973145e-01
1.538000000000000000e+03 7.102924346923828125e+01 4.669100344181060791e-01 7.413269877433776855e-01 1.025974082946777344e+01 3.300320386886596680e+00 6.273656487464904785e-01
1.539000000000000000e+03 7.114904022216796875e+01 2.018128967285156250e+01 2.098400704562664032e-02 9.422005653381347656e+00 2.832896947860717773e+00 4.446551948785781860e-02
1.540000000000000000e+03 7.121896362304687500e+01 1.739846420288085938e+01 2.004003711044788361e-02 9.472896575927734375e+00 2.847880840301513672e+00 1.122378483414649963e-01
1.541000000000000000e+03 7.229365539550781250e+01 2.170888900756835938e+01 1.912554651498794556e-01 8.889513015747070312e+00 2.724230527877807617e+00 -3.921661525964736938e-03
1.542000000000000000e+03 7.352194213867187500e+01 1.905062103271484375e+01 8.426225185394287109e-02 8.556218147277832031e+00 2.592144012451171875e+00 1.162951514124870300e-01
1.543000000000000000e+03 7.232868957519531250e+01 2.030869293212890625e+01 9.954042732715606689e-02 8.992271423339843750e+00 2.727543592453002930e+00 5.253027379512786865e-02
1.544000000000000000e+03 6.775876617431640625e+01 -9.173842430114746094e+00 1.838572025299072266e-01 3.861939191818237305e+00 1.213738918304443359e+00 8.593711853027343750e-01
1.545000000000000000e+03 7.016432952880859375e+01 -6.794884204864501953e+00 3.009616024792194366e-02 6.051328182220458984e+00 1.824427247047424316e+00 5.375176668167114258e-01
1.546000000000000000e+03 4.419721221923828125e+01 6.083682179450988770e-01 2.649901807308197021e-01 1.102004289627075195e+00 4.100983440876007080e-01 -5.498846173286437988e-01
1.547000000000000000e+03 4.308211517333984375e+01 1.283582299947738647e-01 2.307866066694259644e-01 1.003916501998901367e+00 3.704109489917755127e-01 -5.030900239944458008e-01
1.548000000000000000e+03 6.901576995849609375e+01 3.358614730834960938e+01 -6.316709518432617188e-01 4.300427436828613281e+00 1.100626945495605469e+00 -5.601999163627624512e-01
1.549000000000000000e+03 1.981514358520507812e+01 -3.574306869506835938e+01 1.288566039875149727e-03 6.056525162421166897e-04 5.682655610144138336e-04 4.548178985714912415e-03
1.550000000000000000e+03 1.964330673217773438e+01 -3.268521118164062500e+01 1.169066503643989563e-02 2.065691660391166806e-04 3.569170366972684860e-03 2.691112458705902100e-03
1.551000000000000000e+03 4.326290607452392578e+00 -1.614070320129394531e+01 -4.117167554795742035e-04 -6.254141771933063865e-05 -1.422774512320756912e-04 -8.786755643086507916e-06
1.552000000000000000e+03 1.724620246887207031e+01 -3.283185195922851562e+01 8.038372732698917389e-03 1.266700681298971176e-03 2.791522070765495300e-03 3.186466637998819351e-03
1.553000000000000000e+03 4.825950145721435547e+00 3.671460723876953125e+01 3.673879662528634071e-03 -2.998124063014984131e-01 -8.884155750274658203e-02 2.658185549080371857e-03
1.554000000000000000e+03 1.898195743560791016e+00 2.730996131896972656e+01 2.072468632832169533e-03 -3.820862472057342529e-01 -1.140041351318359375e-01 3.558530006557703018e-03
1.555000000000000000e+03 3.152662038803100586e+00 2.975345039367675781e+01 1.623610849492251873e-03 -3.511072397232055664e-01 -1.048450842499732971e-01 2.413035836070775986e-03
1.556000000000000000e+03 6.352485656738281250e+00 2.886745834350585938e+01 1.055361051112413406e-02 -2.727139890193939209e-01 -7.864811271429061890e-02 3.404272720217704773e-03
1.557000000000000000e+03 3.390815973281860352e+00 3.100392341613769531e+01 5.133793689310550690e-03 -3.449700772762298584e-01 -1.019508838653564453e-01 -7.651431369595229626e-04
1.558000000000000000e+03 1.941733717918395996e+00 2.591897964477539062e+01 1.902657793834805489e-03 -3.774953782558441162e-01 -1.126778125762939453e-01 6.468114443123340607e-03
1.559000000000000000e+03 3.109236717224121094e+00 2.713277626037597656e+01 5.142266396433115005e-03 -3.498744964599609375e-01 -1.034196689724922180e-01 6.409320980310440063e-03
1.560000000000000000e+03 3.056152582168579102e+00 2.844468879699707031e+01 2.401750069111585617e-03 -3.525591492652893066e-01 -1.050472185015678406e-01 2.660549245774745941e-03
1.561000000000000000e+03 2.280564308166503906e+00 3.673811721801757812e+01 1.732891891151666641e-03 -3.748476803302764893e-01 -1.119344383478164673e-01 -6.600106135010719299e-03
1.562000000000000000e+03 3.813442707061767578e+00 3.371819686889648438e+01 2.343500033020973206e-03 -3.366060554981231689e-01 -1.002787649631500244e-01 -4.051097203046083450e-03
1.563000000000000000e+03 3.675977945327758789e+00 3.228281784057617188e+01 2.280802233144640923e-03 -3.393369615077972412e-01 -1.011168509721755981e-01 -1.852431916631758213e-03
1.564000000000000000e+03 4.390889644622802734e+00 -3.673884582519531250e+01 -5.126844625920057297e-04 2.732506254687905312e-04 -7.183014531619846821e-05 8.865815470926463604e-04
1.565000000000000000e+03 3.822353839874267578e+00 -3.405468750000000000e+01 -9.007597691379487514e-04 6.679255748167634010e-04 -6.985026993788778782e-05 6.398762925527989864e-04
1.566000000000000000e+03 3.532766103744506836e+00 -2.992495727539062500e+01 9.050639346241950989e-04 1.690349454293027520e-04 3.222296654712408781e-04 2.248717210022732615e-04
1.567000000000000000e+03 2.032033681869506836e+00 -2.873375511169433594e+01 7.206414593383669853e-04 4.165800419286824763e-05 2.286898379679769278e-04 9.330557804787531495e-05
1.568000000000000000e+03 7.053849220275878906e+00 -2.653869628906250000e+01 -3.069704398512840271e-04 -4.321833257563412189e-04 -2.217461296822875738e-04 1.515982003184035420e-04
1.569000000000000000e+03 1.938226103782653809e+00 2.165251159667968750e+01 3.348905825987458229e-03 -3.544490635395050049e-01 -1.053300499916076660e-01 1.677520573139190674e-02
1.570000000000000000e+03 3.254569053649902344e+00 2.281914710998535156e+01 7.952026091516017914e-03 -3.312577307224273682e-01 -9.699171036481857300e-02 2.122755721211433411e-02
1.571000000000000000e+03 3.057637214660644531e+00 -1.193278121948242188e+01 -3.236224292777478695e-04 2.411635614407714456e-05 -8.985182648757472634e-05 -1.925780634337570518e-05
1.572000000000000000e+03 1.824233531951904297e+00 -7.721372127532958984e+00 -2.269186079502105713e-04 -1.966303216249798425e-06 -6.866547482786700130e-05 -4.185204306850209832e-05
1.573000000000000000e+03 1.885580539703369141e+00 -1.907680702209472656e+01 -4.001780762337148190e-04 -6.264564581215381622e-05 -1.388471137033775449e-04 -7.528046990046277642e-05
1.574000000000000000e+03 3.228892326354980469e+00 2.140194320678710938e+01 8.079024031758308411e-03 -3.235036134719848633e-01 -9.462737292051315308e-02 2.755730785429477692e-02
1.575000000000000000e+03 2.900137186050415039e+00 1.163568019866943359e+01 4.766378551721572876e-03 -1.988684535026550293e-01 -5.823061987757682800e-02 7.074912637472152710e-02
1.576000000000000000e+03 4.444610118865966797e+00 1.834224891662597656e+01 1.737686060369014740e-02 -2.788555026054382324e-01 -7.844359427690505981e-02 5.393633618950843811e-02
1.577000000000000000e+03 3.195090770721435547e+00 2.000381088256835938e+01 8.920134045183658600e-03 -3.134237825870513916e-01 -9.135109931230545044e-02 3.364770114421844482e-02
1.578000000000000000e+03 1.755474686622619629e+00 -2.186047744750976562e+01 -5.443124682642519474e-04 -4.268805423635058105e-05 -1.761001476552337408e-04 -1.487499102950096130e-04
1.579000000000000000e+03 3.167214155197143555e+00 -1.761442375183105469e+01 -3.942561161238700151e-04 -7.147626456571742892e-05 -1.397197193000465631e-04 -1.040173174260416999e-05
1.580000000000000000e+03 1.893943905830383301e+00 -1.482787609100341797e+01 3.370520716998726130e-04 1.052002880896907300e-05 1.042716248775832355e-04 5.831398084410466254e-06
1.581000000000000000e+03 3.126630306243896484e+00 -1.335134315490722656e+01 3.414299862924963236e-04 -5.890156558052694891e-07 1.022522919811308384e-04 1.461401325286715291e-06
1.582000000000000000e+03 5.209177970886230469e+00 -4.133807182312011719e+00 -1.011253843898884952e-04 -4.851931225857697427e-05 -4.489340790314599872e-05 -1.013962028082460165e-04
1.583000000000000000e+03 2.451140165328979492e+00 4.942688941955566406e+00 -1.587513647973537445e-02 -5.527761578559875488e-02 -2.134582586586475372e-02 4.445594921708106995e-02
1.584000000000000000e+03 2.661793231964111328e+00 7.507301807403564453e+00 -6.143021862953901291e-03 -1.106400042772293091e-01 -3.503490611910820007e-02 6.599532067775726318e-02
1.585000000000000000e+03 1.809876918792724609e+00 1.462750911712646484e+01 3.547633299604058266e-03 -2.630046308040618896e-01 -7.783709466457366943e-02 3.920411691069602966e-02
1.586000000000000000e+03 3.059874534606933594e+00 1.580903434753417969e+01 9.175486862659454346e-03 -2.682666778564453125e-01 -7.772735506296157837e-02 5.469220131635665894e-02
1.587000000000000000e+03 2.767582654953002930e+00 8.882370948791503906e+00 -2.492072060704231262e-03 -1.412475556135177612e-01 -4.312188923358917236e-02 7.189525663852691650e-02
1.588000000000000000e+03 2.977760076522827148e+00 -7.709803104400634766e+00 2.666397194843739271e-04 -1.473655402151052840e-06 7.954981992952525616e-05 3.923727490473538637e-05
1.589000000000000000e+03 1.690813660621643066e+00 -2.322269439697265625e+01 6.145844818092882633e-04 -1.047168370860163122e-05 1.812338450690731406e-04 1.086338961613364518e-04
1.590000000000000000e+03 3.368363142013549805e+00 -2.845567321777343750e+01 -6.280243396759033203e-04 7.729254321020562202e-06 -1.860885386122390628e-04 -6.266764103202149272e-05
1.591000000000000000e+03 4.335074901580810547e+00 -3.813018798828125000e+01 -9.189522643282543868e-06 9.233424207195639610e-04 2.742458600550889969e-04 6.312887417152523994e-04
1.592000000000000000e+03 2.988781690597534180e+00 -1.051502799987792969e+01 3.010168729815632105e-04 -2.364864303672220558e-05 8.321047062054276466e-05 3.415953688090667129e-05
1.593000000000000000e+03 2.952038526535034180e+00 -9.112252235412597656e+00 -2.837893262039870024e-04 1.275494742003502324e-05 -8.131031790981069207e-05 -4.101942977285943925e-05
1.594000000000000000e+03 3.142409324645996094e+00 -1.618680763244628906e+01 3.882218734361231327e-04 2.857602521544322371e-05 1.250393688678741455e-04 1.557703944854438305e-05
1.595000000000000000e+03 4.127157211303710938e+00 -3.537891387939453125e+01 9.641976794227957726e-04 6.014062091708183289e-04 4.696811665780842304e-04 3.062472387682646513e-04
1.596000000000000000e+03 6.825136184692382812e+00 -3.152938652038574219e+01 3.304256533738225698e-04 6.666071385552641004e-06 1.011275162454694510e-04 9.840093553066253662e-04
1.597000000000000000e+03 4.128006935119628906e+00 -2.521867942810058594e+01 4.475328314583748579e-04 8.651470852782949805e-05 1.602142583578824997e-04 1.958343491423875093e-04
1.598000000000000000e+03 2.753068685531616211e+00 -2.440483283996582031e+01 6.687091663479804993e-04 -2.046723056992050260e-05 1.944725809153169394e-04 1.380444009555503726e-04
1.599000000000000000e+03 7.048939228057861328e+00 -1.945878601074218750e+01 -4.711108049377799034e-04 -8.459679520456120372e-05 -1.667122851358726621e-04 4.206751327728852630e-05
1.600000000000000000e+03 3.147320032119750977e+00 -1.476621818542480469e+01 -3.584046789910644293e-04 -3.163901419611647725e-05 -1.170131072285585105e-04 -1.113206963054835796e-05
1.601000000000000000e+03 2.841997623443603516e+00 1.025811290740966797e+01 2.125092549249529839e-03 -1.712442934513092041e-01 -5.073576048016548157e-02 7.307425141334533691e-02
1.602000000000000000e+03 2.952743768692016602e+00 1.301920223236083984e+01 7.125632371753454208e-03 -2.245789617300033569e-01 -6.523600220680236816e-02 6.689792871475219727e-02
1.603000000000000000e+03 3.155525445938110352e+00 1.860852622985839844e+01 9.248849935829639435e-03 -3.010622859001159668e-01 -8.754403144121170044e-02 4.071402922272682190e-02
1.604000000000000000e+03 6.902272796630859375e+01 -9.482212066650390625e+00 5.789268389344215393e-02 4.614410877227783203e+00 1.401691079139709473e+00 5.817086696624755859e-01
1.605000000000000000e+03 7.569124603271484375e+01 -2.029494285583496094e+00 1.455917358398437500e-01 7.410889148712158203e+00 2.266944408416748047e+00 -5.880597233772277832e-01
1.606000000000000000e+03 7.077150726318359375e+01 -9.695528149604797363e-01 4.464220106601715088e-01 9.541876792907714844e+00 2.996489524841308594e+00 8.840951919555664062e-01
1.607000000000000000e+03 5.986133575439453125e+01 -2.299109649658203125e+01 -8.112928271293640137e-01 2.176688909530639648e+00 4.096188545227050781e-01 1.377590656280517578e+00
1.608000000000000000e+03 4.219750976562500000e+01 2.508469009399414062e+01 4.609310254454612732e-02 7.046096324920654297e-01 2.252108305692672729e-01 1.045412719249725342e-01
1.609000000000000000e+03 4.007813644409179688e+01 1.782680511474609375e+01 1.164438724517822266e-01 1.052004575729370117e+00 3.505345284938812256e-01 -3.309238818474113941e-04
1.610000000000000000e+03 4.164984130859375000e+01 8.787467956542968750e+00 3.221515119075775146e-01 1.630582571029663086e+00 5.858202576637268066e-01 -3.914993405342102051e-01
1.611000000000000000e+03 4.274374771118164062e+01 6.034305095672607422e+00 3.208152055740356445e-01 1.399167537689208984e+00 5.159948468208312988e-01 -5.582544207572937012e-01
1.612000000000000000e+03 4.072745895385742188e+01 2.079291343688964844e+01 8.256630599498748779e-02 9.159135222434997559e-01 2.995439469814300537e-01 6.796434521675109863e-02
1.613000000000000000e+03 5.578370094299316406e+00 -2.071881675720214844e+01 -4.167373408563435078e-04 -1.347455981886014342e-04 -1.654448715271428227e-04 5.292808418744243681e-05
1.614000000000000000e+03 4.651478958129882812e+01 2.999684715270996094e+01 2.855409309267997742e-02 4.013350307941436768e-01 1.289667338132858276e-01 1.293878704309463501e-01
1.615000000000000000e+03 4.332131195068359375e+01 2.798155021667480469e+01 4.730847664177417755e-03 5.748219490051269531e-01 1.738658547401428223e-01 9.687047451734542847e-02
1.616000000000000000e+03 4.259327316284179688e+01 2.193854331970214844e+01 9.915690869092941284e-02 8.858255743980407715e-01 2.954947352409362793e-01 1.818825155496597290e-01
1.617000000000000000e+03 2.909682083129882812e+01 -1.473979949951171875e+01 -3.613085150718688965e-01 -1.090521216392517090e-01 -1.411081850528717041e-01 3.112625479698181152e-01
1.618000000000000000e+03 2.826094818115234375e+01 -1.530030345916748047e+01 -2.979561388492584229e-01 -1.168159097433090210e-01 -1.244316101074218750e-01 2.747612595558166504e-01
1.619000000000000000e+03 7.882225990295410156e+00 -2.829532051086425781e+01 -3.647363046184182167e-04 -2.281754714203998446e-04 -1.778735313564538956e-04 6.259735091589391232e-04
1.620000000000000000e+03 6.214564800262451172e+00 -2.904726409912109375e+01 5.872193141840398312e-04 1.268308405997231603e-04 2.142150478903204203e-04 5.409549921751022339e-04
1.621000000000000000e+03 7.072386932373046875e+01 -5.407361030578613281e+00 2.023706585168838501e-02 6.847716808319091797e+00 2.060386180877685547e+00 4.722315669059753418e-01
1.622000000000000000e+03 6.962474822998046875e+01 3.036368560791015625e+01 6.817846745252609253e-02 5.793673515319824219e+00 1.758555531501770020e+00 -6.002374887466430664e-01
1.623000000000000000e+03 7.134630584716796875e+01 7.623806476593017578e+00 3.700706660747528076e-01 1.010089015960693359e+01 3.141288280487060547e+00 -4.064180329442024231e-02
1.624000000000000000e+03 6.985160064697265625e+01 -3.355146408081054688e+01 -7.168199419975280762e-01 3.432755708694458008e+00 8.147807121276855469e-01 8.379698395729064941e-01
1.625000000000000000e+03 7.503923797607421875e+01 -3.296118927001953125e+01 -5.047116875648498535e-01 8.047024726867675781e+00 2.262693881988525391e+00 -5.579829812049865723e-01
1.626000000000000000e+03 7.345515441894531250e+01 2.182939720153808594e+01 2.202347666025161743e-01 8.458087921142578125e+00 2.603496789932250977e+00 8.953075855970382690e-02
1.627000000000000000e+03 4.115714645385742188e+01 2.692596435546875000e+01 -2.983293961733579636e-03 6.327939033508300781e-01 1.889431774616241455e-01 4.124227166175842285e-02
1.628000000000000000e+03 4.099061584472656250e+01 7.013425827026367188e+00 3.240229189395904541e-01 1.312286376953125000e+00 4.908927977085113525e-01 -3.626891076564788818e-01
1.629000000000000000e+03 7.085717773437500000e+01 -8.437558174133300781e+00 -1.076660230755805969e-01 5.884700298309326172e+00 1.733110308647155762e+00 1.866657584905624390e-01
1.630000000000000000e+03 1.491817378997802734e+01 -3.270608139038085938e+01 5.499067716300487518e-03 8.468976593576371670e-04 1.903789700008928776e-03 3.603985533118247986e-03
1.631000000000000000e+03 4.721660614013671875e+01 3.345308685302734375e+01 -7.844414561986923218e-02 3.303375244140625000e-01 7.556801289319992065e-02 7.379311323165893555e-02
1.632000000000000000e+03 4.166126632690429688e+01 2.366627693176269531e+01 6.588324159383773804e-02 7.723670005798339844e-01 2.514750659465789795e-01 9.709412604570388794e-02
1.633000000000000000e+03 3.986610412597656250e+01 1.631241607666015625e+01 1.254823654890060425e-01 1.136972546577453613e+00 3.787364959716796875e-01 -4.469279944896697998e-02
1.634000000000000000e+03 4.123006820678710938e+01 1.623054313659667969e+01 1.083905175328254700e-01 1.263901829719543457e+00 4.116877019405364990e-01 4.932117834687232971e-02
1.635000000000000000e+03 6.618541717529296875e+01 -1.191176414489746094e+01 9.862838685512542725e-02 2.400587797164916992e+00 7.497648596763610840e-01 6.840601563453674316e-01
1.636000000000000000e+03 6.851270294189453125e+01 -1.088278865814208984e+01 6.195367127656936646e-02 3.974917173385620117e+00 1.211061239242553711e+00 4.602493643760681152e-01
1.637000000000000000e+03 7.621074676513671875e+00 -1.606782722473144531e+01 3.982197085861116648e-04 9.579833567840978503e-05 1.482054212829098105e-04 -3.755349825951270759e-05
1.638000000000000000e+03 6.792626953125000000e+01 -2.023559379577636719e+01 -4.085813164710998535e-01 2.842789292335510254e-01 -3.729071840643882751e-02 -1.163262367248535156e+00
1.639000000000000000e+03 6.613935089111328125e+01 -1.857229995727539062e+01 1.006795406341552734e+00 3.542183935642242432e-01 4.083041548728942871e-01 2.562317810952663422e-02
1.640000000000000000e+03 5.806059265136718750e+01 -3.813818359375000000e+01 -1.935539543628692627e-01 9.042657017707824707e-01 2.132135182619094849e-01 -5.756229758262634277e-01
1.641000000000000000e+03 7.375533294677734375e+01 -3.065373992919921875e+01 5.667118355631828308e-02 8.580704689025878906e+00 2.591212749481201172e+00 -4.926615059375762939e-01
1.642000000000000000e+03 5.682333374023437500e+01 -2.191931152343750000e+01 -8.405745029449462891e-01 1.818695068359375000e+00 2.934361696243286133e-01 1.240393757820129395e+00
1.643000000000000000e+03 5.412923812866210938e+01 -2.236689758300781250e+01 -7.997975349426269531e-01 8.396444916725158691e-01 1.195408124476671219e-02 1.650609821081161499e-01
1.644000000000000000e+03 3.967424392700195312e+01 1.320322608947753906e+01 2.094288170337677002e-01 1.253920793533325195e+00 4.390048682689666748e-01 -1.853214800357818604e-01
1.645000000000000000e+03 1.264842796325683594e+01 -3.376332092285156250e+01 3.048707498237490654e-03 2.329409471713006496e-05 9.216004982590675354e-04 3.362531075254082680e-03
1.646000000000000000e+03 7.213037872314453125e+01 2.456678581237792969e+01 4.731397628784179688e-01 8.529874801635742188e+00 2.700904369354248047e+00 -4.465409740805625916e-02
1.647000000000000000e+03 7.198402404785156250e+01 2.604752922058105469e+01 5.048804283142089844e-01 8.208842277526855469e+00 2.614116668701171875e+00 -1.348545681685209274e-02
1.648000000000000000e+03 6.709214782714843750e+01 -1.279665470123291016e+01 2.239401489496231079e-01 2.822112083435058594e+00 9.138156771659851074e-01 6.080359816551208496e-01
1.649000000000000000e+03 4.001315307617187500e+01 1.001618671417236328e+01 3.486957252025604248e-01 1.300536036491394043e+00 4.947695136070251465e-01 -2.771271467208862305e-01
1.650000000000000000e+03 6.601316833496093750e+01 -1.369538307189941406e+01 3.904960304498672485e-02 2.106737375259399414e+00 6.437360644340515137e-01 8.121243715286254883e-01
1.651000000000000000e+03 6.438679504394531250e+01 -1.431664180755615234e+01 -5.550580620765686035e-01 1.635631680488586426e+00 3.241720795631408691e-01 1.074418306350708008e+00
1.652000000000000000e+03 7.259767913818359375e+01 7.665526390075683594e+00 2.055563479661941528e-01 9.380922317504882812e+00 2.875943660736083984e+00 2.203195393085479736e-01
1.653000000000000000e+03 1.461278724670410156e+01 -3.431123352050781250e+01 3.399241715669631958e-03 8.581430302001535892e-04 1.277215429581701756e-03 2.718444913625717163e-03
1.654000000000000000e+03 7.255107879638671875e+01 -3.346010208129882812e+01 -8.500821590423583984e-01 6.782076358795166016e+00 1.779598355293273926e+00 2.346926182508468628e-01
1.655000000000000000e+03 5.140575790405273438e+01 -2.890559577941894531e+01 1.098600506782531738e+00 1.051290392875671387e+00 6.449673175811767578e-01 1.476189494132995605e-01
1.656000000000000000e+03 5.232946777343750000e+01 -2.832192802429199219e+01 1.235931038856506348e+00 1.495285987854003906e+00 8.193651437759399414e-01 8.679395169019699097e-02
1.657000000000000000e+03 5.983378982543945312e+01 -2.187256050109863281e+01 -1.031567335128784180e+00 2.315266847610473633e+00 3.851098716259002686e-01 1.716483712196350098e+00
1.658000000000000000e+03 5.052452468872070312e+01 -1.369944763183593750e+01 2.047644138336181641e+00 1.230437874794006348e+00 9.834246039390563965e-01 -9.764451980590820312e-01
1.659000000000000000e+03 6.845480346679687500e+01 -1.676498603820800781e+01 5.825136899948120117e-01 2.328375816345214844e+00 8.732668757438659668e-01 -2.939693331718444824e-01
1.660000000000000000e+03 4.426630020141601562e+01 -3.078569602966308594e+01 -2.298923730850219727e-01 -5.916227102279663086e-01 -2.464545220136642456e-01 -7.158640772104263306e-02
1.661000000000000000e+03 4.454107284545898438e+01 -2.906961250305175781e+01 -1.802221685647964478e-01 -6.546667814254760742e-01 -2.504666745662689209e-01 -3.535058796405792236e-01
1.662000000000000000e+03 5.697590255737304688e+01 4.108547592163085938e+01 1.157706156373023987e-01 -1.902050822973251343e-01 -2.233034186065196991e-02 7.838401943445205688e-02
1.663000000000000000e+03 6.152154922485351562e+01 3.774506378173828125e+01 -1.702694743871688843e-01 -4.576236382126808167e-02 -6.480955332517623901e-02 1.871638447046279907e-01
1.664000000000000000e+03 7.688149261474609375e+01 -2.929191207885742188e+01 2.438606470823287964e-01 8.122798919677734375e+00 2.509998083114624023e+00 -8.272388577461242676e-01
1.665000000000000000e+03 7.306929779052734375e+01 -2.946338653564453125e+01 5.064957141876220703e-01 9.372666358947753906e+00 2.963748693466186523e+00 -3.456165790557861328e-01
1.666000000000000000e+03 7.267620849609375000e+01 1.431637191772460938e+01 -7.637350261211395264e-02 8.852665901184082031e+00 2.632887601852416992e+00 -4.025963693857192993e-02
1.667000000000000000e+03 7.134735107421875000e+01 1.447770023345947266e+01 1.922964751720428467e-01 9.052600860595703125e+00 2.773469209671020508e+00 6.657789647579193115e-02
1.668000000000000000e+03 4.090128707885742188e+01 -1.941330146789550781e+01 -9.229490160942077637e-01 -1.423482783138751984e-02 -2.811551690101623535e-01 4.000322818756103516e-01
1.669000000000000000e+03 4.217863082885742188e+01 3.023341941833496094e+01 -6.001558154821395874e-02 5.379641652107238770e-01 1.433845758438110352e-01 3.520180657505989075e-02
1.670000000000000000e+03 3.635886383056640625e+01 -3.526679611206054688e+01 -8.725685626268386841e-02 -2.191513478755950928e-01 -9.192246198654174805e-02 -2.340763360261917114e-01
1.671000000000000000e+03 3.777829742431640625e+01 -3.497514724731445312e+01 -5.173226073384284973e-02 -3.515723943710327148e-01 -1.209913939237594604e-01 -2.886660993099212646e-01
1.672000000000000000e+03 7.476194000244140625e+01 -2.456593513488769531e+01 1.199241161346435547e+00 8.908103942871093750e+00 3.032203435897827148e+00 1.954119950532913208e-01
1.673000000000000000e+03 4.335123062133789062e+01 -3.726028823852539062e+01 2.422302812337875366e-01 -2.489383220672607422e-01 -2.012410433962941170e-03 1.317772269248962402e-01
1.674000000000000000e+03 7.332398223876953125e+01 -1.909668731689453125e+01 -7.856422066688537598e-01 7.235772132873535156e+00 1.935039043426513672e+00 -3.570997416973114014e-01
1.675000000000000000e+03 7.177986907958984375e+01 2.759865951538085938e+01 4.526159763336181641e-01 7.737775325775146484e+00 2.457117319107055664e+00 3.109058737754821777e-02
1.676000000000000000e+03 7.335819244384765625e+01 3.307199478149414062e+01 -3.678792715072631836e-01 6.989307880401611328e+00 1.986428618431091309e+00 4.012422561645507812e-01
1.677000000000000000e+03 3.566063690185546875e+01 -3.689612197875976562e+01 1.388648431748151779e-02 -2.168702334165573120e-01 -6.089512258768081665e-02 -1.815284490585327148e-01
1.678000000000000000e+03 1.802245903015136719e+01 -1.207245731353759766e+01 3.227098204661160707e-05 5.704645445803180337e-05 2.679523095139302313e-05 -1.453390086680883542e-05
1.679000000000000000e+03 1.910664367675781250e+01 -1.163492012023925781e+01 -7.167262083385139704e-05 -1.146280701505020261e-04 -5.589020656771026552e-05 -1.959338260348886251e-05
1.680000000000000000e+03 4.046383285522460938e+01 8.477833747863769531e+00 3.710089623928070068e-01 1.320598006248474121e+00 5.074821114540100098e-01 -3.129999637603759766e-01
1.681000000000000000e+03 3.936104965209960938e+01 -1.690411567687988281e+01 -9.708768129348754883e-01 -2.256997078657150269e-01 -3.589729666709899902e-01 3.028851151466369629e-01
1.682000000000000000e+03 3.687118911743164062e+01 -1.503228664398193359e+01 -5.941578149795532227e-01 -2.338735610246658325e-01 -2.484094053506851196e-01 3.910888731479644775e-01
1.683000000000000000e+03 5.117285919189453125e+01 -1.568120956420898438e+01 1.853438735008239746e+00 4.353540539741516113e-01 6.866378188133239746e-01 -1.412499696016311646e-01
1.684000000000000000e+03 5.145105361938476562e+01 -1.483969116210937500e+01 2.816557884216308594e+00 1.147320151329040527e+00 1.189163446426391602e+00 -1.134289383888244629e+00
1.685000000000000000e+03 3.994639587402343750e+01 -1.794238662719726562e+01 -1.252754807472229004e+00 -1.127103939652442932e-01 -4.096395671367645264e-01 3.684132993221282959e-01
1.686000000000000000e+03 6.269466781616210938e+01 3.945483779907226562e+01 2.816432416439056396e-01 3.890476822853088379e-01 2.012072801589965820e-01 1.746325194835662842e-02
1.687000000000000000e+03 1.661791038513183594e+01 -1.224577713012695312e+01 -8.573816558055114001e-06 -2.358019810344558209e-05 -9.646204489399679005e-06 8.852869541442487389e-06
1.688000000000000000e+03 5.383389663696289062e+01 -2.819833183288574219e+01 1.502521991729736328e+00 2.335498809814453125e+00 1.151406288146972656e+00 4.095882475376129150e-01
1.689000000000000000e+03 5.532904434204101562e+01 -2.634139823913574219e+01 1.208104729652404785e+00 3.096457719802856445e+00 1.291368722915649414e+00 8.535634875297546387e-01
1.690000000000000000e+03 8.679954528808593750e+00 -1.483815956115722656e+01 3.810466441791504622e-04 -8.013901242520660162e-05 9.027228952618315816e-05 7.507557165808975697e-05
1.691000000000000000e+03 1.517010498046875000e+01 -1.235792446136474609e+01 -1.073730963980779052e-04 -2.369980211369693279e-05 -3.932186882593668997e-05 -3.249189103371463716e-05
1.692000000000000000e+03 1.382930660247802734e+01 -1.201989078521728516e+01 2.059707621810957789e-04 1.181212064693681896e-04 9.722758841235190630e-05 -7.171185279730707407e-05
1.693000000000000000e+03 3.189210414886474609e+00 -2.700537109375000000e+01 7.110428414307534695e-04 8.397495548706501722e-05 2.385053376201540232e-04 9.843482257565483451e-05
1.694000000000000000e+03 7.270412921905517578e+00 -2.513469505310058594e+01 5.736734019592404366e-04 4.069537972100079060e-04 2.941881830338388681e-04 -2.203036274295300245e-04
1.695000000000000000e+03 6.458249664306640625e+01 -1.916304206848144531e+01 9.561768770217895508e-01 3.376261293888092041e-01 3.881409168243408203e-01 9.336920827627182007e-02
1.696000000000000000e+03 7.311048889160156250e+01 -2.093634605407714844e+01 -6.734773516654968262e-01 7.874476909637451172e+00 2.160299777984619141e+00 -1.110377907752990723e-01
1.697000000000000000e+03 7.371084594726562500e+01 -2.370256233215332031e+01 1.172193884849548340e+00 8.809436798095703125e+00 2.994488954544067383e+00 1.926782131195068359e-01
1.698000000000000000e+03 6.461009979248046875e+01 3.818876266479492188e+01 7.935406267642974854e-02 9.125940203666687012e-01 2.975844442844390869e-01 -1.918056607246398926e-01
1.699000000000000000e+03 6.840429687500000000e+01 3.477832031250000000e+01 -5.299045443534851074e-01 3.581892967224121094e+00 9.155965447425842285e-01 -6.065893173217773438e-01
1.700000000000000000e+03 5.345431900024414062e+01 -3.243445587158203125e+01 7.848922014236450195e-01 2.349844932556152344e+00 9.404211640357971191e-01 5.926326513290405273e-01
1.701000000000000000e+03 5.112499237060546875e+00 4.012131118774414062e+01 -7.523261010646820068e-03 -3.043263256549835205e-01 -9.355487674474716187e-02 3.664738265797495842e-03
1.702000000000000000e+03 5.387933349609375000e+01 -3.639306259155273438e+01 -3.774407207965850830e-01 1.909008264541625977e+00 4.594702720642089844e-01 2.644918560981750488e-01
1.703000000000000000e+03 5.439439010620117188e+01 -3.985186767578125000e+01 -4.326666891574859619e-01 1.491849422454833984e+00 3.177548348903656006e-01 1.079240161925554276e-02
1.704000000000000000e+03 6.015775680541992188e+01 -1.874934005737304688e+01 4.296471774578094482e-01 3.478300809860229492e+00 1.172384381294250488e+00 1.900011181831359863e+00
1.705000000000000000e+03 5.989490890502929688e+01 -1.947426986694335938e+01 -1.900264620780944824e-01 2.837409257888793945e+00 7.942148447036743164e-01 1.885036468505859375e+00
1.706000000000000000e+03 5.990135955810546875e+01 -1.923324966430664062e+01 4.361173883080482483e-02 2.884093761444091797e+00 8.783116340637207031e-01 1.865119576454162598e+00
1.707000000000000000e+03 6.094243240356445312e+01 -1.835223197937011719e+01 7.405169606208801270e-01 4.773338317871093750e+00 1.654156565666198730e+00 8.572362661361694336e-01
1.708000000000000000e+03 1.550659465789794922e+01 -6.546116352081298828e+00 9.945418423740193248e-05 2.340341234230436385e-05 3.685728006530553102e-05 -2.254066748719196767e-05
1.709000000000000000e+03 1.527197456359863281e+01 -1.121942043304443359e+01 1.374426210531964898e-04 -1.416790291841607541e-05 3.698241562233306468e-05 5.416400017566047609e-05
1.710000000000000000e+03 1.308791065216064453e+01 -5.908155441284179688e+00 -8.900660759536549449e-05 -7.330522203119471669e-05 -4.869354961556382477e-05 -1.338017955276882276e-05
1.711000000000000000e+03 1.178761005401611328e+01 -5.227538585662841797e+00 -1.139339801738969982e-04 -5.779603452538140118e-05 -5.151900404598563910e-05 -1.859399708337150514e-05
1.712000000000000000e+03 1.693262672424316406e+01 -1.021698665618896484e+01 1.250478453584946692e-05 -5.492017407959792763e-06 2.103830183841637336e-06 -1.495428296038880944e-05
1.713000000000000000e+03 1.668927574157714844e+01 -7.910473823547363281e+00 -1.059136920957826078e-04 1.151343258243286982e-05 -2.832007885444909334e-05 1.314331802859669551e-05
1.714000000000000000e+03 5.936299514770507812e+01 -2.218516349792480469e+01 -1.062721014022827148e+00 2.394033670425415039e+00 3.993937969207763672e-01 1.737667083740234375e+00
1.715000000000000000e+03 5.778193283081054688e+01 -2.144412422180175781e+01 -9.086057543754577637e-01 1.994557738304138184e+00 3.257856070995330811e-01 1.589111804962158203e+00
1.716000000000000000e+03 4.708465957641601562e+01 -2.505574607849121094e+01 -7.617639750242233276e-02 -3.108904361724853516e-01 -1.161200478672981262e-01 -8.036547303199768066e-01
1.717000000000000000e+03 1.213150405883789062e+01 -4.603496551513671875e+00 8.437549695372581482e-05 6.646098336204886436e-05 4.525094482232816517e-05 1.344382053503068164e-05
1.718000000000000000e+03 4.604396438598632812e+01 -2.729570388793945312e+01 6.240788847208023071e-02 -4.379217028617858887e-01 -1.126541420817375183e-01 -6.347255110740661621e-01
1.719000000000000000e+03 4.812790298461914062e+01 -2.538964843750000000e+01 8.653929084539413452e-02 -1.616164296865463257e-01 -2.252314239740371704e-02 -7.263814210891723633e-01
1.720000000000000000e+03 4.779357528686523438e+01 -2.383081626892089844e+01 -3.097495138645172119e-01 -2.474893480539321899e-01 -1.671716570854187012e-01 -8.231267929077148438e-01
1.721000000000000000e+03 4.344411849975585938e+01 -1.804022789001464844e+01 -1.124683260917663574e+00 2.289381772279739380e-01 -2.687235176563262939e-01 4.585037529468536377e-01
1.722000000000000000e+03 1.725271987915039062e+01 -7.491341590881347656e+00 8.714808063814416528e-05 1.082244489225558937e-05 2.939115802291780710e-05 1.669824087002780288e-05
1.723000000000000000e+03 1.634925651550292969e+01 -8.788998603820800781e+00 -3.754124554689042270e-05 5.079967377241700888e-05 3.977528194809565321e-06 6.377949466696009040e-05
1.724000000000000000e+03 1.421232509613037109e+01 -6.321895122528076172e+00 -2.981311445182655007e-05 -9.387438331032171845e-05 -3.710624878294765949e-05 2.626907371450215578e-05
1.725000000000000000e+03 1.453272438049316406e+01 -5.821823120117187500e+00 5.592931847786530852e-05 7.218743849080055952e-05 3.843502781819552183e-05 9.932448847393970937e-06
1.726000000000000000e+03 1.594458103179931641e+01 -6.949678897857666016e+00 -1.037139445543289185e-04 -7.350149189733201638e-06 -3.331922926008701324e-05 1.117172450904035941e-05
1.727000000000000000e+03 1.832522201538085938e+01 -1.016541862487792969e+01 -8.906804578145965934e-05 -5.042033535573864356e-06 -2.823302384058479220e-05 -3.220950748072937131e-05
1.728000000000000000e+03 1.793337440490722656e+01 -9.567144393920898438e+00 8.908966265153139830e-05 2.344201129744760692e-05 3.375950473127886653e-05 4.110229565412737429e-05
1.729000000000000000e+03 5.551731109619140625e+01 -2.204702568054199219e+01 -8.626068234443664551e-01 1.270570993423461914e+00 1.223892569541931152e-01 6.779921650886535645e-01
1.730000000000000000e+03 5.591955184936523438e+01 -2.255980491638183594e+01 -6.321198940277099609e-01 1.578921079635620117e+00 2.840403616428375244e-01 8.714745640754699707e-01
1.731000000000000000e+03 9.120140075683593750e+00 4.081877708435058594e+00 -9.917867183685302734e-02 -1.454224437475204468e-01 -7.338033616542816162e-02 1.842208057641983032e-01
1.732000000000000000e+03 8.394197463989257812e+00 4.161328792572021484e+00 -9.199639409780502319e-02 -1.265593469142913818e-01 -6.556672602891921997e-02 1.722649931907653809e-01
1.733000000000000000e+03 4.939804840087890625e+01 -2.407276153564453125e+01 -1.956544518470764160e-01 -4.934751987457275391e-02 -7.350059598684310913e-02 -7.283840179443359375e-01
1.734000000000000000e+03 4.818306350708007812e+01 -2.447608566284179688e+01 -1.341202706098556519e-01 -1.866181045770645142e-01 -9.622150659561157227e-02 -7.803186774253845215e-01
1.735000000000000000e+03 5.815029907226562500e+01 -2.102380752563476562e+01 -9.051100015640258789e-01 2.010669708251953125e+00 3.316678702831268311e-01 1.669245839118957520e+00
1.736000000000000000e+03 5.856516647338867188e+01 -2.081235694885253906e+01 -8.842625617980957031e-01 2.111082315444946289e+00 3.680458962917327881e-01 1.793767571449279785e+00
1.737000000000000000e+03 7.698922157287597656e+00 4.032232761383056641e+00 -9.256649762392044067e-02 -1.021791473031044006e-01 -5.842369422316551208e-02 1.524262428283691406e-01
1.738000000000000000e+03 5.606871604919433594e+00 4.324285984039306641e+00 -5.868284031748771667e-02 -7.198552787303924561e-02 -3.920051082968711853e-02 1.029032841324806213e-01
1.739000000000000000e+03 4.856832027435302734e+00 4.437965393066406250e+00 -4.728626459836959839e-02 -6.865081936120986938e-02 -3.478112444281578064e-02 8.866257220506668091e-02
1.740000000000000000e+03 3.497716665267944336e+00 5.969753742218017578e+00 -2.004346810281276703e-02 -8.680780977010726929e-02 -3.205538168549537659e-02 7.507537305355072021e-02
1.741000000000000000e+03 4.804836273193359375e+00 3.585710048675537109e+00 -5.187020078301429749e-02 -4.799348860979080200e-02 -2.995910681784152985e-02 7.237236201763153076e-02
1.742000000000000000e+03 4.289968967437744141e+00 5.569233894348144531e+00 -3.021319583058357239e-02 -8.772787451744079590e-02 -3.538231924176216125e-02 8.867937326431274414e-02
1.743000000000000000e+03 4.941813945770263672e+00 5.254104137420654297e+00 -4.182163253426551819e-02 -8.393470197916030884e-02 -3.772690147161483765e-02 9.999770671129226685e-02
1.744000000000000000e+03 3.310337066650390625e+00 4.822773933410644531e+00 -2.517249993979930878e-02 -6.085951626300811768e-02 -2.580960467457771301e-02 5.904505029320716858e-02
1.745000000000000000e+03 3.277523994445800781e+00 3.810395002365112305e+00 -2.725395932793617249e-02 -4.160432517528533936e-02 -2.065748535096645355e-02 4.548197612166404724e-02
1.746000000000000000e+03 1.506996631622314453e+00 4.915543556213378906e+00 -7.181338500231504440e-03 -4.190770909190177917e-02 -1.472671423107385635e-02 2.604106068611145020e-02
1.747000000000000000e+03 2.863895225524902344e+01 -1.123292255401611328e+01 -3.266350030899047852e-01 -1.419475823640823364e-01 -1.405747681856155396e-01 3.945631682872772217e-01
1.748000000000000000e+03 5.215666961669921875e+01 -2.436347961425781250e+01 1.065925583243370056e-01 7.068831920623779297e-01 2.440427243709564209e-01 -3.641836941242218018e-01
1.749000000000000000e+03 2.837958717346191406e+01 -1.227125263214111328e+01 -3.299013376235961914e-01 -1.478407979011535645e-01 -1.433226466178894043e-01 3.899402022361755371e-01
1.750000000000000000e+03 2.818281364440917969e+01 -1.339387321472167969e+01 -3.199072778224945068e-01 -1.447145640850067139e-01 -1.393865495920181274e-01 3.643764257431030273e-01
1.751000000000000000e+03 2.892017555236816406e+01 -1.181844997406005859e+01 -3.271174430847167969e-01 -1.317239403724670410e-01 -1.376524120569229126e-01 3.991558551788330078e-01
1.752000000000000000e+03 2.993716430664062500e+01 -1.282578849792480469e+01 -3.528203070163726807e-01 -9.882221370935440063e-02 -1.354927569627761841e-01 3.947879374027252197e-01
1.753000000000000000e+03 4.945093917846679688e+01 -1.373357295989990234e+01 1.748492717742919922e+00 5.752895474433898926e-01 6.971346735954284668e-01 -6.600929498672485352e-01
1.754000000000000000e+03 5.003899002075195312e+01 -2.393175697326660156e+01 -2.125865370035171509e-01 3.160352259874343872e-02 -5.429490283131599426e-02 -7.073242664337158203e-01
1.755000000000000000e+03 5.068536376953125000e+01 -2.379952239990234375e+01 -2.543066442012786865e-01 1.548364460468292236e-01 -2.984106168150901794e-02 -6.209189891815185547e-01
1.756000000000000000e+03 4.823057937622070312e+01 -1.585423946380615234e+01 1.953012347221374512e-01 9.542074054479598999e-03 6.145299226045608521e-02 5.210168957710266113e-01
1.757000000000000000e+03 5.395292282104492188e+01 -2.292296409606933594e+01 -5.391965508460998535e-01 9.613656401634216309e-01 1.266507208347320557e-01 1.248601227998733521e-01
1.758000000000000000e+03 5.021124649047851562e+01 -2.573806571960449219e+01 4.158164262771606445e-01 2.526450157165527344e-01 2.005384266376495361e-01 -5.269424319267272949e-01
1.759000000000000000e+03 4.974313735961914062e+01 -1.556823539733886719e+01 1.229100942611694336e+00 1.585855036973953247e-01 4.163059294223785400e-01 2.940652072429656982e-01
1.760000000000000000e+03 4.873415374755859375e+01 -1.479745674133300781e+01 1.133320331573486328e+00 1.206012293696403503e-01 3.761764764785766602e-01 5.061002448201179504e-02
1.761000000000000000e+03 2.862797164916992188e+01 -1.405766582489013672e+01 -3.228052258491516113e-01 -1.246168464422225952e-01 -1.342266201972961426e-01 3.500359952449798584e-01
1.762000000000000000e+03 3.264830017089843750e+01 -1.432061386108398438e+01 -4.927365183830261230e-01 -7.253143936395645142e-02 -1.695803850889205933e-01 3.977051079273223877e-01
1.763000000000000000e+03 4.455843353271484375e+01 -1.687696075439453125e+01 -8.778795003890991211e-01 1.455165147781372070e-01 -2.197088897228240967e-01 5.710701346397399902e-01
1.764000000000000000e+03 4.134041213989257812e+01 -1.769092559814453125e+01 -1.100310683250427246e+00 9.336106479167938232e-02 -3.020848929882049561e-01 3.437950909137725830e-01
1.765000000000000000e+03 5.528928375244140625e+01 -2.299562835693359375e+01 -4.617633819580078125e-01 1.559413075447082520e+00 3.292949199676513672e-01 6.179648637771606445e-01
1.766000000000000000e+03 1.626204490661621094e+01 6.446132063865661621e-01 -2.618078589439392090e-01 -3.539092838764190674e-01 -1.847151368856430054e-01 2.929614782333374023e-01
1.767000000000000000e+03 1.654280471801757812e+01 2.185746192932128906e+00 -1.414160728454589844e-01 -3.465245962142944336e-01 -1.463821977376937866e-01 2.465815842151641846e-01
1.768000000000000000e+03 2.600282669067382812e+01 -8.216743469238281250e+00 -3.420970439910888672e-01 -2.871609032154083252e-01 -1.887773871421813965e-01 3.595653176307678223e-01
1.769000000000000000e+03 1.001489830017089844e+01 -4.337737083435058594e+00 4.581432949635200202e-05 1.205588923767209053e-04 4.991196692571975291e-05 -2.399263030383735895e-05
1.770000000000000000e+03 2.410473632812500000e+01 -6.689648151397705078e+00 -3.665587306022644043e-01 -4.134185612201690674e-01 -2.339931875467300415e-01 3.631006479263305664e-01
1.771000000000000000e+03 2.442850494384765625e+01 -4.536678791046142578e+00 -2.877885699272155762e-01 -3.278324604034423828e-01 -1.846863031387329102e-01 2.836224734783172607e-01
1.772000000000000000e+03 1.743741226196289062e+01 7.093630433082580566e-01 -2.177791446447372437e-01 -3.772932887077331543e-01 -1.785217374563217163e-01 2.772685587406158447e-01
1.773000000000000000e+03 4.382847976684570312e+01 -1.709671974182128906e+01 -9.188696146011352539e-01 1.779685765504837036e-01 -2.222703248262405396e-01 4.927428066730499268e-01
1.774000000000000000e+03 2.179681396484375000e+01 -1.668131470680236816e+00 -2.282396703958511353e-01 -3.822242319583892822e-01 -1.831391751766204834e-01 2.519165873527526855e-01
1.775000000000000000e+03 2.133919334411621094e+01 -2.268904924392700195e+00 -2.830440998077392578e-01 -4.240084886550903320e-01 -2.121157795190811157e-01 2.932652533054351807e-01
1.776000000000000000e+03 2.196534347534179688e+01 -2.728981256484985352e+00 -2.866138517856597900e-01 -4.107849299907684326e-01 -2.092196345329284668e-01 2.900228798389434814e-01
1.777000000000000000e+03 1.944911003112792969e+01 -7.766203284263610840e-01 -2.590909004211425781e-01 -4.152134954929351807e-01 -2.022913247346878052e-01 2.877283096313476562e-01
1.778000000000000000e+03 2.585922813415527344e+01 -9.328998565673828125e+00 -3.496409654617309570e-01 -3.109342455863952637e-01 -1.981725692749023438e-01 3.806087076663970947e-01
1.779000000000000000e+03 5.461344146728515625e+01 -2.345543861389160156e+01 -3.008723556995391846e-01 1.390279889106750488e+00 3.268222510814666748e-01 3.537005782127380371e-01
1.780000000000000000e+03 8.218307495117187500e+00 -3.501437187194824219e+00 7.316514529520645738e-05 4.001345223514363170e-05 3.395357998670078814e-05 8.331253775395452976e-05
1.781000000000000000e+03 8.175377845764160156e+00 -5.128790378570556641e+00 6.365607259795069695e-05 4.327032729634083807e-05 3.207792178727686405e-05 1.088618373614735901e-04
1.782000000000000000e+03 5.262485980987548828e+00 -3.524893045425415039e+00 8.411981980316340923e-05 -7.739548891549929976e-05 2.017300630541285500e-06 1.090672521968372166e-04
1.783000000000000000e+03 6.559170246124267578e+00 -5.110915660858154297e+00 1.705582835711538792e-04 4.019616426376160234e-06 5.237337245489470661e-05 1.083010429283604026e-04
1.784000000000000000e+03 4.250494003295898438e+00 -6.474267005920410156e+00 2.361245278734713793e-04 4.074295429745689034e-05 8.306024392368271947e-05 4.900401563645573333e-06
1.785000000000000000e+03 3.101416587829589844e+00 -6.251787662506103516e+00 -2.131864312104880810e-04 -2.900724757637362927e-05 -7.265810563694685698e-05 -4.344341505202464759e-05
1.786000000000000000e+03 4.676831436157226562e+01 -1.625179672241210938e+01 -3.988511264324188232e-01 3.978907689452171326e-02 -1.077186167240142822e-01 5.884191989898681641e-01
1.787000000000000000e+03 4.604086685180664062e+01 -1.645911788940429688e+01 -6.557891964912414551e-01 6.763175129890441895e-02 -1.764472275972366333e-01 6.374285221099853516e-01
1.788000000000000000e+03 2.766820144653320312e+01 -1.094756698608398438e+01 -3.303562700748443604e-01 -1.870822310447692871e-01 -1.552315503358840942e-01 3.913883566856384277e-01
1.789000000000000000e+03 2.728667259216308594e+01 -1.026065254211425781e+01 -3.285958766937255859e-01 -2.068738043308258057e-01 -1.606409102678298950e-01 3.889265656471252441e-01
1.790000000000000000e+03 4.201925277709960938e+01 -1.773572540283203125e+01 -1.091508865356445312e+00 1.603895425796508789e-01 -2.793357968330383301e-01 4.160149395465850830e-01
1.791000000000000000e+03 4.277857589721679688e+01 -1.824884796142578125e+01 -1.150876879692077637e+00 2.240875214338302612e-01 -2.780368030071258545e-01 4.414362609386444092e-01
1.792000000000000000e+03 4.530227661132812500e+01 -1.666690444946289062e+01 -7.365289926528930664e-01 1.192191094160079956e-01 -1.851929724216461182e-01 5.609687566757202148e-01
1.793000000000000000e+03 6.278786849975585938e+01 -1.822145652770996094e+01 2.146589517593383789e+00 1.999039053916931152e+00 1.243688583374023438e+00 -1.432013809680938721e-01
1.794000000000000000e+03 1.335595035552978516e+01 3.442330598831176758e+00 -1.166906282305717468e-01 -2.724239528179168701e-01 -1.167343705892562866e-01 2.367158979177474976e-01
1.795000000000000000e+03 1.339294147491455078e+01 2.350013494491577148e+00 -1.898192316293716431e-01 -2.656929194927215576e-01 -1.366536468267440796e-01 2.488648295402526855e-01
1.796000000000000000e+03 2.687184143066406250e+01 -9.572296142578125000e+00 -3.362588584423065186e-01 -2.339936792850494385e-01 -1.710757613182067871e-01 3.783115148544311523e-01
1.797000000000000000e+03 1.078003406524658203e+01 3.387864828109741211e+00 -1.338773369789123535e-01 -1.878118962049484253e-01 -9.650676697492599487e-02 2.115214765071868896e-01
1.798000000000000000e+03 2.556446647644042969e+01 -7.560293197631835938e+00 -3.388655781745910645e-01 -3.112860023975372314e-01 -1.950454711914062500e-01 3.520005941390991211e-01
1.799000000000000000e+03 2.512318420410156250e+01 -6.911198616027832031e+00 -3.421191275119781494e-01 -3.344190120697021484e-01 -2.029614448547363281e-01 3.418530821800231934e-01
1.800000000000000000e+03 8.964707374572753906e+00 -5.042353153228759766e+00 6.107449280534638092e-06 -4.099534999113529921e-05 -1.046637044055387378e-05 -7.770474621793255210e-05
1.801000000000000000e+03 2.334417724609375000e+01 -4.265454292297363281e+00 -3.141681551933288574e-01 -3.903307318687438965e-01 -2.113496661186218262e-01 3.042695224285125732e-01
1.802000000000000000e+03 2.290330505371093750e+01 -3.534166336059570312e+00 -2.887701392173767090e-01 -3.909519016742706299e-01 -2.039166092872619629e-01 2.904778420925140381e-01
1.803000000000000000e+03 7.418045997619628906e+00 -4.308153629302978516e+00 1.147344228229485452e-04 1.005648391583235934e-05 3.743727211258374155e-05 1.014079534797929227e-04
1.804000000000000000e+03 1.792433166503906250e+01 1.230515599250793457e+00 -1.682693660259246826e-01 -3.738655149936676025e-01 -1.626404523849487305e-01 2.529228329658508301e-01
1.805000000000000000e+03 1.879792022705078125e+01 -2.716037929058074951e-01 -2.442796826362609863e-01 -4.053060412406921387e-01 -1.948757171630859375e-01 2.851925790309906006e-01
1.806000000000000000e+03 1.812520408630371094e+01 2.233118712902069092e-01 -2.340699881315231323e-01 -3.930394947528839111e-01 -1.881328523159027100e-01 2.813253104686737061e-01
1.807000000000000000e+03 1.602350997924804688e+01 1.637089729309082031e+00 -1.902581006288528442e-01 -3.409213125705718994e-01 -1.593538224697113037e-01 2.659482359886169434e-01
1.808000000000000000e+03 1.531889152526855469e+01 2.070404052734375000e+00 -1.779167801141738892e-01 -3.229954540729522705e-01 -1.502736806869506836e-01 2.583585381507873535e-01
1.809000000000000000e+03 2.071540260314941406e+01 -1.783174633979797363e+00 -2.768383920192718506e-01 -4.227085411548614502e-01 -2.098640799522399902e-01 2.916890084743499756e-01
1.810000000000000000e+03 2.008345603942871094e+01 -1.283066272735595703e+00 -2.667110562324523926e-01 -4.218219816684722900e-01 -2.065599113702774048e-01 2.904918789863586426e-01
1.811000000000000000e+03 6.362323379516601562e+01 -1.704223823547363281e+01 2.937358617782592773e+00 3.631513416767120361e-01 9.901530146598815918e-01 1.315059065818786621e+00
1.812000000000000000e+03 6.525897216796875000e+01 -1.996432876586914062e+01 -7.772639393806457520e-02 9.734377264976501465e-02 5.885211750864982605e-03 6.803881376981735229e-02
1.813000000000000000e+03 1.463016128540039062e+01 2.499503135681152344e+00 -1.599048823118209839e-01 -3.036456108093261719e-01 -1.390651464462280273e-01 2.521713376045227051e-01
1.814000000000000000e+03 6.432851409912109375e+01 -1.611469841003417969e+01 1.734588742256164551e+00 6.749222874641418457e-01 7.228533029556274414e-01 1.808854103088378906e+00
1.815000000000000000e+03 1.025023651123046875e+01 -3.735941171646118164e+00 -4.367431756691075861e-05 -1.036437752190977335e-04 -4.419542892719618976e-05 -5.571331712417304516e-06
1.816000000000000000e+03 1.023330116271972656e+01 4.156864166259765625e+00 -1.018535420298576355e-01 -1.817572414875030518e-01 -8.508323132991790771e-02 2.040246576070785522e-01
1.817000000000000000e+03 9.649783134460449219e+00 3.610782146453857422e+00 -1.159419938921928406e-01 -1.556179821491241455e-01 -8.146799355745315552e-02 1.939516216516494751e-01
1.818000000000000000e+03 4.512866973876953125e+01 -2.762497901916503906e+01 -4.825238138437271118e-02 -6.085559129714965820e-01 -1.970424801111221313e-01 -5.333831310272216797e-01
1.819000000000000000e+03 1.287342453002929688e+01 4.039572238922119141e+00 -9.421570599079132080e-02 -2.596711218357086182e-01 -1.061660498380661011e-01 2.274786233901977539e-01
1.820000000000000000e+03 1.156503868103027344e+01 4.166306972503662109e+00 -9.657230973243713379e-02 -2.266501933336257935e-01 -9.696675091981887817e-02 2.195857763290405273e-01
1.821000000000000000e+03 7.005757141113281250e+01 -1.693654251098632812e+01 -2.495367778465151787e-03 3.893705844879150391e+00 1.167363166809082031e+00 -7.703391313552856445e-01
1.822000000000000000e+03 1.271562385559082031e+01 -1.132649421691894531e+01 -1.566979772178456187e-04 -1.685625902609899640e-04 -9.757817315403372049e-05 5.834563853568397462e-05
1.823000000000000000e+03 8.354432106018066406e+00 -1.363522911071777344e+01 -3.056789864785969257e-04 9.907241474138572812e-05 -6.198196933837607503e-05 -1.271113578695803881e-04
1.824000000000000000e+03 3.042756652832031250e+01 -1.467241382598876953e+01 -4.286242723464965820e-01 -8.011423051357269287e-02 -1.526215523481369019e-01 3.366854488849639893e-01
1.825000000000000000e+03 6.276931762695312500e+01 -2.211193847656250000e+01 -1.456458687782287598e+00 5.062004327774047852e-01 -2.850774824619293213e-01 5.215214192867279053e-02
1.826000000000000000e+03 6.383503723144531250e+01 -2.000234413146972656e+01 -3.218201547861099243e-02 8.736005425453186035e-01 2.524255514144897461e-01 2.956604585051536560e-02
1.827000000000000000e+03 6.064860534667968750e+01 -2.217255783081054688e+01 -1.061019659042358398e+00 1.978175282478332520e+00 2.751466631889343262e-01 1.497176408767700195e+00
1.828000000000000000e+03 6.742430877685546875e+01 -1.915537643432617188e+01 4.009024500846862793e-01 6.385099887847900391e-01 3.118237555027008057e-01 -6.425392627716064453e-01
1.829000000000000000e+03 6.626494598388671875e+01 -1.676328849792480469e+01 1.268512248992919922e+00 1.041885375976562500e+00 6.931192874908447266e-01 6.789855957031250000e-01
1.830000000000000000e+03 4.270219802856445312e+01 -1.473054647445678711e+00 2.398118972778320312e-01 8.924180865287780762e-01 3.396689891815185547e-01 -4.792218208312988281e-01
1.831000000000000000e+03 4.582816314697265625e+01 -5.789338588714599609e+00 3.932231962680816650e-01 1.009223222732543945e+00 4.207339286804199219e-01 -6.429201364517211914e-01
1.832000000000000000e+03 4.159388732910156250e+01 2.850278472900390625e+01 -2.431697584688663483e-02 5.868296027183532715e-01 1.687537878751754761e-01 3.755106776952743530e-02
1.833000000000000000e+03 4.646195220947265625e+01 -4.220347881317138672e+00 3.154449164867401123e-01 1.159945845603942871e+00 4.426172077655792236e-01 -6.436943411827087402e-01
1.834000000000000000e+03 3.365365600585937500e+01 -1.449108028411865234e+01 -5.201497673988342285e-01 -9.377185255289077759e-02 -1.841764748096466064e-01 4.181087017059326172e-01
1.835000000000000000e+03 4.377926635742187500e+01 -3.729937791824340820e+00 2.876130938529968262e-01 8.635600209236145020e-01 3.453519344329833984e-01 -5.316237807273864746e-01
1.836000000000000000e+03 4.534966278076171875e+01 -4.568081378936767578e+00 3.116102218627929688e-01 1.001080036163330078e+00 3.938070535659790039e-01 -6.169098615646362305e-01
1.837000000000000000e+03 6.836686706542968750e+01 -1.854056930541992188e+01 3.417893648147583008e-01 1.579638004302978516e+00 5.764282345771789551e-01 -8.996911048889160156e-01
1.838000000000000000e+03 4.060026550292968750e+01 -1.870860290527343750e+01 -1.203782558441162109e+00 -4.426454380154609680e-02 -3.744141161441802979e-01 4.929288923740386963e-01
1.839000000000000000e+03 4.220560073852539062e+01 4.286904811859130859e+00 2.686164081096649170e-01 1.206729412078857422e+00 4.426037371158599854e-01 -4.762363135814666748e-01
1.840000000000000000e+03 4.237908935546875000e+01 1.288212418556213379e+00 2.524540722370147705e-01 1.032410144805908203e+00 3.854592442512512207e-01 -4.618647396564483643e-01
1.841000000000000000e+03 1.056885814666748047e+01 -1.321424007415771484e+01 -2.595330297481268644e-04 8.046002039918676019e-05 -5.372190571506507695e-05 -1.508382847532629967e-04
1.842000000000000000e+03 7.236038208007812500e+01 1.173467922210693359e+01 -4.113731682300567627e-01 9.074416160583496094e+00 2.598912954330444336e+00 -3.558788448572158813e-02
1.843000000000000000e+03 7.438019561767578125e+01 4.146343231201171875e+00 4.612725675106048584e-01 8.421485900878906250e+00 2.664827346801757812e+00 8.832050114870071411e-02
1.844000000000000000e+03 7.254607391357421875e+01 3.331377744674682617e+00 4.981025457382202148e-01 9.702845573425292969e+00 3.060284614562988281e+00 2.014294713735580444e-01
1.845000000000000000e+03 4.570367431640625000e+01 -2.855485725402832031e+01 1.779640279710292816e-02 -4.956129789352416992e-01 -1.433449685573577881e-01 -4.562993943691253662e-01
1.846000000000000000e+03 4.925185775756835938e+01 -1.272947216033935547e+01 1.409398913383483887e+00 1.018350005149841309e+00 7.283247113227844238e-01 -8.620818257331848145e-01
1.847000000000000000e+03 4.754801940917968750e+01 -1.068032646179199219e+01 9.294766187667846680e-01 8.169676065444946289e-01 5.239332914352416992e-01 -7.328723669052124023e-01
1.848000000000000000e+03 7.695771026611328125e+01 1.646000671386718750e+01 1.318941172212362289e-02 7.284655570983886719e+00 2.189353466033935547e+00 7.830483466386795044e-02
1.849000000000000000e+03 7.455360412597656250e+01 1.315541934967041016e+01 -1.766935437917709351e-01 8.258339881896972656e+00 2.424494028091430664e+00 1.165234148502349854e-01
1.850000000000000000e+03 7.683540344238281250e+01 2.490164756774902344e+00 2.198392301797866821e-01 6.975353717803955078e+00 2.158557891845703125e+00 -1.580349951982498169e-01
1.851000000000000000e+03 7.564302825927734375e+01 -6.310132145881652832e-01 2.496415227651596069e-01 7.463845252990722656e+00 2.314046144485473633e+00 -4.768822193145751953e-01
1.852000000000000000e+03 7.370241546630859375e+01 5.061283111572265625e+00 4.314512312412261963e-01 8.929226875305175781e+00 2.808203220367431641e+00 1.847803592681884766e-01
1.853000000000000000e+03 7.571765136718750000e+01 5.344326972961425781e+00 2.419785857200622559e-01 7.673867225646972656e+00 2.374753713607788086e+00 1.877328455448150635e-01
1.854000000000000000e+03 7.372074890136718750e+01 3.012517929077148438e+00 5.440907478332519531e-01 8.762370109558105469e+00 2.791938066482543945e+00 7.267557829618453979e-02
1.855000000000000000e+03 7.230895233154296875e+01 1.887847900390625000e+00 7.061045765876770020e-01 9.599365234375000000e+00 3.091640949249267578e+00 2.516159117221832275e-01
1.856000000000000000e+03 7.452604675292968750e+01 6.530263900756835938e+00 2.480394095182418823e-01 8.291093826293945312e+00 2.561739921569824219e+00 2.984880208969116211e-01
1.857000000000000000e+03 7.583942413330078125e+01 9.523401260375976562e+00 -8.443491160869598389e-02 7.741500377655029297e+00 2.297119617462158203e+00 2.994407713413238525e-01
1.858000000000000000e+03 7.588120269775390625e+01 1.082812500000000000e+01 -1.222985684871673584e-01 7.659302711486816406e+00 2.261101245880126953e+00 2.217912375926971436e-01
1.859000000000000000e+03 7.469627380371093750e+01 1.195130443572998047e+01 -1.986483186483383179e-01 8.174449920654296875e+00 2.392740488052368164e+00 1.425351798534393311e-01
1.860000000000000000e+03 7.549804687500000000e+01 -7.238981246948242188e+00 -1.077311113476753235e-01 7.283150672912597656e+00 2.152626037597656250e+00 -5.759180188179016113e-01
1.861000000000000000e+03 7.686363220214843750e+01 -5.773355960845947266e+00 -4.703705012798309326e-02 7.340868473052978516e+00 2.188149452209472656e+00 -5.850239396095275879e-01
1.862000000000000000e+03 7.254480743408203125e+01 -4.204443454742431641e+00 8.307245443575084209e-04 7.609358787536621094e+00 2.283056974411010742e+00 -1.476087421178817749e-01
1.863000000000000000e+03 7.698371124267578125e+01 1.787460517883300781e+01 1.795573532581329346e-02 7.306776046752929688e+00 2.197419404983520508e+00 7.309129834175109863e-02
1.864000000000000000e+03 7.575853729248046875e+01 1.639865875244140625e+01 5.136040970683097839e-03 7.738015174865722656e+00 2.322945356369018555e+00 6.403928250074386597e-02
1.865000000000000000e+03 7.435723876953125000e+01 -2.419197797775268555e+00 1.699534505605697632e-01 7.730974197387695312e+00 2.370278358459472656e+00 -4.931884109973907471e-01
1.866000000000000000e+03 7.571455383300781250e+01 -4.425824165344238281e+00 -1.016073673963546753e-02 7.347861766815185547e+00 2.201310396194458008e+00 -6.166534423828125000e-01
1.867000000000000000e+03 7.697584533691406250e+01 -1.963510322570800781e+01 -2.827638387680053711e-01 8.062463760375976562e+00 2.333909988403320312e+00 4.645482003688812256e-01
1.868000000000000000e+03 7.421769714355468750e+01 -1.820536994934082031e+01 -6.752290725708007812e-01 7.369468212127685547e+00 2.008271694183349609e+00 -1.383082866668701172e-01
1.869000000000000000e+03 7.640051269531250000e+01 -1.649267578125000000e+01 -2.767335474491119385e-01 7.785941123962402344e+00 2.252762317657470703e+00 -7.247408851981163025e-03
1.870000000000000000e+03 7.497021484375000000e+01 -1.720092964172363281e+01 -5.115279555320739746e-01 7.397651195526123047e+00 2.065836906433105469e+00 -8.627457171678543091e-02
1.871000000000000000e+03 7.680673217773437500e+01 -1.144383239746093750e+01 -1.059318035840988159e-01 7.662195205688476562e+00 2.266879081726074219e+00 -3.594116568565368652e-01
1.872000000000000000e+03 7.575523376464843750e+01 -1.457660675048828125e+01 -2.437644898891448975e-01 7.452462673187255859e+00 2.162609338760375977e+00 -2.204075455665588379e-01
1.873000000000000000e+03 7.031603240966796875e+01 -9.737977027893066406e+00 -1.204264909029006958e-01 5.296389579772949219e+00 1.552788972854614258e+00 1.888720095157623291e-01
1.874000000000000000e+03 7.685782623291015625e+01 -2.519539833068847656e+01 5.642915964126586914e-01 7.969968318939208984e+00 2.560277938842773438e+00 1.870742887258529663e-01
1.875000000000000000e+03 7.610120391845703125e+01 -2.674242973327636719e+01 7.563960552215576172e-01 8.277964591979980469e+00 2.710308313369750977e+00 -2.876499891281127930e-01
1.876000000000000000e+03 7.382494354248046875e+01 -2.182746696472167969e+01 -2.912312746047973633e-01 8.563673019409179688e+00 2.481732606887817383e+00 1.914671063423156738e-01
1.877000000000000000e+03 7.549015045166015625e+01 -1.160519409179687500e+01 -1.688572615385055542e-01 7.225864887237548828e+00 2.117102384567260742e+00 -4.071210920810699463e-01
1.878000000000000000e+03 7.561508941650390625e+01 -2.339899826049804688e+01 4.983027577400207520e-01 8.182264328002929688e+00 2.604170083999633789e+00 6.804205775260925293e-01
1.879000000000000000e+03 7.468445587158203125e+01 -2.642463684082031250e+01 1.182412624359130859e+00 9.095565795898437500e+00 3.083393335342407227e+00 -2.611098885536193848e-01
1.880000000000000000e+03 7.490499114990234375e+01 3.491965103149414062e+01 -3.935642540454864502e-01 7.320791721343994141e+00 2.078168153762817383e+00 3.563319444656372070e-01
1.881000000000000000e+03 7.635443115234375000e+01 3.594646453857421875e+01 -3.171528577804565430e-01 8.145288467407226562e+00 2.348440647125244141e+00 3.102477490901947021e-01
1.882000000000000000e+03 7.107532501220703125e+01 3.349935150146484375e+01 -5.782167315483093262e-01 5.633878707885742188e+00 1.516698598861694336e+00 -7.573904842138290405e-02
1.883000000000000000e+03 7.461733245849609375e+01 2.193659019470214844e+01 2.118761390447616577e-01 8.039930343627929688e+00 2.475541830062866211e+00 1.666121035814285278e-01
1.884000000000000000e+03 7.338851165771484375e+01 2.325240898132324219e+01 3.376348614692687988e-01 8.309442520141601562e+00 2.594123125076293945e+00 1.118959262967109680e-01
1.885000000000000000e+03 7.682778930664062500e+01 2.776972007751464844e+01 8.917253464460372925e-02 7.665168762207031250e+00 2.326302289962768555e+00 5.593923926353454590e-01
1.886000000000000000e+03 7.437897491455078125e+01 2.625775337219238281e+01 3.109681010246276855e-01 7.747075080871582031e+00 2.417412996292114258e+00 4.597219824790954590e-01
1.887000000000000000e+03 7.677243804931640625e+01 2.916313362121582031e+01 2.303886972367763519e-02 7.765037536621093750e+00 2.336422920227050781e+00 6.145236492156982422e-01
1.888000000000000000e+03 7.447927093505859375e+01 2.480295562744140625e+01 3.338329195976257324e-01 7.866017818450927734e+00 2.459955215454101562e+00 3.291160166263580322e-01
1.889000000000000000e+03 7.345826721191406250e+01 -3.256923675537109375e+01 -7.482852935791015625e-01 7.865734577178955078e+00 2.135234832763671875e+00 -1.944710463285446167e-01
1.890000000000000000e+03 7.554549407958984375e+01 -3.407971954345703125e+01 -5.155685544013977051e-01 7.834142684936523438e+00 2.195572137832641602e+00 -5.646310448646545410e-01
1.891000000000000000e+03 7.722289276123046875e+01 -3.326306152343750000e+01 -2.746031880378723145e-01 8.540359497070312500e+00 2.479726791381835938e+00 -6.493831276893615723e-01
1.892000000000000000e+03 7.652939605712890625e+01 3.198511695861816406e+01 -1.446311771869659424e-01 7.890692234039306641e+00 2.323818206787109375e+00 5.639843344688415527e-01
1.893000000000000000e+03 7.562591552734375000e+01 2.631569480895996094e+01 2.088876217603683472e-01 7.646290779113769531e+00 2.356553554534912109e+00 5.235092639923095703e-01
1.894000000000000000e+03 7.685812377929687500e+01 -3.074830055236816406e+01 2.079763822257518768e-02 8.285178184509277344e+00 2.491792678833007812e+00 -9.177657365798950195e-01
1.895000000000000000e+03 7.557813262939453125e+01 -3.113476753234863281e+01 -3.748555108904838562e-02 8.319952964782714844e+00 2.484740257263183594e+00 -9.159753322601318359e-01
1.896000000000000000e+03 7.601968383789062500e+01 -3.241782379150390625e+01 -3.723223507404327393e-01 8.223835945129394531e+00 2.355453968048095703e+00 -8.436218500137329102e-01
1.897000000000000000e+03 7.316898345947265625e+01 3.080369758605957031e+01 -1.799173355102539062e-01 7.149716854095458984e+00 2.090939760208129883e+00 4.802324175834655762e-01
1.898000000000000000e+03 7.543249511718750000e+01 3.049446868896484375e+01 -7.548177242279052734e-02 7.627278804779052734e+00 2.265539169311523438e+00 6.571949124336242676e-01
1.899000000000000000e+03 7.562483978271484375e+01 8.238171339035034180e-01 3.403548002243041992e-01 7.524528980255126953e+00 2.359465122222900391e+00 -3.242541551589965820e-01
1.900000000000000000e+03 3.799944686889648438e+01 -1.597733402252197266e+01 -7.461674213409423828e-01 -2.741485536098480225e-01 -3.060947954654693604e-01 3.584788441658020020e-01
1.901000000000000000e+03 3.816503524780273438e+01 -1.713860702514648438e+01 -1.073246598243713379e+00 -3.895283043384552002e-01 -4.388324618339538574e-01 3.935038447380065918e-01
1.902000000000000000e+03 6.454563140869140625e+01 -2.071962547302246094e+01 -9.027789235115051270e-01 3.851923644542694092e-01 -1.552759706974029541e-01 -1.765492558479309082e-01
1.903000000000000000e+03 7.374655151367187500e+01 3.810961532592773438e+01 -2.826985716819763184e-01 6.522486209869384766e+00 1.871936202049255371e+00 1.283896863460540771e-01
1.904000000000000000e+03 7.514765167236328125e+01 3.618733215332031250e+01 -2.197374552488327026e-01 7.310666084289550781e+00 2.127278566360473633e+00 3.582374751567840576e-01
1.905000000000000000e+03 7.213261413574218750e+01 4.411118924617767334e-01 6.863241195678710938e-01 9.345577239990234375e+00 3.009570360183715820e+00 2.133641093969345093e-01
1.906000000000000000e+03 7.251924896240234375e+01 1.629162979125976562e+01 1.158950403332710266e-01 8.852853775024414062e+00 2.690624713897705078e+00 1.322666257619857788e-01
1.907000000000000000e+03 7.318591308593750000e+01 1.545834064483642578e+01 5.937344208359718323e-02 8.600955963134765625e+00 2.598098754882812500e+00 2.864008769392967224e-02
1.908000000000000000e+03 7.235646820068359375e+01 1.892999458312988281e+01 4.614279419183731079e-02 8.983945846557617188e+00 2.709026575088500977e+00 1.092428490519523621e-01
1.909000000000000000e+03 7.239415740966796875e+01 1.758533859252929688e+01 7.388576865196228027e-02 9.020173072814941406e+00 2.728217840194702148e+00 1.538579314947128296e-01
1.910000000000000000e+03 5.324193954467773438e+01 -2.902923202514648438e+01 1.425436496734619141e+00 2.245591163635253906e+00 1.101308345794677734e+00 4.933013916015625000e-01
1.911000000000000000e+03 4.411298370361328125e+01 3.383895874023437500e+01 -1.152827069163322449e-01 4.374189078807830811e-01 9.664086252450942993e-02 3.910364210605621338e-02
1.912000000000000000e+03 5.494744110107421875e+01 -2.539482879638671875e+01 6.505446434020996094e-01 2.369514465332031250e+00 9.060177803039550781e-01 5.968599915504455566e-01
1.913000000000000000e+03 5.416545486450195312e+01 -2.730543708801269531e+01 1.270563244819641113e+00 2.579729318618774414e+00 1.155087828636169434e+00 3.125879466533660889e-01
1.914000000000000000e+03 4.784210968017578125e+01 -7.995054721832275391e+00 4.927691817283630371e-01 1.315360784530639648e+00 5.424389839172363281e-01 -8.198863267898559570e-01
1.915000000000000000e+03 3.861765670776367188e+01 9.667681694030761719e+00 3.767916858196258545e-01 1.027014613151550293e+00 4.211418926715850830e-01 -2.438902258872985840e-01
1.916000000000000000e+03 4.402668952941894531e+00 -1.473597812652587891e+01 3.964494098909199238e-04 4.535279731499031186e-05 1.325406628893688321e-04 -1.243558835994917899e-05
1.917000000000000000e+03 4.564388751983642578e+00 2.111895942687988281e+01 1.579229161143302917e-02 -2.955966293811798096e-01 -8.394129574298858643e-02 3.681017085909843445e-02
1.918000000000000000e+03 6.801357746124267578e+00 -2.078995704650878906e+01 4.258215776644647121e-04 1.209752153954468668e-04 1.640390401007607579e-04 -1.172758929897099733e-04
1.919000000000000000e+03 3.158053636550903320e+00 -1.905506706237792969e+01 3.684801340568810701e-04 1.178464372060261667e-04 1.458979677408933640e-04 4.893402729067020118e-05
1.920000000000000000e+03 4.463418006896972656e+00 -1.906041717529296875e+01 -4.435031733009964228e-04 -1.181900879601016641e-04 -1.685079769231379032e-04 -2.676235453691333532e-05
1.921000000000000000e+03 5.779932975769042969e+00 -2.639506530761718750e+01 6.142769707366824150e-04 4.020433116238564253e-04 3.048960934393107891e-04 6.834281975898193195e-06
1.922000000000000000e+03 3.625041007995605469e+00 -2.318072891235351562e+01 4.677043179981410503e-04 9.696190682006999850e-05 1.693998783593997359e-04 1.348044024780392647e-04
1.923000000000000000e+03 7.358200073242187500e+00 -1.825755119323730469e+01 5.474609206430613995e-04 4.616413571056909859e-05 1.780875172698870301e-04 -1.556865390739403665e-05
1.924000000000000000e+03 5.784484386444091797e+00 -1.922032737731933594e+01 4.177723894827067852e-04 1.209199836011976004e-04 1.616077061044052243e-04 -4.534436811809428036e-05
1.925000000000000000e+03 2.958921432495117188e+00 -2.566268920898437500e+01 -6.960663595236837864e-04 1.271244218514766544e-05 -2.050061739282682538e-04 -1.560230739414691925e-04
1.926000000000000000e+03 5.562090873718261719e+00 -2.317253494262695312e+01 -3.415168903302401304e-04 -1.559846423333510756e-04 -1.492504525231197476e-04 5.747481918660923839e-05
1.927000000000000000e+03 5.785451889038085938e+00 -2.784602737426757812e+01 -3.930738312192261219e-04 -2.530037600081413984e-04 -1.938232744578272104e-04 -2.834243059623986483e-04
1.928000000000000000e+03 4.571900844573974609e+00 2.254801750183105469e+01 1.400541793555021286e-02 -3.022279441356658936e-01 -8.646675944328308105e-02 2.933853119611740112e-02
1.929000000000000000e+03 4.515269756317138672e+00 2.567611694335937500e+01 9.159817360341548920e-03 -3.120180070400238037e-01 -9.085745364427566528e-02 1.387305930256843567e-02
1.930000000000000000e+03 5.233403205871582031e+00 2.918744277954101562e+01 6.857804488390684128e-03 -2.967582643032073975e-01 -8.697013556957244873e-02 4.142773803323507309e-03
1.931000000000000000e+03 4.274646282196044922e+00 1.556258773803710938e+01 1.641720347106456757e-02 -2.535679340362548828e-01 -7.114522159099578857e-02 7.132641971111297607e-02
1.932000000000000000e+03 4.518362998962402344e+00 1.972451210021972656e+01 1.649673655629158020e-02 -2.881835103034973145e-01 -8.150602877140045166e-02 4.562882333993911743e-02
1.933000000000000000e+03 3.111330270767211914e+00 1.720975112915039062e+01 9.502114728093147278e-03 -2.861283123493194580e-01 -8.298785984516143799e-02 4.757998138666152954e-02
1.934000000000000000e+03 4.362225055694580078e+00 1.695559501647949219e+01 1.711362786591053009e-02 -2.672597765922546387e-01 -7.504384964704513550e-02 6.307880580425262451e-02
1.935000000000000000e+03 3.004352569580078125e+00 1.441084003448486328e+01 8.364588022232055664e-03 -2.479702234268188477e-01 -7.188168913125991821e-02 6.085892766714096069e-02
1.936000000000000000e+03 4.108197689056396484e+00 1.279983329772949219e+01 1.243198569864034653e-02 -2.184294760227203369e-01 -6.179924681782722473e-02 8.638196438550949097e-02
1.937000000000000000e+03 4.186572551727294922e+00 1.417469692230224609e+01 1.492593903094530106e-02 -2.369541972875595093e-01 -6.660848110914230347e-02 7.970134168863296509e-02
1.938000000000000000e+03 4.253848075866699219e+00 2.710407638549804688e+01 9.143184870481491089e-03 -3.200757503509521484e-01 -9.327977150678634644e-02 8.573201484978199005e-03
1.939000000000000000e+03 4.553608417510986328e+00 2.405233192443847656e+01 1.339353993535041809e-02 -3.075088560581207275e-01 -8.823459595441818237e-02 2.091021463274955750e-02
1.940000000000000000e+03 4.137167453765869141e+00 -1.045174598693847656e+01 -2.913807111326605082e-04 2.111248795699793845e-05 -8.108046313282102346e-05 -5.476865044329315424e-05
1.941000000000000000e+03 4.078474044799804688e+00 -9.097996711730957031e+00 2.777131448965519667e-04 -5.919030627410393208e-06 8.153823000611737370e-05 4.196551526547409594e-05
1.942000000000000000e+03 4.402102947235107422e+00 -1.328640556335449219e+01 -3.694503393489867449e-04 3.333781569381244481e-05 -1.008337567327544093e-04 -1.768489164533093572e-05
1.943000000000000000e+03 5.146791458129882812e+00 1.123924160003662109e+01 1.320466585457324982e-02 -1.979965269565582275e-01 -5.543755739927291870e-02 1.092590838670730591e-01
1.944000000000000000e+03 5.719892978668212891e+00 3.317670059204101562e+01 3.855593968182802200e-03 -2.880855798721313477e-01 -8.526899665594100952e-02 -2.487174700945615768e-03
1.945000000000000000e+03 3.584859848022460938e+00 3.510339355468750000e+01 1.493628253228962421e-03 -3.399090766906738281e-01 -1.015246361494064331e-01 -3.047993406653404236e-03
1.946000000000000000e+03 3.624643802642822266e+00 -3.135419845581054688e+01 -6.857544649392366409e-04 1.655255618970841169e-04 -1.560686650918796659e-04 1.101332745747640729e-04
1.947000000000000000e+03 5.006656646728515625e+00 -2.966209793090820312e+01 -7.050173007883131504e-04 5.842579776071943343e-05 -1.939774519996717572e-04 -5.078496906207874417e-05
1.948000000000000000e+03 4.250624656677246094e+00 -1.184984302520751953e+01 3.260331286583095789e-04 -4.107477070647291839e-05 8.548751065973192453e-05 5.317171235219575465e-05
1.949000000000000000e+03 4.037210941314697266e+00 1.143363380432128906e+01 8.581074886023998260e-03 -1.966831088066101074e-01 -5.643061175942420959e-02 9.251651912927627563e-02
1.950000000000000000e+03 4.647824287414550781e+00 -5.502561569213867188e+00 -2.791367296595126390e-04 -1.234004139405442402e-05 -8.744303340790793300e-05 7.669499609619379044e-05
1.951000000000000000e+03 4.092066287994384766e+00 2.824051856994628906e+01 4.176629241555929184e-03 -3.288896977901458740e-01 -9.741392731666564941e-02 5.166342481970787048e-03
1.952000000000000000e+03 6.074058532714843750e+00 3.488878631591796875e+01 1.316428533755242825e-03 -2.805233299732208252e-01 -8.376207202672958374e-02 -3.727226518094539642e-03
1.953000000000000000e+03 4.538401603698730469e+00 3.557567596435546875e+01 1.836220500990748405e-03 -3.197784721851348877e-01 -9.538267552852630615e-02 -2.740982221439480782e-03
1.954000000000000000e+03 5.295018672943115234e+00 3.153423309326171875e+01 5.988076329231262207e-03 -2.956764101982116699e-01 -8.690650016069412231e-02 -1.363815041258931160e-03
1.955000000000000000e+03 5.754671096801757812e+00 -3.488851928710937500e+01 -1.023582997731864452e-03 7.333123940043151379e-04 -8.708120731171220541e-05 1.043381984345614910e-03
1.956000000000000000e+03 5.172600746154785156e+00 -3.119949722290039062e+01 1.410311902873218060e-03 4.593461198965087533e-05 4.368739319033920765e-04 3.437052946537733078e-04
1.957000000000000000e+03 3.660438299179077148e+00 -3.272883224487304688e+01 1.226380118168890476e-03 4.758537397719919682e-05 3.821896389126777649e-04 4.374096461106091738e-04
1.958000000000000000e+03 3.868836164474487305e+00 8.698018074035644531e+00 -3.151402575895190239e-03 -1.474139243364334106e-01 -4.516959562897682190e-02 9.460621327161788940e-02
1.959000000000000000e+03 4.252325057983398438e+00 -4.713046073913574219e+00 -8.101770799839869142e-05 -7.982958049979060888e-05 -4.825418727705255151e-05 -3.509667294565588236e-05
1.960000000000000000e+03 3.685003280639648438e+01 -1.603216743469238281e+01 -7.755475640296936035e-01 -2.928198575973510742e-01 -3.205102086067199707e-01 4.172673821449279785e-01
1.961000000000000000e+03 7.239602661132812500e+01 -1.997690391540527344e+01 -1.044117808341979980e+00 7.264469623565673828e+00 1.866105556488037109e+00 -6.047089099884033203e-01
1.962000000000000000e+03 6.995546722412109375e+01 3.244764709472656250e+01 -5.245133638381958008e-01 5.231436252593994141e+00 1.412076830863952637e+00 -3.398020863533020020e-01
1.963000000000000000e+03 1.609718894958496094e+01 -8.257090568542480469e+00 1.203120045829564333e-04 -1.512219660071423277e-05 3.155694139422848821e-05 -6.713314360240474343e-05
1.964000000000000000e+03 4.102308654785156250e+01 3.821279525756835938e+00 2.727283835411071777e-01 1.085161209106445312e+00 4.073668718338012695e-01 -3.845427334308624268e-01
1.965000000000000000e+03 4.168218994140625000e+01 2.511545181274414062e+00 2.406330853700637817e-01 1.046281695365905762e+00 3.860744535923004150e-01 -4.309056699275970459e-01
1.966000000000000000e+03 7.125633239746093750e+01 -3.979223012924194336e+00 1.292084455490112305e-01 7.605695247650146484e+00 2.320471048355102539e+00 3.824144899845123291e-01
1.967000000000000000e+03 7.166781616210937500e+01 -2.514312267303466797e+00 2.195643931627273560e-01 8.325224876403808594e+00 2.563436985015869141e+00 2.767676711082458496e-01
1.968000000000000000e+03 7.269265747070312500e+01 -7.375103473663330078e+00 -1.575501710176467896e-01 6.786432266235351562e+00 1.988664627075195312e+00 -2.253737598657608032e-01
1.969000000000000000e+03 7.422509002685546875e+01 -1.200681400299072266e+01 -2.336895018815994263e-01 6.789413928985595703e+00 1.966717362403869629e+00 -3.915204405784606934e-01
1.970000000000000000e+03 6.802001953125000000e+00 -2.791502761840820312e+01 4.053926677443087101e-04 5.690708640031516552e-04 2.923390420619398355e-04 -1.935528707690536976e-04
1.971000000000000000e+03 6.053678512573242188e+00 -2.488202285766601562e+01 -5.824654363095760345e-04 -1.576825452502816916e-04 -2.220444002887234092e-04 1.051224535331130028e-04
1.972000000000000000e+03 4.959411239624023438e+01 -1.467660903930664062e+01 1.429780840873718262e+00 3.263248205184936523e-01 5.268316864967346191e-01 -1.349016129970550537e-01
1.973000000000000000e+03 3.599353790283203125e+01 2.172662162780761719e+01 9.097030758857727051e-02 6.488984227180480957e-01 2.219606190919876099e-01 -1.095915064215660095e-01
1.974000000000000000e+03 3.823974990844726562e+01 1.315256118774414062e+01 2.739270031452178955e-01 1.016466856002807617e+00 3.871181607246398926e-01 -2.069652974605560303e-01
1.975000000000000000e+03 7.139024353027343750e+01 -7.087961673736572266e+00 -1.295156627893447876e-01 6.463197708129882812e+00 1.900104522705078125e+00 1.159302368760108948e-01
1.976000000000000000e+03 6.708100891113281250e+01 -3.685493087768554688e+01 -6.514213234186172485e-02 9.285463690757751465e-01 2.590212523937225342e-01 3.637927174568176270e-01
1.977000000000000000e+03 6.874542999267578125e+01 -1.355888938903808594e+01 1.722385734319686890e-01 3.562882900238037109e+00 1.120536446571350098e+00 2.024461030960083008e-01
1.978000000000000000e+03 6.989675140380859375e+01 -1.097125434875488281e+01 -5.932838097214698792e-02 4.855844497680664062e+00 1.438954830169677734e+00 2.125392556190490723e-01
1.979000000000000000e+03 7.576101779937744141e+00 -1.715438270568847656e+01 -4.876873572356998920e-04 -1.050361170200631022e-04 -1.778170408215373755e-04 6.660699000349268317e-05
1.980000000000000000e+03 5.418512821197509766e+00 -1.610828971862792969e+01 3.081543254666030407e-04 1.753312972141429782e-04 1.450456911697983742e-04 -4.444910882739350200e-05
1.981000000000000000e+03 5.664554977416992188e+01 -2.437326622009277344e+01 2.131625413894653320e-01 2.750427961349487305e+00 8.890771865844726562e-01 1.195348262786865234e+00
1.982000000000000000e+03 5.656907272338867188e+01 -2.309489250183105469e+01 -4.478268623352050781e-01 2.200899839401245117e+00 5.259219408035278320e-01 1.098311543464660645e+00
1.983000000000000000e+03 3.923663711547851562e+01 2.106110572814941406e+01 8.058851957321166992e-02 8.360016345977783203e-01 2.749770581722259521e-01 -1.306512020528316498e-02
1.984000000000000000e+03 3.862496566772460938e+01 1.797135925292968750e+01 1.295337975025177002e-01 9.350473880767822266e-01 3.193743526935577393e-01 -7.250409573316574097e-02
1.985000000000000000e+03 4.331997871398925781e+00 -2.356796455383300781e+01 -1.466354005970060825e-04 7.728655873506795615e-06 -4.167202496319077909e-05 -1.196128287119790912e-04
1.986000000000000000e+03 7.505263519287109375e+01 4.036905670166015625e+01 -7.029058784246444702e-02 7.413188934326171875e+00 2.202869415283203125e+00 2.234842479228973389e-01
1.987000000000000000e+03 4.642798233032226562e+01 -2.589357566833496094e+01 2.459086850285530090e-02 -4.150461554527282715e-01 -1.171365901827812195e-01 -7.326136827468872070e-01
1.988000000000000000e+03 4.628674697875976562e+01 -7.029893398284912109e+00 4.414276778697967529e-01 1.012830853462219238e+00 4.362775683403015137e-01 -6.931838393211364746e-01
1.989000000000000000e+03 4.071053314208984375e+01 2.546086120605468750e+01 2.717999741435050964e-02 6.843575835227966309e-01 2.134612798690795898e-01 3.554577007889747620e-02
1.990000000000000000e+03 7.315885925292968750e+01 2.617447662353515625e+01 4.361991584300994873e-01 7.911411762237548828e+00 2.504283189773559570e+00 2.664732635021209717e-01
1.991000000000000000e+03 7.151015472412109375e+01 2.929977035522460938e+01 1.445787101984024048e-01 7.053314685821533203e+00 2.159368038177490234e+00 1.327935606241226196e-01
1.992000000000000000e+03 3.823640060424804688e+01 1.139471817016601562e+01 3.273284435272216797e-01 1.011248707771301270e+00 4.015731513500213623e-01 -2.278443425893783569e-01
1.993000000000000000e+03 6.763936614990234375e+01 -1.388814163208007812e+01 1.966918259859085083e-01 2.928805589675903320e+00 9.376491904258728027e-01 4.311212301254272461e-01
1.994000000000000000e+03 3.710200500488281250e+01 1.812718009948730469e+01 1.577169001102447510e-01 7.989439964294433594e-01 2.869982719421386719e-01 -1.223851144313812256e-01
1.995000000000000000e+03 7.399175262451171875e+01 -2.726484489440917969e+01 1.291407227516174316e+00 9.171629905700683594e+00 3.138911008834838867e+00 -2.393565922975540161e-01
1.996000000000000000e+03 5.584647750854492188e+01 -2.496673583984375000e+01 4.790445566177368164e-01 2.526558160781860352e+00 9.016808271408081055e-01 8.594124913215637207e-01
1.997000000000000000e+03 1.824085998535156250e+01 -3.377940750122070312e+01 4.211459774523973465e-03 7.896532188169658184e-04 1.500333892181515694e-03 4.075150005519390106e-03
1.998000000000000000e+03 5.185121536254882812e+01 3.850861740112304688e+01 -1.102985888719558716e-01 1.052486747503280640e-01 -1.514974399469792843e-03 7.429038733243942261e-02
1.999000000000000000e+03 7.164341735839843750e+01 -3.563177108764648438e+01 -7.072232365608215332e-01 5.627853393554687500e+00 1.476189017295837402e+00 4.965073466300964355e-01
2.000000000000000000e+03 7.349084472656250000e+01 -3.446677017211914062e+01 -8.530899286270141602e-01 7.090260505676269531e+00 1.871151208877563477e+00 -2.412659116089344025e-02
2.001000000000000000e+03 1.144807434082031250e+01 -3.526840591430664062e+01 -8.572209626436233521e-04 1.211764640174806118e-03 1.063630988937802613e-04 2.406406914815306664e-03
2.002000000000000000e+03 3.491527557373046875e+01 -1.218723869323730469e+01 -2.713305056095123291e-01 -1.185850799083709717e-01 -1.169746816158294678e-01 3.698622584342956543e-01
2.003000000000000000e+03 7.422846984863281250e+01 2.915770339965820312e+01 5.376514047384262085e-02 7.527852535247802734e+00 2.274485349655151367e+00 6.157693862915039062e-01
2.004000000000000000e+03 6.753102111816406250e+01 3.877443313598632812e+01 1.601191051304340363e-02 2.623098611831665039e+00 7.917331457138061523e-01 -3.278283178806304932e-01
2.005000000000000000e+03 9.552610397338867188e+00 -3.133223152160644531e+01 2.491839695721864700e-03 -1.828239473979920149e-04 6.927047506906092167e-04 8.241314790211617947e-04
2.006000000000000000e+03 9.774891853332519531e+00 -3.395410156250000000e+01 2.250254619866609573e-03 3.033951907127629966e-05 6.841782596893608570e-04 1.882813870906829834e-03
2.007000000000000000e+03 7.509847640991210938e+00 -1.495663928985595703e+01 -3.291732573416084051e-04 1.920579052239190787e-05 -9.299024532083421946e-05 -6.383186700986698270e-05
2.008000000000000000e+03 5.536883354187011719e+00 -1.728083229064941406e+01 -1.927798584802076221e-04 -1.642625284148380160e-04 -1.071127189788967371e-04 -1.277996398130198941e-05
2.009000000000000000e+03 4.433547496795654297e+00 -1.755338668823242188e+01 4.172480548731982708e-04 8.501183765474706888e-05 1.506779663031920791e-04 2.913076787081081420e-05
2.010000000000000000e+03 5.237926864624023438e+01 4.115049743652343750e+01 -7.951781153678894043e-02 4.837553948163986206e-02 -9.342680685222148895e-03 3.017855808138847351e-02
2.011000000000000000e+03 7.483833312988281250e+01 3.346806335449218750e+01 -3.077774941921234131e-01 7.339870929718017578e+00 2.109627962112426758e+00 4.452296197414398193e-01
2.012000000000000000e+03 6.234348678588867188e+01 -4.096773910522460938e+01 4.978753030300140381e-01 1.995632946491241455e-01 2.092315852642059326e-01 -1.604093760251998901e-01
2.013000000000000000e+03 6.933644866943359375e+01 -3.938377380371093750e+01 1.989084035158157349e-01 3.042364358901977539e+00 9.723818302154541016e-01 2.941627204418182373e-01
2.014000000000000000e+03 8.312686920166015625e+00 -3.546348953247070312e+01 -9.399930713698267937e-04 7.945370743982493877e-04 -4.363681364338845015e-05 1.594321103766560555e-03
2.015000000000000000e+03 4.142014694213867188e+01 -3.497059249877929688e+01 1.365409940481185913e-01 -6.148955225944519043e-01 -1.435063630342483521e-01 -9.760176390409469604e-02
2.016000000000000000e+03 4.505889129638671875e+01 -3.190417480468750000e+01 1.350446939468383789e-01 -4.331211447715759277e-01 -8.942293375730514526e-02 1.435992419719696045e-01
2.017000000000000000e+03 4.296219253540039062e+01 3.205952835083007812e+01 -8.820249885320663452e-02 4.886741340160369873e-01 1.201414912939071655e-01 3.455082699656486511e-02
2.018000000000000000e+03 4.399888229370117188e+01 2.949881553649902344e+01 -1.357503328472375870e-02 5.123896598815917969e-01 1.496443897485733032e-01 8.693300932645797729e-02
2.019000000000000000e+03 5.941844177246093750e+01 -1.985781097412109375e+01 -4.310880303382873535e-01 2.470654726028442383e+00 6.118699908256530762e-01 1.908540368080139160e+00
2.020000000000000000e+03 6.017459869384765625e+01 -1.956739997863769531e+01 -2.841813862323760986e-01 3.145742654800415039e+00 8.584684133529663086e-01 1.766674041748046875e+00
2.021000000000000000e+03 5.889252090454101562e+01 -2.010720252990722656e+01 -6.000698804855346680e-01 2.129251480102539062e+00 4.587544798851013184e-01 1.831302285194396973e+00
2.022000000000000000e+03 6.087041854858398438e+01 -1.905975341796875000e+01 8.655602484941482544e-02 3.912509441375732422e+00 1.199719667434692383e+00 1.231877684593200684e+00
2.023000000000000000e+03 1.243378448486328125e+01 -5.554171562194824219e+00 9.457361738895997405e-05 7.074454333633184433e-05 4.959544821758754551e-05 2.454104287608060986e-05
2.024000000000000000e+03 1.080397033691406250e+01 -5.566916465759277344e+00 -1.499192294431850314e-04 -4.832512786379083991e-05 -5.947330646449699998e-05 6.250688784348312765e-06
2.025000000000000000e+03 1.210297870635986328e+01 -6.157340049743652344e+00 -1.333546242676675320e-04 -5.762929140473715961e-05 -5.729517215513624251e-05 -5.580078504863195121e-05
2.026000000000000000e+03 6.177511596679687500e+01 -1.877550697326660156e+01 8.977653980255126953e-01 3.611612081527709961e+00 1.352813243865966797e+00 -2.425849903374910355e-03
2.027000000000000000e+03 6.263662338256835938e+01 -1.908772468566894531e+01 9.351363778114318848e-01 2.262445688247680664e+00 9.592745900154113770e-01 4.493040964007377625e-03
2.028000000000000000e+03 1.509884071350097656e+01 -7.029726982116699219e+00 -1.177438389277085662e-04 -2.105499879689887166e-05 -4.163965058978646994e-05 5.352807784220203757e-05
2.029000000000000000e+03 1.473489856719970703e+01 -9.188617706298828125e+00 -1.851191482273861766e-04 -1.397296455252217129e-05 -5.972763392492197454e-05 1.246788087883032858e-05
2.030000000000000000e+03 1.633266067504882812e+01 -7.403496265411376953e+00 9.590598347131162882e-05 3.957652552344370633e-06 2.995909198943991214e-05 -1.196621815324760973e-05
2.031000000000000000e+03 4.663087844848632812e+01 -2.541627693176269531e+01 -1.511258073151111603e-03 -3.551052510738372803e-01 -1.069849506020545959e-01 -7.661736011505126953e-01
2.032000000000000000e+03 4.705505371093750000e+01 -2.592584991455078125e+01 6.728038936853408813e-02 -2.731013000011444092e-01 -6.174627691507339478e-02 -7.396324872970581055e-01
2.033000000000000000e+03 1.552415847778320312e+01 -7.361647605895996094e+00 1.354517007712274790e-04 -1.943402821780182421e-05 3.480529994703829288e-05 -3.126511001028120518e-05
2.034000000000000000e+03 5.713322830200195312e+01 -2.256384277343750000e+01 -6.504704356193542480e-01 2.095780134201049805e+00 4.335929453372955322e-01 1.351189851760864258e+00
2.035000000000000000e+03 1.146193504333496094e+01 -5.855538845062255859e+00 1.592170156072825193e-04 3.750737960217520595e-05 5.901731856283731759e-05 2.773894811980426311e-05
2.036000000000000000e+03 5.731327438354492188e+01 -2.371595764160156250e+01 -7.842841744422912598e-02 2.536541938781738281e+00 7.374340295791625977e-01 1.457378387451171875e+00
2.037000000000000000e+03 9.494293212890625000e+00 -4.226610660552978516e+00 2.110505738528445363e-05 -1.098264983738772571e-04 -2.661643156898207963e-05 -5.109724588692188263e-05
2.038000000000000000e+03 1.013079071044921875e+01 -5.240498065948486328e+00 1.420844055246561766e-04 5.905201760469935834e-05 6.034092803020030260e-05 -1.904970304167363793e-05
2.039000000000000000e+03 4.877384948730468750e+01 -2.424986457824707031e+01 -1.567785590887069702e-01 -1.308934390544891357e-01 -8.630160242319107056e-02 -7.832683324813842773e-01
2.040000000000000000e+03 1.379080486297607422e+01 -6.692568302154541016e+00 4.051958239870145917e-05 7.211174670374020934e-05 3.378939800313673913e-05 -4.887113027507439256e-05
2.041000000000000000e+03 5.628782272338867188e+00 5.171503543853759766e+00 -4.888022691011428833e-02 -9.030799567699432373e-02 -4.175646603107452393e-02 1.117902919650077820e-01
2.042000000000000000e+03 5.821875762939453125e+01 -2.239363670349121094e+01 -7.693964838981628418e-01 2.365218639373779297e+00 4.787466228008270264e-01 1.671265125274658203e+00
2.043000000000000000e+03 4.842323780059814453e+00 6.077451229095458984e+00 -2.958265505731105804e-02 -1.026258468627929688e-01 -3.966255113482475281e-02 1.032492592930793762e-01
2.044000000000000000e+03 7.718544960021972656e+00 5.675690174102783203e+00 -5.091518163681030273e-02 -1.418156176805496216e-01 -5.781924352049827576e-02 1.638748049736022949e-01
2.045000000000000000e+03 6.353394508361816406e+00 5.128290176391601562e+00 -5.440920591354370117e-02 -1.033239886164665222e-01 -4.731995984911918640e-02 1.302088946104049683e-01
2.046000000000000000e+03 4.762903976440429688e+01 -2.571779441833496094e+01 1.114058718085289001e-01 -2.047948241233825684e-01 -2.801668643951416016e-02 -7.229095697402954102e-01
2.047000000000000000e+03 8.165557861328125000e+00 4.971980094909667969e+00 -6.662273406982421875e-02 -1.380693614482879639e-01 -6.140762940049171448e-02 1.687448918819427490e-01
2.048000000000000000e+03 5.091526031494140625e+01 -2.444776344299316406e+01 6.224069371819496155e-02 2.956436276435852051e-01 1.073652952909469604e-01 -5.902690887451171875e-01
2.049000000000000000e+03 2.791635704040527344e+01 -9.815444946289062500e+00 -3.215273916721343994e-01 -1.746844053268432617e-01 -1.488635390996932983e-01 3.804935216903686523e-01
2.050000000000000000e+03 7.068987846374511719e+00 4.103289604187011719e+00 -8.008293062448501587e-02 -9.109080582857131958e-02 -5.135212093591690063e-02 1.356321126222610474e-01
2.051000000000000000e+03 4.099719524383544922e+00 4.623105049133300781e+00 -3.430705145001411438e-02 -6.475610285997390747e-02 -2.971894852817058563e-02 7.225383073091506958e-02
2.052000000000000000e+03 5.048722457885742188e+01 -1.549114131927490234e+01 1.400907993316650391e+00 3.752561509609222412e-01 5.328492522239685059e-01 9.035957045853137970e-03
2.053000000000000000e+03 2.882622337341308594e+01 -1.287985324859619141e+01 -3.301829695701599121e-01 -1.290733367204666138e-01 -1.377768814563751221e-01 3.875540196895599365e-01
2.054000000000000000e+03 3.108123397827148438e+01 -1.259832763671875000e+01 -3.605355024337768555e-01 -8.149436861276626587e-02 -1.326089650392532349e-01 4.014768302440643311e-01
2.055000000000000000e+03 2.932482719421386719e+01 -1.347460842132568359e+01 -3.541169762611389160e-01 -1.167002990841865540e-01 -1.412451863288879395e-01 3.707269132137298584e-01
2.056000000000000000e+03 3.054627037048339844e+01 -1.335713481903076172e+01 -3.832725584506988525e-01 -9.441985934972763062e-02 -1.433077305555343628e-01 3.855491578578948975e-01
2.057000000000000000e+03 8.873691558837890625e+00 -4.274306774139404297e+00 2.246493750135414302e-05 6.140016921563073993e-05 2.515953201509546489e-05 9.428789053345099092e-05
2.058000000000000000e+03 9.795241355895996094e+00 -5.890203952789306641e+00 -1.316270063398405910e-04 -7.295537216123193502e-05 -6.137471063993871212e-05 4.721924051409587264e-05
2.059000000000000000e+03 4.792635726928710938e+01 -1.497751808166503906e+01 5.214210152626037598e-01 5.609329789876937866e-02 1.732542961835861206e-01 3.600040078163146973e-01
2.060000000000000000e+03 5.418878173828125000e+01 -2.643161201477050781e+01 1.019077539443969727e+00 2.311794996261596680e+00 9.992617368698120117e-01 3.855164349079132080e-01
2.061000000000000000e+03 5.137533569335937500e+01 -2.370348930358886719e+01 -2.445256114006042480e-01 3.126916885375976562e-01 2.044982649385929108e-02 -5.451519489288330078e-01
2.062000000000000000e+03 4.911185073852539062e+01 -2.484792709350585938e+01 1.911166124045848846e-02 -2.959654666483402252e-02 -3.145465627312660217e-03 -6.963422894477844238e-01
2.063000000000000000e+03 4.862382125854492188e+01 -2.754386329650878906e+01 4.659249484539031982e-01 7.910709828138351440e-02 1.635096073150634766e-01 -3.806675672531127930e-01
2.064000000000000000e+03 5.148166656494140625e+01 -2.432820701599121094e+01 2.930875308811664581e-02 4.381867051124572754e-01 1.402486413717269897e-01 -4.549756944179534912e-01
2.065000000000000000e+03 5.291454315185546875e+01 -2.382285881042480469e+01 -1.559996306896209717e-01 8.392626643180847168e-01 2.049789130687713623e-01 -1.921457946300506592e-01
2.066000000000000000e+03 4.716844177246093750e+01 -1.519849586486816406e+01 3.158586025238037109e-01 4.045948851853609085e-03 9.597136825323104858e-02 3.897170424461364746e-01
2.067000000000000000e+03 4.898085021972656250e+01 -1.569524288177490234e+01 4.253924190998077393e-01 1.181542873382568359e-02 1.311623603105545044e-01 5.649889707565307617e-01
2.068000000000000000e+03 5.283803939819335938e+01 -2.440007019042968750e+01 8.949756622314453125e-02 9.710795879364013672e-01 3.181731402873992920e-01 -1.930944174528121948e-01
2.069000000000000000e+03 5.342278671264648438e+01 -2.426604843139648438e+01 5.914241448044776917e-02 1.190104365348815918e+00 3.747740387916564941e-01 -1.373186893761157990e-02
2.070000000000000000e+03 6.523364257812500000e+01 -1.550109577178955078e+01 6.932642459869384766e-01 1.311164379119873047e+00 6.013286113739013672e-01 1.600442647933959961e+00
2.071000000000000000e+03 1.644777870178222656e+01 3.214505910873413086e+00 -8.190792053937911987e-02 -3.341418504714965820e-01 -1.248149275779724121e-01 2.251907736063003540e-01
2.072000000000000000e+03 5.934412002563476562e+01 -2.110456848144531250e+01 -9.355740547180175781e-01 2.473280191421508789e+00 4.613118469715118408e-01 1.863739013671875000e+00
2.073000000000000000e+03 2.644030380249023438e+01 -8.888782501220703125e+00 -3.353789448738098145e-01 -2.599288225173950195e-01 -1.785923391580581665e-01 3.709138631820678711e-01
2.074000000000000000e+03 5.593736267089843750e+01 -2.367373085021972656e+01 -1.553849428892135620e-01 2.041375875473022461e+00 5.657973289489746094e-01 8.583174347877502441e-01
2.075000000000000000e+03 7.371551513671875000e+00 -5.147390365600585938e+00 -1.213737778016366065e-04 -2.362080704187974334e-05 -4.349837399786338210e-05 -1.138915540650486946e-04
2.076000000000000000e+03 2.379136848449707031e+01 -4.953979969024658203e+00 -3.205614984035491943e-01 -3.810873925685882568e-01 -2.104946672916412354e-01 3.159005641937255859e-01
2.077000000000000000e+03 2.658630943298339844e+01 -7.778729915618896484e+00 -3.166114091873168945e-01 -2.393842786550521851e-01 -1.667987108230590820e-01 3.438897132873535156e-01
2.078000000000000000e+03 4.425844573974609375e+01 -1.614015579223632812e+01 -5.908457040786743164e-01 1.146219670772552490e-01 -1.428671181201934814e-01 4.822239577770233154e-01
2.079000000000000000e+03 4.272322845458984375e+01 -1.665020179748535156e+01 -8.032467365264892578e-01 1.258899122476577759e-01 -2.032070457935333252e-01 4.202006757259368896e-01
2.080000000000000000e+03 6.658657550811767578e+00 -4.281413555145263672e+00 -1.557819050503894687e-04 1.627774508961010724e-05 -4.185124635114334524e-05 -9.007818152895197272e-05
2.081000000000000000e+03 5.912755489349365234e+00 -4.224670886993408203e+00 1.530021690996363759e-04 -1.416008217347553000e-05 4.165262362221255898e-05 6.531183316837996244e-05
2.082000000000000000e+03 5.759049892425537109e+00 -5.007884025573730469e+00 -2.130746142938733101e-04 1.744080327625852078e-05 -5.869014421477913857e-05 -5.680057438439689577e-05
2.083000000000000000e+03 5.011503696441650391e+00 -4.817840576171875000e+00 8.793537563178688288e-05 6.943928747205063701e-05 4.721240111393854022e-05 -3.874233516398817301e-05
2.084000000000000000e+03 4.500761032104492188e+01 -1.592818832397460938e+01 -4.944974780082702637e-01 8.705153316259384155e-02 -1.222337856888771057e-01 5.489946007728576660e-01
2.085000000000000000e+03 5.450600051879882812e+01 -2.459930801391601562e+01 2.383357882499694824e-01 1.796871304512023926e+00 6.105621457099914551e-01 3.443338572978973389e-01
2.086000000000000000e+03 1.395946311950683594e+01 2.943582534790039062e+00 -1.435999870300292969e-01 -2.877295613288879395e-01 -1.293988674879074097e-01 2.426034212112426758e-01
2.087000000000000000e+03 4.314966201782226562e+01 -1.734780883789062500e+01 -1.029121160507202148e+00 1.956200599670410156e-01 -2.500503361225128174e-01 4.832387566566467285e-01
2.088000000000000000e+03 5.994390869140625000e+01 -2.233897590637207031e+01 -1.105440735816955566e+00 2.257643461227416992e+00 3.456608057022094727e-01 1.686249017715454102e+00
2.089000000000000000e+03 3.122823524475097656e+01 -1.391173458099365234e+01 -4.213749170303344727e-01 -6.882194429636001587e-02 -1.470590531826019287e-01 3.833003044128417969e-01
2.090000000000000000e+03 2.468048095703125000e+01 -6.264278888702392578e+00 -3.348236083984375000e-01 -3.533979058265686035e-01 -2.064664661884307861e-01 3.342888653278350830e-01
2.091000000000000000e+03 2.528040122985839844e+01 -5.841349601745605469e+00 -3.083827197551727295e-01 -3.006062507629394531e-01 -1.826966851949691772e-01 3.068891167640686035e-01
2.092000000000000000e+03 2.485094451904296875e+01 -5.196004867553710938e+00 -2.940969169139862061e-01 -3.155844807624816895e-01 -1.829044222831726074e-01 2.956737279891967773e-01
2.093000000000000000e+03 4.644862747192382812e+01 -1.544338130950927734e+01 -9.321959316730499268e-02 3.671560436487197876e-02 -1.695119775831699371e-02 5.169849395751953125e-01
2.094000000000000000e+03 4.573727035522460938e+01 -1.569372940063476562e+01 -2.470664232969284058e-01 5.976882949471473694e-02 -5.618928000330924988e-02 4.978177249431610107e-01
2.095000000000000000e+03 2.702849197387695312e+01 -8.448656082153320312e+00 -3.218849301338195801e-01 -2.180956304073333740e-01 -1.619941741228103638e-01 3.552891612052917480e-01
2.096000000000000000e+03 1.927157020568847656e+01 2.428253740072250366e-01 -1.948374360799789429e-01 -3.913909792900085449e-01 -1.758685261011123657e-01 2.560785412788391113e-01
2.097000000000000000e+03 2.263545417785644531e+01 -2.799768686294555664e+00 -2.685846984386444092e-01 -3.847805559635162354e-01 -1.960095763206481934e-01 2.722474336624145508e-01
2.098000000000000000e+03 1.860336303710937500e+01 7.390032410621643066e-01 -1.785379797220230103e-01 -3.837316036224365234e-01 -1.686808764934539795e-01 2.556985616683959961e-01
2.099000000000000000e+03 1.991472625732421875e+01 -2.563464939594268799e-01 -2.037311792373657227e-01 -3.967172503471374512e-01 -1.801345348358154297e-01 2.572547495365142822e-01
2.100000000000000000e+03 2.835650253295898438e+01 -1.052151012420654297e+01 -3.190329074859619141e-01 -1.526124179363250732e-01 -1.414935886859893799e-01 3.924620747566223145e-01
2.101000000000000000e+03 2.747252273559570312e+01 -9.127874374389648438e+00 -3.171311318874359131e-01 -1.944365203380584717e-01 -1.534702926874160767e-01 3.701744973659515381e-01
2.102000000000000000e+03 1.399512004852294922e+01 3.949495077133178711e+00 -8.786517381668090820e-02 -2.885991930961608887e-01 -1.129393056035041809e-01 2.297350168228149414e-01
2.103000000000000000e+03 2.614766311645507812e+01 -7.124248027801513672e+00 -3.187012076377868652e-01 -2.621662616729736328e-01 -1.742602437734603882e-01 3.300118446350097656e-01
2.104000000000000000e+03 2.571250343322753906e+01 -6.481583595275878906e+00 -3.097879290580749512e-01 -2.817128002643585205e-01 -1.774502098560333252e-01 3.191935122013092041e-01
2.105000000000000000e+03 1.455512905120849609e+01 3.518513202667236328e+00 -9.752045571804046631e-02 -3.006166815757751465e-01 -1.194411367177963257e-01 2.354057729244232178e-01
2.106000000000000000e+03 2.402483940124511719e+01 -3.853929281234741211e+00 -2.651939094066619873e-01 -3.352087438106536865e-01 -1.801207959651947021e-01 2.700988054275512695e-01
2.107000000000000000e+03 2.365672302246093750e+01 -3.153859138488769531e+00 -2.471481859683990479e-01 -3.396367132663726807e-01 -1.760354638099670410e-01 2.560189962387084961e-01
2.108000000000000000e+03 1.012095451354980469e+01 5.544487953186035156e+00 -5.003862828016281128e-02 -1.957146525382995605e-01 -7.372598350048065186e-02 1.974738240242004395e-01
2.109000000000000000e+03 2.115139770507812500e+01 -1.222581505775451660e+00 -2.217269390821456909e-01 -3.950085341930389404e-01 -1.850206404924392700e-01 2.578636705875396729e-01
2.110000000000000000e+03 2.053183174133300781e+01 -7.481109499931335449e-01 -2.174617350101470947e-01 -3.977693021297454834e-01 -1.845693141222000122e-01 2.573736906051635742e-01
2.111000000000000000e+03 5.374215316772460938e+01 -2.489758110046386719e+01 3.428381979465484619e-01 1.574344158172607422e+00 5.751547217369079590e-01 1.126919463276863098e-01
2.112000000000000000e+03 1.586149311065673828e+01 2.639351606369018555e+00 -1.255878955125808716e-01 -3.302785158157348633e-01 -1.367599219083786011e-01 2.435691058635711670e-01
2.113000000000000000e+03 1.519730663299560547e+01 3.084047317504882812e+00 -1.144048348069190979e-01 -3.155463039875030518e-01 -1.289853453636169434e-01 2.384390532970428467e-01
2.114000000000000000e+03 3.178509712219238281e+01 -1.458561134338378906e+01 -4.753167331218719482e-01 -6.918393075466156006e-02 -1.633501946926116943e-01 3.648334741592407227e-01
2.115000000000000000e+03 4.789760971069335938e+01 -1.181062412261962891e+01 1.023726701736450195e+00 7.551884651184082031e-01 5.336745381355285645e-01 -6.959385275840759277e-01
2.116000000000000000e+03 4.820852661132812500e+01 -1.286972713470458984e+01 1.301045656204223633e+00 4.295666217803955078e-01 5.191836953163146973e-01 -5.124764442443847656e-01
2.117000000000000000e+03 3.277727508544921875e+01 -1.329836368560791016e+01 -4.113079309463500977e-01 -8.787421137094497681e-02 -1.497546434402465820e-01 4.110386371612548828e-01
2.118000000000000000e+03 2.939364814758300781e+01 -1.230767440795898438e+01 -3.403742909431457520e-01 -1.224918141961097717e-01 -1.388598233461380005e-01 3.946285247802734375e-01
2.119000000000000000e+03 4.573380279541015625e+01 -2.653892898559570312e+01 1.466092932969331741e-02 -5.275476574897766113e-01 -1.538660228252410889e-01 -6.735592484474182129e-01
2.120000000000000000e+03 4.482169723510742188e+01 -2.667110443115234375e+01 -1.018138602375984192e-01 -5.833272337913513184e-01 -2.055423259735107422e-01 -6.749796867370605469e-01
2.121000000000000000e+03 3.906744384765625000e+01 -1.574629974365234375e+01 -7.065932750701904297e-01 -2.493663281202316284e-01 -2.867878675460815430e-01 3.209221363067626953e-01
2.122000000000000000e+03 4.073656463623046875e+01 -1.729478836059570312e+01 -9.791823029518127441e-01 -3.106553107500076294e-03 -2.946866452693939209e-01 3.435179591178894043e-01
2.123000000000000000e+03 1.246526050567626953e+01 4.767563343048095703e+00 -6.185546889901161194e-02 -2.510972321033477783e-01 -9.388580918312072754e-02 2.195944339036941528e-01
2.124000000000000000e+03 6.039398193359375000e+01 -2.160831451416015625e+01 -1.171906232833862305e+00 2.298112392425537109e+00 3.378618359565734863e-01 1.577374577522277832e+00
2.125000000000000000e+03 6.144141769409179688e+01 -2.178265190124511719e+01 -1.215420126914978027e+00 1.769311428070068359e+00 1.661673784255981445e-01 1.038409948348999023e+00
2.126000000000000000e+03 7.609492492675781250e+01 -2.221470451354980469e+01 1.525538321584463120e-02 8.236382484436035156e+00 2.475491285324096680e+00 6.696990728378295898e-01
2.127000000000000000e+03 6.195119476318359375e+01 -2.052149772644042969e+01 -6.348403096199035645e-01 2.191619873046875000e+00 4.670338928699493408e-01 6.912602782249450684e-01
2.128000000000000000e+03 6.314756774902343750e+01 -2.075129890441894531e+01 -5.958449840545654297e-01 1.146263003349304199e+00 1.651254296302795410e-01 1.363229900598526001e-01
2.129000000000000000e+03 7.466739654541015625e+01 5.312669754028320312e+00 3.030186295509338379e-01 8.148723602294921875e+00 2.535522699356079102e+00 1.488308608531951904e-01
2.130000000000000000e+03 1.269084358215332031e+01 -7.658062458038330078e+00 2.328496157133486122e-05 1.361608010483905673e-04 4.783372787642292678e-05 -1.191022420243825763e-05
2.131000000000000000e+03 1.127563953399658203e+01 -1.152357864379882812e+01 -2.908147871494293213e-04 -3.162662687827832997e-05 -9.673242311691865325e-05 3.799465412157587707e-05
2.132000000000000000e+03 6.231378936767578125e+01 -2.129710960388183594e+01 -1.031220436096191406e+00 1.527993917465209961e+00 1.490320563316345215e-01 6.769733428955078125e-01
2.133000000000000000e+03 4.542292022705078125e+01 -3.015015983581542969e+01 -1.025017648935317993e-01 -5.055022835731506348e-01 -1.824012100696563721e-01 -1.508156210184097290e-01
2.134000000000000000e+03 1.773542785644531250e+01 -1.050490951538085938e+01 2.111729190801270306e-05 5.124700328451581299e-05 2.170928746636491269e-05 -3.195996396243572235e-05
2.135000000000000000e+03 8.847249984741210938e+00 5.469650745391845703e+00 -5.694551020860671997e-02 -1.624215692281723022e-01 -6.581012159585952759e-02 1.815261244773864746e-01
2.136000000000000000e+03 3.800955963134765625e+01 4.190051078796386719e+00 2.734279334545135498e-01 7.941945791244506836e-01 3.202867507934570312e-01 -2.200239002704620361e-01
2.137000000000000000e+03 3.923464202880859375e+01 8.096285820007324219e+00 3.585602641105651855e-01 1.090125083923339844e+00 4.346056282520294189e-01 -2.638905048370361328e-01
2.138000000000000000e+03 4.431269836425781250e+01 -2.189563035964965820e+00 2.507980465888977051e-01 9.943297505378723145e-01 3.735383450984954834e-01 -5.593447089195251465e-01
2.139000000000000000e+03 4.272719573974609375e+01 -4.074159145355224609e+00 3.118327260017395020e-01 7.390523552894592285e-01 3.152655363082885742e-01 -4.554219245910644531e-01
2.140000000000000000e+03 4.217474746704101562e+01 -1.712569999694824219e+01 -9.747432470321655273e-01 1.460089236497879028e-01 -2.486203014850616455e-01 3.900899887084960938e-01
2.141000000000000000e+03 4.570094299316406250e+01 -2.576486587524414062e+01 -5.340528860688209534e-02 -4.459003508090972900e-01 -1.497916877269744873e-01 -7.303750514984130859e-01
2.142000000000000000e+03 6.595096588134765625e+01 -1.503709602355957031e+01 5.522614717483520508e-01 1.688367128372192383e+00 6.721885800361633301e-01 1.031067728996276855e+00
2.143000000000000000e+03 1.174760627746582031e+01 -1.070387554168701172e+01 1.849641121225431561e-04 1.342494942946359515e-04 9.576408046996220946e-05 -5.325530582922510803e-05
2.144000000000000000e+03 2.528195619583129883e+00 6.174268245697021484e+00 -1.088094618171453476e-02 -8.119729161262512207e-02 -2.762347273528575897e-02 5.623349547386169434e-02
2.145000000000000000e+03 1.624469947814941406e+01 -1.030080604553222656e+01 3.142192144878208637e-05 3.459243816905654967e-05 1.980430715775582939e-05 7.238933903863653541e-05
2.146000000000000000e+03 3.658516693115234375e+01 1.144671535491943359e+01 3.403305411338806152e-01 8.021915555000305176e-01 3.427566289901733398e-01 -2.156824022531509399e-01
2.147000000000000000e+03 3.672584152221679688e+01 1.320537376403808594e+01 2.890246808528900146e-01 8.354613780975341797e-01 3.373458087444305420e-01 -2.008408755064010620e-01
2.148000000000000000e+03 4.122820663452148438e+01 -3.325528144836425781e+00 2.721150219440460205e-01 6.590703725814819336e-01 2.793556153774261475e-01 -3.639670610427856445e-01
2.149000000000000000e+03 4.048072433471679688e+01 1.964362382888793945e+00 2.505489587783813477e-01 9.182248115539550781e-01 3.506321310997009277e-01 -3.501750528812408447e-01
2.150000000000000000e+03 4.663025283813476562e+01 -2.805481338500976562e+01 1.495897769927978516e-01 -2.280014008283615112e-01 -2.352348901331424713e-02 -4.613862931728363037e-01
2.151000000000000000e+03 4.473880767822265625e+01 -6.090830326080322266e+00 3.802748024463653564e-01 8.246707320213317871e-01 3.614836633205413818e-01 -5.817034840583801270e-01
2.152000000000000000e+03 4.373021697998046875e+01 -1.023438334465026855e+00 2.650706768035888672e-01 1.000004887580871582e+00 3.795226514339447021e-01 -5.227768421173095703e-01
2.153000000000000000e+03 7.353657531738281250e+01 1.772618484497070312e+01 7.783292979001998901e-02 8.481427192687988281e+00 2.567777872085571289e+00 1.222949996590614319e-01
2.154000000000000000e+03 7.465459442138671875e+01 2.052725028991699219e+01 1.304388046264648438e-01 8.109428405761718750e+00 2.471960067749023438e+00 1.354174613952636719e-01
2.155000000000000000e+03 6.715334320068359375e+01 -1.520315170288085938e+01 5.632024407386779785e-01 2.142341852188110352e+00 8.116632699966430664e-01 6.060317158699035645e-01
2.156000000000000000e+03 6.975955200195312500e+01 -1.216284465789794922e+01 -2.736852131783962250e-02 4.547925472259521484e+00 1.356167078018188477e+00 1.181049421429634094e-01
2.157000000000000000e+03 9.018017768859863281e+00 -1.219673538208007812e+01 -1.051903745974414051e-04 5.364710523281246424e-05 -1.546297971799504012e-05 -1.992667239392176270e-04
2.158000000000000000e+03 9.494988441467285156e+00 -1.337957286834716797e+01 2.339444617973640561e-04 -5.092892752145417035e-05 5.490465991897508502e-05 1.839019532781094313e-04
2.159000000000000000e+03 3.717322921752929688e+01 -1.415964031219482422e+01 -4.121305644512176514e-01 -2.133615761995315552e-01 -1.876476407051086426e-01 3.677914440631866455e-01
2.160000000000000000e+03 4.608795547485351562e+01 -9.753070831298828125e+00 7.052169442176818848e-01 6.489706039428710938e-01 4.062562584877014160e-01 -5.768556594848632812e-01
2.161000000000000000e+03 7.520248413085937500e+01 3.189348602294921875e+01 -1.966988444328308105e-01 7.569440364837646484e+00 2.211822509765625000e+00 5.899425745010375977e-01
2.162000000000000000e+03 4.204940795898437500e+01 -3.882359564304351807e-01 2.536768615245819092e-01 9.074188470840454102e-01 3.483287096023559570e-01 -4.376444518566131592e-01
2.163000000000000000e+03 7.578839111328125000e+01 2.202930259704589844e+01 1.523628085851669312e-01 7.712389469146728516e+00 2.359425544738769531e+00 2.159076631069183350e-01
2.164000000000000000e+03 7.349581146240234375e+01 2.042583656311035156e+01 1.342531442642211914e-01 8.499534606933593750e+00 2.590136289596557617e+00 9.599880874156951904e-02
2.165000000000000000e+03 6.668347930908203125e+01 -1.441306781768798828e+01 3.611604571342468262e-01 2.266300678253173828e+00 7.882383465766906738e-01 8.582792282104492188e-01
2.166000000000000000e+03 6.528244781494140625e+01 -1.464004993438720703e+01 8.730947971343994141e-02 1.696545124053955078e+00 5.351563692092895508e-01 1.334916472434997559e+00
2.167000000000000000e+03 4.124745941162109375e+01 7.069326043128967285e-01 2.268291115760803223e-01 8.990269899368286133e-01 3.377568423748016357e-01 -3.978065550327301025e-01
2.168000000000000000e+03 7.555906677246093750e+01 2.773720932006835938e+01 1.245176121592521667e-01 7.656264305114746094e+00 2.334234714508056641e+00 6.169348955154418945e-01
2.169000000000000000e+03 7.427512359619140625e+01 2.772335624694824219e+01 2.103402465581893921e-01 7.618980884552001953e+00 2.348796367645263672e+00 5.676423311233520508e-01
2.170000000000000000e+03 7.558535766601562500e+01 3.886748313903808594e+00 3.828391134738922119e-01 7.704889774322509766e+00 2.426318645477294922e+00 4.350617900490760803e-02
2.171000000000000000e+03 7.574691772460937500e+01 2.345405578613281250e+01 2.116023004055023193e-01 7.680690765380859375e+00 2.367687940597534180e+00 2.950599193572998047e-01
2.172000000000000000e+03 7.576545715332031250e+01 -2.006292915344238281e+01 -4.083556532859802246e-01 8.046107292175292969e+00 2.291325569152832031e+00 4.217242598533630371e-01
2.173000000000000000e+03 7.464190673828125000e+01 -1.462335872650146484e+01 -3.397211432456970215e-01 7.014613628387451172e+00 2.002467632293701172e+00 -2.937230467796325684e-01
2.174000000000000000e+03 7.567446899414062500e+01 -1.309684085845947266e+01 -2.020788341760635376e-01 7.345983982086181641e+00 2.143171548843383789e+00 -3.244242668151855469e-01
2.175000000000000000e+03 7.461264801025390625e+01 -1.575594806671142578e+01 -4.001723527908325195e-01 7.087523460388183594e+00 2.006205320358276367e+00 -2.312314212322235107e-01
2.176000000000000000e+03 7.588162231445312500e+01 -1.782921028137207031e+01 -4.270749986171722412e-01 7.763450145721435547e+00 2.200912475585937500e+00 1.246897950768470764e-01
2.177000000000000000e+03 7.473191833496093750e+01 -2.089302444458007812e+01 -4.791837632656097412e-01 8.134270668029785156e+00 2.296525955200195312e+00 4.861122369766235352e-01
2.178000000000000000e+03 7.584184265136718750e+01 1.213524913787841797e+01 -1.350977271795272827e-01 7.727238178253173828e+00 2.277642011642456055e+00 2.004467248916625977e-01
2.179000000000000000e+03 7.581469726562500000e+01 1.781116676330566406e+01 4.825107008218765259e-02 7.698901653289794922e+00 2.324145793914794922e+00 9.932811558246612549e-02
2.180000000000000000e+03 7.410054016113281250e+01 -7.400251865386962891e+00 -1.603862196207046509e-01 7.071305751800537109e+00 2.073275804519653320e+00 -4.769267737865447998e-01
2.181000000000000000e+03 7.550134277343750000e+01 -5.777824401855468750e+00 -7.717314362525939941e-02 7.300607204437255859e+00 2.167030334472656250e+00 -6.119595170021057129e-01
2.182000000000000000e+03 7.240237426757812500e+01 1.045120239257812500e+01 -4.211951792240142822e-01 9.337189674377441406e+00 2.674798488616943359e+00 1.456920057535171509e-01
2.183000000000000000e+03 7.358549499511718750e+01 1.059479618072509766e+01 -2.671195268630981445e-01 8.750833511352539062e+00 2.545114040374755859e+00 2.261286675930023193e-01
2.184000000000000000e+03 7.325856018066406250e+01 4.579240381717681885e-01 5.719693303108215332e-01 8.680207252502441406e+00 2.775652885437011719e+00 -1.003993526101112366e-01
2.185000000000000000e+03 7.583121490478515625e+01 -3.271840572357177734e+00 7.007321715354919434e-02 7.404525756835937500e+00 2.242379665374755859e+00 -6.281369924545288086e-01
2.186000000000000000e+03 7.369751739501953125e+01 -4.787296772003173828e+00 -1.641690731048583984e-02 7.446072101593017578e+00 2.228896617889404297e+00 -4.306629896163940430e-01
2.187000000000000000e+03 7.582756805419921875e+01 1.921117973327636719e+01 6.255868822336196899e-02 7.721117496490478516e+00 2.335102796554565430e+00 1.109568253159523010e-01
2.188000000000000000e+03 6.998133850097656250e+01 -1.876695442199707031e+01 -3.454645574092864990e-01 3.717187166213989258e+00 1.011516809463500977e+00 -1.381687402725219727e+00
2.189000000000000000e+03 7.507333374023437500e+01 -1.902894592285156250e+01 -5.632283091545104980e-01 7.767931938171386719e+00 2.161411046981811523e+00 1.875221431255340576e-01
2.190000000000000000e+03 7.545070648193359375e+01 -1.007876968383789062e+01 -1.604081541299819946e-01 7.200014591217041016e+00 2.111881971359252930e+00 -4.570285081863403320e-01
2.191000000000000000e+03 7.421772766113281250e+01 -9.920074462890625000e+00 -1.901532858610153198e-01 6.849812507629394531e+00 1.997897863388061523e+00 -4.430671930313110352e-01
2.192000000000000000e+03 7.450675201416015625e+01 -1.334400367736816406e+01 -2.501376867294311523e-01 6.904468536376953125e+00 1.996299266815185547e+00 -3.475682437419891357e-01
2.193000000000000000e+03 7.441955566406250000e+01 5.974577069282531738e-01 4.443314671516418457e-01 8.064533233642578125e+00 2.552659273147583008e+00 -2.779431045055389404e-01
2.194000000000000000e+03 7.334266662597656250e+01 1.809849739074707031e+00 6.324285268783569336e-01 8.934993743896484375e+00 2.870226621627807617e+00 3.760172426700592041e-02
2.195000000000000000e+03 7.353968811035156250e+01 1.292955493927001953e+01 -2.212300896644592285e-01 8.634833335876464844e+00 2.524080991744995117e+00 7.928448612801730633e-04
2.196000000000000000e+03 7.387699890136718750e+01 1.394050693511962891e+01 -1.275080740451812744e-01 8.373317718505859375e+00 2.473742961883544922e+00 3.854116424918174744e-02
2.197000000000000000e+03 7.313703155517578125e+01 -1.017000555992126465e+00 4.037459492683410645e-01 8.393879890441894531e+00 2.639287948608398438e+00 -2.007838338613510132e-01
2.198000000000000000e+03 7.193679809570312500e+01 -1.026805281639099121e+00 4.701597392559051514e-01 8.900811195373535156e+00 2.811291456222534180e+00 1.698803752660751343e-01
2.199000000000000000e+03 7.427578735351562500e+01 3.044636344909667969e+01 -4.457040876150131226e-02 7.478197097778320312e+00 2.230087995529174805e+00 6.317922472953796387e-01
2.200000000000000000e+03 7.324491119384765625e+01 -9.340967178344726562e+00 -2.058390676975250244e-01 6.600102424621582031e+00 1.918278932571411133e+00 -3.212196528911590576e-01
2.201000000000000000e+03 7.267771911621093750e+01 -1.043102073669433594e+01 -2.114631086587905884e-01 6.249792575836181641e+00 1.811498880386352539e+00 -2.634770274162292480e-01
2.202000000000000000e+03 7.485718536376953125e+01 -2.990875244140625000e+01 2.860391139984130859e-01 8.539380073547363281e+00 2.647625923156738281e+00 -8.964504003524780273e-01
2.203000000000000000e+03 7.230942535400390625e+01 3.491021728515625000e+01 -4.957777261734008789e-01 6.214085102081298828e+00 1.715492129325866699e+00 1.502506434917449951e-01
2.204000000000000000e+03 7.414389038085937500e+01 -3.357383346557617188e+01 -7.378830909729003906e-01 7.553078651428222656e+00 2.044558763504028320e+00 -3.514064848423004150e-01
2.205000000000000000e+03 7.074257659912109375e+01 -1.980091667175292969e+01 -7.238063812255859375e-01 4.807743549346923828e+00 1.225181221961975098e+00 -1.615520477294921875e+00
2.206000000000000000e+03 7.405893707275390625e+01 -1.999947738647460938e+01 -7.528021335601806641e-01 7.922322273254394531e+00 2.150856018066406250e+00 4.758369550108909607e-02
2.207000000000000000e+03 3.682390213012695312e+01 1.488041305541992188e+01 2.436043173074722290e-01 8.339944481849670410e-01 3.232796192169189453e-01 -1.836712956428527832e-01
2.208000000000000000e+03 4.504428863525390625e+01 -1.002369785308837891e+01 5.776648521423339844e-01 4.735878109931945801e-01 3.153758049011230469e-01 -4.316383600234985352e-01
2.209000000000000000e+03 4.650453186035156250e+01 -1.090397644042968750e+01 7.498409152030944824e-01 5.870203375816345215e-01 4.010583758354187012e-01 -5.508083105087280273e-01
2.210000000000000000e+03 4.674145221710205078e+00 3.034331130981445312e+01 6.272786762565374374e-03 -3.115825951099395752e-01 -9.159293770790100098e-02 1.708311756374314427e-04
2.211000000000000000e+03 6.910423755645751953e+00 3.060102081298828125e+01 9.325957857072353363e-03 -2.589945197105407715e-01 -7.490056753158569336e-02 1.655017549637705088e-04
2.212000000000000000e+03 7.456024169921875000e+01 -3.457596969604492188e+01 -6.332000494003295898e-01 7.538494110107421875e+00 2.071588277816772461e+00 -1.773992478847503662e-01
2.213000000000000000e+03 4.564751052856445312e+01 -8.546325683593750000e+00 5.469623208045959473e-01 7.506240606307983398e-01 3.892759382724761963e-01 -6.179570555686950684e-01
2.214000000000000000e+03 5.422590255737304688e+00 -1.171368885040283203e+01 -2.593963872641324997e-04 2.600357765913940966e-05 -7.001784251770004630e-05 -9.155160660156980157e-05
2.215000000000000000e+03 5.268808364868164062e+00 -1.037915325164794922e+01 2.520195848774164915e-04 -7.271005415532272309e-06 7.342457683989778161e-05 7.280410500243306160e-05
2.216000000000000000e+03 5.845299720764160156e+00 2.381009483337402344e+01 1.989069208502769470e-02 -2.810190320014953613e-01 -7.833849638700485229e-02 2.580745331943035126e-02
2.217000000000000000e+03 5.501989364624023438e+00 -1.493608474731445312e+01 -2.762853691820055246e-04 -1.978064537979662418e-04 -1.422275527147576213e-04 1.321813469985499978e-04
2.218000000000000000e+03 6.205922126770019531e+00 -1.803065490722656250e+01 -4.444022197276353836e-04 -2.200797825935296714e-05 -1.399230532115325332e-04 1.703724701656028628e-04
2.219000000000000000e+03 5.048015117645263672e+00 -2.432625961303710938e+01 1.121150344260968268e-04 1.687700569164007902e-04 8.426552813034504652e-05 -5.543690349441021681e-05
2.220000000000000000e+03 6.655539989471435547e+00 -2.213886070251464844e+01 -5.806701374240219593e-04 -1.100153604056686163e-04 -2.072056522592902184e-04 2.557404513936489820e-04
2.221000000000000000e+03 4.483191013336181641e+00 -2.659188079833984375e+01 -5.040508112870156765e-04 -1.382795453537255526e-04 -1.926991099026054144e-04 -2.226634096587076783e-04
2.222000000000000000e+03 5.790993213653564453e+00 1.800633811950683594e+01 2.738473005592823029e-02 -2.593973875045776367e-01 -6.960379332304000854e-02 6.636970490217208862e-02
2.223000000000000000e+03 5.642409324645996094e+00 1.663865280151367188e+01 2.649939432740211487e-02 -2.521009445190429688e-01 -6.768046319484710693e-02 7.576883584260940552e-02
2.224000000000000000e+03 5.798891067504882812e+00 2.547311782836914062e+01 1.561828237026929855e-02 -2.841879129409790039e-01 -8.057089149951934814e-02 1.622661016881465912e-02
2.225000000000000000e+03 5.353718757629394531e+00 1.391039657592773438e+01 2.258194424211978912e-02 -2.299536615610122681e-01 -6.221151724457740784e-02 9.502674639225006104e-02
2.226000000000000000e+03 7.224548816680908203e+00 -1.385150814056396484e+01 3.354169020894914865e-04 -1.233135699294507504e-04 6.363099964801222086e-05 1.243407314177602530e-04
2.227000000000000000e+03 4.652991771697998047e+00 -2.813861846923828125e+01 8.905296563170850277e-04 1.368633238598704338e-04 3.082178882323205471e-04 3.271006862632930279e-04
2.228000000000000000e+03 5.990812301635742188e+00 2.080099105834960938e+01 2.531484328210353851e-02 -2.704909741878509521e-01 -7.355283945798873901e-02 4.613557457923889160e-02
2.229000000000000000e+03 5.170274257659912109e+00 -3.368571472167968750e+01 1.629985636100172997e-03 -3.574538641260005534e-05 4.782720643561333418e-04 6.972069968469440937e-04
2.230000000000000000e+03 7.187688827514648438e+00 -3.395806884765625000e+01 1.470762421377003193e-03 2.531330392230302095e-04 5.171686643734574318e-04 1.172113697975873947e-03
2.231000000000000000e+03 4.995872974395751953e+00 2.779668998718261719e+01 8.939963765442371368e-03 -3.021744489669799805e-01 -8.797034621238708496e-02 7.564913015812635422e-03
2.232000000000000000e+03 3.968746662139892578e+00 1.006777191162109375e+01 3.050320316106081009e-03 -1.725735217332839966e-01 -5.085696280002593994e-02 9.473803639411926270e-02
2.233000000000000000e+03 5.105786800384521484e+00 9.879666328430175781e+00 5.171379074454307556e-03 -1.767001748085021973e-01 -5.145863816142082214e-02 1.152423992753028870e-01
2.234000000000000000e+03 6.130497455596923828e+00 -1.415443325042724609e+01 -1.418786268914118409e-04 1.231253554578870535e-04 -5.625980065815383568e-06 -2.380747610004618764e-04
2.235000000000000000e+03 6.858176231384277344e+00 -1.273847103118896484e+01 -2.938882098533213139e-04 9.590838453732430935e-05 -5.939394759479910135e-05 -9.488384966971352696e-05
2.236000000000000000e+03 4.989268779754638672e+00 8.504028320312500000e+00 -4.910551942884922028e-03 -1.534955352544784546e-01 -4.752182587981224060e-02 1.147378683090209961e-01
2.237000000000000000e+03 3.724328517913818359e+00 7.297085762023925781e+00 -1.251155324280261993e-02 -1.170521154999732971e-01 -3.886910155415534973e-02 8.844171464443206787e-02
2.238000000000000000e+03 5.329799175262451172e+00 -6.788246631622314453e+00 -2.083701401716098189e-04 -3.735001155291683972e-05 -7.371604442596435547e-05 -6.614336598431691527e-05
2.239000000000000000e+03 3.733190155029296875e+01 1.975191497802734375e+01 1.167649850249290466e-01 7.754661440849304199e-01 2.676693499088287354e-01 -9.465454518795013428e-02
2.240000000000000000e+03 3.888712692260742188e+01 1.952655601501464844e+01 1.096798032522201538e-01 8.796842098236083984e-01 2.968091964721679688e-01 -3.925584256649017334e-02
2.241000000000000000e+03 4.519705200195312500e+01 -7.312476634979248047e+00 4.795608520507812500e-01 7.896637320518493652e-01 3.807673752307891846e-01 -5.888515114784240723e-01
2.242000000000000000e+03 6.120338916778564453e+00 3.653792572021484375e+01 5.103871226310729980e-04 -2.748597860336303711e-01 -8.230482041835784912e-02 -5.033234134316444397e-03
2.243000000000000000e+03 5.216557025909423828e+00 -7.900517463684082031e+00 2.142928278772160411e-04 3.121945337625220418e-05 7.365368219325318933e-05 5.162769593880511820e-05
2.244000000000000000e+03 6.334508895874023438e+00 -7.976251602172851562e+00 -1.817041193135082722e-04 -3.535366340656764805e-05 -6.511733226943761110e-05 -9.083569602807983756e-05
2.245000000000000000e+03 7.256321716308593750e+01 9.081152915954589844e+00 -1.259054988622665405e-01 9.245605468750000000e+00 2.735909938812255859e+00 3.011606633663177490e-01
2.246000000000000000e+03 5.032859420776367188e+01 -2.460590553283691406e+01 5.710580945014953613e-02 1.611132770776748657e-01 6.546572595834732056e-02 -6.022216677665710449e-01
2.247000000000000000e+03 7.437216186523437500e+01 1.508125305175781250e+01 -4.370165988802909851e-02 8.260617256164550781e+00 2.465074777603149414e+00 3.478871658444404602e-02
2.248000000000000000e+03 4.687905120849609375e+01 -1.201552963256835938e+01 9.422267079353332520e-01 3.810025155544281006e-01 3.969687521457672119e-01 -4.036208987236022949e-01
2.249000000000000000e+03 7.537492370605468750e+01 -2.725958824157714844e+01 8.974753618240356445e-01 8.412400245666503906e+00 2.792962789535522461e+00 -4.376107454299926758e-01
2.250000000000000000e+03 7.104493713378906250e+01 -1.118015861511230469e+01 -1.408933103084564209e-01 5.419325351715087891e+00 1.583529591560363770e+00 -5.132455006241798401e-02
2.251000000000000000e+03 4.116427993774414062e+01 2.224053382873535156e+01 7.054687291383743286e-02 8.441356420516967773e-01 2.744047641754150391e-01 8.662233501672744751e-02
2.252000000000000000e+03 7.191313934326171875e+01 -5.680257320404052734e+00 -4.583936184644699097e-02 7.014723777770996094e+00 2.090665340423583984e+00 1.427389774471521378e-02
2.253000000000000000e+03 7.302754974365234375e+01 -5.989699840545654297e+00 -1.232169941067695618e-01 7.179550170898437500e+00 2.116899967193603516e+00 -2.703152000904083252e-01
2.254000000000000000e+03 7.455992126464843750e+01 2.336276626586914062e+01 2.734771966934204102e-01 7.982374668121337891e+00 2.476755619049072266e+00 2.394807934761047363e-01
2.255000000000000000e+03 7.045677947998046875e+01 3.625272369384765625e+01 -4.638637900352478027e-01 4.893070697784423828e+00 1.328762054443359375e+00 -2.083029597997665405e-01
2.256000000000000000e+03 7.308283233642578125e+01 -1.252658939361572266e+01 -2.434190958738327026e-01 6.240207195281982422e+00 1.799036502838134766e+00 -3.406470417976379395e-01
2.257000000000000000e+03 3.927248382568359375e+01 2.582283973693847656e+01 9.452989324927330017e-03 6.605162620544433594e-01 2.009907811880111694e-01 -1.241673529148101807e-02
2.258000000000000000e+03 7.106888580322265625e+01 3.859250259399414062e+01 -2.427742928266525269e-01 5.213180541992187500e+00 1.491121768951416016e+00 -9.587167203426361084e-02
2.259000000000000000e+03 7.286137390136718750e+01 -2.282107162475585938e+01 3.046001195907592773e-01 8.666549682617187500e+00 2.691344976425170898e+00 4.389106035232543945e-01
2.260000000000000000e+03 7.073410797119140625e+01 -3.726996994018554688e+01 -2.492052614688873291e-01 4.498414039611816406e+00 1.274762630462646484e+00 5.271955132484436035e-01
2.261000000000000000e+03 6.988601684570312500e+01 -1.336780643463134766e+01 -3.222552686929702759e-02 4.304678440093994141e+00 1.281735897064208984e+00 1.390125695616006851e-02
2.262000000000000000e+03 7.329040527343750000e+01 2.469716072082519531e+01 4.087339937686920166e-01 8.152015686035156250e+00 2.568224906921386719e+00 1.838156133890151978e-01
2.263000000000000000e+03 3.780374145507812500e+01 -1.490964603424072266e+01 -5.433011054992675781e-01 -2.492314279079437256e-01 -2.377597540616989136e-01 3.565257489681243896e-01
2.264000000000000000e+03 3.867995071411132812e+01 -1.352355480194091797e+01 -3.023642599582672119e-01 -1.705680936574935913e-01 -1.418797075748443604e-01 2.930299937725067139e-01
2.265000000000000000e+03 6.460330009460449219e+00 -1.507505130767822266e+01 2.113596856361255050e-04 1.173090131487697363e-04 9.860061254585161805e-05 5.881488323211669922e-05
2.266000000000000000e+03 6.573072052001953125e+01 -1.741709327697753906e+01 1.525866389274597168e+00 6.021270155906677246e-01 6.383979916572570801e-01 5.772126913070678711e-01
2.267000000000000000e+03 6.315689468383789062e+01 -1.951209068298339844e+01 5.980761647224426270e-01 1.455307006835937500e+00 6.160149574279785156e-01 6.645261496305465698e-02
2.268000000000000000e+03 6.299888610839843750e+00 -3.843497085571289062e+01 -4.893796867690980434e-04 8.501965785399079323e-04 1.082450762623921037e-04 9.122636984102427959e-04
2.269000000000000000e+03 1.255310916900634766e+01 -3.699169158935546875e+01 -2.286395319970324636e-04 1.905610784888267517e-03 5.030913744121789932e-04 2.514728577807545662e-03
2.270000000000000000e+03 6.489688396453857422e+00 -1.608529090881347656e+01 -2.509109326638281345e-04 -1.975529448827728629e-04 -1.345391647191718221e-04 8.112120849546045065e-05
2.271000000000000000e+03 3.793195724487304688e+01 2.926338958740234375e+01 -5.145289003849029541e-02 5.603484511375427246e-01 1.526686698198318481e-01 -4.409515112638473511e-02
2.272000000000000000e+03 4.023739624023437500e+01 3.077902984619140625e+01 -7.719314843416213989e-02 5.412733554840087891e-01 1.392240524291992188e-01 -6.314554251730442047e-03
2.273000000000000000e+03 4.605384445190429688e+01 3.525738525390625000e+01 -1.163459420204162598e-01 3.702341616153717041e-01 7.616645842790603638e-02 4.643524065613746643e-02
2.274000000000000000e+03 7.298418426513671875e+01 -2.614073991775512695e+00 2.015533447265625000e-01 8.011166572570800781e+00 2.463816165924072266e+00 -2.368678450584411621e-01
2.275000000000000000e+03 3.739425659179687500e+01 8.939914703369140625e+00 3.588005602359771729e-01 8.635594844818115234e-01 3.667080104351043701e-01 -2.170429378747940063e-01
2.276000000000000000e+03 3.609938812255859375e+01 9.776922225952148438e+00 3.593249022960662842e-01 7.259852886199951172e-01 3.255930542945861816e-01 -1.960631161928176880e-01
2.277000000000000000e+03 4.766480255126953125e+01 4.117179489135742188e+01 -1.564771533012390137e-01 2.914068400859832764e-01 4.047890380024909973e-02 8.355716243386268616e-03
2.278000000000000000e+03 7.212724304199218750e+01 3.198826026916503906e+01 -3.679572641849517822e-01 6.579648971557617188e+00 1.863507509231567383e+00 3.278442621231079102e-01
2.279000000000000000e+03 7.402891540527343750e+01 3.161522865295410156e+01 -2.861975133419036865e-01 7.251070499420166016e+00 2.089462041854858398e+00 5.400487184524536133e-01
2.280000000000000000e+03 5.958010482788085938e+01 -2.018307113647460938e+01 -6.339421272277832031e-01 2.553909778594970703e+00 5.759903192520141602e-01 1.879064202308654785e+00
2.281000000000000000e+03 5.958330535888671875e+01 -2.147250747680664062e+01 -1.079587936401367188e+00 2.394932985305786133e+00 3.946034908294677734e-01 1.809489607810974121e+00
2.282000000000000000e+03 5.905299758911132812e+01 -2.173658561706542969e+01 -9.488556981086730957e-01 2.417765140533447266e+00 4.406728148460388184e-01 1.770466327667236328e+00
2.283000000000000000e+03 6.121146011352539062e+01 -1.934651374816894531e+01 2.484137192368507385e-02 3.495318174362182617e+00 1.056047916412353516e+00 9.086271524429321289e-01
2.284000000000000000e+03 6.052454757690429688e+01 -1.917592430114746094e+01 3.176176920533180237e-02 3.577089548110961914e+00 1.082655429840087891e+00 1.533089995384216309e+00
2.285000000000000000e+03 6.005014038085937500e+01 -2.116380500793457031e+01 -9.801564812660217285e-01 2.500045299530029297e+00 4.559666514396667480e-01 1.741436958312988281e+00
2.286000000000000000e+03 1.084079265594482422e+01 -1.027064514160156250e+01 -2.001522370846942067e-04 -7.922360964585095644e-05 -8.381275256397202611e-05 3.164095687679946423e-05
2.287000000000000000e+03 1.313659191131591797e+01 -1.041330337524414062e+01 1.587967562954872847e-04 1.216839445987716317e-04 8.414420881308615208e-05 -7.301983714569360018e-05
2.288000000000000000e+03 6.163688659667968750e+01 -1.981638717651367188e+01 -2.450156062841415405e-01 2.975259542465209961e+00 8.190732002258300781e-01 7.385690808296203613e-01
2.289000000000000000e+03 2.137126350402832031e+01 1.421160459518432617e+00 -6.809724867343902588e-02 -3.242233991622924805e-01 -1.176961883902549744e-01 1.754663884639739990e-01
2.290000000000000000e+03 5.084342193603515625e+01 -2.616948318481445312e+01 5.509790778160095215e-01 5.172668099403381348e-01 3.204737603664398193e-01 -4.013953506946563721e-01
2.291000000000000000e+03 1.180118274688720703e+01 -6.730534076690673828e+00 1.600732648512348533e-04 3.819040648522786796e-05 5.947910176473669708e-05 9.507528739050030708e-05
2.292000000000000000e+03 5.999342346191406250e+01 -2.043861961364746094e+01 -8.020770549774169922e-01 2.720175027847290039e+00 5.754293799400329590e-01 1.758902072906494141e+00
2.293000000000000000e+03 8.538316726684570312e+00 -1.116384220123291016e+01 9.412092185812070966e-05 1.310449761149357073e-06 2.862941255443729460e-05 1.259366399608552456e-04
2.294000000000000000e+03 4.778206825256347656e+00 7.168207168579101562e+00 -1.770236901938915253e-02 -1.249014511704444885e-01 -4.278114438056945801e-02 1.090185642242431641e-01
2.295000000000000000e+03 6.810866832733154297e+00 6.002973079681396484e+00 -4.102332517504692078e-02 -1.315542906522750854e-01 -5.177328363060951233e-02 1.475920081138610840e-01
2.296000000000000000e+03 9.540737152099609375e+00 4.799168586730957031e+00 -7.290455698966979980e-02 -1.700747162103652954e-01 -7.289378345012664795e-02 1.933975964784622192e-01
2.297000000000000000e+03 4.828657531738281250e+01 -2.641155052185058594e+01 2.730928361415863037e-01 -9.440542757511138916e-02 5.360622331500053406e-02 -6.245251893997192383e-01
2.298000000000000000e+03 4.860021972656250000e+01 -2.508809089660644531e+01 6.657559424638748169e-02 -1.076807081699371338e-01 -1.233153510838747025e-02 -7.510925531387329102e-01
2.299000000000000000e+03 2.984591865539550781e+01 -1.167987251281738281e+01 -3.281561136245727539e-01 -1.029644086956977844e-01 -1.293361634016036987e-01 3.999044001102447510e-01
2.300000000000000000e+03 7.451495647430419922e+00 4.647169113159179688e+00 -7.334246486425399780e-02 -1.120036095380783081e-01 -5.560382083058357239e-02 1.522249132394790649e-01
2.301000000000000000e+03 6.269119739532470703e+00 5.923593997955322266e+00 -3.933361545205116272e-02 -1.210550591349601746e-01 -4.811660200357437134e-02 1.331274211406707764e-01
2.302000000000000000e+03 2.926325798034667969e+01 -1.125309944152832031e+01 -3.243313729763031006e-01 -1.271168440580368042e-01 -1.354344636201858521e-01 3.977788090705871582e-01
2.303000000000000000e+03 4.873464965820312500e+01 -2.599565887451171875e+01 2.718097567558288574e-01 -3.394990786910057068e-02 7.135795801877975464e-02 -6.518660783767700195e-01
2.304000000000000000e+03 4.968788528442382812e+01 -2.468848419189453125e+01 4.038607701659202576e-02 3.782488405704498291e-02 2.346328832209110260e-02 -6.841926574707031250e-01
2.305000000000000000e+03 7.071041107177734375e+00 5.300547599792480469e+00 -5.710216611623764038e-02 -1.193796992301940918e-01 -5.294455960392951965e-02 1.474890708923339844e-01
2.306000000000000000e+03 5.140224075317382812e+01 -2.489305114746093750e+01 2.659275531768798828e-01 5.353924632072448730e-01 2.403960078954696655e-01 -4.514230489730834961e-01
2.307000000000000000e+03 4.991522979736328125e+01 -2.524148178100585938e+01 1.913733333349227905e-01 8.567085117101669312e-02 8.311325311660766602e-02 -6.015542745590209961e-01
2.308000000000000000e+03 4.759796524047851562e+01 -1.405466270446777344e+01 9.236375093460083008e-01 1.025514006614685059e-01 3.078566789627075195e-01 -7.094262633472681046e-03
2.309000000000000000e+03 2.902654838562011719e+01 -1.000297355651855469e+01 -3.055145740509033203e-01 -1.318473964929580688e-01 -1.312085837125778198e-01 3.824931383132934570e-01
2.310000000000000000e+03 5.308125686645507812e+01 -2.572493362426757812e+01 6.863047480583190918e-01 1.415042519569396973e+00 6.304041743278503418e-01 -1.490155607461929321e-02
2.311000000000000000e+03 5.295491027832031250e+01 -2.503814697265625000e+01 4.245529472827911377e-01 1.192392349243164062e+00 4.850835800170898438e-01 -1.622596681118011475e-01
2.312000000000000000e+03 4.679409408569335938e+01 -1.430798149108886719e+01 4.412202537059783936e-01 9.749665856361389160e-02 1.616150736808776855e-01 2.291398048400878906e-01
2.313000000000000000e+03 3.297900009155273438e+01 -1.223710823059082031e+01 -3.313954174518585205e-01 -9.320550411939620972e-02 -1.273802816867828369e-01 4.031614363193511963e-01
2.314000000000000000e+03 4.724004745483398438e+01 -1.307253742218017578e+01 8.462516665458679199e-01 3.304727673530578613e-01 3.530173301696777344e-01 -2.149728387594223022e-01
2.315000000000000000e+03 5.842348480224609375e+01 -2.175599861145019531e+01 -8.793585300445556641e-01 2.285947799682617188e+00 4.219767749309539795e-01 1.706800937652587891e+00
2.316000000000000000e+03 7.341866016387939453e+00 -6.014639377593994141e+00 1.075039326678961515e-04 6.092503099353052676e-05 5.052868800703436136e-05 1.289545471081510186e-04
2.317000000000000000e+03 5.523975753784179688e+01 -2.417771530151367188e+01 8.381091058254241943e-02 2.024387598037719727e+00 6.324595808982849121e-01 6.461102366447448730e-01
2.318000000000000000e+03 5.399050903320312500e+01 -2.391378402709960938e+01 -6.454849988222122192e-02 1.360420942306518555e+00 3.887617290019989014e-01 1.537693589925765991e-01
2.319000000000000000e+03 7.342353820800781250e+00 -6.942521095275878906e+00 -1.054909735103137791e-04 -6.067134381737560034e-05 -4.984869519830681384e-05 -1.503033126937225461e-04
2.320000000000000000e+03 6.319910049438476562e+01 -1.883362579345703125e+01 1.421382069587707520e+00 1.427124738693237305e+00 8.545520305633544922e-01 -6.852926313877105713e-02
2.321000000000000000e+03 6.448992729187011719e+00 -5.980673789978027344e+00 -1.827395171858370304e-04 -2.635846976772882044e-05 -6.272939208429306746e-05 -1.216091623064130545e-04
2.322000000000000000e+03 6.361947059631347656e+00 -6.930757522583007812e+00 1.766872592270374298e-04 3.098219167441129684e-05 6.230083090486004949e-05 1.057369736372493207e-04
2.323000000000000000e+03 4.319257354736328125e+01 -1.557432651519775391e+01 -4.929847419261932373e-01 8.573007583618164062e-02 -1.221764013171195984e-01 3.932767808437347412e-01
2.324000000000000000e+03 1.723621749877929688e+01 1.715633511543273926e+00 -1.521891653537750244e-01 -3.604996204376220703e-01 -1.538066416978836060e-01 2.507183551788330078e-01
2.325000000000000000e+03 1.707639122009277344e+01 3.793213129043579102e+00 -3.744484856724739075e-02 -3.315724134445190430e-01 -1.107051819562911987e-01 2.073163986206054688e-01
2.326000000000000000e+03 1.776880073547363281e+01 2.246990442276000977e+00 -1.083836331963539124e-01 -3.566293418407440186e-01 -1.395038962364196777e-01 2.287494391202926636e-01
2.327000000000000000e+03 2.674813842773437500e+01 -6.697795391082763672e+00 -2.852630317211151123e-01 -2.169717699289321899e-01 -1.506704390048980713e-01 3.108980059623718262e-01
2.328000000000000000e+03 2.509593200683593750e+01 -4.131901741027832031e+00 -2.426525205373764038e-01 -2.777053415775299072e-01 -1.561073660850524902e-01 2.548098862171173096e-01
2.329000000000000000e+03 4.232653045654296875e+01 -1.583934402465820312e+01 -6.594036817550659180e-01 8.027648925781250000e-02 -1.737381517887115479e-01 4.001574516296386719e-01
2.330000000000000000e+03 4.135510253906250000e+01 -1.611654853820800781e+01 -7.328217625617980957e-01 3.496736288070678711e-02 -2.093563228845596313e-01 3.328455388545989990e-01
2.331000000000000000e+03 2.235633850097656250e+01 -2.161893844604492188e+00 -2.316683679819107056e-01 -3.736389875411987305e-01 -1.815922111272811890e-01 2.552001774311065674e-01
2.332000000000000000e+03 1.710485649108886719e+01 2.734377145767211914e+00 -9.249822795391082764e-02 -3.457093834877014160e-01 -1.314622759819030762e-01 2.280302792787551880e-01
2.333000000000000000e+03 2.215416526794433594e+01 -1.016332268714904785e+00 -1.793476343154907227e-01 -3.529877960681915283e-01 -1.597006320953369141e-01 2.259839475154876709e-01
2.334000000000000000e+03 8.234820365905761719e+00 -5.991021633148193359e+00 -5.102260183775797486e-05 -7.407980592688545585e-05 -3.753072087420150638e-05 -1.003981742542237043e-04
2.335000000000000000e+03 8.264801025390625000e+00 6.154713630676269531e+00 -3.795477375388145447e-02 -1.598930507898330688e-01 -5.935434997081756592e-02 1.706192344427108765e-01
2.336000000000000000e+03 4.608163452148437500e+01 -1.461934661865234375e+01 2.908056974411010742e-01 3.548013418912887573e-02 9.788575023412704468e-02 3.103794753551483154e-01
2.337000000000000000e+03 2.762046241760253906e+01 -8.012406349182128906e+00 -2.935668230056762695e-01 -1.798589378595352173e-01 -1.420277357101440430e-01 3.414805233478546143e-01
2.338000000000000000e+03 2.853198623657226562e+01 -9.337710380554199219e+00 -2.971195280551910400e-01 -1.445827931165695190e-01 -1.325106918811798096e-01 3.711999654769897461e-01
2.339000000000000000e+03 1.503994941711425781e+01 -8.461481094360351562e+00 1.680559362284839153e-04 5.395442258304683492e-06 5.203541513765230775e-05 -1.712392258923500776e-05
2.340000000000000000e+03 4.481017684936523438e+01 -1.321403121948242188e+01 3.458195328712463379e-01 1.114161908626556396e-01 1.371707171201705933e-01 1.180292367935180664e-01
2.341000000000000000e+03 6.261592102050781250e+01 -2.008903503417968750e+01 -2.572136819362640381e-01 1.887667894363403320e+00 4.891362488269805908e-01 3.826208114624023438e-01
2.342000000000000000e+03 4.009763336181640625e+01 -1.543657875061035156e+01 -6.140033602714538574e-01 -1.225657910108566284e-01 -2.209707498550415039e-01 2.786066532135009766e-01
2.343000000000000000e+03 4.147534561157226562e+01 -1.696219635009765625e+01 -9.202575683593750000e-01 7.274456322193145752e-02 -2.542538940906524658e-01 3.975577056407928467e-01
2.344000000000000000e+03 3.014741706848144531e+01 -8.813961982727050781e+00 -2.450293153524398804e-01 -9.218224138021469116e-02 -1.011634692549705505e-01 3.446136415004730225e-01
2.345000000000000000e+03 1.227281475067138672e+01 -7.074544429779052734e+00 -6.782774289604276419e-05 -9.685416443971917033e-05 -4.940457074553705752e-05 -4.404006176628172398e-05
2.346000000000000000e+03 1.537327575683593750e+01 -1.025242042541503906e+01 -1.346369244856759906e-04 -1.190139482787344605e-05 -4.396149597596377134e-05 -5.452130426419898868e-05
2.347000000000000000e+03 1.843130683898925781e+01 1.753274917602539062e+00 -1.182747036218643188e-01 -3.648246228694915771e-01 -1.449297964572906494e-01 2.303880900144577026e-01
2.348000000000000000e+03 1.909249877929687500e+01 1.258863329887390137e+00 -1.337317824363708496e-01 -3.712887763977050781e-01 -1.515061706304550171e-01 2.300052791833877563e-01
2.349000000000000000e+03 2.472672843933105469e+01 -3.450170278549194336e+00 -2.276343852281570435e-01 -2.849818170070648193e-01 -1.537848711013793945e-01 2.412038296461105347e-01
2.350000000000000000e+03 2.154735946655273438e+01 -6.486106514930725098e-01 -1.773964613676071167e-01 -3.675137162208557129e-01 -1.634730547666549683e-01 2.280476987361907959e-01
2.351000000000000000e+03 1.446272659301757812e+01 4.534810543060302734e+00 -4.702347889542579651e-02 -2.958779335021972656e-01 -1.028704270720481873e-01 2.199784517288208008e-01
2.352000000000000000e+03 1.514447689056396484e+01 4.149400711059570312e+00 -5.732875317335128784e-02 -3.076685070991516113e-01 -1.094991788268089294e-01 2.205064892768859863e-01
2.353000000000000000e+03 8.423862457275390625e+00 -7.690908908843994141e+00 1.131007666117511690e-04 2.822285387082956731e-05 4.239708505338057876e-05 -9.052547102328389883e-05
2.354000000000000000e+03 1.271969223022460938e+01 -6.552276134490966797e+00 9.997664892580360174e-05 8.557737601222470403e-05 5.566620893660001457e-05 2.683931597857736051e-05
2.355000000000000000e+03 1.089743518829345703e+01 4.906564712524414062e+00 -6.707853823900222778e-02 -2.107159048318862915e-01 -8.333833515644073486e-02 2.099142074584960938e-01
2.356000000000000000e+03 1.369029712677001953e+01 4.502597332000732422e+00 -5.631595477461814880e-02 -2.806293666362762451e-01 -1.010835915803909302e-01 2.228581607341766357e-01
2.357000000000000000e+03 4.426791000366210938e+01 -4.896193027496337891e+00 3.541996777057647705e-01 8.464445471763610840e-01 3.601932525634765625e-01 -5.488238930702209473e-01
2.358000000000000000e+03 4.326655960083007812e+01 -2.588380336761474609e+00 2.844327688217163086e-01 8.816111087799072266e-01 3.498131632804870605e-01 -4.969631135463714600e-01
2.359000000000000000e+03 4.319617462158203125e+01 -5.207149982452392578e+00 3.249120712280273438e-01 7.033992409706115723e-01 3.084933757781982422e-01 -4.757399559020996094e-01
2.360000000000000000e+03 7.089572143554687500e+01 -1.781960487365722656e+01 -3.478538095951080322e-01 4.721390724182128906e+00 1.312061071395874023e+00 -1.054213881492614746e+00
2.361000000000000000e+03 4.672152328491210938e+01 -2.696873664855957031e+01 1.484841108322143555e-01 -2.846784591674804688e-01 -4.085830226540565491e-02 -6.160566806793212891e-01
2.362000000000000000e+03 4.038603973388671875e+01 -6.504747271537780762e-02 2.382950782775878906e-01 8.017873764038085938e-01 3.120247423648834229e-01 -3.420166671276092529e-01
2.363000000000000000e+03 4.225318908691406250e+01 -2.976567983627319336e+00 2.634971439838409424e-01 7.627324461936950684e-01 3.078688681125640869e-01 -4.423401355743408203e-01
2.364000000000000000e+03 1.417057991027832031e+01 -1.093270301818847656e+01 -2.071250928565859795e-04 -4.130202069063670933e-05 -7.452813588315621018e-05 4.536501000984571874e-05
2.365000000000000000e+03 1.445176219940185547e+01 -1.000311470031738281e+01 1.945494004758074880e-04 2.197340290877036750e-05 6.495683919638395309e-05 -1.322211755905300379e-05
2.366000000000000000e+03 4.709339904785156250e+01 -2.652175903320312500e+01 1.559095829725265503e-01 -2.939416766166687012e-01 -4.140962660312652588e-02 -6.560623049736022949e-01
2.367000000000000000e+03 6.444379425048828125e+01 -1.765043067932128906e+01 2.095018625259399414e+00 3.089401125907897949e-01 7.211875915527343750e-01 7.323347330093383789e-01
2.368000000000000000e+03 1.552106952667236328e+01 -9.420037269592285156e+00 1.431271521141752601e-04 2.198149559262674302e-05 4.953259485773742199e-05 3.687250864459201694e-05
2.369000000000000000e+03 1.344482231140136719e+01 5.176642894744873047e+00 -3.467983752489089966e-02 -2.758567929267883301e-01 -9.316098690032958984e-02 2.156373709440231323e-01
2.370000000000000000e+03 1.140879631042480469e+01 5.811605930328369141e+00 -3.607354313135147095e-02 -2.319507896900177002e-01 -8.040729910135269165e-02 2.080295383930206299e-01
2.371000000000000000e+03 4.210886383056640625e+01 -5.507792949676513672e+00 3.346309959888458252e-01 5.692895054817199707e-01 2.711761593818664551e-01 -3.814772367477416992e-01
2.372000000000000000e+03 6.644178009033203125e+01 -1.567735576629638672e+01 6.689136028289794922e-01 1.793323636054992676e+00 7.386711835861206055e-01 9.106343388557434082e-01
2.373000000000000000e+03 3.987451171875000000e+01 -1.440088939666748047e+01 -4.049220681190490723e-01 -1.413764655590057373e-01 -1.638895571231842041e-01 2.768476903438568115e-01
2.374000000000000000e+03 6.697846984863281250e+01 -1.830518341064453125e+01 8.588365316390991211e-01 6.504579186439514160e-01 4.527883231639862061e-01 -2.572897970676422119e-01
2.375000000000000000e+03 6.692021942138671875e+01 -1.711984634399414062e+01 1.095813989639282227e+00 1.198182106018066406e+00 6.881988048553466797e-01 2.514713108539581299e-01
2.376000000000000000e+03 4.905752182006835938e+01 -2.561553001403808594e+01 2.324444204568862915e-01 4.493889585137367249e-02 8.321499079465866089e-02 -6.464369893074035645e-01
2.377000000000000000e+03 5.298304748535156250e+01 -2.775855255126953125e+01 1.221532821655273438e+00 1.826672434806823730e+00 9.144615530967712402e-01 2.190577089786529541e-01
2.378000000000000000e+03 6.770484924316406250e+01 -1.591623306274414062e+01 6.042870879173278809e-01 2.262404203414916992e+00 8.600074052810668945e-01 2.594183385372161865e-01
2.379000000000000000e+03 6.524172210693359375e+01 -1.827472686767578125e+01 1.438932180404663086e+00 2.854802608489990234e-01 5.173237323760986328e-01 2.854925692081451416e-01
2.380000000000000000e+03 6.503844451904296875e+01 -1.684411811828613281e+01 1.835686564445495605e+00 5.416566729545593262e-01 7.132029533386230469e-01 1.007989287376403809e+00
2.381000000000000000e+03 3.879696655273437500e+01 -1.461657714843750000e+01 -4.594379663467407227e-01 -2.009062767028808594e-01 -1.981032639741897583e-01 3.080074489116668701e-01
2.382000000000000000e+03 3.609673690795898438e+01 -1.369032001495361328e+01 -3.934573531150817871e-01 -1.747049540281295776e-01 -1.704486906528472900e-01 3.859621286392211914e-01
2.383000000000000000e+03 3.921523666381835938e+01 1.546656608581542969e+00 2.289317101240158081e-01 7.806788682937622070e-01 3.028831779956817627e-01 -2.780964374542236328e-01
2.384000000000000000e+03 3.162865829467773438e+01 -1.040917491912841797e+01 -2.573792338371276855e-01 -7.889516651630401611e-02 -1.008823215961456299e-01 3.728807270526885986e-01
2.385000000000000000e+03 3.383605194091796875e+01 -1.338804721832275391e+01 -4.127903282642364502e-01 -1.110078766942024231e-01 -1.571394652128219604e-01 4.169122874736785889e-01
2.386000000000000000e+03 4.174011230468750000e+01 -1.928998947143554688e+00 2.612311244010925293e-01 7.877882719039916992e-01 3.147058188915252686e-01 -4.085160493850708008e-01
2.387000000000000000e+03 4.399417495727539062e+01 -1.036001968383789062e+01 5.117453932762145996e-01 2.879841923713684082e-01 2.399188727140426636e-01 -2.608335912227630615e-01
2.388000000000000000e+03 6.573078155517578125e+01 -1.618847274780273438e+01 1.324701070785522461e+00 9.640712738037109375e-01 6.866316795349121094e-01 1.164315819740295410e+00
2.389000000000000000e+03 8.353610038757324219e+00 -3.259628677368164062e+01 2.432977926218882203e-04 7.264209853019565344e-05 9.478196443524211645e-05 6.411627982743084431e-04
2.390000000000000000e+03 4.341809082031250000e+01 -3.523707580566406250e+01 2.083894908428192139e-01 -4.032625555992126465e-01 -5.846191942691802979e-02 1.466514170169830322e-01
2.391000000000000000e+03 4.640487670898437500e+01 -3.129645919799804688e+01 2.106492519378662109e-01 -7.313422113656997681e-02 4.125450924038887024e-02 1.456326544284820557e-01
2.392000000000000000e+03 3.800460052490234375e+01 7.631671428680419922e+00 3.630379736423492432e-01 9.148368835449218750e-01 3.833624422550201416e-01 -2.217261791229248047e-01
2.393000000000000000e+03 3.918187332153320312e+01 4.728113651275634766e+00 2.968001067638397217e-01 9.436357617378234863e-01 3.721307516098022461e-01 -2.727017700672149658e-01
2.394000000000000000e+03 6.145246505737304688e+00 -3.291375732421875000e+01 8.152276132022961974e-05 3.340132243465632200e-04 1.246608007932081819e-04 1.123022084357216954e-04
2.395000000000000000e+03 4.505050277709960938e+01 -1.429447460174560547e+01 1.352179795503616333e-01 5.279226228594779968e-02 5.640307068824768066e-02 2.885541617870330811e-01
2.396000000000000000e+03 4.038369750976562500e+01 5.192524909973144531e+00 2.850372493267059326e-01 1.101057171821594238e+00 4.158283174037933350e-01 -3.339404463768005371e-01
2.397000000000000000e+03 7.569535064697265625e+01 -2.888782310485839844e+01 4.828934371471405029e-01 8.388913154602050781e+00 2.661541938781738281e+00 -7.600837945938110352e-01
2.398000000000000000e+03 1.043241691589355469e+01 2.910192680358886719e+01 2.245368994772434235e-02 -1.732751131057739258e-01 -4.524642601609230042e-02 -2.206865930929780006e-03
2.399000000000000000e+03 9.510744094848632812e+00 3.092597198486328125e+01 1.295563858002424240e-02 -1.944699138402938843e-01 -5.445428192615509033e-02 -4.297056235373020172e-03
2.400000000000000000e+03 7.552964019775390625e+01 -1.598860931396484375e+01 -3.459164202213287354e-01 7.474412441253662109e+00 2.138548851013183594e+00 -1.219005808234214783e-01
2.401000000000000000e+03 7.142703247070312500e+01 -1.568935203552246094e+01 -2.174158394336700439e-01 5.130041599273681641e+00 1.473787784576416016e+00 -5.427399873733520508e-01
2.402000000000000000e+03 7.336476135253906250e+01 -1.369045448303222656e+01 -3.023962080478668213e-01 6.376167297363281250e+00 1.822131276130676270e+00 -3.598791360855102539e-01
2.403000000000000000e+03 7.460003662109375000e+01 1.642412567138671875e+01 3.722975403070449829e-02 8.109246253967285156e+00 2.443942785263061523e+00 9.111298620700836182e-02
2.404000000000000000e+03 7.467253875732421875e+01 1.777528190612792969e+01 4.422500357031822205e-02 8.121818542480468750e+00 2.449812889099121094e+00 8.832523226737976074e-02
2.405000000000000000e+03 7.473901367187500000e+01 1.073737812042236328e+01 -1.781651526689529419e-01 8.241333007812500000e+00 2.418950319290161133e+00 2.613290548324584961e-01
2.406000000000000000e+03 7.354264068603515625e+01 1.179974174499511719e+01 -3.162364661693572998e-01 8.781335830688476562e+00 2.539529800415039062e+00 1.318787336349487305e-01
2.407000000000000000e+03 7.473207092285156250e+01 -3.799801588058471680e+00 2.775686793029308319e-02 7.510979652404785156e+00 2.261620998382568359e+00 -5.592687129974365234e-01
2.408000000000000000e+03 7.258273315429687500e+01 -1.810655593872070312e+01 -7.280497550964355469e-01 6.458918094635009766e+00 1.719260454177856445e+00 -6.164562106132507324e-01
2.409000000000000000e+03 7.437468719482421875e+01 -8.741256594657897949e-01 3.491350710391998291e-01 7.928987026214599609e+00 2.483436584472656250e+00 -3.989636898040771484e-01
2.410000000000000000e+03 7.173237609863281250e+01 -1.184685611724853516e+01 -1.723095625638961792e-01 5.695759296417236328e+00 1.657034993171691895e+00 -1.822122335433959961e-01
2.411000000000000000e+03 7.377487945556640625e+01 -1.588641738891601562e+01 -4.655655026435852051e-01 6.710950374603271484e+00 1.873615384101867676e+00 -3.548910021781921387e-01
2.412000000000000000e+03 7.346894073486328125e+01 -1.735673522949218750e+01 -6.207317113876342773e-01 6.791164398193359375e+00 1.851129770278930664e+00 -3.906879723072052002e-01
2.413000000000000000e+03 7.564429473876953125e+01 6.789023876190185547e+00 1.388680934906005859e-01 7.725633144378662109e+00 2.359350442886352539e+00 2.621060013771057129e-01
2.414000000000000000e+03 7.421685028076171875e+01 -8.716066360473632812e+00 -1.858719289302825928e-01 6.965998649597167969e+00 2.034038066864013672e+00 -4.509685039520263672e-01
2.415000000000000000e+03 7.216445922851562500e+01 -8.774542808532714844e+00 -2.065646201372146606e-01 6.352482795715332031e+00 1.843775510787963867e+00 -1.575781852006912231e-01
2.416000000000000000e+03 7.581523895263671875e+01 2.061533927917480469e+01 1.204729899764060974e-01 7.701487541198730469e+00 2.346588134765625000e+00 1.543888002634048462e-01
2.417000000000000000e+03 7.130019664764404297e+00 2.362526512145996094e+01 2.728888206183910370e-02 -2.556868195533752441e-01 -6.851938366889953613e-02 2.770930714905261993e-02
2.418000000000000000e+03 8.235017776489257812e+00 3.451272201538085938e+01 2.480485942214727402e-03 -2.197587043046951294e-01 -6.518346816301345825e-02 -4.408618435263633728e-03
2.419000000000000000e+03 6.004775047302246094e+00 2.716213989257812500e+01 1.294504757970571518e-02 -2.815619707107543945e-01 -8.058507740497589111e-02 9.997492656111717224e-03
2.420000000000000000e+03 4.305739402770996094e+00 -2.062004852294921875e+01 3.805851447395980358e-04 1.526305277366191149e-04 1.599647075636312366e-04 8.654678822495043278e-06
2.421000000000000000e+03 3.982451438903808594e+00 -2.203400993347167969e+01 -4.354447009973227978e-04 -6.757426308467984200e-05 -1.509056892246007919e-04 -7.010553963482379913e-05
2.422000000000000000e+03 7.608626842498779297e+00 -1.137576293945312500e+01 -2.428006991976872087e-04 6.060769737814553082e-05 -5.465789945446886122e-05 -1.156238940893672407e-04
2.423000000000000000e+03 7.382672119140625000e+01 7.412858009338378906e+00 1.456085741519927979e-01 8.710494995117187500e+00 2.656831026077270508e+00 3.319521844387054443e-01
2.424000000000000000e+03 6.946515083312988281e+00 1.622910308837890625e+01 3.802611306309700012e-02 -2.400972098112106323e-01 -6.062132865190505981e-02 8.741879463195800781e-02
2.425000000000000000e+03 5.490282535552978516e+00 1.527207374572753906e+01 2.527933567762374878e-02 -2.422989755868911743e-01 -6.510589271783828735e-02 8.588229864835739136e-02
2.426000000000000000e+03 6.706009387969970703e+00 1.491200637817382812e+01 3.492387384176254272e-02 -2.342438399791717529e-01 -5.979598686099052429e-02 9.774246066808700562e-02
2.427000000000000000e+03 6.332908630371093750e+00 -9.099892616271972656e+00 2.043161512119695544e-04 3.778107566176913679e-05 7.262916915351524949e-05 9.276845958083868027e-05
2.428000000000000000e+03 5.202541828155517578e+00 -9.101384162902832031e+00 -2.403559919912368059e-04 -1.385517862217966467e-05 -7.626334991073235869e-05 -6.363718421198427677e-05
2.429000000000000000e+03 6.497409343719482422e+00 1.361653804779052734e+01 3.121924772858619690e-02 -2.255529463291168213e-01 -5.830011144280433655e-02 1.078857406973838806e-01
2.430000000000000000e+03 5.244820117950439453e+00 1.256512546539306641e+01 1.837235130369663239e-02 -2.143138498067855835e-01 -5.878244712948799133e-02 1.034145727753639221e-01
2.431000000000000000e+03 7.391310691833496094e+00 1.897981643676757812e+01 4.011127352714538574e-02 -2.450622767210006714e-01 -6.148529797792434692e-02 6.454737484455108643e-02
2.432000000000000000e+03 5.921748638153076172e+00 1.938825988769531250e+01 2.733343839645385742e-02 -2.649386823177337646e-01 -7.128157466650009155e-02 5.574779957532882690e-02
2.433000000000000000e+03 7.083470153808593750e+01 -1.213293743133544922e+01 -1.245236247777938843e-01 5.090226650238037109e+00 1.489710927009582520e+00 -4.994475096464157104e-02
2.434000000000000000e+03 6.798101043701171875e+01 -1.498806667327880859e+01 4.629022181034088135e-01 2.674647808074951172e+00 9.412650465965270996e-01 2.581761479377746582e-01
2.435000000000000000e+03 3.550656509399414062e+01 1.829651260375976562e+01 1.695213913917541504e-01 6.774553060531616211e-01 2.540930211544036865e-01 -1.506942212581634521e-01
2.436000000000000000e+03 7.533288955688476562e+00 2.813066482543945312e+01 1.575640030205249786e-02 -2.477549612522125244e-01 -6.959956884384155273e-02 6.383994594216346741e-03
2.437000000000000000e+03 8.002615928649902344e+00 7.313934326171875000e+00 -1.687839813530445099e-02 -1.719705164432525635e-01 -5.665467679500579834e-02 1.655902862548828125e-01
2.438000000000000000e+03 5.769885063171386719e+00 7.005320549011230469e+00 -2.312009409070014954e-02 -1.350558400154113770e-01 -4.745278134942054749e-02 1.285077929496765137e-01
2.439000000000000000e+03 6.102287292480468750e+00 8.108731269836425781e+00 -8.218414150178432465e-03 -1.577175259590148926e-01 -4.978078231215476990e-02 1.339387744665145874e-01
2.440000000000000000e+03 1.068710708618164062e+01 -1.229051876068115234e+01 4.417847376316785812e-04 -5.278808021103031933e-05 1.166989968623965979e-04 1.347462784906383604e-05
2.441000000000000000e+03 6.377428531646728516e+00 1.231167030334472656e+01 2.556296996772289276e-02 -2.139288634061813354e-01 -5.650976672768592834e-02 1.176324039697647095e-01
2.442000000000000000e+03 5.671438217163085938e+00 -1.305735015869140625e+01 2.615843841340392828e-04 -5.655223503708839417e-05 6.150964327389374375e-05 9.379637776874005795e-05
2.443000000000000000e+03 7.965880870819091797e+00 -1.249348354339599609e+01 2.684817882254719734e-04 -9.432833030587062240e-05 5.224603955866768956e-05 1.289479841943830252e-04
2.444000000000000000e+03 6.980441570281982422e+00 9.743260383605957031e+00 1.171212177723646164e-02 -1.911188662052154541e-01 -5.382202193140983582e-02 1.409588456153869629e-01
2.445000000000000000e+03 7.436005401611328125e+01 2.018656492233276367e+00 5.050497651100158691e-01 8.228012084960937500e+00 2.619918346405029297e+00 -1.156849116086959839e-01
2.446000000000000000e+03 3.977875137329101562e+01 6.613660335540771484e+00 3.440610468387603760e-01 1.117705345153808594e+00 4.385299086570739746e-01 -2.934808135032653809e-01
2.447000000000000000e+03 3.183885192871093750e+01 -1.303143405914306641e+01 -3.933432996273040771e-01 -8.732931315898895264e-02 -1.442017853260040283e-01 4.049748182296752930e-01
2.448000000000000000e+03 1.570006752014160156e+01 -8.723144531250000000e+00 -1.512638264102861285e-04 -2.550671888457145542e-05 -5.303116631694138050e-05 3.225275804652483203e-06
2.449000000000000000e+03 5.324570083618164062e+01 -2.714233207702636719e+01 1.170613050460815430e+00 1.721026420593261719e+00 8.674918413162231445e-01 2.122778296470642090e-01
2.450000000000000000e+03 5.400793838500976562e+01 -2.562844085693359375e+01 7.658091187477111816e-01 1.961445450782775879e+00 8.181763887405395508e-01 1.885635405778884888e-01
2.451000000000000000e+03 3.493541717529296875e+01 1.177950668334960938e+01 3.263737857341766357e-01 6.222661137580871582e-01 2.845919728279113770e-01 -1.892329305410385132e-01
2.452000000000000000e+03 7.155661773681640625e+01 -1.008542442321777344e+01 -1.711291372776031494e-01 5.845620155334472656e+00 1.702347278594970703e+00 -6.033490225672721863e-02
2.453000000000000000e+03 3.766166687011718750e+01 2.137254905700683594e+01 9.005948156118392944e-02 7.411331534385681152e-01 2.493577897548675537e-01 -7.012011110782623291e-02
2.454000000000000000e+03 3.569423675537109375e+01 1.999347305297851562e+01 1.341818571090698242e-01 6.600964665412902832e-01 2.382834851741790771e-01 -1.303305923938751221e-01
2.455000000000000000e+03 8.797440528869628906e+00 -2.997209167480468750e+01 -5.673968116752803326e-04 -4.140363598708063364e-04 -2.944299485534429550e-04 2.728314429987221956e-04
2.456000000000000000e+03 3.866261672973632812e+01 2.444447517395019531e+01 3.454003855586051941e-02 6.846502423286437988e-01 2.157570719718933105e-01 -2.737815678119659424e-02
2.457000000000000000e+03 9.070512771606445312e+00 -5.836946010589599609e+00 -3.446105984039604664e-05 8.321180212078616023e-05 1.462522413930855691e-05 5.400400914368219674e-05
2.458000000000000000e+03 9.330821037292480469e+00 -1.081658554077148438e+01 1.157449733000248671e-04 -4.218638059683144093e-05 2.206757744716014713e-05 -2.526645039324648678e-05
2.459000000000000000e+03 4.366220474243164062e+01 -6.372133255004882812e+00 4.011976718902587891e-01 6.576210856437683105e-01 3.176456391811370850e-01 -4.806672632694244385e-01
2.460000000000000000e+03 4.412410354614257812e+01 -7.578881263732910156e+00 4.304989874362945557e-01 6.116907000541687012e-01 3.126569092273712158e-01 -4.932756721973419189e-01
2.461000000000000000e+03 7.118669128417968750e+01 -1.437724876403808594e+01 -1.780816018581390381e-01 5.046441555023193359e+00 1.460507988929748535e+00 -2.939395010471343994e-01
2.462000000000000000e+03 7.202295684814453125e+01 -1.291665840148925781e+01 -2.159888297319412231e-01 5.700730800628662109e+00 1.645422577857971191e+00 -2.609900236129760742e-01
2.463000000000000000e+03 4.816647338867187500e+01 -2.819073295593261719e+01 4.139579236507415771e-01 4.243589565157890320e-02 1.369181424379348755e-01 -3.698581159114837646e-01
2.464000000000000000e+03 4.652460479736328125e+01 -2.949809837341308594e+01 1.788877993822097778e-01 -1.667748242616653442e-01 3.633895190432667732e-03 -2.171213328838348389e-01
2.465000000000000000e+03 3.713410949707031250e+01 2.506814956665039062e+01 2.305532060563564301e-02 6.208797693252563477e-01 1.931805163621902466e-01 -6.818815320730209351e-02
2.466000000000000000e+03 3.967348098754882812e+01 2.256127357482910156e+01 6.430666148662567139e-02 7.845402359962463379e-01 2.546540796756744385e-01 1.123479381203651428e-02
2.467000000000000000e+03 4.073319244384765625e+01 3.299726867675781250e+01 -1.141648665070533752e-01 5.049327611923217773e-01 1.172303631901741028e-01 -1.371316495351493359e-03
2.468000000000000000e+03 6.455005645751953125e+00 -2.347595787048339844e+01 5.143980379216372967e-04 2.124070015270262957e-04 2.180415031034499407e-04 -2.311800490133464336e-04
2.469000000000000000e+03 6.057079696655273438e+01 -1.998098564147949219e+01 -5.996509790420532227e-01 2.941507101058959961e+00 7.025568485260009766e-01 1.532880425453186035e+00
2.470000000000000000e+03 6.014122772216796875e+01 -2.000130844116210938e+01 -5.760226845741271973e-01 2.882652997970581055e+00 6.919891238212585449e-01 1.762433052062988281e+00
2.471000000000000000e+03 5.974373626708984375e+01 -1.989826583862304688e+01 -4.664347767829895020e-01 2.714207887649536133e+00 6.743319034576416016e-01 1.867676138877868652e+00
2.472000000000000000e+03 5.967790603637695312e+01 -2.079883384704589844e+01 -8.925477862358093262e-01 2.516472339630126953e+00 4.871774017810821533e-01 1.817351460456848145e+00
2.473000000000000000e+03 5.852969741821289062e+01 -2.124677276611328125e+01 -9.672752022743225098e-01 2.233801603317260742e+00 3.799579143524169922e-01 1.759944558143615723e+00
2.474000000000000000e+03 5.926300430297851562e+01 -2.047063446044921875e+01 -7.576112747192382812e-01 2.425617456436157227e+00 5.004018545150756836e-01 1.866423606872558594e+00
2.475000000000000000e+03 5.901499176025390625e+01 -2.085349273681640625e+01 -8.806113600730895996e-01 2.307511568069458008e+00 4.280700385570526123e-01 1.831032276153564453e+00
2.476000000000000000e+03 6.129815673828125000e+01 -2.064231491088867188e+01 -7.919275760650634766e-01 2.474658727645874023e+00 5.048193335533142090e-01 1.170324325561523438e+00
2.477000000000000000e+03 6.046146011352539062e+01 -2.077390670776367188e+01 -8.785750269889831543e-01 2.641107559204101562e+00 5.287597179412841797e-01 1.592606782913208008e+00
2.478000000000000000e+03 1.117647743225097656e+01 -6.530278205871582031e+00 -1.999237720156088471e-04 -6.923665750946383923e-06 -6.205423414940014482e-05 -3.720486347447149456e-05
2.479000000000000000e+03 1.048526096343994141e+01 -6.248108386993408203e+00 1.723689638311043382e-04 3.418841515667736530e-05 6.196721369633451104e-05 -3.546349034877493978e-05
2.480000000000000000e+03 5.615075588226318359e+00 6.045920372009277344e+00 -3.390626981854438782e-02 -1.130500808358192444e-01 -4.408690333366394043e-02 1.204682439565658569e-01
2.481000000000000000e+03 3.043102645874023438e+01 -1.214479064941406250e+01 -3.421183526515960693e-01 -1.025702133774757385e-01 -1.334065645933151245e-01 3.995563387870788574e-01
2.482000000000000000e+03 9.655918121337890625e+00 -7.600636005401611328e+00 1.848476385930553079e-04 8.713272109162062407e-06 5.806827175547368824e-05 -1.261029392480850220e-04
2.483000000000000000e+03 2.961784172058105469e+01 -1.056987762451171875e+01 -3.050538897514343262e-01 -1.100400611758232117e-01 -1.245281845331192017e-01 3.912132084369659424e-01
2.484000000000000000e+03 6.119285964965820312e+01 -2.011385726928710938e+01 -5.444146394729614258e-01 2.852851867675781250e+00 6.925311684608459473e-01 1.114482641220092773e+00
2.485000000000000000e+03 6.467539310455322266e+00 6.587110519409179688e+00 -2.741360291838645935e-02 -1.386757045984268188e-01 -4.982679337263107300e-02 1.402167826890945435e-01
2.486000000000000000e+03 4.956261825561523438e+01 -2.652128410339355469e+01 4.887951314449310303e-01 2.260089218616485596e-01 2.144412100315093994e-01 -4.733286499977111816e-01
2.487000000000000000e+03 7.314699172973632812e+00 6.274565219879150391e+00 -3.788098320364952087e-02 -1.414111703634262085e-01 -5.378764495253562927e-02 1.539256125688552856e-01
2.488000000000000000e+03 3.013937377929687500e+01 -9.917847633361816406e+00 -2.806484103202819824e-01 -1.010706424713134766e-01 -1.145157143473625183e-01 3.780166506767272949e-01
2.489000000000000000e+03 5.138945770263671875e+01 -2.673404693603515625e+01 7.496327757835388184e-01 8.408302664756774902e-01 4.771389067173004150e-01 -2.628851532936096191e-01
2.490000000000000000e+03 4.943648147583007812e+01 -2.537820625305175781e+01 2.056359648704528809e-01 6.197037920355796814e-02 8.028190582990646362e-02 -6.478608250617980957e-01
2.491000000000000000e+03 5.224375152587890625e+01 -2.649411201477050781e+01 8.315451145172119141e-01 1.083086252212524414e+00 5.743893980979919434e-01 -1.015062034130096436e-01
2.492000000000000000e+03 1.526249313354492188e+01 -7.837791919708251953e+00 -1.626080193091183901e-04 1.660878297116141766e-05 -4.379976962809450924e-05 1.885002529888879508e-05
2.493000000000000000e+03 1.376884937286376953e+01 -7.683053016662597656e+00 9.575272270012646914e-05 8.738179894862696528e-05 5.494035576703026891e-05 -5.851408423040993512e-05
2.494000000000000000e+03 5.213585662841796875e+01 -2.573991394042968750e+01 6.033584475517272949e-01 9.770970940589904785e-01 4.741366505622863770e-01 -2.765142917633056641e-01
2.495000000000000000e+03 4.848504638671875000e+01 -1.385749912261962891e+01 1.123045563697814941e+00 3.607385456562042236e-01 4.451352357864379883e-01 -1.963993757963180542e-01
2.496000000000000000e+03 9.408777236938476562e+00 6.182229995727539062e+00 -3.547025844454765320e-02 -1.854807585477828979e-01 -6.628530472517013550e-02 1.881132572889328003e-01
2.497000000000000000e+03 6.127295017242431641e+00 9.868741989135742188e+00 7.553392089903354645e-03 -1.827542036771774292e-01 -5.256024375557899475e-02 1.298573762178421021e-01
2.498000000000000000e+03 4.745970153808593750e+01 -2.884523200988769531e+01 3.400061726570129395e-01 -1.055707558989524841e-01 7.033062726259231567e-02 -2.727200090885162354e-01
2.499000000000000000e+03 1.015564727783203125e+01 -6.982947826385498047e+00 -1.993506884900853038e-04 -4.374521449790336192e-05 -7.292877126019448042e-05 3.098963134107179940e-05
2.500000000000000000e+03 1.325764083862304688e+01 -7.105056285858154297e+00 -5.964965021121315658e-05 -1.041814975906163454e-04 -4.914934470434673131e-05 1.172084193967748433e-05
2.501000000000000000e+03 2.718088531494140625e+01 -7.349633693695068359e+00 -2.949367165565490723e-01 -1.997953355312347412e-01 -1.484196186065673828e-01 3.246546983718872070e-01
2.502000000000000000e+03 4.541450500488281250e+01 -1.495230865478515625e+01 -6.261959671974182129e-02 6.354884803295135498e-02 2.787756675388664007e-04 4.151501059532165527e-01
2.503000000000000000e+03 4.558176422119140625e+01 -1.378660011291503906e+01 3.208066523075103760e-01 1.095343157649040222e-01 1.291022896766662598e-01 1.421906203031539917e-01
2.504000000000000000e+03 4.398423385620117188e+01 -1.539142704010009766e+01 -4.115398526191711426e-01 8.137720078229904175e-02 -9.904880076646804810e-02 4.565696716308593750e-01
2.505000000000000000e+03 1.716139411926269531e+01 4.922348499298095703e+00 1.085329800844192505e-02 -3.155629634857177734e-01 -9.141290187835693359e-02 1.865239888429641724e-01
2.506000000000000000e+03 2.549207496643066406e+01 -4.785809516906738281e+00 -2.629672288894653320e-01 -2.665833532810211182e-01 -1.588651686906814575e-01 2.694807648658752441e-01
2.507000000000000000e+03 4.472445297241210938e+01 -1.520983600616455078e+01 -2.203903645277023315e-01 6.848418712615966797e-02 -4.557185247540473938e-02 4.086002409458160400e-01
2.508000000000000000e+03 4.375461578369140625e+01 -1.377465534210205078e+01 5.185933783650398254e-02 5.592219904065132141e-02 3.233446180820465088e-02 2.519997656345367432e-01
2.509000000000000000e+03 2.298808670043945312e+01 -1.786564826965332031e+00 -2.009644061326980591e-01 -3.427439928054809570e-01 -1.631125211715698242e-01 2.300289273262023926e-01
2.510000000000000000e+03 2.366045188903808594e+01 -1.422144174575805664e+00 -1.512897312641143799e-01 -2.967540919780731201e-01 -1.344131529331207275e-01 2.035830914974212646e-01
2.511000000000000000e+03 4.495285415649414062e+01 -1.233756065368652344e+01 5.147519707679748535e-01 1.603166759014129639e-01 2.025205940008163452e-01 -9.576136618852615356e-02
2.512000000000000000e+03 1.644180679321289062e+01 4.325581073760986328e+00 -2.653422392904758453e-02 -3.216502666473388672e-01 -1.044553443789482117e-01 2.053746283054351807e-01
2.513000000000000000e+03 1.579696464538574219e+01 3.692559719085693359e+00 -6.574276834726333618e-02 -3.205445706844329834e-01 -1.158861964941024780e-01 2.234167158603668213e-01
2.514000000000000000e+03 2.684956169128417969e+01 -4.033952236175537109e+00 -1.886094659566879272e-01 -1.776536852121353149e-01 -1.098789423704147339e-01 2.246114611625671387e-01
2.515000000000000000e+03 2.655135154724121094e+01 -5.028773784637451172e+00 -2.383913397789001465e-01 -2.080451399087905884e-01 -1.339309513568878174e-01 2.605939805507659912e-01
2.516000000000000000e+03 1.975140762329101562e+01 7.666928768157958984e-01 -1.429970562458038330e-01 -3.742652833461761475e-01 -1.551787108182907104e-01 2.307499200105667114e-01
2.517000000000000000e+03 2.865514373779296875e+01 -8.215026855468750000e+00 -2.682625353336334229e-01 -1.329931318759918213e-01 -1.203767061233520508e-01 3.398799896240234375e-01
2.518000000000000000e+03 2.821553230285644531e+01 -7.579829692840576172e+00 -2.701202929019927979e-01 -1.489713788032531738e-01 -1.257275044918060303e-01 3.220255970954895020e-01
2.519000000000000000e+03 2.806832504272460938e+01 -8.675436019897460938e+00 -3.004944622516632080e-01 -1.637534052133560181e-01 -1.392743587493896484e-01 3.547070622444152832e-01
2.520000000000000000e+03 2.960867691040039062e+01 -9.397669792175292969e+00 -2.707158327102661133e-01 -1.060031577944755554e-01 -1.130156964063644409e-01 3.669710755348205566e-01
2.521000000000000000e+03 2.333128929138183594e+01 -2.462464332580566406e+00 -2.223761528730392456e-01 -3.408860862255096436e-01 -1.689786761999130249e-01 2.422244399785995483e-01
2.522000000000000000e+03 2.332488441467285156e+01 -8.639736771583557129e-01 -1.388003230094909668e-01 -3.087547123432159424e-01 -1.342665106058120728e-01 1.950647830963134766e-01
2.523000000000000000e+03 2.145932197570800781e+01 3.569048643112182617e-01 -1.271191090345382690e-01 -3.476983308792114258e-01 -1.424452364444732666e-01 2.000145763158798218e-01
2.524000000000000000e+03 2.616129112243652344e+01 -4.394265651702880859e+00 -2.194490730762481689e-01 -2.199596315622329712e-01 -1.318226158618927002e-01 2.445177584886550903e-01
2.525000000000000000e+03 2.544060134887695312e+01 -3.066537141799926758e+00 -1.831489205360412598e-01 -2.385721355676651001e-01 -1.265163123607635498e-01 2.153660058975219727e-01
2.526000000000000000e+03 2.632436180114746094e+01 -6.062064647674560547e+00 -2.830268442630767822e-01 -2.357254773378372192e-01 -1.556256860494613647e-01 2.965120375156402588e-01
2.527000000000000000e+03 2.736766815185546875e+01 -6.295053958892822266e+00 -2.581975162029266357e-01 -1.783194988965988159e-01 -1.309551149606704712e-01 2.912614643573760986e-01
2.528000000000000000e+03 3.968878555297851562e+01 -1.341355037689208984e+01 -2.322501391172409058e-01 -1.180367991328239441e-01 -1.050860807299613953e-01 2.350187897682189941e-01
2.529000000000000000e+03 2.192932891845703125e+01 -1.037381216883659363e-01 -1.293177753686904907e-01 -3.412700593471527100e-01 -1.411763578653335571e-01 2.033118903636932373e-01
2.530000000000000000e+03 2.320500755310058594e+01 1.764508932828903198e-01 -9.041012823581695557e-02 -2.891649007797241211e-01 -1.138725057244300842e-01 1.672803163528442383e-01
2.531000000000000000e+03 1.896077537536621094e+01 2.278280973434448242e+00 -7.868291437625885010e-02 -3.526344001293182373e-01 -1.293952018022537231e-01 2.071336507797241211e-01
2.532000000000000000e+03 1.472435760498046875e+01 -7.550721168518066406e+00 1.380074827466160059e-04 3.588634717743843794e-05 5.216815043240785599e-05 -6.606346869375556707e-05
2.533000000000000000e+03 7.906027793884277344e+00 1.445908927917480469e+01 4.581325873732566833e-02 -2.285638749599456787e-01 -5.482518672943115234e-02 1.087575852870941162e-01
2.534000000000000000e+03 7.603095531463623047e+00 1.328337001800537109e+01 3.910762071609497070e-02 -2.231123745441436768e-01 -5.520142987370491028e-02 1.181095689535140991e-01
2.535000000000000000e+03 1.436109161376953125e+01 -8.136947631835937500e+00 -1.422841596649959683e-04 -4.626925874617882073e-05 -5.656602297676727176e-05 6.289926386671140790e-05
2.536000000000000000e+03 1.497201061248779297e+01 5.323425769805908203e+00 -9.477800689637660980e-03 -2.972082495689392090e-01 -9.200581163167953491e-02 2.048361748456954956e-01
2.537000000000000000e+03 1.770682907104492188e+01 3.284183263778686523e+00 -5.356297269463539124e-02 -3.402501940727233887e-01 -1.181439459323883057e-01 2.071537524461746216e-01
2.538000000000000000e+03 9.113016128540039062e+00 -8.978489875793457031e+00 -5.626365964417345822e-05 9.382177086081355810e-05 1.126743245549732819e-05 7.783743058098480105e-05
2.539000000000000000e+03 1.299213314056396484e+01 6.600303173065185547e+00 4.777298308908939362e-03 -2.614293098449707031e-01 -7.699560374021530151e-02 1.988241523504257202e-01
2.540000000000000000e+03 4.258856964111328125e+01 -6.643382072448730469e+00 3.446309864521026611e-01 5.258684754371643066e-01 2.611498236656188965e-01 -3.853411972522735596e-01
2.541000000000000000e+03 3.390001296997070312e+01 -1.226979255676269531e+01 -3.162313997745513916e-01 -1.111510097980499268e-01 -1.282147318124771118e-01 3.990496993064880371e-01
2.542000000000000000e+03 3.082083702087402344e+01 -1.146958732604980469e+01 -3.175747692584991455e-01 -8.713333308696746826e-02 -1.214124336838722229e-01 3.981669545173645020e-01
2.543000000000000000e+03 4.165708923339843750e+01 -4.395986080169677734e+00 2.767039537429809570e-01 6.117520332336425781e-01 2.665368020534515381e-01 -3.744080662727355957e-01
2.544000000000000000e+03 1.353704738616943359e+01 -9.565456390380859375e+00 -1.775453856680542231e-04 -7.337104034377261996e-05 -7.527492562076076865e-05 5.475736543303355575e-05
2.545000000000000000e+03 3.676997756958007812e+01 7.738500118255615234e+00 3.515953719615936279e-01 7.419365644454956055e-01 3.280595839023590088e-01 -1.890986710786819458e-01
2.546000000000000000e+03 3.587274169921875000e+01 -1.177695751190185547e+01 -2.152506262063980103e-01 -1.170840039849281311e-01 -9.970039129257202148e-02 3.338249325752258301e-01
2.547000000000000000e+03 4.111499404907226562e+01 -1.513447761535644531e+01 -5.260594487190246582e-01 -2.402025647461414337e-02 -1.650239080190658569e-01 3.108496665954589844e-01
2.548000000000000000e+03 6.767755889892578125e+01 -1.762561607360839844e+01 8.007512688636779785e-01 1.433098673820495605e+00 6.701549887657165527e-01 -2.830415368080139160e-01
2.549000000000000000e+03 4.112627792358398438e+01 -9.676192402839660645e-01 2.264093160629272461e-01 8.001977205276489258e-01 3.079821169376373291e-01 -3.838113546371459961e-01
2.550000000000000000e+03 4.084207916259765625e+01 -2.352608203887939453e+00 2.425766736268997192e-01 6.848580837249755859e-01 2.782304286956787109e-01 -3.565126359462738037e-01
2.551000000000000000e+03 4.560781097412109375e+01 -3.531578063964843750e+01 2.312389314174652100e-01 -3.574398532509803772e-02 5.864848569035530090e-02 3.388933241367340088e-01
2.552000000000000000e+03 4.589745330810546875e+01 -1.224977684020996094e+01 6.119685769081115723e-01 2.845007181167602539e-01 2.689407765865325928e-01 -1.890204995870590210e-01
2.553000000000000000e+03 1.237914085388183594e+01 6.472368240356445312e+00 -4.032972268760204315e-03 -2.504080235958099365e-01 -7.633230090141296387e-02 2.003096044063568115e-01
2.554000000000000000e+03 1.229271316528320312e+01 5.640186786651611328e+00 -3.252645209431648254e-02 -2.495657056570053101e-01 -8.462765067815780640e-02 2.114790529012680054e-01
2.555000000000000000e+03 3.940851974487304688e+01 2.870506942272186279e-01 2.382093220949172974e-01 7.229091525077819824e-01 2.883355617523193359e-01 -2.886045277118682861e-01
2.556000000000000000e+03 9.912612915039062500e+00 6.970794200897216797e+00 -1.492500118911266327e-02 -2.046850472688674927e-01 -6.588301062583923340e-02 1.882597357034683228e-01
2.557000000000000000e+03 6.642839050292968750e+01 -1.780768013000488281e+01 1.226447105407714844e+00 7.676353454589843750e-01 5.982247591018676758e-01 1.682024449110031128e-01
2.558000000000000000e+03 4.458087921142578125e+01 -8.817291259765625000e+00 5.386558175086975098e-01 5.289963483810424805e-01 3.202956616878509521e-01 -4.602316915988922119e-01
2.559000000000000000e+03 6.900865173339843750e+01 -1.485058498382568359e+01 2.233866006135940552e-01 3.386154651641845703e+00 1.082862377166748047e+00 -4.513074830174446106e-02
2.560000000000000000e+03 6.692433929443359375e+01 -1.638216209411621094e+01 1.001261591911315918e+00 1.493135452270507812e+00 7.483191490173339844e-01 4.349038004875183105e-01
2.561000000000000000e+03 3.876036453247070312e+01 -1.258313083648681641e+01 -1.677435487508773804e-01 -1.150924861431121826e-01 -8.485081046819686890e-02 2.359012663364410400e-01
2.562000000000000000e+03 5.948799610137939453e+00 2.226576423645019531e+01 2.352543734014034271e-02 -2.756970226764678955e-01 -7.565147429704666138e-02 3.522044420242309570e-02
2.563000000000000000e+03 8.198567390441894531e+00 2.492655944824218750e+01 3.082890622317790985e-02 -2.358028441667556763e-01 -6.149217858910560608e-02 2.084573544561862946e-02
2.564000000000000000e+03 6.554668426513671875e+00 -1.154329013824462891e+01 2.433314803056418896e-04 -3.444075991865247488e-05 6.266721902647987008e-05 8.773712761467322707e-05
2.565000000000000000e+03 4.406860733032226562e+01 -1.205337524414062500e+01 3.523516654968261719e-01 1.478209644556045532e-01 1.500517874956130981e-01 -2.683059126138687134e-02
2.566000000000000000e+03 4.551107025146484375e+01 -1.113812923431396484e+01 6.898638010025024414e-01 3.526125252246856689e-01 3.127428889274597168e-01 -3.486541509628295898e-01
2.567000000000000000e+03 7.357131195068359375e+01 -1.485462665557861328e+01 -3.666979372501373291e-01 6.516869068145751953e+00 1.845051288604736328e+00 -3.597211539745330811e-01
2.568000000000000000e+03 7.097888946533203125e+01 -1.319518661499023438e+01 -1.222945600748062134e-01 5.072419643402099609e+00 1.485037565231323242e+00 -1.723725646734237671e-01
2.569000000000000000e+03 7.267491149902343750e+01 -1.145760250091552734e+01 -2.082274854183197021e-01 6.131082534790039062e+00 1.776856541633605957e+00 -2.578048408031463623e-01
2.570000000000000000e+03 7.422073364257812500e+01 -1.663095092773437500e+01 -4.973073601722717285e-01 7.042603969573974609e+00 1.963588953018188477e+00 -2.343392968177795410e-01
2.571000000000000000e+03 6.377660274505615234e+00 -1.030226135253906250e+01 -2.241470647277310491e-04 -5.301174041960621253e-07 -6.740315438946709037e-05 -9.946714271791279316e-05
2.572000000000000000e+03 3.949841690063476562e+01 2.718406295776367188e+01 -1.372738927602767944e-02 6.179206371307373047e-01 1.812579631805419922e-01 -9.811296127736568451e-03
2.573000000000000000e+03 3.645448303222656250e+01 2.343618202209472656e+01 5.934434756636619568e-02 6.323004961013793945e-01 2.074934542179107666e-01 -9.035301953554153442e-02
2.574000000000000000e+03 4.025444030761718750e+01 -1.597401261329650879e+00 2.442941963672637939e-01 6.796024441719055176e-01 2.771689891815185547e-01 -3.136365413665771484e-01
2.575000000000000000e+03 8.237289428710937500e+00 1.571944046020507812e+01 5.022413656115531921e-02 -2.315934598445892334e-01 -5.441079661250114441e-02 9.683362394571304321e-02
2.576000000000000000e+03 3.751954650878906250e+01 2.428997039794921875e+00 2.396029531955718994e-01 6.679772138595581055e-01 2.722740471363067627e-01 -1.987751424312591553e-01
2.577000000000000000e+03 3.848140716552734375e+01 6.164554119110107422e+00 3.221779167652130127e-01 9.175478219985961914e-01 3.719177246093750000e-01 -2.344744354486465454e-01
2.578000000000000000e+03 1.051742267608642578e+01 -1.099748134613037109e+01 2.515508094802498817e-04 1.191670071420958266e-05 7.904025551397353411e-05 -4.366708890302106738e-05
2.579000000000000000e+03 6.577739238739013672e+00 9.007051467895507812e+00 2.163186203688383102e-03 -1.767386496067047119e-01 -5.237263813614845276e-02 1.377281248569488525e-01
2.580000000000000000e+03 9.183092117309570312e+00 7.585681438446044922e+00 -6.496987305581569672e-03 -1.952197253704071045e-01 -6.051501631736755371e-02 1.780838668346405029e-01
2.581000000000000000e+03 4.536556625366210938e+01 -3.345513534545898438e+01 1.856110543012619019e-01 -1.578813195228576660e-01 8.318922482430934906e-03 2.884037196636199951e-01
2.582000000000000000e+03 4.979557037353515625e+01 -3.237702941894531250e+01 5.714899897575378418e-01 7.890576720237731934e-01 4.081642925739288330e-01 5.496261715888977051e-01
2.583000000000000000e+03 1.193987655639648438e+01 2.941717147827148438e+01 2.614221163094043732e-02 -1.410395056009292603e-01 -3.446918725967407227e-02 -1.099216565489768982e-02
2.584000000000000000e+03 1.004592990875244141e+01 -1.035652446746826172e+01 -1.206286033266223967e-04 5.137114203535020351e-05 -2.077723911497741938e-05 -1.698391315585467964e-05
2.585000000000000000e+03 1.102914047241210938e+01 -8.296057701110839844e+00 -1.412367564626038074e-04 1.300337953580310568e-05 -3.847001426038332283e-05 -9.854175004875287414e-06
2.586000000000000000e+03 6.922342681884765625e+01 -1.777439498901367188e+01 1.901392042636871338e-01 2.862979888916015625e+00 9.159356951713562012e-01 -1.019210219383239746e+00
2.587000000000000000e+03 7.165973663330078125e+01 -1.893087768554687500e+01 -8.414199352264404297e-01 6.053620815277099609e+00 1.563660264015197754e+00 -1.156549692153930664e+00
2.588000000000000000e+03 7.409257888793945312e+00 1.218972778320312500e+01 3.303717821836471558e-02 -2.154681682586669922e-01 -5.472929775714874268e-02 1.276023536920547485e-01
2.589000000000000000e+03 3.384425354003906250e+01 1.846787071228027344e+01 1.856140643358230591e-01 5.569497346878051758e-01 2.227691262960433960e-01 -1.661410182714462280e-01
2.590000000000000000e+03 3.538197708129882812e+01 1.664478683471679688e+01 2.157191485166549683e-01 6.828131675720214844e-01 2.695596814155578613e-01 -1.729453355073928833e-01
2.591000000000000000e+03 4.307353591918945312e+01 -7.830190658569335938e+00 4.207229912281036377e-01 4.506602287292480469e-01 2.614149749279022217e-01 -3.686655461788177490e-01
2.592000000000000000e+03 3.516334915161132812e+01 1.338174533843994141e+01 3.011804819107055664e-01 6.645662784576416016e-01 2.897240221500396729e-01 -2.007510662078857422e-01
2.593000000000000000e+03 6.936220550537109375e+01 -1.606915664672851562e+01 2.547599375247955322e-01 3.297153711318969727e+00 1.065574049949645996e+00 -3.721984624862670898e-01
2.594000000000000000e+03 5.249528884887695312e+01 -2.720763587951660156e+01 1.040297150611877441e+00 1.423479914665222168e+00 7.391331195831298828e-01 -5.973189696669578552e-02
2.595000000000000000e+03 4.154346084594726562e+01 -1.271000003814697266e+01 1.306658703833818436e-02 -5.622938740998506546e-03 2.233094535768032074e-03 1.405497491359710693e-01
2.596000000000000000e+03 9.278761863708496094e+00 2.840155982971191406e+01 2.131118066608905792e-02 -2.056304216384887695e-01 -5.529577285051345825e-02 3.679441055282950401e-03
2.597000000000000000e+03 3.810577774047851562e+01 2.294911193847656250e+01 5.702795460820198059e-02 7.141135931015014648e-01 2.313424646854400635e-01 -4.799960181117057800e-02
2.598000000000000000e+03 3.676096343994140625e+01 2.764176940917968750e+01 -2.478131093084812164e-02 5.649311542510986328e-01 1.620449572801589966e-01 -6.445675343275070190e-02
2.599000000000000000e+03 1.079866695404052734e+01 3.454052734375000000e+01 3.486110363155603409e-03 -1.556734740734100342e-01 -4.565621167421340942e-02 -1.077012252062559128e-02
2.600000000000000000e+03 7.131273269653320312e+00 2.662892913818359375e+01 1.866340264678001404e-02 -2.571829855442047119e-01 -7.155587524175643921e-02 1.173678133636713028e-02
2.601000000000000000e+03 3.502742004394531250e+01 6.953402996063232422e+00 3.240580856800079346e-01 5.566258430480957031e-01 2.642051577568054199e-01 -1.501343250274658203e-01
2.602000000000000000e+03 1.395852088928222656e+01 -8.810149192810058594e+00 1.611842453712597489e-04 4.006113158538937569e-05 6.037361163180321455e-05 -5.830211739521473646e-05
2.603000000000000000e+03 3.023944664001464844e+01 -1.103101158142089844e+01 -3.110974729061126709e-01 -1.051289886236190796e-01 -1.248679384589195251e-01 3.950855135917663574e-01
2.604000000000000000e+03 1.101928234100341797e+01 -9.348171234130859375e+00 1.559521915623918176e-04 1.060079448507167399e-04 7.858804019633680582e-05 -1.374687485622416716e-06
2.605000000000000000e+03 1.173038101196289062e+01 -7.351026535034179688e+00 -4.392442860989831388e-05 -1.731176598696038127e-05 -1.837085801525972784e-05 -4.933524905936792493e-05
2.606000000000000000e+03 9.423749923706054688e+00 -6.482765674591064453e+00 2.035961369983851910e-04 1.473928023187909275e-05 6.550062971655279398e-05 -4.799092494067735970e-05
2.607000000000000000e+03 9.600207328796386719e+00 -9.665452957153320312e+00 2.206921781180426478e-04 -5.862309262738563120e-05 4.862072455580346286e-05 -4.319410072639584541e-05
2.608000000000000000e+03 4.911557769775390625e+01 -2.705673027038574219e+01 5.759418010711669922e-01 1.856703460216522217e-01 2.284836471080780029e-01 -4.565977752208709717e-01
2.609000000000000000e+03 8.731852531433105469e+00 6.797861099243164062e+00 -2.549903653562068939e-02 -1.792173087596893311e-01 -6.141490489244461060e-02 1.770258396863937378e-01
2.610000000000000000e+03 3.216251373291015625e+01 -1.208764362335205078e+01 -3.309486806392669678e-01 -8.741783350706100464e-02 -1.255099624395370483e-01 4.053304195404052734e-01
2.611000000000000000e+03 3.242879104614257812e+01 -9.550816535949707031e+00 -2.001574039459228516e-01 -6.018209084868431091e-02 -7.810185104608535767e-02 3.357999026775360107e-01
2.612000000000000000e+03 2.922998046875000000e+01 -7.760142803192138672e+00 -2.419488131999969482e-01 -1.090280041098594666e-01 -1.052930429577827454e-01 3.176876604557037354e-01
2.613000000000000000e+03 2.778827476501464844e+01 -6.937309741973876953e+00 -2.610125243663787842e-01 -1.612816154956817627e-01 -1.266882419586181641e-01 3.074146807193756104e-01
2.614000000000000000e+03 2.721498870849609375e+01 -4.658871173858642578e+00 -1.958714574575424194e-01 -1.654136627912521362e-01 -1.083855330944061279e-01 2.384860515594482422e-01
2.615000000000000000e+03 4.297154617309570312e+01 -1.469355487823486328e+01 -3.121733963489532471e-01 5.296287313103675842e-02 -7.776315510272979736e-02 3.525913953781127930e-01
2.616000000000000000e+03 2.881576919555664062e+01 -7.157759666442871094e+00 -2.360918670892715454e-01 -1.158548668026924133e-01 -1.055840253829956055e-01 3.037747144699096680e-01
2.617000000000000000e+03 1.660621452331542969e+01 5.573728561401367188e+00 2.278565242886543274e-02 -3.050998747348785400e-01 -8.469426631927490234e-02 1.837204247713088989e-01
2.618000000000000000e+03 4.449340820312500000e+01 -1.453784179687500000e+01 -7.577443867921829224e-02 5.486948788166046143e-02 -6.271484773606061935e-03 3.623332977294921875e-01
2.619000000000000000e+03 1.263141918182373047e+01 -8.953804016113281250e+00 1.291332446271553636e-04 1.048046615323983133e-04 7.018136966507881880e-05 -6.758784729754552245e-05
2.620000000000000000e+03 2.911700439453125000e+01 -8.825970649719238281e+00 -2.757585048675537109e-01 -1.225743740797042847e-01 -1.194998696446418762e-01 3.528088629245758057e-01
2.621000000000000000e+03 3.065521240234375000e+01 -9.302954673767089844e+00 -2.350663244724273682e-01 -7.939251512289047241e-02 -9.433765709400177002e-02 3.554627299308776855e-01
2.622000000000000000e+03 1.833567619323730469e+01 2.780016183853149414e+00 -6.319974362850189209e-02 -3.471690118312835693e-01 -1.231106296181678772e-01 2.078520506620407104e-01
2.623000000000000000e+03 1.833938598632812500e+01 3.826444864273071289e+00 -1.215987652540206909e-02 -3.294731378555297852e-01 -1.024899110198020935e-01 1.876791566610336304e-01
2.624000000000000000e+03 3.659524917602539062e+01 -1.266292285919189453e+01 -2.538040578365325928e-01 -1.492161154747009277e-01 -1.209060475230216980e-01 3.433677852153778076e-01
2.625000000000000000e+03 2.650356674194335938e+01 -3.396113634109497070e+00 -1.653827875852584839e-01 -1.866540461778640747e-01 -1.056110486388206482e-01 2.076542079448699951e-01
2.626000000000000000e+03 2.087406349182128906e+01 8.365222811698913574e-01 -1.088667958974838257e-01 -3.510175943374633789e-01 -1.379653215408325195e-01 2.033988237380981445e-01
2.627000000000000000e+03 2.447193717956542969e+01 7.957178354263305664e-01 -2.867081947624683380e-02 -2.213925123214721680e-01 -7.501900196075439453e-02 1.295863986015319824e-01
2.628000000000000000e+03 2.403100204467773438e+01 -2.049839973449707031e+00 -1.847850680351257324e-01 -2.948303520679473877e-01 -1.438846290111541748e-01 2.121818214654922485e-01
2.629000000000000000e+03 2.427465820312500000e+01 -9.192630052566528320e-01 -1.160919964313507080e-01 -2.576320171356201172e-01 -1.121172085404396057e-01 1.760734170675277710e-01
2.630000000000000000e+03 2.578954505920410156e+01 -3.748088598251342773e+00 -2.092646062374114990e-01 -2.307693213224411011e-01 -1.320101767778396606e-01 2.313022762537002563e-01
2.631000000000000000e+03 2.759944725036621094e+01 -5.283252716064453125e+00 -2.138917446136474609e-01 -1.545999795198440552e-01 -1.105475202202796936e-01 2.555176019668579102e-01
2.632000000000000000e+03 1.959088134765625000e+01 1.783479690551757812e+00 -8.737602829933166504e-02 -3.545453846454620361e-01 -1.325764209032058716e-01 2.071820199489593506e-01
2.633000000000000000e+03 1.774205970764160156e+01 4.353589534759521484e+00 -3.667797427624464035e-03 -3.238889873027801514e-01 -9.826703369617462158e-02 1.865573525428771973e-01
2.634000000000000000e+03 1.578197669982910156e+01 4.894592285156250000e+00 -1.086364127695560455e-02 -3.097216784954071045e-01 -9.617559611797332764e-02 2.043842822313308716e-01
2.635000000000000000e+03 1.063131809234619141e+01 6.352602958679199219e+00 -2.491311728954315186e-02 -2.140373438596725464e-01 -7.168514281511306763e-02 1.992174685001373291e-01
2.636000000000000000e+03 2.511290550231933594e+01 -2.332131624221801758e+00 -1.636515557765960693e-01 -2.410767078399658203e-01 -1.214184761047363281e-01 1.999326199293136597e-01
2.637000000000000000e+03 8.230822563171386719e+00 -6.859089851379394531e+00 3.735215796041302383e-05 1.317777059739455581e-04 5.073895954410545528e-05 1.482611842220649123e-04
2.638000000000000000e+03 2.617735671997070312e+01 -2.723117589950561523e+00 -1.523729711771011353e-01 -1.932667642831802368e-01 -1.036919206380844116e-01 1.945853978395462036e-01
2.639000000000000000e+03 2.587913894653320312e+01 -1.979994058609008789e+00 -1.207117438316345215e-01 -1.986547261476516724e-01 -9.580994397401809692e-02 1.764711141586303711e-01
2.640000000000000000e+03 1.097836875915527344e+01 -7.318942070007324219e+00 1.853461435530334711e-04 2.243865492346230894e-05 6.233543535927310586e-05 4.952759263687767088e-05
2.641000000000000000e+03 2.245410919189453125e+01 2.566808760166168213e-01 -1.005255281925201416e-01 -3.080438971519470215e-01 -1.225708201527595520e-01 1.825911998748779297e-01
2.642000000000000000e+03 1.952027702331542969e+01 2.800246953964233398e+00 -3.728405758738517761e-02 -3.357046544551849365e-01 -1.118966117501258850e-01 1.848237216472625732e-01
2.643000000000000000e+03 9.886430740356445312e+00 -1.166480445861816406e+01 -2.063013816950842738e-04 -6.845777988928603008e-07 -6.209578714333474636e-05 9.351407061330974102e-05
2.644000000000000000e+03 2.260236358642578125e+01 1.598100185394287109e+00 -3.713557869195938110e-02 -2.837139964103698730e-01 -9.625487029552459717e-02 1.505692303180694580e-01
2.645000000000000000e+03 1.538132286071777344e+01 6.212339878082275391e+00 2.742809988558292389e-02 -2.933291494846343994e-01 -7.977031916379928589e-02 1.890042126178741455e-01
2.646000000000000000e+03 4.152781295776367188e+01 -6.936268329620361328e+00 3.377196788787841797e-01 3.945070505142211914e-01 2.196680158376693726e-01 -2.805697321891784668e-01
2.647000000000000000e+03 4.632222747802734375e+01 -1.333946418762207031e+01 6.956447362899780273e-01 1.133479103446006775e-01 2.426978051662445068e-01 -1.253470499068498611e-02
2.648000000000000000e+03 4.098736190795898438e+01 -5.809343338012695312e+00 2.775722742080688477e-01 4.448325037956237793e-01 2.167214304208755493e-01 -2.794724702835083008e-01
2.649000000000000000e+03 1.383998298645019531e+01 6.246833324432373047e+00 3.639475675299763680e-03 -2.751494050025939941e-01 -8.145298063755035400e-02 1.998981535434722900e-01
2.650000000000000000e+03 3.465317535400390625e+01 -1.102278995513916016e+01 -1.973082274198532104e-01 -8.567323535680770874e-02 -8.489444106817245483e-02 3.402403593063354492e-01
2.651000000000000000e+03 4.750304412841796875e+01 -3.044453048706054688e+01 3.514113426208496094e-01 4.006532579660415649e-02 1.174429953098297119e-01 6.788074970245361328e-02
2.652000000000000000e+03 1.211550617218017578e+01 -9.785661697387695312e+00 -1.423762878403067589e-04 -1.481949584558606148e-04 -8.717137825442478061e-05 6.970799586270004511e-05
2.653000000000000000e+03 4.017056274414062500e+01 -3.567579269409179688e+00 2.361601144075393677e-01 5.447226762771606445e-01 2.342648357152938843e-01 -2.773107290267944336e-01
2.654000000000000000e+03 3.847261428833007812e+01 -1.168591260910034180e+00 2.203706949949264526e-01 5.688893795013427734e-01 2.367780059576034546e-01 -2.249370068311691284e-01
2.655000000000000000e+03 4.285660552978515625e+01 -1.368592548370361328e+01 -3.671840205788612366e-02 2.888575568795204163e-02 -2.349794609472155571e-03 1.962487548589706421e-01
2.656000000000000000e+03 4.208092117309570312e+01 -1.487189388275146484e+01 -3.862589895725250244e-01 2.111865021288394928e-02 -1.095421016216278076e-01 3.045741617679595947e-01
2.657000000000000000e+03 5.171971130371093750e+01 -2.752749633789062500e+01 1.027131080627441406e+00 1.018734335899353027e+00 6.137595772743225098e-01 -2.581743523478507996e-02
2.658000000000000000e+03 3.716495513916015625e+01 -1.186695003509521484e+01 -1.643619090318679810e-01 -1.154280528426170349e-01 -8.393698930740356445e-02 2.802754640579223633e-01
2.659000000000000000e+03 3.762050247192382812e+01 -1.325266361236572266e+01 -3.100948631763458252e-01 -1.749910861253738403e-01 -1.455257833003997803e-01 3.168187439441680908e-01
2.660000000000000000e+03 4.956475067138671875e+01 -3.052795410156250000e+01 7.099406123161315918e-01 5.579254031181335449e-01 3.803597986698150635e-01 2.476801127195358276e-01
2.661000000000000000e+03 3.960132980346679688e+01 -7.920485734939575195e-01 2.175568491220474243e-01 6.673753857612609863e-01 2.654796540737152100e-01 -2.898398339748382568e-01
2.662000000000000000e+03 3.725141906738281250e+01 -1.077369451522827148e+00 2.013423293828964233e-01 4.808444976806640625e-01 2.046560496091842651e-01 -1.509617269039154053e-01
2.663000000000000000e+03 2.023525428771972656e+01 1.304575324058532715e+00 -1.012230813503265381e-01 -3.538533151149749756e-01 -1.365229189395904541e-01 2.041196823120117188e-01
2.664000000000000000e+03 3.743052291870117188e+01 -1.104898166656494141e+01 -6.084956601262092590e-02 -7.304210960865020752e-02 -4.016750305891036987e-02 2.301864027976989746e-01
2.665000000000000000e+03 3.546714401245117188e+01 -1.072141933441162109e+01 -1.387595087289810181e-01 -7.685622572898864746e-02 -6.468471884727478027e-02 3.003972768783569336e-01
2.666000000000000000e+03 7.288829040527343750e+01 -1.637424659729003906e+01 -4.684117734432220459e-01 6.271482467651367188e+00 1.740921139717102051e+00 -4.575725495815277100e-01
2.667000000000000000e+03 4.089195251464843750e+01 -1.411246776580810547e+01 -2.938684523105621338e-01 -5.896938219666481018e-02 -1.058513522148132324e-01 2.392974793910980225e-01
2.668000000000000000e+03 1.425081253051757812e+01 5.707645416259765625e+00 -6.138081196695566177e-03 -2.836845517158508301e-01 -8.694678544998168945e-02 2.054636627435684204e-01
2.669000000000000000e+03 1.174574470520019531e+01 6.706476688385009766e+00 -2.177310176193714142e-03 -2.413813769817352295e-01 -7.306760549545288086e-02 1.999428421258926392e-01
2.670000000000000000e+03 7.489344120025634766e+00 8.515150070190429688e+00 8.459410746581852436e-04 -1.796939373016357422e-01 -5.365439876914024353e-02 1.523759067058563232e-01
2.671000000000000000e+03 4.782065200805664062e+01 -2.694064140319824219e+01 3.117221891880035400e-01 -1.094618737697601318e-01 6.067809462547302246e-02 -5.880249142646789551e-01
2.672000000000000000e+03 4.732700729370117188e+01 -2.753516387939453125e+01 2.600311636924743652e-01 -2.091694176197052002e-01 1.525852084159851074e-02 -4.861816167831420898e-01
2.673000000000000000e+03 8.269085884094238281e+00 1.192841148376464844e+01 4.084447771310806274e-02 -2.193984240293502808e-01 -5.356618389487266541e-02 1.349496692419052124e-01
2.674000000000000000e+03 3.613334655761718750e+01 4.705639362335205078e+00 2.777893543243408203e-01 6.028795838356018066e-01 2.642006874084472656e-01 -1.592864394187927246e-01
2.675000000000000000e+03 3.365140151977539062e+01 -1.006045436859130859e+01 -1.735182106494903564e-01 -6.083253026008605957e-02 -7.030522078275680542e-02 3.302221298217773438e-01
2.676000000000000000e+03 7.481333255767822266e+00 -7.981314659118652344e+00 1.172301344922743738e-04 2.534210034355055541e-05 4.277166954125277698e-05 1.270275388378649950e-04
2.677000000000000000e+03 7.415426254272460938e+00 -1.025136280059814453e+01 2.426949067739769816e-04 -1.103988961403956637e-05 6.949650560272857547e-05 1.102102032746188343e-04
2.678000000000000000e+03 4.352383041381835938e+01 -9.085887908935546875e+00 4.280063211917877197e-01 3.872906565666198730e-01 2.445890903472900391e-01 -3.382783830165863037e-01
2.679000000000000000e+03 4.046466445922851562e+01 -1.088554859161376953e+01 1.395886391401290894e-01 2.135499939322471619e-02 4.828308895230293274e-02 6.002119556069374084e-02
2.680000000000000000e+03 1.071896076202392578e+01 2.628384017944335938e+01 3.776788711547851562e-02 -1.798518002033233643e-01 -4.262517392635345459e-02 7.884478196501731873e-03
2.681000000000000000e+03 1.079808902740478516e+01 2.755857086181640625e+01 3.060805052518844604e-02 -1.718100309371948242e-01 -4.236059263348579407e-02 2.860935637727379799e-04
2.682000000000000000e+03 1.042536449432373047e+01 7.811296463012695312e+00 9.052543900907039642e-03 -2.193832397460937500e-01 -6.309920549392700195e-02 1.856178045272827148e-01
2.683000000000000000e+03 3.800272369384765625e+01 1.255676150321960449e+00 2.349981665611267090e-01 6.614193916320800781e-01 2.689252793788909912e-01 -2.148542404174804688e-01
2.684000000000000000e+03 3.866551589965820312e+01 2.885371923446655273e+00 2.633404731750488281e-01 8.055111169815063477e-01 3.206554651260375977e-01 -2.534133791923522949e-01
2.685000000000000000e+03 7.233530044555664062e+00 1.064610004425048828e+01 2.078959345817565918e-02 -2.019983232021331787e-01 -5.436262115836143494e-02 1.391674429178237915e-01
2.686000000000000000e+03 8.557586669921875000e+00 1.705135154724121094e+01 5.315598100423812866e-02 -2.318042963743209839e-01 -5.359449610114097595e-02 8.394538611173629761e-02
2.687000000000000000e+03 7.011004638671875000e+01 -1.460222911834716797e+01 3.663532808423042297e-02 4.296415328979492188e+00 1.299915313720703125e+00 -2.530533075332641602e-01
2.688000000000000000e+03 8.781298637390136719e+00 2.235834503173828125e+01 4.466437920928001404e-02 -2.269058674573898315e-01 -5.467244610190391541e-02 3.711542114615440369e-02
2.689000000000000000e+03 7.571181297302246094e+00 2.047874450683593750e+01 3.844831883907318115e-02 -2.448444068431854248e-01 -6.191882491111755371e-02 5.154413729906082153e-02
2.690000000000000000e+03 1.102914714813232422e+01 8.617602348327636719e+00 2.976155839860439301e-02 -2.313006520271301270e-01 -6.046172603964805603e-02 1.782358437776565552e-01
2.691000000000000000e+03 3.550668716430664062e+01 2.590552330017089844e+01 1.743431575596332550e-02 5.564857721328735352e-01 1.721760183572769165e-01 -9.513252973556518555e-02
2.692000000000000000e+03 4.245496749877929688e+01 -9.319779396057128906e+00 3.818753063678741455e-01 2.562281191349029541e-01 1.914310306310653687e-01 -2.196511477231979370e-01
2.693000000000000000e+03 1.324907493591308594e+01 -8.285120964050292969e+00 -8.749442349653691053e-05 -1.014121007756330073e-04 -5.667195728165097535e-05 7.456249295501038432e-05
2.694000000000000000e+03 7.226167297363281250e+01 -1.406119823455810547e+01 -2.543444633483886719e-01 5.740184307098388672e+00 1.645751953125000000e+00 -3.767705857753753662e-01
2.695000000000000000e+03 3.359886932373046875e+01 1.360279941558837891e+01 2.921490371227264404e-01 5.250861644744873047e-01 2.451705634593963623e-01 -1.803257316350936890e-01
2.696000000000000000e+03 3.450933074951171875e+01 1.024173641204833984e+01 3.414572477340698242e-01 5.641577243804931641e-01 2.716844975948333740e-01 -1.783764213323593140e-01
2.697000000000000000e+03 4.208322525024414062e+01 -8.065809249877929688e+00 3.358018100261688232e-01 3.543456196784973145e-01 2.070442289113998413e-01 -2.709015011787414551e-01
2.698000000000000000e+03 4.060008239746093750e+01 -9.172730445861816406e+00 2.216925323009490967e-01 1.457734853029251099e-01 1.102398037910461426e-01 -6.456761062145233154e-02
2.699000000000000000e+03 8.652101516723632812e+00 1.281206130981445312e+01 4.814397543668746948e-02 -2.225740253925323486e-01 -5.232901498675346375e-02 1.283622831106185913e-01
2.700000000000000000e+03 3.528266525268554688e+01 1.501190853118896484e+01 2.532856464385986328e-01 6.849089264869689941e-01 2.814583778381347656e-01 -1.859219074249267578e-01
2.701000000000000000e+03 3.397379302978515625e+01 2.022083854675292969e+01 1.412861049175262451e-01 5.547535419464111328e-01 2.088118791580200195e-01 -1.505724340677261353e-01
2.702000000000000000e+03 3.377130889892578125e+01 1.679606819152832031e+01 2.210679501295089722e-01 5.572825074195861816e-01 2.335051447153091431e-01 -1.753065437078475952e-01
2.703000000000000000e+03 8.503026008605957031e+00 2.740832519531250000e+01 2.109727263450622559e-02 -2.270483970642089844e-01 -6.178533658385276794e-02 8.458354510366916656e-03
2.704000000000000000e+03 9.838061332702636719e+00 2.736918067932128906e+01 2.692953310906887054e-02 -1.926931589841842651e-01 -4.972908645868301392e-02 6.697201170027256012e-03
2.705000000000000000e+03 3.544542312622070312e+01 8.316389083862304688e+00 3.420573174953460693e-01 6.180667281150817871e-01 2.880372107028961182e-01 -1.786691099405288696e-01
2.706000000000000000e+03 4.867352294921875000e+01 -3.317768859863281250e+01 4.110323488712310791e-01 6.475939750671386719e-01 3.175879120826721191e-01 4.921116232872009277e-01
2.707000000000000000e+03 3.626422500610351562e+01 6.537511825561523438e+00 3.288018107414245605e-01 6.837019324302673340e-01 3.037511110305786133e-01 -1.780226528644561768e-01
2.708000000000000000e+03 9.596369743347167969e+00 2.333473968505859375e+01 4.597378522157669067e-02 -2.088131755590438843e-01 -4.885181784629821777e-02 2.726930379867553711e-02
2.709000000000000000e+03 3.116637802124023438e+01 -1.084619808197021484e+01 -2.910208702087402344e-01 -9.128161519765853882e-02 -1.146907433867454529e-01 3.907904922962188721e-01
2.710000000000000000e+03 1.198655605316162109e+01 -8.146845817565917969e+00 -1.135213915404165164e-05 -7.967271812958642840e-05 -2.730745654844213277e-05 2.013105586229357868e-05
2.711000000000000000e+03 2.070579147338867188e+01 1.854510188102722168e+00 -5.785804241895675659e-02 -3.314430415630340576e-01 -1.167903244495391846e-01 1.827298849821090698e-01
2.712000000000000000e+03 3.828454589843750000e+01 -1.139156055450439453e+01 -4.927597567439079285e-02 -6.462690234184265137e-02 -3.417086228728294373e-02 1.912086308002471924e-01
2.713000000000000000e+03 8.964893341064453125e+00 -7.072623729705810547e+00 -1.337568828603252769e-04 -1.120859669754281640e-04 -7.375285349553450942e-05 4.959768193657509983e-05
2.714000000000000000e+03 4.389956665039062500e+01 -1.294141864776611328e+01 2.119824737310409546e-01 8.187948912382125854e-02 8.815859258174896240e-02 6.493345648050308228e-02
2.715000000000000000e+03 4.457875442504882812e+01 -1.141800880432128906e+01 4.795873761177062988e-01 2.553299069404602051e-01 2.204751968383789062e-01 -2.012947350740432739e-01
2.716000000000000000e+03 2.799992179870605469e+01 -5.909610748291015625e+00 -2.182159274816513062e-01 -1.406072974205017090e-01 -1.076469719409942627e-01 2.718952596187591553e-01
2.717000000000000000e+03 2.755550193786621094e+01 -3.709506988525390625e+00 -1.467572003602981567e-01 -1.347146034240722656e-01 -8.444154262542724609e-02 2.026619315147399902e-01
2.718000000000000000e+03 2.977971076965332031e+01 -7.340392112731933594e+00 -2.112310826778411865e-01 -8.136235177516937256e-02 -8.777803182601928711e-02 2.991636097431182861e-01
2.719000000000000000e+03 2.967571640014648438e+01 -8.307353019714355469e+00 -2.377828210592269897e-01 -9.585914760828018188e-02 -1.000925898551940918e-01 3.342995047569274902e-01
2.720000000000000000e+03 4.062100982666015625e+01 -1.311640644073486328e+01 -1.582968831062316895e-01 -6.796348094940185547e-02 -6.787810474634170532e-02 2.043202668428421021e-01
2.721000000000000000e+03 2.840804672241210938e+01 -6.536750793457031250e+00 -2.333567142486572266e-01 -1.296037286520004272e-01 -1.088881343603134155e-01 2.888567149639129639e-01
2.722000000000000000e+03 1.792732429504394531e+01 5.449441432952880859e+00 3.947043046355247498e-02 -3.048381507396697998e-01 -7.961031794548034668e-02 1.644129604101181030e-01
2.723000000000000000e+03 3.303100967407226562e+01 -1.121269798278808594e+01 -2.630676329135894775e-01 -8.567181229591369629e-02 -1.046218276023864746e-01 3.834859728813171387e-01
2.724000000000000000e+03 3.382558441162109375e+01 -1.115865993499755859e+01 -2.297994941473007202e-01 -8.876280486583709717e-02 -9.556869417428970337e-02 3.613664209842681885e-01
2.725000000000000000e+03 2.542192459106445312e+01 8.208613395690917969e-01 -6.970541551709175110e-03 -1.753021180629730225e-01 -5.468180030584335327e-02 1.149851232767105103e-01
2.726000000000000000e+03 2.723626518249511719e+01 -3.085319280624389648e+00 -1.365825086832046509e-01 -1.439639627933502197e-01 -8.416394144296646118e-02 1.909891813993453979e-01
2.727000000000000000e+03 1.749489402770996094e+01 6.082367420196533203e+00 5.805699899792671204e-02 -2.951194047927856445e-01 -7.111872732639312744e-02 1.605453342199325562e-01
2.728000000000000000e+03 1.893873214721679688e+01 3.309983968734741211e+00 -2.920035645365715027e-02 -3.330863714218139648e-01 -1.086860224604606628e-01 1.859809458255767822e-01
2.729000000000000000e+03 1.899015235900878906e+01 4.353003501892089844e+00 1.887817494571208954e-02 -3.133162260055541992e-01 -8.833141624927520752e-02 1.649779230356216431e-01
2.730000000000000000e+03 2.789489173889160156e+01 -4.322494029998779297e+00 -1.666036844253540039e-01 -1.276044249534606934e-01 -8.826243132352828979e-02 2.196805924177169800e-01
2.731000000000000000e+03 2.829196929931640625e+01 -3.420629024505615234e+00 -1.192926391959190369e-01 -9.509755671024322510e-02 -6.431706249713897705e-02 1.866616308689117432e-01
2.732000000000000000e+03 2.927301216125488281e+01 -5.187296867370605469e+00 -1.441549062728881836e-01 -7.418260723352432251e-02 -6.550125032663345337e-02 2.290465235710144043e-01
2.733000000000000000e+03 2.475872993469238281e+01 -1.542495846748352051e+00 -1.278886049985885620e-01 -2.473829984664916992e-01 -1.125814765691757202e-01 1.829952150583267212e-01
2.734000000000000000e+03 2.559217834472656250e+01 -1.130301952362060547e+00 -9.527528285980224609e-02 -1.981423050165176392e-01 -8.802527189254760742e-02 1.605453491210937500e-01
2.735000000000000000e+03 2.668323707580566406e+01 -1.715832471847534180e+00 -9.394826740026473999e-02 -1.506185382604598999e-01 -7.337003946304321289e-02 1.587454676628112793e-01
2.736000000000000000e+03 1.843528747558593750e+01 4.884343624114990234e+00 3.159255906939506531e-02 -3.103476464748382568e-01 -8.362652361392974854e-02 1.666340380907058716e-01
2.737000000000000000e+03 3.945116424560546875e+01 -4.899822235107421875e+00 2.276210188865661621e-01 4.005049467086791992e-01 1.884377896785736084e-01 -1.970126479864120483e-01
2.738000000000000000e+03 3.991500854492187500e+01 -6.952701568603515625e+00 2.495384216308593750e-01 2.841737270355224609e-01 1.601136475801467896e-01 -1.463916450738906860e-01
2.739000000000000000e+03 4.056569671630859375e+01 -4.673557758331298828e+00 2.741261720657348633e-01 4.992204904556274414e-01 2.320040017366409302e-01 -2.854468524456024170e-01
2.740000000000000000e+03 8.419277191162109375e+00 -9.407603263854980469e+00 3.038233553525060415e-04 3.499527156236581504e-05 1.016455862554721534e-04 5.113263614475727081e-05
2.741000000000000000e+03 2.543914985656738281e+01 -1.573425829410552979e-01 -4.644107446074485779e-02 -1.876102387905120850e-01 -7.021538913249969482e-02 1.369314044713973999e-01
2.742000000000000000e+03 2.350527381896972656e+01 1.069378972053527832e+00 -3.883350640535354614e-02 -2.596912682056427002e-01 -8.955743163824081421e-02 1.457314342260360718e-01
2.743000000000000000e+03 2.205585861206054688e+01 8.969131112098693848e-01 -7.574767619371414185e-02 -3.154255449771881104e-01 -1.173519641160964966e-01 1.745379865169525146e-01
2.744000000000000000e+03 7.836372375488281250e+00 9.337591171264648438e+00 1.218760851770639420e-02 -1.945083737373352051e-01 -5.469622835516929626e-02 1.514679491519927979e-01
2.745000000000000000e+03 1.809839439392089844e+01 7.186998844146728516e+00 9.673511981964111328e-02 -2.733193635940551758e-01 -5.297526717185974121e-02 1.345403194427490234e-01
2.746000000000000000e+03 3.907010650634765625e+01 -3.756123542785644531e+00 2.304286211729049683e-01 4.472895860671997070e-01 2.033154666423797607e-01 -2.109101861715316772e-01
2.747000000000000000e+03 4.957832717895507812e+01 -2.789100837707519531e+01 6.935896277427673340e-01 3.212869763374328613e-01 3.044629693031311035e-01 -2.589305937290191650e-01
2.748000000000000000e+03 2.943619537353515625e+01 -6.760618686676025391e+00 -2.072905004024505615e-01 -9.141769260168075562e-02 -8.961245417594909668e-02 2.862930297851562500e-01
2.749000000000000000e+03 3.834569931030273438e+01 -8.347261428833007812e+00 1.364094167947769165e-01 1.071166396141052246e-01 7.305781543254852295e-02 2.978244982659816742e-02
2.750000000000000000e+03 3.357662582397460938e+01 -9.053799629211425781e+00 -1.294727325439453125e-01 -3.610358014702796936e-02 -4.967289417982101440e-02 2.887585759162902832e-01
2.751000000000000000e+03 3.949748611450195312e+01 -1.253896427154541016e+01 -1.318465322256088257e-01 -9.565956890583038330e-02 -6.825183331966400146e-02 2.072958201169967651e-01
2.752000000000000000e+03 3.795203018188476562e+01 -1.228918552398681641e+01 -1.569566279649734497e-01 -1.309764683246612549e-01 -8.637993037700653076e-02 2.745988667011260986e-01
2.753000000000000000e+03 1.627581977844238281e+01 6.398456096649169922e+00 4.606550931930541992e-02 -2.934905290603637695e-01 -7.422751188278198242e-02 1.754454523324966431e-01
2.754000000000000000e+03 2.124781990051269531e+01 3.103261232376098633e+00 1.086403150111436844e-02 -2.927035391330718994e-01 -8.455185592174530029e-02 1.449735313653945923e-01
2.755000000000000000e+03 3.871875762939453125e+01 -2.495799541473388672e+00 2.098826020956039429e-01 5.054134130477905273e-01 2.145887911319732666e-01 -2.135779857635498047e-01
2.756000000000000000e+03 8.937303543090820312e+00 -1.004609966278076172e+01 -1.812445698305964470e-04 8.319420885527506471e-05 -2.941510865639429539e-05 -4.966641427017748356e-05
2.757000000000000000e+03 1.001442337036132812e+01 -9.090033531188964844e+00 -1.005313461064361036e-04 -1.645298179937526584e-04 -7.951835141284391284e-05 4.191851985524408519e-05
2.758000000000000000e+03 4.119267272949218750e+01 -8.268855094909667969e+00 3.166786730289459229e-01 2.678437232971191406e-01 1.753567159175872803e-01 -1.913100332021713257e-01
2.759000000000000000e+03 3.167744827270507812e+01 -1.110640430450439453e+01 -2.880439758300781250e-01 -8.584297448396682739e-02 -1.121660843491554260e-01 3.922764062881469727e-01
2.760000000000000000e+03 1.109647083282470703e+01 7.175450801849365234e+00 5.044333520345389843e-04 -2.307018190622329712e-01 -6.905921548604965210e-02 1.944355964660644531e-01
2.761000000000000000e+03 8.459390640258789062e+00 1.070194435119628906e+01 3.143818303942680359e-02 -2.125297933816909790e-01 -5.432748422026634216e-02 1.488722264766693115e-01
2.762000000000000000e+03 4.846277999877929688e+01 -2.965567970275878906e+01 5.876510143280029297e-01 2.461643517017364502e-01 2.501446306705474854e-01 -3.481455519795417786e-02
2.763000000000000000e+03 4.758679580688476562e+01 -3.226134109497070312e+01 3.647378385066986084e-01 1.753164976835250854e-01 1.620163023471832275e-01 3.565441370010375977e-01
2.764000000000000000e+03 5.073293685913085938e+01 -3.148436927795410156e+01 8.590386509895324707e-01 1.114586710929870605e+00 5.920875668525695801e-01 4.671202898025512695e-01
2.765000000000000000e+03 5.070698928833007812e+01 -2.782977104187011719e+01 8.581914901733398438e-01 7.097970247268676758e-01 4.703965783119201660e-01 -1.861457228660583496e-01
2.766000000000000000e+03 1.472053432464599609e+01 6.336660861968994141e+00 2.001124061644077301e-02 -2.884596884250640869e-01 -8.053453266620635986e-02 1.939628869295120239e-01
2.767000000000000000e+03 3.728681182861328125e+01 -8.960477262735366821e-02 2.182563394308090210e-01 5.465838909149169922e-01 2.294520735740661621e-01 -1.806289106607437134e-01
2.768000000000000000e+03 3.100986862182617188e+01 -4.771322727203369141e+00 -7.728891819715499878e-02 6.319452542811632156e-03 -2.129083871841430664e-02 1.852829009294509888e-01
2.769000000000000000e+03 3.751101684570312500e+01 -2.894501447677612305e+00 1.923295259475708008e-01 4.129866659641265869e-01 1.815948635339736938e-01 -1.336266845464706421e-01
2.770000000000000000e+03 7.251560211181640625e+01 -1.524703979492187500e+01 -3.795122504234313965e-01 5.952090740203857422e+00 1.671773552894592285e+00 -4.532482922077178955e-01
2.771000000000000000e+03 7.034761810302734375e+01 -1.586654567718505859e+01 -6.750993430614471436e-02 4.325773715972900391e+00 1.277479171752929688e+00 -5.146257877349853516e-01
2.772000000000000000e+03 7.188517761230468750e+01 -1.698367309570312500e+01 -4.838804304599761963e-01 5.626851081848144531e+00 1.542891144752502441e+00 -7.205070257186889648e-01
2.773000000000000000e+03 1.004461860656738281e+01 -8.279618263244628906e+00 1.733638782752677798e-05 1.060548893292434514e-04 3.701738387462683022e-05 2.402583049843087792e-05
2.774000000000000000e+03 3.444249343872070312e+01 -9.975500106811523438e+00 -1.320176422595977783e-01 -5.573895201086997986e-02 -5.632697790861129761e-02 2.994562089443206787e-01
2.775000000000000000e+03 4.925615310668945312e+01 -2.883446502685546875e+01 7.020800113677978516e-01 3.296772539615631104e-01 3.095271885395050049e-01 -1.103639081120491028e-01
2.776000000000000000e+03 3.694208908081054688e+01 9.121422767639160156e-01 2.119799107313156128e-01 5.519471168518066406e-01 2.291781008243560791e-01 -1.676048934459686279e-01
2.777000000000000000e+03 3.829431533813476562e+01 7.644048333168029785e-02 2.105995416641235352e-01 6.364688873291015625e-01 2.541205286979675293e-01 -2.155360579490661621e-01
2.778000000000000000e+03 5.111549377441406250e+01 -3.350825500488281250e+01 3.961553871631622314e-01 1.474307656288146973e+00 5.611388683319091797e-01 6.408548951148986816e-01
2.779000000000000000e+03 9.722896575927734375e+00 1.042163085937500000e+01 3.910437971353530884e-02 -2.206000834703445435e-01 -5.444870889186859131e-02 1.574505418539047241e-01
2.780000000000000000e+03 9.061607360839843750e+00 1.389480590820312500e+01 5.571042746305465698e-02 -2.258720844984054565e-01 -5.104849860072135925e-02 1.181328296661376953e-01
2.781000000000000000e+03 8.861474990844726562e+00 1.844177436828613281e+01 5.310404300689697266e-02 -2.298734933137893677e-01 -5.303083360195159912e-02 7.046238332986831665e-02
2.782000000000000000e+03 9.204232215881347656e+00 1.990504074096679688e+01 5.363865941762924194e-02 -2.248503714799880981e-01 -5.136351287364959717e-02 5.645555257797241211e-02
2.783000000000000000e+03 1.116302394866943359e+01 1.578658580780029297e+01 8.296938240528106689e-02 -2.167526185512542725e-01 -4.013497009873390198e-02 9.369090944528579712e-02
2.784000000000000000e+03 1.026450634002685547e+01 1.779835700988769531e+01 6.904314458370208740e-02 -2.176046967506408691e-01 -4.456846415996551514e-02 7.516031712293624878e-02
2.785000000000000000e+03 7.440471649169921875e+00 2.206435966491699219e+01 3.515728190541267395e-02 -2.483993172645568848e-01 -6.397260725498199463e-02 4.044971615076065063e-02
2.786000000000000000e+03 8.779288291931152344e+00 9.015168190002441406e+00 1.579233072698116302e-02 -2.029453366994857788e-01 -5.614589899778366089e-02 1.639940291643142700e-01
2.787000000000000000e+03 4.188020706176757812e+01 -1.379738235473632812e+01 -1.877274811267852783e-01 5.216646939516067505e-03 -5.475325137376785278e-02 2.341437041759490967e-01
2.788000000000000000e+03 4.236674499511718750e+01 -1.215773296356201172e+01 1.277341246604919434e-01 6.280010193586349487e-02 5.716026574373245239e-02 5.650015175342559814e-02
2.789000000000000000e+03 3.970845031738281250e+01 -1.134094715118408203e+01 1.287020463496446609e-02 -2.378274686634540558e-02 -3.273762762546539307e-03 1.272599697113037109e-01
2.790000000000000000e+03 1.032135009765625000e+01 2.530512428283691406e+01 4.018785431981086731e-02 -1.880248636007308960e-01 -4.435110092163085938e-02 1.334885694086551666e-02
2.791000000000000000e+03 8.072371482849121094e+00 1.012760639190673828e+01 2.179602533578872681e-02 -2.040735036134719849e-01 -5.468324199318885803e-02 1.509061306715011597e-01
2.792000000000000000e+03 3.694050979614257812e+01 1.650992012023925781e+01 1.908347159624099731e-01 8.276077508926391602e-01 3.055327236652374268e-01 -1.504174321889877319e-01
2.793000000000000000e+03 8.273807525634765625e+00 -1.023818397521972656e+01 -2.050400362350046635e-04 3.605260303629620466e-07 -6.140385085018351674e-05 -5.387153942137956619e-05
2.794000000000000000e+03 3.906032943725585938e+01 -1.185077285766601562e+01 -3.407035768032073975e-02 -8.149766176939010620e-02 -3.467040508985519409e-02 1.944963335990905762e-01
2.795000000000000000e+03 4.287754821777343750e+01 -1.065269947052001953e+01 3.263756632804870605e-01 1.847652643918991089e-01 1.533422768115997314e-01 -1.215066462755203247e-01
2.796000000000000000e+03 3.212342071533203125e+01 1.860627174377441406e+01 1.883091032505035400e-01 4.488658308982849121e-01 1.911524832248687744e-01 -1.657529026269912720e-01
2.797000000000000000e+03 1.201050567626953125e+01 2.379512405395507812e+01 5.987512692809104919e-02 -1.648988276720046997e-01 -3.150711208581924438e-02 1.385254133492708206e-02
2.798000000000000000e+03 1.173211765289306641e+01 2.591402244567871094e+01 4.533489048480987549e-02 -1.592635661363601685e-01 -3.417860344052314758e-02 3.141761291772127151e-03
2.799000000000000000e+03 3.529814147949218750e+01 5.769261837005615234e+00 3.120408952236175537e-01 5.552707314491271973e-01 2.601934969425201416e-01 -1.476977914571762085e-01
2.800000000000000000e+03 3.644461059570312500e+01 1.938636898994445801e+00 2.390771359205245972e-01 5.502141118049621582e-01 2.367873787879943848e-01 -1.523180454969406128e-01
2.801000000000000000e+03 3.335813522338867188e+01 1.210874176025390625e+01 3.158431053161621094e-01 4.897457063198089600e-01 2.416766285896301270e-01 -1.760025918483734131e-01
2.802000000000000000e+03 3.295833969116210938e+01 1.067862224578857422e+01 3.243521153926849365e-01 4.429375827312469482e-01 2.301869094371795654e-01 -1.574065983295440674e-01
2.803000000000000000e+03 1.203460597991943359e+01 2.749185943603515625e+01 3.636248409748077393e-02 -1.470691114664077759e-01 -3.321198746562004089e-02 -4.078182391822338104e-03
2.804000000000000000e+03 3.421941375732421875e+01 2.208145713806152344e+01 1.012302786111831665e-01 5.479453206062316895e-01 1.947526782751083374e-01 -1.332758218050003052e-01
2.805000000000000000e+03 3.665659332275390625e+01 3.039414978027343750e+01 -7.011930644512176514e-02 5.249607563018798828e-01 1.364524364471435547e-01 -6.032399088144302368e-02
2.806000000000000000e+03 3.131839752197265625e+01 -7.936151504516601562e+00 -1.712160706520080566e-01 -4.979649558663368225e-02 -6.630376726388931274e-02 2.982304692268371582e-01
2.807000000000000000e+03 3.121283149719238281e+01 -9.797134399414062500e+00 -2.488560527563095093e-01 -8.033041656017303467e-02 -9.875594079494476318e-02 3.660590946674346924e-01
2.808000000000000000e+03 2.009328842163085938e+01 2.304818630218505859e+00 -5.073589086532592773e-02 -3.363718986511230469e-01 -1.161323338747024536e-01 1.840442568063735962e-01
2.809000000000000000e+03 3.038253021240234375e+01 -7.125001907348632812e+00 -1.810905784368515015e-01 -6.642434746026992798e-02 -7.425447553396224976e-02 2.865036427974700928e-01
2.810000000000000000e+03 3.021436309814453125e+01 -7.771245956420898438e+00 -2.103506326675415039e-01 -7.559616863727569580e-02 -8.578404039144515991e-02 3.082684874534606934e-01
2.811000000000000000e+03 2.825288772583007812e+01 -4.931388378143310547e+00 -1.713825762271881104e-01 -1.164955869317054749e-01 -8.636344969272613525e-02 2.344630807638168335e-01
2.812000000000000000e+03 2.906211280822753906e+01 -3.154440402984619141e+00 -7.494707405567169189e-02 -5.038601160049438477e-02 -3.759992495179176331e-02 1.652552336454391479e-01
2.813000000000000000e+03 3.009839439392089844e+01 -6.419288158416748047e+00 -1.615538895130157471e-01 -6.119945272803306580e-02 -6.682600080966949463e-02 2.603052854537963867e-01
2.814000000000000000e+03 2.890645408630371094e+01 -4.605517387390136719e+00 -1.424870193004608154e-01 -8.152061700820922852e-02 -6.720229238271713257e-02 2.142132222652435303e-01
2.815000000000000000e+03 2.111219978332519531e+01 2.427403926849365234e+00 -2.358095720410346985e-02 -3.091630637645721436e-01 -9.982320666313171387e-02 1.596888005733489990e-01
2.816000000000000000e+03 1.914244842529296875e+01 5.391162872314453125e+00 5.746139585971832275e-02 -2.919805347919464111e-01 -7.035573571920394897e-02 1.442729830741882324e-01
2.817000000000000000e+03 1.885806655883789062e+01 7.042988777160644531e+00 1.045553162693977356e-01 -2.659779191017150879e-01 -4.842678457498550415e-02 1.234062090516090393e-01
2.818000000000000000e+03 2.180949020385742188e+01 2.104362010955810547e+00 -2.527255564928054810e-02 -3.020126223564147949e-01 -9.818555414676666260e-02 1.557456105947494507e-01
2.819000000000000000e+03 2.059965324401855469e+01 2.796195745468139648e+00 -1.466146111488342285e-02 -3.153512775897979736e-01 -9.900382906198501587e-02 1.644183248281478882e-01
2.820000000000000000e+03 1.957515335083007812e+01 3.830858707427978516e+00 1.179604232311248779e-02 -3.153833150863647461e-01 -9.107618033885955811e-02 1.651955097913742065e-01
2.821000000000000000e+03 1.963727760314941406e+01 4.856409072875976562e+00 5.193817988038063049e-02 -2.942222058773040771e-01 -7.268520444631576538e-02 1.445995867252349854e-01
2.822000000000000000e+03 3.278811264038085938e+01 -8.771616935729980469e+00 -1.411367505788803101e-01 -3.608445823192596436e-02 -5.316636338829994202e-02 2.983973026275634766e-01
2.823000000000000000e+03 2.380683708190917969e+01 -3.563088774681091309e-01 -9.751242399215698242e-02 -2.665164172649383545e-01 -1.092086508870124817e-01 1.699366718530654907e-01
2.824000000000000000e+03 2.649468421936035156e+01 -9.113922119140625000e-01 -5.458933487534523010e-02 -1.461578607559204102e-01 -6.022416055202484131e-02 1.355933994054794312e-01
2.825000000000000000e+03 2.694195365905761719e+01 -2.430928945541381836e+00 -1.102921366691589355e-01 -1.502857506275177002e-01 -7.817336916923522949e-02 1.717462390661239624e-01
2.826000000000000000e+03 2.969530487060546875e+01 -5.778847694396972656e+00 -1.597544550895690918e-01 -6.647317856550216675e-02 -6.786829233169555664e-02 2.465522289276123047e-01
2.827000000000000000e+03 9.136876106262207031e+00 -8.216595649719238281e+00 -1.943273673532530665e-04 -8.728865213925018907e-05 -8.448480366496369243e-05 -9.279068763135001063e-06
2.828000000000000000e+03 1.719895362854003906e+01 6.831256389617919922e+00 7.176132500171661377e-02 -2.861335575580596924e-01 -6.431166827678680420e-02 1.557620018720626831e-01
2.829000000000000000e+03 2.459264564514160156e+01 1.643395543098449707e+00 9.338719770312309265e-03 -2.023563832044601440e-01 -5.790529772639274597e-02 1.123600676655769348e-01
2.830000000000000000e+03 3.863985824584960938e+01 -6.176278114318847656e+00 1.864354461431503296e-01 2.594724297523498535e-01 1.337723582983016968e-01 -8.886889368295669556e-02
2.831000000000000000e+03 3.980412292480468750e+01 -6.007369041442871094e+00 2.539771795272827148e-01 3.434827625751495361e-01 1.792379766702651978e-01 -1.884397119283676147e-01
2.832000000000000000e+03 2.642170333862304688e+01 -4.967294633388519287e-03 -1.953133568167686462e-02 -1.366574466228485107e-01 -4.685663431882858276e-02 1.190346479415893555e-01
2.833000000000000000e+03 2.748783111572265625e+01 -1.523730754852294922e+00 -5.703547596931457520e-02 -1.082186251878738403e-01 -4.957623034715652466e-02 1.351069957017898560e-01
2.834000000000000000e+03 2.737971687316894531e+01 4.470188170671463013e-02 4.436050076037645340e-03 -8.795344829559326172e-02 -2.505522035062313080e-02 1.006472706794738770e-01
2.835000000000000000e+03 4.860699462890625000e+01 -3.137408828735351562e+01 5.448926687240600586e-01 4.156862199306488037e-01 2.881736755371093750e-01 2.836380302906036377e-01
2.836000000000000000e+03 5.044841003417968750e+01 -2.965448379516601562e+01 9.587684869766235352e-01 8.271208405494689941e-01 5.357667803764343262e-01 1.242872476577758789e-01
2.837000000000000000e+03 4.024000549316406250e+01 -1.218835544586181641e+01 -1.440051104873418808e-02 -6.144431605935096741e-02 -2.275344915688037872e-02 1.528967618942260742e-01
2.838000000000000000e+03 4.038585281372070312e+01 -8.441960334777832031e+00 2.350223213434219360e-01 1.788299083709716797e-01 1.241556704044342041e-01 -9.163726866245269775e-02
2.839000000000000000e+03 9.677397727966308594e+00 8.528223037719726562e+00 1.437352690845727921e-02 -2.119278311729431152e-01 -5.926629155874252319e-02 1.740817278623580933e-01
2.840000000000000000e+03 1.364367961883544922e+01 7.519099712371826172e+00 3.650521114468574524e-02 -2.660980224609375000e-01 -6.887784600257873535e-02 1.870754659175872803e-01
2.841000000000000000e+03 2.863924980163574219e+01 -5.540136337280273438e+00 -1.881165057420730591e-01 -1.070166602730751038e-01 -8.853995054960250854e-02 2.520097494125366211e-01
2.842000000000000000e+03 3.644107818603515625e+01 -3.393083572387695312e+00 1.440781652927398682e-01 2.978725135326385498e-01 1.325851976871490479e-01 -5.555667355656623840e-02
2.843000000000000000e+03 3.666050720214843750e+01 -1.115879726409912109e+01 -1.069680303335189819e-01 -8.456515520811080933e-02 -5.745995789766311646e-02 2.687610089778900146e-01
2.844000000000000000e+03 9.633951187133789062e+00 1.214738178253173828e+01 5.483769997954368591e-02 -2.243125140666961670e-01 -5.084244161844253540e-02 1.372829377651214600e-01
2.845000000000000000e+03 3.291689300537109375e+01 -1.022609806060791016e+01 -2.014490216970443726e-01 -6.454234570264816284e-02 -7.979740947484970093e-02 3.475541174411773682e-01
2.846000000000000000e+03 4.318307495117187500e+01 -1.181742191314697266e+01 3.103851974010467529e-01 1.118173673748970032e-01 1.266607642173767090e-01 -3.991708904504776001e-02
2.847000000000000000e+03 1.255510234832763672e+01 8.081513404846191406e+00 3.839331492781639099e-02 -2.503982186317443848e-01 -6.360147148370742798e-02 1.844627708196640015e-01
2.848000000000000000e+03 4.114888763427734375e+01 -1.024982643127441406e+01 2.129208892583847046e-01 1.052005290985107422e-01 9.543643146753311157e-02 -4.603582620620727539e-02
2.849000000000000000e+03 5.270139312744140625e+01 -3.145671463012695312e+01 1.228754401206970215e+00 2.205290555953979492e+00 1.030213475227355957e+00 5.541321039199829102e-01
2.850000000000000000e+03 3.511344146728515625e+01 -8.996061325073242188e+00 -5.657533928751945496e-02 -1.742252148687839508e-02 -2.219935879111289978e-02 2.293020784854888916e-01
2.851000000000000000e+03 3.599559020996093750e+01 4.969627559185028076e-01 2.061358541250228882e-01 4.511574804782867432e-01 1.971880048513412476e-01 -1.161442548036575317e-01
2.852000000000000000e+03 3.515355682373046875e+01 -9.822359085083007812e+00 -1.072656810283660889e-01 -4.786942154169082642e-02 -4.654053226113319397e-02 2.781901061534881592e-01
2.853000000000000000e+03 1.159447669982910156e+01 7.927250862121582031e+00 2.506181597709655762e-02 -2.383245825767517090e-01 -6.397882848978042603e-02 1.862294226884841919e-01
2.854000000000000000e+03 3.964776229858398438e+01 -8.706108093261718750e+00 1.895028501749038696e-01 1.257969439029693604e-01 9.458993375301361084e-02 -2.694437280297279358e-02
2.855000000000000000e+03 1.061849498748779297e+01 1.447960186004638672e+01 7.532863318920135498e-02 -2.245915830135345459e-01 -4.477888345718383789e-02 1.113832741975784302e-01
2.856000000000000000e+03 9.881357192993164062e+00 1.644192123413085938e+01 6.757985800504684448e-02 -2.232623100280761719e-01 -4.670473560690879822e-02 8.984948694705963135e-02
2.857000000000000000e+03 9.914529800415039062e+00 2.125092697143554688e+01 5.468507111072540283e-02 -2.132870405912399292e-01 -4.758059233427047729e-02 4.391840845346450806e-02
2.858000000000000000e+03 4.044189453125000000e+01 -9.763365745544433594e+00 2.009471058845520020e-01 1.084004789590835571e-01 9.280427545309066772e-02 -1.562817394733428955e-02
2.859000000000000000e+03 4.302018356323242188e+01 -1.273543357849121094e+01 1.247166097164154053e-01 6.050548329949378967e-02 5.556662753224372864e-02 1.242960616946220398e-01
2.860000000000000000e+03 9.050449371337890625e+00 1.128190135955810547e+01 4.342791065573692322e-02 -2.191173136234283447e-01 -5.270682275295257568e-02 1.443224996328353882e-01
2.861000000000000000e+03 8.883918762207031250e+00 9.961009979248046875e+00 2.710733935236930847e-02 -2.109030485153198242e-01 -5.513871088624000549e-02 1.574878096580505371e-01
2.862000000000000000e+03 3.394313430786132812e+01 8.745789527893066406e+00 3.367207944393157959e-01 4.956163465976715088e-01 2.497011423110961914e-01 -1.470313072204589844e-01
2.863000000000000000e+03 3.422055053710937500e+01 4.988327980041503906e+00 2.744934856891632080e-01 4.469307959079742432e-01 2.164272814989089966e-01 -1.194592937827110291e-01
2.864000000000000000e+03 4.103364944458007812e+01 -1.172173786163330078e+01 5.703974515199661255e-02 1.043156906962394714e-02 2.024139277637004852e-02 8.022166043519973755e-02
2.865000000000000000e+03 4.142485809326171875e+01 -9.312627792358398438e+00 2.799710333347320557e-01 1.883998066186904907e-01 1.405112445354461670e-01 -1.189017072319984436e-01
2.866000000000000000e+03 3.206842803955078125e+01 1.382128334045410156e+01 2.869407534599304199e-01 4.094095528125762939e-01 2.089050859212875366e-01 -1.702499836683273315e-01
2.867000000000000000e+03 3.185380935668945312e+01 1.242309093475341797e+01 3.006207644939422607e-01 3.788188993930816650e-01 2.038318961858749390e-01 -1.569760590791702271e-01
2.868000000000000000e+03 3.688626480102539062e+01 3.589032173156738281e+00 2.767851054668426514e-01 6.527501344680786133e-01 2.788605690002441406e-01 -1.773420125246047974e-01
2.869000000000000000e+03 3.371001052856445312e+01 1.517195892333984375e+01 2.641582787036895752e-01 5.459220409393310547e-01 2.430240809917449951e-01 -1.864589601755142212e-01
2.870000000000000000e+03 3.357464218139648438e+01 7.194018840789794922e+00 3.138064444065093994e-01 4.378886520862579346e-01 2.255085259675979614e-01 -1.342532932758331299e-01
2.871000000000000000e+03 3.994752120971679688e+01 -1.020206832885742188e+01 1.345003247261047363e-01 5.169824883341789246e-02 5.585957318544387817e-02 3.198115155100822449e-02
2.872000000000000000e+03 1.341047286987304688e+01 2.270364189147949219e+01 7.766143232583999634e-02 -1.476291120052337646e-01 -2.099030278623104095e-02 1.221152767539024353e-02
2.873000000000000000e+03 1.457037258148193359e+01 2.435190200805664062e+01 7.098244875669479370e-02 -1.145379990339279175e-01 -1.306666526943445206e-02 -5.367679521441459656e-03
2.874000000000000000e+03 3.213525772094726562e+01 1.532105255126953125e+01 2.585311830043792725e-01 4.304911494255065918e-01 2.067067027091979980e-01 -1.703146249055862427e-01
2.875000000000000000e+03 3.232867050170898438e+01 2.237805747985839844e+01 1.068947762250900269e-01 4.550695121288299561e-01 1.685892790555953979e-01 -1.459612250328063965e-01
2.876000000000000000e+03 2.778226089477539062e+01 1.527137374877929688e+01 2.478601783514022827e-01 1.739845126867294312e-01 1.265534013509750366e-01 -1.238737627863883972e-01
2.877000000000000000e+03 3.036590957641601562e+01 2.475311470031738281e+01 6.743987649679183960e-02 3.712049126625061035e-01 1.315934360027313232e-01 -1.340581029653549194e-01
2.878000000000000000e+03 3.028449058532714844e+01 2.245513725280761719e+01 1.194355636835098267e-01 3.652590513229370117e-01 1.454083770513534546e-01 -1.461781263351440430e-01
2.879000000000000000e+03 2.086507225036621094e+01 3.788788318634033203e+00 3.504399955272674561e-02 -2.905904352664947510e-01 -7.666393369436264038e-02 1.389104574918746948e-01
2.880000000000000000e+03 2.827162551879882812e+01 -1.367506861686706543e+00 -2.936851419508457184e-02 -6.442359089851379395e-02 -2.813763171434402466e-02 1.243666857481002808e-01
2.881000000000000000e+03 2.859733200073242188e+01 -4.017241477966308594e+00 -1.260311007499694824e-01 -8.611807972192764282e-02 -6.364475190639495850e-02 1.978107988834381104e-01
2.882000000000000000e+03 3.117869758605957031e+01 -6.994868755340576172e+00 -1.442314237356185913e-01 -3.085788153111934662e-02 -5.252679064869880676e-02 2.643048167228698730e-01
2.883000000000000000e+03 3.436162185668945312e+01 -9.002696037292480469e+00 -9.487619251012802124e-02 -1.583683677017688751e-02 -3.321390971541404724e-02 2.619412839412689209e-01
2.884000000000000000e+03 3.111122322082519531e+01 -8.684052467346191406e+00 -2.083846628665924072e-01 -6.722950190305709839e-02 -8.268424868583679199e-02 3.270357847213745117e-01
2.885000000000000000e+03 2.383240318298339844e+01 1.996917486190795898e+00 1.089350692927837372e-02 -2.232005596160888672e-01 -6.369211524724960327e-02 1.167424097657203674e-01
2.886000000000000000e+03 2.301053810119628906e+01 2.504059076309204102e+00 2.011567726731300354e-02 -2.501494884490966797e-01 -6.901014596223831177e-02 1.238835528492927551e-01
2.887000000000000000e+03 3.857273101806640625e+01 -9.742565155029296875e+00 8.827350288629531860e-02 2.040276303887367249e-02 3.260288015007972717e-02 7.955259829759597778e-02
2.888000000000000000e+03 3.066459465026855469e+01 -8.225225448608398438e+00 -2.016482204198837280e-01 -6.287677586078643799e-02 -7.935749739408493042e-02 3.178489804267883301e-01
2.889000000000000000e+03 3.171413612365722656e+01 -9.099382400512695312e+00 -1.944492012262344360e-01 -6.253158301115036011e-02 -7.709423452615737915e-02 3.356188237667083740e-01
2.890000000000000000e+03 2.876586151123046875e+01 -2.560569524765014648e+00 -6.516295671463012695e-02 -5.890538915991783142e-02 -3.722050413489341736e-02 1.519286483526229858e-01
2.891000000000000000e+03 3.035685348510742188e+01 -5.357005119323730469e+00 -1.144001260399818420e-01 -3.558282926678657532e-02 -4.499488696455955505e-02 2.156591117382049561e-01
2.892000000000000000e+03 4.004253387451171875e+01 -7.706044673919677734e+00 2.518675923347473145e-01 2.143857181072235107e-01 1.398759931325912476e-01 -1.258839219808578491e-01
2.893000000000000000e+03 3.890581512451171875e+01 -7.122180461883544922e+00 2.048386186361312866e-01 2.124567776918411255e-01 1.251886188983917236e-01 -7.064233720302581787e-02
2.894000000000000000e+03 1.267448711395263672e+01 7.108651638031005859e+00 1.795391738414764404e-02 -2.554693520069122314e-01 -7.125462591648101807e-02 1.955214738845825195e-01
2.895000000000000000e+03 3.832598495483398438e+01 -5.132810115814208984e+00 2.017122507095336914e-01 3.119628131389617920e-01 1.541025191545486450e-01 -1.177124753594398499e-01
2.896000000000000000e+03 3.693136596679687500e+01 -9.520593643188476562e+00 1.059377100318670273e-02 -5.382250528782606125e-03 1.563456258736550808e-03 1.763870120048522949e-01
2.897000000000000000e+03 1.987112617492675781e+01 5.867941379547119141e+00 8.520809561014175415e-02 -2.732487320899963379e-01 -5.641219392418861389e-02 1.239592805504798889e-01
2.898000000000000000e+03 1.940762519836425781e+01 6.459135055541992188e+00 9.524168074131011963e-02 -2.682981491088867188e-01 -5.191694200038909912e-02 1.237453222274780273e-01
2.899000000000000000e+03 1.868594551086425781e+01 5.945331096649169922e+00 6.998967379331588745e-02 -2.892355322837829590e-01 -6.577376276254653931e-02 1.448255777359008789e-01
2.900000000000000000e+03 3.676918411254882812e+01 -1.977745890617370605e+00 1.725582927465438843e-01 4.050242304801940918e-01 1.732747554779052734e-01 -1.185028925538063049e-01
2.901000000000000000e+03 3.686271667480468750e+01 -4.371212005615234375e+00 1.568301916122436523e-01 2.812975645065307617e-01 1.314383298158645630e-01 -5.072464048862457275e-02
2.902000000000000000e+03 3.028438186645507812e+01 -4.293172836303710938e+00 -7.493548095226287842e-02 -1.492177043110132217e-02 -2.695717476308345795e-02 1.806313097476959229e-01
2.903000000000000000e+03 2.211485862731933594e+01 2.977504253387451172e+00 1.908192783594131470e-02 -2.737054824829101562e-01 -7.638706266880035400e-02 1.300370246171951294e-01
2.904000000000000000e+03 1.827201652526855469e+01 6.505271911621093750e+00 7.664699852466583252e-02 -2.865996360778808594e-01 -6.298578530550003052e-02 1.448218673467636108e-01
2.905000000000000000e+03 1.953580093383789062e+01 7.669113636016845703e+00 1.251641511917114258e-01 -2.472070008516311646e-01 -3.661285713315010071e-02 1.041232720017433167e-01
2.906000000000000000e+03 2.849566841125488281e+01 -1.972673296928405762e+00 -4.471394047141075134e-02 -6.036286056041717529e-02 -3.152303770184516907e-02 1.345844119787216187e-01
2.907000000000000000e+03 2.771692276000976562e+01 -2.189208030700683594e+00 -8.239872008562088013e-02 -1.061879619956016541e-01 -5.657600611448287964e-02 1.575722098350524902e-01
2.908000000000000000e+03 2.532921409606933594e+01 1.658188343048095703e+00 2.598808147013187408e-02 -1.685258597135543823e-01 -4.276133328676223755e-02 9.776263684034347534e-02
2.909000000000000000e+03 2.643393325805664062e+01 1.018531560897827148e+00 2.687728777527809143e-02 -1.197592988610267639e-01 -2.786460332572460175e-02 9.276647865772247314e-02
2.910000000000000000e+03 2.814623832702636719e+01 -7.413631677627563477e-01 -1.572313904762268066e-02 -6.235334277153015137e-02 -2.342294529080390930e-02 1.072078570723533630e-01
2.911000000000000000e+03 3.082041358947753906e+01 -6.077581405639648438e+00 -1.262436956167221069e-01 -3.000351972877979279e-02 -4.687416180968284607e-02 2.394646704196929932e-01
2.912000000000000000e+03 3.283348846435546875e+01 -3.616812229156494141e+00 2.508827298879623413e-02 1.095125451683998108e-01 4.038024693727493286e-02 9.786169975996017456e-02
2.913000000000000000e+03 1.344556236267089844e+01 8.659399032592773438e+00 6.191944330930709839e-02 -2.571163475513458252e-01 -5.855907127261161804e-02 1.721344292163848877e-01
2.914000000000000000e+03 1.537478160858154297e+01 7.093478202819824219e+00 5.442511662840843201e-02 -2.824290394783020020e-01 -6.840117275714874268e-02 1.743585765361785889e-01
2.915000000000000000e+03 3.722994613647460938e+01 -5.413831710815429688e+00 1.382225453853607178e-01 2.348279505968093872e-01 1.119151487946510315e-01 -3.248910978436470032e-02
2.916000000000000000e+03 3.795500183105468750e+01 -4.029242992401123047e+00 1.828648597002029419e-01 3.649479746818542480e-01 1.643438488245010376e-01 -1.309574395418167114e-01
2.917000000000000000e+03 3.435984420776367188e+01 -6.279118061065673828e+00 1.482282672077417374e-02 7.734546810388565063e-02 2.765048854053020477e-02 1.420830041170120239e-01
2.918000000000000000e+03 4.186545181274414062e+01 -1.110428047180175781e+01 2.195104360580444336e-01 8.430147916078567505e-02 9.114357829093933105e-02 -1.256207469850778580e-02
2.919000000000000000e+03 3.625246810913085938e+01 -1.022497367858886719e+01 -7.975843548774719238e-02 -5.715920403599739075e-02 -4.107528924942016602e-02 2.452445030212402344e-01
2.920000000000000000e+03 3.913479232788085938e+01 -9.785005569458007812e+00 9.799010306596755981e-02 4.491944238543510437e-02 4.287286475300788879e-02 7.435424625873565674e-02
2.921000000000000000e+03 3.551388168334960938e+01 -8.340108394622802734e-01 1.709839403629302979e-01 3.778123855590820312e-01 1.646388918161392212e-01 -7.864534109830856323e-02
2.922000000000000000e+03 1.361101150512695312e+01 9.689500808715820312e+00 7.896877825260162354e-02 -2.492685914039611816e-01 -5.108994245529174805e-02 1.550841331481933594e-01
2.923000000000000000e+03 1.037198638916015625e+01 9.476668357849121094e+00 3.577928990125656128e-02 -2.236803323030471802e-01 -5.637031421065330505e-02 1.678083091974258423e-01
2.924000000000000000e+03 1.163922119140625000e+01 1.717220878601074219e+01 8.624775707721710205e-02 -2.069891542196273804e-01 -3.622242063283920288e-02 7.618878781795501709e-02
2.925000000000000000e+03 3.756452560424804688e+01 -6.467092990875244141e+00 1.512717753648757935e-01 1.899611949920654297e-01 1.023698896169662476e-01 -1.356004085391759872e-02
2.926000000000000000e+03 3.466164398193359375e+01 -7.760229110717773438e+00 -3.245735540986061096e-02 2.611868828535079956e-02 -1.901600393466651440e-03 1.906532198190689087e-01
2.927000000000000000e+03 5.159506607055664062e+01 -3.061442947387695312e+01 1.067190408706665039e+00 1.400107860565185547e+00 7.401894927024841309e-01 4.862884879112243652e-01
2.928000000000000000e+03 3.545222091674804688e+01 1.394522666931152344e+00 2.057553082704544067e-01 4.427455067634582520e-01 1.945502460002899170e-01 -1.113622263073921204e-01
2.929000000000000000e+03 1.611968612670898438e+01 7.345697879791259766e+00 6.801961362361907959e-02 -2.797658741474151611e-01 -6.352388113737106323e-02 1.628960967063903809e-01
2.930000000000000000e+03 3.581978607177734375e+01 2.956115961074829102e+00 2.430984228849411011e-01 5.250872373580932617e-01 2.304556965827941895e-01 -1.393396854400634766e-01
2.931000000000000000e+03 3.313639450073242188e+01 5.772881984710693359e+00 2.880658507347106934e-01 3.794552087783813477e-01 2.002563178539276123e-01 -1.036605760455131531e-01
2.932000000000000000e+03 1.066237163543701172e+01 1.913001251220703125e+01 6.990348547697067261e-02 -2.088531702756881714e-01 -4.168490320444107056e-02 6.029495969414710999e-02
2.933000000000000000e+03 4.002768707275390625e+01 -9.289776802062988281e+00 1.742193996906280518e-01 1.050037369132041931e-01 8.376694470643997192e-02 -2.655901014804840088e-02
2.934000000000000000e+03 1.124343967437744141e+01 2.037057876586914062e+01 7.048280537128448486e-02 -1.965323090553283691e-01 -3.781485185027122498e-02 4.689739271998405457e-02
2.935000000000000000e+03 3.240676498413085938e+01 9.303796768188476562e+00 3.179250955581665039e-01 3.773497045040130615e-01 2.085824459791183472e-01 -1.393985897302627563e-01
2.936000000000000000e+03 3.096677207946777344e+01 9.883362770080566406e+00 3.026342391967773438e-01 2.810738682746887207e-01 1.751124262809753418e-01 -1.203398257493972778e-01
2.937000000000000000e+03 1.015398406982421875e+01 1.324045562744140625e+01 6.561474502086639404e-02 -2.257058024406433105e-01 -4.802731797099113464e-02 1.265584528446197510e-01
2.938000000000000000e+03 1.217588901519775391e+01 1.503664112091064453e+01 9.485682845115661621e-02 -2.141057252883911133e-01 -3.577467054128646851e-02 9.653531759977340698e-02
2.939000000000000000e+03 3.848139572143554688e+01 -1.050665187835693359e+01 3.015831671655178070e-02 -2.405038289725780487e-02 1.832380075938999653e-03 1.545220613479614258e-01
2.940000000000000000e+03 3.959524154663085938e+01 -9.610549926757812500e+00 1.522120237350463867e-01 7.932717353105545044e-02 6.946176290512084961e-02 2.553134411573410034e-02
2.941000000000000000e+03 3.062524414062500000e+01 1.399015331268310547e+01 2.748087644577026367e-01 3.161996006965637207e-01 1.773025095462799072e-01 -1.503373533487319946e-01
2.942000000000000000e+03 3.007335281372070312e+01 1.148962688446044922e+01 2.924637198448181152e-01 2.481035292148590088e-01 1.621701717376708984e-01 -1.246237307786941528e-01
2.943000000000000000e+03 2.884724044799804688e+01 1.688914489746093750e+01 2.281990051269531250e-01 2.476069480180740356e-01 1.427417844533920288e-01 -1.413910984992980957e-01
2.944000000000000000e+03 3.058930969238281250e+01 1.541278743743896484e+01 2.585612535476684570e-01 3.299743831157684326e-01 1.765606850385665894e-01 -1.585936397314071655e-01
2.945000000000000000e+03 1.091378116607666016e+01 2.249580955505371094e+01 6.061928346753120422e-02 -1.911990493535995483e-01 -3.917392715811729431e-02 2.885521575808525085e-02
2.946000000000000000e+03 1.123089599609375000e+01 1.254629993438720703e+01 7.537788897752761841e-02 -2.287867069244384766e-01 -4.602264612913131714e-02 1.328610032796859741e-01
2.947000000000000000e+03 3.303722000122070312e+01 -8.040897369384765625e+00 -1.141125708818435669e-01 -1.944321580231189728e-02 -4.006673395633697510e-02 2.620447576045989990e-01
2.948000000000000000e+03 3.205630111694335938e+01 -8.232544898986816406e+00 -1.599775999784469604e-01 -3.530445322394371033e-02 -5.858461558818817139e-02 2.942223846912384033e-01
2.949000000000000000e+03 3.253419876098632812e+01 -7.503392219543457031e+00 -1.001449450850486755e-01 -7.479757536202669144e-03 -3.228741139173507690e-02 2.514327764511108398e-01
2.950000000000000000e+03 3.362997817993164062e+01 -8.285306930541992188e+00 -8.946123719215393066e-02 -1.197150815278291702e-02 -3.042982332408428192e-02 2.622011303901672363e-01
2.951000000000000000e+03 2.250148200988769531e+01 3.991805553436279297e+00 6.938909739255905151e-02 -2.393737584352493286e-01 -5.099540203809738159e-02 1.062627583742141724e-01
2.952000000000000000e+03 2.830346488952636719e+01 -9.394229203462600708e-02 2.373649738729000092e-02 -4.139576479792594910e-02 -5.297780036926269531e-03 9.198455512523651123e-02
2.953000000000000000e+03 2.618687248229980469e+01 2.024452924728393555e+00 5.442372336983680725e-02 -1.172949001193046570e-01 -1.886135339736938477e-02 7.870574295520782471e-02
2.954000000000000000e+03 2.955864906311035156e+01 -4.330456256866455078e+00 -1.035345345735549927e-01 -4.869312047958374023e-02 -4.566829651594161987e-02 1.911623179912567139e-01
2.955000000000000000e+03 2.956498527526855469e+01 -2.288908720016479492e+00 -1.936751976609230042e-02 -8.094162680208683014e-03 -8.238504640758037567e-03 1.246057599782943726e-01
2.956000000000000000e+03 3.159473419189453125e+01 -5.626300334930419922e+00 -7.589349895715713501e-02 1.434201374650001526e-02 -1.846544444561004639e-02 2.013300061225891113e-01
2.957000000000000000e+03 2.935313987731933594e+01 -3.754824161529541016e+00 -1.022523865103721619e-01 -4.877363517880439758e-02 -4.530780762434005737e-02 1.806913614273071289e-01
2.958000000000000000e+03 3.470849609375000000e+01 -7.044625759124755859e+00 -7.941900752484798431e-03 5.093409866094589233e-02 1.289766002446413040e-02 1.686540693044662476e-01
2.959000000000000000e+03 2.495116043090820312e+01 2.282961130142211914e+00 4.521549865603446960e-02 -1.728767901659011841e-01 -3.829839080572128296e-02 9.153880178928375244e-02
2.960000000000000000e+03 2.428713607788085938e+01 2.816838264465332031e+00 6.122428551316261292e-02 -1.916234791278839111e-01 -3.911975771188735962e-02 9.480974078178405762e-02
2.961000000000000000e+03 2.735699272155761719e+01 -7.856366038322448730e-01 -3.143350780010223389e-02 -1.025849580764770508e-01 -4.020553827285766602e-02 1.235365644097328186e-01
2.962000000000000000e+03 3.921726226806640625e+01 -7.984125137329101562e+00 1.783480048179626465e-01 1.683815717697143555e-01 1.040188744664192200e-01 -3.859462589025497437e-02
2.963000000000000000e+03 2.025191307067871094e+01 5.309450149536132812e+00 7.377064973115921021e-02 -2.746660709381103516e-01 -6.026862189173698425e-02 1.258047670125961304e-01
2.964000000000000000e+03 2.021175575256347656e+01 4.342876434326171875e+00 4.120012745261192322e-02 -2.923372983932495117e-01 -7.534115016460418701e-02 1.410810947418212891e-01
2.965000000000000000e+03 2.074439430236816406e+01 4.880121231079101562e+00 6.876783072948455811e-02 -2.715893983840942383e-01 -6.084647029638290405e-02 1.242358908057212830e-01
2.966000000000000000e+03 2.928190040588378906e+01 -1.729064583778381348e+00 -2.111984416842460632e-02 -1.395175885409116745e-02 -1.052148081362247467e-02 1.155823469161987305e-01
2.967000000000000000e+03 3.793292236328125000e+01 -7.460446357727050781e+00 1.316126883029937744e-01 1.466001123189926147e-01 8.346384018659591675e-02 1.360339764505624771e-02
2.968000000000000000e+03 3.626268005371093750e+01 -8.647554397583007812e+00 5.976345855742692947e-03 1.635470800101757050e-02 6.699316203594207764e-03 1.659151464700698853e-01
2.969000000000000000e+03 3.597271728515625000e+01 -2.544855117797851562e+00 1.600582003593444824e-01 3.172107338905334473e-01 1.431806832551956177e-01 -6.640856713056564331e-02
2.970000000000000000e+03 3.581203079223632812e+01 -4.711433887481689453e+00 1.011590510606765747e-01 2.016186565160751343e-01 9.083331376314163208e-02 1.948606409132480621e-02
2.971000000000000000e+03 3.209441375732421875e+01 -6.609542846679687500e+00 -1.001767143607139587e-01 -2.221822040155529976e-03 -3.071956150233745575e-02 2.319957613945007324e-01
2.972000000000000000e+03 1.796527671813964844e+01 8.089115142822265625e+00 1.114682853221893311e-01 -2.610678374767303467e-01 -4.487986490130424500e-02 1.253138482570648193e-01
2.973000000000000000e+03 1.374631500244140625e+01 1.318663978576660156e+01 1.111114025115966797e-01 -2.220533937215805054e-01 -3.328259661793708801e-02 1.102965474128723145e-01
2.974000000000000000e+03 1.213498306274414062e+01 8.517351150512695312e+00 4.065178707242012024e-02 -2.445142865180969238e-01 -6.115875020623207092e-02 1.784183084964752197e-01
2.975000000000000000e+03 2.987233161926269531e+01 -4.824228763580322266e+00 -1.174277663230895996e-01 -4.056960344314575195e-02 -4.739921167492866516e-02 2.090884298086166382e-01
2.976000000000000000e+03 2.900012588500976562e+01 -1.194759488105773926e+00 -3.202442312613129616e-03 -1.551607064902782440e-02 -5.615553818643093109e-03 1.057268977165222168e-01
2.977000000000000000e+03 3.919509124755859375e+01 -9.177470207214355469e+00 1.312875151634216309e-01 8.845189958810806274e-02 6.592182815074920654e-02 1.391707453876733780e-02
2.978000000000000000e+03 1.585021877288818359e+01 8.291813850402832031e+00 8.681298047304153442e-02 -2.676227092742919922e-01 -5.424292013049125671e-02 1.512850373983383179e-01
2.979000000000000000e+03 2.349319458007812500e+01 3.450882911682128906e+00 6.437723338603973389e-02 -2.118130177259445190e-01 -4.423073306679725647e-02 9.427711367607116699e-02
2.980000000000000000e+03 3.700085830688476562e+01 -7.924086570739746094e+00 8.330297470092773438e-02 7.935812324285507202e-02 4.879833012819290161e-02 9.380259364843368530e-02
2.981000000000000000e+03 3.573213577270507812e+01 -9.417674064636230469e+00 -4.562967643141746521e-02 -1.822993531823158264e-02 -1.915788464248180389e-02 2.311910539865493774e-01
2.982000000000000000e+03 3.512625885009765625e+01 6.179840117692947388e-02 1.793935894966125488e-01 3.753069937229156494e-01 1.664101630449295044e-01 -8.006811887025833130e-02
2.983000000000000000e+03 3.645370101928710938e+01 -4.241451323032379150e-01 1.928161531686782837e-01 4.329177439212799072e-01 1.877201646566390991e-01 -1.240039914846420288e-01
2.984000000000000000e+03 1.057087516784667969e+01 1.134506607055664062e+01 5.997087806463241577e-02 -2.281709015369415283e-01 -5.046000704169273376e-02 1.478342562913894653e-01
2.985000000000000000e+03 3.508040618896484375e+01 3.960844278335571289e+00 2.717665135860443115e-01 4.981633722782135010e-01 2.309789657592773438e-01 -1.299156248569488525e-01
2.986000000000000000e+03 3.653406906127929688e+01 -6.827232837677001953e+00 7.910288125276565552e-02 1.218441277742385864e-01 6.028410419821739197e-02 6.927327811717987061e-02
2.987000000000000000e+03 3.928759002685546875e+01 -1.052047920227050781e+01 9.194766730070114136e-02 -5.709814373403787613e-03 2.587135508656501770e-02 1.027000397443771362e-01
2.988000000000000000e+03 1.306324005126953125e+01 1.683210372924804688e+01 1.020345687866210938e-01 -1.951424032449722290e-01 -2.793235145509243011e-02 7.133979350328445435e-02
2.989000000000000000e+03 1.196618652343750000e+01 1.851925468444824219e+01 8.512321114540100098e-02 -1.964848041534423828e-01 -3.340847790241241455e-02 6.004794314503669739e-02
2.990000000000000000e+03 3.221591186523437500e+01 7.312462806701660156e+00 2.964131236076354980e-01 3.351441919803619385e-01 1.894671916961669922e-01 -1.044839620590209961e-01
2.991000000000000000e+03 1.214463806152343750e+01 2.152134895324707031e+01 7.229103893041610718e-02 -1.770150363445281982e-01 -3.141719847917556763e-02 3.122252784669399261e-02
2.992000000000000000e+03 1.166744136810302734e+01 1.385730648040771484e+01 8.731807768344879150e-02 -2.233960032463073730e-01 -4.082337394356727600e-02 1.148204803466796875e-01
2.993000000000000000e+03 1.667737388610839844e+01 8.698486328125000000e+00 1.046115234494209290e-01 -2.626972496509552002e-01 -4.742572084069252014e-02 1.366725414991378784e-01
2.994000000000000000e+03 1.514042186737060547e+01 7.933492183685302734e+00 6.676065921783447266e-02 -2.726411223411560059e-01 -6.176414340734481812e-02 1.662831008434295654e-01
2.995000000000000000e+03 5.202150726318359375e+01 -3.239880752563476562e+01 6.526565551757812500e-01 1.644108533859252930e+00 6.890295147895812988e-01 7.898967266082763672e-01
2.996000000000000000e+03 2.958134269714355469e+01 1.031400680541992188e+01 2.890481948852539062e-01 2.032918334007263184e-01 1.477020084857940674e-01 -1.086658537387847900e-01
2.997000000000000000e+03 1.307565116882324219e+01 1.557091045379638672e+01 1.045226380228996277e-01 -2.048288732767105103e-01 -3.009187243878841400e-02 8.382121473550796509e-02
2.998000000000000000e+03 1.102139186859130859e+01 2.469745063781738281e+01 4.648920893669128418e-02 -1.798508167266845703e-01 -4.000848159193992615e-02 1.362024899572134018e-02
2.999000000000000000e+03 2.933174324035644531e+01 1.403538990020751953e+01 2.706500291824340820e-01 2.369078993797302246e-01 1.522673815488815308e-01 -1.360551714897155762e-01
3.000000000000000000e+03 3.047444725036621094e+01 1.697973060607910156e+01 2.245910018682479858e-01 3.400105535984039307e-01 1.693804711103439331e-01 -1.575781702995300293e-01
3.001000000000000000e+03 2.927224349975585938e+01 1.296910095214843750e+01 2.790722250938415527e-01 2.241916656494140625e-01 1.509791761636734009e-01 -1.262148469686508179e-01
3.002000000000000000e+03 3.330684280395507812e+01 3.985328912734985352e+00 2.478361725807189941e-01 3.456811010837554932e-01 1.780551820993423462e-01 -8.514400571584701538e-02
3.003000000000000000e+03 2.753232002258300781e+01 1.015536665916442871e+00 4.736566171050071716e-02 -6.612470000982284546e-02 -5.627712234854698181e-03 7.962015271186828613e-02
3.004000000000000000e+03 3.045590209960937500e+01 -2.375621795654296875e+00 3.341976844239979982e-05 3.162667155265808105e-02 9.498027153313159943e-03 1.125149875879287720e-01
3.005000000000000000e+03 3.024029159545898438e+01 -3.557264089584350586e+00 -5.636965483427047729e-02 -6.370700430124998093e-03 -1.882210746407508850e-02 1.537204533815383911e-01
3.006000000000000000e+03 2.067484664916992188e+01 6.269103050231933594e+00 1.096211597323417664e-01 -2.490355372428894043e-01 -4.182431101799011230e-02 1.036414131522178650e-01
3.007000000000000000e+03 2.491491889953613281e+01 3.527481317520141602e+00 8.685250580310821533e-02 -1.520349532365798950e-01 -1.955473423004150391e-02 6.934209167957305908e-02
3.008000000000000000e+03 3.074304199218750000e+01 -1.504969596862792969e+00 3.129065036773681641e-02 6.236766651272773743e-02 2.809749357402324677e-02 8.425927162170410156e-02
3.009000000000000000e+03 1.176669883728027344e+01 9.278766632080078125e+00 4.989262297749519348e-02 -2.386062592267990112e-01 -5.661408975720405579e-02 1.701363027095794678e-01
3.010000000000000000e+03 1.240248012542724609e+01 1.213237953186035156e+01 8.686674386262893677e-02 -2.313278913497924805e-01 -4.333834350109100342e-02 1.337963938713073730e-01
3.011000000000000000e+03 3.543037796020507812e+01 -8.075684547424316406e+00 -3.903149627149105072e-03 3.634942695498466492e-02 9.733883664011955261e-03 1.844399720430374146e-01
3.012000000000000000e+03 3.619585800170898438e+01 -5.709676265716552734e+00 1.068017780780792236e-01 1.750670969486236572e-01 8.456066250801086426e-02 3.384644910693168640e-02
3.013000000000000000e+03 3.482239913940429688e+01 -5.058720111846923828e+00 6.784468144178390503e-02 1.475190520286560059e-01 6.460911780595779419e-02 7.019291073083877563e-02
3.014000000000000000e+03 3.243320465087890625e+01 -5.088532924652099609e+00 -3.621461614966392517e-02 4.849816113710403442e-02 3.685063216835260391e-03 1.629576236009597778e-01
3.015000000000000000e+03 2.150296592712402344e+01 4.450302124023437500e+00 6.320066004991531372e-02 -2.636889219284057617e-01 -6.014648079872131348e-02 1.155046373605728149e-01
3.016000000000000000e+03 2.183146286010742188e+01 5.356828212738037109e+00 1.021216586232185364e-01 -2.379610389471054077e-01 -4.075181484222412109e-02 9.573904424905776978e-02
3.017000000000000000e+03 3.120598030090332031e+01 -3.130299329757690430e+00 -1.347967702895402908e-02 5.000918731093406677e-02 1.095885317772626877e-02 1.252304911613464355e-01
3.018000000000000000e+03 1.273971557617187500e+01 8.759329795837402344e+00 5.356588959693908691e-02 -2.494476139545440674e-01 -5.876451358199119568e-02 1.730079054832458496e-01
3.019000000000000000e+03 3.538995742797851562e+01 -3.775453805923461914e+00 1.167757958173751831e-01 2.304791063070297241e-01 1.041764691472053528e-01 -1.992213074117898941e-03
3.020000000000000000e+03 2.380338287353515625e+01 5.109281539916992188e+00 1.217663735151290894e-01 -1.741797775030136108e-01 -1.572402194142341614e-02 6.362518668174743652e-02
3.021000000000000000e+03 2.282653999328613281e+01 5.040637016296386719e+00 1.084397733211517334e-01 -2.062487155199050903e-01 -2.934268116950988770e-02 7.912077009677886963e-02
3.022000000000000000e+03 2.971189308166503906e+01 -4.501801133155822754e-01 4.228649660944938660e-02 2.493915520608425140e-02 2.016769535839557648e-02 7.212229073047637939e-02
3.023000000000000000e+03 2.863967704772949219e+01 6.962774991989135742e-01 5.930715799331665039e-02 -9.320612996816635132e-03 1.499596331268548965e-02 6.537853926420211792e-02
3.024000000000000000e+03 2.042800903320312500e+01 8.160326004028320312e+00 1.499485373497009277e-01 -2.185689359903335571e-01 -2.058612182736396790e-02 7.954189181327819824e-02
3.025000000000000000e+03 1.763806152343750000e+01 9.104207992553710938e+00 1.261187493801116943e-01 -2.476516515016555786e-01 -3.645987063646316528e-02 1.155255660414695740e-01
3.026000000000000000e+03 2.796844291687011719e+01 2.052690505981445312e+00 9.118616580963134766e-02 -2.720208466053009033e-02 1.919522322714328766e-02 4.748485982418060303e-02
3.027000000000000000e+03 1.358972072601318359e+01 1.084798622131347656e+01 9.291423112154006958e-02 -2.416013479232788086e-01 -4.460613429546356201e-02 1.408009827136993408e-01
3.028000000000000000e+03 3.553903198242187500e+01 -7.012641906738281250e+00 4.079382866621017456e-02 8.365371078252792358e-02 3.733425959944725037e-02 1.208952441811561584e-01
3.029000000000000000e+03 1.409254550933837891e+01 8.234883308410644531e+00 5.944937095046043396e-02 -2.654685974121093750e-01 -6.180576607584953308e-02 1.715284436941146851e-01
3.030000000000000000e+03 3.572929382324218750e+01 -1.737888097763061523e+00 1.578692197799682617e-01 3.566648960113525391e-01 1.543602347373962402e-01 -6.919474899768829346e-02
3.031000000000000000e+03 1.902865982055664062e+01 8.527329444885253906e+00 1.356051713228225708e-01 -2.387899756431579590e-01 -3.095544129610061646e-02 1.003665104508399963e-01
3.032000000000000000e+03 3.201356506347656250e+01 -1.511795759201049805e+00 6.548060476779937744e-02 1.293909698724746704e-01 5.846147239208221436e-02 5.603761970996856689e-02
3.033000000000000000e+03 3.481225585937500000e+01 2.273260354995727539e+00 2.293380051851272583e-01 4.287672042846679688e-01 1.974315643310546875e-01 -1.030442714691162109e-01
3.034000000000000000e+03 1.477112770080566406e+01 1.081972885131835938e+01 1.086813434958457947e-01 -2.406203001737594604e-01 -3.958168625831604004e-02 1.291669607162475586e-01
3.035000000000000000e+03 2.562151527404785156e+01 4.242586612701416016e+00 1.289809048175811768e-01 -1.133641824126243591e-01 4.685017745941877365e-03 4.806228354573249817e-02
3.036000000000000000e+03 3.454986953735351562e+01 7.607604265213012695e-01 1.878470182418823242e-01 3.539879620075225830e-01 1.625504940748214722e-01 -6.909210234880447388e-02
3.037000000000000000e+03 2.420971679687500000e+01 4.225237369537353516e+00 1.081019192934036255e-01 -1.724236905574798584e-01 -1.929653063416481018e-02 7.169917970895767212e-02
3.038000000000000000e+03 2.559790229797363281e+01 2.846433877944946289e+00 8.528733998537063599e-02 -1.354148536920547485e-01 -1.503825560212135315e-02 7.173098623752593994e-02
3.039000000000000000e+03 1.269532108306884766e+01 1.341634082794189453e+01 9.904877096414566040e-02 -2.222428172826766968e-01 -3.695821389555931091e-02 1.130060255527496338e-01
3.040000000000000000e+03 1.326932239532470703e+01 1.819613265991210938e+01 1.001480743288993835e-01 -1.820466667413711548e-01 -2.456957660615444183e-02 5.482942610979080200e-02
3.041000000000000000e+03 3.240029144287109375e+01 4.649909019470214844e+00 2.422510236501693726e-01 3.016618490219116211e-01 1.631738692522048950e-01 -7.706900686025619507e-02
3.042000000000000000e+03 1.463729000091552734e+01 1.958509063720703125e+01 1.085491925477981567e-01 -1.509052813053131104e-01 -1.270682644098997116e-02 2.840144187211990356e-02
3.043000000000000000e+03 3.034193992614746094e+01 1.865569305419921875e+01 1.954181492328643799e-01 3.479733169078826904e-01 1.630174368619918823e-01 -1.588101834058761597e-01
3.044000000000000000e+03 1.463528251647949219e+01 9.659743309020996094e+00 9.349685907363891602e-02 -2.535308301448822021e-01 -4.801018908619880676e-02 1.479213833808898926e-01
3.045000000000000000e+03 1.302337455749511719e+01 1.451383495330810547e+01 1.067996099591255188e-01 -2.139652967453002930e-01 -3.214970603585243225e-02 9.834779053926467896e-02
3.046000000000000000e+03 3.410755157470703125e+01 3.158813238143920898e+00 2.288809120655059814e-01 3.930859267711639404e-01 1.865900456905364990e-01 -9.248869121074676514e-02
3.047000000000000000e+03 2.003624153137207031e+01 8.986349105834960938e+00 1.568405330181121826e-01 -2.132523953914642334e-01 -1.692355982959270477e-02 7.558703422546386719e-02
3.048000000000000000e+03 1.624430465698242188e+01 9.750963211059570312e+00 1.165332347154617310e-01 -2.501019537448883057e-01 -4.007061943411827087e-02 1.266741752624511719e-01
3.049000000000000000e+03 3.078276252746582031e+01 -5.572652816772460938e-01 7.156760245561599731e-02 8.369144797325134277e-02 4.657771438360214233e-02 5.737570300698280334e-02
3.050000000000000000e+03 3.181425094604492188e+01 -4.134350776672363281e+00 -1.605068147182464600e-02 5.551457032561302185e-02 1.183916628360748291e-02 1.418182998895645142e-01
3.051000000000000000e+03 3.420538330078125000e+01 -8.229340553283691406e+00 -5.011027678847312927e-02 5.999310873448848724e-03 -1.323328912258148193e-02 2.310853451490402222e-01
3.052000000000000000e+03 3.523509216308593750e+01 -5.980348110198974609e+00 5.335238948464393616e-02 1.187219247221946716e-01 5.162229388952255249e-02 9.515647590160369873e-02
3.053000000000000000e+03 2.268482208251953125e+01 9.730337142944335938e+00 2.032518088817596436e-01 -1.251299828290939331e-01 2.343654818832874298e-02 1.622609049081802368e-02
3.054000000000000000e+03 2.143409729003906250e+01 6.750423908233642578e+00 1.367093026638031006e-01 -2.234748899936676025e-01 -2.602967433631420135e-02 8.247434347867965698e-02
3.055000000000000000e+03 1.129777812957763672e+01 1.032428169250488281e+01 5.757503956556320190e-02 -2.335836887359619141e-01 -5.280259624123573303e-02 1.582312434911727905e-01
3.056000000000000000e+03 2.464749717712402344e+01 5.446784019470214844e+00 1.476282477378845215e-01 -1.319145411252975464e-01 4.714114591479301453e-03 4.322233796119689941e-02
3.057000000000000000e+03 2.329522514343261719e+01 6.662580490112304688e+00 1.548314988613128662e-01 -1.621950417757034302e-01 -2.209061291068792343e-03 4.799976199865341187e-02
3.058000000000000000e+03 2.706692695617675781e+01 2.726600170135498047e+00 1.022823601961135864e-01 -6.151796504855155945e-02 1.222931873053312302e-02 5.193865671753883362e-02
3.059000000000000000e+03 2.633393287658691406e+01 3.547160863876342773e+00 1.114697605371475220e-01 -8.821523189544677734e-02 6.976357195526361465e-03 4.824778437614440918e-02
3.060000000000000000e+03 2.013671112060546875e+01 6.966293811798095703e+00 1.235181763768196106e-01 -2.483130693435668945e-01 -3.743846714496612549e-02 1.018797978758811951e-01
3.061000000000000000e+03 3.228174972534179688e+01 1.749904036521911621e+00 1.621695458889007568e-01 2.272991240024566650e-01 1.168406009674072266e-01 -2.433271892368793488e-02
3.062000000000000000e+03 2.973077774047851562e+01 -1.234307169914245605e+00 1.317629870027303696e-02 7.137350738048553467e-03 6.094094831496477127e-03 9.472601115703582764e-02
3.063000000000000000e+03 2.370134544372558594e+01 6.057279586791992188e+00 1.496207416057586670e-01 -1.596466153860092163e-01 -3.007761668413877487e-03 5.007283389568328857e-02
3.064000000000000000e+03 2.095098304748535156e+01 5.535722255706787109e+00 9.405924379825592041e-02 -2.549128532409667969e-01 -4.825608432292938232e-02 1.077417358756065369e-01
3.065000000000000000e+03 3.390910720825195312e+01 -3.208272218704223633e+00 8.278204500675201416e-02 1.783045381307601929e-01 7.832597196102142334e-02 4.417058825492858887e-02
3.066000000000000000e+03 1.263677215576171875e+01 9.644833564758300781e+00 6.447707861661911011e-02 -2.455464899539947510e-01 -5.432082340121269226e-02 1.637934595346450806e-01
3.067000000000000000e+03 3.464089202880859375e+01 -1.968597531318664551e+00 1.360016465187072754e-01 2.670285701751708984e-01 1.209090650081634521e-01 -1.761254295706748962e-02
3.068000000000000000e+03 3.419207000732421875e+01 -8.350395411252975464e-02 1.578638404607772827e-01 3.082128167152404785e-01 1.398230046033859253e-01 -4.374109953641891479e-02
3.069000000000000000e+03 3.167073822021484375e+01 3.709893703460693359e+00 2.159085124731063843e-01 2.291341274976730347e-01 1.335127949714660645e-01 -4.379241913557052612e-02
3.070000000000000000e+03 2.974163055419921875e+01 4.076255261898040771e-01 7.751238346099853516e-02 4.249048605561256409e-02 3.600086271762847900e-02 5.585281178355216980e-02
3.071000000000000000e+03 3.382664871215820312e+01 1.503274679183959961e+00 1.852531433105468750e-01 3.269960582256317139e-01 1.536747664213180542e-01 -5.935074016451835632e-02
3.072000000000000000e+03 3.045549201965332031e+01 2.070433378219604492e+00 1.476302593946456909e-01 1.131312623620033264e-01 7.822845876216888428e-02 8.244155906140804291e-03
3.073000000000000000e+03 3.003487968444824219e+01 1.252618908882141113e+00 1.092587113380432129e-01 7.924466580152511597e-02 5.655101314187049866e-02 2.704585716128349304e-02
3.074000000000000000e+03 1.400843620300292969e+01 1.428631973266601562e+01 1.179332509636878967e-01 -2.096994072198867798e-01 -2.752984687685966492e-02 9.163898229598999023e-02
3.075000000000000000e+03 1.240413188934326172e+01 1.079697227478027344e+01 7.615678757429122925e-02 -2.379134297370910645e-01 -4.852699488401412964e-02 1.487977355718612671e-01
3.076000000000000000e+03 1.587753868103027344e+01 1.645312500000000000e+01 1.342301517724990845e-01 -1.661685705184936523e-01 -9.581525810062885284e-03 4.816742613911628723e-02
3.077000000000000000e+03 1.360740756988525391e+01 1.203460121154785156e+01 1.025965809822082520e-01 -2.321272939443588257e-01 -3.885921463370323181e-02 1.250786781311035156e-01
3.078000000000000000e+03 2.783524703979492188e+01 3.631524562835693359e+00 1.452285051345825195e-01 -2.682945458218455315e-03 4.276366531848907471e-02 1.746203750371932983e-02
3.079000000000000000e+03 1.867530250549316406e+01 9.545837402343750000e+00 1.457015573978424072e-01 -2.259782552719116211e-01 -2.408300898969173431e-02 9.262995421886444092e-02
3.080000000000000000e+03 1.706126403808593750e+01 1.216083240509033203e+01 1.490372419357299805e-01 -2.079584449529647827e-01 -1.767636090517044067e-02 8.404371887445449829e-02
3.081000000000000000e+03 3.248350524902343750e+01 3.113141775131225586e+00 2.024917602539062500e-01 2.706649303436279297e-01 1.419470012187957764e-01 -5.393468588590621948e-02
3.082000000000000000e+03 2.098985862731933594e+01 9.294815063476562500e+00 1.740683913230895996e-01 -1.847219169139862061e-01 -3.196056000888347626e-03 5.382086336612701416e-02
3.083000000000000000e+03 2.089793395996093750e+01 7.439561843872070312e+00 1.381549835205078125e-01 -2.232073992490768433e-01 -2.551572397351264954e-02 8.219764381647109985e-02
3.084000000000000000e+03 1.339688396453857422e+01 1.944524192810058594e+01 9.579596668481826782e-02 -1.714040338993072510e-01 -2.268242090940475464e-02 4.184788092970848083e-02
3.085000000000000000e+03 1.306810665130615234e+01 2.053668785095214844e+01 8.542744070291519165e-02 -1.698433756828308105e-01 -2.532478049397468567e-02 3.363487496972084045e-02
3.086000000000000000e+03 2.874881744384765625e+01 1.192177295684814453e+01 2.787711322307586670e-01 1.767404079437255859e-01 1.366534680128097534e-01 -1.113238930702209473e-01
3.087000000000000000e+03 2.993037796020507812e+01 7.689085960388183594e+00 2.724241614341735840e-01 1.840166151523590088e-01 1.369322240352630615e-01 -7.383952289819717407e-02
3.088000000000000000e+03 3.039593696594238281e+01 8.759599685668945312e+00 2.916299402713775635e-01 2.296418249607086182e-01 1.563815176486968994e-01 -1.022940948605537415e-01
3.089000000000000000e+03 2.758288002014160156e+01 1.422650051116943359e+01 2.557710409164428711e-01 1.510942876338958740e-01 1.220595985651016235e-01 -1.117579936981201172e-01
3.090000000000000000e+03 2.910000801086425781e+01 1.535914993286132812e+01 2.503486275672912598e-01 2.435058951377868652e-01 1.481563597917556763e-01 -1.390004158020019531e-01
3.091000000000000000e+03 3.166126441955566406e+01 8.241618156433105469e+00 3.103647232055664062e-01 3.081181347370147705e-01 1.855448633432388306e-01 -1.110727861523628235e-01
3.092000000000000000e+03 3.047600555419921875e+01 5.531308174133300781e+00 2.401207536458969116e-01 1.850221157073974609e-01 1.275428533554077148e-01 -5.611135438084602356e-02
3.093000000000000000e+03 2.546756935119628906e+01 5.559128761291503906e+00 1.629015952348709106e-01 -9.099448472261428833e-02 2.157213352620601654e-02 2.869934588670730591e-02
3.094000000000000000e+03 2.498556327819824219e+01 4.803542613983154297e+00 1.342698186635971069e-01 -1.241252422332763672e-01 3.043371718376874924e-03 4.771512374281883240e-02
3.095000000000000000e+03 3.231160354614257812e+01 -2.591948509216308594e+00 4.964764788746833801e-02 1.183132305741310120e-01 5.038826167583465576e-02 7.563182711601257324e-02
3.096000000000000000e+03 3.321366882324218750e+01 -7.404723644256591797e+00 -7.400377839803695679e-02 1.195690408349037170e-02 -1.861406117677688599e-02 2.278519868850708008e-01
3.097000000000000000e+03 3.319056701660156250e+01 2.373230934143066406e+00 2.048542350530624390e-01 3.002279102802276611e-01 1.515246480703353882e-01 -5.946417525410652161e-02
3.098000000000000000e+03 3.379798126220703125e+01 -7.752558231353759766e+00 -6.689114123582839966e-02 2.206837944686412811e-02 -1.344682741910219193e-02 2.124869525432586670e-01
3.099000000000000000e+03 1.728054809570312500e+01 1.013016033172607422e+01 1.333127021789550781e-01 -2.354473024606704712e-01 -3.064038231968879700e-02 1.074897721409797668e-01
3.100000000000000000e+03 3.336658477783203125e+01 -4.574812412261962891e+00 2.545423805713653564e-02 1.047838777303695679e-01 3.907143324613571167e-02 1.111366823315620422e-01
3.101000000000000000e+03 3.298649597167968750e+01 -6.014629840850830078e+00 -3.428974747657775879e-02 4.708789661526679993e-02 3.839444601908326149e-03 1.810375601053237915e-01
3.102000000000000000e+03 2.214929580688476562e+01 6.223872661590576172e+00 1.292828023433685303e-01 -2.071503400802612305e-01 -2.336026541888713837e-02 7.595364004373550415e-02
3.103000000000000000e+03 2.406907653808593750e+01 8.577173233032226562e+00 2.037746012210845947e-01 -9.930221736431121826e-02 3.134171664714813232e-02 6.889588199555873871e-03
3.104000000000000000e+03 3.388186264038085938e+01 -5.466708660125732422e+00 1.155399810522794724e-02 9.091535210609436035e-02 3.074080497026443481e-02 1.319458782672882080e-01
3.105000000000000000e+03 3.436497116088867188e+01 -4.145265579223632812e+00 6.224056705832481384e-02 1.639403700828552246e-01 6.785427778959274292e-02 6.405454874038696289e-02
3.106000000000000000e+03 3.076756095886230469e+01 2.481236755847930908e-01 8.951632678508758545e-02 1.023342162370681763e-01 5.755516141653060913e-02 3.477532416582107544e-02
3.107000000000000000e+03 2.450427627563476562e+01 6.266165256500244141e+00 1.563535481691360474e-01 -1.321436464786529541e-01 7.262970320880413055e-03 3.908553719520568848e-02
3.108000000000000000e+03 2.630212593078613281e+01 5.153635025024414062e+00 1.632005274295806885e-01 -6.132593378424644470e-02 3.056238032877445221e-02 2.040207944810390472e-02
3.109000000000000000e+03 2.865216445922851562e+01 3.000914573669433594e+00 1.460522562265396118e-01 2.863512374460697174e-02 5.240621417760848999e-02 1.870069466531276703e-02
3.110000000000000000e+03 3.438684082031250000e+01 -1.049374461174011230e+00 1.360225379467010498e-01 2.779351770877838135e-01 1.241873130202293396e-01 -2.684173360466957092e-02
3.111000000000000000e+03 3.351949310302734375e+01 -2.248411655426025391e+00 8.933895081281661987e-02 1.899453550577163696e-01 8.378529548645019531e-02 3.104533627629280090e-02
3.112000000000000000e+03 1.698351860046386719e+01 1.112740898132324219e+01 1.385739743709564209e-01 -2.254467010498046875e-01 -2.606181800365447998e-02 9.883567690849304199e-02
3.113000000000000000e+03 2.901524543762207031e+01 1.609939098358154297e+00 1.041245609521865845e-01 2.453346550464630127e-02 3.859740868210792542e-02 4.178415983915328979e-02
3.114000000000000000e+03 1.594764614105224609e+01 1.219597530364990234e+01 1.361833959817886353e-01 -2.172137051820755005e-01 -2.430909313261508942e-02 9.643289446830749512e-02
3.115000000000000000e+03 1.774438476562500000e+01 1.324613761901855469e+01 1.596523821353912354e-01 -1.825000792741775513e-01 -6.854307372123003006e-03 5.894298478960990906e-02
3.116000000000000000e+03 2.166847991943359375e+01 7.874762058258056641e+00 1.619280278682708740e-01 -1.964371502399444580e-01 -1.035273540765047073e-02 6.103226915001869202e-02
3.117000000000000000e+03 1.597771835327148438e+01 1.800570106506347656e+01 1.292389333248138428e-01 -1.472125500440597534e-01 -5.392082035541534424e-03 3.042774461209774017e-02
3.118000000000000000e+03 1.436382389068603516e+01 2.122922897338867188e+01 9.205996990203857422e-02 -1.418096870183944702e-01 -1.492491550743579865e-02 1.731660403311252594e-02
3.119000000000000000e+03 2.956124114990234375e+01 5.815088272094726562e+00 2.317521274089813232e-01 1.277770251035690308e-01 1.078587472438812256e-01 -4.203706607222557068e-02
3.120000000000000000e+03 1.476657962799072266e+01 1.202541351318359375e+01 1.177310645580291748e-01 -2.288484275341033936e-01 -3.333520889282226562e-02 1.147656440734863281e-01
3.121000000000000000e+03 1.447716808319091797e+01 1.669261932373046875e+01 1.187882646918296814e-01 -1.814148873090744019e-01 -1.878798566758632660e-02 5.988520011305809021e-02
3.122000000000000000e+03 1.554015541076660156e+01 1.504450130462646484e+01 1.343635022640228271e-01 -1.855700016021728516e-01 -1.536195166409015656e-02 6.567868590354919434e-02
3.123000000000000000e+03 2.822047615051269531e+01 1.074042224884033203e+01 2.734014093875885010e-01 1.304537057876586914e-01 1.211565360426902771e-01 -8.874364197254180908e-02
3.124000000000000000e+03 2.905950736999511719e+01 9.129657745361328125e+00 2.757221460342407227e-01 1.511097997426986694e-01 1.280495822429656982e-01 -8.112955838441848755e-02
3.125000000000000000e+03 3.110511207580566406e+01 7.389166355133056641e+00 2.767772972583770752e-01 2.484299689531326294e-01 1.575621813535690308e-01 -9.207825362682342529e-02
3.126000000000000000e+03 1.606500625610351562e+01 2.146375656127929688e+01 1.042236536741256714e-01 -1.102861166000366211e-01 -1.818738761357963085e-03 -5.871577304787933826e-04
3.127000000000000000e+03 2.840649795532226562e+01 1.355148029327392578e+01 2.658691704273223877e-01 1.827295124530792236e-01 1.345795989036560059e-01 -1.211613714694976807e-01
3.128000000000000000e+03 2.850313568115234375e+01 1.852988433837890625e+01 1.936856061220169067e-01 2.515136897563934326e-01 1.335597932338714600e-01 -1.391877532005310059e-01
3.129000000000000000e+03 1.667882728576660156e+01 1.422004985809326172e+01 1.488528549671173096e-01 -1.839132457971572876e-01 -1.051811873912811279e-02 6.382187455892562866e-02
3.130000000000000000e+03 1.476024532318115234e+01 1.307501411437988281e+01 1.224768236279487610e-01 -2.185266613960266113e-01 -2.881495095789432526e-02 1.012522205710411072e-01
3.131000000000000000e+03 3.307081222534179688e+01 -1.941226720809936523e-01 1.304008066654205322e-01 2.254908233880996704e-01 1.067674905061721802e-01 -8.564462885260581970e-03
3.132000000000000000e+03 2.634314537048339844e+01 7.160213470458984375e+00 2.077859491109848022e-01 -2.329685166478157043e-02 5.534673109650611877e-02 -1.209866907447576523e-02
3.133000000000000000e+03 3.136301040649414062e+01 1.685514688491821289e+00 1.484061032533645630e-01 1.681341826915740967e-01 9.496209025382995605e-02 -7.734481710940599442e-03
3.134000000000000000e+03 2.707682609558105469e+01 4.386622905731201172e+00 1.601928323507308960e-01 -3.116556629538536072e-02 3.870818018913269043e-02 1.949730142951011658e-02
3.135000000000000000e+03 2.719154739379882812e+01 6.144716262817382812e+00 2.089419662952423096e-01 -1.262581499759107828e-04 6.264471262693405151e-02 -1.091459300369024277e-02
3.136000000000000000e+03 1.831483268737792969e+01 1.058971405029296875e+01 1.532837599515914917e-01 -2.149891555309295654e-01 -1.851161755621433258e-02 8.428168296813964844e-02
3.137000000000000000e+03 3.166628456115722656e+01 4.043554961681365967e-01 1.146952807903289795e-01 1.555906832218170166e-01 8.108579367399215698e-02 1.931620016694068909e-02
3.138000000000000000e+03 3.497113037109375000e+01 -2.870303392410278320e+00 1.126722469925880432e-01 2.523225545883178711e-01 1.094984412193298340e-01 -3.553480142727494240e-03
3.139000000000000000e+03 2.592014312744140625e+01 1.203948688507080078e+01 2.500404715538024902e-01 3.665145486593246460e-02 8.600757271051406860e-02 -6.500707566738128662e-02
3.140000000000000000e+03 2.278336906433105469e+01 7.622771739959716797e+00 1.733261644840240479e-01 -1.590846329927444458e-01 4.272456746548414230e-03 4.184517636895179749e-02
3.141000000000000000e+03 1.594508838653564453e+01 1.092589282989501953e+01 1.237566247582435608e-01 -2.361353486776351929e-01 -3.371362015604972839e-02 1.160045191645622253e-01
3.142000000000000000e+03 1.973007774353027344e+01 9.971072196960449219e+00 1.675324141979217529e-01 -2.012128084897994995e-01 -1.010411791503429413e-02 6.708643585443496704e-02
3.143000000000000000e+03 3.099874687194824219e+01 2.875658512115478516e+00 1.740245223045349121e-01 1.722119599580764771e-01 1.038709431886672974e-01 -2.336196787655353546e-02
3.144000000000000000e+03 1.943779182434082031e+01 1.114973068237304688e+01 1.724121123552322388e-01 -1.859154552221298218e-01 -4.051003605127334595e-03 5.772761255502700806e-02
3.145000000000000000e+03 3.081657218933105469e+01 4.211391925811767578e+00 2.085921019315719604e-01 1.856191307306289673e-01 1.182633712887763977e-01 -4.054480791091918945e-02
3.146000000000000000e+03 2.968917274475097656e+01 6.683912277221679688e+00 2.500540018081665039e-01 1.537148803472518921e-01 1.211306601762771606e-01 -6.298976391553878784e-02
3.147000000000000000e+03 1.723502349853515625e+01 1.641995620727539062e+01 1.488700807094573975e-01 -1.487900316715240479e-01 2.401570782240014523e-05 3.109357878565788269e-02
3.148000000000000000e+03 3.083303070068359375e+01 6.455765247344970703e+00 2.669865190982818604e-01 2.193675786256790161e-01 1.459062248468399048e-01 -7.315824925899505615e-02
3.149000000000000000e+03 2.080295372009277344e+01 1.020477104187011719e+01 1.811689883470535278e-01 -1.755495220422744751e-01 1.685837050899863243e-03 4.839407280087471008e-02
3.150000000000000000e+03 2.842822837829589844e+01 6.687193393707275391e+00 2.289861738681793213e-01 7.429893314838409424e-02 9.098552912473678589e-02 -3.628510236740112305e-02
3.151000000000000000e+03 2.785946655273437500e+01 5.184293746948242188e+00 1.911186873912811279e-01 2.223493345081806183e-02 6.400609016418457031e-02 -9.496052749454975128e-03
3.152000000000000000e+03 2.954486465454101562e+01 2.499090671539306641e+00 1.366131901741027832e-01 7.240250706672668457e-02 6.270470470190048218e-02 1.053668651729822159e-02
3.153000000000000000e+03 2.855056190490722656e+01 7.888937950134277344e+00 2.552781403064727783e-01 9.832259267568588257e-02 1.060802266001701355e-01 -5.848840624094009399e-02
3.154000000000000000e+03 3.271383285522460938e+01 8.570017218589782715e-01 1.600103974342346191e-01 2.337576448917388916e-01 1.181304082274436951e-01 -2.228317223489284515e-02
3.155000000000000000e+03 2.775051307678222656e+01 9.519387245178222656e+00 2.616176605224609375e-01 8.661492913961410522e-02 1.044697761535644531e-01 -6.926081329584121704e-02
3.156000000000000000e+03 2.933512878417968750e+01 3.851688146591186523e+00 1.771885901689529419e-01 8.373302221298217773e-02 7.827648520469665527e-02 -1.006785966455936432e-02
3.157000000000000000e+03 2.603175163269042969e+01 1.417631244659423828e+01 2.419326007366180420e-01 8.233150839805603027e-02 9.727923572063446045e-02 -8.752407878637313843e-02
3.158000000000000000e+03 1.605112838745117188e+01 1.962378120422363281e+01 1.193987801671028137e-01 -1.313959211111068726e-01 -3.599143354222178459e-03 1.690611615777015686e-02
3.159000000000000000e+03 2.819362449645996094e+01 2.032694244384765625e+01 1.639393121004104614e-01 2.596602737903594971e-01 1.270798742771148682e-01 -1.388004273176193237e-01
3.160000000000000000e+03 2.668457603454589844e+01 1.811494445800781250e+01 2.025178372859954834e-01 1.593503952026367188e-01 1.085604652762413025e-01 -1.172362044453620911e-01
3.161000000000000000e+03 3.102468490600585938e+01 9.542610049247741699e-01 1.269125640392303467e-01 1.304615885019302368e-01 7.721224427223205566e-02 1.722882501780986786e-02
3.162000000000000000e+03 3.189479637145996094e+01 -4.824158847332000732e-01 9.967885166406631470e-02 1.525713354349136353e-01 7.567505538463592529e-02 2.929314412176609039e-02
3.163000000000000000e+03 2.690379142761230469e+01 1.101866722106933594e+01 2.608343660831451416e-01 7.010160386562347412e-02 9.928078949451446533e-02 -7.329548150300979614e-02
3.164000000000000000e+03 2.537335205078125000e+01 6.470249176025390625e+00 1.860737055540084839e-01 -7.925900071859359741e-02 3.204441070556640625e-02 1.403562538325786591e-02
3.165000000000000000e+03 2.718056869506835938e+01 8.295388221740722656e+00 2.432727813720703125e-01 3.526338934898376465e-02 8.356085419654846191e-02 -4.006617143750190735e-02
3.166000000000000000e+03 1.784845542907714844e+01 1.154430484771728516e+01 1.536624580621719360e-01 -2.067242711782455444e-01 -1.591854356229305267e-02 7.897704094648361206e-02
3.167000000000000000e+03 2.482324981689453125e+01 1.134783935546875000e+01 2.343035191297531128e-01 -2.463237009942531586e-02 6.290134787559509277e-02 -3.570175915956497192e-02
3.168000000000000000e+03 2.370769691467285156e+01 7.494099617004394531e+00 1.829002946615219116e-01 -1.350445896387100220e-01 1.435671374201774597e-02 3.259915858507156372e-02
3.169000000000000000e+03 2.211488533020019531e+01 8.815455436706542969e+00 1.797823309898376465e-01 -1.624921709299087524e-01 5.187049042433500290e-03 3.941679745912551880e-02
3.170000000000000000e+03 2.869704437255859375e+01 5.732910633087158203e+00 2.179341167211532593e-01 6.916806846857070923e-02 8.613065630197525024e-02 -2.962582930922508240e-02
3.171000000000000000e+03 2.920229148864746094e+01 5.111660480499267578e+00 2.093459963798522949e-01 9.371165186166763306e-02 9.091729670763015747e-02 -2.752896584570407867e-02
3.172000000000000000e+03 3.177050590515136719e+01 2.395049333572387695e+00 1.832972317934036255e-01 2.091733813285827637e-01 1.177411824464797974e-01 -2.501093968749046326e-02
3.173000000000000000e+03 3.016464996337890625e+01 3.352610111236572266e+00 1.838553845882415771e-01 1.210454031825065613e-01 9.147023409605026245e-02 -1.107989251613616943e-02
3.174000000000000000e+03 1.974685668945312500e+01 1.564545249938964844e+01 1.794765293598175049e-01 -1.069194376468658447e-01 2.176712825894355774e-02 1.546713174320757389e-03
3.175000000000000000e+03 2.440595054626464844e+01 1.393970680236816406e+01 2.272441089153289795e-01 9.776177816092967987e-03 7.110608369112014771e-02 -5.688956379890441895e-02
3.176000000000000000e+03 2.855612373352050781e+01 4.434854030609130859e+00 1.885548084974288940e-01 4.653114825487136841e-02 7.052578777074813843e-02 -5.747696384787559509e-03
3.177000000000000000e+03 1.887780761718750000e+01 1.768307495117187500e+01 1.526793539524078369e-01 -1.002555042505264282e-01 1.572715491056442261e-02 3.492480609565973282e-04
3.178000000000000000e+03 2.073530578613281250e+01 1.134427356719970703e+01 1.894097924232482910e-01 -1.558053940534591675e-01 1.008132006973028183e-02 3.313139453530311584e-02
3.179000000000000000e+03 2.685752868652343750e+01 1.202758502960205078e+01 2.590482831001281738e-01 8.703808486461639404e-02 1.038259118795394897e-01 -8.194218575954437256e-02
3.180000000000000000e+03 1.840453338623046875e+01 2.279797744750976562e+01 1.046366095542907715e-01 -4.362656548619270325e-02 1.830301433801651001e-02 -3.244097903370857239e-02
3.181000000000000000e+03 1.783832168579101562e+01 2.107682991027832031e+01 1.211251392960548401e-01 -7.653108984231948853e-02 1.337821595370769501e-02 -1.697869040071964264e-02
3.182000000000000000e+03 1.768048477172851562e+01 1.523520374298095703e+01 1.589867621660232544e-01 -1.548540741205215454e-01 1.239810022525489330e-03 3.821825608611106873e-02
3.183000000000000000e+03 2.237356758117675781e+01 1.209371948242187500e+01 2.120190113782882690e-01 -1.022697612643241882e-01 3.292477503418922424e-02 -3.414164297282695770e-03
3.184000000000000000e+03 2.368260765075683594e+01 1.156612873077392578e+01 2.234658300876617432e-01 -6.127278506755828857e-02 4.865791276097297668e-02 -1.820900291204452515e-02
3.185000000000000000e+03 2.997038269042968750e+01 4.666927337646484375e+00 2.157450467348098755e-01 1.323318332433700562e-01 1.044230684638023376e-01 -2.823092415928840637e-02
3.186000000000000000e+03 2.591840553283691406e+01 1.994340515136718750e+01 1.667768061161041260e-01 1.520721912384033203e-01 9.565470367670059204e-02 -1.118519827723503113e-01
3.187000000000000000e+03 2.578730201721191406e+01 1.123070621490478516e+01 2.476266026496887207e-01 1.835497654974460602e-02 7.979447394609451294e-02 -5.400221422314643860e-02
3.188000000000000000e+03 2.527620887756347656e+01 7.971244335174560547e+00 2.122315913438796997e-01 -5.528049170970916748e-02 4.708533361554145813e-02 -3.727059112861752510e-03
3.189000000000000000e+03 1.872262191772460938e+01 1.435113906860351562e+01 1.700135618448257446e-01 -1.527220010757446289e-01 5.187468137592077255e-03 3.535334020853042603e-02
3.190000000000000000e+03 2.592030334472656250e+01 8.944079399108886719e+00 2.306942790746688843e-01 -1.869967766106128693e-02 6.359837949275970459e-02 -2.841478213667869568e-02
3.191000000000000000e+03 2.184140968322753906e+01 1.017080116271972656e+01 1.966741681098937988e-01 -1.445082873106002808e-01 1.564976759254932404e-02 2.680957131087779999e-02
3.192000000000000000e+03 2.332646942138671875e+01 1.044286346435546875e+01 2.141660600900650024e-01 -9.365230053663253784e-02 3.615412861108779907e-02 -3.657540073618292809e-03
3.193000000000000000e+03 2.540785789489746094e+01 1.331415081024169922e+01 2.408449351787567139e-01 3.881859406828880310e-02 8.389905840158462524e-02 -7.065179198980331421e-02
3.194000000000000000e+03 2.394529914855957031e+01 1.277741432189941406e+01 2.265008240938186646e-01 -3.029031120240688324e-02 5.886315554380416870e-02 -3.531453013420104980e-02
3.195000000000000000e+03 2.206184959411621094e+01 1.103421878814697266e+01 2.023217678070068359e-01 -1.217354312539100647e-01 2.417590282857418060e-02 1.417052187025547028e-02
3.196000000000000000e+03 1.848283004760742188e+01 1.627449226379394531e+01 1.644136756658554077e-01 -1.225280761718750000e-01 1.256568077951669693e-02 1.443544588983058929e-02
3.197000000000000000e+03 2.649356651306152344e+01 9.951170921325683594e+00 2.493806630373001099e-01 2.823007293045520782e-02 8.328322321176528931e-02 -5.006930604577064514e-02
3.198000000000000000e+03 2.533472251892089844e+01 1.049558639526367188e+01 2.362816333770751953e-01 -1.749647036194801331e-02 6.563554704189300537e-02 -3.538370132446289062e-02
3.199000000000000000e+03 2.509028244018554688e+01 1.503095817565917969e+01 2.259301990270614624e-01 5.429872870445251465e-02 8.406867831945419312e-02 -8.052846789360046387e-02
3.200000000000000000e+03 1.737874412536621094e+01 1.789629936218261719e+01 1.396686285734176636e-01 -1.276104748249053955e-01 3.617444075644016266e-03 1.790056191384792328e-02
3.201000000000000000e+03 1.355877304077148438e+01 2.712541961669921875e+01 4.629164561629295349e-02 -1.172848865389823914e-01 -2.129797078669071198e-02 -1.202106010168790817e-02
3.202000000000000000e+03 1.299816417694091797e+01 2.528915214538574219e+01 5.498014390468597412e-02 -1.393849253654479980e-01 -2.532143332064151764e-02 6.728070438839495182e-04
3.203000000000000000e+03 2.240612030029296875e+01 1.689212799072265625e+01 1.907528340816497803e-01 -1.707275025546550751e-02 5.210402607917785645e-02 -4.728121310472488403e-02
3.204000000000000000e+03 1.880010604858398438e+01 1.232123374938964844e+01 1.730940490961074829e-01 -1.808016300201416016e-01 -2.312271855771541595e-03 5.461390316486358643e-02
3.205000000000000000e+03 2.462532997131347656e+01 9.662742614746093750e+00 2.242728322744369507e-01 -5.739215388894081116e-02 5.006420239806175232e-02 -1.236828695982694626e-02
3.206000000000000000e+03 1.979017639160156250e+01 1.339984607696533203e+01 1.813144385814666748e-01 -1.444124728441238403e-01 1.107059232890605927e-02 2.804494276642799377e-02
3.207000000000000000e+03 2.606721115112304688e+01 1.596758651733398438e+01 2.291113287210464478e-01 1.057867556810379028e-01 1.004694253206253052e-01 -1.004044562578201294e-01
3.208000000000000000e+03 2.102226829528808594e+01 1.261798000335693359e+01 1.964470297098159790e-01 -1.257321834564208984e-01 2.121445350348949432e-02 1.599425263702869415e-02
3.209000000000000000e+03 2.278696250915527344e+01 1.329710006713867188e+01 2.154114246368408203e-01 -6.763797253370285034e-02 4.433203488588333130e-02 -2.008593641221523285e-02
3.210000000000000000e+03 2.499306488037109375e+01 1.236419105529785156e+01 2.386242598295211792e-01 8.724442450329661369e-04 7.184901088476181030e-02 -5.096842348575592041e-02
3.211000000000000000e+03 2.052901077270507812e+01 1.925935554504394531e+01 1.617754697799682617e-01 -3.284981846809387207e-02 3.867769241333007812e-02 -4.106742143630981445e-02
3.212000000000000000e+03 1.902499198913574219e+01 1.914688682556152344e+01 1.496056318283081055e-01 -8.122374862432479858e-02 2.051456645131111145e-02 -1.355588529258966446e-02
3.213000000000000000e+03 2.028914833068847656e+01 2.184544181823730469e+01 1.202088817954063416e-01 -6.097099278122186661e-03 3.423353657126426697e-02 -4.561353102326393127e-02
3.214000000000000000e+03 1.531579399108886719e+01 2.645849990844726562e+01 5.765277892351150513e-02 -8.366005867719650269e-02 -7.802183739840984344e-03 -2.002111636102199554e-02
3.215000000000000000e+03 2.163391494750976562e+01 1.382041168212890625e+01 2.042024880647659302e-01 -9.235486388206481934e-02 3.355428948998451233e-02 -9.925610385835170746e-03
3.216000000000000000e+03 1.915235137939453125e+01 2.467598915100097656e+01 8.545342832803726196e-02 -9.289604611694812775e-03 2.284914627671241760e-02 -4.362715408205986023e-02
3.217000000000000000e+03 2.378492355346679688e+01 1.881084060668945312e+01 1.789906322956085205e-01 5.938069522380828857e-02 7.151139527559280396e-02 -8.064842224121093750e-02
3.218000000000000000e+03 1.719882774353027344e+01 2.561768341064453125e+01 6.932388246059417725e-02 -4.752906039357185364e-02 6.538446526974439621e-03 -3.100047260522842407e-02
3.219000000000000000e+03 2.195449638366699219e+01 1.511590766906738281e+01 1.983893811702728271e-01 -6.132521480321884155e-02 4.111925140023231506e-02 -2.376851625740528107e-02
3.220000000000000000e+03 2.393977165222167969e+01 1.598258972167968750e+01 2.121745347976684570e-01 2.856664545834064484e-02 7.222235947847366333e-02 -6.736249476671218872e-02
3.221000000000000000e+03 2.059054565429687500e+01 1.741869544982910156e+01 1.731123477220535278e-01 -5.750665068626403809e-02 3.468170762062072754e-02 -2.565361745655536652e-02
3.222000000000000000e+03 2.385848045349121094e+01 2.462680244445800781e+01 9.146942943334579468e-02 1.348535865545272827e-01 6.789690256118774414e-02 -9.227458387613296509e-02
3.223000000000000000e+03 2.074219131469726562e+01 1.466871738433837891e+01 1.930921226739883423e-01 -9.676121175289154053e-02 2.889927476644515991e-02 -3.484080079942941666e-03
3.224000000000000000e+03 2.508882331848144531e+01 1.725503158569335938e+01 2.084567546844482422e-01 8.597024530172348022e-02 8.832810074090957642e-02 -9.440144896507263184e-02
3.225000000000000000e+03 2.326068878173828125e+01 1.460512924194335938e+01 2.099461108446121216e-01 -2.137045934796333313e-02 5.657269433140754700e-02 -4.153501987457275391e-02
3.226000000000000000e+03 2.213089370727539062e+01 2.047864532470703125e+01 1.493983268737792969e-01 3.068294748663902283e-02 5.402438342571258545e-02 -6.577847898006439209e-02
3.227000000000000000e+03 1.381179428100585938e+01 2.928024864196777344e+01 3.045251034200191498e-02 -1.009469106793403625e-01 -2.114832028746604919e-02 -1.855704374611377716e-02
3.228000000000000000e+03 3.363346481323242188e+01 2.693557357788085938e+01 6.231328938156366348e-03 4.798027873039245605e-01 1.458102315664291382e-01 -1.067220792174339294e-01
3.229000000000000000e+03 3.467739105224609375e+01 2.401213073730468750e+01 5.432559549808502197e-02 5.524265766143798828e-01 1.820256561040878296e-01 -1.149922236800193787e-01
3.230000000000000000e+03 4.974030685424804688e+01 -3.886256027221679688e+01 -1.356540471315383911e-01 1.008622169494628906e+00 2.618904113769531250e-01 2.967481911182403564e-01
3.231000000000000000e+03 9.946525573730468750e+00 3.754500198364257812e+01 -4.706827457994222641e-03 -1.785538345575332642e-01 -5.497819930315017700e-02 -7.105431985110044479e-03
3.232000000000000000e+03 2.420862770080566406e+01 2.921891403198242188e+01 2.169000729918479919e-02 1.838875561952590942e-01 6.167327240109443665e-02 -8.498377352952957153e-02
3.233000000000000000e+03 2.114903450012207031e+01 2.362511062622070312e+01 1.056813672184944153e-01 3.091501817107200623e-02 4.097891598939895630e-02 -6.110421940684318542e-02
3.234000000000000000e+03 3.432147598266601562e+01 -3.896351623535156250e+01 5.472064390778541565e-02 -1.824749708175659180e-01 -3.832629695534706116e-02 -9.114906191825866699e-02
3.235000000000000000e+03 2.589642715454101562e+01 2.419980812072753906e+01 9.343183040618896484e-02 1.989776045083999634e-01 8.772283047437667847e-02 -1.121288388967514038e-01
3.236000000000000000e+03 2.599870681762695312e+01 2.601892852783203125e+01 6.611872464418411255e-02 2.200093865394592285e-01 8.583843708038330078e-02 -1.079727336764335632e-01
3.237000000000000000e+03 1.259248065948486328e+01 -4.144051361083984375e+01 -3.077966161072254181e-03 2.837062813341617584e-03 -7.227100286399945617e-05 4.106771302758716047e-05
3.238000000000000000e+03 7.311155700683593750e+01 -3.813373184204101562e+01 -2.966098785400390625e-01 6.046821594238281250e+00 1.725063562393188477e+00 1.872900575399398804e-01
3.239000000000000000e+03 7.320303344726562500e+01 -3.601990509033203125e+01 -6.279769539833068848e-01 6.537896633148193359e+00 1.772975921630859375e+00 2.531005740165710449e-01
3.240000000000000000e+03 3.026088142395019531e+01 2.045841789245605469e+01 1.562397032976150513e-01 3.556015789508819580e-01 1.535523831844329834e-01 -1.539939194917678833e-01
3.241000000000000000e+03 5.246414566040039062e+01 -3.485657882690429688e+01 8.692572265863418579e-02 1.832401156425476074e+00 5.757980942726135254e-01 5.151777267456054688e-01
3.242000000000000000e+03 7.588773727416992188e+00 3.691091537475585938e+01 -1.409446820616722107e-03 -2.324885874986648560e-01 -7.016941159963607788e-02 -3.655240871012210846e-03
3.243000000000000000e+03 4.164590072631835938e+01 3.560189819335937500e+01 -1.457437425851821899e-01 4.659650027751922607e-01 9.606637805700302124e-02 6.844459567219018936e-03
3.244000000000000000e+03 3.362220382690429688e+01 3.054984474182128906e+01 -5.811478197574615479e-02 4.592702388763427734e-01 1.203466430306434631e-01 -8.322931826114654541e-02
3.245000000000000000e+03 3.561282348632812500e+01 3.233396530151367188e+01 -9.395707398653030396e-02 4.870901405811309814e-01 1.179399266839027405e-01 -6.072989851236343384e-02
3.246000000000000000e+03 2.540517997741699219e+01 -3.583822250366210938e+01 -4.721764940768480301e-03 -7.599550299346446991e-03 -3.696394618600606918e-03 2.373561961576342583e-03
3.247000000000000000e+03 3.091667366027832031e+01 -3.638930130004882812e+01 -2.656540460884571075e-02 -3.776116669178009033e-02 -1.929797232151031494e-02 -4.852596670389175415e-02
3.248000000000000000e+03 7.660592651367187500e+01 -3.883942413330078125e+01 -3.230606019496917725e-01 8.179461479187011719e+00 2.356920242309570312e+00 -7.788834720849990845e-02
3.249000000000000000e+03 1.588784980773925781e+01 2.872417068481445312e+01 3.859585523605346680e-02 -5.436417460441589355e-02 -4.730496555566787720e-03 -2.971156686544418335e-02
3.250000000000000000e+03 3.217906570434570312e+01 -3.772040557861328125e+01 -4.731674212962388992e-03 -1.001812294125556946e-01 -3.147387132048606873e-02 -6.868617236614227295e-02
3.251000000000000000e+03 3.812390899658203125e+01 3.324703216552734375e+01 -1.133812963962554932e-01 5.072855353355407715e-01 1.181712821125984192e-01 -3.272422030568122864e-02
3.252000000000000000e+03 2.807140922546386719e+01 2.228000450134277344e+01 1.275736689567565918e-01 2.681828737258911133e-01 1.187269687652587891e-01 -1.359398216009140015e-01
3.253000000000000000e+03 1.270125865936279297e+01 -3.922560119628906250e+01 -3.047175938263535500e-03 2.340236911550164223e-03 -2.120817516697570682e-04 2.307943301275372505e-03
3.254000000000000000e+03 1.720113182067871094e+01 -4.131264495849609375e+01 -7.829629816114902496e-03 3.207446308806538582e-03 -1.386655145324766636e-03 1.942706643603742123e-03
3.255000000000000000e+03 1.386776256561279297e+01 3.176159286499023438e+01 1.448937226086854935e-02 -8.553352952003479004e-02 -2.131324820220470428e-02 -2.247111126780509949e-02
3.256000000000000000e+03 1.357627391815185547e+01 3.765408706665039062e+01 -1.288503129035234451e-02 -8.103112876415252686e-02 -2.817484922707080841e-02 -1.040110271424055099e-02
3.257000000000000000e+03 8.402749061584472656e+00 4.077420425415039062e+01 -7.548165507614612579e-03 -2.171400338411331177e-01 -6.740646064281463623e-02 -1.053629675880074501e-03
3.258000000000000000e+03 8.141777038574218750e+00 -4.132913589477539062e+01 -9.398105903528630733e-04 1.753281219862401485e-03 2.440412063151597977e-04 7.458979962393641472e-04
3.259000000000000000e+03 9.168224334716796875e+00 -3.894196319580078125e+01 -1.092179329134523869e-03 2.021117601543664932e-03 2.786815166473388672e-04 7.633996428921818733e-04
3.260000000000000000e+03 6.026217269897460938e+01 4.044947052001953125e+01 2.694181799888610840e-01 -1.533939987421035767e-01 3.480725362896919250e-02 1.610374897718429565e-01
3.261000000000000000e+03 2.167807769775390625e+01 -4.101725387573242188e+01 -1.043751277029514313e-02 -4.122379235923290253e-03 -4.367967601865530014e-03 -1.986884744837880135e-04
3.262000000000000000e+03 2.847803306579589844e+01 -4.094163894653320312e+01 -2.093353075906634331e-03 -5.243156477808952332e-02 -1.635747589170932770e-02 -7.338411640375852585e-03
3.263000000000000000e+03 4.713732528686523438e+01 -4.149626541137695312e+01 1.538101304322481155e-02 5.335053205490112305e-01 1.646659076213836670e-01 7.672211527824401855e-02
3.264000000000000000e+03 3.413697433471679688e+01 3.490460968017578125e+01 -1.174649596214294434e-01 4.439772367477416992e-01 9.795368462800979614e-02 -5.203262344002723694e-02
3.265000000000000000e+03 2.739475440979003906e+01 3.788927841186523438e+01 -8.960804343223571777e-02 2.965560555458068848e-01 6.208439916372299194e-02 -3.309078887104988098e-02
3.266000000000000000e+03 3.122077560424804688e+01 3.695447540283203125e+01 -1.143594384193420410e-01 3.861621618270874023e-01 8.154081553220748901e-02 -4.535870254039764404e-02
3.267000000000000000e+03 2.142471122741699219e+01 3.542235565185546875e+01 -3.124180808663368225e-02 1.295076012611389160e-01 2.947973646223545074e-02 -3.843330591917037964e-02
3.268000000000000000e+03 5.216062164306640625e+01 -3.778635025024414062e+01 -2.580941319465637207e-01 1.555088996887207031e+00 3.890984654426574707e-01 2.695092260837554932e-01
3.269000000000000000e+03 5.542828750610351562e+01 -3.501361083984375000e+01 -3.720286190509796143e-01 2.629404067993164062e+00 6.772125959396362305e-01 -1.706963479518890381e-01
3.270000000000000000e+03 1.701750183105468750e+01 3.398146438598632812e+01 -2.401490928605198860e-03 3.040552604943513870e-03 1.917184854391962290e-04 -3.359857574105262756e-02
3.271000000000000000e+03 3.771338653564453125e+01 -4.142491149902343750e+01 2.028880268335342407e-01 -3.181253075599670410e-01 -3.457118570804595947e-02 -3.086609020829200745e-02
3.272000000000000000e+03 6.739916229248046875e+01 4.129443359375000000e+01 1.548633426427841187e-01 2.591870546340942383e+00 8.240202069282531738e-01 -9.907543659210205078e-02
3.273000000000000000e+03 4.034650421142578125e+01 -3.849280548095703125e+01 2.280310243368148804e-01 -3.626194596290588379e-01 -4.037652537226676941e-02 -5.896764993667602539e-02
3.274000000000000000e+03 2.780184555053710938e+01 2.639275169372558594e+01 5.416629835963249207e-02 2.773700356483459473e-01 9.946089982986450195e-02 -1.220077499747276306e-01
3.275000000000000000e+03 3.956486129760742188e+01 -3.704821014404296875e+01 1.701322942972183228e-01 -4.556430578231811523e-01 -8.565323054790496826e-02 -1.481008529663085938e-01
3.276000000000000000e+03 4.956358337402343750e+01 -3.446416091918945312e+01 2.936232984066009521e-01 8.892906904220581055e-01 3.548741936683654785e-01 5.690563321113586426e-01
3.277000000000000000e+03 4.854574203491210938e+01 -3.685503387451171875e+01 8.417127281427383423e-02 7.230914235115051270e-01 2.421788126230239868e-01 4.284448623657226562e-01
3.278000000000000000e+03 2.286698913574218750e+01 2.747540092468261719e+01 5.143914371728897095e-02 1.262085139751434326e-01 5.329429730772972107e-02 -7.944467663764953613e-02
3.279000000000000000e+03 2.444197463989257812e+01 2.636519241333007812e+01 6.383416056632995605e-02 1.671841293573379517e-01 6.930548697710037231e-02 -9.472050517797470093e-02
3.280000000000000000e+03 2.193288612365722656e+01 2.556944274902343750e+01 8.073929697275161743e-02 7.785144448280334473e-02 4.757722094655036926e-02 -7.498380541801452637e-02
3.281000000000000000e+03 3.189405059814453125e+01 2.851492881774902344e+01 -9.736838750541210175e-03 4.154941141605377197e-01 1.217271834611892700e-01 -1.073568388819694519e-01
3.282000000000000000e+03 2.990554237365722656e+01 2.707668495178222656e+01 3.020172193646430969e-02 3.538332283496856689e-01 1.152104884386062622e-01 -1.190672814846038818e-01
3.283000000000000000e+03 2.427234649658203125e+01 3.305923461914062500e+01 -2.625347301363945007e-02 2.123401761054992676e-01 5.582601204514503479e-02 -6.794147193431854248e-02
3.284000000000000000e+03 1.642230224609375000e+01 3.120578193664550781e+01 1.917773112654685974e-02 -2.774365060031414032e-02 -2.569775795564055443e-03 -3.424314409494400024e-02
3.285000000000000000e+03 4.287212753295898438e+01 -3.936824798583984375e+01 2.467941939830780029e-01 -1.786055415868759155e-01 2.045659534633159637e-02 6.067111343145370483e-02
3.286000000000000000e+03 2.101603126525878906e+01 2.883427238464355469e+01 3.940234705805778503e-02 7.871180772781372070e-02 3.543424606323242188e-02 -6.482465565204620361e-02
3.287000000000000000e+03 2.610966682434082031e+01 3.070408248901367188e+01 -1.042959652841091156e-02 2.483647316694259644e-01 7.138054072856903076e-02 -8.827272057533264160e-02
3.288000000000000000e+03 3.185999488830566406e+01 3.241962051391601562e+01 -6.588403135538101196e-02 4.032516181468963623e-01 1.012102738022804260e-01 -8.205112814903259277e-02
3.289000000000000000e+03 2.709913444519042969e+01 2.840655326843261719e+01 2.316835150122642517e-02 2.718968093395233154e-01 8.851954340934753418e-02 -1.076475679874420166e-01
3.290000000000000000e+03 2.890013313293457031e+01 2.909063339233398438e+01 7.311828667297959328e-04 3.175666928291320801e-01 9.548936039209365845e-02 -1.068186536431312561e-01
3.291000000000000000e+03 1.885230064392089844e+01 3.016944503784179688e+01 2.651965804398059845e-02 2.869088761508464813e-02 1.656316407024860382e-02 -4.811017960309982300e-02
3.292000000000000000e+03 3.038714981079101562e+01 3.032731056213378906e+01 -3.185496106743812561e-02 3.659699559211730957e-01 1.002344936132431030e-01 -9.425689280033111572e-02
3.293000000000000000e+03 2.238843154907226562e+01 3.100022315979003906e+01 6.713144946843385696e-03 1.376941204071044922e-01 4.332218319177627563e-02 -6.485132128000259399e-02
3.294000000000000000e+03 2.931001472473144531e+01 3.388444137573242188e+01 -6.567180901765823364e-02 3.357630372047424316e-01 8.102736622095108032e-02 -7.321995496749877930e-02
3.295000000000000000e+03 2.192954063415527344e+01 -1.262700462341308594e+01 -5.810611401102505624e-05 -2.240190588054247200e-05 -2.415240669506601989e-05 -4.399564204504713416e-05
3.296000000000000000e+03 5.747050094604492188e+01 -1.655222511291503906e+01 1.459928750991821289e+00 -3.399593353271484375e+00 -5.818993449211120605e-01 -3.430345296859741211e+00
3.297000000000000000e+03 5.792224502563476562e+01 -1.635255813598632812e+01 2.127233505249023438e+00 -4.477070808410644531e+00 -7.049511671066284180e-01 -2.955003499984741211e+00
3.298000000000000000e+03 5.805684661865234375e+01 -1.624633979797363281e+01 3.060018062591552734e+00 -2.869190454483032227e+00 5.724829807877540588e-02 -3.767393827438354492e+00
3.299000000000000000e+03 5.786299514770507812e+01 -1.618802070617675781e+01 4.559624195098876953e-01 -2.905130624771118164e+00 -7.347504496574401855e-01 -2.813516855239868164e+00
3.300000000000000000e+03 5.753036499023437500e+01 -1.617300415039062500e+01 6.056353092193603516e+00 -4.039551615715026855e-01 1.695719361305236816e+00 -8.036214709281921387e-01
3.301000000000000000e+03 5.794587707519531250e+01 -1.589525604248046875e+01 1.750988960266113281e+00 -8.636668324470520020e-01 2.661966383457183838e-01 -6.988713741302490234e-01
3.302000000000000000e+03 5.837192153930664062e+01 -1.602558517456054688e+01 2.681726694107055664e+00 -1.653398394584655762e+00 3.084985017776489258e-01 -4.163200855255126953e+00
3.303000000000000000e+03 5.901668930053710938e+01 -1.566606903076171875e+01 -8.312786102294921875e+00 -4.659185409545898438e+00 -3.891591548919677734e+00 -5.885942935943603516e+00
3.304000000000000000e+03 5.987867355346679688e+01 -1.515149974822998047e+01 -1.340248298645019531e+01 -1.841134309768676758e+00 -4.573085308074951172e+00 -5.432793617248535156e+00
3.305000000000000000e+03 5.958727264404296875e+01 -1.527390098571777344e+01 -1.338114738464355469e+01 -1.024172210693359375e+01 -7.086860656738281250e+00 -8.000841140747070312e+00
3.306000000000000000e+03 5.918489837646484375e+01 -1.547772407531738281e+01 -6.225993156433105469e+00 -1.397244095802307129e+00 -2.286971092224121094e+00 -7.983793735504150391e+00
3.307000000000000000e+03 6.075191879272460938e+01 -1.875564193725585938e+01 3.003718256950378418e-01 4.190510272979736328e+00 1.347264647483825684e+00 1.301171302795410156e+00
3.308000000000000000e+03 6.100622558593750000e+01 -1.875533485412597656e+01 3.692919313907623291e-01 4.175155162811279297e+00 1.363334059715270996e+00 1.003695607185363770e+00
3.309000000000000000e+03 6.046207427978515625e+01 -1.881838417053222656e+01 2.790701091289520264e-01 3.891791582107543945e+00 1.251258492469787598e+00 1.656628370285034180e+00
3.310000000000000000e+03 5.973003005981445312e+01 -1.929854202270507812e+01 -3.697199746966362000e-02 2.713349103927612305e+00 8.029131293296813965e-01 1.905739903450012207e+00
3.311000000000000000e+03 5.958519363403320312e+01 -1.940621185302734375e+01 -7.169827818870544434e-02 2.565123081207275391e+00 7.480274438858032227e-01 1.889489054679870605e+00
3.312000000000000000e+03 5.947145462036132812e+01 -1.956095504760742188e+01 -2.491843402385711670e-01 2.473460435867309570e+00 6.672828197479248047e-01 1.860113143920898438e+00
3.313000000000000000e+03 4.196654891967773438e+01 -2.414691925048828125e+01 4.376416094601154327e-03 -4.894925355911254883e-01 -1.455348432064056396e-01 -4.239672422409057617e-02
3.314000000000000000e+03 4.257774353027343750e+01 -2.382522392272949219e+01 -2.844629064202308655e-02 -3.990811109542846680e-01 -1.282582283020019531e-01 -2.407234460115432739e-01
3.315000000000000000e+03 4.256238174438476562e+01 -2.468484115600585938e+01 -3.000264242291450500e-02 -6.472656130790710449e-01 -2.031804770231246948e-01 -2.454422414302825928e-01
3.316000000000000000e+03 6.009957504272460938e+01 -1.514902877807617188e+01 -1.369167041778564453e+01 -6.658297777175903320e-02 -4.127476215362548828e+00 -5.316956996917724609e+00
3.317000000000000000e+03 2.720303916931152344e+01 -3.723776626586914062e+01 -9.429431520402431488e-03 -2.302089519798755646e-02 -9.735098108649253845e-03 -7.405903656035661697e-03
3.318000000000000000e+03 5.878892135620117188e+01 -1.572417926788330078e+01 -1.035680580139160156e+01 -5.013585567474365234e+00 -4.611117362976074219e+00 -4.964089870452880859e+00
3.319000000000000000e+03 5.959746170043945312e+01 -1.517767429351806641e+01 -1.826869964599609375e+01 -9.723631858825683594e+00 -8.397699356079101562e+00 -9.366951942443847656e+00
3.320000000000000000e+03 2.324500322341918945e+00 -3.434983444213867188e+01 8.375708130188286304e-04 3.424035094212740660e-04 3.539923054631799459e-04 2.762590302154421806e-04
3.321000000000000000e+03 2.135811614990234375e+01 -1.394257068634033203e+01 2.429675805615261197e-05 -3.725404894794337451e-05 -3.887186721840407699e-06 1.644481585572066251e-06
3.322000000000000000e+03 3.388025283813476562e+01 -3.590887451171875000e+01 -4.664851352572441101e-02 -9.147448837757110596e-02 -4.143689945340156555e-02 -1.189438700675964355e-01
3.323000000000000000e+03 2.759143257141113281e+01 -3.320150756835937500e+01 1.348139066249132156e-02 -5.615973845124244690e-03 2.359625184908509254e-03 -2.407141961157321930e-03
3.324000000000000000e+03 7.268157196044921875e+01 -2.746189117431640625e+01 1.335359215736389160e+00 1.101392841339111328e+01 3.704786300659179688e+00 2.856636941432952881e-01
3.325000000000000000e+03 7.338982391357421875e+01 -2.799842071533203125e+01 1.039676070213317871e+00 9.716650962829589844e+00 3.226897954940795898e+00 -6.032919883728027344e-01
3.326000000000000000e+03 5.448762893676757812e+01 3.742309570312500000e+01 -1.616386175155639648e-01 1.808342337608337402e-02 -4.306655749678611755e-02 9.299020469188690186e-02
3.327000000000000000e+03 3.779229354858398438e+01 -3.737786102294921875e+01 9.448499977588653564e-02 -3.405225574970245361e-01 -7.381126284599304199e-02 -1.803359091281890869e-01
3.328000000000000000e+03 3.565962219238281250e+01 -1.593602085113525391e+01 -7.924424409866333008e-01 -1.887939572334289551e-01 -2.943709194660186768e-01 4.362684190273284912e-01
3.329000000000000000e+03 2.829085731506347656e+01 -3.523106384277343750e+01 -7.628668099641799927e-03 -1.628901064395904541e-02 -7.175303529947996140e-03 -1.350528374314308167e-02
3.330000000000000000e+03 3.480986833572387695e+00 3.622944259643554688e+01 5.368340760469436646e-03 -3.484877049922943115e-01 -1.029358133673667908e-01 -2.023417036980390549e-03
3.331000000000000000e+03 5.971751022338867188e+01 -1.960927963256835938e+01 -3.069884777069091797e-01 2.749272584915161133e+00 7.326852083206176758e-01 1.907283663749694824e+00
3.332000000000000000e+03 6.015848159790039062e+01 -1.920214462280273438e+01 1.327117159962654114e-02 3.254011631011962891e+00 9.801848530769348145e-01 1.851540088653564453e+00
3.333000000000000000e+03 6.055175781250000000e+01 -1.957384490966796875e+01 -2.676668465137481689e-01 3.255587339401245117e+00 8.963761329650878906e-01 1.559288978576660156e+00
3.334000000000000000e+03 6.044191360473632812e+01 -1.860898971557617188e+01 4.964685738086700439e-01 4.136530876159667969e+00 1.389899849891662598e+00 1.744851231575012207e+00
3.335000000000000000e+03 6.090283203125000000e+01 -1.972620964050292969e+01 -3.973954021930694580e-01 3.195152759552001953e+00 8.393272161483764648e-01 1.311055541038513184e+00
3.336000000000000000e+03 2.299308061599731445e+00 -3.318356752395629883e+00 1.789782982086762786e-04 2.494971704436466098e-05 6.117840530350804329e-05 -3.462171662249602377e-06
3.337000000000000000e+03 4.999186992645263672e+00 -3.256642150878906250e+01 -7.911542197689414024e-04 6.024786271154880524e-04 -5.660268288920633495e-05 6.278222426772117615e-04
3.338000000000000000e+03 7.402651977539062500e+01 -2.887923240661621094e+01 7.324125170707702637e-01 9.001870155334472656e+00 2.920284748077392578e+00 -4.958003759384155273e-01
3.339000000000000000e+03 5.896948242187500000e+01 -2.126467895507812500e+01 -9.907525777816772461e-01 2.310417175292968750e+00 3.958993852138519287e-01 1.839387416839599609e+00
3.340000000000000000e+03 4.772261428833007812e+01 -3.507608795166015625e+01 1.838104277849197388e-01 4.615640938282012939e-01 1.936123669147491455e-01 4.724983870983123779e-01
3.341000000000000000e+03 4.118958663940429688e+01 -3.683285140991210938e+01 2.163939028978347778e-01 -4.227561652660369873e-01 -6.190867722034454346e-02 -6.067445874214172363e-02
3.342000000000000000e+03 7.614007568359375000e+01 -2.117866134643554688e+01 -2.433373332023620605e-01 8.120341300964355469e+00 2.363101243972778320e+00 6.841873526573181152e-01
3.343000000000000000e+03 4.779827499389648438e+01 -1.684719085693359375e+01 -7.544959783554077148e-01 5.339413508772850037e-02 -2.103305459022521973e-01 6.632062792778015137e-01
3.344000000000000000e+03 4.875216674804687500e+01 3.587201690673828125e+01 -1.056798547506332397e-01 2.515943646430969238e-01 4.377435147762298584e-02 6.142225861549377441e-02
3.345000000000000000e+03 5.144157028198242188e+01 3.595500946044921875e+01 -1.207605898380279541e-01 1.533388942480087280e-01 9.773489087820053101e-03 5.381123721599578857e-02
3.346000000000000000e+03 4.722962570190429688e+01 -3.348119735717773438e+01 3.334777057170867920e-01 1.717093437910079956e-01 1.515561193227767944e-01 3.974655866622924805e-01
3.347000000000000000e+03 1.748573684692382812e+01 -3.518746948242187500e+01 2.732430584728717804e-03 1.883187098428606987e-03 1.384685281664133072e-03 5.313470959663391113e-03
3.348000000000000000e+03 7.638970184326171875e+01 -3.349776077270507812e+01 -3.514043986797332764e-01 8.346622467041015625e+00 2.398565530776977539e+00 -7.088385820388793945e-01
3.349000000000000000e+03 4.837237358093261719e+00 -2.259132575988769531e+01 4.924228051095269620e-05 7.764695328660309315e-05 3.806676977546885610e-05 1.458964543417096138e-04
3.350000000000000000e+03 1.140299892425537109e+01 3.175953483581542969e+01 1.231988612562417984e-02 -1.469488590955734253e-01 -4.038869217038154602e-02 -1.139981020241975784e-02
3.351000000000000000e+03 3.825997114181518555e+00 3.718367385864257812e+01 8.174625225365161896e-03 -3.563758134841918945e-01 -1.044603511691093445e-01 -3.491684095934033394e-03
3.352000000000000000e+03 1.700035858154296875e+01 -9.597141265869140625e+00 9.029900684254243970e-05 7.001557969488203526e-05 4.809437450603581965e-05 8.516877278452739120e-05
3.353000000000000000e+03 7.612271881103515625e+01 -2.776370429992675781e+01 5.640317201614379883e-01 8.264973640441894531e+00 2.648701667785644531e+00 -5.991395711898803711e-01
3.354000000000000000e+03 5.624089241027832031e+00 -2.205832290649414062e+01 4.443028883542865515e-04 1.443974033463746309e-04 1.766100904205814004e-04 -1.059084388543851674e-04
3.355000000000000000e+03 4.749503707885742188e+01 -1.604405975341796875e+01 -2.583719789981842041e-01 5.218046251684427261e-03 -7.594617456197738647e-02 6.593703627586364746e-01
3.356000000000000000e+03 4.843793106079101562e+01 -2.361395263671875000e+01 -3.853362202644348145e-01 -1.877325922250747681e-01 -1.719206422567367554e-01 -7.955114245414733887e-01
3.357000000000000000e+03 5.542510032653808594e+00 -5.836306571960449219e+00 2.546790929045528173e-04 4.938657184538897127e-06 7.788532093400135636e-05 7.655486842850223184e-05
3.358000000000000000e+03 7.300271606445312500e+01 2.770753097534179688e+01 3.140595257282257080e-01 7.610128879547119141e+00 2.377256393432617188e+00 3.856766819953918457e-01
3.359000000000000000e+03 7.288261413574218750e+01 2.934783363342285156e+01 5.538054928183555603e-02 7.311885833740234375e+00 2.210179805755615234e+00 4.581556916236877441e-01
3.360000000000000000e+03 6.081874084472656250e+01 -2.038368606567382812e+01 -7.752675414085388184e-01 2.791994094848632812e+00 6.050179600715637207e-01 1.488247394561767578e+00
3.361000000000000000e+03 2.630640029907226562e+01 3.524317550659179688e+01 -5.843259021639823914e-02 2.616592347621917725e-01 6.096798926591873169e-02 -5.906157568097114563e-02
3.362000000000000000e+03 6.499094486236572266e+00 -1.708727455139160156e+01 3.493755066301673651e-04 1.529435830889269710e-04 1.506957341916859150e-04 -1.732717064442113042e-04
3.363000000000000000e+03 2.590571784973144531e+01 -5.427076816558837891e+00 -2.687727808952331543e-01 -2.513334751129150391e-01 -1.560318768024444580e-01 2.825644314289093018e-01
3.364000000000000000e+03 1.315525531768798828e+01 5.878281593322753906e+00 -1.357647310942411423e-02 -2.674403786659240723e-01 -8.430506289005279541e-02 2.082670778036117554e-01
3.365000000000000000e+03 2.547656440734863281e+01 2.759738922119140625e+01 4.002330079674720764e-02 2.135962843894958496e-01 7.608587294816970825e-02 -9.970114380121231079e-02
3.366000000000000000e+03 5.215987396240234375e+01 -2.366954612731933594e+01 -2.563194334506988525e-01 5.285395979881286621e-01 8.166604489088058472e-02 -3.656830489635467529e-01
3.367000000000000000e+03 1.743265914916992188e+01 -9.971698760986328125e+00 -4.050473216921091080e-05 -8.111279748845845461e-05 -3.648526035249233246e-05 -5.847404827363789082e-05
3.368000000000000000e+03 5.319726181030273438e+01 -2.643964004516601562e+01 9.605244398117065430e-01 1.680780887603759766e+00 7.923915982246398926e-01 -6.650486961007118225e-03
3.369000000000000000e+03 1.464848709106445312e+01 -6.674168109893798828e+00 7.592175825266167521e-05 5.989068449707701802e-05 4.074373282492160797e-05 -5.217569923843257129e-05
3.370000000000000000e+03 2.438063240051269531e+01 -2.742890357971191406e+00 -1.999483257532119751e-01 -2.897660732269287109e-01 -1.469143182039260864e-01 2.270640283823013306e-01
3.371000000000000000e+03 5.120965194702148438e+01 -2.552959251403808594e+01 4.469329416751861572e-01 5.027043819427490234e-01 2.848912179470062256e-01 -4.144073426723480225e-01
3.372000000000000000e+03 2.327102661132812500e+01 2.254794692993164062e+01 1.259815245866775513e-01 9.048527479171752930e-02 6.494004279375076294e-02 -8.688592910766601562e-02
3.373000000000000000e+03 1.422819805145263672e+01 -7.165003776550292969e+00 -9.826815949054434896e-05 -6.843280425528064370e-05 -5.001029057893902063e-05 6.780705007258802652e-05
3.374000000000000000e+03 3.144942283630371094e+01 -1.183035469055175781e+01 -3.291101455688476562e-01 -9.120166301727294922e-02 -1.260935366153717041e-01 4.033861756324768066e-01
3.375000000000000000e+03 3.230636596679687500e+01 -1.118914508819580078e+01 -2.829386591911315918e-01 -8.281310647726058960e-02 -1.097255274653434753e-01 3.892786502838134766e-01
3.376000000000000000e+03 7.373139190673828125e+01 9.362949371337890625e+00 -1.230453625321388245e-01 8.807097434997558594e+00 2.605215549468994141e+00 3.115220069885253906e-01
3.377000000000000000e+03 5.053231048583984375e+01 -2.684231185913085938e+01 6.505093574523925781e-01 4.517403542995452881e-01 3.306749165058135986e-01 -3.410710394382476807e-01
3.378000000000000000e+03 4.244879245758056641e+00 2.936987304687500000e+01 3.112426027655601501e-03 -3.263803422451019287e-01 -9.698037058115005493e-02 2.134130103513598442e-03
3.379000000000000000e+03 3.809109878540039062e+01 2.656052780151367188e+01 -4.868745803833007812e-03 6.116213202476501465e-01 1.820257753133773804e-01 -4.508585110306739807e-02
3.380000000000000000e+03 2.278466033935546875e+01 -1.127286434173583984e+00 -1.649108976125717163e-01 -3.362758755683898926e-01 -1.503560245037078857e-01 2.131678462028503418e-01
3.381000000000000000e+03 1.309633922576904297e+01 7.789206981658935547e+00 3.433107212185859680e-02 -2.582287788391113281e-01 -6.716931611299514771e-02 1.848823428153991699e-01
3.382000000000000000e+03 1.214100265502929688e+01 7.447000980377197266e+00 1.821440644562244415e-02 -2.466831058263778687e-01 -6.854061037302017212e-02 1.905172020196914673e-01
3.383000000000000000e+03 8.145195960998535156e+00 2.621401405334472656e+01 2.461714111268520355e-02 -2.350979596376419067e-01 -6.314424425363540649e-02 1.389722805470228195e-02
3.384000000000000000e+03 7.356197357177734375e+01 6.286334991455078125e+00 3.804745376110076904e-01 9.030461311340332031e+00 2.823280572891235352e+00 2.609373331069946289e-01
3.385000000000000000e+03 1.356902790069580078e+01 6.855614185333251953e+00 1.791798882186412811e-02 -2.680493593215942383e-01 -7.503940910100936890e-02 1.949365586042404175e-01
3.386000000000000000e+03 1.433592224121093750e+01 6.667041301727294922e+00 2.425082027912139893e-02 -2.795039117336273193e-01 -7.657592743635177612e-02 1.927218139171600342e-01
3.387000000000000000e+03 7.362016296386718750e+01 -1.094465923309326172e+01 -2.051488906145095825e-01 6.663053035736083984e+00 1.937371134757995605e+00 -3.767442107200622559e-01
3.388000000000000000e+03 9.235348701477050781e+00 2.682618331909179688e+01 2.678605727851390839e-02 -2.082618325948715210e-01 -5.444273352622985840e-02 9.792253375053405762e-03
3.389000000000000000e+03 8.955538749694824219e+00 2.598707199096679688e+01 2.904238551855087280e-02 -2.189301252365112305e-01 -5.696632340550422668e-02 1.291045825928449631e-02
3.390000000000000000e+03 7.697812557220458984e+00 6.680557250976562500e+00 -2.877294830977916718e-02 -1.596192866563796997e-01 -5.651766806840896606e-02 1.620693057775497437e-01
3.391000000000000000e+03 9.113882064819335938e+00 2.509936332702636719e+01 3.615863621234893799e-02 -2.153133451938629150e-01 -5.374641343951225281e-02 1.743822731077671051e-02
3.392000000000000000e+03 5.046221160888671875e+01 -2.524834442138671875e+01 2.732025980949401855e-01 3.000848591327667236e-01 1.719862371683120728e-01 -5.578616857528686523e-01
3.393000000000000000e+03 7.492021083831787109e+00 -9.111704826354980469e+00 -2.334906166652217507e-04 -4.236590757500380278e-05 -8.275696018245071173e-05 -1.248085172846913338e-04
3.394000000000000000e+03 3.067870330810546875e+01 -1.039677333831787109e+01 -2.836266756057739258e-01 -8.802229166030883789e-02 -1.114946901798248291e-01 3.834836184978485107e-01
3.395000000000000000e+03 4.963883590698242188e+01 -2.589036560058593750e+01 3.967421650886535645e-01 1.445466727018356323e-01 1.623866409063339233e-01 -5.384261608123779297e-01
3.396000000000000000e+03 2.450017166137695312e+01 -1.556411832571029663e-01 -7.321544736623764038e-02 -2.384874820709228516e-01 -9.351088106632232666e-02 1.530337035655975342e-01
3.397000000000000000e+03 9.626007080078125000e+00 -4.797990798950195312e+00 -8.679136226419359446e-05 -3.343653952470049262e-05 -3.606836980907246470e-05 2.428583866276312619e-05
3.398000000000000000e+03 3.764624023437500000e+01 -1.016318225860595703e+01 -1.151780365034937859e-03 -2.805959060788154602e-02 -8.763411082327365875e-03 1.697786897420883179e-01
3.399000000000000000e+03 3.859420013427734375e+01 -9.092357635498046875e+00 1.075182259082794189e-01 7.973669469356536865e-02 5.617647618055343628e-02 5.963359028100967407e-02
3.400000000000000000e+03 3.225902938842773438e+01 -1.031679821014404297e+01 -2.364336699247360229e-01 -7.954490184783935547e-02 -9.479357302188873291e-02 3.694548308849334717e-01
3.401000000000000000e+03 9.609238624572753906e+00 2.570774459838867188e+01 3.593339398503303528e-02 -1.974609792232513428e-01 -4.845827445387840271e-02 1.294582989066839218e-02
3.402000000000000000e+03 2.291348838806152344e+01 -5.156447291374206543e-01 -1.343001425266265869e-01 -3.190673589706420898e-01 -1.360102593898773193e-01 1.934325098991394043e-01
3.403000000000000000e+03 4.378785705566406250e+01 -1.460392093658447266e+01 -1.659711897373199463e-01 6.252922862768173218e-02 -3.103259019553661346e-02 3.139008581638336182e-01
3.404000000000000000e+03 4.451099014282226562e+01 -1.390713214874267578e+01 1.111284717917442322e-01 6.527265161275863647e-02 5.292033776640892029e-02 2.138170599937438965e-01
3.405000000000000000e+03 7.048710346221923828e+00 6.892892360687255859e+00 -2.449618466198444366e-02 -1.503349393606185913e-01 -5.244933813810348511e-02 1.502165943384170532e-01
3.406000000000000000e+03 1.697607421875000000e+01 7.716490745544433594e+00 9.001334011554718018e-02 -2.750244438648223877e-01 -5.550333112478256226e-02 1.459314078092575073e-01
3.407000000000000000e+03 3.804714202880859375e+01 -9.452812194824218750e+00 8.137173950672149658e-02 3.093264251947402954e-02 3.369131311774253845e-02 1.117128729820251465e-01
3.408000000000000000e+03 3.756424331665039062e+01 -8.814355850219726562e+00 6.105190888047218323e-02 4.332149401307106018e-02 3.131201863288879395e-02 1.047293841838836670e-01
3.409000000000000000e+03 9.898547172546386719e+00 2.649636459350585938e+01 3.110962919890880585e-02 -1.916690319776535034e-01 -4.816782101988792419e-02 8.979928679764270782e-03
3.410000000000000000e+03 1.478794097900390625e+01 6.947069644927978516e+00 4.117569327354431152e-02 -2.849412560462951660e-01 -7.312966883182525635e-02 1.845636963844299316e-01
3.411000000000000000e+03 1.453710842132568359e+01 7.582687377929687500e+00 5.319709703326225281e-02 -2.760108411312103271e-01 -6.684412062168121338e-02 1.776049733161926270e-01
3.412000000000000000e+03 1.541497802734375000e+01 9.217422485351562500e+00 9.647779911756515503e-02 -2.575396001338958740e-01 -4.831853881478309631e-02 1.433398127555847168e-01
3.413000000000000000e+03 7.740555763244628906e+00 1.133229351043701172e+01 3.122685104608535767e-02 -2.115805894136428833e-01 -5.410612374544143677e-02 1.370517611503601074e-01
3.414000000000000000e+03 9.961224555969238281e+00 2.442785835266113281e+01 4.390856623649597168e-02 -1.990746259689331055e-01 -4.654981568455696106e-02 1.960357092320919037e-02
3.415000000000000000e+03 1.942287445068359375e+01 2.043929290771484375e+01 1.402474492788314819e-01 -4.177245870232582092e-02 2.954249829053878784e-02 -3.677612170577049255e-02
3.416000000000000000e+03 1.754229927062988281e+01 1.944729232788085938e+01 1.340687423944473267e-01 -1.050596460700035095e-01 8.702728897333145142e-03 1.494947588071227074e-03
3.417000000000000000e+03 2.734281158447265625e+01 1.658976936340332031e+01 2.277853488922119141e-01 1.713496893644332886e-01 1.197405159473419189e-01 -1.230744197964668274e-01
3.418000000000000000e+03 4.072055435180664062e+01 -7.355474472045898438e+00 2.670524120330810547e-01 3.062916100025177002e-01 1.720032095909118652e-01 -1.966602504253387451e-01
3.419000000000000000e+03 7.127905845642089844e+00 7.676951408386230469e+00 -1.413668040186166763e-02 -1.636721491813659668e-01 -5.334264785051345825e-02 1.510687172412872314e-01
3.420000000000000000e+03 2.238771438598632812e+01 -3.759866058826446533e-01 -1.335522979497909546e-01 -3.245430290699005127e-01 -1.374285966157913208e-01 1.974128484725952148e-01
3.421000000000000000e+03 1.461312389373779297e+01 1.809144973754882812e+01 1.149145811796188354e-01 -1.665617972612380981e-01 -1.549416594207286835e-02 4.444099590182304382e-02
3.422000000000000000e+03 3.415658187866210938e+01 -7.307514667510986328e+00 -3.699697554111480713e-02 3.973276168107986450e-02 8.207357604987919331e-04 1.988152861595153809e-01
3.423000000000000000e+03 1.473031139373779297e+01 8.739658355712890625e+00 7.776369899511337280e-02 -2.636547684669494629e-01 -5.576732754707336426e-02 1.588095724582672119e-01
3.424000000000000000e+03 3.143616676330566406e+01 5.141299247741699219e+00 2.502288520336151123e-01 2.439490407705307007e-01 1.482533663511276245e-01 -5.981479957699775696e-02
3.425000000000000000e+03 2.799155426025390625e+01 -2.813953876495361328e+00 -9.503845125436782837e-02 -9.995843470096588135e-02 -5.849906429648399353e-02 1.691021919250488281e-01
3.426000000000000000e+03 1.573730278015136719e+01 1.332085800170898438e+01 1.343509554862976074e-01 -2.060709446668624878e-01 -2.151599712669849396e-02 8.627934008836746216e-02
3.427000000000000000e+03 2.690165519714355469e+01 1.343266201019287109e+01 2.529407441616058350e-01 1.057697981595993042e-01 1.076131612062454224e-01 -9.535352885723114014e-02
3.428000000000000000e+03 2.627098464965820312e+01 1.274697017669677734e+01 2.525345981121063232e-01 7.209030538797378540e-02 9.738747775554656982e-02 -8.004353940486907959e-02
3.429000000000000000e+03 3.360235595703125000e+01 -6.754605293273925781e+00 -4.713647067546844482e-02 3.861033543944358826e-02 -2.557839732617139816e-03 1.932868063449859619e-01
3.430000000000000000e+03 2.013792610168457031e+01 3.308268308639526367e+00 -8.217603899538516998e-03 -3.171501457691192627e-01 -9.761032462120056152e-02 1.635253578424453735e-01
3.431000000000000000e+03 1.428506088256835938e+01 1.541897964477539062e+01 1.178122088313102722e-01 -1.935650259256362915e-01 -2.272584475576877594e-02 7.547836005687713623e-02
3.432000000000000000e+03 2.771975517272949219e+01 1.262593460083007812e+01 2.665825486183166504e-01 1.307281553745269775e-01 1.191932186484336853e-01 -9.909597039222717285e-02
3.433000000000000000e+03 2.984128761291503906e+01 -2.880793571472167969e+00 -4.385370016098022461e-02 -7.694771047681570053e-03 -1.546454150229692459e-02 1.434190422296524048e-01
3.434000000000000000e+03 1.500054645538330078e+01 1.398740768432617188e+01 1.298117786645889282e-01 -2.041555047035217285e-01 -2.230311743915081024e-02 8.668763190507888794e-02
3.435000000000000000e+03 2.467700195312500000e+01 7.097327232360839844e+00 1.896188259124755859e-01 -1.021538525819778442e-01 2.623949199914932251e-02 1.644257642328739166e-02
3.436000000000000000e+03 2.295204162597656250e+01 5.954704284667968750e+00 1.348259747028350830e-01 -1.895724236965179443e-01 -1.642393320798873901e-02 6.618981808423995972e-02
3.437000000000000000e+03 2.259263229370117188e+01 6.928462028503417969e+00 1.602050513029098511e-01 -1.773233264684677124e-01 -5.135483108460903168e-03 5.910414829850196838e-02
3.438000000000000000e+03 2.206275558471679688e+01 7.300495624542236328e+00 1.537844836711883545e-01 -1.896061301231384277e-01 -1.074649393558502197e-02 6.217664852738380432e-02
3.439000000000000000e+03 2.188843536376953125e+01 9.466499328613281250e+00 1.826510131359100342e-01 -1.625607013702392578e-01 6.027094554156064987e-03 4.046205058693885803e-02
3.440000000000000000e+03 2.248304557800292969e+01 8.251241683959960938e+00 1.788104772567749023e-01 -1.556810736656188965e-01 6.938823498785495758e-03 4.145990684628486633e-02
3.441000000000000000e+03 3.324798202514648438e+01 -1.260311841964721680e+00 1.135606840252876282e-01 2.093081176280975342e-01 9.686063975095748901e-02 9.615413844585418701e-03
3.442000000000000000e+03 1.605741500854492188e+01 -3.611289262771606445e+00 3.438882777118124068e-05 5.039303869125433266e-05 2.543455957493279129e-05 3.619598646764643490e-05
3.443000000000000000e+03 1.562254238128662109e+01 -4.210125446319580078e+00 -4.477557740756310523e-05 -4.578883817885071039e-05 -2.716932431212626398e-05 -3.039852708752732724e-05
3.444000000000000000e+03 1.505074691772460938e+01 -3.785051584243774414e+00 4.488633203436620533e-05 5.151647201273590326e-05 2.892084012273699045e-05 2.973993650812190026e-05
3.445000000000000000e+03 1.676181221008300781e+01 -5.065579891204833984e+00 -4.972615352016873658e-05 -3.891943924827501178e-05 -2.659367783053312451e-05 -2.937011595349758863e-05
3.446000000000000000e+03 1.619318008422851562e+01 -4.636556148529052734e+00 4.637261008610948920e-05 4.188622915535233915e-05 2.647765177243854851e-05 2.950231828435789794e-05
3.447000000000000000e+03 1.723610115051269531e+01 -4.496263980865478516e+00 3.922032556147314608e-05 4.580727181746624410e-05 2.550827775849029422e-05 3.714498961926437914e-05
3.448000000000000000e+03 1.546591091156005859e+01 -3.171455383300781250e+00 -3.215881952201016247e-05 -5.403706018114462495e-05 -2.585876427474431694e-05 -3.492516771075315773e-05
3.449000000000000000e+03 1.664776039123535156e+01 -4.052479743957519531e+00 -3.670411751954816282e-05 -4.827038355870172381e-05 -2.549235068727284670e-05 -3.674165782285854220e-05
3.450000000000000000e+03 1.831977081298828125e+01 -5.492505550384521484e+00 4.369004454929381609e-05 4.037865437567234039e-05 2.522061004128772765e-05 3.711783938342705369e-05
3.451000000000000000e+03 1.780974006652832031e+01 -6.028855800628662109e+00 -5.155517646926455200e-05 -3.432374433032236993e-05 -2.576367660367395729e-05 -2.969296474475413561e-05
3.452000000000000000e+03 1.730055999755859375e+01 -5.529824733734130859e+00 5.088762191007845104e-05 3.712305260705761611e-05 2.640320235514082015e-05 2.882197804865427315e-05
3.453000000000000000e+03 1.831691551208496094e+01 -6.530111789703369141e+00 5.380173388402909040e-05 3.302671757410280406e-05 2.604853580123744905e-05 2.979421878990251571e-05
3.454000000000000000e+03 1.882190132141113281e+01 -7.033396244049072266e+00 -5.697911910829134285e-05 -3.291797474958002567e-05 -2.696912815736141056e-05 -3.012297202076297253e-05
3.455000000000000000e+03 1.936644935607910156e+01 -6.531159877777099609e+00 4.661813727580010891e-05 3.567518069758079946e-05 2.468799539201427251e-05 3.557114905561320484e-05
3.456000000000000000e+03 1.779333305358886719e+01 -4.976417064666748047e+00 -4.125041596125811338e-05 -4.330533920438028872e-05 -2.536672582209575921e-05 -3.702486719703301787e-05
3.457000000000000000e+03 1.884420585632324219e+01 -6.010818481445312500e+00 -4.470523708732798696e-05 -3.799036130658350885e-05 -2.480867988197132945e-05 -3.707757423399016261e-05
3.458000000000000000e+03 2.031454658508300781e+01 -7.659852027893066406e+00 4.284509486751630902e-05 2.970527566503733397e-05 2.176511225115973502e-05 3.229888534406200051e-05
3.459000000000000000e+03 2.077073287963867188e+01 -8.240385055541992188e+00 -4.036890823044814169e-05 -2.646789289428852499e-05 -2.005104033742100000e-05 -2.749109080468770117e-05
3.460000000000000000e+03 1.929654693603515625e+01 -7.565644741058349609e+00 5.344043165678158402e-05 3.238772114855237305e-05 2.574844620539806783e-05 3.070145976380445063e-05
3.461000000000000000e+03 2.062350273132324219e+01 -9.254287719726562500e+00 -5.107283868710510433e-05 -3.187213951605372131e-05 -2.488349309714976698e-05 -1.807675653253681958e-05
3.462000000000000000e+03 2.018299865722656250e+01 -8.690117835998535156e+00 4.638676909962669015e-05 3.423785165068693459e-05 2.418738586129620671e-05 2.816710912156850100e-05
3.463000000000000000e+03 1.974063491821289062e+01 -8.127175331115722656e+00 -5.094471271149814129e-05 -3.166086025885306299e-05 -2.478167152730748057e-05 -3.094696876360103488e-05
3.464000000000000000e+03 2.122505760192871094e+01 -8.822144508361816406e+00 4.001048000645823777e-05 2.112200854753609747e-05 1.833974602050147951e-05 2.358417259529232979e-05
3.465000000000000000e+03 1.985663604736328125e+01 -7.080731868743896484e+00 -4.596691724145784974e-05 -3.220971848350018263e-05 -2.345299071748740971e-05 -3.465740883257240057e-05
3.466000000000000000e+03 2.203341293334960938e+01 -1.005728912353515625e+01 4.566204734146595001e-05 1.370971313008340076e-05 1.781152786861639470e-05 2.235654756077565253e-05
3.467000000000000000e+03 2.140859222412109375e+01 -1.045394611358642578e+01 -6.660914368694648147e-05 -9.846399734669830650e-06 -2.293666329933330417e-05 -1.679399974818807095e-05
3.468000000000000000e+03 2.103163337707519531e+01 -9.842617988586425781e+00 5.790575960418209434e-05 2.018021950789261609e-05 2.342579318792559206e-05 1.355859876639442518e-05
3.469000000000000000e+03 2.178438568115234375e+01 -1.106581783294677734e+01 6.513064727187156677e-05 1.263755075342487544e-05 2.333045995328575373e-05 2.177784699597395957e-05
3.470000000000000000e+03 2.215780448913574219e+01 -1.167914867401123047e+01 -5.985616007819771767e-05 -1.719753890938591212e-05 -2.311611024197191000e-05 -1.644085932639427483e-05
3.471000000000000000e+03 2.280443191528320312e+01 -1.131808185577392578e+01 5.526005770661868155e-05 1.254375729331513867e-05 2.034114550042431802e-05 2.337003752472810447e-05
3.472000000000000000e+03 2.164555168151855469e+01 -9.428166389465332031e+00 -4.293610982131212950e-05 -1.733051976771093905e-05 -1.807998887670692056e-05 -2.092438990075606853e-05
3.473000000000000000e+03 2.242011070251464844e+01 -1.068695640563964844e+01 -5.060833427705802023e-05 -1.514151244919048622e-05 -1.972495374502614141e-05 -2.158332245016936213e-05
3.474000000000000000e+03 2.317674064636230469e+01 -1.199929141998291016e+01 -5.044136923970654607e-05 -1.219806472363416106e-05 -1.879183037090115249e-05 -2.151351691281888634e-05
3.475000000000000000e+03 2.284523010253906250e+01 -1.300796508789062500e+01 -3.936918074032291770e-05 -7.703019036853220314e-06 -1.412166056979913265e-05 -2.473711356287822127e-05
3.476000000000000000e+03 2.406083297729492188e+01 -1.497063064575195312e+01 8.558079571230337024e-06 -1.274451619792671409e-06 2.185088305850513279e-06 -1.177463332169281784e-06
3.477000000000000000e+03 2.462505912780761719e+01 -1.485978507995605469e+01 -2.394668808847200125e-05 7.174847951318952255e-07 -6.968761226744391024e-06 3.685482624860014766e-06
3.478000000000000000e+03 2.389264106750488281e+01 -1.346117115020751953e+01 -2.274688995385076851e-05 -1.400019846187205985e-05 -1.102412716136313975e-05 -1.268881624127971008e-05
3.479000000000000000e+03 2.353559875488281250e+01 -1.273112678527832031e+01 3.789298352785408497e-05 9.751433935889508575e-06 1.429332496627466753e-05 2.256334300909657031e-05
3.480000000000000000e+03 2.488323020935058594e+01 -1.545215702056884766e+01 9.885571671475190669e-06 4.851157768825942185e-07 3.111206069661420770e-06 -8.046480957091262098e-07
3.481000000000000000e+03 2.424729537963867188e+01 -1.417472362518310547e+01 2.237030821561347693e-05 9.675262845121324062e-06 9.613671863917261362e-06 -1.860436896095052361e-06
3.482000000000000000e+03 2.350594520568847656e+01 -1.435108280181884766e+01 -2.258046333736274391e-05 -3.602376818889752030e-05 -1.758126927597913891e-05 -7.891881637078768108e-07
3.483000000000000000e+03 2.317678260803222656e+01 -1.368776988983154297e+01 2.971411595353856683e-05 2.420743112452328205e-05 1.617646375962067395e-05 2.416860843368340284e-05
3.484000000000000000e+03 2.251189041137695312e+01 -1.232635593414306641e+01 4.790923412656411529e-05 8.190571861632633954e-06 1.682994115981273353e-05 1.623070420464500785e-05
3.485000000000000000e+03 2.456154632568359375e+01 -1.316923522949218750e+01 -1.439065039157867432e-01 -4.276783168315887451e-01 -1.714754551649093628e-01 2.527043223381042480e-01
3.486000000000000000e+03 2.482023620605468750e+01 -1.197365283966064453e+01 -2.512999176979064941e-01 -4.414527714252471924e-01 -2.078258097171783447e-01 3.562969863414764404e-01
3.487000000000000000e+03 2.650333786010742188e+01 -1.565426826477050781e+01 -2.005166262388229370e-01 -1.219201460480690002e-01 -9.673102945089340210e-02 1.926340907812118530e-01
3.488000000000000000e+03 2.385268974304199219e+01 -1.163848972320556641e+01 -2.263327836990356445e-01 -6.440507173538208008e-01 -2.611150741577148438e-01 3.659295141696929932e-01
3.489000000000000000e+03 2.484836769104003906e+01 -1.395820903778076172e+01 -1.221369057893753052e-01 -3.527629673480987549e-01 -1.424699574708938599e-01 1.978206485509872437e-01
3.490000000000000000e+03 2.532261657714843750e+01 -1.399315357208251953e+01 -1.734560281038284302e-01 -2.768369317054748535e-01 -1.350878924131393433e-01 2.450610697269439697e-01
3.491000000000000000e+03 2.568108749389648438e+01 -1.559443092346191406e+01 -7.631535828113555908e-02 -8.997254818677902222e-02 -4.988637194037437439e-02 9.522514790296554565e-02
3.492000000000000000e+03 2.449533462524414062e+01 -1.126426315307617188e+01 -2.916635572910308838e-01 -4.855258762836456299e-01 -2.331568300724029541e-01 3.762977123260498047e-01
3.493000000000000000e+03 2.516623687744140625e+01 -1.270689773559570312e+01 -2.173597961664199829e-01 -3.728633522987365723e-01 -1.770669519901275635e-01 3.160480260848999023e-01
3.494000000000000000e+03 2.556309509277343750e+01 -1.336782169342041016e+01 -2.043161243200302124e-01 -2.895892262458801270e-01 -1.481716036796569824e-01 2.898784577846527100e-01
3.495000000000000000e+03 2.595065307617187500e+01 -1.390986061096191406e+01 -2.183325886726379395e-01 -2.286383360624313354e-01 -1.340912729501724243e-01 2.835735082626342773e-01
3.496000000000000000e+03 2.620536613464355469e+01 -1.446394062042236328e+01 -1.843716502189636230e-01 -1.860222816467285156e-01 -1.111181825399398804e-01 2.604713439941406250e-01
3.497000000000000000e+03 2.637091255187988281e+01 -1.507584285736083984e+01 -1.839895844459533691e-01 -1.365435421466827393e-01 -9.615993499755859375e-02 2.244400233030319214e-01
3.498000000000000000e+03 2.638264656066894531e+01 -1.612632179260253906e+01 -1.560891419649124146e-01 -6.476006656885147095e-02 -6.625476479530334473e-02 1.025133430957794189e-01
3.499000000000000000e+03 2.419656753540039062e+01 -1.239193534851074219e+01 -1.660788357257843018e-01 -5.326532125473022461e-01 -2.096196115016937256e-01 3.032993972301483154e-01
3.500000000000000000e+03 2.512793922424316406e+01 -1.461182594299316406e+01 -7.688691467046737671e-02 -2.352460920810699463e-01 -9.363990277051925659e-02 1.457771509885787964e-01
3.501000000000000000e+03 2.566095924377441406e+01 -1.495156669616699219e+01 -1.096477732062339783e-01 -1.709613800048828125e-01 -8.418274670839309692e-02 1.718092411756515503e-01
3.502000000000000000e+03 2.577541732788085938e+01 -1.432993030548095703e+01 -1.746442764997482300e-01 -2.261027693748474121e-01 -1.202241182327270508e-01 2.535568177700042725e-01
3.503000000000000000e+03 2.269077491760253906e+01 -9.641036033630371094e+00 -3.227127790451049805e-01 -7.411893606185913086e-01 -3.191706240177154541e-01 4.859116077423095703e-01
3.504000000000000000e+03 2.348543930053710938e+01 -1.093805503845214844e+01 -2.807639837265014648e-01 -6.912072896957397461e-01 -2.915913760662078857e-01 4.236513376235961914e-01
3.505000000000000000e+03 2.229273414611816406e+01 -8.991255760192871094e+00 -3.926738798618316650e-01 -7.931530475616455078e-01 -3.557480573654174805e-01 5.338469147682189941e-01
3.506000000000000000e+03 2.308835411071777344e+01 -1.029005146026611328e+01 -2.979424297809600830e-01 -7.005178928375244141e-01 -2.995381057262420654e-01 4.547196924686431885e-01
3.507000000000000000e+03 2.413209533691406250e+01 -1.057697391510009766e+01 -3.077692091464996338e-01 -5.460527539253234863e-01 -2.561465799808502197e-01 3.941377699375152588e-01
3.508000000000000000e+03 2.290665245056152344e+01 -8.576805114746093750e+00 -4.052366316318511963e-01 -6.265541911125183105e-01 -3.095372319221496582e-01 4.668631553649902344e-01
3.509000000000000000e+03 2.331559562683105469e+01 -9.244379997253417969e+00 -3.684244453907012939e-01 -6.167894601821899414e-01 -2.955641746520996094e-01 4.639950394630432129e-01
3.510000000000000000e+03 2.372407913208007812e+01 -9.911190032958984375e+00 -3.257289230823516846e-01 -5.983807444572448730e-01 -2.772328853607177734e-01 4.320796430110931396e-01
3.511000000000000000e+03 2.091797065734863281e+01 -7.169854164123535156e+00 -4.769108295440673828e-01 -7.337801456451416016e-01 -3.632072806358337402e-01 5.861993432044982910e-01
3.512000000000000000e+03 2.044657707214355469e+01 -6.570147991180419922e+00 -5.492966175079345703e-01 -7.483778595924377441e-01 -3.893023431301116943e-01 6.129603385925292969e-01
3.513000000000000000e+03 2.138868331909179688e+01 -7.768980979919433594e+00 -4.589981734752655029e-01 -7.320115566253662109e-01 -3.573029339313507080e-01 5.747241377830505371e-01
3.514000000000000000e+03 2.185866355895996094e+01 -8.367236137390136719e+00 -4.508942961692810059e-01 -7.788385152816772461e-01 -3.689198493957519531e-01 5.681499242782592773e-01
3.515000000000000000e+03 2.246022033691406250e+01 -7.935092449188232422e+00 -4.138571619987487793e-01 -6.543815732002258301e-01 -3.204716145992279053e-01 4.772145450115203857e-01
3.516000000000000000e+03 2.100666618347167969e+01 -6.085235118865966797e+00 -5.028113126754760742e-01 -6.242963075637817383e-01 -3.381322622299194336e-01 5.075027346611022949e-01
3.517000000000000000e+03 2.149188232421875000e+01 -6.702531337738037109e+00 -4.770202338695526123e-01 -6.422723531723022461e-01 -3.357877731323242188e-01 5.257431268692016602e-01
3.518000000000000000e+03 2.197641754150390625e+01 -7.319247722625732422e+00 -4.334151446819305420e-01 -6.659122109413146973e-01 -3.297981917858123779e-01 5.107493996620178223e-01
3.519000000000000000e+03 1.885587120056152344e+01 -4.930348396301269531e+00 -5.954830050468444824e-01 -5.893890857696533203e-01 -3.554616272449493408e-01 5.860953927040100098e-01
3.520000000000000000e+03 1.831238174438476562e+01 -4.393686294555664062e+00 -6.553768515586853027e-01 -5.794703364372253418e-01 -3.704541623592376709e-01 5.876847505569458008e-01
3.521000000000000000e+03 1.939846801757812500e+01 -5.466702461242675781e+00 -5.924033522605895996e-01 -6.115021109580993652e-01 -3.611716330051422119e-01 5.960674881935119629e-01
3.522000000000000000e+03 1.994004440307617188e+01 -6.002428531646728516e+00 -6.026167273521423340e-01 -6.927506327629089355e-01 -3.886102139949798584e-01 6.177214980125427246e-01
3.523000000000000000e+03 2.048459243774414062e+01 -5.500192165374755859e+00 -5.002139210700988770e-01 -6.254737377166748047e-01 -3.377062976360321045e-01 5.062964558601379395e-01
3.524000000000000000e+03 1.880515289306640625e+01 -3.840278863906860352e+00 -5.551118254661560059e-01 -5.191948413848876953e-01 -3.222920000553131104e-01 4.813300967216491699e-01
3.525000000000000000e+03 1.936590194702148438e+01 -4.393997669219970703e+00 -5.505552887916564941e-01 -5.503696799278259277e-01 -3.302774727344512939e-01 5.185449719429016113e-01
3.526000000000000000e+03 1.992575645446777344e+01 -4.947409152984619141e+00 -5.172933936119079590e-01 -6.025371551513671875e-01 -3.359491825103759766e-01 5.268580317497253418e-01
3.527000000000000000e+03 1.695117187500000000e+01 -2.380243301391601562e+00 -5.533890724182128906e-01 -3.976073563098907471e-01 -2.852989435195922852e-01 4.433461725711822510e-01
3.528000000000000000e+03 1.651630020141601562e+01 -2.979079723358154297e+00 -6.305242776870727539e-01 -3.857789337635040283e-01 -3.048909604549407959e-01 4.864166080951690674e-01
3.529000000000000000e+03 1.590384101867675781e+01 -2.523920059204101562e+00 -6.554591059684753418e-01 -3.642718791961669922e-01 -3.059192895889282227e-01 4.660849571228027344e-01
3.530000000000000000e+03 1.712716102600097656e+01 -3.436568260192871094e+00 -6.503287553787231445e-01 -4.157226383686065674e-01 -3.198154270648956299e-01 5.150046348571777344e-01
3.531000000000000000e+03 1.758174324035644531e+01 -2.852491855621337891e+00 -5.442588329315185547e-01 -4.587831795215606689e-01 -3.009125888347625732e-01 4.717730581760406494e-01
3.532000000000000000e+03 1.773609352111816406e+01 -3.896142244338989258e+00 -6.882439851760864258e-01 -5.061699748039245605e-01 -3.583241999149322510e-01 5.608144402503967285e-01
3.533000000000000000e+03 1.821038436889648438e+01 -3.326825857162475586e+00 -5.362805128097534180e-01 -5.029966235160827637e-01 -3.117831349372863770e-01 4.693145453929901123e-01
3.534000000000000000e+03 1.631900405883789062e+01 -1.910323858261108398e+00 -5.339015722274780273e-01 -3.681321740150451660e-01 -2.706101238727569580e-01 4.003989696502685547e-01
3.535000000000000000e+03 1.460399055480957031e+01 -1.730789542198181152e+00 -5.960448384284973145e-01 -2.347841113805770874e-01 -2.492486983537673950e-01 3.705211281776428223e-01
3.536000000000000000e+03 1.394003677368164062e+01 -1.356149435043334961e+00 -5.575321316719055176e-01 -2.111137807369232178e-01 -2.305937707424163818e-01 3.379021883010864258e-01
3.537000000000000000e+03 1.327490711212158203e+01 -9.841976165771484375e-01 -5.511034727096557617e-01 -1.929673552513122559e-01 -2.232212573289871216e-01 3.094635307788848877e-01
3.538000000000000000e+03 1.429506587982177734e+01 -7.068015336990356445e-01 -4.817934036254882812e-01 -2.480830103158950806e-01 -2.189629226922988892e-01 3.300882875919342041e-01
3.539000000000000000e+03 1.497913169860839844e+01 -1.092790365219116211e+00 -4.959741830825805664e-01 -2.977349460124969482e-01 -2.381127476692199707e-01 3.671410977840423584e-01
3.540000000000000000e+03 1.526644039154052734e+01 -2.107936620712280273e+00 -6.535121798515319824e-01 -3.038869202136993408e-01 -2.872197329998016357e-01 4.216239750385284424e-01
3.541000000000000000e+03 1.566169452667236328e+01 -1.481285929679870605e+00 -5.037698149681091309e-01 -3.430144786834716797e-01 -2.540352940559387207e-01 3.811687827110290527e-01
3.542000000000000000e+03 1.360982322692871094e+01 -3.235010504722595215e-01 -4.459799230098724365e-01 -2.264926880598068237e-01 -2.017417848110198975e-01 2.919524610042572021e-01
3.543000000000000000e+03 1.136861705780029297e+01 6.672526597976684570e-01 -3.645198643207550049e-01 -1.339502930641174316e-01 -1.495410501956939697e-01 2.009231597185134888e-01
3.544000000000000000e+03 1.043688488006591797e+01 2.462611943483352661e-01 -4.214060306549072266e-01 -9.221374243497848511e-02 -1.540859341621398926e-01 1.610997915267944336e-01
3.545000000000000000e+03 1.187135696411132812e+01 -3.428127467632293701e-01 -4.611809253692626953e-01 -1.119327023625373840e-01 -1.719340831041336060e-01 2.219963669776916504e-01
3.546000000000000000e+03 1.258574008941650391e+01 -6.459255814552307129e-01 -5.221427679061889648e-01 -1.532621830701828003e-01 -2.026214748620986938e-01 2.664881944656372070e-01
3.547000000000000000e+03 1.288842964172363281e+01 2.964896708726882935e-02 -4.099719822406768799e-01 -2.030874043703079224e-01 -1.839178204536437988e-01 2.681286334991455078e-01
3.548000000000000000e+03 1.060655117034912109e+01 9.770575761795043945e-01 -3.019505739212036133e-01 -1.279455423355102539e-01 -1.289688348770141602e-01 1.642981022596359253e-01
3.549000000000000000e+03 1.212970542907714844e+01 3.511690795421600342e-01 -3.858439028263092041e-01 -1.659182906150817871e-01 -1.655286550521850586e-01 2.451296001672744751e-01
3.550000000000000000e+03 1.115460968017578125e+01 -4.513646289706230164e-02 -4.198248982429504395e-01 -9.463845193386077881e-02 -1.543390005826950073e-01 1.963333785533905029e-01
3.551000000000000000e+03 9.852642059326171875e+00 1.127630591392517090e+00 -2.604904472827911377e-01 -1.028089672327041626e-01 -1.089898273348808289e-01 1.622025072574615479e-01
3.552000000000000000e+03 8.934872627258300781e+00 3.838182985782623291e-01 -2.276825010776519775e-01 -3.402148140594363213e-03 -6.932539492845535278e-02 4.158048331737518311e-02
3.553000000000000000e+03 8.173450469970703125e+00 3.805501461029052734e-01 -1.566344052553176880e-01 -7.875099778175354004e-03 -4.935285076498985291e-02 2.840878441929817200e-02
3.554000000000000000e+03 7.412311553955078125e+00 3.753647208213806152e-01 -1.066435351967811584e-01 -1.415310078300535679e-03 -3.241765499114990234e-02 2.028453722596168518e-02
3.555000000000000000e+03 6.650998592376708984e+00 3.733136355876922607e-01 -7.007230818271636963e-02 -3.124343231320381165e-03 -2.195899561047554016e-02 1.473312173038721085e-02
3.556000000000000000e+03 5.128288269042968750e+00 3.666210770606994629e-01 -2.269127964973449707e-02 -1.937272259965538979e-03 -7.388565689325332642e-03 7.954593747854232788e-03
3.557000000000000000e+03 4.367394924163818359e+00 3.671234846115112305e-01 -8.419984951615333557e-03 -6.600368651561439037e-04 -2.724006772041320801e-03 5.604980047792196274e-03
3.558000000000000000e+03 2.846046209335327148e+00 3.605891168117523193e-01 5.824492312967777252e-03 -9.507459471933543682e-04 1.462123938836157322e-03 1.537571195513010025e-03
3.559000000000000000e+03 2.087270975112915039e+00 3.584179878234863281e-01 6.212590262293815613e-03 -7.588429725728929043e-04 1.636124216020107269e-03 -3.903628094121813774e-04
3.560000000000000000e+03 2.412721395492553711e+00 1.098417997360229492e+00 -4.845982883125543594e-03 -4.320719745010137558e-03 -2.750010695308446884e-03 3.175821620970964432e-03
3.561000000000000000e+03 1.340976357460021973e+00 3.674286305904388428e-01 3.631111700087785721e-03 -3.912229440174996853e-04 9.719666559249162674e-04 -1.447183196432888508e-03
3.562000000000000000e+03 1.683374881744384766e+00 1.107428669929504395e+00 -1.223963219672441483e-03 -2.969374181702733040e-03 -1.258001197129487991e-03 -8.617974235676229000e-04
3.563000000000000000e+03 6.602545380592346191e-01 3.962357640266418457e-01 1.029227860271930695e-03 3.605349629651755095e-04 4.169288440607488155e-04 -1.115932594984769821e-03
3.564000000000000000e+03 3.572900295257568359e-01 9.584811329841613770e-01 8.068177703535184264e-05 2.321598585695028305e-03 7.206840673461556435e-04 -1.151235192082822323e-03
3.565000000000000000e+03 3.154548645019531250e+00 1.100589156150817871e+00 -1.149699557572603226e-02 -4.746218211948871613e-03 -4.872964229434728622e-03 8.124136365950107574e-03
3.566000000000000000e+03 3.606354475021362305e+00 3.667278885841369629e-01 9.157981257885694504e-04 -9.746044524945318699e-04 -1.764190346875693649e-05 3.619725117459893227e-03
3.567000000000000000e+03 5.385946273803710938e+00 1.106621026992797852e+00 -5.064972117543220520e-02 -6.098682060837745667e-03 -1.702452078461647034e-02 2.787818387150764465e-02
3.568000000000000000e+03 5.889441967010498047e+00 3.716917037963867188e-01 -4.280456900596618652e-02 -7.329378277063369751e-04 -1.306125242263078690e-02 1.138815935701131821e-02
3.569000000000000000e+03 7.619125843048095703e+00 1.115364670753479004e+00 -1.382408142089843750e-01 -1.814205013215541840e-02 -4.691485688090324402e-02 6.405795365571975708e-02
3.570000000000000000e+03 8.363317489624023438e+00 1.120550155639648438e+00 -1.830461472272872925e-01 -2.030226588249206543e-02 -6.100452318787574768e-02 8.442708849906921387e-02
3.571000000000000000e+03 9.107789993286132812e+00 1.123818278312683105e+00 -2.437715381383895874e-01 -5.387954786419868469e-02 -8.929532766342163086e-02 1.283744722604751587e-01
3.572000000000000000e+03 9.696672439575195312e+00 3.876306116580963135e-01 -3.552801907062530518e-01 -5.308565497398376465e-02 -1.225097551941871643e-01 8.989475667476654053e-02
3.573000000000000000e+03 6.874760627746582031e+00 1.113313674926757812e+00 -1.019101887941360474e-01 -9.427567012608051300e-03 -3.340132534503936768e-02 4.836788401007652283e-02
3.574000000000000000e+03 6.130152225494384766e+00 1.111691713333129883e+00 -7.329774647951126099e-02 -9.557873941957950592e-03 -2.485668472945690155e-02 3.703452646732330322e-02
3.575000000000000000e+03 4.642001152038574219e+00 1.107123494148254395e+00 -3.336524218320846558e-02 -6.564396433532238007e-03 -1.197889074683189392e-02 2.048543468117713928e-02
3.576000000000000000e+03 3.897908926010131836e+00 1.106727957725524902e+00 -2.072349935770034790e-02 -4.644477274268865585e-03 -7.610393222421407700e-03 1.379098743200302124e-02
3.577000000000000000e+03 1.019601225852966309e+00 1.136235833168029785e+00 8.924049325287342072e-05 -3.332326596137136221e-04 -7.319765427382662892e-05 -2.539035864174365997e-03
3.578000000000000000e+03 1.356510353088378906e+01 -2.044676303863525391e+00 2.571130426076706499e-05 6.335227226372808218e-05 2.671907168405596167e-05 3.384720548638142645e-05
3.579000000000000000e+03 1.321007442474365234e+01 -2.694024085998535156e+00 -3.866784027195535600e-05 -6.439942080760374665e-05 -3.092017868766561151e-05 -3.074104824918322265e-05
3.580000000000000000e+03 1.258673477172851562e+01 -2.342205762863159180e+00 3.805669621215201914e-05 7.522482337662950158e-05 3.398445551283657551e-05 3.265371924499049783e-05
3.581000000000000000e+03 1.420777034759521484e+01 -2.407426834106445312e+00 -2.812565435306169093e-05 -6.068257061997428536e-05 -2.664246676431503147e-05 -3.433088204474188387e-05
3.582000000000000000e+03 1.383262920379638672e+01 -3.045426130294799805e+00 4.191092375549487770e-05 5.793358286609873176e-05 2.995335125888232142e-05 3.013519199157599360e-05
3.583000000000000000e+03 1.445424365997314453e+01 -3.396085023880004883e+00 -4.331212767283432186e-05 -5.343656084733083844e-05 -2.902460619225166738e-05 -3.134403596050105989e-05
3.584000000000000000e+03 1.484949779510498047e+01 -2.769434452056884766e+00 2.970425703097134829e-05 5.717001477023586631e-05 2.606228190416004509e-05 3.509531597956083715e-05
3.585000000000000000e+03 1.292164993286132812e+01 -1.681509137153625488e+00 -2.478908390912692994e-05 -6.529169331770390272e-05 -2.702423262235242873e-05 -3.339916293043643236e-05
3.586000000000000000e+03 1.114702796936035156e+01 -1.674520134925842285e+00 5.025666177971288562e-05 7.493861630791798234e-05 3.755858415388502181e-05 4.419245669851079583e-05
3.587000000000000000e+03 1.155607700347900391e+01 -1.043098807334899902e+00 -2.762673102552071214e-05 -7.050071144476532936e-05 -2.943823164969217032e-05 -3.396354804863221943e-05
3.588000000000000000e+03 1.007052421569824219e+01 -1.379528045654296875e+00 -5.144732494954951108e-05 -5.020450771553441882e-05 -3.049555016332305968e-05 -1.904580858536064625e-05
3.589000000000000000e+03 1.091052532196044922e+01 -7.195191383361816406e-01 2.387586573604494333e-05 7.604335405630990863e-05 2.997576666530221701e-05 3.824877421720884740e-05
3.590000000000000000e+03 1.189208316802978516e+01 -2.005299091339111328e+00 -3.256472700741142035e-05 -6.920248415553942323e-05 -3.053016553167253733e-05 -3.750175164896063507e-05
3.591000000000000000e+03 1.224500656127929688e+01 -1.350578069686889648e+00 2.359652717132121325e-05 6.221351941348984838e-05 2.574301470303907990e-05 3.363170617376454175e-05
3.592000000000000000e+03 1.012131404876708984e+01 -8.739756941795349121e-01 1.022992873913608491e-04 5.904326826566830277e-05 4.840276596951298416e-05 7.035475573502480984e-05
3.593000000000000000e+03 1.027311420440673828e+01 -4.096257984638214111e-01 -2.730509368120692670e-05 -6.463423051172867417e-05 -2.758179653028491884e-05 -3.383746661711484194e-05
3.594000000000000000e+03 1.058933448791503906e+01 -1.247088074684143066e+00 -6.236942135728895664e-05 -6.069334267522208393e-05 -3.691882739076390862e-05 -7.313627429539337754e-05
3.595000000000000000e+03 8.909210205078125000e+00 -3.212539851665496826e-01 9.995867731049656868e-05 -5.753596633439883590e-05 1.272681311093037948e-05 -1.130282089434331283e-05
3.596000000000000000e+03 9.317807197570800781e+00 -1.205478549003601074e+00 2.831968959071673453e-05 1.020140916807577014e-04 3.910013401764445007e-05 7.798382284818217158e-05
3.597000000000000000e+03 9.460213661193847656e+00 -6.912539601325988770e-01 -1.596047950442880392e-04 1.844475809775758535e-05 -4.234801235725171864e-05 -7.585193088743835688e-05
3.598000000000000000e+03 8.266005516052246094e+00 -6.800254583358764648e-01 -1.733270328259095550e-04 -6.765705620637163520e-05 -7.229522452689707279e-05 -1.191995488625252619e-05
3.599000000000000000e+03 7.622209548950195312e+00 -4.054784178733825684e-01 1.112313766498118639e-04 9.945863712346181273e-05 6.320700049400329590e-05 8.845752745401114225e-05
3.600000000000000000e+03 6.825774669647216797e+00 -3.814763724803924561e-01 -4.631596675608307123e-05 -8.815612090984359384e-05 -4.034162702737376094e-05 -6.136033334769308567e-05
3.601000000000000000e+03 6.001619815826416016e+00 -3.739211261272430420e-01 5.959790723863989115e-05 8.661723404657095671e-05 4.386454020277597010e-05 6.670033326372504234e-05
3.602000000000000000e+03 5.174842834472656250e+00 -3.715220093727111816e-01 -5.792998854303732514e-05 -7.224242290249094367e-05 -3.905172343365848064e-05 -6.366965681081637740e-05
3.603000000000000000e+03 4.347759723663330078e+00 -3.725122809410095215e-01 5.939648690400645137e-05 4.379453457659110427e-05 3.095730789937078953e-05 5.182552195037715137e-05
3.604000000000000000e+03 3.520621299743652344e+00 -3.760701715946197510e-01 -4.816858927370049059e-05 -1.023928052745759487e-05 -1.752236130414530635e-05 -2.593805402284488082e-05
3.605000000000000000e+03 2.694509983062744141e+00 -3.805325925350189209e-01 2.513629260647576302e-05 -9.892169146041851491e-06 4.573237220029113814e-06 1.154748971998742491e-07
3.606000000000000000e+03 1.143715500831604004e+00 -3.599454164505004883e-01 2.778708221740089357e-06 1.036272533383453265e-05 3.942429884773446247e-06 -9.007855624076910317e-06
3.607000000000000000e+03 4.021799862384796143e-01 -5.506002306938171387e-01 -8.226143108913674951e-06 -1.412031724612461403e-05 -6.703938197460956872e-06 -8.147908374667167664e-06
3.608000000000000000e+03 7.210693359375000000e-01 -1.099945425987243652e+00 -7.887439278420060873e-05 -7.530685252277180552e-06 -2.592152304714545608e-05 -1.387654083373490721e-05
3.609000000000000000e+03 8.506304740905761719e+00 -1.218084216117858887e+00 4.366444045444950461e-05 -1.856145972851663828e-04 -4.258504850440658629e-05 -3.358525282237678766e-05
3.610000000000000000e+03 7.803927898406982422e+00 -1.221213579177856445e+00 1.088845529011450708e-04 1.377553271595388651e-04 7.399196329060941935e-05 -9.307889740739483386e-06
3.611000000000000000e+03 7.101232528686523438e+00 -1.145478367805480957e+00 -1.244635641342028975e-04 -7.143523544073104858e-05 -5.876963768969289958e-05 -5.756610335083678365e-05
3.612000000000000000e+03 6.317089557647705078e+00 -1.121476411819458008e+00 7.270716741913929582e-05 7.437826570821925998e-05 4.412562702782452106e-05 6.229773134691640735e-05
3.613000000000000000e+03 5.505225658416748047e+00 -1.113921165466308594e+00 -6.349410978145897388e-05 -5.891097316634841263e-05 -3.672152524814009666e-05 -5.610363587038591504e-05
3.614000000000000000e+03 4.690740108489990234e+00 -1.111521959304809570e+00 7.529168215114623308e-05 3.819298945018090308e-05 3.404539893381297588e-05 6.898573337821289897e-05
3.615000000000000000e+03 3.875948190689086914e+00 -1.112512230873107910e+00 -1.080770598491653800e-04 -3.269430408181506209e-06 -3.340394687256775796e-05 -6.412721268134191632e-05
3.616000000000000000e+03 3.061101198196411133e+00 -1.116070151329040527e+00 1.170153554994612932e-04 -9.283718100050464272e-06 3.231949085602536798e-05 2.484436481609009206e-05
3.617000000000000000e+03 2.247281074523925781e+00 -1.120532631874084473e+00 -5.746861279476433992e-05 -2.389091605436988175e-05 -2.440785829094238579e-05 2.463016926412819885e-06
3.618000000000000000e+03 1.882497906684875488e+00 -3.807797729969024658e-01 -7.219425242510624230e-06 8.607467862020712346e-06 4.164128313277615234e-07 1.081954542314633727e-05
3.619000000000000000e+03 9.580569267272949219e+00 -2.457754313945770264e-01 8.087009337032213807e-05 7.037338946247473359e-05 4.537304630503058434e-05 -1.257326675840886310e-05
3.620000000000000000e+03 1.447560310363769531e+00 -1.120779752731323242e+00 2.822310125338844955e-05 4.381938197184354067e-05 2.161274460377171636e-05 2.567263618402648717e-05
3.621000000000000000e+03 6.046012115478515625e+01 -1.665619659423828125e+01 5.946768760681152344e+00 9.018107414245605469e+00 4.489462852478027344e+00 6.724343776702880859e+00
3.622000000000000000e+03 6.047324371337890625e+01 -1.667057800292968750e+01 3.061807632446289062e+00 1.665552520751953125e+01 5.915199756622314453e+00 6.145128250122070312e+00
3.623000000000000000e+03 6.048891448974609375e+01 -1.668213081359863281e+01 3.063491582870483398e+00 2.116254997253417969e+01 7.267812728881835938e+00 4.449058532714843750e+00
3.624000000000000000e+03 6.050653457641601562e+01 -1.669041252136230469e+01 3.831601619720458984e+00 2.529063224792480469e+01 8.736670494079589844e+00 1.712468266487121582e+00
3.625000000000000000e+03 6.052543258666992188e+01 -1.669510269165039062e+01 5.376469612121582031e+00 2.789406013488769531e+01 9.981159210205078125e+00 -1.160584330558776855e+00
3.626000000000000000e+03 6.054487991333007812e+01 -1.669602584838867188e+01 8.066725730895996094e+00 2.943028831481933594e+01 1.124910449981689453e+01 -4.539379119873046875e+00
3.627000000000000000e+03 6.056413650512695312e+01 -1.669314384460449219e+01 1.135390853881835938e+01 2.945208549499511719e+01 1.224179840087890625e+01 -7.466919422149658203e+00
3.628000000000000000e+03 6.058246231079101562e+01 -1.668656730651855469e+01 1.555037117004394531e+01 2.812168121337890625e+01 1.310161590576171875e+01 -9.858212471008300781e+00
3.629000000000000000e+03 6.059915542602539062e+01 -1.667654991149902344e+01 2.016589546203613281e+01 2.591822433471679688e+01 1.382523632049560547e+01 -1.109302043914794922e+01
3.630000000000000000e+03 6.061358261108398438e+01 -1.666347312927246094e+01 2.448143386840820312e+01 2.295261192321777344e+01 1.423021411895751953e+01 -1.115386199951171875e+01
3.631000000000000000e+03 6.062518310546875000e+01 -1.664784049987792969e+01 2.866029548645019531e+01 2.034895515441894531e+01 1.470277595520019531e+01 -9.778570175170898438e+00
3.632000000000000000e+03 6.063352203369140625e+01 -1.663024520874023438e+01 3.123419761657714844e+01 1.773966979980468750e+01 1.469216060638427734e+01 -7.652384281158447266e+00
3.633000000000000000e+03 6.063827133178710938e+01 -1.661136436462402344e+01 3.320894241333007812e+01 1.683403015136718750e+01 1.501289176940917969e+01 -4.508252620697021484e+00
3.634000000000000000e+03 6.063925552368164062e+01 -1.659191894531250000e+01 3.322029113769531250e+01 1.587319183349609375e+01 1.472804546356201172e+01 -1.596660256385803223e+00
3.635000000000000000e+03 6.063643646240234375e+01 -1.657265472412109375e+01 3.255891418457031250e+01 1.718628883361816406e+01 1.492356109619140625e+01 1.262172341346740723e+00
3.636000000000000000e+03 6.062992095947265625e+01 -1.655430793762207031e+01 3.066292572021484375e+01 1.850181579589843750e+01 1.474942207336425781e+01 3.432268142700195312e+00
3.637000000000000000e+03 6.061995697021484375e+01 -1.653758049011230469e+01 2.822812271118164062e+01 2.064216232299804688e+01 1.466108512878417969e+01 4.748949527740478516e+00
3.638000000000000000e+03 6.060692596435546875e+01 -1.652311325073242188e+01 2.604858398437500000e+01 2.327738571166992188e+01 1.479779052734375000e+01 4.920736789703369141e+00
3.639000000000000000e+03 6.059132766723632812e+01 -1.651146125793457031e+01 2.346913146972656250e+01 2.580533599853515625e+01 1.478234004974365234e+01 4.191398143768310547e+00
3.640000000000000000e+03 6.057376098632812500e+01 -1.650306892395019531e+01 2.184328079223632812e+01 2.809511184692382812e+01 1.498151779174804688e+01 2.460067510604858398e+00
3.641000000000000000e+03 6.055489730834960938e+01 -1.649825668334960938e+01 2.030953407287597656e+01 2.909984779357910156e+01 1.482281398773193359e+01 3.894122838973999023e-01
3.642000000000000000e+03 6.053545379638671875e+01 -1.649720954895019531e+01 2.233410263061523438e+01 3.051715087890625000e+01 1.585537624359130859e+01 -2.976679086685180664e+00
3.643000000000000000e+03 6.051618194580078125e+01 -1.649996757507324219e+01 2.084113311767578125e+01 2.867514801025390625e+01 1.485488510131835938e+01 -6.040669441223144531e+00
3.644000000000000000e+03 6.049781417846679688e+01 -1.650642395019531250e+01 2.579709053039550781e+01 2.826146888732910156e+01 1.621756744384765625e+01 -7.982834339141845703e+00
3.645000000000000000e+03 6.048105621337890625e+01 -1.651633453369140625e+01 2.847785568237304688e+01 2.379826736450195312e+01 1.568283748626708984e+01 -1.040525913238525391e+01
3.646000000000000000e+03 6.046654510498046875e+01 -1.652931785583496094e+01 3.191222763061523438e+01 2.038977813720703125e+01 1.569060134887695312e+01 -1.082258510589599609e+01
3.647000000000000000e+03 6.045484161376953125e+01 -1.654487609863281250e+01 3.690562057495117188e+01 1.658091735839843750e+01 1.604596138000488281e+01 -9.372521400451660156e+00
3.648000000000000000e+03 6.044639205932617188e+01 -1.656241607666015625e+01 3.920318222045898438e+01 1.119914913177490234e+01 1.512069988250732422e+01 -7.190925598144531250e+00
3.649000000000000000e+03 6.044152069091796875e+01 -1.658126640319824219e+01 4.143979644775390625e+01 8.749375343322753906e+00 1.505675125122070312e+01 -3.227330207824707031e+00
3.650000000000000000e+03 6.044041061401367188e+01 -1.660070419311523438e+01 4.105121612548828125e+01 5.709410667419433594e+00 1.402818870544433594e+01 1.418426871299743652e+00
3.651000000000000000e+03 6.044310760498046875e+01 -1.661998748779296875e+01 3.890247726440429688e+01 4.821194171905517578e+00 1.311710166931152344e+01 6.275695323944091797e+00
3.652000000000000000e+03 6.044950485229492188e+01 -1.663837432861328125e+01 3.373941421508789062e+01 6.387283802032470703e+00 1.203800964355468750e+01 1.197484874725341797e+01
