# el_label, x, y, sXX, sYY, sZZ, sXY
1.000000000000000000e+00 5.034891891479492188e+01 -2.433516502380371094e+01 7.487694025039672852e-01 1.386668920516967773e+00 6.406314969062805176e-01 -1.790977597236633301e+00
2.000000000000000000e+00 5.051243591308593750e+01 -2.444865417480468750e+01 2.466491699218750000e+00 1.253732085227966309e+00 1.116067171096801758e+00 -1.547787904739379883e+00
3.000000000000000000e+00 5.067594909667968750e+01 -2.456214332580566406e+01 1.717189073562622070e+00 1.015174150466918945e+00 8.197090029716491699e-01 -1.404560923576354980e+00
4.000000000000000000e+00 5.083946609497070312e+01 -2.467563247680664062e+01 1.625194072723388672e+00 8.842993378639221191e-01 7.528480291366577148e-01 -1.184059977531433105e+00
5.000000000000000000e+00 5.037736511230468750e+01 -2.428415679931640625e+01 4.218240261077880859e+00 1.613024592399597168e+00 1.749379515647888184e+00 -3.496317625045776367e+00
6.000000000000000000e+00 5.055984878540039062e+01 -2.436363983154296875e+01 3.038261175155639648e+00 1.242976903915405273e+00 1.284371495246887207e+00 -1.835842609405517578e+00
7.000000000000000000e+00 5.074233245849609375e+01 -2.444312286376953125e+01 3.019234418869018555e+00 8.865479826927185059e-01 1.171734690666198730e+00 -1.603172898292541504e+00
8.000000000000000000e+00 5.092481231689453125e+01 -2.452260589599609375e+01 2.414260387420654297e+00 7.573549747467041016e-01 9.514846205711364746e-01 -1.368561744689941406e+00
9.000000000000000000e+00 5.039533996582031250e+01 -2.422858619689941406e+01 7.398493766784667969e+00 9.266746044158935547e-01 2.497550487518310547e+00 -2.975348234176635742e+00
1.000000000000000000e+01 5.058980560302734375e+01 -2.427102088928222656e+01 4.876204967498779297e+00 8.335375189781188965e-01 1.712922692298889160e+00 -2.137389421463012695e+00
1.100000000000000000e+01 5.078427124023437500e+01 -2.431345558166503906e+01 3.945544004440307617e+00 6.993947029113769531e-01 1.393481612205505371e+00 -1.454605579376220703e+00
1.200000000000000000e+01 5.097873306274414062e+01 -2.435589027404785156e+01 3.522287607192993164e+00 4.384646713733673096e-01 1.188225746154785156e+00 -1.253752708435058594e+00
1.300000000000000000e+01 5.040214920043945312e+01 -2.417057800292968750e+01 9.687381744384765625e+00 5.664283037185668945e-01 3.076143026351928711e+00 -1.842504501342773438e+00
1.400000000000000000e+01 5.060115432739257812e+01 -2.417434120178222656e+01 6.513338088989257812e+00 4.940516054630279541e-01 2.102216958999633789e+00 -1.410174965858459473e+00
1.500000000000000000e+01 5.080015945434570312e+01 -2.417810440063476562e+01 5.214269161224365234e+00 3.365171253681182861e-01 1.665235877037048340e+00 -1.112478613853454590e+00
1.600000000000000000e+01 5.099916458129882812e+01 -2.418186759948730469e+01 4.343278884887695312e+00 2.519038915634155273e-01 1.378554821014404297e+00 -7.771933674812316895e-01
1.700000000000000000e+01 5.039753723144531250e+01 -2.411235427856445312e+01 1.103164577484130859e+01 7.951139807701110840e-01 3.548027753829956055e+00 -1.094207763671875000e-01
1.800000000000000000e+01 5.059346771240234375e+01 -2.407730102539062500e+01 7.720145702362060547e+00 4.681255221366882324e-01 2.456481456756591797e+00 -3.808358013629913330e-01
1.900000000000000000e+01 5.078939819335937500e+01 -2.404224777221679688e+01 6.051988601684570312e+00 2.947417795658111572e-01 1.904019117355346680e+00 -2.477639466524124146e-01
2.000000000000000000e+01 5.098532485961914062e+01 -2.400719642639160156e+01 5.133544921875000000e+00 9.671730548143386841e-02 1.569078683853149414e+00 -1.252797842025756836e-01
2.100000000000000000e+01 5.038167572021484375e+01 -2.405614280700683594e+01 1.149894523620605469e+01 1.659524559974670410e+00 3.947540998458862305e+00 1.577499508857727051e+00
2.200000000000000000e+01 5.056703567504882812e+01 -2.398361587524414062e+01 8.212453842163085938e+00 9.627974629402160645e-01 2.752575397491455078e+00 8.957415819168090820e-01
2.300000000000000000e+01 5.075239181518554688e+01 -2.391108894348144531e+01 6.546764373779296875e+00 5.774024128913879395e-01 2.137250185012817383e+00 7.272688746452331543e-01
2.400000000000000000e+01 5.093774795532226562e+01 -2.383856201171875000e+01 5.349640846252441406e+00 3.472818434238433838e-01 1.709076881408691406e+00 7.262910008430480957e-01
2.500000000000000000e+01 5.035517883300781250e+01 -2.400409317016601562e+01 1.110634040832519531e+01 3.134347915649414062e+00 4.272206306457519531e+00 3.017398595809936523e+00
2.600000000000000000e+01 5.052286911010742188e+01 -2.389686775207519531e+01 8.186836242675781250e+00 1.878214478492736816e+00 3.019515275955200195e+00 2.006837844848632812e+00
2.700000000000000000e+01 5.069055557250976562e+01 -2.378964233398437500e+01 6.431411743164062500e+00 1.313921213150024414e+00 2.323599815368652344e+00 1.688626289367675781e+00
2.800000000000000000e+01 5.085824584960937500e+01 -2.368241691589355469e+01 5.306942939758300781e+00 9.082308411598205566e-01 1.864552140235900879e+00 1.553677558898925781e+00
2.900000000000000000e+01 5.031905364990234375e+01 -2.395820045471191406e+01 1.023865222930908203e+01 4.925710678100585938e+00 4.549308776855468750e+00 3.885757684707641602e+00
3.000000000000000000e+01 5.046265792846679688e+01 -2.382037925720214844e+01 7.614993572235107422e+00 3.178183317184448242e+00 3.237953186035156250e+00 2.800406932830810547e+00
3.100000000000000000e+01 5.060626220703125000e+01 -2.368255805969238281e+01 6.011214733123779297e+00 2.314097642898559570e+00 2.497593879699707031e+00 2.402822732925415039e+00
3.200000000000000000e+01 5.074987030029296875e+01 -2.354473876953125000e+01 4.809560298919677734e+00 1.817145228385925293e+00 1.988011598587036133e+00 2.154976367950439453e+00
3.300000000000000000e+01 5.027468109130859375e+01 -2.392021942138671875e+01 9.103503227233886719e+00 6.805054664611816406e+00 4.772567272186279297e+00 4.100752353668212891e+00
3.400000000000000000e+01 5.038870620727539062e+01 -2.375707817077636719e+01 6.827043533325195312e+00 4.602310657501220703e+00 3.428806304931640625e+00 3.152967214584350586e+00
3.500000000000000000e+01 5.050273132324218750e+01 -2.359393501281738281e+01 5.299468994140625000e+00 3.511350154876708984e+00 2.643245697021484375e+00 2.695696592330932617e+00
3.600000000000000000e+01 5.061676025390625000e+01 -2.343079376220703125e+01 4.159547328948974609e+00 2.823657751083374023e+00 2.094961404800415039e+00 2.488750934600830078e+00
3.700000000000000000e+01 5.022376632690429688e+01 -2.389160346984863281e+01 8.087534904479980469e+00 8.478047370910644531e+00 4.969674587249755859e+00 3.709216833114624023e+00
3.800000000000000000e+01 5.030384826660156250e+01 -2.370938301086425781e+01 5.959282875061035156e+00 5.949785709381103516e+00 3.572720766067504883e+00 3.007345199584960938e+00
3.900000000000000000e+01 5.038393020629882812e+01 -2.352716255187988281e+01 4.562505245208740234e+00 4.694738388061523438e+00 2.777173042297363281e+00 2.583737850189208984e+00
4.000000000000000000e+01 5.046401214599609375e+01 -2.334494400024414062e+01 3.522564411163330078e+00 3.803761959075927734e+00 2.197897911071777344e+00 2.388905048370361328e+00
4.100000000000000000e+01 5.016825485229492188e+01 -2.387344741821289062e+01 7.290197849273681641e+00 9.686273574829101562e+00 5.092941284179687500e+00 2.885689020156860352e+00
4.200000000000000000e+01 5.021132659912109375e+01 -2.367912292480468750e+01 5.341136455535888672e+00 7.066679000854492188e+00 3.722344636917114258e+00 2.419679164886474609e+00
4.300000000000000000e+01 5.025440216064453125e+01 -2.348479843139648438e+01 3.894353866577148438e+00 5.633784770965576172e+00 2.858441591262817383e+00 2.117233037948608398e+00
4.400000000000000000e+01 5.029747772216796875e+01 -2.329047393798828125e+01 3.042165040969848633e+00 4.655371665954589844e+00 2.309261083602905273e+00 1.867135882377624512e+00
4.500000000000000000e+01 5.011026763916015625e+01 -2.386644554138183594e+01 7.046023368835449219e+00 1.039378070831298828e+01 5.231941223144531250e+00 1.835156083106994629e+00
4.600000000000000000e+01 5.011468505859375000e+01 -2.366745376586914062e+01 4.900963306427001953e+00 7.769988536834716797e+00 3.801285505294799805e+00 1.553660750389099121e+00
4.700000000000000000e+01 5.011910247802734375e+01 -2.346846199035644531e+01 3.666983604431152344e+00 6.228796958923339844e+00 2.968734025955200195e+00 1.358096122741699219e+00
4.800000000000000000e+01 5.012352371215820312e+01 -2.326947021484375000e+01 2.578634738922119141e+00 5.186510562896728516e+00 2.329543590545654297e+00 1.139492630958557129e+00
4.900000000000000000e+01 5.005202865600585938e+01 -2.387086677551269531e+01 7.136198043823242188e+00 1.053114604949951172e+01 5.300203323364257812e+00 7.371686100959777832e-01
5.000000000000000000e+01 5.001762390136718750e+01 -2.367482185363769531e+01 4.962002754211425781e+00 8.021546363830566406e+00 3.895064592361450195e+00 6.295474767684936523e-01
5.100000000000000000e+01 4.998321533203125000e+01 -2.347877883911132812e+01 3.653298854827880859e+00 6.426026344299316406e+00 3.023797512054443359e+00 4.345883727073669434e-01
5.200000000000000000e+01 4.994880676269531250e+01 -2.328273391723632812e+01 2.644985198974609375e+00 5.339980602264404297e+00 2.395489692687988281e+00 3.838002681732177734e-01
5.300000000000000000e+01 4.999576950073242188e+01 -2.388654136657714844e+01 7.616388320922851562e+00 1.023821163177490234e+01 5.356379985809326172e+00 -1.347512453794479370e-01
5.400000000000000000e+01 4.992385101318359375e+01 -2.370094680786132812e+01 5.382009506225585938e+00 7.798610687255859375e+00 3.954185962677001953e+00 -2.525269687175750732e-01
5.500000000000000000e+01 4.985193252563476562e+01 -2.351535415649414062e+01 3.985697031021118164e+00 6.267429828643798828e+00 3.075937986373901367e+00 -3.559822738170623779e-01
5.600000000000000000e+01 4.978001785278320312e+01 -2.332975959777832031e+01 3.085746288299560547e+00 5.116163730621337891e+00 2.460572957992553711e+00 -4.278410673141479492e-01
5.700000000000000000e+01 4.994363403320312500e+01 -2.391287040710449219e+01 8.437692642211914062e+00 9.598486900329589844e+00 5.410853862762451172e+00 -7.317156791687011719e-01
5.800000000000000000e+01 4.983695602416992188e+01 -2.374482917785644531e+01 6.013229846954345703e+00 7.231382369995117188e+00 3.973383665084838867e+00 -8.609538078308105469e-01
5.900000000000000000e+01 4.973028564453125000e+01 -2.357678794860839844e+01 4.670678138732910156e+00 5.758657455444335938e+00 3.128800630569458008e+00 -9.103657603263854980e-01
6.000000000000000000e+01 4.962361145019531250e+01 -2.340874481201171875e+01 3.625625610351562500e+00 4.714415550231933594e+00 2.502012252807617188e+00 -1.037670493125915527e+00
6.100000000000000000e+01 4.989762115478515625e+01 -2.394884490966796875e+01 9.216802597045898438e+00 8.719472885131835938e+00 5.380882740020751953e+00 -9.825400114059448242e-01
6.200000000000000000e+01 4.976027297973632812e+01 -2.380478668212890625e+01 6.942666530609130859e+00 6.483760356903076172e+00 4.027927875518798828e+00 -1.060783267021179199e+00
6.300000000000000000e+01 4.962292480468750000e+01 -2.366072845458984375e+01 5.369319915771484375e+00 5.034213542938232422e+00 3.121060132980346680e+00 -1.176844477653503418e+00
6.400000000000000000e+01 4.948557662963867188e+01 -2.351667213439941406e+01 4.382615089416503906e+00 4.097921371459960938e+00 2.544161081314086914e+00 -1.186318516731262207e+00
6.500000000000000000e+01 4.985949325561523438e+01 -2.399308967590332031e+01 1.014193916320800781e+01 7.924654006958007812e+00 5.419978141784667969e+00 -7.627155780792236328e-01
6.600000000000000000e+01 4.969672775268554688e+01 -2.387852859497070312e+01 7.686142444610595703e+00 5.575067520141601562e+00 3.978363037109375000e+00 -9.460211396217346191e-01
6.700000000000000000e+01 4.953396224975585938e+01 -2.376396751403808594e+01 6.216959476470947266e+00 4.376096248626708984e+00 3.177916765213012695e+00 -9.482353925704956055e-01
6.800000000000000000e+01 4.937119293212890625e+01 -2.364940643310546875e+01 5.037338256835937500e+00 3.276619911193847656e+00 2.494187355041503906e+00 -1.099542975425720215e+00
6.900000000000000000e+01 4.983070755004882812e+01 -2.404391288757324219e+01 1.075171089172363281e+01 7.026679039001464844e+00 5.333517074584960938e+00 -2.364015132188796997e-01
7.000000000000000000e+01 4.964875411987304688e+01 -2.396323204040527344e+01 8.341410636901855469e+00 4.997590065002441406e+00 4.001700401306152344e+00 -3.623068332672119141e-01
7.100000000000000000e+01 4.946679687500000000e+01 -2.388255119323730469e+01 6.794037818908691406e+00 3.627166032791137695e+00 3.126361131668090820e+00 -5.016189813613891602e-01
7.200000000000000000e+01 4.928484344482421875e+01 -2.380187034606933594e+01 5.709550380706787109e+00 2.850840568542480469e+00 2.568117380142211914e+00 -6.074190139770507812e-01
7.300000000000000000e+01 4.981237030029296875e+01 -2.409936523437500000e+01 1.111709403991699219e+01 6.575595855712890625e+00 5.307806968688964844e+00 6.362028717994689941e-01
7.400000000000000000e+01 4.961818695068359375e+01 -2.405565261840820312e+01 8.581727027893066406e+00 4.492783546447753906e+00 3.922353267669677734e+00 4.534534513950347900e-01
7.500000000000000000e+01 4.942400741577148438e+01 -2.401194000244140625e+01 7.081563949584960938e+00 3.353949546813964844e+00 3.130654096603393555e+00 2.200003266334533691e-01
7.600000000000000000e+01 4.922982406616210938e+01 -2.396822738647460938e+01 6.052243232727050781e+00 2.487575769424438477e+00 2.561945676803588867e+00 3.922996297478675842e-02
7.700000000000000000e+01 4.980517959594726562e+01 -2.415732765197753906e+01 1.097252750396728516e+01 6.335046291351318359e+00 5.192272186279296875e+00 1.710439085960388184e+00
7.800000000000000000e+01 4.960620117187500000e+01 -2.415225601196289062e+01 8.419098854064941406e+00 4.495905876159667969e+00 3.874501466751098633e+00 1.375548481941223145e+00
7.900000000000000000e+01 4.940722656250000000e+01 -2.414718437194824219e+01 6.926749229431152344e+00 3.302958011627197266e+00 3.068912029266357422e+00 1.046776056289672852e+00
8.000000000000000000e+01 4.920824813842773438e+01 -2.414211273193359375e+01 5.932391166687011719e+00 2.531031370162963867e+00 2.539026737213134766e+00 7.830215692520141602e-01
8.100000000000000000e+01 4.980940628051757812e+01 -2.421557998657226562e+01 1.033220100402832031e+01 6.630526542663574219e+00 5.088818073272705078e+00 2.783258438110351562e+00
8.200000000000000000e+01 4.961325073242187500e+01 -2.424934387207031250e+01 7.738080501556396484e+00 4.790923595428466797e+00 3.758701324462890625e+00 2.237761259078979492e+00
8.300000000000000000e+01 4.941709518432617188e+01 -2.428310775756835938e+01 6.378191471099853516e+00 3.672193765640258789e+00 3.015115499496459961e+00 1.796022653579711914e+00
8.400000000000000000e+01 4.922093963623046875e+01 -2.431687164306640625e+01 5.430611610412597656e+00 2.806957960128784180e+00 2.471270799636840820e+00 1.500402927398681641e+00
8.500000000000000000e+01 4.982489776611328125e+01 -2.427189445495605469e+01 9.102740287780761719e+00 7.272686004638671875e+00 4.912627696990966797e+00 3.668250560760498047e+00
8.600000000000000000e+01 4.963906860351562500e+01 -2.434320068359375000e+01 6.685009002685546875e+00 5.479038238525390625e+00 3.649214267730712891e+00 2.830050706863403320e+00
8.700000000000000000e+01 4.945323944091796875e+01 -2.441450881958007812e+01 5.433986186981201172e+00 4.231682777404785156e+00 2.899700641632080078e+00 2.329951524734497070e+00
8.800000000000000000e+01 4.926741027832031250e+01 -2.448581695556640625e+01 4.679459095001220703e+00 3.396371841430664062e+00 2.422749280929565430e+00 1.970283389091491699e+00
8.900000000000000000e+01 4.985105514526367188e+01 -2.432411575317382812e+01 7.469699382781982422e+00 8.306850433349609375e+00 4.732964992523193359e+00 4.112665653228759766e+00
9.000000000000000000e+01 4.968266677856445312e+01 -2.443023681640625000e+01 5.311583518981933594e+00 6.266555309295654297e+00 3.473441600799560547e+00 3.039927005767822266e+00
9.100000000000000000e+01 4.951427459716796875e+01 -2.453635978698730469e+01 4.314837932586669922e+00 4.982618331909179688e+00 2.789236783981323242e+00 2.494198560714721680e+00
9.200000000000000000e+01 4.934588241577148438e+01 -2.464248085021972656e+01 3.654106855392456055e+00 4.063718795776367188e+00 2.315347671508789062e+00 2.120036363601684570e+00
9.300000000000000000e+01 4.988688278198242188e+01 -2.437024497985839844e+01 5.561730384826660156e+00 9.373151779174804688e+00 4.480464458465576172e+00 3.983556509017944336e+00
9.400000000000000000e+01 4.974237060546875000e+01 -2.450712013244628906e+01 3.888292074203491211e+00 7.089235305786132812e+00 3.293258190155029297e+00 2.775393486022949219e+00
9.500000000000000000e+01 4.959786224365234375e+01 -2.464399528503417969e+01 3.098176002502441406e+00 5.636737346649169922e+00 2.620474100112915039e+00 2.243624448776245117e+00
9.600000000000000000e+01 4.945335769653320312e+01 -2.478087043762207031e+01 2.617094278335571289e+00 4.716624259948730469e+00 2.200115442276000977e+00 1.928187727928161621e+00
9.700000000000000000e+01 4.993099975585937500e+01 -2.440851783752441406e+01 3.718985557556152344e+00 1.030667304992675781e+01 4.207697391510009766e+00 3.204871892929077148e+00
9.800000000000000000e+01 4.981590652465820312e+01 -2.457090759277343750e+01 2.565191984176635742e+00 7.604408264160156250e+00 3.050880193710327148e+00 2.070713996887207031e+00
9.900000000000000000e+01 4.970080947875976562e+01 -2.473329734802246094e+01 2.018986225128173828e+00 6.134776592254638672e+00 2.446128845214843750e+00 1.624601840972900391e+00
1.000000000000000000e+02 4.958571624755859375e+01 -2.489568710327148438e+01 1.685168266296386719e+00 5.085770606994628906e+00 2.031281709671020508e+00 1.374736309051513672e+00
1.010000000000000000e+02 4.998172760009765625e+01 -2.443746757507324219e+01 2.199334144592285156e+00 1.067396736145019531e+01 3.861990451812744141e+00 1.909572005271911621e+00
1.020000000000000000e+02 4.990044784545898438e+01 -2.461915779113769531e+01 1.548514723777770996e+00 7.760960578918457031e+00 2.792842626571655273e+00 1.024010300636291504e+00
1.030000000000000000e+02 4.981917190551757812e+01 -2.480084800720214844e+01 1.221090912818908691e+00 6.173977375030517578e+00 2.218520402908325195e+00 7.492647171020507812e-01
1.040000000000000000e+02 4.973789215087890625e+01 -2.498253822326660156e+01 9.917042851448059082e-01 5.216125488281250000e+00 1.862348914146423340e+00 6.098703742027282715e-01
1.050000000000000000e+02 5.003711700439453125e+01 -2.445598983764648438e+01 1.238384842872619629e+00 1.037484836578369141e+01 3.483969926834106445e+00 2.725786268711090088e-01
1.060000000000000000e+02 4.999277114868164062e+01 -2.465002632141113281e+01 9.513162970542907715e-01 7.280515670776367188e+00 2.469549655914306641e+00 -1.191679984331130981e-01
1.070000000000000000e+02 4.994842147827148438e+01 -2.484406280517578125e+01 7.792522311210632324e-01 5.835524082183837891e+00 1.984432935714721680e+00 -2.305129319429397583e-01
1.080000000000000000e+02 4.990406799316406250e+01 -2.503810119628906250e+01 6.675366759300231934e-01 4.854656696319580078e+00 1.656658053398132324e+00 -1.908162683248519897e-01
1.090000000000000000e+02 5.009505844116210938e+01 -2.446337127685546875e+01 8.853758573532104492e-01 9.170404434204101562e+00 3.016734123229980469e+00 -1.261691212654113770e+00
1.100000000000000000e+02 5.008933258056640625e+01 -2.466233062744140625e+01 8.048895597457885742e-01 6.290919303894042969e+00 2.128742694854736328e+00 -1.219699740409851074e+00
1.110000000000000000e+02 5.008361053466796875e+01 -2.486128807067871094e+01 7.157458066940307617e-01 4.932408809661865234e+00 1.694446444511413574e+00 -1.016144037246704102e+00
1.120000000000000000e+02 5.007788467407226562e+01 -2.506024742126464844e+01 6.373632550239562988e-01 4.223103046417236328e+00 1.458139896392822266e+00 -9.033568501472473145e-01
1.130000000000000000e+02 5.015332412719726562e+01 -2.445933341979980469e+01 1.120442509651184082e+00 7.211041927337646484e+00 2.499445199966430664e+00 -2.505899906158447266e+00
1.140000000000000000e+02 5.018644332885742188e+01 -2.465559768676757812e+01 9.706919789314270020e-01 4.730029106140136719e+00 1.710216283798217773e+00 -1.860808134078979492e+00
1.150000000000000000e+02 5.021956634521484375e+01 -2.485186386108398438e+01 9.284051060676574707e-01 3.791185379028320312e+00 1.415877103805541992e+00 -1.557512998580932617e+00
1.160000000000000000e+02 5.025268554687500000e+01 -2.504813003540039062e+01 8.133162856101989746e-01 3.190386295318603516e+00 1.201110720634460449e+00 -1.265995740890502930e+00
1.170000000000000000e+02 5.020969009399414062e+01 -2.444402694702148438e+01 1.527485013008117676e+00 4.624272823333740234e+00 1.845527410507202148e+00 -2.912091016769409180e+00
1.180000000000000000e+02 5.028038406372070312e+01 -2.463008880615234375e+01 1.341930985450744629e+00 2.940301656723022461e+00 1.284669756889343262e+00 -2.066598415374755859e+00
1.190000000000000000e+02 5.035108184814453125e+01 -2.481615066528320312e+01 1.147442936897277832e+00 2.457630634307861328e+00 1.081522107124328613e+00 -1.495763301849365234e+00
1.200000000000000000e+02 5.042178344726562500e+01 -2.500221443176269531e+01 9.830777049064636230e-01 2.291856765747070312e+00 9.824803471565246582e-01 -1.397198319435119629e+00
1.210000000000000000e+02 5.026199722290039062e+01 -2.441804122924804688e+01 1.971886038780212402e+00 1.545821905136108398e+00 1.055312395095825195e+00 -2.549725055694580078e+00
1.220000000000000000e+02 5.036756515502929688e+01 -2.458677864074707031e+01 1.323194265365600586e+00 1.297815322875976562e+00 7.863028645515441895e-01 -1.294277191162109375e+00
1.230000000000000000e+02 5.047313308715820312e+01 -2.475551605224609375e+01 1.141849398612976074e+00 1.639992833137512207e+00 8.345526456832885742e-01 -1.290843725204467773e+00
1.240000000000000000e+02 5.057870101928710938e+01 -2.492425537109375000e+01 1.040060400962829590e+00 1.278256416320800781e+00 6.954950690269470215e-01 -1.178020834922790527e+00
1.250000000000000000e+02 5.030824279785156250e+01 -2.438236808776855469e+01 6.156142950057983398e-01 -1.156245708465576172e+00 -1.621894240379333496e-01 -2.685517668724060059e-01
1.260000000000000000e+02 5.044464492797851562e+01 -2.452732467651367188e+01 9.405922889709472656e-01 1.050434947013854980e+00 5.973081588745117188e-01 -7.834247946739196777e-01
1.270000000000000000e+02 5.058104324340820312e+01 -2.467228126525878906e+01 8.619356751441955566e-01 5.959555506706237793e-01 4.373673796653747559e-01 -8.185861110687255859e-01
1.280000000000000000e+02 5.071744155883789062e+01 -2.481723785400390625e+01 8.392134308815002441e-01 7.253475189208984375e-01 4.693682789802551270e-01 -7.436710000038146973e-01
1.290000000000000000e+02 5.350625228881835938e+01 -2.542057800292968750e+01 8.522684574127197266e-01 -1.257925182580947876e-01 2.179427891969680786e-01 -1.292013078927993774e-01
1.300000000000000000e+02 5.421136093139648438e+01 -2.677143669128417969e+01 3.572674989700317383e-01 3.586743772029876709e-02 1.179404854774475098e-01 -1.170734390616416931e-01
1.310000000000000000e+02 5.522343063354492188e+01 -2.651908874511718750e+01 3.645489215850830078e-01 -7.151951640844345093e-02 8.790881931781768799e-02 6.476749200373888016e-03
1.320000000000000000e+02 5.319937896728515625e+01 -2.528487396240234375e+01 9.462089538574218750e-01 -1.072981134057044983e-01 2.516732513904571533e-01 -2.151792198419570923e-01
1.330000000000000000e+02 5.296155166625976562e+01 -2.587010192871093750e+01 6.520646214485168457e-01 8.464044332504272461e-02 2.210115194320678711e-01 -3.162478208541870117e-01
1.340000000000000000e+02 5.426347351074218750e+01 -2.583129692077636719e+01 6.089855432510375977e-01 -1.053594350814819336e-01 1.510878205299377441e-01 -4.517699033021926880e-02
1.350000000000000000e+02 5.482850265502929688e+01 -2.714511299133300781e+01 2.207140773534774780e-01 -3.066610544919967651e-03 6.529423594474792480e-02 -6.411010771989822388e-02
1.360000000000000000e+02 5.337978744506835938e+01 -2.511381721496582031e+01 1.011265754699707031e+00 -1.905455291271209717e-01 2.462160587310791016e-01 -1.083277091383934021e-01
1.370000000000000000e+02 5.314106750488281250e+01 -2.612401962280273438e+01 5.702112913131713867e-01 9.692480415105819702e-02 2.001408338546752930e-01 -2.637576758861541748e-01
1.380000000000000000e+02 5.270549011230468750e+01 -2.614546203613281250e+01 5.099018216133117676e-01 1.683316528797149658e-01 2.034700363874435425e-01 -3.003187775611877441e-01
1.390000000000000000e+02 5.468660354614257812e+01 -2.619359397888183594e+01 4.600997269153594971e-01 -9.225416928529739380e-02 1.103536710143089294e-01 -3.142491728067398071e-02
1.400000000000000000e+02 5.279820251464843750e+01 -2.573112678527832031e+01 7.617949843406677246e-01 9.207734465599060059e-02 2.561616897583007812e-01 -3.389483988285064697e-01
1.410000000000000000e+02 5.271929550170898438e+01 -2.589844131469726562e+01 6.453273892402648926e-01 1.400796920061111450e-01 2.356221228837966919e-01 -3.536792099475860596e-01
1.420000000000000000e+02 5.310597610473632812e+01 -2.567026901245117188e+01 7.649592161178588867e-01 2.453106269240379333e-02 2.368470877408981323e-01 -2.631144821643829346e-01
1.430000000000000000e+02 5.305017089843750000e+01 -2.544062614440917969e+01 9.102447032928466797e-01 -3.715340793132781982e-02 2.619273960590362549e-01 -2.679922282695770264e-01
1.440000000000000000e+02 5.338509750366210938e+01 -2.579041290283203125e+01 6.676032543182373047e-01 -1.761616766452789307e-02 1.949961334466934204e-01 -2.082698047161102295e-01
1.450000000000000000e+02 5.389771652221679688e+01 -2.553609848022460938e+01 7.556461095809936523e-01 -1.532689779996871948e-01 1.807131469249725342e-01 -8.183796703815460205e-02
1.460000000000000000e+02 5.357909393310546875e+01 -2.643484115600585938e+01 4.551130831241607666e-01 5.645589902997016907e-02 1.534706950187683105e-01 -2.064336687326431274e-01
1.470000000000000000e+02 5.381033325195312500e+01 -2.595985603332519531e+01 5.964383482933044434e-01 -4.530452936887741089e-02 1.653401404619216919e-01 -1.315451860427856445e-01
1.480000000000000000e+02 5.291077804565429688e+01 -2.557395935058593750e+01 8.338909745216369629e-01 3.365457430481910706e-02 2.602636516094207764e-01 -3.442782163619995117e-01
1.490000000000000000e+02 5.237431335449218750e+01 -2.595532608032226562e+01 5.044510364532470703e-01 2.229480445384979248e-01 2.182197272777557373e-01 -3.690162599086761475e-01
1.500000000000000000e+02 5.147150421142578125e+01 -2.517439651489257812e+01 1.037584662437438965e+00 5.366477370262145996e-01 4.722697138786315918e-01 -7.537381649017333984e-01
1.510000000000000000e+02 5.111609268188476562e+01 -2.460489273071289062e+01 2.194291353225708008e+00 5.863925814628601074e-01 8.342051506042480469e-01 -1.159632802009582520e+00
1.520000000000000000e+02 5.036431121826171875e+01 -2.308462142944335938e+01 2.066684722900390625e+00 3.781080722808837891e+00 1.754329562187194824e+00 1.780235528945922852e+00
1.530000000000000000e+02 4.935593414306640625e+01 -2.337864303588867188e+01 3.566735267639160156e+00 3.233044624328613281e+00 2.039933919906616211e+00 -1.309691667556762695e+00
1.540000000000000000e+02 4.901413726806640625e+01 -2.360126686096191406e+01 4.307306289672851562e+00 1.916014671325683594e+00 1.866996288299560547e+00 -8.599251508712768555e-01
1.550000000000000000e+02 4.902191162109375000e+01 -2.504224586486816406e+01 2.236748456954956055e+00 2.957260131835937500e+00 1.558202624320983887e+00 1.568514227867126465e+00
1.560000000000000000e+02 5.131099319458007812e+01 -2.538797569274902344e+01 7.142101526260375977e-01 6.151754260063171387e-01 3.988156914710998535e-01 -6.502379775047302246e-01
1.570000000000000000e+02 5.018407440185546875e+01 -2.603750801086425781e+01 3.497008383274078369e-01 2.365708351135253906e+00 8.146227598190307617e-01 -6.201749444007873535e-01
1.580000000000000000e+02 5.106550598144531250e+01 -2.360091590881347656e+01 4.491475582122802734e+00 5.876955986022949219e-01 1.523751378059387207e+00 1.464479327201843262e+00
1.590000000000000000e+02 5.311759185791015625e+01 -2.492425346374511719e+01 1.152063369750976562e+00 -1.980481594800949097e-01 2.862045466899871826e-01 -1.438211649656295776e-01
1.600000000000000000e+02 5.121728515625000000e+01 -2.396692466735839844e+01 4.263930797576904297e+00 2.124629216268658638e-03 1.279816746711730957e+00 4.767571762204170227e-02
1.610000000000000000e+02 5.122826766967773438e+01 -2.418451690673828125e+01 3.750320911407470703e+00 3.964789956808090210e-02 1.136990666389465332e+00 -5.908945202827453613e-01
1.620000000000000000e+02 5.119316482543945312e+01 -2.440000152587890625e+01 2.961837530136108398e+00 3.231396973133087158e-01 9.854931831359863281e-01 -1.008365988731384277e+00
1.630000000000000000e+02 4.875127792358398438e+01 -2.451341438293457031e+01 3.853540658950805664e+00 1.737558722496032715e+00 1.677329897880554199e+00 1.210922837257385254e+00
1.640000000000000000e+02 4.900505065917968750e+01 -2.413279342651367188e+01 5.149487018585205078e+00 1.850883126258850098e+00 2.100111007690429688e+00 5.619914531707763672e-01
1.650000000000000000e+02 4.869592285156250000e+01 -2.435699844360351562e+01 4.016738891601562500e+00 1.319417834281921387e+00 1.600847125053405762e+00 7.650316953659057617e-01
1.660000000000000000e+02 4.911502838134765625e+01 -2.371738243103027344e+01 4.871023178100585938e+00 2.115174055099487305e+00 2.095859289169311523e+00 -7.612020969390869141e-01
1.670000000000000000e+02 4.913365173339843750e+01 -2.348358726501464844e+01 4.116344928741455078e+00 2.439277172088623047e+00 1.966686606407165527e+00 -1.204885363578796387e+00
1.680000000000000000e+02 4.972050476074218750e+01 -2.294772529602050781e+01 1.442304015159606934e+00 3.751818180084228516e+00 1.558236718177795410e+00 -4.406047761440277100e-01
1.690000000000000000e+02 5.015608596801757812e+01 -2.305383682250976562e+01 1.886507034301757812e+00 4.296027660369873047e+00 1.854760527610778809e+00 1.102912783622741699e+00
1.700000000000000000e+02 5.081058502197265625e+01 -2.318775939941406250e+01 3.007793426513671875e+00 2.015554666519165039e+00 1.507004380226135254e+00 2.110348463058471680e+00
1.710000000000000000e+02 5.148438644409179688e+01 -2.719485473632812500e+01 3.336068987846374512e-01 9.893342256546020508e-01 3.968823552131652832e-01 -5.831323266029357910e-01
1.720000000000000000e+02 5.161490631103515625e+01 -2.676568222045898438e+01 4.801655709743499756e-01 8.435385823249816895e-01 3.971112370491027832e-01 -6.027834415435791016e-01
1.730000000000000000e+02 5.189632797241210938e+01 -2.590909767150878906e+01 6.539105772972106934e-01 5.131739377975463867e-01 3.501253724098205566e-01 -5.812677145004272461e-01
1.740000000000000000e+02 5.159888458251953125e+01 -2.562270164489746094e+01 6.596208810806274414e-01 5.422489643096923828e-01 3.605609536170959473e-01 -6.122543215751647949e-01
1.750000000000000000e+02 5.077093887329101562e+01 -2.650207328796386719e+01 4.404004216194152832e-01 1.454520821571350098e+00 5.684763789176940918e-01 -7.220686674118041992e-01
1.760000000000000000e+02 5.004544830322265625e+01 -2.545631408691406250e+01 4.928010702133178711e-01 3.390397787094116211e+00 1.164959669113159180e+00 -6.403478384017944336e-01
1.770000000000000000e+02 4.984362792968750000e+01 -2.522517395019531250e+01 5.841436982154846191e-01 4.311486721038818359e+00 1.468689084053039551e+00 -1.330687850713729858e-01
1.780000000000000000e+02 4.957001113891601562e+01 -2.554718399047851562e+01 5.877289772033691406e-01 3.536891698837280273e+00 1.237386226654052734e+00 2.917243242263793945e-01
1.790000000000000000e+02 5.222088241577148438e+01 -2.616217613220214844e+01 7.312843203544616699e-01 4.943491220474243164e-01 3.676900267601013184e-01 -5.766113400459289551e-01
1.800000000000000000e+02 5.173174285888671875e+01 -2.577379798889160156e+01 6.626491546630859375e-01 5.405892729759216309e-01 3.609715104103088379e-01 -5.832644701004028320e-01
1.810000000000000000e+02 5.134125900268554688e+01 -2.706739997863769531e+01 3.924285173416137695e-01 1.015937328338623047e+00 4.225097298622131348e-01 -6.161693930625915527e-01
1.820000000000000000e+02 5.093101882934570312e+01 -2.663776779174804688e+01 4.178150594234466553e-01 1.302913784980773926e+00 5.162186622619628906e-01 -6.892858147621154785e-01
1.830000000000000000e+02 5.068222808837890625e+01 -2.510778808593750000e+01 9.536589384078979492e-01 1.301147699356079102e+00 6.764420270919799805e-01 -1.067563652992248535e+00
1.840000000000000000e+02 5.085390472412109375e+01 -2.496677017211914062e+01 7.972816824913024902e-01 6.493921279907226562e-01 4.340021312236785889e-01 -7.342752814292907715e-01
1.850000000000000000e+02 4.906663131713867188e+01 -2.456644058227539062e+01 4.052550792694091797e+00 2.671498298645019531e+00 2.017214775085449219e+00 1.679306387901306152e+00
1.860000000000000000e+02 5.018612289428710938e+01 -2.570706367492675781e+01 4.693091809749603271e-01 2.670255661010742188e+00 9.418694376945495605e-01 -7.510215640068054199e-01
1.870000000000000000e+02 5.116687774658203125e+01 -2.490933609008789062e+01 1.288628339767456055e+00 6.820255517959594727e-01 5.911961793899536133e-01 -9.453971982002258301e-01
1.880000000000000000e+02 5.124065399169921875e+01 -2.330949592590332031e+01 3.381109952926635742e+00 4.937192201614379883e-01 1.162448763847351074e+00 1.611340880393981934e+00
1.890000000000000000e+02 5.104218673706054688e+01 -2.339259147644042969e+01 3.797026872634887695e+00 9.371443986892700195e-01 1.420251369476318359e+00 1.741626858711242676e+00
1.900000000000000000e+02 5.063675689697265625e+01 -2.287821960449218750e+01 1.650118112564086914e+00 2.664978504180908203e+00 1.294528961181640625e+00 1.940054893493652344e+00
1.910000000000000000e+02 5.287448120117187500e+01 -2.527453613281250000e+01 1.011415600776672363e+00 -5.046092346310615540e-02 2.882864177227020264e-01 -3.080522716045379639e-01
1.920000000000000000e+02 5.275242614746093750e+01 -2.544510078430175781e+01 9.227721095085144043e-01 4.091000929474830627e-02 2.891046404838562012e-01 -3.546293675899505615e-01
1.930000000000000000e+02 5.207265853881835938e+01 -2.569018173217773438e+01 6.488460302352905273e-01 3.333682417869567871e-01 2.946642935276031494e-01 -4.887734949588775635e-01
1.940000000000000000e+02 5.222311019897460938e+01 -2.582316780090332031e+01 5.904734134674072266e-01 3.086799979209899902e-01 2.697460055351257324e-01 -4.123919606208801270e-01
1.950000000000000000e+02 5.250017547607421875e+01 -2.578278923034667969e+01 6.827813982963562012e-01 1.660340279340744019e-01 2.546446323394775391e-01 -3.798702955245971680e-01
1.960000000000000000e+02 4.926337814331054688e+01 -2.529999351501464844e+01 1.293643116950988770e+00 3.538554430007934570e+00 1.449659228324890137e+00 1.103208303451538086e+00
1.970000000000000000e+02 4.986431884765625000e+01 -2.552249145507812500e+01 4.430790245532989502e-01 3.554725408554077148e+00 1.199341297149658203e+00 -2.798508405685424805e-01
1.980000000000000000e+02 5.125453186035156250e+01 -2.662022018432617188e+01 4.904933273792266846e-01 1.052099585533142090e+00 4.627778828144073486e-01 -6.782349348068237305e-01
1.990000000000000000e+02 5.120201873779296875e+01 -2.693525505065917969e+01 3.885496854782104492e-01 1.088428854942321777e+00 4.430935680866241455e-01 -6.161138415336608887e-01
2.000000000000000000e+02 5.031431961059570312e+01 -2.618206787109375000e+01 3.810506165027618408e-01 2.066849946975708008e+00 7.343701720237731934e-01 -6.828851103782653809e-01
2.010000000000000000e+02 5.068594741821289062e+01 -2.616932106018066406e+01 5.080210566520690918e-01 1.595057606697082520e+00 6.309235692024230957e-01 -8.054852485656738281e-01
2.020000000000000000e+02 4.986564254760742188e+01 -2.579494667053222656e+01 3.636810779571533203e-01 3.024246931076049805e+00 1.016378402709960938e+00 -3.396209180355072021e-01
2.030000000000000000e+02 4.941734695434570312e+01 -2.542338562011718750e+01 8.891347646713256836e-01 3.615626811981201172e+00 1.351428508758544922e+00 7.010242938995361328e-01
2.040000000000000000e+02 5.048387527465820312e+01 -2.520624732971191406e+01 8.786005377769470215e-01 2.018401145935058594e+00 8.691005110740661621e-01 -1.251735687255859375e+00
2.050000000000000000e+02 5.053093719482421875e+01 -2.591147422790527344e+01 5.461614727973937988e-01 1.815856337547302246e+00 7.086053490638732910e-01 -8.413466215133666992e-01
2.060000000000000000e+02 5.155192184448242188e+01 -2.598086547851562500e+01 6.873071193695068359e-01 6.580761671066284180e-01 4.036149680614471436e-01 -6.679920554161071777e-01
2.070000000000000000e+02 5.114171981811523438e+01 -2.377265930175781250e+01 4.552101135253906250e+00 1.380632519721984863e-01 1.407049417495727539e+00 7.098338603973388672e-01
2.080000000000000000e+02 4.951745986938476562e+01 -2.322202301025390625e+01 2.788791179656982422e+00 3.879191398620605469e+00 2.000394821166992188e+00 -9.609695672988891602e-01
2.090000000000000000e+02 5.131571960449218750e+01 -2.470109558105468750e+01 1.907140970230102539e+00 4.826631247997283936e-01 7.169412374496459961e-01 -9.874516725540161133e-01
2.100000000000000000e+02 5.100421524047851562e+01 -2.479014396667480469e+01 1.423077940940856934e+00 7.719042897224426270e-01 6.584946513175964355e-01 -1.056340456008911133e+00
2.110000000000000000e+02 5.188967514038085938e+01 -2.495399093627929688e+01 1.465586304664611816e+00 2.372760474681854248e-01 5.108587145805358887e-01 -6.695848703384399414e-01
2.120000000000000000e+02 5.070769500732421875e+01 -2.328445816040039062e+01 3.554549455642700195e+00 2.450834274291992188e+00 1.801615118980407715e+00 2.312288761138916016e+00
2.130000000000000000e+02 4.994089126586914062e+01 -2.307700347900390625e+01 1.774922132492065430e+00 4.443578243255615234e+00 1.865550160408020020e+00 3.244854807853698730e-01
2.140000000000000000e+02 5.099391555786132812e+01 -2.511950302124023438e+01 7.745912671089172363e-01 6.466538906097412109e-01 4.263735413551330566e-01 -7.030268907546997070e-01
2.150000000000000000e+02 4.920706558227539062e+01 -2.505356979370117188e+01 1.985249161720275879e+00 3.574107646942138672e+00 1.667807102203369141e+00 1.485300183296203613e+00
2.160000000000000000e+02 4.947822570800781250e+01 -2.503889274597167969e+01 1.458089709281921387e+00 4.488626480102539062e+00 1.784014940261840820e+00 1.225124239921569824e+00
2.170000000000000000e+02 4.902278518676757812e+01 -2.391073417663574219e+01 5.166289806365966797e+00 1.870990037918090820e+00 2.111183881759643555e+00 -1.589355766773223877e-01
2.180000000000000000e+02 4.871601104736328125e+01 -2.401918983459472656e+01 4.442875385284423828e+00 1.180732250213623047e+00 1.687082171440124512e+00 4.702633991837501526e-02
2.190000000000000000e+02 4.887617111206054688e+01 -2.344410133361816406e+01 3.405055522918701172e+00 1.410314440727233887e+00 1.444610953330993652e+00 -1.116319298744201660e+00
2.200000000000000000e+02 5.027341461181640625e+01 -2.525246620178222656e+01 7.040113210678100586e-01 2.895036458969116211e+00 1.079714417457580566e+00 -1.137966513633728027e+00
2.210000000000000000e+02 4.937826919555664062e+01 -2.516791725158691406e+01 1.382531046867370605e+00 3.993634700775146484e+00 1.612849712371826172e+00 1.173593044281005859e+00
2.220000000000000000e+02 4.902045822143554688e+01 -2.435646438598632812e+01 4.752234935760498047e+00 2.214511632919311523e+00 2.090023994445800781e+00 1.294395089149475098e+00
2.230000000000000000e+02 5.005551910400390625e+01 -2.526239013671875000e+01 5.498988628387451172e-01 3.688190937042236328e+00 1.271426916122436523e+00 -7.112524509429931641e-01
2.240000000000000000e+02 5.094202041625976562e+01 -2.306270599365234375e+01 2.410449981689453125e+00 1.659563422203063965e+00 1.221004009246826172e+00 1.998299360275268555e+00
2.250000000000000000e+02 5.079725646972656250e+01 -2.293716812133789062e+01 1.963129997253417969e+00 2.172986268997192383e+00 1.240834832191467285e+00 2.108965635299682617e+00
2.260000000000000000e+02 4.884228897094726562e+01 -2.468056106567382812e+01 3.468353986740112305e+00 2.190022230148315430e+00 1.697512865066528320e+00 1.487419128417968750e+00
2.270000000000000000e+02 4.893938446044921875e+01 -2.487001800537109375e+01 2.853431940078735352e+00 2.647687673568725586e+00 1.650335907936096191e+00 1.598932147026062012e+00
2.280000000000000000e+02 4.992024612426757812e+01 -2.290299415588378906e+01 1.159749031066894531e+00 3.897628307342529297e+00 1.517213225364685059e+00 3.306955993175506592e-01
2.290000000000000000e+02 4.972269821166992188e+01 -2.313275909423828125e+01 2.063244104385375977e+00 4.298091888427734375e+00 1.908400774002075195e+00 -4.592377543449401855e-01
2.300000000000000000e+02 4.921834182739257812e+01 -2.309631919860839844e+01 2.422476768493652344e+00 2.745553731918334961e+00 1.550409197807312012e+00 -1.274284601211547852e+00
2.310000000000000000e+02 4.878369140625000000e+01 -2.383259773254394531e+01 4.346831798553466797e+00 1.253674745559692383e+00 1.680151939392089844e+00 -3.742719888687133789e-01
2.320000000000000000e+02 4.868338775634765625e+01 -2.418293762207031250e+01 4.099743366241455078e+00 1.206380844116210938e+00 1.591837286949157715e+00 4.851166307926177979e-01
2.330000000000000000e+02 4.895568084716796875e+01 -2.329034614562988281e+01 2.939297199249267578e+00 1.778038978576660156e+00 1.415200829505920410e+00 -1.282728791236877441e+00
2.340000000000000000e+02 4.916326522827148438e+01 -2.475551414489746094e+01 3.158583641052246094e+00 3.341103792190551758e+00 1.949906229972839355e+00 1.844933390617370605e+00
2.350000000000000000e+02 5.005574035644531250e+01 -2.276954841613769531e+01 8.482298254966735840e-01 3.646904706954956055e+00 1.348540425300598145e+00 6.657578945159912109e-01
2.360000000000000000e+02 4.906482315063476562e+01 -2.317582321166992188e+01 2.699565410614013672e+00 2.173321247100830078e+00 1.461866021156311035e+00 -1.383038520812988281e+00
2.370000000000000000e+02 4.989285659790039062e+01 -2.275969505310058594e+01 6.431841850280761719e-01 3.261113643646240234e+00 1.171289324760437012e+00 7.388711720705032349e-02
2.380000000000000000e+02 5.055268096923828125e+01 -2.316776847839355469e+01 2.721460103988647461e+00 3.229630231857299805e+00 1.785327196121215820e+00 2.161356925964355469e+00
2.390000000000000000e+02 5.231745910644531250e+01 -2.428091430664062500e+01 1.989532470703125000e+00 -2.796732783317565918e-01 5.129577517509460449e-01 -7.715545594692230225e-02
2.400000000000000000e+02 5.220734405517578125e+01 -2.550510597229003906e+01 8.622938990592956543e-01 2.476637661457061768e-01 3.329873085021972656e-01 -4.822173416614532471e-01
2.410000000000000000e+02 5.162351226806640625e+01 -2.530562591552734375e+01 9.220262765884399414e-01 5.027121305465698242e-01 4.274215102195739746e-01 -6.592658758163452148e-01
2.420000000000000000e+02 5.235275650024414062e+01 -2.564723587036132812e+01 7.434892058372497559e-01 1.914029121398925781e-01 2.804676294326782227e-01 -4.373587071895599365e-01
2.430000000000000000e+02 5.132104492187500000e+01 -2.503896903991699219e+01 1.166777133941650391e+00 6.135075688362121582e-01 5.340853929519653320e-01 -8.448319435119628906e-01
2.440000000000000000e+02 5.114659881591796875e+01 -2.526251983642578125e+01 7.347301244735717773e-01 6.218064427375793457e-01 4.069609642028808594e-01 -6.900957822799682617e-01
2.450000000000000000e+02 5.147229766845703125e+01 -2.549432754516601562e+01 7.033295035362243652e-01 5.710797309875488281e-01 3.823227584362030029e-01 -6.247021555900573730e-01
2.460000000000000000e+02 5.247585678100585938e+01 -2.441946411132812500e+01 1.773238420486450195e+00 -2.735586762428283691e-01 4.499039351940155029e-01 -1.157667338848114014e-01
2.470000000000000000e+02 5.196345520019531250e+01 -2.401251602172851562e+01 2.612458467483520508e+00 -3.126682043075561523e-01 6.899371147155761719e-01 1.190304607152938843e-01
2.480000000000000000e+02 5.247466278076171875e+01 -2.479374885559082031e+01 1.476879239082336426e+00 -1.122289746999740601e-01 4.093950986862182617e-01 -3.299203813076019287e-01
2.490000000000000000e+02 5.109914016723632812e+01 -2.318319320678710938e+01 3.008710384368896484e+00 1.092721104621887207e+00 1.230429410934448242e+00 1.954608321189880371e+00
2.500000000000000000e+02 5.139083099365234375e+01 -2.345246124267578125e+01 3.291554689407348633e+00 1.106766387820243835e-01 1.020669341087341309e+00 1.276227116584777832e+00
2.510000000000000000e+02 5.180276870727539062e+01 -2.385297775268554688e+01 2.899888753890991211e+00 -2.977752685546875000e-01 7.806340456008911133e-01 3.106901645660400391e-01
2.520000000000000000e+02 5.156383895874023438e+01 -2.356578063964843750e+01 3.268485069274902344e+00 -1.030017286539077759e-01 9.496450424194335938e-01 9.614877700805664062e-01
2.530000000000000000e+02 5.169316864013671875e+01 -2.368837547302246094e+01 3.162923574447631836e+00 -2.456385046243667603e-01 8.751855492591857910e-01 6.007826328277587891e-01
2.540000000000000000e+02 5.214960098266601562e+01 -2.414561080932617188e+01 2.264623165130615234e+00 -3.004876375198364258e-01 5.892406702041625977e-01 -2.702774479985237122e-02
2.550000000000000000e+02 5.150970840454101562e+01 -2.394254684448242188e+01 3.478849887847900391e+00 -1.960646957159042358e-01 9.848355650901794434e-01 1.432158350944519043e-01
2.560000000000000000e+02 5.266889190673828125e+01 -2.487617111206054688e+01 1.326664328575134277e+00 -1.207728981971740723e-01 3.617674410343170166e-01 -2.595768868923187256e-01
2.570000000000000000e+02 5.279744720458984375e+01 -2.467086601257324219e+01 1.433198332786560059e+00 -2.415363788604736328e-01 3.574985861778259277e-01 -1.480642706155776978e-01
2.580000000000000000e+02 5.241200637817382812e+01 -2.503024673461914062e+01 1.300464034080505371e+00 3.124729963019490242e-03 3.910766541957855225e-01 -4.260112643241882324e-01
2.590000000000000000e+02 5.084843826293945312e+01 -2.336840820312500000e+01 3.998265266418457031e+00 1.652002096176147461e+00 1.695080280303955078e+00 2.176123142242431641e+00
2.600000000000000000e+02 5.206523895263671875e+01 -2.536445999145507812e+01 9.471317529678344727e-01 2.740438878536224365e-01 3.663526773452758789e-01 -5.620197653770446777e-01
2.610000000000000000e+02 5.299452590942382812e+01 -2.510023689270019531e+01 1.108683347702026367e+00 -1.232788339257240295e-01 2.956213355064392090e-01 -2.125766873359680176e-01
2.620000000000000000e+02 5.262684249877929688e+01 -2.561332702636718750e+01 7.983946204185485840e-01 1.063948050141334534e-01 2.714368402957916260e-01 -4.026413261890411377e-01
2.630000000000000000e+02 5.196724319458007812e+01 -2.651927185058593750e+01 5.935653448104858398e-01 5.824059844017028809e-01 3.527913987636566162e-01 -5.543842911720275879e-01
2.640000000000000000e+02 5.161301803588867188e+01 -2.702775955200195312e+01 4.216463565826416016e-01 8.736051321029663086e-01 3.885754346847534180e-01 -5.676051378250122070e-01
2.650000000000000000e+02 5.049185562133789062e+01 -2.612431144714355469e+01 4.606224000453948975e-01 1.870579361915588379e+00 6.993604898452758789e-01 -7.927883863449096680e-01
2.660000000000000000e+02 5.088501739501953125e+01 -2.621199417114257812e+01 5.379595160484313965e-01 1.336518049240112305e+00 5.623432397842407227e-01 -8.004368543624877930e-01
2.670000000000000000e+02 4.971623992919921875e+01 -2.567267227172851562e+01 4.339454472064971924e-01 3.378293037414550781e+00 1.143671512603759766e+00 -2.968437969684600830e-02
2.680000000000000000e+02 5.177427673339843750e+01 -2.543227195739746094e+01 8.096382617950439453e-01 4.249094724655151367e-01 3.703643083572387695e-01 -6.096820831298828125e-01
2.690000000000000000e+02 5.208886337280273438e+01 -2.634031867980957031e+01 6.362008452415466309e-01 5.132063031196594238e-01 3.448221683502197266e-01 -5.224837064743041992e-01
2.700000000000000000e+02 5.056654357910156250e+01 -2.568819236755371094e+01 6.491948366165161133e-01 1.821471095085144043e+00 7.411997318267822266e-01 -9.768657088279724121e-01
2.710000000000000000e+02 5.096246719360351562e+01 -2.550248908996582031e+01 8.129430413246154785e-01 1.031634569168090820e+00 5.533732771873474121e-01 -8.977900743484497070e-01
2.720000000000000000e+02 5.153167724609375000e+01 -2.663907814025878906e+01 5.266543626785278320e-01 8.758658170700073242e-01 4.207560420036315918e-01 -6.384061574935913086e-01
2.730000000000000000e+02 5.147888183593750000e+01 -2.484395599365234375e+01 1.627504825592041016e+00 4.238140285015106201e-01 6.153956651687622070e-01 -8.678988218307495117e-01
2.740000000000000000e+02 5.207064056396484375e+01 -2.502404785156250000e+01 1.352595210075378418e+00 1.325828433036804199e-01 4.455534219741821289e-01 -5.695400834083557129e-01
2.750000000000000000e+02 5.140239715576171875e+01 -2.567733955383300781e+01 6.944766640663146973e-01 6.760050058364868164e-01 4.111444950103759766e-01 -6.849722266197204590e-01
2.760000000000000000e+02 5.111212158203125000e+01 -2.619011306762695312e+01 6.173796653747558594e-01 1.107949137687683105e+00 5.175986289978027344e-01 -7.745761871337890625e-01
2.770000000000000000e+02 5.112068557739257812e+01 -2.589527511596679688e+01 6.994835138320922852e-01 9.959976673126220703e-01 5.086443424224853516e-01 -8.140316009521484375e-01
2.780000000000000000e+02 5.205802917480468750e+01 -2.603621864318847656e+01 6.716855168342590332e-01 5.114217400550842285e-01 3.549321889877319336e-01 -5.685747265815734863e-01
2.790000000000000000e+02 5.159514999389648438e+01 -2.633269500732421875e+01 6.410368084907531738e-01 7.205713391304016113e-01 4.084824323654174805e-01 -6.497163176536560059e-01
2.800000000000000000e+02 5.150703430175781250e+01 -2.419448280334472656e+01 3.142547130584716797e+00 -8.220525085926055908e-02 9.181025624275207520e-01 -3.796080946922302246e-01
2.810000000000000000e+02 5.190851974487304688e+01 -2.622837638854980469e+01 6.770314574241638184e-01 5.528053641319274902e-01 3.689510226249694824e-01 -5.743597149848937988e-01
2.820000000000000000e+02 5.079347991943359375e+01 -2.531366920471191406e+01 8.725065588951110840e-01 1.176636934280395508e+00 6.147430539131164551e-01 -9.957820773124694824e-01
2.830000000000000000e+02 5.166733169555664062e+01 -2.450655937194824219e+01 2.284575700759887695e+00 9.896079450845718384e-02 7.150609493255615234e-01 -6.593548655509948730e-01
2.840000000000000000e+02 5.053590011596679688e+01 -2.544755554199218750e+01 7.664042115211486816e-01 1.926140069961547852e+00 8.077632784843444824e-01 -1.104315996170043945e+00
2.850000000000000000e+02 5.261435317993164062e+01 -2.532470703125000000e+01 1.001422524452209473e+00 4.066660255193710327e-02 3.126267194747924805e-01 -4.003955125808715820e-01
2.860000000000000000e+02 5.187024688720703125e+01 -2.455644989013671875e+01 2.074703693389892578e+00 -2.451070398092269897e-02 6.150578856468200684e-01 -5.058553814888000488e-01
2.870000000000000000e+02 5.173989868164062500e+01 -2.686316490173339844e+01 4.608308672904968262e-01 7.762583494186401367e-01 3.711267709732055664e-01 -5.834856033325195312e-01
2.880000000000000000e+02 5.148065567016601562e+01 -2.690675354003906250e+01 4.180040061473846436e-01 9.393045902252197266e-01 4.071925878524780273e-01 -6.028424501419067383e-01
2.890000000000000000e+02 5.185572433471679688e+01 -2.669479560852050781e+01 5.303641557693481445e-01 6.925994753837585449e-01 3.668890893459320068e-01 -5.634167194366455078e-01
2.900000000000000000e+02 5.136206054687500000e+01 -2.677153396606445312e+01 4.470527470111846924e-01 9.920639395713806152e-01 4.317350089550018311e-01 -6.446765065193176270e-01
2.910000000000000000e+02 5.106635665893554688e+01 -2.679540252685546875e+01 3.876965939998626709e-01 1.168949246406555176e+00 4.669937491416931152e-01 -6.485942006111145020e-01
2.920000000000000000e+02 5.145331192016601562e+01 -2.649258232116699219e+01 5.504244565963745117e-01 8.897610902786254883e-01 4.320556521415710449e-01 -6.686016321182250977e-01
2.930000000000000000e+02 5.059602355957031250e+01 -2.640094184875488281e+01 4.025489985942840576e-01 1.672174811363220215e+00 6.224171519279479980e-01 -7.327588796615600586e-01
2.940000000000000000e+02 5.043861770629882812e+01 -2.630519294738769531e+01 3.941270112991333008e-01 1.813178896903991699e+00 6.621918082237243652e-01 -6.918970942497253418e-01
2.950000000000000000e+02 5.178087997436523438e+01 -2.642745590209960938e+01 6.061748266220092773e-01 6.753171682357788086e-01 3.844476044178009033e-01 -5.896658897399902344e-01
2.960000000000000000e+02 5.170055007934570312e+01 -2.661468696594238281e+01 5.554489493370056152e-01 7.331994175910949707e-01 3.865945041179656982e-01 -6.075950264930725098e-01
2.970000000000000000e+02 5.283756637573242188e+01 -2.498243522644042969e+01 1.217614173889160156e+00 -1.428135931491851807e-01 3.224401772022247314e-01 -2.430742084980010986e-01
2.980000000000000000e+02 5.295948791503906250e+01 -2.479598617553710938e+01 1.273646593093872070e+00 -2.037942260503768921e-01 3.209557235240936279e-01 -1.249575763940811157e-01
2.990000000000000000e+02 5.002372741699218750e+01 -2.591222572326660156e+01 3.446981608867645264e-01 2.650963783264160156e+00 8.986985683441162109e-01 -5.063007473945617676e-01
3.000000000000000000e+02 5.192328262329101562e+01 -2.555926513671875000e+01 7.416497468948364258e-01 4.053440392017364502e-01 3.440981209278106689e-01 -5.267574191093444824e-01
3.010000000000000000e+02 4.972531509399414062e+01 -2.539462852478027344e+01 5.859424471855163574e-01 3.891771793365478516e+00 1.343314290046691895e+00 6.837607175111770630e-02
3.020000000000000000e+02 5.176689529418945312e+01 -2.512867164611816406e+01 1.170189619064331055e+00 3.544432818889617920e-01 4.573898613452911377e-01 -6.704186201095581055e-01
3.030000000000000000e+02 5.161580657958984375e+01 -2.500200271606445312e+01 1.330487489700317383e+00 4.109320044517517090e-01 5.224258899688720703e-01 -7.473553419113159180e-01
3.040000000000000000e+02 5.143195343017578125e+01 -2.445857620239257812e+01 2.566655874252319336e+00 1.726187318563461304e-01 8.217823505401611328e-01 -8.191636204719543457e-01
3.050000000000000000e+02 5.263408279418945312e+01 -2.454882621765136719e+01 1.628301978111267090e+00 -2.533891499042510986e-01 4.124738574028015137e-01 -1.332516372203826904e-01
3.060000000000000000e+02 5.230373001098632812e+01 -2.466261100769042969e+01 1.681566715240478516e+00 -1.123259961605072021e-01 4.707722365856170654e-01 -3.427968323230743408e-01
3.070000000000000000e+02 5.215737533569335938e+01 -2.449147987365722656e+01 1.955762505531311035e+00 -1.577887237071990967e-01 5.393921136856079102e-01 -3.208698034286499023e-01
3.080000000000000000e+02 5.177161407470703125e+01 -2.425424575805664062e+01 2.678802013397216797e+00 -1.747708916664123535e-01 7.512093186378479004e-01 -3.104284107685089111e-01
3.090000000000000000e+02 5.148939514160156250e+01 -2.372857475280761719e+01 3.561516284942626953e+00 -1.743173301219940186e-01 1.016159653663635254e+00 6.547536849975585938e-01
3.100000000000000000e+02 5.067753219604492188e+01 -2.304690551757812500e+01 2.268315553665161133e+00 2.678227663040161133e+00 1.483963012695312500e+00 2.109208345413208008e+00
3.110000000000000000e+02 5.044404220581054688e+01 -2.284588432312011719e+01 1.462710857391357422e+00 3.165803432464599609e+00 1.388554334640502930e+00 1.675303459167480469e+00
3.120000000000000000e+02 5.023628234863281250e+01 -2.280850410461425781e+01 9.325700998306274414e-01 3.345514535903930664e+00 1.283425331115722656e+00 1.092275500297546387e+00
3.130000000000000000e+02 4.972169113159179688e+01 -2.279472923278808594e+01 6.903842091560363770e-01 3.293715715408325195e+00 1.195230007171630859e+00 -1.659420430660247803e-01
3.140000000000000000e+02 4.957010650634765625e+01 -2.287373161315917969e+01 1.336365699768066406e+00 3.453993797302246094e+00 1.437107801437377930e+00 -6.901748180389404297e-01
3.150000000000000000e+02 4.940433883666992188e+01 -2.299727249145507812e+01 1.729780554771423340e+00 3.020476818084716797e+00 1.425077199935913086e+00 -1.076866745948791504e+00
3.160000000000000000e+02 4.921541976928710938e+01 -2.330853080749511719e+01 3.145392179489135742e+00 2.821207761764526367e+00 1.789979934692382812e+00 -1.340318202972412109e+00
3.170000000000000000e+02 4.882658767700195312e+01 -2.362467384338378906e+01 4.087749481201171875e+00 1.363047003746032715e+00 1.635238885879516602e+00 -8.856315016746520996e-01
3.180000000000000000e+02 4.883060455322265625e+01 -2.415697860717773438e+01 4.659305095672607422e+00 1.492739439010620117e+00 1.845613479614257812e+00 4.958400130271911621e-01
3.190000000000000000e+02 4.884424591064453125e+01 -2.435999679565429688e+01 4.338789463043212891e+00 1.770108580589294434e+00 1.832669377326965332e+00 1.044319987297058105e+00
3.200000000000000000e+02 4.911860656738281250e+01 -2.518058013916015625e+01 1.673721671104431152e+00 3.180049657821655273e+00 1.456131339073181152e+00 1.305963635444641113e+00
3.210000000000000000e+02 4.930624771118164062e+01 -2.491387748718261719e+01 2.322263002395629883e+00 3.930915117263793945e+00 1.875953435897827148e+00 1.697615861892700195e+00
3.220000000000000000e+02 4.954880523681640625e+01 -2.528287887573242188e+01 8.787551522254943848e-01 4.120223522186279297e+00 1.499693632125854492e+00 6.253835558891296387e-01
3.230000000000000000e+02 4.965340042114257812e+01 -2.514253234863281250e+01 9.223249554634094238e-01 4.555137157440185547e+00 1.643238544464111328e+00 6.040411591529846191e-01
3.240000000000000000e+02 5.118206405639648438e+01 -2.562035560607910156e+01 7.653487324714660645e-01 8.492881059646606445e-01 4.843910336494445801e-01 -7.757085561752319336e-01
3.250000000000000000e+02 5.027074432373046875e+01 -2.547580337524414062e+01 5.829976797103881836e-01 2.679548740386962891e+00 9.787638783454895020e-01 -9.576041698455810547e-01
3.260000000000000000e+02 5.128170013427734375e+01 -2.364228820800781250e+01 3.951746225357055664e+00 1.127215027809143066e-01 1.219340324401855469e+00 9.569357037544250488e-01
3.270000000000000000e+02 4.923551940917968750e+01 -2.355261993408203125e+01 4.422900199890136719e+00 2.815759420394897461e+00 2.171597957611083984e+00 -1.161371707916259766e+00
3.280000000000000000e+02 4.906946945190429688e+01 -2.331051063537597656e+01 3.097321271896362305e+00 2.172078132629394531e+00 1.580819845199584961e+00 -1.289298176765441895e+00
3.290000000000000000e+02 5.248541259765625000e+01 -2.548148345947265625e+01 8.993338942527770996e-01 1.262700259685516357e-01 3.076811730861663818e-01 -4.195292890071868896e-01
3.300000000000000000e+02 5.222732162475585938e+01 -2.515272331237792969e+01 1.215602040290832520e+00 1.235647052526473999e-01 4.017500281333923340e-01 -4.947489500045776367e-01
3.310000000000000000e+02 5.192002105712890625e+01 -2.524158477783203125e+01 1.052655935287475586e+00 3.348396420478820801e-01 4.162486791610717773e-01 -5.989800095558166504e-01
3.320000000000000000e+02 5.212246704101562500e+01 -2.480355262756347656e+01 1.594313859939575195e+00 1.313668582588434219e-02 4.822351634502410889e-01 -4.865348339080810547e-01
3.330000000000000000e+02 5.165137100219726562e+01 -2.472134399414062500e+01 1.872128009796142578e+00 2.454447299242019653e-01 6.352717876434326172e-01 -7.690756916999816895e-01
3.340000000000000000e+02 5.115535354614257812e+01 -2.643938827514648438e+01 5.338420271873474121e-01 1.100573897361755371e+00 4.903247952461242676e-01 -7.331794500350952148e-01
3.350000000000000000e+02 5.139284896850585938e+01 -2.632598876953125000e+01 6.302093267440795898e-01 8.869580030441284180e-01 4.551501870155334473e-01 -7.013329267501831055e-01
3.360000000000000000e+02 5.174282836914062500e+01 -2.486214065551757812e+01 1.560410976409912109e+00 2.834141850471496582e-01 5.531475543975830078e-01 -7.557303905487060547e-01
3.370000000000000000e+02 4.999758529663085938e+01 -2.563092231750488281e+01 4.253430068492889404e-01 3.075541019439697266e+00 1.050265192985534668e+00 -5.460240840911865234e-01
3.380000000000000000e+02 5.035700988769531250e+01 -2.582601547241210938e+01 4.963279962539672852e-01 2.230640172958374023e+00 8.180904388427734375e-01 -8.781942129135131836e-01
3.390000000000000000e+02 5.072663879394531250e+01 -2.593919563293457031e+01 5.830470323562622070e-01 1.614122748374938965e+00 6.591508984565734863e-01 -8.727814555168151855e-01
3.400000000000000000e+02 5.135648727416992188e+01 -2.612224769592285156e+01 6.537594199180603027e-01 8.519184589385986328e-01 4.517033696174621582e-01 -7.247547507286071777e-01
3.410000000000000000e+02 5.136067199707031250e+01 -2.589960289001464844e+01 7.150045633316040039e-01 7.810041308403015137e-01 4.488026201725006104e-01 -7.188308835029602051e-01
3.420000000000000000e+02 4.901874160766601562e+01 -2.345722389221191406e+01 3.624821662902832031e+00 2.011258363723754883e+00 1.690824031829833984e+00 -1.179348349571228027e+00
3.430000000000000000e+02 5.090763854980468750e+01 -2.592621803283691406e+01 6.901369690895080566e-01 1.246137499809265137e+00 5.808823704719543457e-01 -8.921311497688293457e-01
3.440000000000000000e+02 5.248773956298828125e+01 -2.520022010803222656e+01 1.127393841743469238e+00 5.624092370271682739e-02 3.550904095172882080e-01 -4.338297247886657715e-01
3.450000000000000000e+02 5.235006332397460938e+01 -2.533320808410644531e+01 9.909532666206359863e-01 1.240942180156707764e-01 3.345142602920532227e-01 -4.605716764926910400e-01
3.460000000000000000e+02 5.198180007934570312e+01 -2.436160850524902344e+01 2.229770660400390625e+00 -1.699931770563125610e-01 6.179332137107849121e-01 -2.911688387393951416e-01
3.470000000000000000e+02 5.202863693237304688e+01 -2.464820289611816406e+01 1.875642299652099609e+00 -5.077346786856651306e-02 5.474606156349182129e-01 -4.424020648002624512e-01
3.480000000000000000e+02 5.172046661376953125e+01 -2.611731338500976562e+01 6.729258298873901367e-01 6.271830201148986816e-01 3.900326490402221680e-01 -6.157998442649841309e-01
3.490000000000000000e+02 5.195798492431640625e+01 -2.478758049011230469e+01 1.684974312782287598e+00 8.831396698951721191e-02 5.319864749908447266e-01 -5.983439087867736816e-01
3.500000000000000000e+02 5.181335067749023438e+01 -2.472565841674804688e+01 1.861580252647399902e+00 1.410974115133285522e-01 6.008033156394958496e-01 -6.680977940559387207e-01
3.510000000000000000e+02 5.258226394653320312e+01 -2.506326484680175781e+01 1.251358747482299805e+00 -6.182449683547019958e-02 3.568602800369262695e-01 -3.534936308860778809e-01
3.520000000000000000e+02 5.272892379760742188e+01 -2.516143608093261719e+01 1.136122941970825195e+00 -4.643762484192848206e-02 3.269056081771850586e-01 -3.245296180248260498e-01
3.530000000000000000e+02 5.080369186401367188e+01 -2.572979545593261719e+01 7.291386723518371582e-01 1.407941341400146484e+00 6.411240100860595703e-01 -9.609034657478332520e-01
3.540000000000000000e+02 5.233827972412109375e+01 -2.634743690490722656e+01 6.874576210975646973e-01 4.017911553382873535e-01 3.267746269702911377e-01 -5.350719094276428223e-01
3.550000000000000000e+02 5.287733840942382812e+01 -2.724589729309082031e+01 3.949670195579528809e-01 3.860961496829986572e-01 2.343189418315887451e-01 -4.150889813899993896e-01
3.560000000000000000e+02 5.364107131958007812e+01 -2.779581260681152344e+01 2.749814391136169434e-01 2.596065998077392578e-01 1.603764146566390991e-01 -3.061978816986083984e-01
3.570000000000000000e+02 5.250367736816406250e+01 -2.772992897033691406e+01 2.907300591468811035e-01 5.639079809188842773e-01 2.563914060592651367e-01 -4.599951207637786865e-01
3.580000000000000000e+02 5.319772720336914062e+01 -2.692038536071777344e+01 4.230327308177947998e-01 2.141129821538925171e-01 1.911437064409255981e-01 -3.297532200813293457e-01
3.590000000000000000e+02 5.203222656250000000e+01 -2.696774482727050781e+01 4.618215560913085938e-01 6.612346768379211426e-01 3.369168639183044434e-01 -5.401219725608825684e-01
3.600000000000000000e+02 5.247869491577148438e+01 -2.702471733093261719e+01 4.287504553794860840e-01 4.799419939517974854e-01 2.726077437400817871e-01 -4.666858315467834473e-01
3.610000000000000000e+02 5.187433242797851562e+01 -2.742936325073242188e+01 3.149665594100952148e-01 7.904981970787048340e-01 3.316394388675689697e-01 -5.274997353553771973e-01
3.620000000000000000e+02 5.401869964599609375e+01 -2.857264518737792969e+01 1.726260781288146973e-01 3.205767869949340820e-01 1.479608565568923950e-01 -3.076201081275939941e-01
3.630000000000000000e+02 5.383668136596679688e+01 -2.732943534851074219e+01 3.184799253940582275e-01 2.001062035560607910e-01 1.555758416652679443e-01 -2.355773448944091797e-01
3.640000000000000000e+02 5.245444107055664062e+01 -2.733562469482421875e+01 3.701695203781127930e-01 5.488484501838684082e-01 2.757053971290588379e-01 -4.675523936748504639e-01
3.650000000000000000e+02 5.449804306030273438e+01 -2.770803642272949219e+01 2.101254314184188843e-01 1.173301413655281067e-01 9.823667258024215698e-02 -1.765832602977752686e-01
3.660000000000000000e+02 5.426416778564453125e+01 -2.814543724060058594e+01 1.651402413845062256e-01 2.493166029453277588e-01 1.243370547890663147e-01 -2.415883392095565796e-01
3.670000000000000000e+02 5.222254562377929688e+01 -2.644286155700683594e+01 6.451969742774963379e-01 5.037586092948913574e-01 3.446866571903228760e-01 -5.442475676536560059e-01
3.680000000000000000e+02 5.195026016235351562e+01 -2.719343376159667969e+01 3.754211068153381348e-01 7.228154540061950684e-01 3.294709622859954834e-01 -5.415515899658203125e-01
3.690000000000000000e+02 5.209835433959960938e+01 -2.675689125061035156e+01 5.100141763687133789e-01 5.902693867683410645e-01 3.300850689411163330e-01 -5.414251089096069336e-01
3.700000000000000000e+02 5.244026184082031250e+01 -2.672659492492675781e+01 5.229935646057128906e-01 4.525740742683410645e-01 2.926702797412872314e-01 -4.550932943820953369e-01
3.710000000000000000e+02 5.264988327026367188e+01 -2.650668716430664062e+01 6.156023144721984863e-01 3.408691287040710449e-01 2.869414389133453369e-01 -4.316807389259338379e-01
3.720000000000000000e+02 5.339321517944335938e+01 -2.820342254638671875e+01 1.991636902093887329e-01 4.074827134609222412e-01 1.819939166307449341e-01 -3.646720945835113525e-01
3.730000000000000000e+02 5.214574813842773438e+01 -2.658111763000488281e+01 5.598074197769165039e-01 5.311072468757629395e-01 3.272743821144104004e-01 -4.951774477958679199e-01
3.740000000000000000e+02 5.307675170898437500e+01 -2.774685668945312500e+01 3.018191754817962646e-01 4.298591911792755127e-01 2.195035070180892944e-01 -3.824037909507751465e-01
3.750000000000000000e+02 5.230584716796875000e+01 -2.653117942810058594e+01 6.166999340057373047e-01 4.261026680469512939e-01 3.128407895565032959e-01 -5.054539442062377930e-01
3.760000000000000000e+02 5.583503723144531250e+01 -2.936571502685546875e+01 -4.204949364066123962e-03 2.589336037635803223e-01 7.641860097646713257e-02 -9.585946053266525269e-02
3.770000000000000000e+02 5.485994338989257812e+01 -2.845573043823242188e+01 1.332822144031524658e-01 1.778491288423538208e-01 9.333939850330352783e-02 -2.048594951629638672e-01
3.780000000000000000e+02 5.633424758911132812e+01 -2.939586639404296875e+01 -1.755539327859878540e-02 1.639802940189838409e-02 -3.472090756986290216e-04 2.720492193475365639e-03
3.790000000000000000e+02 5.465463638305664062e+01 -2.890335464477539062e+01 1.079743877053260803e-01 2.771947979927062988e-01 1.155507490038871765e-01 -2.404939234256744385e-01
3.800000000000000000e+02 5.526058959960937500e+01 -2.914388656616210938e+01 4.533016309142112732e-02 2.264584898948669434e-01 8.153659850358963013e-02 -1.863609254360198975e-01
3.810000000000000000e+02 5.543891143798828125e+01 -2.854538345336914062e+01 6.661678850650787354e-02 1.434879153966903687e-01 6.303141266107559204e-02 -9.266392886638641357e-02
3.820000000000000000e+02 5.608547973632812500e+01 -2.866407585144042969e+01 2.126673236489295959e-02 1.665040105581283569e-02 1.137513946741819382e-02 -1.228818483650684357e-02
3.830000000000000000e+02 5.516568756103515625e+01 -2.807237625122070312e+01 7.420980930328369141e-02 8.705282956361770630e-02 4.837879166007041931e-02 -8.976509422063827515e-02
3.840000000000000000e+02 5.710048675537109375e+01 -2.769168281555175781e+01 1.488272845745086670e-02 2.175664156675338745e-02 1.099181082099676132e-02 1.443500909954309464e-02
3.850000000000000000e+02 5.669181442260742188e+01 -2.729174995422363281e+01 1.401561945676803589e-01 6.168248597532510757e-03 4.389733448624610901e-02 4.748461768031120300e-02
3.860000000000000000e+02 5.590773773193359375e+01 -2.688815689086914062e+01 2.424701005220413208e-01 -5.443785712122917175e-02 5.640967190265655518e-02 2.599678561091423035e-02
3.870000000000000000e+02 5.555743408203125000e+01 -2.754048156738281250e+01 1.203861981630325317e-01 -4.194529261440038681e-03 3.485750034451484680e-02 -1.111693121492862701e-02
3.880000000000000000e+02 5.635045623779296875e+01 -2.794849014282226562e+01 3.243942558765411377e-02 -9.897833690047264099e-03 6.762477569282054901e-03 7.585824467241764069e-03
3.890000000000000000e+02 5.906019210815429688e+01 -2.371683120727539062e+01 -2.055596262216567993e-01 2.760090231895446777e-01 2.113481797277927399e-02 2.228432893753051758e-01
3.900000000000000000e+02 5.983221435546875000e+01 -2.441628456115722656e+01 4.716246575117111206e-02 1.654701679944992065e-01 6.378979235887527466e-02 1.228072345256805420e-01
3.910000000000000000e+02 6.088213729858398438e+01 -2.361805725097656250e+01 -4.487418532371520996e-01 6.593915075063705444e-02 -1.148408055305480957e-01 -2.513562794774770737e-03
3.920000000000000000e+02 6.280551910400390625e+01 -2.286305236816406250e+01 -7.798668742179870605e-01 3.681859746575355530e-02 -2.229144871234893799e-01 -1.013588830828666687e-01
3.930000000000000000e+02 6.265785980224609375e+01 -2.055807304382324219e+01 -4.230262041091918945e-01 3.725389242172241211e-01 -1.514618471264839172e-02 1.111740991473197937e-01
3.940000000000000000e+02 6.244462966918945312e+01 -1.862715530395507812e+01 9.357658028602600098e-02 5.723081827163696289e-01 1.997654289007186890e-01 2.728846073150634766e-01
3.950000000000000000e+02 6.256020736694335938e+01 -1.686011505126953125e+01 5.383601784706115723e-01 6.255965828895568848e-01 3.491870462894439697e-01 4.569572210311889648e-01
3.960000000000000000e+02 6.405451202392578125e+01 -1.603279685974121094e+01 3.826098740100860596e-01 5.048725008964538574e-01 2.662447094917297363e-01 4.572683274745941162e-01
3.970000000000000000e+02 6.537603759765625000e+01 -1.369482898712158203e+01 3.497095704078674316e-01 6.833198070526123047e-01 3.099088072776794434e-01 4.321826994419097900e-01
3.980000000000000000e+02 6.515116882324218750e+01 -1.274854755401611328e+01 3.558156192302703857e-01 8.537629842758178711e-01 3.628735840320587158e-01 5.028304457664489746e-01
3.990000000000000000e+02 6.459308624267578125e+01 -1.332764148712158203e+01 3.746551275253295898e-01 8.606483340263366699e-01 3.705910444259643555e-01 5.750713944435119629e-01
4.000000000000000000e+02 6.411013031005859375e+01 -2.259797859191894531e+01 -7.714438438415527344e-01 3.501479048281908035e-03 -2.303827106952667236e-01 -2.250940650701522827e-01
4.010000000000000000e+02 6.503552246093750000e+01 -2.077193260192871094e+01 -7.629512548446655273e-01 7.455375790596008301e-02 -2.065192461013793945e-01 -6.441415846347808838e-02
4.020000000000000000e+02 6.539285278320312500e+01 -1.760926246643066406e+01 6.132935732603073120e-02 2.229056060314178467e-01 8.527049422264099121e-02 1.520177125930786133e-01
4.030000000000000000e+02 6.536715698242187500e+01 -1.657840347290039062e+01 2.066426575183868408e-01 3.615220189094543457e-01 1.704494059085845947e-01 2.326139509677886963e-01
4.040000000000000000e+02 6.450180816650390625e+01 -1.532475090026855469e+01 3.541687726974487305e-01 5.585669279098510742e-01 2.738206982612609863e-01 4.566856920719146729e-01
4.050000000000000000e+02 6.462746429443359375e+01 -1.172676563262939453e+01 6.061655879020690918e-01 1.049257159233093262e+00 4.966268241405487061e-01 7.278933525085449219e-01
4.060000000000000000e+02 6.582775878906250000e+01 -1.008644104003906250e+01 4.230921864509582520e-01 1.206677675247192383e+00 4.889309704303741455e-01 6.679496169090270996e-01
4.070000000000000000e+02 6.637289428710937500e+01 -8.955257415771484375e+00 3.549507856369018555e-01 1.332591176033020020e+00 5.062626004219055176e-01 6.633749604225158691e-01
4.080000000000000000e+02 6.805823516845703125e+01 -8.422499656677246094e+00 2.530246376991271973e-01 1.246705889701843262e+00 4.499191641807556152e-01 4.405020475387573242e-01
4.090000000000000000e+02 7.123791503906250000e+01 -8.970159530639648438e+00 9.119497984647750854e-02 6.724494099617004395e-01 2.290933132171630859e-01 -5.954980477690696716e-02
4.100000000000000000e+02 7.240408325195312500e+01 -9.690911293029785156e+00 4.883866384625434875e-02 3.705211281776428223e-01 1.258079409599304199e-01 -2.053553611040115356e-01
4.110000000000000000e+02 7.334169006347656250e+01 -8.936951637268066406e+00 4.016407951712608337e-02 2.544569373130798340e-01 8.838630467653274536e-02 -2.476366013288497925e-01
4.120000000000000000e+02 7.508188629150390625e+01 -8.910951614379882812e+00 2.360832504928112030e-02 -1.582490354776382446e-01 -4.039221256971359253e-02 -3.044281601905822754e-01
4.130000000000000000e+02 7.605440521240234375e+01 -8.114562034606933594e+00 2.545384876430034637e-02 -3.917845785617828369e-01 -1.098992228507995605e-01 -3.019852936267852783e-01
4.140000000000000000e+02 7.830039978027343750e+01 -7.495020389556884766e+00 4.416088107973337173e-03 -1.061228752136230469e+00 -3.170438110828399658e-01 -1.687768399715423584e-01
4.150000000000000000e+02 7.943900299072265625e+01 -7.047602653503417969e+00 -6.871598307043313980e-04 -1.462075591087341309e+00 -4.388288259506225586e-01 -3.862197324633598328e-02
4.160000000000000000e+02 7.786882019042968750e+01 -4.764479160308837891e+00 1.112911477684974670e-02 -1.176467061042785645e+00 -3.496013581752777100e-01 -1.948001682758331299e-01
4.170000000000000000e+02 7.620431518554687500e+01 -4.307542800903320312e+00 3.687163069844245911e-02 -4.742251038551330566e-01 -1.312060356140136719e-01 -2.503436803817749023e-01
4.180000000000000000e+02 7.552600097656250000e+01 -1.848944187164306641e+00 6.607708334922790527e-02 -2.220410406589508057e-01 -4.678918421268463135e-02 -2.168506383895874023e-01
4.190000000000000000e+02 7.319812774658203125e+01 7.064831256866455078e-01 2.037319093942642212e-01 1.097045660018920898e+00 3.902332782745361328e-01 -4.393715038895606995e-02
4.200000000000000000e+02 7.044316101074218750e+01 2.987023353576660156e+00 1.083744466304779053e-01 3.102856159210205078e+00 9.633691906929016113e-01 8.189342916011810303e-02
4.210000000000000000e+02 6.964401245117187500e+01 -1.201047301292419434e+00 1.525983810424804688e-01 2.622909545898437500e+00 8.326523900032043457e-01 5.830700993537902832e-01
4.220000000000000000e+02 7.291603851318359375e+01 -1.459965467453002930e+00 1.247233524918556213e-01 9.613677859306335449e-01 3.258273303508758545e-01 -1.008022204041481018e-01
4.230000000000000000e+02 7.407389068603515625e+01 -4.787377834320068359e+00 5.992015078663825989e-02 2.947544455528259277e-01 1.064023748040199280e-01 -2.260824143886566162e-01
4.240000000000000000e+02 7.689240264892578125e+01 -6.511404991149902344e+00 1.202426198869943619e-02 -7.247538566589355469e-01 -2.138188779354095459e-01 -2.655817270278930664e-01
4.250000000000000000e+02 7.565062713623046875e+01 -6.980251789093017578e+00 1.795094460248947144e-02 -2.727364301681518555e-01 -7.643564790487289429e-02 -2.993280589580535889e-01
4.260000000000000000e+02 7.532279205322265625e+01 -5.837954521179199219e+00 2.991815097630023956e-02 -1.548875272274017334e-01 -3.749081492424011230e-02 -2.737821936607360840e-01
4.270000000000000000e+02 7.470793914794921875e+01 -4.125964164733886719e+00 6.664242595434188843e-02 8.226835727691650391e-02 4.467323422431945801e-02 -2.509806454181671143e-01
4.280000000000000000e+02 7.448323822021484375e+01 -1.280743837356567383e+00 9.792699664831161499e-02 2.610167562961578369e-01 1.076831221580505371e-01 -1.937651336193084717e-01
4.290000000000000000e+02 7.030779266357421875e+01 1.526837825775146484e+00 1.777523010969161987e-01 3.177730321884155273e+00 1.006644845008850098e+00 2.920637130737304688e-01
4.300000000000000000e+02 6.996985626220703125e+01 1.480372399091720581e-01 1.670800447463989258e-01 2.984998464584350586e+00 9.456235766410827637e-01 5.338037610054016113e-01
4.310000000000000000e+02 6.446910095214843750e+01 -1.960039329528808594e+01 -3.188216686248779297e-01 1.745494753122329712e-01 -4.328165948390960693e-02 9.397628158330917358e-02
4.320000000000000000e+02 6.821578979492187500e+01 -2.128522491455078125e+01 -1.278058886528015137e+00 -1.810309439897537231e-01 -4.377269446849822998e-01 -2.751919068396091461e-02
4.330000000000000000e+02 7.125787353515625000e+01 -2.315779685974121094e+01 -1.418279409408569336e-01 -2.036877907812595367e-03 -4.315944388508796692e-02 3.862115740776062012e-02
4.340000000000000000e+02 7.192475891113281250e+01 -2.413080787658691406e+01 -1.654535531997680664e-02 1.279131509363651276e-02 -1.126212300732731819e-03 1.028476841747760773e-02
4.350000000000000000e+02 7.365045166015625000e+01 -2.550791358947753906e+01 -9.174336679279804230e-03 -8.179300464689731598e-03 -5.206091329455375671e-03 -5.133349914103746414e-03
4.360000000000000000e+02 7.435356903076171875e+01 -2.550589179992675781e+01 -1.045380719006061554e-02 -4.867199808359146118e-03 -4.596302285790443420e-03 -1.995019149035215378e-03
4.370000000000000000e+02 7.506258392333984375e+01 -2.549657821655273438e+01 -1.073627918958663940e-02 -6.000974681228399277e-03 -5.021176300942897797e-03 -1.100513109122402966e-04
4.380000000000000000e+02 7.578241729736328125e+01 -2.549316215515136719e+01 -9.303539060056209564e-03 -3.119519678875803947e-03 -3.726917551830410957e-03 2.931170864030718803e-03
4.390000000000000000e+02 7.643782806396484375e+01 -2.471472740173339844e+01 -2.313637360930442810e-02 -4.078306257724761963e-03 -8.164403960108757019e-03 -1.714364741928875446e-03
4.400000000000000000e+02 7.554090881347656250e+01 -2.249227714538574219e+01 -9.544115513563156128e-02 -3.605443751439452171e-03 -2.971397899091243744e-02 -4.950526729226112366e-02
4.410000000000000000e+02 7.559644317626953125e+01 -1.872084236145019531e+01 -1.197439283132553101e-01 -5.837995558977127075e-02 -5.343716591596603394e-02 -2.373641729354858398e-01
4.420000000000000000e+02 7.520276641845703125e+01 -1.708248710632324219e+01 -8.594547957181930542e-02 -8.960364758968353271e-02 -5.266473814845085144e-02 -3.005980849266052246e-01
4.430000000000000000e+02 7.496265411376953125e+01 -1.544004249572753906e+01 -4.565869271755218506e-02 -1.127604171633720398e-01 -4.752573370933532715e-02 -3.345386385917663574e-01
4.440000000000000000e+02 7.543778228759765625e+01 -1.301855278015136719e+01 3.205507760867476463e-03 -1.883119195699691772e-01 -5.553192645311355591e-02 -3.263585567474365234e-01
4.450000000000000000e+02 7.576744842529296875e+01 -1.154146671295166016e+01 8.783584460616111755e-03 -2.844529449939727783e-01 -8.270080387592315674e-02 -3.117881417274475098e-01
4.460000000000000000e+02 7.596702575683593750e+01 -9.838080406188964844e+00 8.078904822468757629e-03 -3.822361528873443604e-01 -1.122471764683723450e-01 -3.051815629005432129e-01
4.470000000000000000e+02 7.500610351562500000e+01 -1.060111045837402344e+01 1.515964325517416000e-02 -1.576725691556930542e-01 -4.275387525558471680e-02 -3.207787573337554932e-01
4.480000000000000000e+02 7.417207336425781250e+01 -9.752132415771484375e+00 2.682879753410816193e-02 3.782089799642562866e-02 1.939490810036659241e-02 -2.931469082832336426e-01
4.490000000000000000e+02 7.476640319824218750e+01 -1.218062114715576172e+01 7.646569516509771347e-03 -1.135150268673896790e-01 -3.176053613424301147e-02 -3.343604803085327148e-01
4.500000000000000000e+02 7.464400482177734375e+01 -1.377982902526855469e+01 -7.595048286020755768e-03 -9.156764298677444458e-02 -2.974880859255790710e-02 -3.422224223613739014e-01
4.510000000000000000e+02 7.419709014892578125e+01 -1.634461593627929688e+01 -7.523730397224426270e-02 -3.834449499845504761e-02 -3.407454118132591248e-02 -3.380053043365478516e-01
4.520000000000000000e+02 7.440204620361328125e+01 -1.803209877014160156e+01 -1.292484700679779053e-01 -2.600375376641750336e-02 -4.657566547393798828e-02 -2.949656248092651367e-01
4.530000000000000000e+02 7.406799316406250000e+01 -2.168378448486328125e+01 -1.762947291135787964e-01 2.475015446543693542e-02 -4.546337202191352844e-02 -8.622036874294281006e-02
4.540000000000000000e+02 7.306495666503906250e+01 -2.482599639892578125e+01 -2.513766475021839142e-02 -5.954198073595762253e-03 -9.327558800578117371e-03 -1.505889929831027985e-03
4.550000000000000000e+02 7.431970214843750000e+01 -2.477523994445800781e+01 -3.009185381233692169e-02 -1.177380234003067017e-02 -1.255969703197479248e-02 -1.539282267913222313e-03
4.560000000000000000e+02 7.570866394042968750e+01 -2.471038627624511719e+01 -3.164843469858169556e-02 -3.445112612098455429e-03 -1.052806340157985687e-02 -3.024683101102709770e-03
4.570000000000000000e+02 7.155900573730468750e+01 -2.515049362182617188e+01 7.240991108119487762e-04 2.402181364595890045e-02 7.423773407936096191e-03 -5.702645052224397659e-03
4.580000000000000000e+02 7.296753692626953125e+01 -2.547686958312988281e+01 -8.004654198884963989e-03 -3.959106281399726868e-03 -3.589128144085407257e-03 -6.449813488870859146e-03
4.590000000000000000e+02 7.651422882080078125e+01 -2.547769737243652344e+01 -8.641411550343036652e-03 -3.620493458583950996e-03 -3.678571665659546852e-03 2.515116007998585701e-03
4.600000000000000000e+02 7.725322723388671875e+01 -2.543771362304687500e+01 -4.363078158348798752e-03 -2.656643278896808624e-03 -2.105916384607553482e-03 5.408704280853271484e-03
4.610000000000000000e+02 7.767043304443359375e+01 -2.389136123657226562e+01 -2.180931530892848969e-02 -1.020057033747434616e-02 -9.602965787053108215e-03 -1.101434975862503052e-02
4.620000000000000000e+02 7.760915374755859375e+01 -2.277799987792968750e+01 -2.908267639577388763e-02 -1.950936391949653625e-02 -1.457761228084564209e-02 -2.901185676455497742e-02
4.630000000000000000e+02 7.789894104003906250e+01 -2.062565040588378906e+01 -2.941542491316795349e-02 -6.770639121532440186e-02 -2.913654595613479614e-02 -7.823456823825836182e-02
4.640000000000000000e+02 7.771851348876953125e+01 -1.933353614807128906e+01 -4.177147150039672852e-02 -1.183054968714714050e-01 -4.802308976650238037e-02 -1.230797171592712402e-01
4.650000000000000000e+02 7.702445983886718750e+01 -1.699903869628906250e+01 -3.279457986354827881e-02 -2.154394835233688354e-01 -7.447021454572677612e-02 -2.214546054601669312e-01
4.660000000000000000e+02 7.596717071533203125e+01 -1.620644950866699219e+01 -3.938498347997665405e-02 -1.835813224315643311e-01 -6.688988953828811646e-02 -2.979661226272583008e-01
4.670000000000000000e+02 7.769906616210937500e+01 -1.370213603973388672e+01 -4.865671042352914810e-03 -4.692261517047882080e-01 -1.422275453805923462e-01 -2.239237725734710693e-01
4.680000000000000000e+02 7.756018066406250000e+01 -1.225895118713378906e+01 -1.174343633465468884e-03 -5.488272905349731445e-01 -1.650004982948303223e-01 -2.370249927043914795e-01
4.690000000000000000e+02 7.685883331298828125e+01 -8.937611579895019531e+00 1.477587968111038208e-02 -5.910527706146240234e-01 -1.728830635547637939e-01 -2.727751135826110840e-01
4.700000000000000000e+02 7.871681213378906250e+01 -2.530880355834960938e+01 -6.571406265720725060e-04 4.002537578344345093e-03 1.003619050607085228e-03 6.527224555611610413e-03
4.710000000000000000e+02 7.936293792724609375e+01 -2.344705772399902344e+01 -6.339093670248985291e-03 1.047663763165473938e-02 1.241263118572533131e-03 -4.255477804690599442e-03
4.720000000000000000e+02 7.833657836914062500e+01 -2.353181076049804688e+01 -1.139385811984539032e-02 -5.573435686528682709e-03 -5.090188235044479370e-03 -5.362290423363447189e-03
4.730000000000000000e+02 7.928825378417968750e+01 -2.209423446655273438e+01 -3.095976077020168304e-03 -5.595017690211534500e-03 -2.607298083603382111e-03 -1.386051252484321594e-02
4.740000000000000000e+02 7.924264526367187500e+01 -1.935526084899902344e+01 -5.536909680813550949e-03 -1.173816844820976257e-01 -3.687557950615882874e-02 -4.570991918444633484e-02
4.750000000000000000e+02 7.915088653564453125e+01 -1.794616699218750000e+01 -1.582366228103637695e-02 -2.154199779033660889e-01 -6.937309354543685913e-02 -6.459623575210571289e-02
4.760000000000000000e+02 7.918028259277343750e+01 -1.652145195007324219e+01 -4.229859448969364166e-03 -3.292697370052337646e-01 -1.000498756766319275e-01 -8.197983354330062866e-02
4.770000000000000000e+02 7.925417327880859375e+01 -1.513723564147949219e+01 1.152067072689533234e-02 -4.867274463176727295e-01 -1.425620317459106445e-01 -7.801363617181777954e-02
4.780000000000000000e+02 7.913196563720703125e+01 -1.227107524871826172e+01 -4.040677449665963650e-04 -7.969943284988403320e-01 -2.392195165157318115e-01 -9.536491334438323975e-02
4.790000000000000000e+02 7.922760009765625000e+01 -1.078037643432617188e+01 1.435414794832468033e-02 -9.451904892921447754e-01 -2.792509198188781738e-01 -9.005266427993774414e-02
4.800000000000000000e+02 7.871401214599609375e+01 -8.794783592224121094e+00 1.043439377099275589e-02 -1.047425627708435059e+00 -3.110973536968231201e-01 -1.422571986913681030e-01
4.810000000000000000e+02 7.926407623291015625e+01 -4.287593364715576172e+00 3.105029230937361717e-03 -1.684856534004211426e+00 -5.045254230499267578e-01 -4.036503285169601440e-02
4.820000000000000000e+02 7.909551239013671875e+01 -2.877513885498046875e+00 -2.009408362209796906e-02 -1.798358082771301270e+00 -5.455356240272521973e-01 -6.189309805631637573e-02
4.830000000000000000e+02 7.666433715820312500e+01 -2.510559558868408203e+00 2.608327753841876984e-02 -7.414354085922241211e-01 -2.146056294441223145e-01 -2.197911441326141357e-01
4.840000000000000000e+02 7.446669006347656250e+01 1.552250981330871582e+00 1.655359268188476562e-01 3.713914752006530762e-01 1.610782295465469360e-01 -1.092102751135826111e-01
4.850000000000000000e+02 7.330724334716796875e+01 2.030261516571044922e+00 2.074812501668930054e-01 1.145105123519897461e+00 4.057759344577789307e-01 -1.548210158944129944e-02
4.860000000000000000e+02 7.040438842773437500e+01 4.452843189239501953e+00 1.588663458824157715e-02 3.020428419113159180e+00 9.108945131301879883e-01 -2.396961674094200134e-02
4.870000000000000000e+02 7.907706451416015625e+01 -1.394633293151855469e+00 -9.321882389485836029e-03 -1.914168477058410645e+00 -5.770471096038818359e-01 -8.106973022222518921e-02
4.880000000000000000e+02 7.644364929199218750e+01 3.658222854137420654e-01 6.871529668569564819e-02 -6.507618427276611328e-01 -1.746139675378799438e-01 -1.322602182626724243e-01
4.890000000000000000e+02 7.332337188720703125e+01 4.102715015411376953e+00 1.835230290889739990e-01 1.147858500480651855e+00 3.994144499301910400e-01 7.152859121561050415e-03
4.900000000000000000e+02 7.031486511230468750e+01 7.263080120086669922e+00 9.797754883766174316e-02 3.142212867736816406e+00 9.720571637153625488e-01 -2.139660716056823730e-01
4.910000000000000000e+02 7.039611816406250000e+01 5.859138011932373047e+00 4.733181372284889221e-02 3.130059480667114258e+00 9.532173871994018555e-01 -8.779598027467727661e-02
4.920000000000000000e+02 7.920757293701171875e+01 7.941687107086181641e-02 2.855315618216991425e-02 -2.055322170257568359e+00 -6.080306768417358398e-01 -6.495852768421173096e-02
4.930000000000000000e+02 7.651863098144531250e+01 1.611572623252868652e+00 8.387026190757751465e-02 -7.155184745788574219e-01 -1.894944608211517334e-01 -9.357580542564392090e-02
4.940000000000000000e+02 7.620722961425781250e+01 4.205926418304443359e+00 5.431878939270973206e-02 -5.898298025131225586e-01 -1.606533080339431763e-01 -1.415231451392173767e-02
4.950000000000000000e+02 7.334261322021484375e+01 5.359747409820556641e+00 1.284841001033782959e-01 1.138583302497863770e+00 3.801202178001403809e-01 3.362765908241271973e-02
4.960000000000000000e+02 7.011929321289062500e+01 8.665374755859375000e+00 6.418582051992416382e-02 2.812434673309326172e+00 8.629861474037170410e-01 -2.948254942893981934e-01
4.970000000000000000e+02 7.925350952148437500e+01 1.488581418991088867e+00 1.041686907410621643e-02 -2.163987159729003906e+00 -6.460711359977722168e-01 -2.920753322541713715e-02
4.980000000000000000e+02 7.778791809082031250e+01 2.909625291824340820e+00 2.835658006370067596e-02 -1.419332146644592285e+00 -4.172926843166351318e-01 -3.663686662912368774e-02
4.990000000000000000e+02 7.766772460937500000e+01 4.297952651977539062e+00 3.435577824711799622e-02 -1.341369867324829102e+00 -3.921042382717132568e-01 -1.163743808865547180e-02
5.000000000000000000e+02 7.589101409912109375e+01 5.582144737243652344e+00 8.017901331186294556e-02 -3.555896878242492676e-01 -8.262320607900619507e-02 1.626926660537719727e-02
5.010000000000000000e+02 7.394959259033203125e+01 6.223935604095458984e+00 9.475523978471755981e-02 8.118062615394592285e-01 2.719684541225433350e-01 4.165973141789436340e-02
5.020000000000000000e+02 7.275324249267578125e+01 8.562911987304687500e+00 1.239811070263385773e-02 1.439987778663635254e+00 4.357157647609710693e-01 5.474227666854858398e-02
5.030000000000000000e+02 7.139909362792968750e+01 1.265609550476074219e+01 -1.002901792526245117e-01 1.977117896080017090e+00 5.630483031272888184e-01 -1.303328126668930054e-01
5.040000000000000000e+02 6.991331481933593750e+01 1.005273628234863281e+01 -3.591885045170783997e-02 2.395078659057617188e+00 7.077479362487792969e-01 -2.237839400768280029e-01
5.050000000000000000e+02 7.924864959716796875e+01 2.880780458450317383e+00 1.070928759872913361e-02 -2.222837209701538086e+00 -6.636383533477783203e-01 -9.701999835669994354e-03
5.060000000000000000e+02 7.921182250976562500e+01 4.278855323791503906e+00 6.676539313048124313e-03 -2.246518850326538086e+00 -6.719527244567871094e-01 6.150668952614068985e-03
5.070000000000000000e+02 7.746812438964843750e+01 5.773459911346435547e+00 3.410039469599723816e-02 -1.227950453758239746e+00 -3.581550121307373047e-01 2.735780552029609680e-02
5.080000000000000000e+02 7.512397003173828125e+01 6.803626537322998047e+00 5.575725808739662170e-02 6.835949420928955078e-02 3.723502531647682190e-02 5.147030204534530640e-02
5.090000000000000000e+02 7.260192108154296875e+01 9.820514678955078125e+00 -8.427491039037704468e-02 1.533100247383117676e+00 4.346476197242736816e-01 3.815977275371551514e-02
5.100000000000000000e+02 7.130333709716796875e+01 1.128229713439941406e+01 -1.992479115724563599e-01 2.094808578491210938e+00 5.686681866645812988e-01 -6.046621501445770264e-02
5.110000000000000000e+02 7.916585540771484375e+01 5.691247463226318359e+00 6.141937803477048874e-03 -2.245340585708618164e+00 -6.717596054077148438e-01 1.710884459316730499e-02
5.120000000000000000e+02 7.747075653076171875e+01 7.278903007507324219e+00 1.412073709070682526e-02 -1.219405889511108398e+00 -3.615855276584625244e-01 4.192754626274108887e-02
5.130000000000000000e+02 7.478070831298828125e+01 8.397623062133789062e+00 3.198465274181216955e-04 3.114466071128845215e-01 9.352993220090866089e-02 4.764459654688835144e-02
5.140000000000000000e+02 7.005964660644531250e+01 1.423197364807128906e+01 6.896323710680007935e-02 2.861753702163696289e+00 8.792150616645812988e-01 8.620403707027435303e-02
5.150000000000000000e+02 7.916336059570312500e+01 7.102463245391845703e+00 9.656373411417007446e-03 -2.224372386932373047e+00 -6.644148230552673340e-01 2.982614375650882721e-02
5.160000000000000000e+02 7.765316772460937500e+01 8.711930274963378906e+00 -9.475946426391601562e-03 -1.313087582588195801e+00 -3.967690765857696533e-01 4.859590157866477966e-02
5.170000000000000000e+02 7.635348510742187500e+01 1.030211544036865234e+01 -3.996280953288078308e-02 -6.099272370338439941e-01 -1.949670165777206421e-01 5.281664803624153137e-02
5.180000000000000000e+02 7.300193023681640625e+01 1.391368484497070312e+01 -3.805257752537727356e-02 1.197027206420898438e+00 3.476924002170562744e-01 -6.233263388276100159e-02
5.190000000000000000e+02 7.008810424804687500e+01 1.712467193603515625e+01 7.157294545322656631e-03 2.816313266754150391e+00 8.470411896705627441e-01 1.524102175608277321e-03
5.200000000000000000e+02 7.919905090332031250e+01 8.506721496582031250e+00 -9.544105269014835358e-03 -2.188093662261962891e+00 -6.592913269996643066e-01 3.183599561452865601e-02
5.210000000000000000e+02 7.772609710693359375e+01 1.011910247802734375e+01 -3.152747079730033875e-02 -1.363100528717041016e+00 -4.183883965015411377e-01 2.948389202356338501e-02
5.220000000000000000e+02 7.511738586425781250e+01 1.163105010986328125e+01 -5.756600573658943176e-02 6.859073042869567871e-02 3.307416569441556931e-03 4.803745076060295105e-02
5.230000000000000000e+02 7.444872283935546875e+01 1.390078067779541016e+01 -2.762148156762123108e-02 4.278258383274078369e-01 1.200613081455230713e-01 -7.505599409341812134e-03
5.240000000000000000e+02 7.312088012695312500e+01 1.546068763732910156e+01 5.874460563063621521e-03 1.105334877967834473e+00 3.333628177642822266e-01 -3.709873557090759277e-02
5.250000000000000000e+02 7.921943664550781250e+01 9.923415184020996094e+00 -7.014994625933468342e-04 -2.154817104339599609e+00 -6.466555595397949219e-01 2.188096567988395691e-02
5.260000000000000000e+02 7.770817565917968750e+01 1.159482383728027344e+01 -1.181341987103223801e-02 -1.341599583625793457e+00 -4.060238897800445557e-01 2.047370932996273041e-02
5.270000000000000000e+02 7.579222106933593750e+01 1.412233638763427734e+01 -3.847719728946685791e-02 -3.048805594444274902e-01 -1.030073240399360657e-01 -7.313910755328834057e-04
5.280000000000000000e+02 7.365848541259765625e+01 1.673145294189453125e+01 2.953793294727802277e-02 9.001591801643371582e-01 2.789091467857360840e-01 -8.651698008179664612e-03
5.290000000000000000e+02 7.002541351318359375e+01 1.855575561523437500e+01 4.249298945069313049e-03 2.808982849121093750e+00 8.439696431159973145e-01 -9.942129254341125488e-03
5.300000000000000000e+02 7.921664428710937500e+01 1.140102577209472656e+01 -1.749380119144916534e-02 -2.139822006225585938e+00 -6.471947431564331055e-01 8.490802720189094543e-03
5.310000000000000000e+02 7.700852203369140625e+01 1.445952033996582031e+01 -1.332807727158069611e-02 -9.647519588470458984e-01 -2.934240102767944336e-01 -1.605937257409095764e-02
5.320000000000000000e+02 7.562428283691406250e+01 1.525989246368408203e+01 4.683315928559750319e-04 -1.868962943553924561e-01 -5.592839047312736511e-02 1.192037761211395264e-02
5.330000000000000000e+02 7.468859100341796875e+01 1.639765930175781250e+01 8.777425624430179596e-03 2.593664824962615967e-01 8.044317364692687988e-02 -2.625920996069908142e-02
5.340000000000000000e+02 7.257361602783203125e+01 1.906230354309082031e+01 2.158912643790245056e-02 1.454988598823547363e+00 4.429733157157897949e-01 2.499273745343089104e-03
5.350000000000000000e+02 6.997428131103515625e+01 1.997346305847167969e+01 5.494059529155492783e-03 2.825791120529174805e+00 8.493855595588684082e-01 -2.041641995310783386e-02
5.360000000000000000e+02 7.938690185546875000e+01 1.274705886840820312e+01 -1.457314123399555683e-03 -2.150599002838134766e+00 -6.456168889999389648e-01 -1.359239034354686737e-02
5.370000000000000000e+02 7.853875732421875000e+01 1.356836128234863281e+01 1.325067970901727676e-02 -1.781877756118774414e+00 -5.305881500244140625e-01 3.074325434863567352e-02
5.380000000000000000e+02 7.586023712158203125e+01 1.633139228820800781e+01 6.548219826072454453e-03 -3.320590555667877197e-01 -9.765325486660003662e-02 -9.462341666221618652e-03
5.390000000000000000e+02 7.370725250244140625e+01 1.950559806823730469e+01 4.848382249474525452e-02 8.363932967185974121e-01 2.654631435871124268e-01 7.424057926982641220e-03
5.400000000000000000e+02 7.236283111572265625e+01 2.040541648864746094e+01 3.783827275037765503e-02 1.562538266181945801e+00 4.801129698753356934e-01 -2.638480439782142639e-02
5.410000000000000000e+02 6.988542938232421875e+01 2.419577217102050781e+01 6.511843949556350708e-02 3.046250343322753906e+00 9.334106445312500000e-01 -1.802655458450317383e-01
5.420000000000000000e+02 6.993087005615234375e+01 2.278144073486328125e+01 4.192659258842468262e-02 2.964257717132568359e+00 9.018552899360656738e-01 -6.452434509992599487e-02
5.430000000000000000e+02 7.949528503417968750e+01 1.395208835601806641e+01 4.516927059739828110e-03 -2.211786031723022461e+00 -6.621807217597961426e-01 -9.825387969613075256e-03
5.440000000000000000e+02 7.817132568359375000e+01 1.490437984466552734e+01 6.316734477877616882e-03 -1.532593250274658203e+00 -4.578829407691955566e-01 6.023556459695100784e-03
5.450000000000000000e+02 7.768714141845703125e+01 1.769703102111816406e+01 -1.563929487019777298e-03 -1.303489804267883301e+00 -3.915161192417144775e-01 -1.998385181650519371e-03
5.460000000000000000e+02 7.631011199951171875e+01 1.901512145996093750e+01 6.888962816447019577e-03 -5.580863952636718750e-01 -1.653592288494110107e-01 1.065574353560805321e-03
5.470000000000000000e+02 7.345075225830078125e+01 2.068455696105957031e+01 5.585267022252082825e-02 9.658943414688110352e-01 3.065240979194641113e-01 -1.196674257516860962e-02
5.480000000000000000e+02 7.228155517578125000e+01 2.309667015075683594e+01 1.159538254141807556e-01 1.549602866172790527e+00 4.996670186519622803e-01 -5.452683568000793457e-02
5.490000000000000000e+02 6.950004577636718750e+01 2.705591392517089844e+01 2.131077796220779419e-01 2.818924903869628906e+00 9.096097946166992188e-01 -5.692368149757385254e-01
5.500000000000000000e+02 7.785549163818359375e+01 1.626286888122558594e+01 8.813434978947043419e-04 -1.361998796463012695e+00 -4.083352386951446533e-01 -2.113018650561571121e-03
5.510000000000000000e+02 7.923425292968750000e+01 1.800619316101074219e+01 9.191843681037425995e-03 -2.169158697128295898e+00 -6.479900479316711426e-01 1.858262531459331512e-02
5.520000000000000000e+02 7.773808288574218750e+01 1.914691734313964844e+01 1.226044539362192154e-02 -1.325285315513610840e+00 -3.939074575901031494e-01 1.669263280928134918e-02
5.530000000000000000e+02 7.525469970703125000e+01 2.132689666748046875e+01 6.083347648382186890e-02 -5.472033098340034485e-02 1.833943882957100868e-03 1.824418082833290100e-02
5.540000000000000000e+02 7.348619842529296875e+01 2.321133804321289062e+01 1.283926367759704590e-01 8.922011852264404297e-01 3.061781525611877441e-01 -1.234263763763010502e-04
5.550000000000000000e+02 7.223918151855468750e+01 2.454998970031738281e+01 1.860425770282745361e-01 1.486203312873840332e+00 5.016737580299377441e-01 -5.764240026473999023e-02
5.560000000000000000e+02 7.064312744140625000e+01 2.741589546203613281e+01 2.631200850009918213e-01 2.015725612640380859e+00 6.836537122726440430e-01 -2.471024394035339355e-01
5.570000000000000000e+02 6.975674438476562500e+01 2.562504577636718750e+01 1.497482955455780029e-01 3.021078824996948242e+00 9.512481689453125000e-01 -3.623675405979156494e-01
5.580000000000000000e+02 7.923281097412109375e+01 1.940787315368652344e+01 -1.274078059941530228e-02 -2.153102874755859375e+00 -6.497530937194824219e-01 1.110168360173702240e-02
5.590000000000000000e+02 7.648356628417968750e+01 2.038555526733398438e+01 1.597775332629680634e-02 -6.825480461120605469e-01 -1.999710798263549805e-01 1.716712955385446548e-03
5.600000000000000000e+02 7.476799011230468750e+01 2.321810722351074219e+01 9.984108805656433105e-02 1.874698698520660400e-01 8.619328588247299194e-02 5.262534320354461670e-02
5.610000000000000000e+02 7.347181701660156250e+01 2.468897628784179688e+01 1.511872559785842896e-01 8.161125183105468750e-01 2.901899218559265137e-01 3.580262139439582825e-02
5.620000000000000000e+02 7.210814666748046875e+01 2.609809875488281250e+01 2.141947597265243530e-01 1.420159339904785156e+00 4.903062283992767334e-01 -4.183921217918395996e-02
5.630000000000000000e+02 6.908789062500000000e+01 2.845727157592773438e+01 3.776769042015075684e-01 2.566869258880615234e+00 8.833638429641723633e-01 -7.683731913566589355e-01
5.640000000000000000e+02 7.923418426513671875e+01 2.081809425354003906e+01 1.407216954976320267e-02 -2.135026454925537109e+00 -6.362863183021545410e-01 1.719763688743114471e-02
5.650000000000000000e+02 7.615322113037109375e+01 2.329135704040527344e+01 6.924182921648025513e-02 -5.073384046554565430e-01 -1.314289718866348267e-01 6.340041011571884155e-02
5.660000000000000000e+02 7.335449218750000000e+01 2.628781890869140625e+01 1.995812803506851196e-01 7.635537981986999512e-01 2.889405190944671631e-01 6.979941576719284058e-02
5.670000000000000000e+02 7.185398101806640625e+01 2.773340415954589844e+01 2.607175111770629883e-01 1.351674199104309082e+00 4.837175309658050537e-01 -3.491265699267387390e-02
5.680000000000000000e+02 7.017980957031250000e+01 2.901874351501464844e+01 3.448947072029113770e-01 1.799331068992614746e+00 6.432677507400512695e-01 -3.086373507976531982e-01
5.690000000000000000e+02 6.768058776855468750e+01 3.088509941101074219e+01 6.150169372558593750e-01 1.347702860832214355e+00 5.888159275054931641e-01 -8.526601791381835938e-01
5.700000000000000000e+02 6.846836853027343750e+01 2.973453140258789062e+01 5.977480411529541016e-01 2.106781244277954102e+00 8.113587498664855957e-01 -9.345949888229370117e-01
5.710000000000000000e+02 7.921628570556640625e+01 2.223442459106445312e+01 -4.776988134835846722e-05 -2.099952697753906250e+00 -6.300001144409179688e-01 2.793749235570430756e-02
5.720000000000000000e+02 7.754971313476562500e+01 2.500804138183593750e+01 4.583968594670295715e-02 -1.184116959571838379e+00 -3.414831757545471191e-01 1.059426739811897278e-01
5.730000000000000000e+02 7.475115203857421875e+01 2.479497718811035156e+01 1.258482187986373901e-01 1.493605971336364746e-01 8.256264030933380127e-02 8.302029967308044434e-02
5.740000000000000000e+02 7.143963623046875000e+01 2.947085380554199219e+01 2.290379106998443604e-01 1.245738267898559570e+00 4.424328505992889404e-01 7.275435142219066620e-03
5.750000000000000000e+02 6.939248657226562500e+01 3.029012489318847656e+01 3.236060142517089844e-01 1.643318295478820801e+00 5.900772809982299805e-01 -3.910190165042877197e-01
5.760000000000000000e+02 6.810105895996093750e+01 3.255567550659179688e+01 2.074093669652938843e-01 1.152641773223876953e+00 4.080153405666351318e-01 -4.629231095314025879e-01
5.770000000000000000e+02 6.685494995117187500e+01 3.548183441162109375e+01 -8.494907990097999573e-03 7.470706105232238770e-01 2.215727120637893677e-01 -2.415038645267486572e-01
5.780000000000000000e+02 6.739801788330078125e+01 3.788228607177734375e+01 -2.090968191623687744e-01 6.596791744232177734e-01 1.351747065782546997e-01 -1.147314682602882385e-01
5.790000000000000000e+02 6.209244918823242188e+01 4.122798156738281250e+01 -8.909401297569274902e-02 3.155987560749053955e-01 6.795141845941543579e-02 -4.835699126124382019e-02
5.800000000000000000e+02 6.161436080932617188e+01 3.876290893554687500e+01 -1.613952033221721649e-02 2.346679866313934326e-01 6.555853784084320068e-02 -1.359581500291824341e-01
5.810000000000000000e+02 5.759987640380859375e+01 4.126970672607421875e+01 2.441682294011116028e-02 5.651478096842765808e-02 2.427948080003261566e-02 -3.688940312713384628e-03
5.820000000000000000e+02 5.715363693237304688e+01 3.606200027465820312e+01 -5.719818174839019775e-02 5.690813064575195312e-03 -1.545221079140901566e-02 -1.181706227362155914e-02
5.830000000000000000e+02 5.826928710937500000e+01 3.874938964843750000e+01 1.417181082069873810e-02 4.699987918138504028e-02 1.835150830447673798e-02 -2.598693780601024628e-02
5.840000000000000000e+02 7.771305084228515625e+01 2.202519226074218750e+01 2.372473478317260742e-02 -1.312308788299560547e+00 -3.865752220153808594e-01 2.700762264430522919e-02
5.850000000000000000e+02 7.915522766113281250e+01 2.508624458312988281e+01 1.126582548022270203e-02 -1.982532262802124023e+00 -5.913799405097961426e-01 5.111360549926757812e-02
5.860000000000000000e+02 7.748850250244140625e+01 2.656486129760742188e+01 4.495124146342277527e-02 -1.106027960777282715e+00 -3.183230459690093994e-01 1.545271426439285278e-01
5.870000000000000000e+02 7.588323211669921875e+01 2.822906303405761719e+01 7.480509579181671143e-02 -3.753605484962463379e-01 -9.016663581132888794e-02 2.377555966377258301e-01
5.880000000000000000e+02 7.282192230224609375e+01 2.972609519958496094e+01 1.419684141874313354e-01 7.265488505363464355e-01 2.605551779270172119e-01 1.757324039936065674e-01
5.890000000000000000e+02 7.108126068115234375e+01 3.123259353637695312e+01 1.127413660287857056e-01 1.069774746894836426e+00 3.547548353672027588e-01 2.156176418066024780e-02
5.900000000000000000e+02 6.947030639648437500e+01 3.281794738769531250e+01 2.973473817110061646e-02 1.081548571586608887e+00 3.333850204944610596e-01 -1.329477578401565552e-01
5.910000000000000000e+02 6.841744232177734375e+01 3.602021026611328125e+01 -1.353671550750732422e-01 7.537161707878112793e-01 1.855047047138214111e-01 -1.259321868419647217e-01
5.920000000000000000e+02 6.547347259521484375e+01 3.998939895629882812e+01 -1.937923729419708252e-01 5.283253192901611328e-01 1.003598868846893311e-01 -7.556959241628646851e-02
5.930000000000000000e+02 7.913455200195312500e+01 2.653541183471679688e+01 1.218312047421932220e-02 -1.888037919998168945e+00 -5.627564191818237305e-01 7.025607675313949585e-02
5.940000000000000000e+02 7.743053436279296875e+01 2.816166114807128906e+01 2.855023369193077087e-02 -1.036734700202941895e+00 -3.024553358554840088e-01 1.897200942039489746e-01
5.950000000000000000e+02 7.576133728027343750e+01 3.006085586547851562e+01 4.647115245461463928e-02 -3.231042623519897461e-01 -8.298993110656738281e-02 2.990120649337768555e-01
5.960000000000000000e+02 7.360600280761718750e+01 3.189842605590820312e+01 1.799697428941726685e-02 2.977721989154815674e-01 9.473075717687606812e-02 2.733820378780364990e-01
5.970000000000000000e+02 7.024980926513671875e+01 3.637585830688476562e+01 -2.005227208137512207e-01 6.109178066253662109e-01 1.231185272336006165e-01 2.957549691200256348e-02
5.980000000000000000e+02 6.601189422607421875e+01 3.689640426635742188e+01 -1.102146729826927185e-01 6.332632899284362793e-01 1.569145917892456055e-01 -1.752961874008178711e-01
5.990000000000000000e+02 7.912283325195312500e+01 2.800023651123046875e+01 8.888189680874347687e-03 -1.767053842544555664e+00 -5.274496674537658691e-01 8.743056654930114746e-02
6.000000000000000000e+02 7.741019439697265625e+01 2.980040359497070312e+01 -2.349314512684941292e-03 -9.402151703834533691e-01 -2.827693521976470947e-01 2.365462630987167358e-01
6.010000000000000000e+02 7.597833251953125000e+01 3.164044380187988281e+01 8.347073569893836975e-03 -3.478159606456756592e-01 -1.018406599760055542e-01 3.243784010410308838e-01
6.020000000000000000e+02 7.473999023437500000e+01 3.293195343017578125e+01 -2.649706974625587463e-02 -5.720454826951026917e-02 -2.511048503220081329e-02 3.126798868179321289e-01
6.030000000000000000e+02 7.230265045166015625e+01 3.444358825683593750e+01 -1.108330860733985901e-01 5.006248950958251953e-01 1.169375330209732056e-01 1.970768570899963379e-01
6.040000000000000000e+02 7.912880706787109375e+01 2.950598907470703125e+01 -2.040434442460536957e-02 -1.633811116218566895e+00 -4.962646365165710449e-01 8.331388980150222778e-02
6.050000000000000000e+02 7.729319763183593750e+01 3.131301498413085938e+01 3.813777863979339600e-02 -8.493131399154663086e-01 -2.433526068925857544e-01 2.440102696418762207e-01
6.060000000000000000e+02 7.678302001953125000e+01 3.252918624877929688e+01 -8.709420450031757355e-03 -5.606088638305664062e-01 -1.707954853773117065e-01 2.576869726181030273e-01
6.070000000000000000e+02 7.237965393066406250e+01 3.622121810913085938e+01 -1.771426945924758911e-01 3.582625985145568848e-01 5.433597788214683533e-02 1.732887178659439087e-01
6.080000000000000000e+02 6.963334655761718750e+01 3.851434326171875000e+01 -2.477840334177017212e-01 5.524624586105346680e-01 9.140353649854660034e-02 -1.397781167179346085e-02
6.090000000000000000e+02 7.932015228271484375e+01 3.085322189331054688e+01 -1.327758934348821640e-02 -1.515323758125305176e+00 -4.585804045200347900e-01 5.378686636686325073e-02
6.100000000000000000e+02 7.787509918212890625e+01 3.306769180297851562e+01 2.617814578115940094e-02 -9.042537212371826172e-01 -2.634226679801940918e-01 2.014207392930984497e-01
6.110000000000000000e+02 7.581787109375000000e+01 3.753758239746093750e+01 -1.000447198748588562e-01 -2.360300123691558838e-01 -1.008224189281463623e-01 2.067267149686813354e-01
6.120000000000000000e+02 7.254886627197265625e+01 4.106725692749023438e+01 -2.339624762535095215e-01 2.177270799875259399e-01 -4.870618227869272232e-03 4.973068833351135254e-02
6.130000000000000000e+02 7.941956329345703125e+01 3.206248474121093750e+01 1.476018875837326050e-02 -1.369361400604248047e+00 -4.063803553581237793e-01 5.232049524784088135e-02
6.140000000000000000e+02 7.921717071533203125e+01 3.339811706542968750e+01 5.108338966965675354e-02 -1.176714658737182617e+00 -3.376893997192382812e-01 1.253107488155364990e-01
6.150000000000000000e+02 7.716621398925781250e+01 3.451767730712890625e+01 -5.584918707609176636e-02 -5.991718769073486328e-01 -1.965063065290451050e-01 1.778821647167205811e-01
6.160000000000000000e+02 7.262503814697265625e+01 3.835667419433593750e+01 -2.048574686050415039e-01 2.390993833541870117e-01 1.027257367968559265e-02 1.343120932579040527e-01
6.170000000000000000e+02 7.884323120117187500e+01 3.493303680419921875e+01 -4.412586241960525513e-02 -9.837124347686767578e-01 -3.083514869213104248e-01 1.252754181623458862e-01
6.180000000000000000e+02 7.870753479003906250e+01 3.663495635986328125e+01 -2.151432447135448456e-02 -8.725513815879821777e-01 -2.682197093963623047e-01 8.946607261896133423e-02
6.190000000000000000e+02 7.911322784423828125e+01 3.800050735473632812e+01 -3.590559959411621094e-02 -7.699601650238037109e-01 -2.417597174644470215e-01 6.245957687497138977e-02
6.200000000000000000e+02 7.941624450683593750e+01 3.906678771972656250e+01 -9.358942508697509766e-03 -6.781108975410461426e-01 -2.062409520149230957e-01 2.253507729619741440e-03
6.210000000000000000e+02 7.621927642822265625e+01 4.007840728759765625e+01 -7.284300774335861206e-02 -3.707110285758972168e-01 -1.330662071704864502e-01 6.234145164489746094e-02
6.220000000000000000e+02 7.917817687988281250e+01 4.018334197998046875e+01 6.724892556667327881e-02 -5.615971684455871582e-01 -1.483044773340225220e-01 8.424844592809677124e-02
6.230000000000000000e+02 7.821179199218750000e+01 4.161396026611328125e+01 -8.131575584411621094e-02 -5.133842229843139648e-01 -1.784100085496902466e-01 2.264574356377124786e-02
6.240000000000000000e+02 5.293000411987304688e+01 4.123208618164062500e+01 2.088257111608982086e-02 -3.878632094711065292e-03 5.101181566715240479e-03 4.706189036369323730e-03
6.250000000000000000e+02 5.582134246826171875e+01 3.542222976684570312e+01 -4.859091341495513916e-02 -8.522446267306804657e-03 -1.713400706648826599e-02 -2.201744820922613144e-03
6.260000000000000000e+02 5.340163421630859375e+01 3.399903869628906250e+01 -1.734961941838264465e-02 -3.557985881343483925e-03 -6.272281520068645477e-03 -3.801109734922647476e-03
6.270000000000000000e+02 4.862394332885742188e+01 3.324760055541992188e+01 -5.217808298766613007e-03 4.518050409387797117e-04 -1.429800991900265217e-03 1.692642341367900372e-03
6.280000000000000000e+02 5.007167053222656250e+01 3.553260040283203125e+01 -5.212004762142896652e-03 2.100850921124219894e-03 -9.333461639471352100e-04 3.623602213338017464e-03
6.290000000000000000e+02 4.197621154785156250e+01 4.060285949707031250e+01 1.595355104655027390e-03 -1.166996080428361893e-03 1.285076723434031010e-04 2.121214201906695962e-04
6.300000000000000000e+02 3.739403533935546875e+01 4.087331771850585938e+01 6.992704584263265133e-04 -8.400596561841666698e-04 -4.223676660330966115e-05 4.840819747187197208e-04
6.310000000000000000e+02 3.678330993652343750e+01 3.804436874389648438e+01 3.455737896729260683e-05 -3.201311919838190079e-04 -8.567214536014944315e-05 2.753559383563697338e-04
6.320000000000000000e+02 4.180938720703125000e+01 3.708084487915039062e+01 -9.592183778295293450e-05 -8.903797715902328491e-04 -2.958904951810836792e-04 1.693786471150815487e-03
6.330000000000000000e+02 3.912196350097656250e+01 3.608142852783203125e+01 4.074209718964993954e-04 -2.568130439613014460e-04 4.518238711170852184e-05 4.573832848109304905e-04
6.340000000000000000e+02 4.049377441406250000e+01 3.027191543579101562e+01 -5.109441699460148811e-04 3.299098461866378784e-04 -5.431029057945124805e-05 -1.821441110223531723e-04
6.350000000000000000e+02 4.039447402954101562e+01 2.772543716430664062e+01 -5.511848212336190045e-05 3.765184083022177219e-04 9.641997894505038857e-05 -1.607063131814356893e-05
6.360000000000000000e+02 3.980243682861328125e+01 2.648736000061035156e+01 -6.339835817925632000e-04 -1.633240754017606378e-04 -2.391923044342547655e-04 2.066608249151613563e-05
6.370000000000000000e+02 3.939072799682617188e+01 2.507472229003906250e+01 2.232709812233224511e-04 9.586623491486534476e-05 9.574116847943514585e-05 -7.693778024986386299e-05
6.380000000000000000e+02 3.906790542602539062e+01 2.364479446411132812e+01 -4.599056264851242304e-04 -4.327985880081541836e-05 -1.509556459495797753e-04 9.357305680168792605e-05
6.390000000000000000e+02 3.871417999267578125e+01 2.224823188781738281e+01 3.091807884629815817e-04 -8.652463293401524425e-06 9.015849354909732938e-05 -1.462029176764190197e-04
6.400000000000000000e+02 3.924534606933593750e+01 1.885078620910644531e+01 -3.687475109472870827e-04 5.235212665866129100e-05 -9.491862147115170956e-05 8.892791083781048656e-05
6.410000000000000000e+02 3.884643173217773438e+01 1.739705085754394531e+01 3.399624547455459833e-04 4.785621058545075357e-06 1.034244196489453316e-04 -9.280082849727477878e-06
6.420000000000000000e+02 3.855624771118164062e+01 1.586084365844726562e+01 -2.633611438795924187e-04 2.748808947217185050e-05 -7.076191104715690017e-05 5.636059722746722400e-05
6.430000000000000000e+02 3.828298950195312500e+01 1.430569362640380859e+01 2.672379487194120884e-04 -7.254002412082627416e-07 7.995375926839187741e-05 -1.312748827331233770e-05
6.440000000000000000e+02 3.992756652832031250e+01 1.226565647125244141e+01 2.345502580283209682e-04 2.080632839351892471e-05 7.660697883693501353e-05 1.219521072925999761e-05
6.450000000000000000e+02 3.832706451416015625e+01 1.027973937988281250e+01 7.920112693682312965e-05 2.139267417078372091e-05 3.017814015038311481e-05 7.459959306288510561e-05
6.460000000000000000e+02 3.872815322875976562e+01 7.625797271728515625e+00 1.336856075795367360e-04 6.171440327307209373e-05 5.862000398337841034e-05 3.097172520938329399e-05
6.470000000000000000e+02 3.979975509643554688e+01 6.278285980224609375e+00 8.903506386559456587e-05 4.392449045553803444e-05 3.988786556874401867e-05 -5.667578443535603583e-05
6.480000000000000000e+02 3.934375762939453125e+01 5.337757110595703125e+00 -4.129624721826985478e-05 -2.757029869826510549e-05 -2.065996341116260737e-05 7.927770639071241021e-05
6.490000000000000000e+02 3.934384155273437500e+01 2.907027244567871094e+00 -8.970974886324256659e-05 -1.214273379446240142e-05 -3.055574416066519916e-05 1.789754969649948180e-05
6.500000000000000000e+02 3.928670501708984375e+01 1.760219216346740723e+00 8.128009358188137412e-05 1.674996201472822577e-05 2.940901504189241678e-05 7.612053195771295577e-06
6.510000000000000000e+02 3.889103317260742188e+01 -4.622688889503479004e-01 6.384107109624892473e-05 9.477218554820865393e-06 2.199548544012941420e-05 2.359662903472781181e-05
6.520000000000000000e+02 3.975708389282226562e+01 -1.485543489456176758e+00 3.813960211118683219e-05 2.580163891252595931e-05 1.918237103382125497e-05 -1.879157389339525253e-05
6.530000000000000000e+02 4.012183761596679688e+01 -2.745996475219726562e+00 1.769732989487238228e-05 1.370214067719643936e-05 9.419841262570116669e-06 -2.555383980507031083e-05
6.540000000000000000e+02 3.968531799316406250e+01 -5.215675830841064453e+00 -1.326643086940748617e-05 4.676044682128122076e-06 -2.577115992608014494e-06 2.343096093682106584e-05
6.550000000000000000e+02 4.015610885620117188e+01 -7.276579856872558594e+00 -2.338415652047842741e-05 -1.592090302438009530e-05 -1.179151786345755681e-05 -3.813528564933221787e-06
6.560000000000000000e+02 3.906220626831054688e+01 -8.189444541931152344e+00 -1.456383415643358603e-05 -1.041704308590851724e-05 -7.494263172702630982e-06 1.372460974380373955e-05
6.570000000000000000e+02 3.870036697387695312e+01 -1.026604080200195312e+01 -1.447678278054809198e-05 6.506559202534845099e-06 -2.391067027929238975e-06 1.467015408707084134e-05
6.580000000000000000e+02 3.839968490600585938e+01 -1.390441131591796875e+01 1.126594452216522768e-05 -4.977037860953714699e-06 1.886671952888718806e-06 -7.794590601406525820e-06
6.590000000000000000e+02 3.900450134277343750e+01 -1.583440876007080078e+01 -9.128645615419372916e-06 -4.788391834154026583e-06 -4.175111371296225116e-06 1.602040697434858885e-06
6.600000000000000000e+02 3.814615249633789062e+01 -1.710871696472167969e+01 -4.488584181672194973e-06 -4.218459707772126421e-06 -2.612113121358561330e-06 4.351970801508286968e-06
6.610000000000000000e+02 3.811491394042968750e+01 -1.827226448059082031e+01 2.333317326019823668e-07 -3.161271706630941480e-07 -2.483862893143395922e-08 -2.420880264253355563e-06
6.620000000000000000e+02 4.083032989501953125e+01 -2.034721946716308594e+01 2.615180392240290530e-06 3.648479605544707738e-06 1.879098022072867025e-06 -1.898549157886009198e-06
6.630000000000000000e+02 4.186169815063476562e+01 -2.013288307189941406e+01 1.064141315509914421e-06 3.377117764102877118e-06 1.332377792095940094e-06 3.489547850676899543e-07
6.640000000000000000e+02 4.306909179687500000e+01 -1.922874832153320312e+01 -6.072360974940238521e-06 1.202808334710425697e-06 -1.460865746594208758e-06 2.557672758030093974e-07
6.650000000000000000e+02 4.200831985473632812e+01 -1.746765136718750000e+01 -1.396033894707215950e-05 2.654123363754479215e-06 -3.391864765944774263e-06 6.709611852784291841e-07
6.660000000000000000e+02 4.274181365966796875e+01 -1.545324230194091797e+01 1.295495894737541676e-05 5.224158485361840576e-06 5.453735411720117554e-06 -5.830995633004931733e-07
6.670000000000000000e+02 4.322259902954101562e+01 -1.414811325073242188e+01 1.049757975124521181e-05 1.036625599226681516e-05 6.259150723053608090e-06 1.214251881265226984e-07
6.680000000000000000e+02 4.233991622924804688e+01 -9.713933944702148438e+00 2.644141204655170441e-05 2.698562411751481704e-06 8.741992132854647934e-06 -9.230063369614072144e-06
6.690000000000000000e+02 4.254893493652343750e+01 -6.737573623657226562e+00 -3.042458047275431454e-05 -5.518847501662094146e-06 -1.078302830137545243e-05 4.832188551517901942e-06
6.700000000000000000e+02 4.239548110961914062e+01 -3.748301506042480469e+00 6.438196578528732061e-06 1.141288157668896019e-05 5.355323537514777854e-06 -4.405253093864303082e-06
6.710000000000000000e+02 4.248630523681640625e+01 -1.858442187309265137e+00 -2.059719918179325759e-05 -1.010807409329572693e-05 -9.211582437274046242e-06 1.164158675237558782e-05
6.720000000000000000e+02 4.185898590087890625e+01 -1.223283886909484863e+00 -2.125484388670884073e-05 -1.168097878689877689e-05 -9.880746802082285285e-06 3.635098983068019152e-05
6.730000000000000000e+02 4.250584030151367188e+01 -2.523291110992431641e-01 7.593817372253397480e-06 2.325044988538138568e-05 9.253280040866229683e-06 -1.901937685033772141e-05
6.740000000000000000e+02 4.204956817626953125e+01 1.484786391258239746e+00 6.659190694335848093e-05 2.244688221253454685e-05 2.671163565537426621e-05 -1.490319664299022406e-05
6.750000000000000000e+02 4.213259506225585938e+01 4.031127452850341797e+00 5.918327224208042026e-05 6.066153582651168108e-05 3.595344242057763040e-05 1.690545286692213267e-05
6.760000000000000000e+02 4.260544586181640625e+01 5.658171176910400391e+00 3.674028630484826863e-05 3.438589192228391767e-05 2.133785346813965589e-05 4.689303386840038002e-05
6.770000000000000000e+02 4.166200256347656250e+01 6.763123035430908203e+00 -2.963804718092433177e-06 6.413284427253529429e-05 1.835071088862605393e-05 -5.347798651200719178e-05
6.780000000000000000e+02 4.231230163574218750e+01 9.054588317871093750e+00 -1.525028055766597390e-04 2.706467967072967440e-05 -3.763143831747584045e-05 -2.176401721953880042e-05
6.790000000000000000e+02 4.198706436157226562e+01 1.056588459014892578e+01 1.694820384727790952e-04 2.979428973048925400e-05 5.978290209895931184e-05 6.638294507865794003e-06
6.800000000000000000e+02 5.221183395385742188e+01 3.327956390380859375e+01 -1.001888327300548553e-02 -7.504897657781839371e-04 -3.230811795219779015e-03 -5.075461696833372116e-03
6.810000000000000000e+02 5.028753280639648438e+01 3.846334457397460938e+01 4.938536323606967926e-03 -5.884416532353498042e-05 1.463907537981867790e-03 7.750063203275203705e-03
6.820000000000000000e+02 5.127985763549804688e+01 3.450199127197265625e+01 -1.058501750230789185e-02 6.124229985289275646e-04 -2.991778310388326645e-03 2.448596758767962456e-03
6.830000000000000000e+02 4.825607299804687500e+01 3.696707534790039062e+01 -1.324783777818083763e-03 3.203748201485723257e-04 -3.013226960320025682e-04 5.818306934088468552e-03
6.840000000000000000e+02 4.570331192016601562e+01 3.929982757568359375e+01 2.853216603398323059e-03 -3.055047476664185524e-03 -6.054932600818574429e-05 2.080322941765189171e-03
6.850000000000000000e+02 3.689945602416992188e+01 3.286701965332031250e+01 -4.022422363050282001e-04 8.471509499941021204e-05 -9.525813948130235076e-05 2.176720154238864779e-04
6.860000000000000000e+02 3.888127136230468750e+01 2.912803459167480469e+01 -7.637770613655447960e-04 -1.150700118159875274e-04 -2.636541321408003569e-04 2.303748187841847539e-04
6.870000000000000000e+02 3.809765625000000000e+01 2.736455726623535156e+01 6.651382136624306440e-05 1.316514390055090189e-04 5.944957956671714783e-05 -6.193648687258246355e-07
6.880000000000000000e+02 3.770806503295898438e+01 2.568350219726562500e+01 -5.009085289202630520e-04 -6.820642738603055477e-05 -1.707344927126541734e-04 1.159444764198269695e-05
6.890000000000000000e+02 3.751648712158203125e+01 2.412874221801757812e+01 1.948074641404673457e-04 3.157057290081866086e-05 6.791341002099215984e-05 -3.838468182948417962e-05
6.900000000000000000e+02 3.737484359741210938e+01 2.277080535888671875e+01 -3.647078119684010744e-04 -3.029578874702565372e-05 -1.185010842164047062e-04 9.699779184302315116e-05
6.910000000000000000e+02 3.689976119995117188e+01 2.172445678710937500e+01 1.680739806033670902e-04 -2.321880492672789842e-05 4.345655179349705577e-05 -2.143758465535938740e-04
6.920000000000000000e+02 3.743590164184570312e+01 1.958454895019531250e+01 3.767745220102369785e-04 -8.460082608507946134e-05 8.765210077399387956e-05 -1.068120327545329928e-04
6.930000000000000000e+02 3.692373275756835938e+01 1.801622581481933594e+01 -3.216168261133134365e-04 1.007554783427622169e-05 -9.346238948637619615e-05 1.624033939151559025e-05
6.940000000000000000e+02 3.672898483276367188e+01 1.632675933837890625e+01 3.083981282543390989e-04 -3.424150781938806176e-05 8.224698103731498122e-05 2.448958730383310467e-05
6.950000000000000000e+02 3.647986221313476562e+01 1.478405857086181641e+01 -2.470395120326429605e-04 8.971675015345681459e-06 -7.142035610741004348e-05 1.839595643104985356e-05
6.960000000000000000e+02 3.564685058593750000e+01 1.212002277374267578e+01 -2.094967494485899806e-04 3.328960519866086543e-05 -5.286214218358509243e-05 5.377530033001676202e-05
6.970000000000000000e+02 3.707435226440429688e+01 9.723678588867187500e+00 -4.431619890965521336e-05 -4.212434305372880772e-06 -1.455859000998316333e-05 8.035845894482918084e-06
6.980000000000000000e+02 3.729550552368164062e+01 7.502878665924072266e+00 -8.891306788427755237e-05 -4.971161251887679100e-05 -4.158740557613782585e-05 -6.809143542341189459e-06
6.990000000000000000e+02 3.851565933227539062e+01 5.566964149475097656e+00 1.387918309774249792e-04 -2.229587880719918758e-05 3.494878546916879714e-05 1.902839721878990531e-05
7.000000000000000000e+02 3.783956527709960938e+01 4.531127452850341797e+00 1.178709062514826655e-04 -5.984932795399799943e-05 1.740647348924539983e-05 6.074717748560942709e-05
7.010000000000000000e+02 3.798532104492187500e+01 2.755986213684082031e+00 9.597533062333241105e-05 1.051373055815929547e-05 3.194671808159910142e-05 -1.558130833245741087e-07
7.020000000000000000e+02 3.807096862792968750e+01 1.717747807502746582e+00 -7.996547356015071273e-05 -5.446622708404902369e-08 -2.400598168605938554e-05 -8.657713692628021818e-07
7.030000000000000000e+02 3.772439193725585938e+01 -3.728691041469573975e-01 -6.788953760406002402e-05 8.692180927027948201e-06 -1.775920645741280168e-05 -1.345589953416492790e-05
7.040000000000000000e+02 3.859201431274414062e+01 -4.618762016296386719e+00 2.804121868393849581e-05 -2.447718088660622016e-06 7.678049769310746342e-06 -2.006183603953104466e-05
7.050000000000000000e+02 3.728876495361328125e+01 -8.508047103881835938e+00 1.586997859703842551e-05 2.714750962695688941e-06 5.575418981607072055e-06 1.133511523221386597e-05
7.060000000000000000e+02 3.793652343750000000e+01 -9.543647766113281250e+00 -1.121151490224292502e-05 -9.052006134879775345e-06 -6.079056674934690818e-06 -6.453134119510650635e-06
7.070000000000000000e+02 3.735132598876953125e+01 -1.227115917205810547e+01 -8.929050636652391404e-06 -3.996207396994577721e-06 -3.877577455568825826e-06 8.584327588323503733e-06
7.080000000000000000e+02 3.878390121459960938e+01 -1.301790809631347656e+01 -2.251791192975360900e-05 9.769429198058787733e-06 -3.824544819508446380e-06 2.072895767923910171e-06
7.090000000000000000e+02 3.694490051269531250e+01 -1.577337169647216797e+01 -3.826577540166908875e-06 -2.543939217503066175e-06 -1.911155095513095148e-06 4.020744654553709552e-06
7.100000000000000000e+02 3.677359008789062500e+01 -1.803215026855468750e+01 -1.675026396696921438e-06 3.585474814826739021e-06 5.731345140702615026e-07 1.488027464802144095e-06
7.110000000000000000e+02 3.686701965332031250e+01 -1.697847175598144531e+01 2.253166712762322277e-06 2.892522388719953597e-06 1.543706730444682762e-06 -3.006418182849301957e-06
7.120000000000000000e+02 3.313336181640625000e+01 3.842732238769531250e+01 2.891172771342098713e-04 -4.479865601751953363e-04 -4.766078927787020802e-05 3.615115710999816656e-04
7.130000000000000000e+02 3.360723495483398438e+01 3.571224212646484375e+01 -9.104255877900868654e-05 -1.010179330478422344e-04 -5.761814827565103769e-05 1.025510500767268240e-04
7.140000000000000000e+02 3.408240890502929688e+01 3.312929916381835938e+01 6.509845843538641930e-05 -2.181438758270815015e-04 -4.591362812789157033e-05 3.601683420129120350e-04
7.150000000000000000e+02 3.615693283081054688e+01 2.808133888244628906e+01 -5.407726857811212540e-04 -1.513337610958842561e-05 -1.667718170210719109e-04 -6.179200227052206174e-06
7.160000000000000000e+02 3.592876052856445312e+01 2.610487365722656250e+01 8.633238758193328977e-05 3.905335688614286482e-05 3.761572224902920425e-05 1.011715285130776465e-04
7.170000000000000000e+02 3.596805572509765625e+01 2.434136199951171875e+01 -3.135623119305819273e-04 -5.502501880982890725e-05 -1.105761984945274889e-04 -9.767916344571858644e-05
7.180000000000000000e+02 3.619646072387695312e+01 2.284553337097167969e+01 2.354407115490175784e-05 2.571356526459567249e-05 1.477729074395028874e-05 1.263894228031858802e-04
7.190000000000000000e+02 3.451550292968750000e+01 2.014258575439453125e+01 -1.139735250035300851e-04 -2.609922194096725434e-05 -4.202182390145026147e-05 -1.902652002172544599e-04
7.200000000000000000e+02 3.499670410156250000e+01 1.830788993835449219e+01 2.547538024373352528e-04 -1.379675904900068417e-05 7.228711183415725827e-05 1.521311351098120213e-04
7.210000000000000000e+02 3.495160675048828125e+01 1.662374496459960938e+01 -2.765685494523495436e-04 -5.952517767582321540e-06 -8.475632057525217533e-05 -8.278217865154147148e-05
7.220000000000000000e+02 3.474610900878906250e+01 1.514496803283691406e+01 2.767103433143347502e-04 -1.936434637173078954e-05 7.720380381215363741e-05 7.356328569585457444e-05
7.230000000000000000e+02 3.407652664184570312e+01 1.249743461608886719e+01 2.339874481549486518e-04 -3.737467341125011444e-05 5.898383460589684546e-05 2.005193709919694811e-05
7.240000000000000000e+02 3.583880615234375000e+01 7.266594886779785156e+00 9.906374179990962148e-05 4.773529144586063921e-05 4.403970888233743608e-05 3.430142533034086227e-05
7.250000000000000000e+02 3.607141113281250000e+01 6.050473690032958984e+00 -5.653406333294697106e-05 -6.254648269532481208e-06 -1.883661389001645148e-05 -2.531634709157515317e-05
7.260000000000000000e+02 3.655592727661132812e+01 4.982477188110351562e+00 4.273082231520675123e-05 7.534640644735191017e-06 1.507963861513417214e-05 5.560953286476433277e-05
7.270000000000000000e+02 3.627210998535156250e+01 3.406280040740966797e+00 2.770164974208455533e-05 -6.484576260845642537e-06 6.365121862472733483e-06 4.129979424760676920e-05
7.280000000000000000e+02 3.580315017700195312e+01 1.902742624282836914e+00 2.737001341301947832e-05 -3.541578337262762943e-07 8.104756489046849310e-06 1.325153607467655092e-05
7.290000000000000000e+02 3.627059173583984375e+01 -1.230387330055236816e+00 -6.280197703745216131e-05 1.757402287694276311e-06 -1.831337249313946813e-05 -1.708267882349900901e-05
7.300000000000000000e+02 3.661824035644531250e+01 -3.502293109893798828e+00 -6.480693173216423020e-06 -8.483794772473629564e-06 -4.489346338232280686e-06 -9.423254596185870469e-06
7.310000000000000000e+02 3.681139755249023438e+01 -5.171525478363037109e+00 2.118028169206809253e-05 -3.605777010307065211e-06 5.272351700114086270e-06 -7.415696472889976576e-06
7.320000000000000000e+02 3.661837387084960938e+01 -7.313862800598144531e+00 -1.229878762387670577e-05 -6.295096682151779532e-06 -5.578165200859075412e-06 -8.661925676278769970e-06
7.330000000000000000e+02 3.555615234375000000e+01 -8.073748588562011719e+00 1.469181552238296717e-05 2.187196514569222927e-06 5.063703611085657030e-06 9.970195606001652777e-06
7.340000000000000000e+02 3.442900848388671875e+01 -1.073005104064941406e+01 -6.823449894000077620e-06 -1.280789092561462894e-06 -2.431271695968462154e-06 -5.844612132932525128e-06
7.350000000000000000e+02 3.644844818115234375e+01 -1.246366405487060547e+01 5.969147878204239532e-06 7.994690349732991308e-06 4.189151695754844695e-06 9.531820978736504912e-06
7.360000000000000000e+02 3.471549224853515625e+01 -1.452431964874267578e+01 1.058649922924814746e-05 1.563594082654162776e-06 3.645027845777804032e-06 2.372184866317184060e-07
7.370000000000000000e+02 3.455891036987304688e+01 -1.566824531555175781e+01 -5.512245024874573573e-06 -1.607039962436829228e-06 -2.135785507562104613e-06 -2.186241090385010466e-07
7.380000000000000000e+02 3.544124603271484375e+01 -1.794687271118164062e+01 2.196149040400996455e-08 -4.720449851447483525e-06 -1.409546484865131788e-06 -8.105088227239320986e-07
7.390000000000000000e+02 3.160850715637207031e+01 3.307016754150390625e+01 -1.381668116664513946e-04 -4.877652463619597256e-05 -5.608300125459209085e-05 2.041385232587344944e-05
7.400000000000000000e+02 3.404433822631835938e+01 2.846754646301269531e+01 4.060526043758727610e-05 4.127391002839431167e-05 2.456375113979447633e-05 2.579952415544539690e-04
7.410000000000000000e+02 3.405561065673828125e+01 2.623523139953613281e+01 -2.721731143537908792e-04 -4.990084926248528063e-05 -9.662219235906377435e-05 -1.249692140845581889e-04
7.420000000000000000e+02 3.366918182373046875e+01 2.197577285766601562e+01 -2.837421561707742512e-05 7.282036222022725269e-06 -6.327653863991145045e-06 1.868098916020244360e-04
7.430000000000000000e+02 3.294594192504882812e+01 1.981663131713867188e+01 4.405943400342948735e-05 -1.574413363414350897e-05 8.494589565088972449e-06 1.224181178258731961e-04
7.440000000000000000e+02 3.331861495971679688e+01 1.822327041625976562e+01 -1.442595821572467685e-04 -7.264474697876721621e-05 -6.507129728561267257e-05 -1.215294687426649034e-04
7.450000000000000000e+02 3.330522537231445312e+01 1.676929283142089844e+01 2.307235554326325655e-04 1.094425715564284474e-05 7.250034104799851775e-05 1.461895590182393789e-04
7.460000000000000000e+02 3.308220672607421875e+01 1.541739273071289062e+01 -2.151807129848748446e-04 -4.953660391038283706e-05 -7.941519288579002023e-05 -7.967283454490825534e-05
7.470000000000000000e+02 3.250715255737304688e+01 1.277180671691894531e+01 -1.865108788479119539e-04 -3.554046543285949156e-06 -5.701947884517721832e-05 -1.211969447467708960e-05
7.480000000000000000e+02 3.473168945312500000e+01 9.752441406250000000e+00 -1.429740805178880692e-04 -1.484555696151801385e-06 -4.333758988650515676e-05 5.343566590454429388e-05
7.490000000000000000e+02 3.432212448120117188e+01 7.245090007781982422e+00 -1.051675426424480975e-04 -3.511942486511543393e-05 -4.208609243505634367e-05 2.297573519172146916e-05
7.500000000000000000e+02 3.418233871459960938e+01 4.424690246582031250e+00 -3.120568180747795850e-06 1.857464485510718077e-05 4.636222911358345300e-06 -8.852892278810031712e-06
7.510000000000000000e+02 3.472214889526367188e+01 3.596242904663085938e+00 2.167432649002876133e-05 -1.347276520391460508e-05 2.460468522258452140e-06 2.611857962619978935e-05
7.520000000000000000e+02 3.441612625122070312e+01 2.053490161895751953e+00 3.721552275237627327e-05 -1.632731436984613538e-05 6.266462605708511546e-06 1.553566107759252191e-05
7.530000000000000000e+02 3.479589462280273438e+01 -2.977605164051055908e-01 -5.874966063856845722e-06 -2.829118784575257450e-06 -2.611225454529630952e-06 -3.432957964832894504e-05
7.540000000000000000e+02 3.473958587646484375e+01 -3.636106491088867188e+00 5.321636126609519124e-05 -3.301777724118437618e-06 1.497437460784567520e-05 2.724876594584202394e-06
7.550000000000000000e+02 3.327075576782226562e+01 -6.089715003967285156e+00 -9.653329470893368125e-06 -8.060748768912162632e-06 -5.314223471941659227e-06 -1.950642581505235285e-05
7.560000000000000000e+02 3.384844970703125000e+01 -7.406456470489501953e+00 1.698809137451462448e-05 3.966902113461401314e-06 6.286497864493867382e-06 1.532489295641425997e-05
7.570000000000000000e+02 3.378371047973632812e+01 -9.515822410583496094e+00 3.055237129956367426e-06 -1.447604859095008578e-06 4.822896357836725656e-07 6.620274689339566976e-06
7.580000000000000000e+02 3.316354751586914062e+01 -1.084029769897460938e+01 2.743790537351742387e-05 -2.437183411529986188e-06 7.500216725020436570e-06 -6.847340955573599786e-06
7.590000000000000000e+02 3.324167251586914062e+01 -1.237144279479980469e+01 1.283808251173468307e-05 1.102864757740462665e-06 4.182284101261757314e-06 -1.848305601015454158e-06
7.600000000000000000e+02 3.371848678588867188e+01 -1.445122337341308594e+01 -6.761301392543828115e-06 -2.032842303378856741e-06 -2.638243131514173001e-06 -2.634635393405915238e-06
7.610000000000000000e+02 3.344112396240234375e+01 -1.555455970764160156e+01 5.041343683842569590e-06 5.197323389438679442e-07 1.668322852310666349e-06 2.116741143254330382e-06
7.620000000000000000e+02 3.412855911254882812e+01 -1.789834976196289062e+01 -1.410796585332718678e-06 4.644973159884102643e-06 9.702530405775178224e-07 4.391550589843973285e-07
7.630000000000000000e+02 2.816614151000976562e+01 4.102405548095703125e+01 4.092109884368255734e-05 -2.407124557066708803e-04 -5.993740705889649689e-05 1.909706043079495430e-04
7.640000000000000000e+02 3.069720649719238281e+01 3.547240447998046875e+01 7.374706183327361941e-05 -2.537094405852258205e-04 -5.398871144279837608e-05 3.029833897016942501e-04
7.650000000000000000e+02 2.965582466125488281e+01 3.264462661743164062e+01 -7.905143138486891985e-05 -1.489945716457441449e-04 -6.841379945399239659e-05 2.260569744976237416e-04
7.660000000000000000e+02 3.048450279235839844e+01 3.092406463623046875e+01 -1.187852467410266399e-04 -7.117646600818261504e-05 -5.698851600755006075e-05 1.764232547429855913e-05
7.670000000000000000e+02 3.206200027465820312e+01 2.896334648132324219e+01 -3.773671924136579037e-04 -1.034292436088435352e-04 -1.442389329895377159e-04 -1.142374912888044491e-06
7.680000000000000000e+02 3.122899436950683594e+01 2.747448539733886719e+01 2.070602058665826917e-04 -5.148148193256929517e-05 4.667361645260825753e-05 2.985447463288437575e-05
7.690000000000000000e+02 3.229888534545898438e+01 2.581152725219726562e+01 -2.055346703855320811e-04 2.680971556401345879e-05 -5.361748480936512351e-05 1.449181581847369671e-04
7.700000000000000000e+02 3.296652221679687500e+01 2.383491897583007812e+01 -5.796562982141040266e-05 -9.108518861467018723e-05 -4.471524516702629626e-05 -1.400922628818079829e-04
7.710000000000000000e+02 3.222348785400390625e+01 2.152507591247558594e+01 -6.749443127773702145e-05 -2.968313492601737380e-05 -2.915327058872207999e-05 -1.271879009436815977e-04
7.720000000000000000e+02 3.160835266113281250e+01 1.945490455627441406e+01 1.592969783814623952e-05 -7.611879846081137657e-05 -1.805672945920377970e-05 -5.345883255358785391e-05
7.730000000000000000e+02 3.196087455749511719e+01 1.814878845214843750e+01 6.752642366336658597e-05 1.095564584829844534e-05 2.354462230869103223e-05 4.586678915075026453e-05
7.740000000000000000e+02 2.973554611206054688e+01 1.606496620178222656e+01 -1.124296759371645749e-04 -1.016680471366271377e-04 -6.422931619454175234e-05 -6.108749221311882138e-05
7.750000000000000000e+02 3.095510292053222656e+01 1.302032470703125000e+01 1.910456485347822309e-04 -2.119358578056562692e-05 5.095561573398299515e-05 4.100090154679492116e-05
7.760000000000000000e+02 3.183714485168457031e+01 1.014596462249755859e+01 -1.389152603223919868e-04 -4.629933300748234615e-06 -4.306355549488216639e-05 9.029979992192238569e-06
7.770000000000000000e+02 3.280162429809570312e+01 7.404717922210693359e+00 1.302711898460984230e-04 9.801665328268427402e-06 4.202185664325952530e-05 1.982603498618118465e-05
7.780000000000000000e+02 3.268152236938476562e+01 6.155347347259521484e+00 -9.491704986430704594e-05 -9.368715836899355054e-06 -3.128573007415980101e-05 -1.371916096104541793e-05
7.790000000000000000e+02 3.262759399414062500e+01 5.035864353179931641e+00 1.173240743810310960e-04 -1.757179234118666500e-05 2.992568443005438894e-05 3.183942317264154553e-05
7.800000000000000000e+02 3.255251312255859375e+01 3.228322505950927734e+00 1.065426913555711508e-04 -1.745161534927319735e-05 2.672732261999044567e-05 -1.878381226561032236e-05
7.810000000000000000e+02 3.344147109985351562e+01 1.423411488533020020e+00 -3.860425204038619995e-05 1.354599953629076481e-05 -7.517475751228630543e-06 -1.716195220069494098e-05
7.820000000000000000e+02 3.152795410156250000e+01 -2.403233289718627930e+00 -1.496303229941986501e-05 3.299608943052589893e-05 5.409916866483399644e-06 7.230027222249191254e-06
7.830000000000000000e+02 3.190504837036132812e+01 -4.285702705383300781e+00 2.289257099619135261e-05 -2.311322168679907918e-05 -6.619504233640327584e-08 -1.634506406844593585e-05
7.840000000000000000e+02 3.174051666259765625e+01 -5.610764980316162109e+00 -1.774123603581756470e-07 -1.060011072695488110e-05 -3.233257075407891534e-06 -1.468096252210671082e-05
7.850000000000000000e+02 3.279163742065429688e+01 -7.718244552612304688e+00 -1.882040487544145435e-05 -3.943081992474617437e-06 -6.829046014900086448e-06 -4.962333150615449995e-06
7.860000000000000000e+02 3.183925056457519531e+01 -1.131731224060058594e+01 4.936273398925550282e-06 1.521705257800931577e-06 1.937393562911893241e-06 3.013640480276080780e-06
7.870000000000000000e+02 3.171106910705566406e+01 -1.255690097808837891e+01 -2.206350018241209909e-06 -8.933580630809956347e-08 -6.887057111271133181e-07 1.382519258186221123e-06
7.880000000000000000e+02 3.307364273071289062e+01 -1.328164482116699219e+01 -7.599270702485227957e-06 -2.059830421785591170e-06 -2.897730382755980827e-06 -1.328336338701774366e-06
7.890000000000000000e+02 3.236561203002929688e+01 -1.534376049041748047e+01 -4.008042196801397949e-06 -2.735062309966451721e-07 -1.284464588025002740e-06 -2.550490989960962906e-06
7.900000000000000000e+02 3.155781173706054688e+01 -1.763786315917968750e+01 -1.229371378030919004e-06 2.316536210855701938e-06 3.261494612161186524e-07 2.356718553642167535e-08
7.910000000000000000e+02 3.197158622741699219e+01 -1.646862792968750000e+01 2.537878799557802267e-06 -1.383958533551776782e-06 3.461760798018076457e-07 1.630611222935840487e-06
7.920000000000000000e+02 2.944825744628906250e+01 3.047368621826171875e+01 -2.345442335354164243e-04 -1.624529832042753696e-04 -1.190991606563329697e-04 -5.243182840786175802e-06
7.930000000000000000e+02 2.992501640319824219e+01 2.663844680786132812e+01 -1.328532962361350656e-04 -9.386892634211108088e-05 -6.801667041145265102e-05 1.298495772061869502e-04
7.940000000000000000e+02 3.079069709777832031e+01 2.511652565002441406e+01 -9.224529640050604939e-05 8.584532224631402642e-06 -2.509822843421716243e-05 -5.761666034231893718e-05
7.950000000000000000e+02 3.013065147399902344e+01 2.311058235168457031e+01 -2.130515349563211203e-04 6.893481440783943981e-06 -6.184741505421698093e-05 -1.409946162311825901e-05
7.960000000000000000e+02 3.092552566528320312e+01 2.085075187683105469e+01 -1.216580640175379813e-04 -3.221518272766843438e-05 -4.616197475115768611e-05 8.419635560130700469e-05
7.970000000000000000e+02 2.986538124084472656e+01 2.002716255187988281e+01 1.389132521580904722e-04 -4.299908323446288705e-05 2.877425140468403697e-05 -7.870632543927058578e-05
7.980000000000000000e+02 2.957995796203613281e+01 1.756286048889160156e+01 6.607255636481568217e-05 1.593338674865663052e-05 2.460178257024381310e-05 2.612498974485788494e-05
7.990000000000000000e+02 2.799369239807128906e+01 1.772818374633789062e+01 -1.000640404527075589e-04 -6.108226079959422350e-05 -4.834388892049901187e-05 -2.576119186414871365e-05
8.000000000000000000e+02 2.814246368408203125e+01 1.481664848327636719e+01 -1.084085452021099627e-04 -8.120940037770196795e-05 -5.688538294634781778e-05 -4.771873864228837192e-05
8.010000000000000000e+02 2.944709205627441406e+01 1.326150321960449219e+01 -1.518105564173310995e-04 -3.650082726380787790e-05 -5.649341619573533535e-05 -3.167811155435629189e-05
8.020000000000000000e+02 3.029630088806152344e+01 1.034995651245117188e+01 1.631234626984223723e-04 -2.526545904402155429e-05 4.135740164201706648e-05 1.980186061700806022e-05
8.030000000000000000e+02 3.131028747558593750e+01 7.579085350036621094e+00 -1.185083528980612755e-04 -1.430636802979279310e-05 -3.984441718785092235e-05 1.250334116775775328e-05
8.040000000000000000e+02 3.100295829772949219e+01 6.530832290649414062e+00 1.566331920912489295e-04 -4.524130781646817923e-05 3.341756382724270225e-05 -8.597380656283348799e-06
8.050000000000000000e+02 3.077500152587890625e+01 5.671245574951171875e+00 -8.367391274077817798e-05 7.917128641565795988e-06 -2.272703568451106548e-05 -3.571836032278952189e-06
8.060000000000000000e+02 3.187434387207031250e+01 3.074314594268798828e+00 -1.759098813636228442e-05 -2.031585427175741643e-05 -1.137205345003167167e-05 -9.904993021336849779e-06
8.070000000000000000e+02 3.159452629089355469e+01 1.681439757347106934e+00 1.551307650515809655e-05 -4.533731953415554017e-06 3.293803501946968026e-06 -4.779619848704896867e-05
8.080000000000000000e+02 3.130505371093750000e+01 -4.559948295354843140e-02 6.104457952460506931e-06 -7.760429980407934636e-06 -4.967915288034419063e-07 -2.796298394969198853e-05
8.090000000000000000e+02 3.012034988403320312e+01 -8.390195846557617188e+00 9.494310688751284033e-06 8.846054697642102838e-06 5.502109615918016061e-06 -1.247271939064376056e-05
8.100000000000000000e+02 2.948068618774414062e+01 -9.312606811523437500e+00 1.098651227948721498e-05 2.619223778310697526e-06 4.081720817339373752e-06 -6.770174422854324803e-06
8.110000000000000000e+02 2.942795562744140625e+01 -1.023258209228515625e+01 -9.169978056888794526e-07 1.443659016331366729e-06 1.579983717192590120e-07 -6.896883405715925619e-06
8.120000000000000000e+02 3.013591766357421875e+01 -1.167869758605957031e+01 -1.613221911611617543e-06 1.044037048814061563e-06 -1.707554417862411356e-07 -1.390123202327231411e-06
8.130000000000000000e+02 3.111391830444335938e+01 -1.330695819854736328e+01 4.139458724239375442e-06 -5.203281716603669338e-07 1.085739199879753869e-06 -1.583528501214459538e-06
8.140000000000000000e+02 2.996731948852539062e+01 -1.577358055114746094e+01 5.364838216337375343e-06 -9.061845958058256656e-07 1.337596017947362270e-06 1.741763412610453088e-06
8.150000000000000000e+02 2.922712707519531250e+01 -1.685379791259765625e+01 -2.963566657854244113e-06 -3.944596471683325944e-07 -1.007407831821183208e-06 -9.949404784492799081e-07
8.160000000000000000e+02 3.034142494201660156e+01 -1.731204223632812500e+01 5.222456707087985706e-07 -9.735741741678793915e-07 -1.353985510377242463e-07 5.791358717033290304e-07
8.170000000000000000e+02 2.646570777893066406e+01 3.730456161499023438e+01 -1.230258349096402526e-04 -1.496316690463572741e-04 -8.179725409718230367e-05 2.036659425357356668e-04
8.180000000000000000e+02 2.831468582153320312e+01 3.476652526855468750e+01 1.141927423304878175e-04 -1.113446342060342431e-04 8.544336651539197192e-07 -4.783037729794159532e-05
8.190000000000000000e+02 2.829585266113281250e+01 3.188428115844726562e+01 1.373465493088588119e-04 -2.456306901876814663e-05 3.383504372322931886e-05 1.011574204312637448e-04
8.200000000000000000e+02 2.874998855590820312e+01 2.967325019836425781e+01 1.636645611142739654e-04 1.589785642863716930e-05 5.386872726376168430e-05 1.773837720975279808e-04
8.210000000000000000e+02 2.993096160888671875e+01 2.862245750427246094e+01 -3.912658430635929108e-04 -7.170205935835838318e-05 -1.388903619954362512e-04 -3.005384678544942290e-05
8.220000000000000000e+02 2.830472373962402344e+01 2.408597564697265625e+01 -6.200900679687038064e-05 2.125798346241936088e-05 -1.222530681843636557e-05 -5.998471897328272462e-05
8.230000000000000000e+02 2.825178527832031250e+01 2.220821189880371094e+01 7.321741577470675111e-05 -5.889565727557055652e-05 4.296528459235560149e-06 -9.665920515544712543e-05
8.240000000000000000e+02 2.902353668212890625e+01 2.103166580200195312e+01 -1.420459157088771462e-04 -8.737350981391500682e-06 -4.523498137132264674e-05 1.111991077777929604e-04
8.250000000000000000e+02 2.796609497070312500e+01 1.928103065490722656e+01 1.263253361685201526e-04 1.356485790893202648e-05 4.196705776848830283e-05 5.043185228714719415e-05
8.260000000000000000e+02 2.660030746459960938e+01 1.771294212341308594e+01 -7.132831342460121959e-06 2.008416231547016650e-05 3.885399110004073009e-06 1.675510065979324281e-05
8.270000000000000000e+02 2.774118614196777344e+01 1.224504375457763672e+01 -1.264909660676494241e-04 -3.562760321074165404e-05 -4.863556750933639705e-05 -1.625325967324897647e-05
8.280000000000000000e+02 2.879575729370117188e+01 1.063314247131347656e+01 -1.336366112809628248e-04 -1.629950020287651569e-05 -4.498083580983802676e-05 2.629654090924304910e-06
8.290000000000000000e+02 2.980996894836425781e+01 7.644382476806640625e+00 1.144763882621191442e-04 -1.398495078319683671e-05 3.014743015228305012e-05 4.550092489807866514e-05
8.300000000000000000e+02 2.996988296508789062e+01 6.587050914764404297e+00 -1.014907538774423301e-04 1.537557727715466172e-05 -2.583455352578312159e-05 -4.274382808944210410e-05
8.310000000000000000e+02 2.987841796875000000e+01 5.679668426513671875e+00 1.289301580982282758e-04 -3.776666198973543942e-05 2.734905137913301587e-05 3.520464451867155731e-05
8.320000000000000000e+02 2.909292602539062500e+01 3.344525814056396484e+00 -8.338160114362835884e-06 -3.675131665659137070e-05 -1.352684284938732162e-05 -2.388632128713652492e-05
8.330000000000000000e+02 2.976338195800781250e+01 1.632534384727478027e+00 5.979667548672296107e-05 -2.500965456420090050e-05 1.043610609485767782e-05 -3.283909973106347024e-05
8.340000000000000000e+02 2.950188446044921875e+01 8.886745572090148926e-02 1.810773574106860906e-05 -1.040935876517323777e-05 2.309513320142286830e-06 -3.243428363930433989e-05
8.350000000000000000e+02 2.930620574951171875e+01 -2.245851993560791016e+00 4.757686474476940930e-05 8.987594810605514795e-07 1.454268749512266368e-05 2.156908340111840516e-05
8.360000000000000000e+02 2.869496345520019531e+01 -3.885558605194091797e+00 4.725474354927428067e-05 1.177729359369550366e-06 1.452974174753762782e-05 -7.272100077670984319e-08
8.370000000000000000e+02 2.852464294433593750e+01 -5.508347511291503906e+00 3.964209099649451673e-05 3.666801376311923377e-06 1.299266841670032591e-05 -1.072257532541698311e-06
8.380000000000000000e+02 2.854171562194824219e+01 -6.329929351806640625e+00 -2.623374712129589170e-05 -1.101381485568708740e-06 -8.200539014069363475e-06 -1.226015569955052342e-06
8.390000000000000000e+02 2.807031059265136719e+01 -8.832859039306640625e+00 -1.007103855954483151e-05 -4.212812200421467423e-06 -4.285155227989889681e-06 -8.571522812417242676e-06
8.400000000000000000e+02 2.759330368041992188e+01 -1.081332111358642578e+01 1.559836528031155467e-05 -1.998854258999926969e-06 4.079853624716633931e-06 2.304205281689064577e-06
8.410000000000000000e+02 2.941011238098144531e+01 -1.215928936004638672e+01 6.458393272623652592e-06 -9.190567311634367798e-07 1.661800979491090402e-06 2.274768121424131095e-06
8.420000000000000000e+02 2.918575096130371094e+01 -1.376281738281250000e+01 -1.803390887289424427e-06 -2.509404112061019987e-06 -1.293838522542500868e-06 2.806798647725372575e-06
8.430000000000000000e+02 2.846941375732421875e+01 -1.609839248657226562e+01 3.955587999371346086e-06 2.297991613886551932e-06 1.876073838502634317e-06 4.605106198596331524e-07
8.440000000000000000e+02 2.923359489440917969e+01 -1.522913455963134766e+01 -3.247091399316559546e-06 -1.640409323044877965e-06 -1.466250296289217658e-06 5.165198899703682400e-07
8.450000000000000000e+02 2.739342308044433594e+01 3.085183715820312500e+01 -1.881524804048240185e-04 -1.779069862095639110e-04 -1.098178399843163788e-04 1.654951302043627948e-05
8.460000000000000000e+02 2.817207145690917969e+01 2.876701736450195312e+01 -2.609698567539453506e-04 -6.829435733379796147e-05 -9.877926640911027789e-05 3.293830013717524707e-05
8.470000000000000000e+02 2.667583274841308594e+01 2.809737968444824219e+01 -1.697553379926830530e-04 -4.727406121673993766e-05 -6.510881939902901649e-05 8.681701001478359103e-05
8.480000000000000000e+02 2.910021781921386719e+01 2.788486480712890625e+01 8.216145943151786923e-05 -2.172272979805711657e-05 1.813161907193716615e-05 1.635475200600922108e-05
8.490000000000000000e+02 2.736111068725585938e+01 2.346089553833007812e+01 -9.651610889704898000e-05 -4.858789179706946015e-05 -4.353119948063977063e-05 1.118765503633767366e-04
8.500000000000000000e+02 2.745149040222167969e+01 2.167366409301757812e+01 -8.926340524340048432e-05 -4.204359720461070538e-05 -3.939210000680759549e-05 1.454728335374966264e-04
8.510000000000000000e+02 2.687088584899902344e+01 2.097802925109863281e+01 7.350906525971367955e-05 2.566007242421619594e-05 2.975074130517896265e-05 -5.607051571132615209e-05
8.520000000000000000e+02 2.643957138061523438e+01 1.991794013977050781e+01 -1.273358939215540886e-04 -9.412437793798744678e-05 -6.643807864747941494e-05 1.201230952574405819e-05
8.530000000000000000e+02 2.532942581176757812e+01 1.780816459655761719e+01 -7.114531763363629580e-05 -5.495746881933882833e-05 -3.783083593589253724e-05 2.656191099958959967e-05
8.540000000000000000e+02 2.672878265380859375e+01 1.500479412078857422e+01 8.579582936363294721e-05 3.707553332787938416e-05 3.686140917125158012e-05 3.041623313038144261e-05
8.550000000000000000e+02 2.638221740722656250e+01 1.256621456146240234e+01 1.232432405231520534e-04 3.744523155546630733e-06 3.809633199125528336e-05 1.898348273243755102e-05
8.560000000000000000e+02 2.686569976806640625e+01 9.788981437683105469e+00 -1.106408453779295087e-04 -1.543215148558374494e-05 -3.782189742196351290e-05 -1.485499296904890798e-06
8.570000000000000000e+02 2.751514244079589844e+01 7.991330623626708984e+00 -8.768958650762215257e-05 -3.050256225378689123e-07 -2.639838203322142363e-05 3.509420275804586709e-05
8.580000000000000000e+02 2.757199096679687500e+01 6.198494911193847656e+00 -2.847916039172559977e-05 -1.614691063878126442e-05 -1.338782112725311890e-05 3.687929711304605007e-05
8.590000000000000000e+02 2.686573600769042969e+01 5.319881439208984375e+00 4.264895687811076641e-05 1.142994733527302742e-05 1.622367199161089957e-05 -3.120231122011318803e-05
8.600000000000000000e+02 2.819662284851074219e+01 3.078008174896240234e+00 3.090467725996859372e-05 1.867836726887617260e-05 1.487491317675448954e-05 2.825381125148851424e-05
8.610000000000000000e+02 2.717025375366210938e+01 1.908597469329833984e+00 7.028161780908703804e-05 -4.442223143996670842e-06 1.975181839952711016e-05 1.079702542483573779e-05
8.620000000000000000e+02 2.770948600769042969e+01 1.621322631835937500e-01 4.501120929489843547e-05 -1.276289731322322041e-05 9.674494322098325938e-06 -1.651100319577381015e-05
8.630000000000000000e+02 2.675244140625000000e+01 -2.297103166580200195e+00 -1.464840988774085417e-05 4.776732112077297643e-06 -2.961503469123272225e-06 -2.676843223525793292e-06
8.640000000000000000e+02 2.783355331420898438e+01 -3.795530796051025391e+00 -3.254445255151949823e-05 -1.036440426105400547e-05 -1.287265695282258093e-05 7.490231382689671591e-06
8.650000000000000000e+02 2.627346420288085938e+01 -5.382992267608642578e+00 2.136486000381410122e-05 5.218912065174663439e-06 7.975131666171364486e-06 -2.644100459292531013e-05
8.660000000000000000e+02 2.776871871948242188e+01 -7.326540946960449219e+00 -1.852647801570128649e-05 -5.476866135722957551e-06 -7.201002972578862682e-06 -9.191409844788722694e-06
8.670000000000000000e+02 2.705181121826171875e+01 -8.354187011718750000e+00 -1.376159616484073922e-05 -5.831012913404265419e-06 -5.877782768948236480e-06 -7.069193543429719284e-06
8.680000000000000000e+02 2.636892318725585938e+01 -1.364515686035156250e+01 -1.125896460507647134e-06 2.685321078388369642e-06 4.678273910485586384e-07 4.814583007828332484e-06
8.690000000000000000e+02 2.674521636962890625e+01 -1.273021793365478516e+01 2.656421202118508518e-06 1.782155209184566047e-06 1.331573002971708775e-06 4.062973857799079269e-06
8.700000000000000000e+02 2.666926383972167969e+01 -1.430500507354736328e+01 3.324725867059896700e-06 -2.272316123708151281e-06 3.157229286898655118e-07 -4.216007710056146607e-06
8.710000000000000000e+02 2.749888420104980469e+01 -1.644361686706542969e+01 -6.933366307748656254e-07 5.344823605923920695e-08 -1.919665209015875007e-07 2.368009063502540812e-06
8.720000000000000000e+02 2.949418830871582031e+01 3.815586090087890625e+01 5.930180122959427536e-05 -1.567603030707687140e-04 -2.923755164374597371e-05 -9.632836736273020506e-05
8.730000000000000000e+02 2.441409492492675781e+01 3.581005477905273438e+01 2.297921309946104884e-04 -6.805426528444513679e-05 4.852136044064536691e-05 7.990789526957087219e-06
8.740000000000000000e+02 2.665435791015625000e+01 3.366493606567382812e+01 -2.101223944919183850e-04 -1.522036764072254300e-04 -1.086978227249346673e-04 8.114163938444107771e-05
8.750000000000000000e+02 2.559498405456542969e+01 3.218188858032226562e+01 1.163754859589971602e-04 -5.858893928234465420e-06 3.315497815492562950e-05 6.977027078391984105e-05
8.760000000000000000e+02 2.515974617004394531e+01 3.033730506896972656e+01 -1.266713370569050312e-04 -7.923450903035700321e-05 -6.177175237098708749e-05 3.177093822159804404e-05
8.770000000000000000e+02 2.531450271606445312e+01 2.852024078369140625e+01 5.837985372636467218e-05 -7.766061025904491544e-05 -5.784226686955662444e-06 8.306049858219921589e-05
8.780000000000000000e+02 2.631019401550292969e+01 2.487070083618164062e+01 -9.877226148091722280e-06 -7.107903456926578656e-06 -5.095539108879165724e-06 -9.770032193046063185e-05
8.790000000000000000e+02 2.652615737915039062e+01 2.278353118896484375e+01 4.420077675604261458e-05 -1.365152638754807413e-05 9.164775292447302490e-06 -9.941183088812977076e-05
8.800000000000000000e+02 2.577356338500976562e+01 2.199259757995605469e+01 -9.455291001359000802e-05 -8.820138464216142893e-05 -5.482629057951271534e-05 6.137369928183034062e-05
8.810000000000000000e+02 2.507817077636718750e+01 2.106711387634277344e+01 5.667744335369206965e-05 3.560462573659606278e-05 2.768462218227796257e-05 -2.720884003792889416e-05
8.820000000000000000e+02 2.433944702148437500e+01 2.007259750366210938e+01 -9.694930486148223281e-05 -6.311879405984655023e-05 -4.802042894880287349e-05 3.023259705514647067e-05
8.830000000000000000e+02 2.345279312133789062e+01 1.921122932434082031e+01 2.483608841430395842e-05 1.636676870475639589e-06 7.941829608171246946e-06 -7.219470717245712876e-05
8.840000000000000000e+02 2.270060539245605469e+01 1.827309799194335938e+01 -5.877767034689895809e-05 -6.918488361407071352e-05 -3.838876727968454361e-05 2.374459654674865305e-05
8.850000000000000000e+02 2.398196983337402344e+01 1.419774341583251953e+01 -5.818950739922001958e-05 -7.587282743770629168e-05 -4.021869972348213196e-05 -2.487078563717659563e-05
8.860000000000000000e+02 2.511538887023925781e+01 1.288332366943359375e+01 -8.883939881343394518e-05 -6.047839997336268425e-05 -4.479533890844322741e-05 -2.156013579224236310e-05
8.870000000000000000e+02 2.552421569824218750e+01 1.028283691406250000e+01 1.308175269514322281e-04 -2.631945972098037601e-05 3.134941653115674853e-05 6.171178483782568946e-06
8.880000000000000000e+02 2.541008758544921875e+01 7.437740325927734375e+00 -8.878802327672019601e-05 -7.633521477146132383e-07 -2.686541301955003291e-05 7.109433227014960721e-06
8.890000000000000000e+02 2.489969062805175781e+01 6.277201175689697266e+00 9.841134306043386459e-05 -8.131897629937157035e-06 2.708383362914901227e-05 7.158631888160016388e-06
8.900000000000000000e+02 2.553436088562011719e+01 5.047075748443603516e+00 6.669868889730423689e-05 3.373273102624807507e-06 2.102158759953454137e-05 -3.260561425122432411e-05
8.910000000000000000e+02 2.509402275085449219e+01 3.384202241897583008e+00 1.948491990333423018e-05 -2.282264358655083925e-05 -1.001317059490247630e-06 2.472956475685350597e-05
8.920000000000000000e+02 2.553787040710449219e+01 1.325375080108642578e+00 4.251818245393224061e-05 -1.147614239016547799e-05 9.312612746725790203e-06 -1.250254717888310552e-05
8.930000000000000000e+02 2.489418029785156250e+01 -5.423075556755065918e-01 -1.537005664431490004e-05 -1.338646507065277547e-05 -8.626956514490302652e-06 -2.141717777703888714e-05
8.940000000000000000e+02 2.667885971069335938e+01 -1.568438649177551270e+00 4.372808325570076704e-05 6.148376087367068976e-06 1.496293771197088063e-05 -6.783010576327797025e-06
8.950000000000000000e+02 2.491179275512695312e+01 -3.644071578979492188e+00 3.555200964910909534e-05 7.534307314926991239e-06 1.292589513468556106e-05 5.233102001511724666e-06
8.960000000000000000e+02 2.570866012573242188e+01 -5.968191623687744141e+00 1.140977201430359855e-05 -1.408269508829107508e-05 -8.018769221962429583e-07 2.653953742992598563e-05
8.970000000000000000e+02 2.471139907836914062e+01 -7.053257942199707031e+00 2.744844323387951590e-06 -1.979932221729541197e-06 2.294736418662068900e-07 8.283353054139297456e-06
8.980000000000000000e+02 2.481801605224609375e+01 -1.018068027496337891e+01 -2.376628344791242853e-06 -2.953900320790125988e-06 -1.599158508724940475e-06 -4.745531896332977340e-06
8.990000000000000000e+02 2.517058944702148438e+01 -1.088514614105224609e+01 5.274079740047454834e-06 3.258459400967694819e-06 2.559761696829809807e-06 3.254145667597185820e-06
9.000000000000000000e+02 2.579024124145507812e+01 -1.227462387084960938e+01 3.211405328329419717e-06 1.908864987854030915e-06 1.536081072117667645e-06 3.929841113858856261e-06
9.010000000000000000e+02 2.608856391906738281e+01 -1.296559143066406250e+01 -3.168333932990208268e-07 -2.015987320191925392e-06 -6.998462254159676377e-07 -4.724132850242312998e-06
9.020000000000000000e+02 2.312213134765625000e+01 3.081178665161132812e+01 7.891630230005830526e-05 -8.322584471898153424e-05 -1.292862975788011681e-06 8.251803228631615639e-05
9.030000000000000000e+02 2.512497901916503906e+01 2.644806671142578125e+01 -5.132450314704328775e-05 -6.570610275957733393e-05 -3.510918031679466367e-05 1.460897910874336958e-04
9.040000000000000000e+02 2.541764640808105469e+01 2.414084243774414062e+01 -1.063636009348556399e-04 -5.490466719493269920e-05 -4.838047971134074032e-05 9.750347817316651344e-05
9.050000000000000000e+02 2.458750915527343750e+01 2.332703399658203125e+01 4.185852958471514285e-05 1.511828031652839854e-05 1.709304342512041330e-05 -4.300743239582516253e-05
9.060000000000000000e+02 2.379044914245605469e+01 2.241237831115722656e+01 -8.029546006582677364e-05 -8.482167322654277086e-05 -4.953514144290238619e-05 3.208918496966362000e-05
9.070000000000000000e+02 2.300129318237304688e+01 2.144222259521484375e+01 4.597980660037137568e-05 1.242053531314013526e-05 1.752010211930610240e-05 -3.563097197911702096e-05
9.080000000000000000e+02 2.218892097473144531e+01 2.042507362365722656e+01 -5.596408664132468402e-05 -5.931489067734219134e-05 -3.458369246800430119e-05 4.539374640444293618e-05
9.090000000000000000e+02 2.249411392211914062e+01 1.691565132141113281e+01 5.203968976275064051e-05 4.997559244657168165e-06 1.711117511149495840e-05 -1.496253389632329345e-05
9.100000000000000000e+02 2.268552017211914062e+01 1.425487422943115234e+01 4.439485928742215037e-05 2.990464417962357402e-05 2.228985067631583661e-05 1.781536229827906936e-05
9.110000000000000000e+02 2.379977226257324219e+01 1.219343471527099609e+01 -7.463775546057149768e-05 -5.557183612836524844e-05 -3.906287747668102384e-05 -1.832617635955102742e-05
9.120000000000000000e+02 2.425328063964843750e+01 1.080881595611572266e+01 -1.080657093552872539e-04 4.693207301897928119e-06 -3.101175025221891701e-05 1.718558223728905432e-06
9.130000000000000000e+02 2.414266204833984375e+01 8.063460350036621094e+00 9.357005183119326830e-05 -2.238760498585179448e-05 2.135473368980456144e-05 -1.230989983014296740e-05
9.140000000000000000e+02 2.375970458984375000e+01 6.182477951049804688e+00 -1.319802595389774069e-05 -3.120681867585517466e-05 -1.332145257038064301e-05 -3.690927769639529288e-05
9.150000000000000000e+02 2.379649925231933594e+01 5.158909320831298828e+00 4.881376662524417043e-05 -1.732935515974531882e-06 1.412424990121508017e-05 3.831082722172141075e-05
9.160000000000000000e+02 2.308058166503906250e+01 3.868161201477050781e+00 2.030233008554205298e-05 -6.762126076864660718e-07 5.887834959139581770e-06 2.897771446441765875e-05
9.170000000000000000e+02 2.384728622436523438e+01 1.447971463203430176e+00 3.283367186668328941e-05 -1.206559863931033760e-05 6.230422513908706605e-06 -1.971540950762573630e-05
9.180000000000000000e+02 2.486541748046875000e+01 -1.698096513748168945e+00 4.145962157053872943e-05 -4.671513238463376183e-07 1.229774079547496513e-05 1.531242196506354958e-05
9.190000000000000000e+02 2.398455047607421875e+01 -3.893836975097656250e+00 -7.766705493850167841e-06 -1.563123987580183893e-05 -7.019383701845072210e-06 -1.080927177099511027e-05
9.200000000000000000e+02 2.343577194213867188e+01 -5.088531494140625000e+00 2.889376219172845595e-06 -1.210806658491492271e-05 -2.765607177934725769e-06 -1.369545952911721542e-05
9.210000000000000000e+02 2.257314109802246094e+01 -6.821901321411132812e+00 4.934760454489151016e-06 6.057296559447422624e-06 3.297617013231501915e-06 2.955607897092704661e-06
9.220000000000000000e+02 2.318597602844238281e+01 -6.296017646789550781e+00 7.268819899763911963e-06 -7.495201771234860644e-06 -6.791456286237007589e-08 -1.125224207498831674e-05
9.230000000000000000e+02 2.415836906433105469e+01 -7.612315177917480469e+00 6.739415312040364370e-06 -3.196600573573959991e-06 1.062844376065186225e-06 -1.077380966307828203e-05
9.240000000000000000e+02 2.353536987304687500e+01 -8.125095367431640625e+00 4.552038717520190403e-06 2.930333494077785872e-06 2.244711822640965693e-06 5.432625584944617003e-06
9.250000000000000000e+02 2.442181015014648438e+01 -9.475990295410156250e+00 7.517539415857754648e-06 1.817165298234613147e-06 2.800411493808496743e-06 2.383711034781299531e-06
9.260000000000000000e+02 2.395318412780761719e+01 4.059001541137695312e+01 1.548518193885684013e-04 -1.038835980580188334e-04 1.529046494397334754e-05 -1.376031286781653762e-04
9.270000000000000000e+02 2.400574111938476562e+01 2.831973075866699219e+01 -7.146869756979867816e-05 -1.680424065853003412e-05 -2.648188274179119617e-05 -8.421285747317597270e-05
9.280000000000000000e+02 2.416554641723632812e+01 2.576010322570800781e+01 4.373302726889960468e-05 -1.787797191354911774e-05 7.756516424706205726e-06 -6.563139322679489851e-05
9.290000000000000000e+02 2.327948570251464844e+01 2.491259765625000000e+01 -9.212870645569637418e-05 -7.395562715828418732e-05 -4.982529935659840703e-05 4.794179039890877903e-05
9.300000000000000000e+02 2.243571090698242188e+01 2.391922187805175781e+01 3.089974779868498445e-05 1.833592978073284030e-05 1.477070236433064565e-05 -2.721544842643197626e-05
9.310000000000000000e+02 2.162558364868164062e+01 2.284675216674804688e+01 -6.471097003668546677e-05 -6.716330972267314792e-05 -3.956228465540334582e-05 3.470648880465887487e-05
9.320000000000000000e+02 2.083799934387207031e+01 2.174265480041503906e+01 2.755371860985178500e-05 1.387950487696798518e-05 1.242996677319752052e-05 -4.277399784768931568e-05
9.330000000000000000e+02 2.135128974914550781e+01 1.932797050476074219e+01 1.755178527673706412e-05 2.395292358414735645e-05 1.245141265826532617e-05 -4.513340172707103193e-05
9.340000000000000000e+02 2.031317138671875000e+01 1.843332099914550781e+01 -2.248719283670652658e-06 -4.843591887038201094e-05 -1.520539171906420961e-05 2.822836722771171480e-05
9.350000000000000000e+02 1.996872711181640625e+01 1.523773860931396484e+01 -2.677099473658017814e-05 -4.406632069731131196e-05 -2.125119499396532774e-05 -2.805836629704572260e-05
9.360000000000000000e+02 2.139208030700683594e+01 1.415096187591552734e+01 -2.668865454324986786e-05 -6.081486571929417551e-05 -2.625105662446003407e-05 -3.555035800673067570e-05
9.370000000000000000e+02 2.139942741394042969e+01 1.137245655059814453e+01 -6.886275514261797071e-05 -3.457244747551158071e-05 -3.103055860265158117e-05 -2.786267577903345227e-05
9.380000000000000000e+02 2.202819824218750000e+01 9.180819511413574219e+00 9.818112448556348681e-05 -2.105322892020922154e-05 2.313836739631369710e-05 4.441033888724632561e-05
9.390000000000000000e+02 2.239481735229492188e+01 7.398247718811035156e+00 6.723956175846979022e-05 -7.308511158043984324e-06 1.797931327018886805e-05 5.705838339054025710e-05
9.400000000000000000e+02 2.184847831726074219e+01 5.469436645507812500e+00 -1.606004116183612496e-05 -1.516341217211447656e-05 -9.367036000185180455e-06 -3.769890827243216336e-05
9.410000000000000000e+02 2.218099403381347656e+01 3.526891469955444336e+00 -2.143125311704352498e-05 -6.565508556377608329e-06 -8.399028956773690879e-06 -2.517121538403443992e-05
9.420000000000000000e+02 2.157306671142578125e+01 1.699293494224548340e+00 -2.896414298447780311e-05 3.378571591383661143e-06 -7.675671440665610135e-06 4.324865130911348388e-06
9.430000000000000000e+02 2.199128913879394531e+01 -5.682082176208496094e-01 1.163777869805926457e-05 -2.394106559222564101e-05 -3.690986204674118198e-06 1.654660263739060611e-05
9.440000000000000000e+02 2.222734260559082031e+01 -1.568537712097167969e+00 2.956704065582016483e-06 -1.707515912130475044e-05 -4.235536835039965808e-06 3.536129497661022469e-06
9.450000000000000000e+02 2.210755920410156250e+01 -3.383875370025634766e+00 2.394727562204934657e-05 1.244027771463152021e-05 1.091626563720637932e-05 -9.467964446230325848e-06
9.460000000000000000e+02 2.045703887939453125e+01 -4.348449230194091797e+00 5.450391654449049383e-06 3.253901923017110676e-06 2.611288209664053284e-06 3.186851529335399391e-07
9.470000000000000000e+02 2.105304527282714844e+01 -4.908287048339843750e+00 1.118068485084222630e-05 1.506163812337035779e-06 3.806054564847727306e-06 -1.041665018419735134e-05
9.480000000000000000e+02 2.159802818298339844e+01 -5.514256954193115234e+00 9.163131835521198809e-06 3.973415459768148139e-06 3.940964234061539173e-06 -9.970249266189057380e-07
9.490000000000000000e+02 1.905975532531738281e+01 3.259312820434570312e+01 -1.608504389878362417e-04 -4.245284435455687344e-05 -6.099098391132429242e-05 4.371113027445971966e-05
9.500000000000000000e+02 2.282521057128906250e+01 2.771477699279785156e+01 -9.798571409191936255e-05 -5.631957174045965075e-05 -4.629158502211794257e-05 8.489978063153102994e-05
9.510000000000000000e+02 2.183029365539550781e+01 2.672126770019531250e+01 3.619004201027564704e-05 6.679358648398192599e-06 1.286081987927900627e-05 -2.352442606934346259e-05
9.520000000000000000e+02 2.095827674865722656e+01 2.552009773254394531e+01 -7.269746129168197513e-05 -7.163185364333912730e-05 -4.329879448050633073e-05 3.890246080118231475e-05
9.530000000000000000e+02 2.016717529296875000e+01 2.427325248718261719e+01 3.019197720277588814e-05 1.525351217424031347e-05 1.363364663120592013e-05 -3.368136822246015072e-05
9.540000000000000000e+02 1.937323570251464844e+01 2.306769371032714844e+01 -5.478968159877695143e-05 -5.498342943610623479e-05 -3.293193367426283658e-05 3.792002098634839058e-05
9.550000000000000000e+02 2.005887603759765625e+01 2.069069862365722656e+01 -4.607527807820588350e-05 -5.309849075274541974e-05 -2.975213101308327168e-05 3.717021900229156017e-05
9.560000000000000000e+02 1.921150970458984375e+01 1.980390548706054688e+01 1.027165035338839516e-05 5.377468369260895997e-06 4.694735707744257525e-06 -5.624370533041656017e-05
9.570000000000000000e+02 1.917368698120117188e+01 1.785359001159667969e+01 -1.800944846763741225e-05 7.885671948315575719e-06 -3.037132955796550959e-06 -4.306598566472530365e-05
9.580000000000000000e+02 1.867587852478027344e+01 1.627349281311035156e+01 -3.616386311477981508e-05 -1.144998532254248857e-05 -1.428415453119669110e-05 -1.969659933820366859e-05
9.590000000000000000e+02 2.005251884460449219e+01 1.394286155700683594e+01 3.059167283936403692e-05 2.345852226426359266e-05 1.621505907678510994e-05 1.780225466063711792e-05
9.600000000000000000e+02 2.038307189941406250e+01 1.172381210327148438e+01 7.734543032711371779e-05 4.355248620413476601e-06 2.451020372973289341e-05 4.084121246705763042e-05
9.610000000000000000e+02 2.083273696899414062e+01 9.417186737060546875e+00 -8.301438356284052134e-05 -6.914187451911857352e-06 -2.697857235034462065e-05 -2.451540058245882392e-05
9.620000000000000000e+02 2.058894348144531250e+01 7.164142131805419922e+00 7.565830310340970755e-05 3.200832168204215122e-07 2.279351429024245590e-05 -1.637941568333189934e-05
9.630000000000000000e+02 2.029556655883789062e+01 4.569325923919677734e+00 3.017828385054599494e-05 1.662055183260235935e-05 1.403965052304556593e-05 -2.517019993319991045e-06
9.640000000000000000e+02 2.076683425903320312e+01 3.469792366027832031e+00 4.103782703168690205e-05 1.537961679787258618e-06 1.277273713640170172e-05 -7.986080163391306996e-06
9.650000000000000000e+02 2.022555732727050781e+01 2.635367155075073242e+00 -1.181387415272183716e-05 -2.052892796200467274e-06 -4.160030130151426420e-06 5.368538495531538501e-06
9.660000000000000000e+02 2.080772590637207031e+01 -1.019620448350906372e-01 -1.788356712495442480e-05 -8.266586519312113523e-06 -7.845045729482080787e-06 -9.904378202918451279e-06
9.670000000000000000e+02 2.015152168273925781e+01 -1.862087726593017578e+00 6.065722118364647031e-06 6.850044655948295258e-07 2.025218009293894283e-06 -1.223136223416076973e-07
9.680000000000000000e+02 1.926695060729980469e+01 -3.232319116592407227e+00 9.466833944316022098e-06 5.329874966264469549e-06 4.439012627699412405e-06 -1.738392484185169451e-06
9.690000000000000000e+02 1.986050987243652344e+01 -3.790375471115112305e+00 1.393365255353273824e-05 2.251404218611696706e-08 4.186849764664657414e-06 -9.170184057438746095e-06
9.700000000000000000e+02 1.664744377136230469e+01 3.711349487304687500e+01 -1.353501284029334784e-04 -2.825430783559568226e-05 -4.908132905256934464e-05 -4.544033799902535975e-05
9.710000000000000000e+02 1.721545791625976562e+01 4.060464859008789062e+01 7.398353045573458076e-05 -4.706808613264001906e-05 8.074634934018831700e-06 8.675295975990593433e-05
9.720000000000000000e+02 2.012485694885253906e+01 3.538470077514648438e+01 1.423448993591591716e-04 -6.024443064234219491e-05 2.463014243403449655e-05 -2.260330120407161303e-06
9.730000000000000000e+02 2.133650398254394531e+01 3.020039176940917969e+01 5.569702989305369556e-05 -1.959790643013548106e-05 1.082973631127970293e-05 -3.605111487559042871e-05
9.740000000000000000e+02 2.015543556213378906e+01 2.865220642089843750e+01 -8.201652963180094957e-05 -7.311519584618508816e-05 -4.653951691580004990e-05 5.468386734719388187e-05
9.750000000000000000e+02 1.930768966674804688e+01 2.707490921020507812e+01 5.479093306348659098e-05 3.471618128969566897e-06 1.747876558511052281e-05 -3.317966184113174677e-05
9.760000000000000000e+02 1.864617919921875000e+01 2.559878921508789062e+01 -7.946156256366521120e-05 -5.556863106903620064e-05 -4.050905772601254284e-05 3.550473775248974562e-05
9.770000000000000000e+02 1.803648376464843750e+01 2.435308837890625000e+01 2.637239958858117461e-05 1.860557313193567097e-05 1.349339254375081509e-05 -3.652419036370702088e-05
9.780000000000000000e+02 1.871295356750488281e+01 2.190382003784179688e+01 4.254439045325852931e-05 6.089555881771957502e-06 1.459018403693335131e-05 -5.663428964908234775e-05
9.790000000000000000e+02 1.738303756713867188e+01 2.022596359252929688e+01 -7.437004114763112739e-06 -1.261378474737284705e-05 -6.015236522216582671e-06 -6.086003850214183331e-05
9.800000000000000000e+02 1.738748931884765625e+01 1.842334175109863281e+01 1.857118513726163656e-05 1.924085336213465780e-05 1.134361173171782866e-05 -4.909488052362576127e-05
9.810000000000000000e+02 1.764529991149902344e+01 1.526217746734619141e+01 -4.227531826472841203e-05 -3.968476448790170252e-05 -2.458802555338479578e-05 2.920236056525027379e-06
9.820000000000000000e+02 1.866736793518066406e+01 1.394130611419677734e+01 -4.729787906398996711e-05 -4.732701199827715755e-05 -2.838746877387166023e-05 -1.522816546639660373e-05
9.830000000000000000e+02 1.888280105590820312e+01 1.109253978729248047e+01 6.194112211233004928e-05 2.578767271188553423e-05 2.631863935675937682e-05 8.123188308672979474e-06
9.840000000000000000e+02 1.840638732910156250e+01 9.229088783264160156e+00 7.732254016445949674e-05 -2.548652082623448223e-05 1.555080598336644471e-05 -1.453025470254942775e-05
9.850000000000000000e+02 1.870638847351074219e+01 7.850114345550537109e+00 7.444542279699817300e-05 -1.828631502576172352e-05 1.684773269516881555e-05 -1.859168150986079127e-05
9.860000000000000000e+02 1.866131591796875000e+01 6.248544692993164062e+00 3.293685949756763875e-05 -1.545002669445239007e-05 5.246049568086164072e-06 -1.904653072415385395e-05
9.870000000000000000e+02 1.883842849731445312e+01 4.958934307098388672e+00 5.857285214005969465e-05 -7.644778634130489081e-06 1.527842323412187397e-05 2.452867647662060335e-06
9.880000000000000000e+02 1.888745689392089844e+01 1.669162154197692871e+00 4.364156484371051192e-05 1.713423216642695479e-06 1.360649639536859468e-05 -5.137843345437431708e-06
9.890000000000000000e+02 1.820557594299316406e+01 -1.951514184474945068e-01 3.539933095453307033e-05 -2.595476644273730926e-06 9.841156497714109719e-06 -1.118480031436774880e-05
9.900000000000000000e+02 1.671206474304199219e+01 -1.262780547142028809e+00 4.744857506011612713e-06 1.109822733269538730e-05 4.752925178763689473e-06 -2.431352868370595388e-06
9.910000000000000000e+02 1.842862129211425781e+01 -1.475851416587829590e+00 2.211210448876954615e-05 1.288203975491342135e-06 7.020092652965104207e-06 -1.275789236387936398e-05
9.920000000000000000e+02 1.800820732116699219e+01 -2.210066080093383789e+00 9.015258001454640180e-06 6.146539817564189434e-06 4.548539436655119061e-06 3.045797569711794495e-08
9.930000000000000000e+02 1.551673793792724609e+01 3.164340972900390625e+01 -1.484737149439752102e-04 -1.652864511925145052e-06 -4.503797390498220921e-05 -2.806175416480982676e-06
9.940000000000000000e+02 1.735134124755859375e+01 2.838937187194824219e+01 -1.126255956478416920e-04 -2.974683593492954969e-05 -4.271173020242713392e-05 2.765240060398355126e-05
9.950000000000000000e+02 1.693034553527832031e+01 2.661176109313964844e+01 8.733734284760430455e-05 -1.656387212278787047e-05 2.123204103554598987e-05 -1.919401438499335200e-05
9.960000000000000000e+02 1.675815010070800781e+01 2.515324401855468750e+01 -1.307299389736726880e-04 -1.306493459196644835e-06 -3.961093170801177621e-05 -2.519218924135202542e-06
9.970000000000000000e+02 1.707693290710449219e+01 2.170653915405273438e+01 7.075688336044549942e-05 -4.336709025665186346e-05 8.216938113037031144e-06 -7.536220073234289885e-05
9.980000000000000000e+02 1.656210136413574219e+01 2.106272888183593750e+01 -8.929263276513665915e-05 1.422995592292863876e-05 -2.251880141557194293e-05 4.445727608981542289e-05
9.990000000000000000e+02 1.633371734619140625e+01 2.022685050964355469e+01 6.335901707643643022e-05 -8.091963536571711302e-06 1.658011569816153497e-05 -3.633349842857569456e-05
1.000000000000000000e+03 1.462320709228515625e+01 1.743191719055175781e+01 7.127429853426292539e-05 -2.576320730440784246e-05 1.365332627756288275e-05 -2.534198756620753556e-05
1.001000000000000000e+03 1.659886169433593750e+01 1.567768478393554688e+01 1.529930159449577332e-05 3.317595474072732031e-05 1.454257744626374915e-05 -4.057269688928499818e-05
1.002000000000000000e+03 1.692434120178222656e+01 1.314554405212402344e+01 -4.561892274068668485e-05 -3.213524178136140108e-05 -2.332624899281654507e-05 -1.886808240669779480e-05
1.003000000000000000e+03 1.698189353942871094e+01 9.036194801330566406e+00 3.582067802199162543e-05 -8.553336556360591203e-06 8.180201803043019027e-06 -1.894922388601116836e-05
1.004000000000000000e+03 1.780731391906738281e+01 8.379340171813964844e+00 -4.701664147432893515e-05 5.647240868711378425e-06 -1.241082009073579684e-05 -1.701206997495319229e-06
1.005000000000000000e+03 1.648676109313964844e+01 6.317008495330810547e+00 -3.325326179037801921e-05 -7.323761565203312784e-06 -1.217310727952281013e-05 2.170935886169900186e-06
1.006000000000000000e+03 1.811140823364257812e+01 5.362555027008056641e+00 -2.063262581941671669e-05 -6.681100785499438643e-06 -8.194117981474846601e-06 -1.317868168371205684e-06
1.007000000000000000e+03 1.707663536071777344e+01 3.318836212158203125e+00 3.195113822584971786e-05 3.946039214497432113e-06 1.076915395969990641e-05 -2.172918584619765170e-06
1.008000000000000000e+03 1.710241889953613281e+01 1.403428673744201660e+00 -1.212095594382844865e-05 3.148150653942138888e-06 -2.691841473279055208e-06 -7.895955604908522218e-06
1.009000000000000000e+03 1.603387451171875000e+01 -8.294658064842224121e-01 2.809867146424949169e-05 -3.402366701266146265e-06 7.408891178783960640e-06 -1.011758558888686821e-05
1.010000000000000000e+03 1.639183616638183594e+01 -1.265635788440704346e-01 -1.812998675632115919e-06 9.020711331686470658e-06 2.162313649023417383e-06 -6.063170985726173967e-06
1.011000000000000000e+03 1.272022056579589844e+01 4.099396514892578125e+01 2.736457190621877089e-06 -2.265522925881668925e-05 -5.975631665933178738e-06 -3.796231248998083174e-05
1.012000000000000000e+03 1.298857593536376953e+01 3.798832702636718750e+01 3.874004323733970523e-05 1.692482555881724693e-06 1.212975803355220705e-05 6.427594780689105392e-05
1.013000000000000000e+03 1.491981124877929688e+01 2.710509681701660156e+01 -1.236910320585593581e-04 3.794481017393991351e-06 -3.596896567614749074e-05 -2.008055889746174216e-05
1.014000000000000000e+03 1.704960250854492188e+01 2.385036087036132812e+01 7.838408782845363021e-05 -4.961901140632107854e-05 8.629523108538705856e-06 1.580971002113074064e-05
1.015000000000000000e+03 1.617440414428710938e+01 2.259638404846191406e+01 2.005689020734280348e-05 -9.666671758168376982e-06 3.117065489277592860e-06 5.056979352957569063e-05
1.016000000000000000e+03 1.540643405914306641e+01 2.193525123596191406e+01 5.650971070281229913e-05 -1.207639161293627694e-05 1.332999545411439613e-05 -5.076436718809418380e-05
1.017000000000000000e+03 1.503751564025878906e+01 2.086653709411621094e+01 -6.265076808631420135e-05 -1.997566323552746326e-05 -2.478792885085567832e-05 2.990839857375249267e-05
1.018000000000000000e+03 1.480148792266845703e+01 1.975585174560546875e+01 5.828321809531189501e-05 6.557645974680781364e-06 1.945225812960416079e-05 -4.328533395892009139e-05
1.019000000000000000e+03 1.355501174926757812e+01 1.722890090942382812e+01 -4.868400355917401612e-05 1.891380088636651635e-05 -8.931061529438011348e-06 -3.184537854394875467e-05
1.020000000000000000e+03 1.497786331176757812e+01 1.514442348480224609e+01 5.512603456736542284e-05 7.574391474918229505e-06 1.881012758531142026e-05 -2.293784746143501252e-05
1.021000000000000000e+03 1.568834686279296875e+01 1.362200927734375000e+01 4.759390503750182688e-05 1.437568334949901327e-05 1.859087569755502045e-05 -1.242698817804921418e-05
1.022000000000000000e+03 1.498174190521240234e+01 1.061758518218994141e+01 6.281317155298893340e-07 2.074471740343142301e-05 6.411854883481282741e-06 2.119086639140732586e-05
1.023000000000000000e+03 1.437025642395019531e+01 9.334625244140625000e+00 1.537858952360693365e-05 3.050157829420641065e-05 1.376404998154612258e-05 1.478215017414186150e-05
1.024000000000000000e+03 1.438461112976074219e+01 8.399847030639648438e+00 -1.877960494311992079e-05 -2.301657332282047719e-05 -1.253885329788317904e-05 -2.972628863062709570e-05
1.025000000000000000e+03 1.480222702026367188e+01 6.621432781219482422e+00 -2.277092971780803055e-05 -4.826188614970305935e-06 -8.279135727207176387e-06 -2.543079426686745137e-05
1.026000000000000000e+03 1.594132041931152344e+01 5.289225101470947266e+00 4.531802551355212927e-05 -3.385325726412702352e-06 1.257980966329341754e-05 -2.293257421115413308e-05
1.027000000000000000e+03 1.441261768341064453e+01 4.153486251831054688e+00 -2.272427445859648287e-05 9.555284123052842915e-06 -3.950697191612562165e-06 -4.338844973972300068e-06
1.028000000000000000e+03 1.470989036560058594e+01 1.830281138420104980e+00 -4.043175067636184394e-06 6.799841685278806835e-06 8.270000648735731374e-07 -7.825225111446343362e-06
1.029000000000000000e+03 1.394762611389160156e+01 3.723915219306945801e-01 6.216843303263885900e-06 1.035465265886159614e-05 4.971448561263969168e-06 -8.545392120140604675e-06
1.030000000000000000e+03 1.533801078796386719e+01 -4.284328520298004150e-01 5.108614459459204227e-06 1.194891774503048509e-05 5.117259661346906796e-06 -6.990402653173077852e-06
1.031000000000000000e+03 5.221002101898193359e+00 4.032401657104492188e+01 4.500991781242191792e-05 4.828375676879659295e-05 2.798810237436555326e-05 -1.723199966363608837e-05
1.032000000000000000e+03 1.298093414306640625e+01 3.509358215332031250e+01 -9.561594924889504910e-05 -1.576609065523371100e-05 -3.341461342643015087e-05 -5.210771269048564136e-05
1.033000000000000000e+03 1.280046558380126953e+01 2.989343833923339844e+01 -1.233635266544297338e-04 1.159424391516949981e-05 -3.353078500367701054e-05 -2.612054049677681178e-05
1.034000000000000000e+03 1.525805091857910156e+01 2.525867271423339844e+01 8.991451613837853074e-05 -4.241890928824432194e-05 1.424868332833284512e-05 5.194742334424518049e-05
1.035000000000000000e+03 1.431295776367187500e+01 2.439241790771484375e+01 6.564015347976237535e-05 4.695068014370917808e-07 1.983289803320076317e-05 -3.682973692775703967e-05
1.036000000000000000e+03 1.395641040802001953e+01 2.288441467285156250e+01 -9.602433419786393642e-05 -2.770291075648856349e-06 -2.963838778669014573e-05 2.200168091803789139e-05
1.037000000000000000e+03 1.364110755920410156e+01 2.152029609680175781e+01 7.600263052154332399e-05 -8.559276466257870197e-06 2.023300658038351685e-05 -4.180621908744797111e-05
1.038000000000000000e+03 1.344928550720214844e+01 2.024575805664062500e+01 -7.122084207367151976e-05 -1.301881093240808696e-05 -2.527189462853129953e-05 1.819714452722109854e-05
1.039000000000000000e+03 1.208936405181884766e+01 1.923872756958007812e+01 -6.398410914698615670e-05 2.789873633446404710e-06 -1.835827060858719051e-05 -3.287405706942081451e-05
1.040000000000000000e+03 1.264031314849853516e+01 1.668777847290039062e+01 6.239420144993346184e-06 -8.711065675015561283e-06 -7.414936362692969851e-07 4.948057267029071227e-06
1.041000000000000000e+03 1.357777404785156250e+01 1.462092971801757812e+01 4.579318192554637790e-05 3.351668283357867040e-06 1.474345481256023049e-05 -1.184432403533719480e-05
1.042000000000000000e+03 1.397859859466552734e+01 1.317049980163574219e+01 5.078155663795769215e-05 -1.524318236079125199e-06 1.477717160014435649e-05 -1.233310285897459835e-05
1.043000000000000000e+03 1.425841331481933594e+01 1.155142784118652344e+01 4.297526174923405051e-05 -1.356515076622599736e-05 8.823033567750826478e-06 -3.041390482394490391e-05
1.044000000000000000e+03 1.321313190460205078e+01 6.293783664703369141e+00 -1.409540163876954466e-05 2.369027242821175605e-06 -3.517912318784510717e-06 -5.845162831974448636e-06
1.045000000000000000e+03 1.228019237518310547e+01 4.994434833526611328e+00 -1.862016506493091583e-05 1.045158660417655483e-05 -2.450573447276838124e-06 -1.078860532288672403e-05
1.046000000000000000e+03 1.340575122833251953e+01 3.958782672882080078e+00 -1.484742097090929747e-05 9.763401067175436765e-06 -1.525205789221217856e-06 -8.294132385344710201e-06
1.047000000000000000e+03 1.243212509155273438e+01 1.181292057037353516e+00 5.532067461899714544e-06 6.417907570721581578e-06 3.584992555261123925e-06 -9.220990250469185412e-06
1.048000000000000000e+03 1.162750244140625000e+01 2.419065952301025391e+00 3.609340637922286987e-06 3.154055775667075068e-06 2.029018787652603351e-06 -1.295933634537504986e-05
1.049000000000000000e+03 9.495682716369628906e+00 3.825326538085937500e+01 -1.605785291758365929e-05 -1.679253728070762008e-05 -9.855117241386324167e-06 -3.500996899674646556e-05
1.050000000000000000e+03 9.989577293395996094e+00 3.547027206420898438e+01 4.357339639682322741e-05 2.574932295829057693e-05 2.079681507893837988e-05 4.957383498549461365e-05
1.051000000000000000e+03 1.287694263458251953e+01 3.240806961059570312e+01 9.956983558367937803e-05 -2.017668521148152649e-05 2.381794365646783262e-05 3.785084481933154166e-05
1.052000000000000000e+03 1.275787067413330078e+01 2.747378540039062500e+01 1.015363159240223467e-04 -2.148886233044322580e-05 2.401423625997267663e-05 3.984554950875462964e-06
1.053000000000000000e+03 1.254647541046142578e+01 2.532157897949218750e+01 -1.152460026787593961e-04 9.562701052345801145e-06 -3.170498894178308547e-05 -1.603756004442402627e-06
1.054000000000000000e+03 1.224302864074707031e+01 2.355999565124511719e+01 9.543101623421534896e-05 -1.070114285539602861e-05 2.541896174079738557e-05 -2.051867886621039361e-05
1.055000000000000000e+03 1.209273815155029297e+01 2.201771926879882812e+01 -1.030526473186910152e-04 1.611310108273755759e-05 -2.608186332508921623e-05 3.246453843530616723e-06
1.056000000000000000e+03 1.195812606811523438e+01 2.056409835815429688e+01 8.260416507255285978e-05 -7.915064088592771441e-06 2.240672984044067562e-05 -1.370170866721309721e-05
1.057000000000000000e+03 1.094275951385498047e+01 1.870300102233886719e+01 -4.110224381292937323e-06 1.092722322937333956e-05 2.045099790848325938e-06 1.623418211238458753e-05
1.058000000000000000e+03 1.095208930969238281e+01 1.688395500183105469e+01 -1.609999162610620260e-05 4.596017333824420348e-06 -3.451192469583475031e-06 -5.506140041688922793e-07
1.059000000000000000e+03 1.201056385040283203e+01 1.449498271942138672e+01 2.938302350230515003e-05 6.481874947894539218e-07 9.009363566292449832e-06 -1.403393252985551953e-05
1.060000000000000000e+03 1.219926643371582031e+01 1.295079612731933594e+01 3.326842488604597747e-05 -1.123652168644184712e-06 9.643432349548675120e-06 -1.910928222059737891e-05
1.061000000000000000e+03 1.236048793792724609e+01 1.134762477874755859e+01 4.344889748608693480e-05 -1.883173240457836073e-06 1.246971805812790990e-05 -1.937024535436648875e-05
1.062000000000000000e+03 1.199508571624755859e+01 9.482642173767089844e+00 3.806183303822763264e-05 -7.002309303061338142e-06 9.317857802670914680e-06 -4.409791472426149994e-06
1.063000000000000000e+03 1.165098571777343750e+01 7.626068115234375000e+00 1.379880541207967326e-05 -1.648901343287434429e-05 -8.070622357081447262e-07 -1.923724630614742637e-05
1.064000000000000000e+03 1.102462673187255859e+01 5.923173904418945312e+00 -2.475546898494940251e-05 1.455381243431475013e-05 -3.060496737816720270e-06 -7.017968528089113533e-06
1.065000000000000000e+03 1.187680149078369141e+01 4.378115653991699219e+00 3.206878318451344967e-05 -1.202708403980068397e-06 9.259822036256082356e-06 -4.897802682535257190e-06
1.066000000000000000e+03 1.148243427276611328e+01 3.189769983291625977e+00 2.097986180160660297e-05 6.330907581286737695e-06 8.193231224140617996e-06 -3.052634156119893305e-06
1.067000000000000000e+03 9.980713844299316406e+00 1.844812035560607910e+00 1.999351843551266938e-05 6.545256837853230536e-06 7.961632945807650685e-06 -2.735975158429937437e-06
1.068000000000000000e+03 1.075834083557128906e+01 1.707461118698120117e+00 4.906117737846216187e-06 3.955330157623393461e-06 2.658434368640882894e-06 -1.080016409105155617e-05
1.069000000000000000e+03 1.028494834899902344e+01 3.272969055175781250e+01 -7.085008110152557492e-05 -4.551326128421351314e-06 -2.262042289657983929e-05 -5.009456072002649307e-05
1.070000000000000000e+03 1.057118701934814453e+01 3.019458198547363281e+01 7.383467891486361623e-05 1.722424258332466707e-06 2.266712908749468625e-05 3.917555659427307546e-05
1.071000000000000000e+03 1.064167976379394531e+01 2.789243507385253906e+01 -9.334379865322262049e-05 7.628638741152826697e-06 -2.571454933786299080e-05 -3.740526517503894866e-05
1.072000000000000000e+03 1.053973484039306641e+01 2.581897735595703125e+01 9.403875446878373623e-05 -6.694042440358316526e-06 2.620341365400236100e-05 1.620711009309161454e-05
1.073000000000000000e+03 1.035949707031250000e+01 2.394755744934082031e+01 -9.964728815248236060e-05 1.290725413127802312e-05 -2.602201129775494337e-05 -2.506442615413106978e-05
1.074000000000000000e+03 1.045847129821777344e+01 2.230979156494140625e+01 8.529357728548347950e-05 -1.021725074679125100e-05 2.252289959869813174e-05 1.161606974164897110e-06
1.075000000000000000e+03 9.219635963439941406e+00 2.181938743591308594e+01 3.493792974040843546e-05 -4.718431227956898510e-06 9.065849553735461086e-06 -2.423468868073541671e-05
1.076000000000000000e+03 8.884717941284179688e+00 1.874664306640625000e+01 -1.996104947465937585e-05 6.793165539420442656e-06 -3.950365226046415046e-06 5.844937732035759836e-06
1.077000000000000000e+03 9.097041130065917969e+00 1.688787651062011719e+01 -2.069089714495930821e-05 5.402903298090677708e-06 -4.586398517858469859e-06 8.740438488530344330e-07
1.078000000000000000e+03 9.374060630798339844e+00 1.520037078857421875e+01 -1.944217365235090256e-05 1.097283075068844482e-06 -5.503467491507763043e-06 -7.940411705931182951e-06
1.079000000000000000e+03 1.039494323730468750e+01 1.287080574035644531e+01 1.864424484665505588e-05 -8.210172381950542331e-07 5.346968009689589962e-06 -2.119850432791281492e-05
1.080000000000000000e+03 1.021091747283935547e+01 1.126192474365234375e+01 -2.177883743570419028e-06 -1.156568259830237366e-06 -1.000335601020196918e-06 -3.083284536842256784e-05
1.081000000000000000e+03 9.421737670898437500e+00 9.859957695007324219e+00 -1.983726360776927322e-05 -3.381738679308909923e-06 -6.965700777072925121e-06 -2.285537084389943630e-05
1.082000000000000000e+03 8.941742897033691406e+00 7.866745948791503906e+00 2.716277049330528826e-05 1.286137376155238599e-05 1.200724364025518298e-05 9.719471563585102558e-06
1.083000000000000000e+03 8.460870742797851562e+00 6.561814785003662109e+00 -2.351424700464121997e-05 8.929206160246394575e-06 -4.375512162368977442e-06 -2.796805893012788147e-05
1.084000000000000000e+03 1.057719326019287109e+01 5.097101688385009766e+00 3.254507100791670382e-05 4.408367203723173589e-06 1.108603100874461234e-05 -3.558961907401680946e-06
1.085000000000000000e+03 1.017573928833007812e+01 3.358384370803833008e+00 2.485395634721498936e-05 6.713145467074355111e-06 9.470129953115247190e-06 -2.883765546357608400e-06
1.086000000000000000e+03 7.017430305480957031e+00 2.816867589950561523e+00 -1.807174385248799808e-06 -6.629858489759499207e-06 -2.531109885239857249e-06 -7.540370006609009579e-06
1.087000000000000000e+03 9.236239433288574219e+00 1.879801750183105469e+00 2.761232053671847098e-06 8.500100534547527786e-07 1.083372580978902988e-06 -1.230363795912126079e-05
1.088000000000000000e+03 7.587600231170654297e+00 3.576905441284179688e+01 -3.930981256416998804e-05 -2.549853525124490261e-05 -1.944250470842234790e-05 -1.822880221880041063e-05
1.089000000000000000e+03 6.911905288696289062e+00 3.421926116943359375e+01 7.344815821852535009e-05 1.546739895275095478e-06 2.249846875201910734e-05 -2.156560549337882549e-05
1.090000000000000000e+03 8.060221672058105469e+00 3.241028594970703125e+01 -1.006392994895577431e-05 3.707666473928838968e-05 8.103820618998724967e-06 2.923053580161649734e-05
1.091000000000000000e+03 8.527929306030273438e+00 3.019098281860351562e+01 -3.737820952665060759e-05 -9.271025191992521286e-06 -1.399477059749187902e-05 -4.399695535539649427e-05
1.092000000000000000e+03 8.663455009460449219e+00 2.811094284057617188e+01 5.408005017670802772e-05 1.958611028385348618e-05 2.209984813816845417e-05 2.865229362214449793e-05
1.093000000000000000e+03 8.596846580505371094e+00 2.617113304138183594e+01 -7.659841503482311964e-05 1.120088381867390126e-05 -1.961925954674370587e-05 -3.274527261964976788e-05
1.094000000000000000e+03 8.388762474060058594e+00 2.436055183410644531e+01 7.370934326900169253e-05 1.116435305448248982e-05 2.546210816944949329e-05 4.762260687130037695e-06
1.095000000000000000e+03 7.843947887420654297e+00 2.279254722595214844e+01 -7.220276893349364400e-05 2.705062615859787911e-05 -1.354564301436766982e-05 -3.856451257888693362e-06
1.096000000000000000e+03 7.096576690673828125e+00 2.149299430847167969e+01 5.209093069424852729e-05 7.596389423270011321e-06 1.790619535313453525e-05 -1.620633338461630046e-05
1.097000000000000000e+03 7.680173873901367188e+00 1.959389686584472656e+01 3.381206988706253469e-05 7.144039955164771527e-06 1.228683231602190062e-05 -2.696886986086610705e-05
1.098000000000000000e+03 7.167420864105224609e+00 1.709306716918945312e+01 1.654918742133304477e-05 6.572310667252168059e-06 6.936449608474504203e-06 5.133234026288846508e-06
1.099000000000000000e+03 7.745744705200195312e+00 1.493980884552001953e+01 -1.787647670425940305e-05 2.108239641529507935e-06 -4.730471118818968534e-06 5.543525389839487616e-07
1.100000000000000000e+03 7.795211791992187500e+00 1.356293582916259766e+01 -2.840031129380804487e-06 2.970660716528072953e-06 3.918891877674468560e-08 6.787491201976081356e-06
1.101000000000000000e+03 7.564802646636962891e+00 1.096397781372070312e+01 9.231071089743636549e-06 -1.209846459460095502e-06 2.406367229923489504e-06 1.303679619013564661e-05
1.102000000000000000e+03 8.215690612792968750e+00 9.463217735290527344e+00 2.560073698987253010e-05 9.147092896455433220e-06 1.042434905684785917e-05 -2.201493316533742473e-06
1.103000000000000000e+03 8.645912170410156250e+00 8.663737297058105469e+00 -1.618287751625757664e-05 -1.638167873352358583e-06 -5.346313628251664340e-06 -2.585975380497984588e-05
1.104000000000000000e+03 6.920763492584228516e+00 7.566178798675537109e+00 6.080806542740901932e-06 8.242582225648220628e-06 4.297016403143061325e-06 -1.354596224700799212e-05
1.105000000000000000e+03 8.236160278320312500e+00 5.245156764984130859e+00 -7.908470252004917711e-06 -3.902797743648989126e-06 -3.543380444170907140e-06 -1.891835199785418808e-05
1.106000000000000000e+03 8.868550300598144531e+00 4.377219200134277344e+00 -5.547001364902826026e-06 -3.484490662231110036e-06 -2.709447471715975553e-06 -2.016186772380024195e-05
1.107000000000000000e+03 6.994678974151611328e+00 1.937893629074096680e+00 1.436818729416700080e-05 7.057812581479083747e-06 6.427800144592765719e-06 -3.429704747759387828e-06
1.108000000000000000e+03 7.749195098876953125e+00 1.924760818481445312e+00 2.050104740192182362e-06 -4.098460976820206270e-06 -6.145069164631422609e-07 -8.049036296142730862e-06
1.109000000000000000e+03 5.892351150512695312e+00 3.573659896850585938e+01 -4.633657954400405288e-05 6.970742106204852462e-05 7.011251454969169572e-06 -1.227290340466424823e-05
1.110000000000000000e+03 4.275916099548339844e+00 3.552184295654296875e+01 -1.652790706430096179e-05 2.070915434160269797e-05 1.254374410564196296e-06 -6.323196430457755923e-06
1.111000000000000000e+03 6.243351936340332031e+00 3.180869102478027344e+01 -7.776179700158536434e-06 1.910098944790661335e-05 3.397442696950747631e-06 -8.531223102181684226e-06
1.112000000000000000e+03 6.616334438323974609e+00 3.004586410522460938e+01 1.277865067095262930e-05 3.845356695819646120e-05 1.536966556159313768e-05 8.211241038225125521e-06
1.113000000000000000e+03 6.746529102325439453e+00 2.824009132385253906e+01 -3.545619620126672089e-05 5.024094662076095119e-06 -9.129630598181392998e-06 -2.701100311242043972e-05
1.114000000000000000e+03 6.693028450012207031e+00 2.649515151977539062e+01 4.463994991965591908e-05 2.801555456244386733e-05 2.179665170842781663e-05 1.467908896302105859e-05
1.115000000000000000e+03 6.482595920562744141e+00 2.488155174255371094e+01 -6.080240200390107930e-05 1.689970667939633131e-05 -1.317080841545248404e-05 -2.983852573379408568e-05
1.116000000000000000e+03 6.111783981323242188e+00 2.343730926513671875e+01 6.562228372786194086e-05 9.588338798494078219e-06 2.256318657600786537e-05 6.626098638662369922e-06
1.117000000000000000e+03 5.131519794464111328e+00 2.096900749206542969e+01 4.866583185503259301e-05 1.493413674324983731e-05 1.907999103423207998e-05 -5.884099209652049467e-06
1.118000000000000000e+03 5.694499015808105469e+00 1.926521110534667969e+01 3.131988705717958510e-05 1.728082315821666270e-05 1.458021324651781470e-05 -2.071824383165221661e-05
1.119000000000000000e+03 6.261754989624023438e+00 1.776361274719238281e+01 1.593495653651189059e-05 2.640918864926788956e-05 1.270324355573393404e-05 -3.116661173407919705e-05
1.120000000000000000e+03 6.043164730072021484e+00 1.581851577758789062e+01 -1.736149715725332499e-05 2.125445234923972748e-06 -4.570815235638292506e-06 -4.409510438563302159e-06
1.121000000000000000e+03 6.944466114044189453e+00 1.289814281463623047e+01 -5.358150247047888115e-06 1.917726149258669466e-05 4.145733328186906874e-06 -3.248622306273318827e-05
1.122000000000000000e+03 5.331295967102050781e+00 1.027679443359375000e+01 -4.407955657370621338e-06 2.402475729468278587e-05 5.885040536668384448e-06 -1.434711703041102737e-05
1.123000000000000000e+03 6.198863506317138672e+00 8.131289482116699219e+00 2.528224285924807191e-06 -5.006343144486891106e-06 -7.434356916746764909e-07 4.024560666948673315e-07
1.124000000000000000e+03 5.919995307922363281e+00 5.918283939361572266e+00 1.282577068195678294e-05 2.232260885648429394e-05 1.054451331583550200e-05 -1.599200732016470283e-05
1.125000000000000000e+03 6.441037178039550781e+00 4.738580703735351562e+00 1.753897413436789066e-05 1.479389175074175000e-05 9.699860129330772907e-06 -8.021233043109532446e-06
1.126000000000000000e+03 5.514935970306396484e+00 1.887570023536682129e+00 9.463414244237355888e-06 9.957892871170770377e-06 5.826392225571908057e-06 -1.684728772488597315e-06
1.127000000000000000e+03 6.243793964385986328e+00 1.930899739265441895e+00 -1.948180624822271056e-06 -5.570727353187976405e-06 -2.255672370665706694e-06 -6.042911991244181991e-06
1.128000000000000000e+03 2.065834283828735352e+00 4.163977050781250000e+01 -2.197746471210848540e-05 4.902246655547060072e-05 8.113500371109694242e-06 -7.542219918832415715e-06
1.129000000000000000e+03 6.878873825073242188e+00 3.801917266845703125e+01 -1.099156634154496714e-05 2.469473656674381346e-05 4.110951067559653893e-06 9.844954547588713467e-06
1.130000000000000000e+03 5.173557281494140625e+00 3.746897506713867188e+01 1.304030320170568302e-05 4.301527224015444517e-05 1.681667345110327005e-05 2.274970483995275572e-06
1.131000000000000000e+03 3.855570077896118164e+00 3.695834732055664062e+01 -7.598964657518081367e-06 4.481153519009239972e-05 1.116377188736805692e-05 3.683184331748634577e-06
1.132000000000000000e+03 4.238461971282958984e+00 3.415571975708007812e+01 4.549631557893007994e-05 4.825069117941893637e-05 2.812410093611106277e-05 1.674258055572863668e-05
1.133000000000000000e+03 4.205571174621582031e+00 3.292798995971679688e+01 -3.622080112108960748e-05 5.394527033786289394e-05 5.317341219779336825e-06 -5.516561486729187891e-06
1.134000000000000000e+03 4.502377033233642578e+00 3.153849792480468750e+01 1.764166154316626489e-05 2.916115954576525837e-05 1.404084559908369556e-05 -6.666797162324655801e-06
1.135000000000000000e+03 4.728265762329101562e+00 2.998737144470214844e+01 -1.971306664927396923e-05 2.259057509945705533e-05 8.632525236862420570e-07 -3.878047664329642430e-06
1.136000000000000000e+03 4.825562477111816406e+00 2.838682174682617188e+01 1.998708830797113478e-05 4.055642784805968404e-05 1.816305484680924565e-05 2.157285734938341193e-06
1.137000000000000000e+03 4.784223079681396484e+00 2.681697845458984375e+01 -3.286185165052302182e-05 1.974354017875157297e-05 -3.935494078177725896e-06 -2.010277239605784416e-05
1.138000000000000000e+03 4.375591754913330078e+00 2.392658996582031250e+01 -5.379275171435438097e-05 3.279639713582582772e-05 -6.298906100710155442e-06 -2.513150684535503387e-05
1.139000000000000000e+03 4.070147514343261719e+00 2.263101959228515625e+01 5.483437780640088022e-05 1.900562529044691473e-05 2.215200038335751742e-05 7.455455033777980134e-06
1.140000000000000000e+03 4.582632064819335938e+00 1.990156173706054688e+01 -2.912342824856750667e-05 3.331450716359540820e-05 1.257324356629396789e-06 -7.664169970666989684e-06
1.141000000000000000e+03 4.650888919830322266e+00 1.742645645141601562e+01 2.288379619130864739e-05 1.213035102409776300e-05 1.050424452841980383e-05 -3.649671998573467135e-05
1.142000000000000000e+03 5.210230350494384766e+00 1.625206184387207031e+01 6.011852292431285605e-06 4.022494613309390843e-05 1.387103930028388277e-05 -1.361264730803668499e-05
1.143000000000000000e+03 6.165308952331542969e+00 1.358235549926757812e+01 1.549253647681325674e-05 1.108760557144705672e-06 4.980389348929747939e-06 1.069035624823300168e-05
1.144000000000000000e+03 4.569890499114990234e+00 1.100724029541015625e+01 -8.284395676128042396e-07 1.621840624466130976e-06 2.380203198981689638e-07 -1.693289959803223610e-05
1.145000000000000000e+03 4.471761703491210938e+00 7.914505004882812500e+00 4.905199602944776416e-06 -9.679304639576002955e-06 -1.432231556464103051e-06 -1.171324925053340849e-06
1.146000000000000000e+03 4.110049724578857422e+00 6.125909328460693359e+00 1.239120774698676541e-05 8.791939762886613607e-06 6.354944162012543529e-06 -7.979348993103485554e-06
1.147000000000000000e+03 4.730227947235107422e+00 5.401765823364257812e+00 1.636374872759915888e-05 9.131281331065110862e-06 7.648509381397161633e-06 -1.831260669860057533e-05
1.148000000000000000e+03 4.973325729370117188e+00 3.227280378341674805e+00 -1.267408424610039219e-05 -1.277614160244411323e-06 -4.185509624221595004e-06 -4.016505386061908212e-07
1.149000000000000000e+03 1.904960274696350098e+00 2.015611171722412109e+00 -9.254701467398263048e-07 -8.446704669040627778e-06 -2.811652393575059250e-06 3.675624384413822554e-06
1.150000000000000000e+03 4.084129333496093750e+00 1.850509643554687500e+00 8.711761438462417573e-06 9.256552402803208679e-06 5.390494152379687876e-06 -4.108555003767833114e-06
1.151000000000000000e+03 3.504340887069702148e+00 2.610267639160156250e+00 8.352561962965410203e-06 9.645775207900442183e-06 5.399501333158696070e-06 -3.314062951176310889e-06
1.152000000000000000e+03 3.742950201034545898e+00 3.906098556518554688e+01 -3.239499346818774939e-05 3.658543937490321696e-05 1.257134158549888525e-06 1.994206286326516420e-05
1.153000000000000000e+03 2.850666761398315430e+00 3.803666687011718750e+01 4.020642154500819743e-05 5.319294359651394188e-05 2.801980917865876108e-05 -1.236028037965297699e-05
1.154000000000000000e+03 2.556172847747802734e+00 3.569540786743164062e+01 2.340703031222801656e-05 5.650470484397374094e-05 2.397352000116370618e-05 -7.657773494429420680e-06
1.155000000000000000e+03 2.566063165664672852e+00 3.436280822753906250e+01 -3.018354982486926019e-05 3.417842526687309146e-05 1.198462996399030089e-06 -4.052011718158610165e-06
1.156000000000000000e+03 2.604609012603759766e+00 3.299373626708984375e+01 3.109351382590830326e-05 3.835672760033048689e-05 2.083507206407375634e-05 4.242390787112526596e-06
1.157000000000000000e+03 2.725539207458496094e+00 3.156406402587890625e+01 -2.601585947559215128e-05 4.672690556617453694e-05 6.213313554326305166e-06 2.856392484318348579e-06
1.158000000000000000e+03 2.840056657791137695e+00 3.009682655334472656e+01 1.546063867863267660e-05 4.508467827690765262e-05 1.816359508666209877e-05 -7.496813395846402273e-06
1.159000000000000000e+03 2.869615554809570312e+00 2.714658927917480469e+01 1.967954631254542619e-05 4.251646532793529332e-05 1.865880221885163337e-05 2.787284074656781740e-06
1.160000000000000000e+03 2.770499229431152344e+00 2.571682357788085938e+01 -2.992254303535446525e-05 3.569010004866868258e-05 1.730267285893205553e-06 -1.647624958422966301e-05
1.161000000000000000e+03 2.620446681976318359e+00 2.433242416381835938e+01 4.130504748900420964e-05 3.264056067564524710e-05 2.218368354078847915e-05 1.003556462819688022e-05
1.162000000000000000e+03 2.255705833435058594e+00 1.912387657165527344e+01 6.321189721347764134e-05 2.966496140288654715e-05 2.786305776680819690e-05 1.129346287598309573e-06
1.163000000000000000e+03 3.521864652633666992e+00 1.505126190185546875e+01 -2.624963599373586476e-05 1.689166128926444799e-05 -2.807392547765630297e-06 -3.903308606822974980e-05
1.164000000000000000e+03 4.469785690307617188e+00 1.395274925231933594e+01 2.031119947787374258e-05 1.981824425456579775e-05 1.203883311973186210e-05 1.396001425746362656e-05
1.165000000000000000e+03 2.313485622406005859e+00 1.183766651153564453e+01 -4.340873056207783520e-05 7.625144462508615106e-06 -1.073507610271917656e-05 1.852698972015787149e-07
1.166000000000000000e+03 2.317538499832153320e+00 1.049089145660400391e+01 4.153691043029539287e-05 1.246905867446912453e-05 1.620179136807564646e-05 -9.840716302278451622e-06
1.167000000000000000e+03 2.306653738021850586e+00 9.167819023132324219e+00 -3.674332037917338312e-05 5.554898962145671248e-06 -9.356526788906194270e-06 -6.145339739305200055e-06
1.168000000000000000e+03 3.542954444885253906e+00 7.125055789947509766e+00 -9.117911758949048817e-06 1.523296214145375416e-05 1.834515046539308969e-06 -1.273926227440824732e-05
1.169000000000000000e+03 1.590605854988098145e+00 5.107418537139892578e+00 1.779809281288180500e-05 1.062526644091121852e-05 8.527007594238966703e-06 -7.773164725222159177e-06
1.170000000000000000e+03 3.091304063796997070e+00 3.472952365875244141e+00 1.114533552026841789e-05 6.150424269435461611e-06 5.188727755012223497e-06 -6.251068043638952076e-06
1.171000000000000000e+03 2.639047384262084961e+00 1.932953000068664551e+00 4.055380941281327978e-06 1.015874204313149676e-05 4.264236849849112332e-06 -3.729613354153116234e-06
1.172000000000000000e+03 1.410085201263427734e+00 4.007733917236328125e+01 4.966466440237127244e-05 4.319903382565826178e-05 2.785910874081309885e-05 -4.848831849812995642e-06
1.173000000000000000e+03 1.057834506034851074e+00 3.871018218994140625e+01 -5.489760587806813419e-05 4.391661423142068088e-05 -3.294297584943706170e-06 1.387658994644880295e-05
1.174000000000000000e+03 8.636560440063476562e-01 3.598149490356445312e+01 -3.579027543310075998e-05 4.740809890790842474e-05 3.485347178866504692e-06 1.043303927872329950e-05
1.175000000000000000e+03 8.647602200508117676e-01 3.459336471557617188e+01 2.622420288389548659e-05 5.580079960054717958e-05 2.460750147292856127e-05 -3.165665020787855610e-06
1.176000000000000000e+03 8.814226984977722168e-01 3.318756484985351562e+01 -2.483752723492216319e-05 5.287842577672563493e-05 8.412270290136802942e-06 6.854465368633100297e-07
1.177000000000000000e+03 9.165023565292358398e-01 3.176440238952636719e+01 2.276765371789224446e-05 5.175981641514226794e-05 2.235824103991035372e-05 -3.426411012696917169e-06
1.178000000000000000e+03 9.479941129684448242e-01 3.033854675292968750e+01 -1.584866731718648225e-05 5.026986764278262854e-05 1.032636100717354566e-05 3.565165343388798647e-06
1.179000000000000000e+03 9.573487639427185059e-01 2.748277473449707031e+01 -5.702614089386770502e-06 4.773285036208108068e-05 1.260907083633355796e-05 -3.191966698068426922e-06
1.180000000000000000e+03 9.231999516487121582e-01 2.607145881652832031e+01 1.261919715034309775e-05 4.683236329583451152e-05 1.783546940714586526e-05 2.451260343150352128e-06
1.181000000000000000e+03 8.715339303016662598e-01 2.467295455932617188e+01 -2.729103107412811369e-05 4.529587386059574783e-05 5.401452654041349888e-06 -5.552880793402437121e-06
1.182000000000000000e+03 8.128265142440795898e-01 2.328857040405273438e+01 4.545279080048203468e-05 4.098682256881147623e-05 2.593188401078805327e-05 1.307060415456362534e-06
1.183000000000000000e+03 2.278455734252929688e+00 2.170715522766113281e+01 5.707743912353180349e-05 2.728387698880396783e-05 2.530839446990285069e-05 6.923852652107598260e-06
1.184000000000000000e+03 7.656152844429016113e-01 1.913327407836914062e+01 -6.799410039093345404e-05 3.323544660815969110e-05 -1.042759504343848675e-05 8.482366524731332902e-07
1.185000000000000000e+03 8.517389893531799316e-01 1.772683334350585938e+01 6.416333781089633703e-05 2.983295053127221763e-05 2.819888686644844711e-05 -4.730896307592047378e-06
1.186000000000000000e+03 9.895809888839721680e-01 1.626319313049316406e+01 -6.075148121453821659e-05 2.571810546214692295e-05 -1.051001254381844774e-05 -6.643882670687162317e-07
1.187000000000000000e+03 9.415104389190673828e-01 1.479313564300537109e+01 6.444416067097336054e-05 1.866800084826536477e-05 2.493364809197373688e-05 -1.174774570245062932e-05
1.188000000000000000e+03 7.689680457115173340e-01 1.200685024261474609e+01 4.860194530920125544e-05 2.077158569591119885e-05 2.081206002912949771e-05 -9.834688171395100653e-06
1.189000000000000000e+03 7.677893638610839844e-01 1.061786651611328125e+01 -4.352203177404589951e-05 1.292699107580119744e-05 -9.178512300422880799e-06 2.395088131379452534e-06
1.190000000000000000e+03 7.906628847122192383e-01 9.188481330871582031e+00 3.978693348472006619e-05 1.010987853078404441e-05 1.496904314990388229e-05 -5.890238298889016733e-06
1.191000000000000000e+03 6.874886751174926758e-01 7.762007713317871094e+00 -3.695052510011009872e-05 8.481338227284140885e-06 -8.540756425645668060e-06 5.533554940484464169e-06
1.192000000000000000e+03 5.486315488815307617e-01 6.392623424530029297e+00 3.182704676873981953e-05 5.843355666002025828e-06 1.130112104874569923e-05 -9.200523891195189208e-06
1.193000000000000000e+03 4.762166142463684082e-01 3.593365430831909180e+00 1.326333131146384403e-05 1.828229073908005375e-06 4.527468263404443860e-06 -3.757927970582386479e-06
1.194000000000000000e+03 1.154901623725891113e+00 2.116402864456176758e+00 3.518753828757326119e-06 7.216346148197771981e-06 3.220530061298632063e-06 -4.486899342737160623e-06
1.195000000000000000e+03 2.120101213455200195e+00 2.983782529830932617e+00 3.614921979533392005e-06 1.006949423754122108e-05 4.105324933334486559e-06 -4.665354936150833964e-06
1.196000000000000000e+03 3.876312077045440674e-01 2.187789440155029297e+00 -9.522430445940699428e-06 -2.103191718560992740e-06 -3.487686626613140106e-06 1.490159775130450726e-06
1.197000000000000000e+03 4.319671630859375000e+01 -1.969197845458984375e+01 2.558720780143630691e-06 2.184770210078568198e-06 1.423047251591924578e-06 1.166065786151193606e-07
1.198000000000000000e+03 4.409016036987304688e+01 -1.846054077148437500e+01 -4.732071829494088888e-06 -2.070107257168274373e-06 -2.040653725998708978e-06 -1.189739350593299605e-06
1.199000000000000000e+03 4.409432983398437500e+01 -1.731788635253906250e+01 -9.949970262823626399e-06 -1.864653654592984822e-06 -3.544387027432094328e-06 -5.343119937606388703e-07
1.200000000000000000e+03 4.507684707641601562e+01 -1.441935825347900391e+01 -5.803225349154672585e-07 -4.922359948977828026e-06 -1.650804733799304813e-06 -3.715197181008988991e-06
1.201000000000000000e+03 4.434268569946289062e+01 -1.448510742187500000e+01 5.909485480515286326e-06 1.364816671411972493e-05 5.867295840289443731e-06 3.101840320596238598e-06
1.202000000000000000e+03 4.512732315063476562e+01 -9.994211196899414062e+00 -1.182316282211104408e-05 -1.373278610117267817e-05 -7.666784767934586853e-06 -4.997135420126141980e-06
1.203000000000000000e+03 4.469410705566406250e+01 -8.226866722106933594e+00 5.969958237983519211e-06 9.544735803501680493e-06 4.654408257920295000e-06 -9.274173862650059164e-06
1.204000000000000000e+03 4.392876815795898438e+01 -6.977701663970947266e+00 1.819447970774490386e-05 3.519968458931543864e-06 6.514334472740301862e-06 -5.876956038264324889e-06
1.205000000000000000e+03 4.367579269409179688e+01 -4.348643302917480469e+00 -2.098026925523299724e-05 6.283758466452127323e-06 -4.408952918311115354e-06 -7.255928835547820199e-08
1.206000000000000000e+03 4.484739303588867188e+01 -2.378893136978149414e+00 -1.098053871828597039e-06 -9.311669600720051676e-06 -3.122916950815124437e-06 -6.665992259513586760e-06
1.207000000000000000e+03 4.498065948486328125e+01 -9.159960150718688965e-01 2.933060204668436199e-05 1.206895740324398503e-05 1.241986774402903393e-05 6.373103587975492701e-06
1.208000000000000000e+03 4.423991012573242188e+01 -1.742759346961975098e-02 -1.670936217124108225e-05 -1.084233099390985444e-05 -8.265507858595810831e-06 -4.278464984963648021e-06
1.209000000000000000e+03 4.446159362792968750e+01 1.923307657241821289e+00 -4.995417111786082387e-05 -9.556111763231456280e-06 -1.785308450052980334e-05 -2.893965574912726879e-05
1.210000000000000000e+03 4.515388870239257812e+01 3.902677059173583984e+00 -6.767902232240885496e-05 -2.886754919018130749e-05 -2.896397018048446625e-05 -3.715549610205926001e-05
1.211000000000000000e+03 4.448436355590820312e+01 5.126018047332763672e+00 7.368977094301953912e-05 4.018810068373568356e-05 3.416336039663292468e-05 5.157019404578022659e-05
1.212000000000000000e+03 4.376982498168945312e+01 6.353655338287353516e+00 -9.622015932109206915e-05 -3.200301580363884568e-05 -3.846695472020655870e-05 -6.550094985868781805e-05
1.213000000000000000e+03 4.296488952636718750e+01 7.632725715637207031e+00 1.264016609638929367e-04 1.480345872550969943e-05 4.236153836245648563e-05 5.947447789367288351e-05
1.214000000000000000e+03 4.531277847290039062e+01 -1.880959892272949219e+01 -3.738182158485869877e-06 -3.178804945491719991e-06 -2.075096062981174327e-06 -1.112368408939801157e-06
1.215000000000000000e+03 4.612886428833007812e+01 -1.859210586547851562e+01 3.529587047523818910e-06 1.642622578401642386e-06 1.551662876408954617e-06 -3.370258809809456579e-07
1.216000000000000000e+03 4.688791656494140625e+01 -1.758960151672363281e+01 6.009921435179421678e-06 -9.774661293704411946e-07 1.509736648586113006e-06 -1.193563647916562331e-08
1.217000000000000000e+03 4.678091430664062500e+01 -1.492573261260986328e+01 -1.219636942551005632e-05 3.548716676959884353e-06 -2.594295892777154222e-06 -7.827692343198577873e-07
1.218000000000000000e+03 4.513097381591796875e+01 -1.188625717163085938e+01 8.589690878579858691e-06 5.060972853243583813e-06 4.095199074072297662e-06 2.733625478867907077e-06
1.219000000000000000e+03 4.603385543823242188e+01 -1.005697822570800781e+01 4.364364031061995775e-06 9.262344974558800459e-06 4.088012701686238870e-06 5.463336492539383471e-06
1.220000000000000000e+03 4.631929397583007812e+01 -7.957894325256347656e+00 -1.716633278192603029e-06 -8.664581400807946920e-06 -3.114364517387002707e-06 -6.098680387367494404e-06
1.221000000000000000e+03 4.513871383666992188e+01 -4.857692718505859375e+00 2.569914249761495739e-05 -1.225370215252041817e-05 4.033631739730481058e-06 1.235621596151759150e-07
1.222000000000000000e+03 4.580039596557617188e+01 -2.663962602615356445e+00 4.338553844718262553e-05 1.085739495465531945e-05 1.627287929295562208e-05 1.468845493945991620e-05
1.223000000000000000e+03 4.660935211181640625e+01 -1.358229994773864746e+00 5.360518844099715352e-05 1.514418181614018977e-05 2.062481144093908370e-05 2.314351149834692478e-05
1.224000000000000000e+03 4.531260681152343750e+01 8.085308074951171875e-01 4.361239916761405766e-05 1.936740227392874658e-05 1.889394116005860269e-05 2.587903509265743196e-05
1.225000000000000000e+03 4.583268356323242188e+01 2.694895505905151367e+00 7.085631659720093012e-05 1.760630584612954408e-05 2.653878618730232120e-05 3.351419945829547942e-05
1.226000000000000000e+03 4.695043182373046875e+01 -1.849850845336914062e+01 -3.421373548917472363e-06 -8.003083848961978219e-07 -1.266504568775417283e-06 5.964030265204200987e-07
1.227000000000000000e+03 4.772306442260742188e+01 -1.838815689086914062e+01 3.359585207363124937e-06 4.581967232297756709e-07 1.145334636021289043e-06 -1.720804448268609121e-06
1.228000000000000000e+03 4.767500686645507812e+01 -1.753076744079589844e+01 -5.327353846951154992e-06 6.114232178333622869e-07 -1.414779148944944609e-06 1.984843493119115010e-06
1.229000000000000000e+03 4.891199111938476562e+01 -1.420574569702148438e+01 1.382472055411199108e-05 -5.315429461916210130e-06 2.552787236709264107e-06 3.576304266061924864e-07
1.230000000000000000e+03 4.790006256103515625e+01 -1.190896224975585938e+01 1.287952545681037009e-05 7.519672635680763051e-06 6.119759291323134676e-06 5.461729415401350707e-06
1.231000000000000000e+03 4.682700347900390625e+01 -1.052417182922363281e+01 5.369273367250571027e-06 8.710340807738248259e-06 4.223884388920851052e-06 -5.053707809565821663e-06
1.232000000000000000e+03 4.717541503906250000e+01 -8.817465782165527344e+00 6.550004854943836108e-06 2.416310053376946598e-05 9.213931662088725716e-06 1.604357180440274533e-06
1.233000000000000000e+03 4.718665313720703125e+01 -7.109841346740722656e+00 -9.121180482907220721e-06 2.245413634227588773e-05 3.999887212557950988e-06 1.002048065856797621e-05
1.234000000000000000e+03 4.644080352783203125e+01 -5.504711627960205078e+00 -1.486833116359775886e-05 2.766400939435698092e-05 3.838703378278296441e-06 -3.840314548142487183e-06
1.235000000000000000e+03 4.868337249755859375e+01 -3.445023059844970703e+00 -5.675198917742818594e-05 -1.001667078526224941e-05 -2.003059671551454812e-05 -1.550328852317761630e-05
1.236000000000000000e+03 4.827278137207031250e+01 -2.172706604003906250e+00 6.374956137733533978e-05 9.202331057167612016e-06 2.188556754845194519e-05 2.522777504054829478e-05
1.237000000000000000e+03 4.777851104736328125e+01 -9.183354377746582031e-01 -7.189336611190810800e-05 -1.435902413504663855e-05 -2.587571725598536432e-05 -2.894283170462585986e-05
1.238000000000000000e+03 4.717809677124023438e+01 2.956045269966125488e-01 7.379636372206732631e-05 1.748120303091127425e-05 2.738327202678192407e-05 3.375734377186745405e-05
1.239000000000000000e+03 4.922131347656250000e+01 -1.818589591979980469e+01 1.357255314360372722e-06 2.929211404989473522e-06 1.285940015804953873e-06 -2.712153445827425458e-06
1.240000000000000000e+03 4.993627548217773438e+01 -1.808915138244628906e+01 -6.284165010583819821e-07 -4.770039595314301550e-06 -1.619536760699702427e-06 1.529971200397994835e-06
1.241000000000000000e+03 5.038660812377929688e+01 -1.738293457031250000e+01 -1.573266899868031032e-06 -5.514514214155497029e-06 -2.126334265994955786e-06 4.006788003607653081e-07
1.242000000000000000e+03 5.131240844726562500e+01 -1.775200462341308594e+01 -1.418469082636875100e-06 -5.800236976938322186e-06 -2.165611931559396908e-06 -3.289584071808349108e-08
1.243000000000000000e+03 5.161338806152343750e+01 -1.568199729919433594e+01 -7.425132935168221593e-06 -2.440995103825116530e-06 -2.959838411698001437e-06 5.952202855041832663e-07
1.244000000000000000e+03 5.164909744262695312e+01 -1.253745365142822266e+01 2.305633097421377897e-05 4.951894538862688933e-07 7.065455974952783436e-06 1.508000423200428486e-06
1.245000000000000000e+03 5.157845306396484375e+01 -1.362400150299072266e+01 -1.227307802764698863e-05 8.880546374712139368e-06 -1.017759586829924956e-06 6.074836619518464431e-06
1.246000000000000000e+03 5.022227096557617188e+01 -1.250319671630859375e+01 -2.187341669923625886e-05 -1.295651259169972036e-06 -6.950720489840023220e-06 -5.847293323313351721e-06
1.247000000000000000e+03 5.130232238769531250e+01 -1.132630538940429688e+01 -2.496862725820392370e-05 -1.319250259257387370e-06 -7.886363164288923144e-06 -3.223143949071527459e-06
1.248000000000000000e+03 4.964134597778320312e+01 -1.034367752075195312e+01 -2.172126551158726215e-05 -5.614934252662351355e-06 -8.200860065699089319e-06 -6.887044946779496968e-06
1.249000000000000000e+03 5.089338302612304688e+01 -1.005452728271484375e+01 2.598376340756658465e-05 1.812086679819913115e-06 8.338754923897795379e-06 5.199121915211435407e-06
1.250000000000000000e+03 5.003191757202148438e+01 -1.146303939819335938e+01 2.066197703243233263e-05 3.236531938455300406e-06 7.169552645791554824e-06 5.352173047867836431e-06
1.251000000000000000e+03 4.903408813476562500e+01 -1.252758598327636719e+01 2.034035060205496848e-05 7.619752864229667466e-07 6.330697488010628149e-06 8.812510714051313698e-06
1.252000000000000000e+03 5.036960983276367188e+01 -1.645673179626464844e+01 -6.021035915182437748e-06 -2.341468416489078663e-06 -2.508751322238822468e-06 -2.303832161487662233e-06
1.253000000000000000e+03 5.091912841796875000e+01 -1.707610893249511719e+01 3.647766561698517762e-06 4.766004167322535068e-06 2.524131332393153571e-06 -8.862950551247195108e-08
1.254000000000000000e+03 5.200429153442382812e+01 -1.753763008117675781e+01 1.557068230795266572e-06 5.715954102925024927e-06 2.181906666010036133e-06 -8.370660111722827423e-07
1.255000000000000000e+03 5.350345611572265625e+01 -1.703452491760253906e+01 5.620024694508174434e-06 4.475251444091554731e-06 3.028582796105183661e-06 6.477778811131429393e-07
1.256000000000000000e+03 5.279564666748046875e+01 -1.421843814849853516e+01 -5.473165401781443506e-06 -1.073957082553533837e-05 -4.863820777245564386e-06 -7.582877969980472699e-06
1.257000000000000000e+03 5.520589447021484375e+01 -1.680498695373535156e+01 1.234393403137801215e-05 -1.980891511266236193e-06 3.108912778770900331e-06 4.144769263803027570e-06
1.258000000000000000e+03 5.432236480712890625e+01 -1.694614219665527344e+01 7.340264573940658011e-07 -3.328084176246193238e-06 -7.782173270243220031e-07 -5.228465056461573113e-07
1.259000000000000000e+03 5.373025512695312500e+01 -1.520235347747802734e+01 7.356077730946708471e-06 8.882878319127485156e-06 4.871686996921198443e-06 5.651682386087486520e-06
1.260000000000000000e+03 5.625132751464843750e+01 -1.654991340637207031e+01 2.548548309277975932e-06 1.165275807579746470e-05 4.260391960997367278e-06 5.895595222682459280e-06
1.261000000000000000e+03 5.849060440063476562e+01 -1.577657508850097656e+01 1.159091607405571267e-05 6.228306119737681001e-06 5.345766567188547924e-06 1.160427473223535344e-05
1.262000000000000000e+03 5.910190200805664062e+01 -1.544296073913574219e+01 -6.282415938585472759e-07 7.309162356250453740e-06 2.004276211664546281e-06 1.485843995396862738e-06
1.263000000000000000e+03 5.775817871093750000e+01 -1.632281303405761719e+01 -5.474500994750997052e-06 5.253317340248031542e-06 -6.635502103335966240e-08 1.686572318249091040e-06
1.264000000000000000e+03 4.908356857299804688e+01 -9.212876319885253906e+00 2.134836540790274739e-05 1.086159591068280861e-05 9.662988304626196623e-06 1.080588663171511143e-05
1.265000000000000000e+03 4.938993453979492188e+01 -6.081649303436279297e+00 -4.073961099493317306e-05 9.020849347507464699e-07 -1.195125787489814684e-05 -1.087370037566870451e-05
1.266000000000000000e+03 4.834604644775390625e+01 -8.054111480712890625e+00 -1.382186837872723117e-05 -2.423866135359276086e-05 -1.141815937444334850e-05 -1.364935087622143328e-05
1.267000000000000000e+03 4.907409286499023438e+01 -4.729993820190429688e+00 5.151978257345035672e-05 1.924131083796964958e-06 1.603317468834575266e-05 8.760033779253717512e-06
1.268000000000000000e+03 4.189054489135742188e+01 1.204878234863281250e+01 -1.912387233460322022e-04 5.185420013731345534e-05 -4.181535769021138549e-05 2.214963387814350426e-05
1.269000000000000000e+03 4.012828063964843750e+01 1.385202693939208984e+01 -2.423059922875836492e-04 5.660885653924196959e-05 -5.570914072450250387e-05 5.183632674743421376e-05
1.270000000000000000e+03 4.452637100219726562e+01 3.669211959838867188e+01 -8.316396269947290421e-04 2.593888784758746624e-04 -1.716752303764224052e-04 2.152110915631055832e-03
1.271000000000000000e+03 4.250990295410156250e+01 3.276649475097656250e+01 -1.560695585794746876e-03 5.125102470628917217e-04 -3.144556249026209116e-04 5.195443518459796906e-04
1.272000000000000000e+03 4.149282455444335938e+01 2.837514686584472656e+01 -4.667289031203836203e-04 -6.398689583875238895e-05 -1.592147455085068941e-04 3.493807162158191204e-04
1.273000000000000000e+03 4.175268936157226562e+01 2.701157188415527344e+01 -8.704280480742454529e-04 -7.834430289221927524e-05 -2.846317074727267027e-04 -3.157189639750868082e-04
1.274000000000000000e+03 4.269641494750976562e+01 2.380361175537109375e+01 4.629418835975229740e-04 9.130527905654162169e-05 1.662741560721769929e-04 -1.437002792954444885e-04
1.275000000000000000e+03 4.225071334838867188e+01 2.243542289733886719e+01 -4.552546015474945307e-04 1.725692891341168433e-05 -1.313992979703471065e-04 1.645928568905219436e-04
1.276000000000000000e+03 4.262252426147460938e+01 1.773355484008789062e+01 -3.467911155894398689e-04 8.867467840900644660e-05 -7.743492460576817393e-05 1.292852684855461121e-04
1.277000000000000000e+03 4.298919296264648438e+01 1.910182952880859375e+01 4.172152257524430752e-04 1.452058932045474648e-04 1.687263429630547762e-04 -8.410176815232262015e-05
1.278000000000000000e+03 4.232213211059570312e+01 1.634702301025390625e+01 3.202140214852988720e-04 1.050188147928565741e-04 1.275698450626805425e-04 -4.433504000189714134e-05
1.279000000000000000e+03 4.212395858764648438e+01 1.493361282348632812e+01 -2.604768960736691952e-04 7.230303890537470579e-05 -5.645215787808410823e-05 6.721085810568183661e-05
1.280000000000000000e+03 4.197766876220703125e+01 1.349979972839355469e+01 2.306366659468039870e-04 5.859330485691316426e-05 8.676898869452998042e-05 -1.579337731527630240e-05
1.281000000000000000e+03 4.384352874755859375e+01 2.180838966369628906e+01 4.721432633232325315e-04 1.945788244483992457e-04 2.000166277866810560e-04 -1.302731689065694809e-04
1.282000000000000000e+03 4.312577819824218750e+01 2.517832756042480469e+01 -8.084740838967263699e-04 1.763858927006367594e-05 -2.372506569372490048e-04 2.573115671111736447e-05
1.283000000000000000e+03 4.434234619140625000e+01 2.313663673400878906e+01 -4.882523790001869202e-04 4.699535202234983444e-05 -1.323770993622019887e-04 2.418543008388951421e-04
1.284000000000000000e+03 4.346149063110351562e+01 2.666367340087890625e+01 5.584540194831788540e-04 -1.083113147615222260e-05 1.642868592170998454e-04 2.623623186082113534e-05
1.285000000000000000e+03 4.444965362548828125e+01 3.020141983032226562e+01 -1.659371424466371536e-03 3.959212626796215773e-04 -3.790350747294723988e-04 -2.328437840333208442e-04
1.286000000000000000e+03 4.481203460693359375e+01 3.181768417358398438e+01 -8.835752960294485092e-04 3.393837541807442904e-04 -1.632574712857604027e-04 2.762230287771672010e-04
1.287000000000000000e+03 4.338893127441406250e+01 3.477918624877929688e+01 -2.413970214547589421e-04 1.395070194121217355e-05 -6.823389412602409720e-05 1.228907611221075058e-03
1.288000000000000000e+03 4.489030075073242188e+01 2.446059417724609375e+01 5.380731890909373760e-04 1.898393675219267607e-04 2.183737669838592410e-04 -2.162235905416309834e-04
1.289000000000000000e+03 4.544676589965820312e+01 2.585557365417480469e+01 -8.279274334199726582e-04 -6.880256842123344541e-05 -2.690190158318728209e-04 2.939709811471402645e-04
1.290000000000000000e+03 4.623584747314453125e+01 2.713087654113769531e+01 5.706371157430112362e-04 3.017378621734678745e-04 2.617124991957098246e-04 -6.832713261246681213e-04
1.291000000000000000e+03 4.583788299560546875e+01 2.946652603149414062e+01 -4.409170360304415226e-04 5.954878288321197033e-04 4.637123493012040854e-05 -6.414236850105226040e-04
1.292000000000000000e+03 4.564091873168945312e+01 3.341981506347656250e+01 -3.044489305466413498e-03 7.362564210779964924e-04 -6.924698827788233757e-04 1.078325090929865837e-03
1.293000000000000000e+03 4.684654235839843750e+01 3.508811569213867188e+01 -1.295742113143205643e-03 1.372424303553998470e-04 -3.475499106571078300e-04 1.839249744080007076e-03
1.294000000000000000e+03 4.484381484985351562e+01 2.860732269287109375e+01 -7.636990630999207497e-04 -3.144182846881449223e-04 -3.234352043364197016e-04 4.727013583760708570e-04
1.295000000000000000e+03 4.719596481323242188e+01 2.824906539916992188e+01 -1.155059784650802612e-03 -6.257407367229461670e-04 -5.342401564121246338e-04 4.394181596580892801e-04
1.296000000000000000e+03 4.808279037475585938e+01 2.938275337219238281e+01 -1.542778773000463843e-04 4.139147931709885597e-04 7.789107621647417545e-05 -1.091718091629445553e-03
1.297000000000000000e+03 4.997789382934570312e+01 3.155183601379394531e+01 -2.537305932492017746e-03 3.084714699070900679e-04 -6.686503184027969837e-04 -2.472339197993278503e-03
1.298000000000000000e+03 5.107665634155273438e+01 3.244723129272460938e+01 -6.335914600640535355e-03 -2.295706886798143387e-03 -2.589486539363861084e-03 -1.493172836489975452e-03
1.299000000000000000e+03 4.746977615356445312e+01 3.198411369323730469e+01 -1.710266922600567341e-03 7.760285516269505024e-04 -2.802715171128511429e-04 -5.589266074821352959e-04
1.300000000000000000e+03 4.898977279663085938e+01 3.050038909912109375e+01 -2.737927017733454704e-03 -1.057759276591241360e-03 -1.138705876655876637e-03 3.051889734706492163e-06
1.301000000000000000e+03 5.002042388916015625e+01 3.397220230102539062e+01 -6.641986314207315445e-03 3.333439817652106285e-03 -9.925640188157558441e-04 -1.968306787603069097e-05
1.302000000000000000e+03 6.327356719970703125e+01 3.497216415405273438e+01 2.770884037017822266e-01 2.029756158590316772e-01 1.440192013978958130e-01 -2.217771857976913452e-01
1.303000000000000000e+03 6.472059631347656250e+01 3.426145553588867188e+01 3.878415822982788086e-01 5.132727026939392090e-01 2.703342735767364502e-01 -3.796558082103729248e-01
1.304000000000000000e+03 6.593549346923828125e+01 3.321061706542968750e+01 4.107810258865356445e-01 7.136826515197753906e-01 3.373391032218933105e-01 -5.285477638244628906e-01
1.305000000000000000e+03 6.685019683837890625e+01 3.202211761474609375e+01 4.995740354061126709e-01 9.369785785675048828e-01 4.309657812118530273e-01 -6.724787950515747070e-01
1.306000000000000000e+03 6.740542602539062500e+01 3.395841217041015625e+01 1.180205643177032471e-01 8.750504851341247559e-01 2.979212999343872070e-01 -3.424365222454071045e-01
1.307000000000000000e+03 7.083307647705078125e+01 -1.528606534004211426e+00 1.293978691101074219e-01 2.071659088134765625e+00 6.603170633316040039e-01 2.896462678909301758e-01
1.308000000000000000e+03 7.351624298095703125e+01 -7.013544082641601562e+00 5.780263245105743408e-02 3.683793842792510986e-01 1.278546005487442017e-01 -2.178871631622314453e-01
1.309000000000000000e+03 7.448026275634765625e+01 -7.232134342193603516e+00 4.280217736959457397e-02 9.805069305002689362e-03 1.578217372298240662e-02 -2.854813337326049805e-01
1.310000000000000000e+03 7.110655212402343750e+01 -3.181001245975494385e-01 1.708829402923583984e-01 2.197139263153076172e+00 7.104066610336303711e-01 1.644707322120666504e-01
1.311000000000000000e+03 6.937136840820312500e+01 -2.609067916870117188e+00 1.957512944936752319e-01 2.299427747726440430e+00 7.485536932945251465e-01 5.726682543754577637e-01
1.312000000000000000e+03 7.258570861816406250e+01 -6.492659091949462891e+00 6.140321120619773865e-02 6.287344694137573242e-01 2.070413082838058472e-01 -1.430718749761581421e-01
1.313000000000000000e+03 7.416683959960937500e+01 -8.223309516906738281e+00 2.328516356647014618e-02 5.604464933276176453e-02 2.379894442856311798e-02 -2.860052287578582764e-01
1.314000000000000000e+03 6.894004821777343750e+01 -4.017453193664550781e+00 2.612187564373016357e-01 2.061529159545898438e+00 6.968243122100830078e-01 5.972520112991333008e-01
1.315000000000000000e+03 6.957397460937500000e+01 -6.110801696777343750e+00 1.611323058605194092e-01 1.458245635032653809e+00 4.858133792877197266e-01 3.055043220520019531e-01
1.316000000000000000e+03 6.831165313720703125e+01 -5.330390930175781250e+00 2.791585028171539307e-01 1.805181622505187988e+00 6.253020167350769043e-01 6.443915963172912598e-01
1.317000000000000000e+03 7.076217651367187500e+01 -6.939452171325683594e+00 1.086345165967941284e-01 1.033712148666381836e+00 3.427039980888366699e-01 6.443966925144195557e-02
1.318000000000000000e+03 7.194966888427734375e+01 -7.657401084899902344e+00 7.812295109033584595e-02 6.752841472625732422e-01 2.260221391916275024e-01 -1.053894460201263428e-01
1.319000000000000000e+03 6.767121124267578125e+01 -6.586639404296875000e+00 2.946696281433105469e-01 1.590518832206726074e+00 5.655565261840820312e-01 6.422575116157531738e-01
1.320000000000000000e+03 6.701830291748046875e+01 -7.794610500335693359e+00 3.326195180416107178e-01 1.461515784263610840e+00 5.382406115531921387e-01 6.558291912078857422e-01
1.321000000000000000e+03 6.428067016601562500e+01 -1.409764766693115234e+01 3.932319581508636475e-01 7.355184555053710938e-01 3.386251330375671387e-01 5.721844434738159180e-01
1.322000000000000000e+03 6.190650939941406250e+01 -1.942401123046875000e+01 -9.085159748792648315e-02 5.634038448333740234e-01 1.417656689882278442e-01 2.929328978061676025e-01
1.323000000000000000e+03 6.149253845214843750e+01 -2.264824867248535156e+01 -6.348949670791625977e-01 1.063316613435745239e-01 -1.585689932107925415e-01 8.559694141149520874e-02
1.324000000000000000e+03 5.917543411254882812e+01 -1.969442749023437500e+01 -6.538254022598266602e-02 5.321716070175170898e-01 1.400367170572280884e-01 4.910129606723785400e-01
1.325000000000000000e+03 5.969168472290039062e+01 -2.123697471618652344e+01 -3.497765064239501953e-01 5.660825967788696289e-01 6.489183753728866577e-02 4.292279183864593506e-01
1.326000000000000000e+03 5.952617645263671875e+01 -2.187075042724609375e+01 -3.939207196235656738e-01 4.732028841972351074e-01 2.378465421497821808e-02 3.866104483604431152e-01
1.327000000000000000e+03 5.953364562988281250e+01 -2.048655128479003906e+01 -2.383913248777389526e-01 5.530626177787780762e-01 9.440138190984725952e-02 4.959648549556732178e-01
1.328000000000000000e+03 5.789920043945312500e+01 -2.103865432739257812e+01 -2.791573107242584229e-01 3.880414962768554688e-01 3.266525268554687500e-02 5.541513562202453613e-01
1.329000000000000000e+03 5.754702377319335938e+01 -2.025407409667968750e+01 -2.570625245571136475e-01 3.650280237197875977e-01 3.238964825868606567e-02 5.145752429962158203e-01
1.330000000000000000e+03 5.831658172607421875e+01 -2.298774147033691406e+01 -1.509604901075363159e-01 2.793450057506561279e-01 3.851535171270370483e-02 4.232832193374633789e-01
1.331000000000000000e+03 5.871642303466796875e+01 -2.524908256530761719e+01 1.795455664396286011e-01 1.568397283554077148e-01 1.009155884385108948e-01 2.069709897041320801e-01
1.332000000000000000e+03 5.674476242065429688e+01 -2.049574089050292969e+01 -3.839082419872283936e-01 2.687060832977294922e-01 -3.456063941121101379e-02 5.554979443550109863e-01
1.333000000000000000e+03 5.713703155517578125e+01 -2.464995574951171875e+01 2.249546200037002563e-01 -7.746262417640537024e-05 6.746315211057662964e-02 2.889786064624786377e-01
1.334000000000000000e+03 5.567975616455078125e+01 -2.588641166687011719e+01 4.136693179607391357e-01 -1.255733221769332886e-01 8.642879873514175415e-02 9.445212036371231079e-02
1.335000000000000000e+03 5.638435745239257812e+01 -2.620225334167480469e+01 3.183231055736541748e-01 -6.590127944946289062e-02 7.572654634714126587e-02 1.041077896952629089e-01
1.336000000000000000e+03 5.611354446411132812e+01 -2.153240394592285156e+01 -3.034821450710296631e-01 1.409745216369628906e-01 -4.875228554010391235e-02 7.135931253433227539e-01
1.337000000000000000e+03 5.511394882202148438e+01 -2.082469177246093750e+01 -6.955250501632690430e-01 1.113152727484703064e-01 -1.752629280090332031e-01 6.823598742485046387e-01
1.338000000000000000e+03 5.358026123046875000e+01 -2.107563972473144531e+01 -1.105776071548461914e+00 6.823294609785079956e-02 -3.112629354000091553e-01 9.792690277099609375e-01
1.339000000000000000e+03 5.209859085083007812e+01 -2.132614898681640625e+01 -1.509474635124206543e+00 2.824819087982177734e-01 -3.680978119373321533e-01 1.289948821067810059e+00
1.340000000000000000e+03 5.024531173706054688e+01 -2.250383949279785156e+01 1.536827087402343750e-01 2.731568813323974609e+00 8.655754923820495605e-01 9.824692010879516602e-01
1.341000000000000000e+03 4.869444274902343750e+01 -2.336102485656738281e+01 3.057938098907470703e+00 1.163404941558837891e+00 1.266402959823608398e+00 -1.245143771171569824e+00
1.342000000000000000e+03 4.905139160156250000e+01 -2.550878906250000000e+01 1.147364139556884766e+00 2.894834518432617188e+00 1.212659597396850586e+00 9.875487089157104492e-01
1.343000000000000000e+03 4.629053878784179688e+01 -2.249063682556152344e+01 -3.866121470928192139e-01 -8.674568533897399902e-01 -3.762207031250000000e-01 -1.540475010871887207e+00
1.344000000000000000e+03 4.533627700805664062e+01 -2.399904441833496094e+01 6.976218223571777344e-01 -9.895067214965820312e-01 -8.756545931100845337e-02 -8.798981904983520508e-01
1.345000000000000000e+03 4.595642089843750000e+01 -2.731630325317382812e+01 4.075137972831726074e-01 -9.936644136905670166e-02 9.244421124458312988e-02 3.746517598628997803e-01
1.346000000000000000e+03 4.593001174926757812e+01 -2.895865440368652344e+01 -8.330059237778186798e-03 1.523696631193161011e-01 4.321188107132911682e-02 4.613338708877563477e-01
1.347000000000000000e+03 4.581282424926757812e+01 -3.000118827819824219e+01 -5.109180137515068054e-02 1.201859936118125916e-01 2.072825655341148376e-02 4.316672980785369873e-01
1.348000000000000000e+03 4.593244934082031250e+01 -3.133220672607421875e+01 -1.274967342615127563e-01 1.312638670206069946e-01 1.130139920860528946e-03 3.765005469322204590e-01
1.349000000000000000e+03 4.406509780883789062e+01 -3.344538879394531250e+01 -3.938138019293546677e-03 -1.282317638397216797e-01 -3.965096920728683472e-02 2.543394267559051514e-01
1.350000000000000000e+03 4.387516403198242188e+01 -3.818170166015625000e+01 2.192855253815650940e-02 -3.477386012673377991e-02 -3.853591857478022575e-03 7.560923695564270020e-02
1.351000000000000000e+03 5.171174621582031250e+01 -4.103367233276367188e+01 -1.181972101330757141e-01 3.222607076168060303e-01 6.121905148029327393e-02 7.196107879281044006e-03
1.352000000000000000e+03 4.723864746093750000e+01 -3.357611465454101562e+01 -1.215679198503494263e-01 2.620280683040618896e-01 4.213804751634597778e-02 2.302436232566833496e-01
1.353000000000000000e+03 4.762372207641601562e+01 -3.172270202636718750e+01 -1.656404286623001099e-01 4.705613255500793457e-01 9.147626906633377075e-02 2.830532789230346680e-01
1.354000000000000000e+03 4.682991790771484375e+01 -2.967321205139160156e+01 -6.727191805839538574e-02 4.495081901550292969e-01 1.146708801388740540e-01 3.940833210945129395e-01
1.355000000000000000e+03 4.719784927368164062e+01 -2.760576629638671875e+01 3.002117574214935303e-01 6.578620076179504395e-01 2.874221205711364746e-01 5.222292542457580566e-01
1.356000000000000000e+03 4.868841171264648438e+01 -2.551127433776855469e+01 1.490863800048828125e+00 2.288201808929443359e+00 1.133719682693481445e+00 1.169871091842651367e+00
1.357000000000000000e+03 4.575070953369140625e+01 -2.633858871459960938e+01 7.529944181442260742e-01 -4.126866757869720459e-01 1.020923182368278503e-01 1.979055851697921753e-01
1.358000000000000000e+03 4.639605712890625000e+01 -2.306426429748535156e+01 5.061239600181579590e-01 -9.310644865036010742e-01 -1.274821460247039795e-01 -1.356539249420166016e+00
1.359000000000000000e+03 4.493975830078125000e+01 -2.289873695373535156e+01 -1.179549917578697205e-01 -8.798089027404785156e-01 -2.993291616439819336e-01 -1.151076674461364746e+00
1.360000000000000000e+03 4.383610534667968750e+01 -2.406521224975585938e+01 2.800236940383911133e-01 -9.858213663101196289e-01 -2.117393016815185547e-01 -7.149329185485839844e-01
1.361000000000000000e+03 4.323222351074218750e+01 -2.443320465087890625e+01 1.732345521450042725e-01 -1.028663396835327148e+00 -2.566286325454711914e-01 -5.382701158523559570e-01
1.362000000000000000e+03 4.370004653930664062e+01 -2.633972358703613281e+01 2.452021092176437378e-01 -1.173217177391052246e+00 -2.784045338630676270e-01 -1.935130357742309570e-01
1.363000000000000000e+03 4.188909149169921875e+01 -3.040706062316894531e+01 -1.896717697381973267e-01 -8.968026041984558105e-01 -3.259423077106475830e-01 -1.911566704511642456e-01
1.364000000000000000e+03 4.255050277709960938e+01 -2.898655891418457031e+01 -1.753526926040649414e-01 -1.481754779815673828e+00 -4.971322417259216309e-01 -4.512916505336761475e-02
1.365000000000000000e+03 4.230433654785156250e+01 -3.303723526000976562e+01 6.505031883716583252e-02 -4.802061617374420166e-01 -1.245467513799667358e-01 2.327117510139942169e-02
1.366000000000000000e+03 4.186171722412109375e+01 -3.496622085571289062e+01 5.376426875591278076e-02 -2.548892498016357422e-01 -6.033749133348464966e-02 1.939968392252922058e-02
1.367000000000000000e+03 4.426385116577148438e+01 -3.557407760620117188e+01 2.123635448515415192e-02 -9.040506929159164429e-02 -2.075061388313770294e-02 1.639518290758132935e-01
1.368000000000000000e+03 3.792700195312500000e+01 -3.734272384643554688e+01 2.271337993443012238e-02 -1.167706996202468872e-01 -2.821719460189342499e-02 -4.726420715451240540e-02
1.369000000000000000e+03 4.304206085205078125e+01 -4.101889419555664062e+01 3.135257959365844727e-02 -3.798065707087516785e-02 -1.988423988223075867e-03 1.724181137979030609e-02
1.370000000000000000e+03 4.737984848022460938e+01 -4.119127655029296875e+01 -5.528594180941581726e-02 1.596765220165252686e-01 3.131717443466186523e-02 2.903623506426811218e-02
1.371000000000000000e+03 4.701505279541015625e+01 -3.585457992553710938e+01 -7.504470646381378174e-02 1.805367618799209595e-01 3.164761886000633240e-02 1.742930710315704346e-01
1.372000000000000000e+03 4.320860290527343750e+01 -3.181439399719238281e+01 2.790705487132072449e-02 -5.408836007118225098e-01 -1.538929641246795654e-01 2.157639116048812866e-01
1.373000000000000000e+03 4.426663589477539062e+01 -2.965865707397460938e+01 -1.064854115247726440e-01 -4.275516271591186523e-01 -1.602111160755157471e-01 3.287918269634246826e-01
1.374000000000000000e+03 4.386810302734375000e+01 -2.750253105163574219e+01 7.727341353893280029e-02 -9.977217912673950195e-01 -2.761345207691192627e-01 -7.872793823480606079e-03
1.375000000000000000e+03 4.373485183715820312e+01 -2.545420646667480469e+01 3.525003790855407715e-01 -1.166782498359680176e+00 -2.442846298217773438e-01 -3.455488681793212891e-01
1.376000000000000000e+03 4.426341247558593750e+01 -2.312493705749511719e+01 -3.812206909060478210e-02 -8.273814320564270020e-01 -2.596510350704193115e-01 -9.770027399063110352e-01
1.377000000000000000e+03 4.080152130126953125e+01 -3.161855125427246094e+01 -1.466428935527801514e-01 -3.181466758251190186e-01 -1.394368708133697510e-01 -1.978784650564193726e-01
1.378000000000000000e+03 3.997420883178710938e+01 -3.440734863281250000e+01 9.343879297375679016e-03 -2.199831902980804443e-01 -6.319179385900497437e-02 -7.840293645858764648e-02
1.379000000000000000e+03 3.940764236450195312e+01 -3.607080459594726562e+01 3.642917051911354065e-02 -1.691835671663284302e-01 -3.982632234692573547e-02 -4.374541714787483215e-02
1.380000000000000000e+03 3.947388839721679688e+01 -3.245500564575195312e+01 -1.236740797758102417e-01 -1.911023408174514771e-01 -9.443292766809463501e-02 -1.158574074506759644e-01
1.381000000000000000e+03 3.848313522338867188e+01 -3.465126037597656250e+01 -3.292446210980415344e-02 -1.350257098674774170e-01 -5.038505047559738159e-02 -9.708490222692489624e-02
1.382000000000000000e+03 3.797398757934570312e+01 -3.290156555175781250e+01 -8.126257359981536865e-02 -4.461905360221862793e-02 -3.776448592543601990e-02 -6.185805052518844604e-02
1.383000000000000000e+03 3.650865554809570312e+01 -3.325754165649414062e+01 -4.071199148893356323e-02 -2.463154494762420654e-02 -1.960306055843830109e-02 -3.266541287302970886e-02
1.384000000000000000e+03 3.229595947265625000e+01 -4.094902038574218750e+01 1.755899633280932903e-03 -3.349957987666130066e-02 -9.523103944957256317e-03 -4.267767537385225296e-03
1.385000000000000000e+03 3.499167633056640625e+01 -3.337211608886718750e+01 -1.206779107451438904e-02 -4.876282997429370880e-03 -5.083221942186355591e-03 -1.643077284097671509e-02
1.386000000000000000e+03 3.561151885986328125e+01 -3.813418960571289062e+01 8.141340687870979309e-03 -6.282530725002288818e-02 -1.640519127249717712e-02 -3.218317031860351562e-02
1.387000000000000000e+03 3.251007843017578125e+01 -3.809314727783203125e+01 -3.983931150287389755e-03 -2.650351263582706451e-02 -9.146233089268207550e-03 -1.670285873115062714e-02
1.388000000000000000e+03 3.197626304626464844e+01 -3.283297348022460938e+01 1.091038715094327927e-02 -4.656748787965625525e-04 3.133413614705204964e-03 -5.086129996925592422e-03
1.389000000000000000e+03 2.983585929870605469e+01 -3.464378356933593750e+01 1.675819745287299156e-03 -2.339698839932680130e-03 -1.991637545870617032e-04 8.100295672193169594e-04
1.390000000000000000e+03 2.846416473388671875e+01 -3.417283630371093750e+01 3.188608679920434952e-03 -2.092473907396197319e-03 3.288404259365051985e-04 2.647103101480752230e-04
1.391000000000000000e+03 3.011817169189453125e+01 -3.677563858032226562e+01 -2.415430499240756035e-03 -9.338296018540859222e-03 -3.526117885485291481e-03 -2.962907310575246811e-03
1.392000000000000000e+03 2.747951316833496094e+01 -4.086810302734375000e+01 -5.902079865336418152e-03 -7.363191805779933929e-03 -3.979581408202648163e-03 -8.187164785340428352e-04
1.393000000000000000e+03 3.138935089111328125e+01 -3.499702072143554688e+01 -1.899680471979081631e-03 -1.012788712978363037e-02 -3.608270082622766495e-03 -6.040952634066343307e-03
1.394000000000000000e+03 3.056415557861328125e+01 -3.247352981567382812e+01 1.295726094394922256e-02 -2.228815108537673950e-03 3.218533704057335854e-03 -2.708537038415670395e-03
1.395000000000000000e+03 2.786558723449707031e+01 -3.187857055664062500e+01 1.164256967604160309e-02 -3.254755865782499313e-04 3.395128296688199043e-03 -5.102095310576260090e-04
1.396000000000000000e+03 2.726413917541503906e+01 -3.352717971801757812e+01 6.843336857855319977e-03 2.467004815116524696e-04 2.127011306583881378e-03 2.028784947469830513e-03
1.397000000000000000e+03 2.651932907104492188e+01 -3.163795471191406250e+01 1.047043129801750183e-02 3.215125179849565029e-04 3.237583208829164505e-03 -2.416310744592919946e-04
1.398000000000000000e+03 2.603330039978027344e+01 -3.310800552368164062e+01 6.601105444133281708e-03 -6.713238544762134552e-04 1.778934500180184841e-03 1.001362339593470097e-03
1.399000000000000000e+03 2.248755645751953125e+01 -4.078895950317382812e+01 -4.463525954633951187e-03 1.069395220838487148e-03 -1.018239301629364491e-03 1.682745059952139854e-03
1.400000000000000000e+03 2.391459083557128906e+01 -3.125823783874511719e+01 8.219403214752674103e-03 -1.836672599893063307e-04 2.410721033811569214e-03 2.586677437648177147e-04
1.401000000000000000e+03 2.518886756896972656e+01 -3.144980812072753906e+01 9.362550452351570129e-03 -3.576018498279154301e-04 2.701484598219394684e-03 -3.483777400106191635e-04
1.402000000000000000e+03 2.480518722534179688e+01 -3.287116241455078125e+01 5.972452461719512939e-03 -5.529706249944865704e-04 1.625844510272145271e-03 1.650192076340317726e-03
1.403000000000000000e+03 2.322666549682617188e+01 -3.501899337768554688e+01 9.574754512868821621e-04 -5.143815651535987854e-04 1.329281658399850130e-04 3.367029130458831787e-03
1.404000000000000000e+03 2.293662261962890625e+01 -3.755563354492187500e+01 -2.267415169626474380e-03 -1.884431985672563314e-04 -7.367575308308005333e-04 1.930546481162309647e-03
1.405000000000000000e+03 2.273713684082031250e+01 -3.129688072204589844e+01 6.981409620493650436e-03 -2.396598392806481570e-05 2.087233122438192368e-03 4.902708460576832294e-04
1.406000000000000000e+03 2.242523956298828125e+01 -3.328584289550781250e+01 5.110606085509061813e-03 -5.230351234786212444e-04 1.376271247863769531e-03 1.565744634717702866e-03
1.407000000000000000e+03 2.148050880432128906e+01 -3.162233924865722656e+01 5.742928478866815567e-03 -3.669173165690153837e-04 1.612803316675126553e-03 1.016559312120079994e-03
1.408000000000000000e+03 1.788952445983886719e+01 -3.470304107666015625e+01 5.724806105718016624e-04 3.807544708251953125e-04 2.859705127775669098e-04 1.029392704367637634e-03
1.409000000000000000e+03 1.989008903503417969e+01 -3.615484237670898438e+01 4.794894484803080559e-04 1.816929550841450691e-03 6.889256765134632587e-04 2.088601002469658852e-03
1.410000000000000000e+03 1.742509078979492188e+01 -4.063253021240234375e+01 -1.980774337425827980e-03 1.666024909354746342e-03 -9.442480950383469462e-05 1.618197129573673010e-04
1.411000000000000000e+03 2.003177642822265625e+01 -3.203039169311523438e+01 4.382406361401081085e-03 -1.152935365098528564e-04 1.280133845284581184e-03 1.251087756827473640e-03
1.412000000000000000e+03 1.838951110839843750e+01 -3.211209487915039062e+01 3.359940135851502419e-03 4.842277849093079567e-04 1.153250341303646564e-03 1.024348195642232895e-03
1.413000000000000000e+03 1.676321601867675781e+01 -3.171590614318847656e+01 2.305435948073863983e-03 4.239776753820478916e-04 8.188241044990718365e-04 4.557878419291228056e-04
1.414000000000000000e+03 1.460880279541015625e+01 -3.293065261840820312e+01 1.156184240244328976e-03 -6.671673036180436611e-04 1.467050606152042747e-04 9.711441816762089729e-04
1.415000000000000000e+03 1.533094882965087891e+01 -3.122820663452148438e+01 1.391268451698124409e-03 2.680177276488393545e-04 4.977858625352382660e-04 -7.568671571789309382e-05
1.416000000000000000e+03 1.395689296722412109e+01 -3.071883392333984375e+01 1.011459971778094769e-03 -5.083729047328233719e-04 1.509261346654966474e-04 -1.425751543138176203e-04
1.417000000000000000e+03 1.173210048675537109e+01 -3.187430000305175781e+01 7.520323270000517368e-04 -4.453458677744492888e-05 2.122493315255269408e-04 -3.479101869743317366e-04
1.418000000000000000e+03 7.032796382904052734e+00 -3.169741058349609375e+01 4.749422951135784388e-04 3.142264322377741337e-04 2.367506240261718631e-04 -6.426005711546167731e-05
1.419000000000000000e+03 5.410488128662109375e+00 -3.182196235656738281e+01 -3.953905252274125814e-04 -5.169393625692464411e-05 -1.341253373539075255e-04 2.232776751043274999e-04
1.420000000000000000e+03 3.929872512817382812e+00 -3.187076187133789062e+01 3.601682547014206648e-04 1.782860053936019540e-04 1.615362707525491714e-04 -1.974551269086077809e-04
1.421000000000000000e+03 1.736355900764465332e+00 -3.263510513305664062e+01 -1.691021316219121218e-05 7.076127803884446621e-05 1.615531982679385692e-05 -1.191749179270118475e-04
1.422000000000000000e+03 4.373876154422760010e-01 -3.335916137695312500e+01 -1.326368073932826519e-04 -6.869252683827653527e-05 -6.039879735908471048e-05 -4.936475306749343872e-05
1.423000000000000000e+03 1.243756294250488281e+00 -3.379987335205078125e+01 1.229618465004023165e-05 -9.051971574081107974e-05 -2.346706060052383691e-05 2.840302113327197731e-05
1.424000000000000000e+03 5.425489425659179688e+00 -3.776680755615234375e+01 -1.226077438332140446e-04 6.043061730451881886e-04 1.445095258532091975e-04 1.216610035044141114e-04
1.425000000000000000e+03 1.249248695373535156e+01 -4.076958465576171875e+01 -9.619420161470770836e-04 8.929782779887318611e-04 -2.068911453534383327e-05 6.100394530221819878e-04
1.426000000000000000e+03 7.934365749359130859e+00 -4.091390228271484375e+01 -1.501639198977500200e-04 4.375574644654989243e-04 8.621806045994162560e-05 -5.599813084700144827e-05
1.427000000000000000e+03 1.184435749053955078e+01 -3.737038803100585938e+01 4.667353059630841017e-04 9.328653686679899693e-04 4.198802052997052670e-04 1.230138150276616216e-04
1.428000000000000000e+03 8.297551155090332031e+00 -3.778137207031250000e+01 -5.467752926051616669e-04 7.604441634612157941e-05 -1.412192650604993105e-04 5.765972309745848179e-04
1.429000000000000000e+03 1.334847164154052734e+01 -3.404968261718750000e+01 1.810357789508998394e-03 6.598959444090723991e-04 7.410761318169534206e-04 9.056070121005177498e-04
1.430000000000000000e+03 1.141444683074951172e+01 -2.920386314392089844e+01 -1.024170196615159512e-04 -2.538977787480689585e-05 -3.834203744190745056e-05 -4.513887688517570496e-05
1.431000000000000000e+03 1.040374183654785156e+01 -2.804203033447265625e+01 1.406452611263375729e-05 -1.888020392470934894e-06 3.652951590993325226e-06 2.814582330756820738e-05
1.432000000000000000e+03 8.501767158508300781e+00 -2.745949554443359375e+01 3.511343675199896097e-04 3.787468085647560656e-05 1.167027148767374456e-04 1.853448193287476897e-04
1.433000000000000000e+03 7.920837402343750000e+00 -2.602533531188964844e+01 -3.104678471572697163e-04 -8.464945858577266335e-05 -1.185351939056999981e-04 -1.321026647929102182e-04
1.434000000000000000e+03 4.682081699371337891e+00 -2.271238517761230469e+01 -1.957517524715512991e-04 -1.023486256599426270e-04 -8.943011198425665498e-05 3.768794995266944170e-04
1.435000000000000000e+03 2.118734121322631836e+00 -2.068213462829589844e+01 -5.089624901302158833e-04 6.425223546102643013e-05 -1.334130647592246532e-04 -5.701255577150732279e-05
1.436000000000000000e+03 7.074913978576660156e-01 -1.922757530212402344e+01 -4.848253738600760698e-04 5.731658802687888965e-06 -1.437281171092763543e-04 1.047112846208619885e-06
1.437000000000000000e+03 7.281384468078613281e-01 -2.063960647583007812e+01 5.431851604953408241e-04 -1.980364322662353516e-05 1.570144522702321410e-04 -3.152857971144840121e-05
1.438000000000000000e+03 7.976519465446472168e-01 -2.206895828247070312e+01 -5.296827293932437897e-04 1.317527676292229444e-05 -1.549522276036441326e-04 7.912291766842827201e-05
1.439000000000000000e+03 2.535166263580322266e+00 -2.368173789978027344e+01 -5.358174093998968601e-04 1.656680615269578993e-05 -1.557751820655539632e-04 1.208596077049151063e-04
1.440000000000000000e+03 5.601999282836914062e+00 -2.678903961181640625e+01 -5.925942678004503250e-04 6.015172402840107679e-05 -1.597327645868062973e-04 1.389381795888766646e-04
1.441000000000000000e+03 7.990586280822753906e+00 -2.958001136779785156e+01 9.870443027466535568e-04 -1.716504993964917958e-05 2.909637696575373411e-04 -4.718761192634701729e-05
1.442000000000000000e+03 8.761701583862304688e+00 -3.148703193664550781e+01 -5.983675364404916763e-04 -1.886549871414899826e-04 -2.361067599849775434e-04 4.627913294825702906e-04
1.443000000000000000e+03 1.261219596862792969e+01 -3.012075233459472656e+01 5.213274853304028511e-04 1.899585768114775419e-04 2.133858215529471636e-04 3.609919804148375988e-04
1.444000000000000000e+03 9.517130851745605469e+00 -2.684542274475097656e+01 -1.258550400962121785e-05 -4.265639290679246187e-05 -1.657256871112622321e-05 -1.040453025780152529e-05
1.445000000000000000e+03 8.401909828186035156e+00 -2.293438148498535156e+01 1.586103317094966769e-04 5.297112511470913887e-05 6.347443559207022190e-05 1.342480099992826581e-04
1.446000000000000000e+03 8.868811607360839844e+00 -2.555980682373046875e+01 5.135499577590962872e-06 1.149238778452854604e-05 4.988366072211647406e-06 5.429294833447784185e-05
1.447000000000000000e+03 5.642781257629394531e+00 -2.337124443054199219e+01 2.699957694858312607e-04 2.104270606650970876e-05 8.731154230190441012e-05 -3.598430776037275791e-04
1.448000000000000000e+03 3.801692247390747070e+00 -2.171898841857910156e+01 -2.410273009445518255e-04 1.347045617876574397e-04 -3.189681956428103149e-05 -1.623127318453043699e-04
1.449000000000000000e+03 2.063938379287719727e+00 -1.933760643005371094e+01 4.704770399257540703e-04 -8.279296707769390196e-06 1.386593212373554707e-04 5.901546319364570081e-05
1.450000000000000000e+03 7.395850419998168945e-01 -1.782138061523437500e+01 3.893890825565904379e-04 -5.738507979913265444e-08 1.167995142168365419e-04 7.016712061158614233e-06
1.451000000000000000e+03 7.148892879486083984e+00 -2.358011245727539062e+01 -9.373079228680580854e-05 -8.695222641108557582e-05 -5.420490560936741531e-05 -1.757863647071644664e-04
1.452000000000000000e+03 5.729637145996093750e+00 -2.183251762390136719e+01 6.288306030910462141e-05 1.025267047225497663e-04 4.962292950949631631e-05 -3.187176771461963654e-04
1.453000000000000000e+03 4.947132110595703125e+00 -1.948985671997070312e+01 3.754673525691032410e-05 -1.698757478152401745e-05 6.167747869767481461e-06 1.375880819978192449e-04
1.454000000000000000e+03 2.186494588851928711e+00 -1.799144935607910156e+01 -4.076057230122387409e-04 -1.017867271002614871e-05 -1.253353111678734422e-04 -3.678150096675381064e-05
1.455000000000000000e+03 7.852909564971923828e-01 -1.641264724731445312e+01 -3.117198066320270300e-04 -1.663355033088009804e-05 -9.850601054495200515e-05 8.075395271589513868e-06
1.456000000000000000e+03 7.474891185760498047e+00 -2.007959938049316406e+01 2.680264005903154612e-04 9.774969657883048058e-05 1.097328276955522597e-04 -1.348027144558727741e-04
1.457000000000000000e+03 7.764109134674072266e+00 -2.185542678833007812e+01 7.580905366921797395e-05 5.337885522749274969e-05 3.875637048622593284e-05 -2.478516253177076578e-04
1.458000000000000000e+03 5.764007091522216797e+00 -2.025067901611328125e+01 1.043613083311356604e-04 6.976789154578000307e-05 5.223875996307469904e-05 -1.778713776730000973e-04
1.459000000000000000e+03 5.031204223632812500e+00 -1.773757553100585938e+01 2.503872092347592115e-04 9.559041791362687945e-05 1.037932888721115887e-04 1.345861528534442186e-04
1.460000000000000000e+03 7.321723103523254395e-01 -1.357598686218261719e+01 -2.941998827736824751e-04 6.912185654073255137e-06 -8.618631545687094331e-05 2.958528421004302800e-05
1.461000000000000000e+03 7.828921079635620117e-01 -1.499519062042236328e+01 2.866508148144930601e-04 1.069379686668980867e-05 8.920337859308347106e-05 -3.270903835073113441e-05
1.462000000000000000e+03 8.686614990234375000e+00 -2.082826423645019531e+01 -3.160627675242722034e-04 -1.233893417520448565e-04 -1.318356371484696865e-04 1.882589567685499787e-04
1.463000000000000000e+03 6.705589294433593750e+00 -2.099984169006347656e+01 -1.561039243824779987e-04 -4.376113065518438816e-05 -5.995951869408600032e-05 2.330235001863911748e-04
1.464000000000000000e+03 5.872676849365234375e+00 -1.818501281738281250e+01 -2.826099225785583258e-04 -9.354035864816978574e-05 -1.128450821852311492e-04 -1.680918503552675247e-04
1.465000000000000000e+03 4.646548748016357422e+00 -1.602464675903320312e+01 7.246361201396211982e-05 1.381534675601869822e-04 6.318512168945744634e-05 -9.412779036210849881e-05
1.466000000000000000e+03 2.183869361877441406e+00 -1.363015651702880859e+01 2.783372765406966209e-04 -1.986700772249605507e-05 7.754108082735911012e-05 1.532428200334834401e-06
1.467000000000000000e+03 6.906718015670776367e-01 -1.217374992370605469e+01 2.872881595976650715e-04 6.017960004101041704e-06 8.799183706287294626e-05 -2.281015804328490049e-05
1.468000000000000000e+03 9.229174613952636719e+00 -1.962944412231445312e+01 3.090331156272441149e-04 1.012810098472982645e-04 1.230942289112135768e-04 -1.519149227533489466e-04
1.469000000000000000e+03 6.895163059234619141e+00 -1.853433227539062500e+01 2.852404140867292881e-04 9.064788901014253497e-05 1.127664872910827398e-04 -1.633944521017838269e-05
1.470000000000000000e+03 5.798326969146728516e+00 -1.648104286193847656e+01 -2.877697115764021873e-04 -9.193699224852025509e-05 -1.139120067819021642e-04 -4.329474904807284474e-05
1.471000000000000000e+03 2.046248912811279297e+00 -1.227612018585205078e+01 -2.574869431555271149e-04 3.022614464498474263e-06 -7.633929635630920529e-05 -1.160463671112665907e-05
1.472000000000000000e+03 6.905541419982910156e-01 -1.079072093963623047e+01 -2.609250659588724375e-04 -3.768403757931082509e-06 -7.940804789541289210e-05 2.551372563175391406e-05
1.473000000000000000e+03 1.403959846496582031e+01 -4.038941860198974609e+00 -4.120624362258240581e-05 -1.809755667636636645e-05 -1.779114063538145274e-05 -2.016900180024094880e-05
1.474000000000000000e+03 1.519313144683837891e+01 -4.785843849182128906e+00 -4.567081487039104104e-05 -1.816116491681896150e-05 -1.914959284476935863e-05 -2.031430267379619181e-05
1.475000000000000000e+03 1.498756599426269531e+01 -6.214734077453613281e+00 5.554403833230026066e-05 1.371882262901635841e-05 2.077885801554657519e-05 6.117414613981964067e-06
1.476000000000000000e+03 1.660538482666015625e+01 -7.825748920440673828e+00 3.718127481988631189e-05 1.298222468903986737e-05 1.504904957982944325e-05 -1.276896728086285293e-05
1.477000000000000000e+03 1.933761978149414062e+01 -1.022525691986083984e+01 4.097127384738996625e-05 3.822787039098329842e-05 2.375974327151197940e-05 6.078854312363546342e-06
1.478000000000000000e+03 1.978687095642089844e+01 -1.074265575408935547e+01 -7.316895062103867531e-05 -1.593077399775211234e-06 -2.242860864498652518e-05 -6.597500032512471080e-06
1.479000000000000000e+03 2.158464431762695312e+01 -1.199036216735839844e+01 -3.356807383170234971e-06 -3.041153649974148721e-05 -1.013050314213614911e-05 -2.593805902506574057e-06
1.480000000000000000e+03 2.077839088439941406e+01 -1.093317222595214844e+01 -3.089928577537648380e-05 -3.830535206361673772e-05 -2.076139026030432433e-05 -2.606901398394256830e-05
1.481000000000000000e+03 1.362814521789550781e+01 -4.698307991027832031e+00 4.633771095541305840e-05 2.545033748901914805e-05 2.153641435143072158e-05 2.304782901774160564e-05
1.482000000000000000e+03 1.219773483276367188e+01 -3.012560367584228516e+00 3.415677201701328158e-05 2.370907168369740248e-05 1.735975274641532451e-05 6.872076937725069001e-06
1.483000000000000000e+03 1.151838588714599609e+01 -2.655344247817993164e+00 -2.620407030917704105e-05 -2.766969009826425463e-05 -1.616212830413132906e-05 -3.847675543511286378e-06
1.484000000000000000e+03 1.077619934082031250e+01 -2.303802728652954102e+00 2.465981378918513656e-05 3.242542152293026447e-05 1.712557059363462031e-05 -3.598446198793681106e-07
1.485000000000000000e+03 9.632515907287597656e+00 -3.089064359664916992e+00 -8.114262163871899247e-05 3.003687197633553296e-05 -1.533172326162457466e-05 -2.857707841030787677e-06
1.486000000000000000e+03 9.823180198669433594e+00 -5.173884391784667969e+00 -1.191432238556444645e-04 8.291033736895769835e-06 -3.325565921841189265e-05 -1.253277423529652879e-05
1.487000000000000000e+03 1.054391956329345703e+01 -7.407466888427734375e+00 -4.733979949378408492e-06 -7.126292621251195669e-05 -2.279907312185969204e-05 -3.034577457583509386e-05
1.488000000000000000e+03 9.746789932250976562e+00 -8.491196632385253906e+00 -4.786872887052595615e-05 -2.859819505829364061e-05 -2.294007754244375974e-05 -4.394419011077843606e-05
1.489000000000000000e+03 9.613468170166015625e+00 -1.014525318145751953e+01 1.242361613549292088e-04 1.094354374799877405e-04 7.010147965047508478e-05 -4.859398541157133877e-05
1.490000000000000000e+03 9.929988861083984375e+00 -1.200634098052978516e+01 4.539811925496906042e-05 5.280247933114878833e-05 2.946017957583535463e-05 -5.980561400065198541e-05
1.491000000000000000e+03 9.979538917541503906e+00 -1.470583915710449219e+01 1.381120964651927352e-04 -7.331834058277308941e-05 1.943812640092801303e-05 9.122893970925360918e-05
1.492000000000000000e+03 9.153388023376464844e+00 -1.599607658386230469e+01 2.223643823526799679e-04 -6.182764082041103393e-06 6.485448830062523484e-05 -1.013164583127945662e-04
1.493000000000000000e+03 9.808492660522460938e+00 -1.843939590454101562e+01 -3.421931760385632515e-04 -6.941388710401952267e-05 -1.234821102116256952e-04 1.159764651674777269e-04
1.494000000000000000e+03 1.037302589416503906e+01 -1.729932975769042969e+01 4.522643575910478830e-04 4.509154314291663468e-05 1.492067676736041903e-04 -5.930087718297727406e-05
1.495000000000000000e+03 8.492671966552734375e+00 -1.791217422485351562e+01 2.983791928272694349e-04 1.142978508141823113e-04 1.238031109096482396e-04 -6.986114021856337786e-05
1.496000000000000000e+03 1.658470726013183594e+01 -1.029712867736816406e+01 -3.469571674941107631e-05 -9.198254701914265752e-06 -1.316819179919548333e-05 -3.930679667973890901e-05
1.497000000000000000e+03 2.059475326538085938e+01 -1.314938926696777344e+01 3.302438926766626537e-05 9.128937381319701672e-05 3.729412856046110392e-05 -2.856072387658059597e-05
1.498000000000000000e+03 1.926627159118652344e+01 -1.222159004211425781e+01 -1.481767412769841030e-06 2.827541356964502484e-05 8.038093255890998989e-06 1.898720620374660939e-05
1.499000000000000000e+03 2.139121246337890625e+01 -1.387127304077148438e+01 -1.852016066550277174e-05 2.352974115638062358e-05 1.502874624748073984e-06 2.264431941512157209e-06
1.500000000000000000e+03 2.221670722961425781e+01 -1.320783805847167969e+01 -1.348731711914297193e-05 -9.619313459552358836e-06 -6.931989446457009763e-06 1.467982929170830175e-05
1.501000000000000000e+03 2.252754783630371094e+01 -1.428303146362304688e+01 -1.266612889594398439e-05 -2.763448901532683522e-05 -1.209018591907806695e-05 1.759984229465771932e-06
1.502000000000000000e+03 1.662805557250976562e+01 -1.233061313629150391e+01 -3.149784333800198510e-06 9.586256965121719986e-06 1.930941834871191531e-06 -1.668365712248487398e-08
1.503000000000000000e+03 1.955931091308593750e+01 -1.329294204711914062e+01 -1.445194084226386622e-05 -1.028697661240585148e-04 -3.519651363603770733e-05 2.272363963129464537e-05
1.504000000000000000e+03 1.677297592163085938e+01 -1.336705207824707031e+01 -6.220276645763078704e-06 -1.226492458954453468e-04 -3.866085899062454700e-05 1.459007944504264742e-05
1.505000000000000000e+03 1.514036464691162109e+01 -1.234499740600585938e+01 7.480857311747968197e-05 2.156959453714080155e-05 2.891345138777978718e-05 1.800253266992513090e-05
1.506000000000000000e+03 1.237520503997802734e+01 -1.100929927825927734e+01 8.103249274427071214e-05 1.317049755016341805e-04 6.382123683579266071e-05 -3.228661444154568017e-05
1.507000000000000000e+03 1.019370841979980469e+01 -9.480538368225097656e+00 -3.004067366418894380e-05 -3.601627213356550783e-06 -1.009268999041523784e-05 9.571894770488142967e-05
1.508000000000000000e+03 8.586720466613769531e+00 -8.454442977905273438e+00 1.323869219049811363e-04 1.941966183949261904e-05 4.554197585093788803e-05 -7.113093261068570428e-07
1.509000000000000000e+03 2.243548965454101562e+01 -1.375467777252197266e+01 1.190776674775406718e-05 -7.731055120530072600e-06 1.253013579116668552e-06 -1.038126993080368266e-05
1.510000000000000000e+03 2.027143096923828125e+01 -1.217228984832763672e+01 -2.876652069971896708e-05 -5.429116208688355982e-05 -2.491730447218287736e-05 -3.649840436992235482e-05
1.511000000000000000e+03 1.999101829528808594e+01 -9.717408180236816406e+00 -4.283161615603603423e-05 -1.879636329249478877e-05 -1.848839383455924690e-05 -1.232830891240155324e-05
1.512000000000000000e+03 1.912253379821777344e+01 -8.604952812194824219e+00 -3.605127130867913365e-05 -2.225286880275234580e-05 -1.749124203342944384e-05 -1.431025430065346882e-05
1.513000000000000000e+03 1.846730995178222656e+01 -9.089757919311523438e+00 5.705119838239625096e-05 1.324335607932880521e-05 2.108836633851751685e-05 1.370228710584342480e-05
1.514000000000000000e+03 1.823663139343261719e+01 -7.527792930603027344e+00 -3.311612090328708291e-05 -2.125359605997800827e-05 -1.631091436138376594e-05 -1.145219084719428793e-05
1.515000000000000000e+03 1.728621673583984375e+01 -6.516838073730468750e+00 -3.647082849056459963e-05 -2.152754677808843553e-05 -1.739951221679802984e-05 -1.510745278210379183e-05
1.516000000000000000e+03 1.632375144958496094e+01 -6.456696033477783203e+00 -3.836558971670456231e-05 -2.300615051353815943e-05 -1.841152152337599546e-05 -1.406515366397798061e-05
1.517000000000000000e+03 1.674939537048339844e+01 -6.931922435760498047e+00 3.577033567125909030e-05 2.148120620404370129e-05 1.717546183499507606e-05 6.225453944352921098e-06
1.518000000000000000e+03 1.479477977752685547e+01 -5.346908092498779297e+00 4.928048292640596628e-05 2.014868550759274513e-05 2.082875107589643449e-05 1.404551494488259777e-05
1.519000000000000000e+03 1.534426879882812500e+01 -5.682513236999511719e+00 -5.200478699407540262e-05 -1.420100761606590822e-05 -1.986173811019398272e-05 -1.732085002004168928e-05
1.520000000000000000e+03 1.003169536590576172e+01 -1.985441923141479492e+00 -2.252517333545256406e-05 -3.242509046685881913e-05 -1.648507895879447460e-05 3.118207587249344215e-06
1.521000000000000000e+03 7.764607906341552734e+00 -1.982201695442199707e+00 -2.726197578795108711e-07 1.646772761887405068e-05 4.858532520302105695e-06 1.249458728125318885e-05
1.522000000000000000e+03 7.740802764892578125e+00 -3.412493467330932617e+00 -7.265822932822629809e-05 -2.542137008276768029e-05 -2.942387982329819351e-05 -2.951196620415430516e-06
1.523000000000000000e+03 7.294915676116943359e+00 -5.021812915802001953e+00 -7.160471432143822312e-05 -5.539900303119793534e-05 -3.810111593338660896e-05 -1.134213289333274588e-05
1.524000000000000000e+03 7.793731689453125000e+00 -6.948479175567626953e+00 8.082667773123830557e-05 4.875499143963679671e-05 3.887450293404981494e-05 -3.813401417573913932e-05
1.525000000000000000e+03 6.237319946289062500e+00 -8.399559020996093750e+00 9.561255137668922544e-05 -1.513739516667556018e-05 2.414254595350939780e-05 -9.432831575395539403e-06
1.526000000000000000e+03 7.493270874023437500e+00 -1.084936618804931641e+01 1.921481270983349532e-05 -4.271150464774109423e-05 -7.049007763271220028e-06 1.103128452086821198e-04
1.527000000000000000e+03 8.850605964660644531e+00 -1.254328632354736328e+01 1.592168337083421648e-05 -7.765465124975889921e-05 -1.851988963608164340e-05 1.075545005733147264e-04
1.528000000000000000e+03 8.153377532958984375e+00 -1.621308898925781250e+01 -7.419184112222865224e-05 -1.000449992716312408e-05 -2.525890158722177148e-05 2.518979272281285375e-05
1.529000000000000000e+03 7.154227256774902344e+00 -1.752455520629882812e+01 -3.034799301531165838e-04 -1.313631655648350716e-04 -1.304529287153854966e-04 -8.513155080436263233e-06
1.530000000000000000e+03 6.920897006988525391e+00 -2.041695594787597656e+00 -3.958063462050631642e-05 -5.613245775748509914e-06 -1.355816402792697772e-05 -1.326330220763338730e-05
1.531000000000000000e+03 5.992307662963867188e+00 -2.897770404815673828e+00 -5.479556057252921164e-05 -1.413570953445741907e-05 -2.067938112304545939e-05 -1.957108179340139031e-05
1.532000000000000000e+03 5.668452739715576172e+00 -4.510368824005126953e+00 -1.093423561542294919e-04 -9.690847036836203188e-06 -3.570996341295540333e-05 -5.740122651332058012e-05
1.533000000000000000e+03 5.328668117523193359e+00 -8.642298698425292969e+00 2.738691182457841933e-05 -9.059159310709219426e-06 5.498325663211289793e-06 -3.629215279943309724e-05
1.534000000000000000e+03 7.153237342834472656e+00 -1.215264892578125000e+01 2.647240398800931871e-05 -6.180418859003111720e-05 -1.059953592630336061e-05 1.325965131400153041e-04
1.535000000000000000e+03 6.875193119049072266e+00 -1.356039714813232422e+01 -8.921905100578442216e-05 -6.523924821522086859e-05 -4.633748903870582581e-05 1.583953999215736985e-04
1.536000000000000000e+03 6.498471736907958984e+00 -1.437698745727539062e+01 2.748408296611160040e-04 -1.737246930133551359e-05 7.724051101831719279e-05 -1.086557022063061595e-04
1.537000000000000000e+03 7.064290523529052734e+00 -1.645725250244140625e+01 2.428091829642653465e-04 5.168416100786998868e-05 8.834800246404483914e-05 6.600940650969278067e-06
1.538000000000000000e+03 1.241892933845520020e+00 -1.953844666481018066e+00 -2.085280129904276691e-06 3.439628926571458578e-05 9.693302672530990094e-06 7.407038083329098299e-06
1.539000000000000000e+03 4.342452883720397949e-01 -2.122312068939208984e+00 -3.875705078826285899e-05 -1.489147871325258166e-05 -1.609455830475781113e-05 -1.714905738481320441e-05
1.540000000000000000e+03 2.896510601043701172e+00 -3.827386617660522461e+00 9.985381620936095715e-05 -1.652462378842756152e-05 2.499875881767366081e-05 2.379938450758345425e-06
1.541000000000000000e+03 5.570645809173583984e+00 -5.984168529510498047e+00 -9.282474638894200325e-05 -2.844530536094680429e-05 -3.638101406977511942e-05 -5.948203033767640591e-05
1.542000000000000000e+03 4.646412849426269531e+00 -5.149256706237792969e+00 -1.220542180817574263e-04 -6.166124421724816784e-06 -3.846610343316569924e-05 -5.480328763951547444e-05
1.543000000000000000e+03 4.792572021484375000e+00 -4.348808765411376953e+00 1.137444996857084334e-04 -3.511263685140875168e-06 3.306997314211912453e-05 4.346083005657419562e-05
1.544000000000000000e+03 4.202422142028808594e+00 -3.340904951095581055e+00 8.988489571493119001e-05 -1.207670175062958151e-05 2.334245800739154220e-05 -1.552954927319660783e-05
1.545000000000000000e+03 2.117630243301391602e+00 -3.369750976562500000e+00 -1.081218397303018719e-05 -2.702447272895369679e-05 -1.135099682869622484e-05 2.297575156262610108e-05
1.546000000000000000e+03 2.928193807601928711e+00 -2.964899301528930664e+00 -5.890119064133614302e-05 1.800301288312766701e-05 -1.226945369126042351e-05 -1.286574752157321200e-05
1.547000000000000000e+03 1.304607152938842773e+00 -4.208489894866943359e+00 5.951131606707349420e-05 3.470260935500846244e-06 1.889447230496443808e-05 -4.457982504391111434e-05
1.548000000000000000e+03 7.972475886344909668e-01 -5.289942741394042969e+00 -1.394318824168294668e-04 -1.425805749022401869e-05 -4.610698306350968778e-05 2.652913644851651043e-05
1.549000000000000000e+03 3.513389348983764648e+00 -5.886590957641601562e+00 -1.362941111437976360e-04 -1.658786095504183322e-05 -4.586459181155078113e-05 -4.781600728165358305e-05
1.550000000000000000e+03 4.946321964263916016e+00 -7.719409465789794922e+00 6.970982940401881933e-05 1.746636735333595425e-05 2.615285848150961101e-05 4.208500467939302325e-05
1.551000000000000000e+03 4.715316295623779297e+00 -6.827887535095214844e+00 -9.478552237851545215e-05 -2.616909114294685423e-05 -3.628638296504504979e-05 -4.505458127823658288e-05
1.552000000000000000e+03 7.628737092018127441e-01 -6.583677291870117188e+00 1.761573366820812225e-04 5.666649940394563600e-06 5.454719575936906040e-05 -1.550665183458477259e-05
1.553000000000000000e+03 3.775218486785888672e+00 -7.862687110900878906e+00 -1.128950170823372900e-04 -3.826775810011895373e-06 -3.501653918647207320e-05 -4.788793012266978621e-05
1.554000000000000000e+03 4.615815639495849609e+00 -1.011127281188964844e+01 -1.585032878210768104e-04 -4.521673326962627470e-05 -6.111600669100880623e-05 -9.051828965311869979e-05
1.555000000000000000e+03 4.244093418121337891e+00 -8.946842193603515625e+00 1.035658569890074432e-04 -1.123568381444783881e-05 2.769905222521629184e-05 8.213684486690908670e-05
1.556000000000000000e+03 8.334155082702636719e-01 -7.975334644317626953e+00 -1.986544812098145485e-04 4.755514510179637000e-06 -5.816969132865779102e-05 2.001811299123801291e-05
1.557000000000000000e+03 3.290734529495239258e+00 -1.010637569427490234e+01 1.555923518026247621e-04 6.638107879552990198e-05 6.659203063463792205e-05 1.047845871653407812e-04
1.558000000000000000e+03 5.494826793670654297e+00 -1.173642349243164062e+01 -7.204130088211968541e-05 -2.817841050273273140e-06 -2.245774157927371562e-05 3.913864929927513003e-05
1.559000000000000000e+03 4.558227062225341797e+00 -1.217095851898193359e+01 -1.594526984263211489e-04 3.325856960145756602e-05 -3.785823719226755202e-05 -6.048571231076493859e-05
1.560000000000000000e+03 7.998133301734924316e-01 -9.398470878601074219e+00 2.211887476732954383e-04 6.734524049534229562e-06 6.837698310846462846e-05 -2.624195076350588351e-05
1.561000000000000000e+03 3.280036926269531250e+00 -1.112989616394042969e+01 -1.999598316615447402e-04 -3.946000651922076941e-05 -7.182595436461269855e-05 -7.957401248859241605e-05
1.562000000000000000e+03 4.945356845855712891e+00 -1.325057315826416016e+01 1.463498629163950682e-04 -4.450941196409985423e-05 3.055213528568856418e-05 3.807544271694496274e-05
1.563000000000000000e+03 8.771352767944335938e-01 -2.508109664916992188e+01 -3.422047011554241180e-04 -3.506323264446109533e-05 -1.131803801399655640e-04 1.218455363414250314e-04
1.564000000000000000e+03 2.540342807769775391e+00 -2.536513900756835938e+01 4.891930730082094669e-04 -1.231598616868723184e-05 1.430631236871704459e-04 -1.356324646621942520e-04
1.565000000000000000e+03 5.302022457122802734e+00 -2.540921592712402344e+01 5.356004112400114536e-04 4.128571526962332428e-05 1.730658404994755983e-04 -1.916912733577191830e-04
1.566000000000000000e+03 6.569947242736816406e+00 -2.994381141662597656e+01 -4.980495432391762733e-04 -3.769150134758092463e-05 -1.607223239261657000e-04 2.830150478985160589e-04
1.567000000000000000e+03 6.976470947265625000e-01 -2.646233177185058594e+01 3.681775124277919531e-04 5.253759081824682653e-05 1.262145233340561390e-04 -1.537613861728459597e-04
1.568000000000000000e+03 4.678890705108642578e+00 -2.856613922119140625e+01 -4.572119796648621559e-04 1.773559051798656583e-05 -1.318429276579990983e-04 1.985278795473277569e-04
1.569000000000000000e+03 5.715331435203552246e-01 -2.769901466369628906e+01 -2.873968915082514286e-04 -5.611076994682662189e-05 -1.030522980727255344e-04 1.195839868159964681e-04
1.570000000000000000e+03 3.311538219451904297e+00 -2.877091789245605469e+01 3.650145663414150476e-04 3.766618465306237340e-05 1.208042303915135562e-04 -1.435950980521738529e-04
1.571000000000000000e+03 5.095651149749755859e+00 -3.017517280578613281e+01 4.789050435647368431e-04 1.206516462843865156e-04 1.798669982235878706e-04 -1.803869818104431033e-04
1.572000000000000000e+03 7.590538859367370605e-01 -3.057135963439941406e+01 -2.670277172001078725e-05 -7.554659532615914941e-05 -3.067481156904250383e-05 3.945815478800795972e-05
1.573000000000000000e+03 3.661489486694335938e+00 -3.034406471252441406e+01 -3.278061340097337961e-04 -5.705421426682732999e-05 -1.154581041191704571e-04 2.019748644670471549e-04
1.574000000000000000e+03 2.238327503204345703e+00 -3.054143524169921875e+01 2.064671280095353723e-04 8.162872836692258716e-05 8.642875764053314924e-05 -1.047441182890906930e-04
1.575000000000000000e+03 4.930056631565093994e-01 -3.454296112060546875e+01 1.948077988345175982e-04 -3.671558806672692299e-05 4.742766395793296397e-05 4.930892100674100220e-05
1.576000000000000000e+03 8.722184896469116211e-01 -3.579747009277343750e+01 -1.410336117260158062e-04 -6.540794129250571132e-05 -6.193246372276917100e-05 -3.050076702493242919e-05
1.577000000000000000e+03 1.062785029411315918e+00 -3.731737899780273438e+01 2.281529013998806477e-04 5.044284989708103240e-05 8.357872866326943040e-05 1.258320407941937447e-04
1.578000000000000000e+03 4.568741321563720703e+00 -4.020156860351562500e+01 1.877530157798901200e-04 5.710185505449771881e-04 2.276314771734178066e-04 6.139905599411576986e-05
1.579000000000000000e+03 9.290453195571899414e-01 -3.883537292480468750e+01 -4.604887799359858036e-04 5.093995059723965824e-05 -1.228646578965708613e-04 -8.733843424124643207e-05
1.580000000000000000e+03 1.110563993453979492e+00 -4.013816452026367188e+01 4.746445920318365097e-04 5.695160507457330823e-05 1.594788627699017525e-04 5.984879317111335695e-05
1.581000000000000000e+03 1.937500953674316406e+00 -4.162815093994140625e+01 -2.002541441470384598e-04 1.197055680677294731e-04 -2.416457209619693458e-05 6.332001066766679287e-05
1.582000000000000000e+03 1.736334800720214844e+01 -3.731999588012695312e+01 -8.493162458762526512e-04 1.007032929919660091e-03 4.731501758215017617e-05 2.203379524871706963e-03
1.583000000000000000e+03 1.332316875457763672e+01 -3.233871459960937500e+01 2.769942693703342229e-05 4.516653716564178467e-04 1.438094477634876966e-04 4.202938289381563663e-04
1.584000000000000000e+03 1.460006713867187500e+01 -3.607492446899414062e+01 -1.308431033976376057e-03 3.538392484188079834e-04 -2.863775298465043306e-04 1.221296726725995541e-03
1.585000000000000000e+03 3.312464904785156250e+01 -3.557190704345703125e+01 -1.066039409488439560e-02 -1.251758541911840439e-02 -6.953394040465354919e-03 -1.745442487299442291e-02
1.586000000000000000e+03 3.345200729370117188e+01 -3.320018005371093750e+01 4.044979345053434372e-03 -2.688152017071843147e-03 4.070481809321790934e-04 -9.443657472729682922e-03
1.587000000000000000e+03 5.042842102050781250e+01 -3.827510070800781250e+01 -1.151398941874504089e-01 3.245259225368499756e-01 6.281581521034240723e-02 4.301480203866958618e-02
1.588000000000000000e+03 4.969066619873046875e+01 -3.584938812255859375e+01 -1.214400082826614380e-01 3.726280331611633301e-01 7.535640895366668701e-02 7.685293257236480713e-02
1.589000000000000000e+03 4.940983200073242188e+01 -3.376471328735351562e+01 -1.529855579137802124e-01 4.752606451511383057e-01 9.668253362178802490e-02 9.921370446681976318e-02
1.590000000000000000e+03 4.944157791137695312e+01 -3.200392532348632812e+01 -1.776198297739028931e-01 6.400560140609741211e-01 1.387308537960052490e-01 6.547024846076965332e-02
1.591000000000000000e+03 4.980595016479492188e+01 -2.926246070861816406e+01 -1.543992459774017334e-01 1.102870106697082520e+00 2.845412790775299072e-01 -9.195369482040405273e-02
1.592000000000000000e+03 5.023414611816406250e+01 -2.654857826232910156e+01 2.621639966964721680e-01 1.949905633926391602e+00 6.636208891868591309e-01 -5.555518269538879395e-01
1.593000000000000000e+03 4.970792007446289062e+01 -2.598905372619628906e+01 3.193258345127105713e-01 2.801039457321166992e+00 9.361095428466796875e-01 -1.074970439076423645e-01
1.594000000000000000e+03 5.136618423461914062e+01 -3.350526046752929688e+01 -1.012717708945274353e-01 5.317519903182983398e-01 1.291440725326538086e-01 -5.735155567526817322e-02
1.595000000000000000e+03 4.973767471313476562e+01 -3.067590713500976562e+01 -1.779789626598358154e-01 8.315982818603515625e-01 1.960857957601547241e-01 -3.644566517323255539e-03
1.596000000000000000e+03 5.115882873535156250e+01 -2.925894546508789062e+01 -3.986998647451400757e-02 9.210737943649291992e-01 2.643611431121826172e-01 -3.147443532943725586e-01
1.597000000000000000e+03 5.232854461669921875e+01 -2.822793388366699219e+01 2.004666775465011597e-01 6.545639634132385254e-01 2.565091848373413086e-01 -4.524625539779663086e-01
1.598000000000000000e+03 5.174482345581054688e+01 -2.778854370117187500e+01 2.436875551939010620e-01 8.460668325424194336e-01 3.269263207912445068e-01 -5.068398714065551758e-01
1.599000000000000000e+03 5.489342880249023438e+01 -3.971961593627929688e+01 -1.113407239317893982e-01 3.406535983085632324e-01 6.879386305809020996e-02 -2.383816242218017578e-02
1.600000000000000000e+03 5.302470779418945312e+01 -3.739126968383789062e+01 -1.084943637251853943e-01 4.016638696193695068e-01 8.795084804296493530e-02 -2.139218337833881378e-02
1.601000000000000000e+03 5.486549758911132812e+01 -3.612613677978515625e+01 -6.303413212299346924e-02 4.028325974941253662e-01 1.019395366311073303e-01 -6.820552051067352295e-02
1.602000000000000000e+03 5.373079681396484375e+01 -3.454131698608398438e+01 -3.110859729349613190e-02 4.593028724193572998e-01 1.284582763910293579e-01 -9.531657397747039795e-02
1.603000000000000000e+03 5.357162475585937500e+01 -2.915939140319824219e+01 1.172533035278320312e-01 4.401070773601531982e-01 1.672081053256988525e-01 -3.486872315406799316e-01
1.604000000000000000e+03 5.294046020507812500e+01 -2.869353485107421875e+01 1.627382934093475342e-01 5.339106321334838867e-01 2.089946866035461426e-01 -3.975947499275207520e-01
1.605000000000000000e+03 5.622472000122070312e+01 -3.480488204956054688e+01 2.533240616321563721e-02 4.042531251907348633e-01 1.288756579160690308e-01 -1.330302208662033081e-01
1.606000000000000000e+03 5.517542266845703125e+01 -3.359622955322265625e+01 6.727424263954162598e-02 4.352369010448455811e-01 1.507533490657806396e-01 -1.367030590772628784e-01
1.607000000000000000e+03 5.494706726074218750e+01 -3.106304931640625000e+01 1.128868535161018372e-01 3.941665887832641602e-01 1.521160304546356201e-01 -2.679598927497863770e-01
1.608000000000000000e+03 5.551093292236328125e+01 -3.021632766723632812e+01 4.960338771343231201e-02 3.670281171798706055e-01 1.249894574284553528e-01 -2.224928736686706543e-01
1.609000000000000000e+03 5.486737060546875000e+01 -2.986818313598632812e+01 7.935409992933273315e-02 3.461658656597137451e-01 1.276559829711914062e-01 -2.624457180500030518e-01
1.610000000000000000e+03 5.726164245605468750e+01 -3.355437088012695312e+01 1.925651133060455322e-01 3.274034261703491211e-01 1.559905558824539185e-01 -2.291687726974487305e-01
1.611000000000000000e+03 5.632254028320312500e+01 -3.251768493652343750e+01 1.962336003780364990e-01 5.075511336326599121e-01 2.111354321241378784e-01 -2.656729817390441895e-01
1.612000000000000000e+03 5.611838531494140625e+01 -3.057155036926269531e+01 4.087925329804420471e-02 4.821304976940155029e-01 1.569029241800308228e-01 -1.048273667693138123e-01
1.613000000000000000e+03 5.818803024291992188e+01 -4.110195541381835938e+01 -6.566639244556427002e-02 2.492391169071197510e-01 5.507181584835052490e-02 -2.628203853964805603e-02
1.614000000000000000e+03 5.916968536376953125e+01 -3.854420852661132812e+01 -2.775003015995025635e-02 1.986717134714126587e-01 5.127650499343872070e-02 -7.769136875867843628e-02
1.615000000000000000e+03 5.960697937011718750e+01 -3.649557113647460938e+01 1.994051784276962280e-02 1.390392929315567017e-01 4.769394174218177795e-02 -1.052976250648498535e-01
1.616000000000000000e+03 5.991544342041015625e+01 -3.484915542602539062e+01 5.143047124147415161e-02 4.189734160900115967e-02 2.799834497272968292e-02 -6.836096197366714478e-02
1.617000000000000000e+03 5.846884155273437500e+01 -3.440631484985351562e+01 1.489895135164260864e-01 1.800680905580520630e-01 9.871727973222732544e-02 -1.468857973814010620e-01
1.618000000000000000e+03 6.268833541870117188e+01 -4.117116165161132812e+01 7.813751697540283203e-03 7.253580540418624878e-02 2.410486713051795959e-02 -8.162558078765869141e-03
1.619000000000000000e+03 6.167472839355468750e+01 -3.638042449951171875e+01 1.627644710242748260e-02 2.968888171017169952e-02 1.378959883004426956e-02 -4.805774241685867310e-02
1.620000000000000000e+03 6.137477874755859375e+01 -3.489315032958984375e+01 -1.620016247034072876e-02 2.096099592745304108e-02 1.428249874152243137e-03 -2.144408784806728363e-02
1.621000000000000000e+03 6.425627899169921875e+01 -3.505945205688476562e+01 -4.156750068068504333e-02 7.246317807585000992e-03 -1.029635500162839890e-02 -5.523320753127336502e-03
1.622000000000000000e+03 6.711302947998046875e+01 -3.386373901367187500e+01 -2.022416889667510986e-02 -7.896551687736064196e-05 -6.090940441936254501e-03 -5.138452164828777313e-03
1.623000000000000000e+03 6.847747802734375000e+01 -3.322702026367187500e+01 -1.327231153845787048e-02 -1.811958500184118748e-03 -4.525281023234128952e-03 -2.436420414596796036e-03
1.624000000000000000e+03 7.092335510253906250e+01 -3.524569320678710938e+01 -6.181189790368080139e-03 2.097324933856725693e-03 -1.225159387104213238e-03 5.171908531337976456e-03
1.625000000000000000e+03 6.997560882568359375e+01 -3.661944961547851562e+01 -4.300640895962715149e-03 2.310392446815967560e-03 -5.970745696686208248e-04 8.845933713018894196e-03
1.626000000000000000e+03 7.355178833007812500e+01 -3.808849334716796875e+01 2.342010615393519402e-03 -3.031478030607104301e-03 -2.068402536679059267e-04 6.421905942261219025e-03
1.627000000000000000e+03 7.499005126953125000e+01 -4.043402862548828125e+01 2.354159019887447357e-03 -6.564039736986160278e-03 -1.262964215129613876e-03 1.928202458657324314e-03
1.628000000000000000e+03 7.797405242919921875e+01 -4.166447830200195312e+01 4.178691888228058815e-04 -5.778235383331775665e-03 -1.608109800145030022e-03 1.080843139789067209e-04
1.629000000000000000e+03 6.245769882202148438e+01 -3.847719192504882812e+01 1.323313359171152115e-02 5.522619932889938354e-02 2.053779922425746918e-02 -3.233480453491210938e-02
1.630000000000000000e+03 6.515442657470703125e+01 -3.739760971069335938e+01 4.492447245866060257e-03 8.837427012622356415e-03 3.998962230980396271e-03 8.261195383965969086e-03
1.631000000000000000e+03 6.782240295410156250e+01 -3.539051818847656250e+01 -1.977318339049816132e-02 1.545517938211560249e-03 -5.468299612402915955e-03 5.474498029798269272e-03
1.632000000000000000e+03 6.806123352050781250e+01 -3.688944625854492188e+01 -2.959375269711017609e-03 1.832770998589694500e-03 -3.379812987986952066e-04 1.183258183300495148e-02
1.633000000000000000e+03 6.659286499023437500e+01 -3.609867095947265625e+01 -1.543733663856983185e-02 -1.734329853206872940e-03 -5.151499994099140167e-03 8.731894195079803467e-03
1.634000000000000000e+03 7.086003875732421875e+01 -3.868854141235351562e+01 4.950185772031545639e-03 1.602489850483834743e-03 1.965802628546953201e-03 8.334824815392494202e-03
1.635000000000000000e+03 7.866112518310546875e+01 -4.015184783935546875e+01 4.547260759864002466e-04 -5.596732255071401596e-03 -1.542601850815117359e-03 5.163208115845918655e-04
1.636000000000000000e+03 7.650849151611328125e+01 -3.928404617309570312e+01 6.396847311407327652e-04 -3.948817495256662369e-03 -9.927398059517145157e-04 2.194123575463891029e-03
1.637000000000000000e+03 7.554122924804687500e+01 -3.784717559814453125e+01 3.404767485335469246e-04 -3.563128877431154251e-03 -9.667956037446856499e-04 2.358828438445925713e-03
1.638000000000000000e+03 7.294032287597656250e+01 -3.575675964355468750e+01 -2.280740765854716301e-03 2.027296228334307671e-03 -7.603330595884472132e-05 5.819558165967464447e-03
1.639000000000000000e+03 7.279350280761718750e+01 -3.387034225463867188e+01 -4.795024171471595764e-03 1.284691155888140202e-03 -1.053099869750440121e-03 2.889839233830571175e-03
1.640000000000000000e+03 7.152520751953125000e+01 -3.197056770324707031e+01 -4.526077304035425186e-03 8.592263329774141312e-04 -1.100055291317403316e-03 -8.743811631575226784e-04
1.641000000000000000e+03 6.958678436279296875e+01 -3.225564193725585938e+01 -6.774622015655040741e-03 -1.985400740522891283e-04 -2.091948641464114189e-03 -2.522289752960205078e-03
1.642000000000000000e+03 7.896720123291015625e+01 -3.880118560791015625e+01 -3.976685693487524986e-04 -4.857614170759916306e-03 -1.576584880240261555e-03 7.186647271737456322e-04
1.643000000000000000e+03 7.714813232421875000e+01 -3.821519470214843750e+01 3.752636548597365618e-04 -3.720834152773022652e-03 -1.003671088255941868e-03 1.963474554941058159e-03
1.644000000000000000e+03 7.618654632568359375e+01 -3.532545852661132812e+01 -8.635249105282127857e-04 -1.450496492907404900e-03 -6.942064501345157623e-04 2.661705482751131058e-03
1.645000000000000000e+03 7.433760070800781250e+01 -3.383603286743164062e+01 -2.597574144601821899e-03 1.425230060704052448e-03 -3.517032600939273834e-04 3.314243862405419350e-03
1.646000000000000000e+03 7.191336822509765625e+01 -3.089231109619140625e+01 -2.707292325794696808e-03 -2.134003589162603021e-04 -8.762077777646481991e-04 -2.638941223267465830e-04
1.647000000000000000e+03 7.147322082519531250e+01 -2.932332038879394531e+01 -9.460030705668032169e-04 -7.456229650415480137e-05 -3.061696188524365425e-04 1.796113792806863785e-04
1.648000000000000000e+03 7.036114501953125000e+01 -3.106127357482910156e+01 -3.079912858083844185e-03 -1.072672079317271709e-03 -1.245775492861866951e-03 -3.410981735214591026e-04
1.649000000000000000e+03 7.922896575927734375e+01 -3.613804244995117188e+01 -6.100792670622467995e-04 -2.892421092838048935e-03 -1.050750026479363441e-03 5.875136121176183224e-04
1.650000000000000000e+03 7.769596099853515625e+01 -3.579318618774414062e+01 4.558046057354658842e-04 -2.713634399697184563e-03 -6.773489294573664665e-04 1.552176545374095440e-03
1.651000000000000000e+03 7.657432556152343750e+01 -3.415324401855468750e+01 -2.540521963965147734e-04 -1.337208319455385208e-03 -4.773781693074852228e-04 1.816510455682873726e-03
1.652000000000000000e+03 7.405785369873046875e+01 -3.243546295166015625e+01 -3.147337818518280983e-03 6.348739843815565109e-04 -7.537391502410173416e-04 1.227320055477321148e-03
1.653000000000000000e+03 7.220138549804687500e+01 -2.936928939819335938e+01 -6.220643408596515656e-04 -3.257169446442276239e-04 -2.843343827407807112e-04 4.790891034645028412e-05
1.654000000000000000e+03 7.247130584716796875e+01 -3.032707214355468750e+01 -6.441043224185705185e-04 3.237468772567808628e-04 -9.610724373487755656e-05 -7.270492496900260448e-04
1.655000000000000000e+03 7.108743286132812500e+01 -3.018501091003417969e+01 -1.654584048083052039e-04 8.147279731929302216e-04 1.947808777913451195e-04 -9.216119069606065750e-04
1.656000000000000000e+03 7.932115936279296875e+01 -3.480422973632812500e+01 5.516097880899906158e-04 -1.972084166482090950e-03 -4.261423309799283743e-04 3.811907081399112940e-04
1.657000000000000000e+03 7.795889282226562500e+01 -3.456524658203125000e+01 -6.004309398122131824e-04 -1.751111005432903767e-03 -7.054625893943011761e-04 1.475396682508289814e-03
1.658000000000000000e+03 7.577653503417968750e+01 -3.119531059265136719e+01 -1.405244460329413414e-03 4.483185475692152977e-04 -2.870777680072933435e-04 1.104242634028196335e-03
1.659000000000000000e+03 7.385459899902343750e+01 -2.979806900024414062e+01 -9.297977667301893234e-04 5.489534232765436172e-04 -1.142532928497530520e-04 -1.053998857969418168e-04
1.660000000000000000e+03 7.497643280029296875e+01 -3.130871772766113281e+01 -1.926267752423882484e-03 1.918700290843844414e-04 -5.203193286433815956e-04 5.599503638222813606e-04
1.661000000000000000e+03 7.940158081054687500e+01 -3.346103286743164062e+01 -5.769906565546989441e-04 -1.051163533702492714e-03 -4.884462687186896801e-04 4.278490960132330656e-04
1.662000000000000000e+03 7.735228729248046875e+01 -3.209196853637695312e+01 -1.947112759808078408e-04 -6.875765393488109112e-04 -2.646863285917788744e-04 6.505608325824141502e-04
1.663000000000000000e+03 7.582540893554687500e+01 -2.935078811645507812e+01 -5.648548831231892109e-04 1.079161593224853277e-04 -1.370816171402111650e-04 2.756980247795581818e-04
1.664000000000000000e+03 7.577185821533203125e+01 -3.028852462768554688e+01 -7.827106164768338203e-04 -1.251137291546911001e-04 -2.723473007790744305e-04 1.914472668431699276e-04
1.665000000000000000e+03 7.501798248291015625e+01 -2.935782432556152344e+01 -5.174995749257504940e-04 -2.497158129699528217e-05 -1.627413585083559155e-04 8.102249012154061347e-06
1.666000000000000000e+03 7.953150177001953125e+01 -3.067541503906250000e+01 -3.104805655311793089e-04 -4.915560202789492905e-05 -1.078908535419031978e-04 1.739692816045135260e-04
1.667000000000000000e+03 7.736102294921875000e+01 -2.929494285583496094e+01 -3.630137071013450623e-04 5.052414053352549672e-05 -9.374686487717553973e-05 2.032366901403293014e-04
1.668000000000000000e+03 7.805733489990234375e+01 -3.020942687988281250e+01 -3.471880627330392599e-04 -1.052090301527641714e-04 -1.357191213173791766e-04 2.662167535163462162e-04
1.669000000000000000e+03 7.961701965332031250e+01 -2.934047889709472656e+01 1.742721215123310685e-04 8.037460065679624677e-05 7.639401883352547884e-05 -7.755815749987959862e-05
1.670000000000000000e+03 7.873222351074218750e+01 -3.040440559387207031e+01 -8.268297278846148401e-06 2.144826976291369647e-05 3.953991381422383711e-06 -6.787561142118647695e-05
1.671000000000000000e+03 6.576753997802734375e+01 -3.446963119506835938e+01 -3.451602533459663391e-02 -5.682404618710279465e-03 -1.205952931195497513e-02 -1.714297832222655416e-04
1.672000000000000000e+03 4.850208282470703125e+01 -2.373547172546386719e+01 3.539247989654541016e+00 6.649423837661743164e-01 1.261257171630859375e+00 -6.005410552024841309e-01
1.673000000000000000e+03 5.004799652099609375e+01 -2.252032279968261719e+01 -1.492679677903652191e-02 2.826000928878784180e+00 8.433222174644470215e-01 5.142896771430969238e-01
1.674000000000000000e+03 5.168576431274414062e+01 -2.294772338867187500e+01 1.895347952842712402e+00 2.324494272470474243e-01 6.383392214775085449e-01 1.655850172042846680e+00
1.675000000000000000e+03 5.290328598022460938e+01 -2.182497215270996094e+01 -3.858107626438140869e-01 -1.721905171871185303e-02 -1.209089457988739014e-01 1.356856942176818848e+00
1.676000000000000000e+03 5.283156204223632812e+01 -2.120553779602050781e+01 -1.323232054710388184e+00 1.282785981893539429e-01 -3.584860265254974365e-01 1.130097270011901855e+00
1.677000000000000000e+03 5.368557357788085938e+01 -2.483825111389160156e+01 1.010102272033691406e+00 -2.729106545448303223e-01 2.211575061082839966e-01 3.341007232666015625e-02
1.678000000000000000e+03 5.444680786132812500e+01 -2.466436386108398438e+01 7.852159142494201660e-01 -2.910721898078918457e-01 1.482430994510650635e-01 2.237859219312667847e-01
1.679000000000000000e+03 5.439266586303710938e+01 -2.324636077880859375e+01 6.070278882980346680e-01 -3.165525496006011963e-01 8.714260905981063843e-02 7.161656618118286133e-01
1.680000000000000000e+03 5.447027206420898438e+01 -2.216020011901855469e+01 -7.581350952386856079e-02 -1.320299059152603149e-01 -6.235302612185478210e-02 9.696003198623657227e-01
1.681000000000000000e+03 5.433830261230468750e+01 -2.094181060791015625e+01 -8.788870573043823242e-01 6.261596083641052246e-02 -2.448813170194625854e-01 7.996981739997863770e-01
1.682000000000000000e+03 5.811371231079101562e+01 -2.435776901245117188e+01 8.769113570451736450e-02 1.334705352783203125e-01 6.634850054979324341e-02 2.410860359668731689e-01
1.683000000000000000e+03 5.691870880126953125e+01 -2.389585113525390625e+01 1.509649604558944702e-01 2.556670457124710083e-02 5.295949801802635193e-02 4.065321087837219238e-01
1.684000000000000000e+03 5.310087585449218750e+01 -2.307071304321289062e+01 1.076228618621826172e+00 -4.077520072460174561e-01 2.005430012941360474e-01 1.037406921386718750e+00
1.685000000000000000e+03 7.661026000976562500e+01 -2.162172317504882812e+01 -6.876073777675628662e-02 -3.152185305953025818e-02 -3.008477762341499329e-02 -7.885126024484634399e-02
1.686000000000000000e+03 7.645743560791015625e+01 -2.322992897033691406e+01 -4.735194146633148193e-02 -1.193791814148426056e-02 -1.778695732355117798e-02 -2.435963973402976990e-02
1.687000000000000000e+03 7.490309906005859375e+01 -2.300455474853515625e+01 -9.750887006521224976e-02 -2.134021604433655739e-03 -2.989286743104457855e-02 -3.810293599963188171e-02
1.688000000000000000e+03 7.419090270996093750e+01 -2.070971870422363281e+01 -2.274401038885116577e-01 4.355131462216377258e-02 -5.516663938760757446e-02 -1.352569758892059326e-01
1.689000000000000000e+03 7.532916259765625000e+01 -2.066877937316894531e+01 -1.455704569816589355e-01 -5.025026854127645493e-03 -4.517864435911178589e-02 -1.463943570852279663e-01
1.690000000000000000e+03 7.329725646972656250e+01 -1.050671195983886719e+01 3.449470922350883484e-02 1.633359640836715698e-01 5.934920161962509155e-02 -2.713064849376678467e-01
1.691000000000000000e+03 7.235125732421875000e+01 -1.225931835174560547e+01 4.498770460486412048e-02 2.321370840072631836e-01 8.313743770122528076e-02 -2.604587674140930176e-01
1.692000000000000000e+03 7.324728393554687500e+01 -1.565131664276123047e+01 -6.011205911636352539e-02 2.411696687340736389e-02 -1.079852785915136337e-02 -3.338618278503417969e-01
1.693000000000000000e+03 7.247760772705078125e+01 -1.813841056823730469e+01 -1.928692460060119629e-01 4.377340897917747498e-02 -4.472874850034713745e-02 -3.208284080028533936e-01
1.694000000000000000e+03 7.237846374511718750e+01 -1.984197235107421875e+01 -3.069353997707366943e-01 6.649940460920333862e-02 -7.213079929351806641e-02 -2.411018311977386475e-01
1.695000000000000000e+03 7.269652557373046875e+01 -2.149600601196289062e+01 -3.251716494560241699e-01 8.306943625211715698e-02 -7.263066619634628296e-02 -6.446048617362976074e-02
1.696000000000000000e+03 7.034949493408203125e+01 -2.203594017028808594e+01 -4.830813407897949219e-01 -3.035134263336658478e-02 -1.540298014879226685e-01 1.166435554623603821e-01
1.697000000000000000e+03 6.637278747558593750e+01 -2.010248184204101562e+01 -6.152969598770141602e-01 -1.210277527570724487e-01 -2.208974063396453857e-01 -3.630076721310615540e-02
1.698000000000000000e+03 6.861887359619140625e+01 -2.011736297607421875e+01 -6.618185043334960938e-01 -1.658890545368194580e-01 -2.483122646808624268e-01 -2.999432981014251709e-01
1.699000000000000000e+03 6.702082824707031250e+01 -1.815232849121093750e+01 -1.367668062448501587e-01 1.403807103633880615e-02 -3.681861981749534607e-02 -3.410133346915245056e-02
1.700000000000000000e+03 6.570899200439453125e+01 -1.884105110168457031e+01 -1.783267557621002197e-01 8.253426849842071533e-02 -2.873774617910385132e-02 3.705595806241035461e-02
1.701000000000000000e+03 6.541054534912109375e+01 -2.203621673583984375e+01 -9.454907774925231934e-01 -1.133785322308540344e-01 -3.176607787609100342e-01 -3.735376298427581787e-01
1.702000000000000000e+03 6.161179733276367188e+01 -2.038274765014648438e+01 -3.279690444469451904e-01 4.719080924987792969e-01 4.318170994520187378e-02 2.436459362506866455e-01
1.703000000000000000e+03 6.035557556152343750e+01 -2.222814178466796875e+01 -3.870821893215179443e-01 3.947462439537048340e-01 2.299216343089938164e-03 3.277360498905181885e-01
1.704000000000000000e+03 5.901296615600585938e+01 -2.242865753173828125e+01 -2.932825982570648193e-01 3.727379143238067627e-01 2.383659407496452332e-02 4.004180431365966797e-01
1.705000000000000000e+03 7.719969177246093750e+01 -2.341834831237792969e+01 -3.516187146306037903e-02 -7.337684743106365204e-03 -1.274986658245325089e-02 -1.649077981710433960e-02
1.706000000000000000e+03 7.254187011718750000e+01 -2.265352630615234375e+01 -2.285676598548889160e-01 2.820047736167907715e-02 -6.011015549302101135e-02 1.949237659573554993e-02
1.707000000000000000e+03 7.786656951904296875e+01 -2.460457992553710938e+01 -8.505592122673988342e-03 -4.649273119866847992e-03 -3.946459852159023285e-03 2.441348042339086533e-03
1.708000000000000000e+03 7.657202148437500000e+01 -2.061926460266113281e+01 -8.004295825958251953e-02 -5.177130177617073059e-02 -3.954427689313888550e-02 -1.189783066511154175e-01
1.709000000000000000e+03 7.406737518310546875e+01 -1.979405021667480469e+01 -2.047413885593414307e-01 2.164583094418048859e-02 -5.492866784334182739e-02 -2.249171882867813110e-01
1.710000000000000000e+03 7.521962738037109375e+01 -1.964791679382324219e+01 -1.554685086011886597e-01 -9.747749194502830505e-03 -4.956487566232681274e-02 -2.006933242082595825e-01
1.711000000000000000e+03 7.051369476318359375e+01 -2.004017639160156250e+01 -4.720131158828735352e-01 4.211817681789398193e-02 -1.289684772491455078e-01 -2.685483992099761963e-01
1.712000000000000000e+03 6.882132720947265625e+01 -1.824276542663574219e+01 -2.255003601312637329e-01 -1.538893114775419235e-02 -7.226678729057312012e-02 -2.324085831642150879e-01
1.713000000000000000e+03 6.613381195068359375e+01 -1.619757270812988281e+01 1.876268237829208374e-01 3.028673827648162842e-01 1.471482664346694946e-01 1.795019805431365967e-01
1.714000000000000000e+03 6.652879333496093750e+01 -1.713425827026367188e+01 4.390949755907058716e-02 1.411417871713638306e-01 5.551538616418838501e-02 5.645482614636421204e-02
1.715000000000000000e+03 6.945547485351562500e+01 -2.100172424316406250e+01 -8.928470015525817871e-01 -2.622112631797790527e-02 -2.757204473018646240e-01 -5.381792411208152771e-02
1.716000000000000000e+03 6.091119384765625000e+01 -1.880407714843750000e+01 9.911408275365829468e-02 7.234981656074523926e-01 2.467836737632751465e-01 4.184125065803527832e-01
1.717000000000000000e+03 6.291075897216796875e+01 -1.977390098571777344e+01 -3.179970979690551758e-01 3.802720308303833008e-01 1.868247799575328827e-02 1.578736752271652222e-01
1.718000000000000000e+03 5.834941101074218750e+01 -2.000424957275390625e+01 -1.654563546180725098e-01 4.727372527122497559e-01 9.218426793813705444e-02 4.998284578323364258e-01
1.719000000000000000e+03 7.929267120361328125e+01 -2.072517013549804688e+01 -1.175946369767189026e-02 -4.641766846179962158e-02 -1.745313964784145355e-02 -2.800000086426734924e-02
1.720000000000000000e+03 7.629473114013671875e+01 -1.781586074829101562e+01 -6.643038243055343628e-02 -1.238121837377548218e-01 -5.707276985049247742e-02 -2.415450662374496460e-01
1.721000000000000000e+03 7.338331604003906250e+01 -1.724739456176757812e+01 -1.369770765304565430e-01 1.606964878737926483e-02 -3.627222776412963867e-02 -3.238039910793304443e-01
1.722000000000000000e+03 7.341014862060546875e+01 -1.893680191040039062e+01 -2.211891710758209229e-01 3.528448194265365601e-02 -5.577140673995018005e-02 -2.694967091083526611e-01
1.723000000000000000e+03 7.150058746337890625e+01 -1.906117630004882812e+01 -3.196591436862945557e-01 6.585389375686645508e-02 -7.614157348871231079e-02 -2.832798659801483154e-01
1.724000000000000000e+03 7.063813781738281250e+01 -1.821706390380859375e+01 -2.400241196155548096e-01 5.276107415556907654e-02 -5.617891252040863037e-02 -3.185817897319793701e-01
1.725000000000000000e+03 6.909051513671875000e+01 -1.641382789611816406e+01 -1.717212609946727753e-02 1.362372040748596191e-01 3.571952134370803833e-02 -1.800032109022140503e-01
1.726000000000000000e+03 6.651197052001953125e+01 -1.480837345123291016e+01 2.521068453788757324e-01 4.727003872394561768e-01 2.174421697854995728e-01 2.435791641473770142e-01
1.727000000000000000e+03 6.280387115478515625e+01 -1.790323829650878906e+01 2.389659285545349121e-01 5.397128462791442871e-01 2.336036264896392822e-01 3.313735723495483398e-01
1.728000000000000000e+03 6.317200088500976562e+01 -1.731727600097656250e+01 3.356471955776214600e-01 5.491158962249755859e-01 2.654289305210113525e-01 3.835327029228210449e-01
1.729000000000000000e+03 7.390721893310546875e+01 -1.469994735717773438e+01 -2.251921221613883972e-02 -1.846724562346935272e-02 -1.229593716561794281e-02 -3.436037302017211914e-01
1.730000000000000000e+03 7.246350097656250000e+01 -1.650395584106445312e+01 -9.537658095359802246e-02 5.043221637606620789e-02 -1.348331011831760406e-02 -3.369415998458862305e-01
1.731000000000000000e+03 7.158881378173828125e+01 -1.734041786193847656e+01 -1.604237854480743408e-01 6.550049781799316406e-02 -2.847698703408241272e-02 -3.174907863140106201e-01
1.732000000000000000e+03 7.077178192138671875e+01 -1.650760650634765625e+01 -8.332462608814239502e-02 1.051833033561706543e-01 6.557603366672992706e-03 -2.942917346954345703e-01
1.733000000000000000e+03 6.932563018798828125e+01 -1.458626461029052734e+01 9.766772389411926270e-02 3.031236231327056885e-01 1.202374026179313660e-01 -1.022385433316230774e-01
1.734000000000000000e+03 6.616957092285156250e+01 -1.249794197082519531e+01 3.692142665386199951e-01 7.992105484008789062e-01 3.505274355411529541e-01 3.995017409324645996e-01
1.735000000000000000e+03 6.468422698974609375e+01 -1.649767875671386719e+01 2.840082049369812012e-01 3.828188776969909668e-01 2.000481337308883667e-01 3.198495507240295410e-01
1.736000000000000000e+03 7.675012207031250000e+01 -1.536594200134277344e+01 -2.448102645576000214e-02 -2.723415791988372803e-01 -8.904678374528884888e-02 -2.793402373790740967e-01
1.737000000000000000e+03 7.380810546875000000e+01 -1.286482429504394531e+01 1.525749173015356064e-02 1.416024379432201385e-02 8.825320750474929810e-03 -3.248354196548461914e-01
1.738000000000000000e+03 7.240197753906250000e+01 -1.506267070770263672e+01 -2.593588083982467651e-02 8.202562481164932251e-02 1.682692207396030426e-02 -3.259785175323486328e-01
1.739000000000000000e+03 7.164247131347656250e+01 -1.575562572479248047e+01 -5.423956364393234253e-02 1.056557670235633850e-01 1.542486157268285751e-02 -3.053110837936401367e-01
1.740000000000000000e+03 7.097042083740234375e+01 -1.492998504638671875e+01 1.225291192531585693e-02 1.850307732820510864e-01 5.918510630726814270e-02 -2.535932362079620361e-01
1.741000000000000000e+03 6.882799530029296875e+01 -1.337322521209716797e+01 1.738937199115753174e-01 4.630919098854064941e-01 1.910956948995590210e-01 6.150979083031415939e-03
1.742000000000000000e+03 6.735096740722656250e+01 -9.354441642761230469e+00 3.088777959346771240e-01 1.166355252265930176e+00 4.425699114799499512e-01 4.999826848506927490e-01
1.743000000000000000e+03 6.734378814697265625e+01 -1.233667373657226562e+01 3.069331049919128418e-01 7.471399307250976562e-01 3.162219226360321045e-01 2.714311480522155762e-01
1.744000000000000000e+03 7.782521057128906250e+01 -1.499666595458984375e+01 -8.612215518951416016e-03 -3.918353915214538574e-01 -1.201342791318893433e-01 -2.066599726676940918e-01
1.745000000000000000e+03 7.637296295166015625e+01 -1.357168292999267578e+01 -1.009972207248210907e-02 -3.120318651199340820e-01 -9.663947671651840210e-02 -3.044314980506896973e-01
1.746000000000000000e+03 7.408123016357421875e+01 -1.130919933319091797e+01 2.250617742538452148e-02 5.232799332588911057e-03 8.321693167090415955e-03 -3.099934756755828857e-01
1.747000000000000000e+03 7.283560180664062500e+01 -1.426216697692871094e+01 -9.790414944291114807e-03 7.810163497924804688e-02 2.049336582422256470e-02 -3.175486028194427490e-01
1.748000000000000000e+03 7.005033111572265625e+01 -1.290541267395019531e+01 1.166554242372512817e-01 4.061764180660247803e-01 1.568495482206344604e-01 -9.707577526569366455e-02
1.749000000000000000e+03 7.123825073242187500e+01 -1.247537422180175781e+01 7.956672459840774536e-02 3.403907120227813721e-01 1.259872317314147949e-01 -1.853870600461959839e-01
1.750000000000000000e+03 6.831546020507812500e+01 -1.092581939697265625e+01 2.453540116548538208e-01 8.540529608726501465e-01 3.298220932483673096e-01 2.406995892524719238e-01
1.751000000000000000e+03 6.580532836914062500e+01 -1.128279209136962891e+01 4.805700480937957764e-01 1.050776004791259766e+00 4.594038128852844238e-01 5.856173634529113770e-01
1.752000000000000000e+03 7.921983337402343750e+01 -1.375441265106201172e+01 -1.476916857063770294e-02 -6.383131146430969238e-01 -1.959246993064880371e-01 -7.981374859809875488e-02
1.753000000000000000e+03 7.155086517333984375e+01 -1.353290939331054688e+01 4.109584540128707886e-02 2.288191914558410645e-01 8.097451180219650269e-02 -2.407818883657455444e-01
1.754000000000000000e+03 7.087226867675781250e+01 -1.139346981048583984e+01 9.997481107711791992e-02 4.697673022747039795e-01 1.709226369857788086e-01 -1.104034855961799622e-01
1.755000000000000000e+03 6.899806213378906250e+01 -9.280511856079101562e+00 1.953261345624923706e-01 9.833201169967651367e-01 3.535938858985900879e-01 2.322684377431869507e-01
1.756000000000000000e+03 6.951806640625000000e+01 -1.045169639587402344e+01 1.587850600481033325e-01 7.511261105537414551e-01 2.729733586311340332e-01 7.948841154575347900e-02
1.757000000000000000e+03 7.072589874267578125e+01 -1.025910663604736328e+01 1.218364760279655457e-01 6.290173530578613281e-01 2.252561599016189575e-01 -4.338007792830467224e-02
1.758000000000000000e+03 6.883294677734375000e+01 -7.326389312744140625e+00 2.039661109447479248e-01 1.351591229438781738e+00 4.666672050952911377e-01 3.941969871520996094e-01
1.759000000000000000e+03 7.506498718261718750e+01 -4.874279022216796875e+00 5.243751034140586853e-02 -6.410776823759078979e-02 -3.501076251268386841e-03 -2.707491517066955566e-01
1.760000000000000000e+03 7.420594787597656250e+01 -6.314421176910400391e+00 3.827955946326255798e-02 1.613535583019256592e-01 5.988993868231773376e-02 -2.533313333988189697e-01
1.761000000000000000e+03 7.339533996582031250e+01 -5.574160099029541016e+00 4.761385172605514526e-02 4.599510431289672852e-01 1.522694677114486694e-01 -1.968858689069747925e-01
1.762000000000000000e+03 7.237676239013671875e+01 -4.760410308837890625e+00 8.474393934011459351e-02 8.803740143775939941e-01 2.895353734493255615e-01 -8.008401095867156982e-02
1.763000000000000000e+03 7.658857727050781250e+01 -5.336855888366699219e+00 2.107964828610420227e-02 -6.240861415863037109e-01 -1.809019595384597778e-01 -2.768638432025909424e-01
1.764000000000000000e+03 7.373790740966796875e+01 -2.153181791305541992e+00 8.974406868219375610e-02 5.873787999153137207e-01 2.031368613243103027e-01 -1.581175923347473145e-01
1.765000000000000000e+03 7.311778259277343750e+01 -3.129520416259765625e+00 7.580866664648056030e-02 7.898032665252685547e-01 2.596835792064666748e-01 -1.246062070131301880e-01
1.766000000000000000e+03 7.194734954833984375e+01 -2.873205423355102539e+00 8.265222609043121338e-02 1.264101505279541016e+00 4.040261209011077881e-01 -1.841642707586288452e-02
1.767000000000000000e+03 7.072087860107421875e+01 -2.785581350326538086e+00 1.614951491355895996e-01 1.816423058509826660e+00 5.933754444122314453e-01 2.738755643367767334e-01
1.768000000000000000e+03 7.474077606201171875e+01 -2.750089645385742188e+00 4.501648619771003723e-02 7.365867495536804199e-02 3.560254722833633423e-02 -2.297483831644058228e-01
1.769000000000000000e+03 7.262709808349609375e+01 1.109478343278169632e-02 1.778322756290435791e-01 1.293352365493774414e+00 4.413553774356842041e-01 -2.059849165380001068e-02
1.770000000000000000e+03 7.213914489746093750e+01 -8.085495829582214355e-01 1.822251230478286743e-01 1.480094194412231445e+00 4.986958205699920654e-01 8.264192147180438042e-04
1.771000000000000000e+03 7.743946838378906250e+01 -1.237329483032226562e+00 1.736161485314369202e-02 -1.113564848899841309e+00 -3.288609981536865234e-01 -1.437328457832336426e-01
1.772000000000000000e+03 7.533764648437500000e+01 5.655204057693481445e-01 1.252757310867309570e-01 -9.167826920747756958e-02 1.007923576980829239e-02 -1.579891443252563477e-01
1.773000000000000000e+03 7.406631469726562500e+01 6.625234335660934448e-02 1.390605568885803223e-01 5.413299202919006348e-01 2.041171491146087646e-01 -1.518157422542572021e-01
1.774000000000000000e+03 7.537205505371093750e+01 1.630962729454040527e+00 1.208964511752128601e-01 -1.006892472505569458e-01 6.062161177396774292e-03 -9.166903793811798096e-02
1.775000000000000000e+03 7.236143493652343750e+01 1.657938480377197266e+00 2.347649931907653809e-01 1.661647439002990723e+00 5.689237117767333984e-01 4.064024984836578369e-02
1.776000000000000000e+03 7.640740966796875000e+01 2.898132562637329102e+00 8.697546273469924927e-02 -6.731136441230773926e-01 -1.758414655923843384e-01 -5.989440903067588806e-02
1.777000000000000000e+03 7.508266448974609375e+01 2.802602529525756836e+00 1.170662268996238708e-01 8.183069527149200439e-02 5.966907739639282227e-02 -5.441159009933471680e-02
1.778000000000000000e+03 7.321078491210937500e+01 2.960072994232177734e+00 1.369696408510208130e-01 1.156572461128234863e+00 3.880626559257507324e-01 -1.159811113029718399e-02
1.779000000000000000e+03 7.190700531005859375e+01 2.920458555221557617e+00 1.774915009737014771e-01 2.048166990280151367e+00 6.676975488662719727e-01 9.826996177434921265e-02
1.780000000000000000e+03 7.457997131347656250e+01 5.233515262603759766e+00 1.222962811589241028e-01 3.963707685470581055e-01 1.556001156568527222e-01 3.057644888758659363e-02
1.781000000000000000e+03 7.315778350830078125e+01 7.295868396759033203e+00 4.571186378598213196e-02 1.184346318244934082e+00 3.690174818038940430e-01 3.410636633634567261e-02
1.782000000000000000e+03 7.497530364990234375e+01 9.401173591613769531e+00 -3.604940325021743774e-02 1.880580484867095947e-01 4.560259357094764709e-02 6.933174282312393188e-02
1.783000000000000000e+03 7.378860473632812500e+01 9.676114082336425781e+00 -3.913455456495285034e-02 8.798407316207885742e-01 2.522118687629699707e-01 4.991999268531799316e-02
1.784000000000000000e+03 7.633120727539062500e+01 1.160177040100097656e+01 -2.569634281098842621e-02 -5.452503561973571777e-01 -1.712840050458908081e-01 3.653322905302047729e-02
1.785000000000000000e+03 7.384388732910156250e+01 1.080941390991210938e+01 -8.177931606769561768e-02 8.662435412406921387e-01 2.353392690420150757e-01 3.136809170246124268e-02
1.786000000000000000e+03 7.262229156494140625e+01 1.108570384979248047e+01 -1.131055653095245361e-01 1.467244625091552734e+00 4.062417447566986084e-01 -2.363763982430100441e-03
1.787000000000000000e+03 6.982823944091796875e+01 1.143338489532470703e+01 -1.326074749231338501e-01 2.228506326675415039e+00 6.287696957588195801e-01 -3.097438625991344452e-02
1.788000000000000000e+03 7.741995239257812500e+01 1.309101676940917969e+01 3.079430432990193367e-03 -1.179911494255065918e+00 -3.530496060848236084e-01 1.832402311265468597e-02
1.789000000000000000e+03 7.609820556640625000e+01 1.288783931732177734e+01 -9.974251501262187958e-03 -4.506508111953735352e-01 -1.381875127553939819e-01 1.294816378504037857e-02
1.790000000000000000e+03 7.482575225830078125e+01 1.268335056304931641e+01 -4.172770678997039795e-02 2.825883328914642334e-01 7.225818932056427002e-02 1.338230329565703869e-03
1.791000000000000000e+03 6.992662048339843750e+01 1.281867694854736328e+01 -2.422612160444259644e-02 2.528499364852905273e+00 7.512819766998291016e-01 1.160102859139442444e-01
1.792000000000000000e+03 7.444343566894531250e+01 1.523688983917236328e+01 -2.352884225547313690e-02 3.755738437175750732e-01 1.056134924292564392e-01 -2.408567070960998535e-02
1.793000000000000000e+03 7.010861206054687500e+01 1.567844676971435547e+01 1.004791259765625000e-02 2.846488475799560547e+00 8.569608926773071289e-01 1.739495061337947845e-02
1.794000000000000000e+03 7.665695953369140625e+01 1.567957210540771484e+01 9.931636974215507507e-03 -7.576957345008850098e-01 -2.243292182683944702e-01 -3.267749398946762085e-02
1.795000000000000000e+03 7.164894104003906250e+01 1.566761684417724609e+01 4.796759784221649170e-02 1.907610058784484863e+00 5.866732597351074219e-01 3.585029020905494690e-02
1.796000000000000000e+03 7.614257049560546875e+01 1.759864234924316406e+01 2.308699116110801697e-02 -4.664458334445953369e-01 -1.330076605081558228e-01 -3.936804365366697311e-03
1.797000000000000000e+03 7.424645996093750000e+01 1.845068740844726562e+01 7.544031366705894470e-03 4.874926805496215820e-01 1.485110223293304443e-01 -2.354252338409423828e-02
1.798000000000000000e+03 7.295912933349609375e+01 1.772816658020019531e+01 2.537521906197071075e-02 1.246508836746215820e+00 3.815652430057525635e-01 1.136533636599779129e-02
1.799000000000000000e+03 7.777200317382812500e+01 2.057802581787109375e+01 1.557405688799917698e-03 -1.326912522315979004e+00 -3.976065516471862793e-01 2.570837736129760742e-02
1.800000000000000000e+03 7.546567535400390625e+01 2.026903152465820312e+01 1.610529795289039612e-02 -2.127344459295272827e-01 -5.898874625563621521e-02 1.514723896980285645e-02
1.801000000000000000e+03 7.440554809570312500e+01 2.091866683959960938e+01 6.440216302871704102e-02 4.801386892795562744e-01 1.633622497320175171e-01 3.542647138237953186e-02
1.802000000000000000e+03 7.119854736328125000e+01 2.015954589843750000e+01 8.037924766540527344e-03 2.190751314163208008e+00 6.596367955207824707e-01 -1.566931791603565216e-02
1.803000000000000000e+03 7.633169555664062500e+01 2.177729415893554688e+01 3.334551304578781128e-02 -6.025447845458984375e-01 -1.707597821950912476e-01 3.954597190022468567e-02
1.804000000000000000e+03 7.453488159179687500e+01 2.192134857177734375e+01 5.478211492300033569e-02 3.251245319843292236e-01 1.139719933271408081e-01 2.799223363399505615e-02
1.805000000000000000e+03 7.342562866210937500e+01 2.190015029907226562e+01 5.702043324708938599e-02 9.582396745681762695e-01 3.045780360698699951e-01 -1.281539443880319595e-02
1.806000000000000000e+03 7.229125213623046875e+01 2.173441886901855469e+01 5.872354656457901001e-02 1.588046908378601074e+00 4.940311312675476074e-01 -4.144269600510597229e-02
1.807000000000000000e+03 6.994573211669921875e+01 2.137867736816406250e+01 -3.159900195896625519e-03 2.862754821777343750e+00 8.578785061836242676e-01 -2.416785061359405518e-02
1.808000000000000000e+03 7.761755371093750000e+01 2.349353408813476562e+01 2.757617831230163574e-02 -1.259593367576599121e+00 -3.696051537990570068e-01 6.470306217670440674e-02
1.809000000000000000e+03 7.609635925292968750e+01 2.489868927001953125e+01 8.828549087047576904e-02 -4.831262528896331787e-01 -1.184522286057472229e-01 1.174012869596481323e-01
1.810000000000000000e+03 7.600544738769531250e+01 2.652925872802734375e+01 9.012422710657119751e-02 -4.563640654087066650e-01 -1.098719537258148193e-01 1.666491627693176270e-01
1.811000000000000000e+03 7.447555541992187500e+01 2.816679000854492188e+01 1.353149861097335815e-01 1.583707630634307861e-01 8.810572326183319092e-02 2.159399241209030151e-01
1.812000000000000000e+03 7.839934539794921875e+01 3.171088981628417969e+01 3.445830941200256348e-02 -1.145533442497253418e+00 -3.333225548267364502e-01 2.183407992124557495e-01
1.813000000000000000e+03 7.241839599609375000e+01 3.135901451110839844e+01 6.664789468050003052e-02 7.198271751403808594e-01 2.359425276517868042e-01 2.041743844747543335e-01
1.814000000000000000e+03 6.977227020263671875e+01 3.134822654724121094e+01 1.730410307645797729e-01 1.331007122993469238e+00 4.512144327163696289e-01 -1.853829026222229004e-01
1.815000000000000000e+03 7.598937225341796875e+01 3.376121520996093750e+01 -3.937309235334396362e-02 -3.329337239265441895e-01 -1.116920486092567444e-01 2.995025515556335449e-01
1.816000000000000000e+03 7.381678771972656250e+01 3.491123580932617188e+01 -1.068730875849723816e-01 1.720074713230133057e-01 1.954031549394130707e-02 2.443945258855819702e-01
1.817000000000000000e+03 7.060642242431640625e+01 3.453751754760742188e+01 -1.094033941626548767e-01 7.425205111503601074e-01 1.899351328611373901e-01 5.762846022844314575e-02
1.818000000000000000e+03 6.900943756103515625e+01 3.434723663330078125e+01 -6.959446519613265991e-02 8.930078744888305664e-01 2.470240294933319092e-01 -1.339807957410812378e-01
1.819000000000000000e+03 6.533175659179687500e+01 3.564867401123046875e+01 6.826879829168319702e-02 6.055671572685241699e-01 2.021507918834686279e-01 -2.768570780754089355e-01
1.820000000000000000e+03 7.560195922851562500e+01 3.540072631835937500e+01 -8.511826395988464355e-02 -2.380629181861877441e-01 -9.695435315370559692e-02 2.750301063060760498e-01
1.821000000000000000e+03 6.185551071166992188e+01 3.531938171386718750e+01 1.198040693998336792e-01 6.242429837584495544e-02 5.466850847005844116e-02 -9.691421687602996826e-02
1.822000000000000000e+03 6.178512573242187500e+01 3.679187011718750000e+01 5.451069027185440063e-02 1.506406962871551514e-01 6.154541671276092529e-02 -1.612927168607711792e-01
1.823000000000000000e+03 6.055576705932617188e+01 3.585537719726562500e+01 1.135438214987516403e-02 2.569620311260223389e-02 1.111517567187547684e-02 -4.390295594930648804e-02
1.824000000000000000e+03 5.462082290649414062e+01 3.467131423950195312e+01 -1.899799704551696777e-02 -3.828865883406251669e-04 -5.814264994114637375e-03 -9.732995182275772095e-03
1.825000000000000000e+03 4.103651428222656250e+01 2.442831230163574219e+01 -5.801419611088931561e-04 -4.456614988157525659e-05 -1.874124282039701939e-04 6.095960998209193349e-05
1.826000000000000000e+03 4.064303970336914062e+01 2.305149459838867188e+01 3.558543394319713116e-04 3.840928548015654087e-05 1.182790874736383557e-04 -1.322103489656001329e-04
1.827000000000000000e+03 4.021912384033203125e+01 2.165217781066894531e+01 -4.002618370577692986e-04 1.531828638690058142e-05 -1.154830679297447205e-04 1.425095979357138276e-04
1.828000000000000000e+03 4.096936798095703125e+01 1.826237678527832031e+01 3.896724374499171972e-04 4.094393807463347912e-05 1.291849184781312943e-04 -4.370525493868626654e-05
1.829000000000000000e+03 4.062849044799804688e+01 1.684151840209960938e+01 -3.057083813473582268e-04 5.166338087292388082e-05 -7.621349504915997386e-05 8.081657870206981897e-05
1.830000000000000000e+03 4.035418319702148438e+01 1.537083625793457031e+01 2.942111459560692310e-04 3.746492075151763856e-05 9.950282401405274868e-05 -1.441111908206949010e-05
1.831000000000000000e+03 3.652263259887695312e+01 3.555775833129882812e+01 1.120529996114782989e-04 -4.016720922663807869e-04 -8.688572415849193931e-05 6.310390308499336243e-04
1.832000000000000000e+03 2.318667984008789062e+01 3.356915283203125000e+01 -1.668917975621297956e-04 -9.817285172175616026e-05 -7.951939915074035525e-05 2.825909177772700787e-05
1.833000000000000000e+03 1.606420898437500000e+01 3.418358612060546875e+01 1.336880668532103300e-04 -4.588897354551590979e-05 2.633972871990408748e-05 2.986714025610126555e-05
1.834000000000000000e+03 6.424621582031250000e+01 3.810683059692382812e+01 -8.017235249280929565e-02 4.652954339981079102e-01 1.155369281768798828e-01 -1.793092191219329834e-01
1.835000000000000000e+03 5.579877471923828125e+01 3.793405532836914062e+01 1.014691311866044998e-03 9.361932985484600067e-03 3.112987382337450981e-03 1.634974405169487000e-02
1.836000000000000000e+03 2.127954101562500000e+01 3.865370178222656250e+01 -1.787016663001850247e-04 -1.022113210638053715e-04 -8.427389548160135746e-05 3.162909706588834524e-05
1.837000000000000000e+03 7.829140472412109375e+01 3.916127777099609375e+01 2.871540002524852753e-02 -6.618856191635131836e-01 -1.899510771036148071e-01 1.716101467609405518e-01
1.838000000000000000e+03 6.835187530517578125e+01 4.108914184570312500e+01 -2.716012299060821533e-01 5.448416471481323242e-01 8.197212964296340942e-02 -1.876529678702354431e-02
1.839000000000000000e+03 8.954573869705200195e-01 3.735931015014648438e+01 4.717590854852460325e-05 5.192852404434233904e-05 2.973133086925372481e-05 -1.074118790711509064e-05
1.840000000000000000e+03 3.272372817993164062e+01 4.114652252197265625e+01 1.826314837671816349e-04 -3.133763093501329422e-04 -3.922344694728963077e-05 -1.824946666602045298e-04
1.841000000000000000e+03 8.295680999755859375e+00 4.106516647338867188e+01 -9.358537681691814214e-06 3.076704160775989294e-06 -1.884549988062644843e-06 3.041817217308562249e-05
1.842000000000000000e+03 1.803566169738769531e+01 3.038627243041992188e+01 1.034636952681466937e-04 -3.139099499094299972e-05 2.162181044695898890e-05 -3.218513666070066392e-05
1.843000000000000000e+03 3.978839492797851562e+01 3.294677734375000000e+01 -5.651734536513686180e-04 -1.451820426154881716e-04 -2.131066430592909455e-04 8.312011486850678921e-04
1.844000000000000000e+03 1.511321067810058594e+01 2.931239700317382812e+01 1.144002162618562579e-04 -3.523299528751522303e-05 2.375016629230231047e-05 1.717947043289314024e-06
1.845000000000000000e+03 2.685644531250000000e+01 2.955107307434082031e+01 8.821432857075706124e-05 -3.072673644055612385e-05 1.724627691146451980e-05 4.894475205219350755e-05
1.846000000000000000e+03 3.053802490234375000e+01 2.960743713378906250e+01 1.466177782276645303e-04 5.367229823605157435e-05 6.008702621329575777e-05 2.700844779610633850e-04
1.847000000000000000e+03 3.211489105224609375e+01 3.094648361206054688e+01 7.643042772542685270e-05 -9.208688425133004785e-05 -4.696936684922548011e-06 2.573951787780970335e-04
1.848000000000000000e+03 3.669401168823242188e+01 3.028940391540527344e+01 9.442082046007271856e-06 1.485364828113233671e-05 7.288719189091352746e-06 2.904892317019402981e-04
1.849000000000000000e+03 4.657698822021484375e+01 3.069710922241210938e+01 -2.489515347406268120e-03 -7.041104254312813282e-05 -7.679779082536697388e-04 2.608940121717751026e-04
1.850000000000000000e+03 2.895383596420288086e+00 2.861157798767089844e+01 -1.603937016625422984e-05 3.307268707430921495e-05 5.109995072416495532e-06 -3.033435632460168563e-06
1.851000000000000000e+03 2.615204048156738281e+01 2.706258392333984375e+01 -2.616835081425961107e-05 -1.532387045699579176e-06 -8.310221346619073302e-06 -1.043319862219505012e-04
1.852000000000000000e+03 3.424016189575195312e+01 3.075359153747558594e+01 -3.594783192966133356e-04 -3.608186307246796787e-05 -1.186680528917349875e-04 5.785946996184065938e-05
1.853000000000000000e+03 4.321823883056640625e+01 2.840884780883789062e+01 -9.989092359319329262e-04 4.024817026220262051e-04 -1.789282396202906966e-04 -5.127018084749579430e-04
1.854000000000000000e+03 9.644983410835266113e-01 2.890834045410156250e+01 7.036759598122444004e-06 5.257883822196163237e-05 1.788467852747999132e-05 -2.626583182063768618e-06
1.855000000000000000e+03 2.856816482543945312e+01 2.614665222167968750e+01 -1.359874586341902614e-04 4.901839929516427219e-05 -2.609071634651627392e-05 -4.304134199628606439e-05
1.856000000000000000e+03 4.625589370727539062e+00 2.532141494750976562e+01 4.187168451608158648e-05 3.014770300069358200e-05 2.160581607313361019e-05 1.220199646922992542e-05
1.857000000000000000e+03 1.571700572967529297e+01 2.383604812622070312e+01 -1.056831752066500485e-04 -2.335106273676501587e-06 -3.240548539906740189e-05 -5.641854659188538790e-05
1.858000000000000000e+03 1.735651969909667969e+01 2.260740661621093750e+01 -1.017851609503850341e-04 -7.871557500038761646e-06 -3.289701635367237031e-05 1.470665119995828718e-05
1.859000000000000000e+03 2.944677162170410156e+01 2.460759162902832031e+01 2.713529647735413164e-05 -1.122021785704419017e-04 -2.552006299083586782e-05 9.683786629466339946e-05
1.860000000000000000e+03 2.908520507812500000e+01 2.280891609191894531e+01 -8.567206532461568713e-05 -4.072603405802510679e-05 -3.791943163378164172e-05 3.402489164727739990e-05
1.861000000000000000e+03 3.149364662170410156e+01 2.335047721862792969e+01 -2.008384399232454598e-05 -1.736669219098985195e-05 -1.123516085499431938e-05 1.063560193870216608e-04
1.862000000000000000e+03 3.445039367675781250e+01 2.421772766113281250e+01 -2.424307058390695602e-05 4.416793672135099769e-05 5.977460205031093210e-06 2.008217270486056805e-04
1.863000000000000000e+03 5.635013580322265625e+00 2.214179420471191406e+01 -6.220903742359951138e-05 3.331261541461572051e-05 -8.668925147503614426e-06 -1.354561754851602018e-05
1.864000000000000000e+03 1.043748760223388672e+01 2.093766784667968750e+01 -8.309309487231075764e-05 1.943038478202652186e-05 -1.909881393657997251e-05 -3.069138983846642077e-06
1.865000000000000000e+03 3.501017761230468750e+01 2.244696235656738281e+01 -3.250024747103452682e-05 -1.030004787025973201e-04 -4.065021857968531549e-05 -2.062466955976560712e-04
1.866000000000000000e+03 4.339645767211914062e+01 2.046148681640625000e+01 -4.127063148189336061e-04 8.345636888407170773e-05 -9.877498087007552385e-05 2.006725990213453770e-04
1.867000000000000000e+03 4.180527877807617188e+01 2.105327987670898438e+01 4.162635887041687965e-04 6.569331162609159946e-05 1.445870730094611645e-04 -1.094380568247288465e-04
1.868000000000000000e+03 3.509462118148803711e+00 2.030554962158203125e+01 5.700124165741726756e-05 1.628250720386859030e-05 2.198512447648681700e-05 9.223684173775836825e-06
1.869000000000000000e+03 6.418586254119873047e+00 2.033807945251464844e+01 -4.582077235681936145e-05 2.422429315629415214e-05 -6.478943305410211906e-06 -6.075331953070417512e-07
1.870000000000000000e+03 8.434230804443359375e+00 2.067627716064453125e+01 -4.868642645305953920e-05 1.964904731721617281e-05 -8.711213013157248497e-06 4.147207732785318512e-07
1.871000000000000000e+03 1.332727622985839844e+01 1.905521774291992188e+01 4.690913192462176085e-05 1.400471683155046776e-05 1.827415508159901947e-05 -4.897688268101774156e-05
1.872000000000000000e+03 1.812779998779296875e+01 2.091705322265625000e+01 -5.114427403896115720e-05 -2.074025906040333211e-05 -2.156535992980934680e-05 5.350785068003460765e-05
1.873000000000000000e+03 3.593002319335937500e+01 2.080470085144042969e+01 -1.761593885021284223e-04 2.121613033523317426e-05 -4.648297544918023050e-05 1.953603350557386875e-04
1.874000000000000000e+03 3.818412780761718750e+01 2.091543769836425781e+01 -3.627512487582862377e-04 3.169170668115839362e-05 -9.931786189554259181e-05 1.772346877260133624e-04
1.875000000000000000e+03 3.973898696899414062e+01 2.024867630004882812e+01 3.858794516418129206e-04 -2.772544212348293513e-05 1.074461979442276061e-04 -1.027301987051032484e-04
1.876000000000000000e+03 7.614666819572448730e-01 2.191177177429199219e+01 -6.084726192057132721e-05 4.067644113092683256e-05 -6.051246145943878219e-06 -1.907131149891938549e-06
1.877000000000000000e+03 3.973830461502075195e+00 1.820119667053222656e+01 3.900973024428822100e-05 4.977800199412740767e-05 2.663632039912045002e-05 1.379667446599341929e-05
1.878000000000000000e+03 6.928709030151367188e+00 1.861845588684082031e+01 -2.605728150228969753e-05 1.474348937335889786e-05 -3.394137593204504810e-06 4.856346549786394462e-06
1.879000000000000000e+03 1.279372119903564453e+01 1.820911979675292969e+01 1.750551564327906817e-05 -1.648172656132373959e-05 3.071367586926498916e-07 3.751155963982455432e-05
1.880000000000000000e+03 1.458906841278076172e+01 1.862442016601562500e+01 -7.109719444997608662e-05 -7.583279511891305447e-06 -2.360414327995385975e-05 1.904026976262684911e-05
1.881000000000000000e+03 1.582699489593505859e+01 1.825434684753417969e+01 4.919933417113497853e-05 3.368351599419838749e-06 1.577030525368172675e-05 -4.607815571944229305e-05
1.882000000000000000e+03 1.822964096069335938e+01 1.910795783996582031e+01 -7.801854735589586198e-06 -3.405317329452373087e-05 -1.255650840903399512e-05 3.897243732353672385e-05
1.883000000000000000e+03 2.938075828552246094e+01 1.899012184143066406e+01 -1.396803418174386024e-04 -1.014745284919627011e-04 -7.234646182041615248e-05 -9.704098374641034752e-06
1.884000000000000000e+03 3.049492073059082031e+01 1.903093528747558594e+01 -8.550110942451283336e-05 5.123077062307856977e-05 -1.028110273182392120e-05 -9.738964763528201729e-06
1.885000000000000000e+03 2.823572397232055664e+00 1.637737083435058594e+01 5.678958768839947879e-05 3.248508437536656857e-05 2.678240161912981421e-05 1.513316965429112315e-05
1.886000000000000000e+03 5.682863235473632812e+00 1.698747634887695312e+01 -1.314278870268026367e-05 1.291303988182335161e-06 -3.555445346137275919e-06 3.972402282670373097e-06
1.887000000000000000e+03 7.372757911682128906e+00 1.624898338317871094e+01 -4.107692438992671669e-05 -6.299721917457645759e-06 -1.421299384674057364e-05 -2.156867776648141444e-05
1.888000000000000000e+03 1.329076671600341797e+01 1.588968849182128906e+01 6.727233540004817769e-06 6.798385129513917491e-06 4.057685600855620578e-06 -1.761013481882400811e-05
1.889000000000000000e+03 1.399221420288085938e+01 1.622839927673339844e+01 5.721368506783619523e-05 -2.060654696833807975e-05 1.098214124795049429e-05 -6.344803296087775379e-06
1.890000000000000000e+03 1.584570407867431641e+01 1.642790794372558594e+01 3.971849946537986398e-05 -4.908447590423747897e-05 -2.809792704283609055e-06 -2.101666950693470426e-06
1.891000000000000000e+03 1.752182769775390625e+01 1.696595001220703125e+01 -2.420820237603038549e-05 3.774583092308603227e-05 4.061288564116694033e-06 -3.357233072165399790e-05
1.892000000000000000e+03 2.100844573974609375e+01 1.689481544494628906e+01 -3.113177808700129390e-05 -2.717885399761144072e-05 -1.749319017108064145e-05 -1.975792656594421715e-05
1.893000000000000000e+03 2.402397727966308594e+01 1.798052024841308594e+01 4.462865035748109221e-05 6.717286851198878139e-06 1.540378070785664022e-05 1.395929029968101531e-05
1.894000000000000000e+03 2.574657630920410156e+01 1.891283607482910156e+01 1.207417008117772639e-04 -1.428807627235073596e-05 3.193608790752477944e-05 -4.089620779268443584e-05
1.895000000000000000e+03 5.512513160705566406e+00 1.433672809600830078e+01 -4.127029751543886960e-05 2.346372457395773381e-05 -5.341972155292751268e-06 -1.878962939372286201e-05
1.896000000000000000e+03 7.006017684936523438e+00 1.418232345581054688e+01 9.422736297892697621e-07 2.069521542580332607e-05 6.491246949735796079e-06 -2.639934064063709229e-05
1.897000000000000000e+03 8.375297546386718750e+00 1.588738918304443359e+01 2.583779678388964385e-05 2.117020812875125557e-05 1.410240110999438912e-05 -1.861693090177141130e-05
1.898000000000000000e+03 1.031481933593750000e+01 1.445361518859863281e+01 2.079176920233294368e-05 4.471125521376961842e-06 7.578868462587706745e-06 -1.638753201405052096e-05
1.899000000000000000e+03 1.613032722473144531e+01 1.472548103332519531e+01 -3.662751259980723262e-05 -3.769027534872293472e-05 -2.229533492936752737e-05 4.957238616043468937e-06
1.900000000000000000e+03 1.876787757873535156e+01 1.513837528228759766e+01 4.500303839449770749e-05 8.109132068057078868e-06 1.593365050212014467e-05 -2.632222276588436216e-06
1.901000000000000000e+03 2.124077415466308594e+01 1.542311668395996094e+01 3.096930959145538509e-05 1.740961670293472707e-05 1.451367825211491436e-05 1.507449906057445332e-05
1.902000000000000000e+03 2.259514427185058594e+01 1.548703098297119141e+01 -4.918373815598897636e-05 -5.666710057994350791e-05 -3.175525125698186457e-05 -1.601337862666696310e-05
1.903000000000000000e+03 2.536754417419433594e+01 1.647240638732910156e+01 4.557027568807825446e-05 3.619733251980505884e-05 2.453028173476923257e-05 -3.608842916946741752e-06
1.904000000000000000e+03 2.673570823669433594e+01 1.632328987121582031e+01 -6.100945392972789705e-05 -9.886491170618683100e-05 -4.796230859938077629e-05 -2.948213659692555666e-05
1.905000000000000000e+03 2.815661239624023438e+01 1.620998954772949219e+01 9.134767606155946851e-05 4.029896081192418933e-05 3.949399251723662019e-05 3.843684316962026060e-05
1.906000000000000000e+03 3.141720008850097656e+01 1.576852703094482422e+01 1.795701246010139585e-04 3.053847467526793480e-05 6.303258123807609081e-05 7.181221008067950606e-05
1.907000000000000000e+03 3.473440170288085938e+00 1.332422447204589844e+01 -1.503273438174801413e-06 -4.339735369285335764e-06 -1.752902676344092470e-06 -1.909075945150107145e-05
1.908000000000000000e+03 5.255427837371826172e+00 1.303443336486816406e+01 -9.294589290220756084e-06 1.604574026714544743e-05 2.025345111178467050e-06 -3.124860813841223717e-05
1.909000000000000000e+03 6.086295604705810547e+00 1.228543376922607422e+01 5.013010650145588443e-06 3.113827915512956679e-06 2.438051524222828448e-06 9.613538168196100742e-06
1.910000000000000000e+03 7.737290382385253906e+00 1.221407699584960938e+01 3.605949132179375738e-06 2.552918658693670295e-06 1.847660428211383987e-06 1.142032397183356807e-05
1.911000000000000000e+03 1.510050964355468750e+01 1.251700115203857422e+01 -5.038857852923683822e-05 -8.720689947949722409e-06 -1.773278017935808748e-05 -1.380906815029447898e-05
1.912000000000000000e+03 1.768081665039062500e+01 1.154579067230224609e+01 -4.438533142092637718e-05 -3.768933675019070506e-05 -2.462240081513300538e-05 -2.033853161265142262e-05
1.913000000000000000e+03 1.825874137878417969e+01 1.271706485748291016e+01 6.100488099036738276e-05 1.591607178852427751e-05 2.307628710696008056e-05 2.557482503107166849e-06
1.914000000000000000e+03 2.033030891418457031e+01 1.275328636169433594e+01 -2.337245678063482046e-05 -2.569936077634338289e-05 -1.472154508519452065e-05 -4.279612039681524038e-05
1.915000000000000000e+03 2.159543228149414062e+01 1.298561668395996094e+01 1.940894071594811976e-05 2.175253757741302252e-05 1.234844330610940233e-05 3.641190414782613516e-05
1.916000000000000000e+03 2.278351402282714844e+01 1.318153285980224609e+01 -3.481948806438595057e-05 -6.759759708074852824e-05 -3.072512481594458222e-05 -4.523445386439561844e-05
1.917000000000000000e+03 2.393492507934570312e+01 1.312785339355468750e+01 7.753350655548274517e-05 2.998284071509260684e-05 3.225490581826306880e-05 2.403265898465178907e-05
1.918000000000000000e+03 2.528178024291992188e+01 1.400626945495605469e+01 8.608141797594726086e-05 3.243702303734607995e-05 3.555553121259436011e-05 2.120067074429243803e-05
1.919000000000000000e+03 2.661242675781250000e+01 1.375611591339111328e+01 -1.024946323013864458e-04 -7.026344246696680784e-05 -5.182742461329326034e-05 -3.331404150230810046e-05
1.920000000000000000e+03 2.799794769287109375e+01 1.350340652465820312e+01 1.453859877074137330e-04 4.780246854352299124e-06 4.504987009568139911e-05 4.011108831036835909e-05
1.921000000000000000e+03 3.119775390625000000e+01 1.438249111175537109e+01 -1.739762083161622286e-04 -3.812719660345464945e-05 -6.363102147588506341e-05 -3.740199099411256611e-05
1.922000000000000000e+03 3.280582427978515625e+01 1.409024333953857422e+01 2.224549243692308664e-04 -1.393737147736828774e-05 6.255526386667042971e-05 5.860204691998660564e-05
1.923000000000000000e+03 3.443847274780273438e+01 1.378717517852783203e+01 -2.286119997734203935e-04 -2.082992068608291447e-06 -6.920850137248635292e-05 -1.576300019223708659e-05
1.924000000000000000e+03 3.612481689453125000e+01 1.338247680664062500e+01 2.577549021225422621e-04 -1.456921290809987113e-05 7.295570685528218746e-05 1.349808917439077049e-05
1.925000000000000000e+03 7.947460412979125977e-01 1.338890075683593750e+01 -5.847272404935210943e-05 1.546926614537369460e-05 -1.290103773499140516e-05 1.250701279786881059e-05
1.926000000000000000e+03 3.662200927734375000e+00 1.156786346435546875e+01 3.379466215847060084e-05 2.451769978506490588e-05 1.749370858306065202e-05 -9.836053322942461818e-06
1.927000000000000000e+03 5.277927875518798828e+00 1.165550994873046875e+01 6.966979981370968744e-06 1.290163891098927706e-05 5.960585440334398299e-06 -1.998453080886974931e-05
1.928000000000000000e+03 6.111780643463134766e+00 1.096444416046142578e+01 -1.069595825242686260e-07 -5.466324637382058427e-06 -1.671985273787868209e-06 -5.001362524126307108e-07
1.929000000000000000e+03 9.027728080749511719e+00 1.070042800903320312e+01 1.692421938059851527e-05 1.269078711629845202e-05 8.884501767170149833e-06 3.032835138583322987e-06
1.930000000000000000e+03 1.337190055847167969e+01 1.075196456909179688e+01 -2.269217475259210914e-05 -4.561759851640090346e-06 -8.176180017471779138e-06 2.660794280018308200e-06
1.931000000000000000e+03 1.711610984802246094e+01 1.054245471954345703e+01 3.656088665593415499e-05 1.550235538161359727e-05 1.561897261126432568e-05 -5.850100933457724750e-06
1.932000000000000000e+03 1.867250633239746094e+01 1.008684158325195312e+01 -6.133144052000716329e-05 -2.874210804293397814e-05 -2.702206438698340207e-05 -9.316713658336084336e-06
1.933000000000000000e+03 2.002756118774414062e+01 1.074905395507812500e+01 -6.205593672348186374e-05 -3.947247023461386561e-05 -3.045852281502448022e-05 -3.297886360087431967e-05
1.934000000000000000e+03 2.113683509826660156e+01 1.041470623016357422e+01 8.967441681306809187e-05 3.224148713343311101e-06 2.786956974887289107e-05 3.368354373378679156e-05
1.935000000000000000e+03 2.235568809509277344e+01 1.016965293884277344e+01 -8.169988723238930106e-05 -2.451055115670897067e-05 -3.186313188052736223e-05 -6.262506212806329131e-05
1.936000000000000000e+03 2.480640602111816406e+01 1.181519889831542969e+01 1.138562729465775192e-04 -6.248234512895578519e-06 3.228241257602348924e-05 3.025499154318822548e-06
1.937000000000000000e+03 2.602490806579589844e+01 1.140274620056152344e+01 -1.101581219700165093e-04 -2.692752786970231682e-05 -4.112569513381458819e-05 -9.938758921634871513e-06
1.938000000000000000e+03 2.737015724182128906e+01 1.100327491760253906e+01 1.405818038620054722e-04 -1.398447875544661656e-05 3.797919998760335147e-05 9.941311873262748122e-06
1.939000000000000000e+03 2.916986656188964844e+01 1.194638919830322266e+01 1.695607934379950166e-04 -2.011361175391357392e-05 4.483415614231489599e-05 2.509910882508847862e-05
1.940000000000000000e+03 3.065492630004882812e+01 1.168685436248779297e+01 -1.584460551384836435e-04 -9.137745109910611063e-06 -5.027513907407410443e-05 -8.291763151646591723e-06
1.941000000000000000e+03 3.217844009399414062e+01 1.145960903167724609e+01 1.902198710013180971e-04 -3.229105277569033206e-05 4.737864583148621023e-05 1.948308272403664887e-05
1.942000000000000000e+03 3.512364196777343750e+01 1.093661689758300781e+01 1.929983845911920071e-04 -3.227359775337390602e-05 4.821743277716450393e-05 -3.536744407028891146e-05
1.943000000000000000e+03 3.794128799438476562e+01 1.276106739044189453e+01 -2.018896775553002954e-04 9.054594556801021099e-06 -5.785052417195402086e-05 6.949561793589964509e-05
1.944000000000000000e+03 4.362744331359863281e+00 9.592538833618164062e+00 9.470738405070733279e-06 -2.645531822054181248e-06 2.047562020379700698e-06 5.527603548216575291e-07
1.945000000000000000e+03 6.267621994018554688e+00 9.587628364562988281e+00 -9.276924402001895942e-07 -2.861380380636546761e-06 -1.136721834882337134e-06 2.592203145468374714e-06
1.946000000000000000e+03 1.066362953186035156e+01 1.027356624603271484e+01 2.555995160946622491e-05 1.691058241704013199e-05 1.274116038985084742e-05 6.434684564737835899e-06
1.947000000000000000e+03 1.332252883911132812e+01 8.491420745849609375e+00 3.608033512136898935e-05 2.156338814529590309e-05 1.729311588860582560e-05 -1.704401256574783474e-05
1.948000000000000000e+03 1.534342765808105469e+01 9.529737472534179688e+00 -1.063789022737182677e-05 -2.378438693995121866e-05 -1.032668296829797328e-05 -4.441431883606128395e-05
1.949000000000000000e+03 2.490511131286621094e+01 9.184445381164550781e+00 -9.585208317730575800e-05 -6.488898634415818378e-06 -3.070229286095127463e-05 1.647703015805745963e-06
1.950000000000000000e+03 2.619171714782714844e+01 8.608807563781738281e+00 1.243947044713422656e-04 -3.234805626561865211e-05 2.761399264272768050e-05 -3.812413524428848177e-06
1.951000000000000000e+03 2.830603981018066406e+01 9.272483825683593750e+00 1.405114307999610901e-04 -1.409378273820038885e-05 3.792529605561867356e-05 8.253303462879557628e-07
1.952000000000000000e+03 2.990635108947753906e+01 8.963452339172363281e+00 -1.166635192930698395e-04 -1.758975122356787324e-05 -4.027598333777859807e-05 -1.204002910526469350e-05
1.953000000000000000e+03 3.153424263000488281e+01 8.842498779296875000e+00 1.444807567168027163e-04 -4.472662112675607204e-06 4.200242983642965555e-05 1.189927843370242044e-05
1.954000000000000000e+03 3.305047225952148438e+01 8.680218696594238281e+00 -1.249720226041972637e-04 -1.591448199178557843e-05 -4.226595410727895796e-05 2.433259214740246534e-05
1.955000000000000000e+03 3.449626159667968750e+01 8.532016754150390625e+00 1.443782093701884151e-04 1.424406855221604928e-05 4.758668364956974983e-05 -5.385018539527663961e-06
1.956000000000000000e+03 3.589308547973632812e+01 8.490332603454589844e+00 -9.981725452234968543e-05 -3.764110806514509022e-05 -4.123750841245055199e-05 2.622042120492551476e-05
1.957000000000000000e+03 3.726208877563476562e+01 8.640927314758300781e+00 8.627498755231499672e-05 7.541167724411934614e-05 4.850600089412182570e-05 2.825267256412189454e-05
1.958000000000000000e+03 3.870223236083984375e+01 8.872655868530273438e+00 -1.100754234357737005e-04 -3.884906982420943677e-05 -4.467734834179282188e-05 -8.912319572118576616e-06
1.959000000000000000e+03 2.689722776412963867e+00 8.069241523742675781e+00 1.334852004220010713e-05 -1.649178670959372539e-06 3.509802354528801516e-06 1.411938046658178791e-05
1.960000000000000000e+03 6.322854518890380859e+00 6.779593944549560547e+00 -3.675624611787497997e-06 -7.680714588786941022e-06 -3.406901896596536972e-06 -5.921290721744298935e-06
1.961000000000000000e+03 7.704020500183105469e+00 8.211623191833496094e+00 8.008401891856919974e-06 1.245867315446957946e-05 6.140122422948479652e-06 6.941060632925655227e-07
1.962000000000000000e+03 8.405301094055175781e+00 7.063669204711914062e+00 1.828547647164668888e-05 1.269566564587876201e-05 9.294342817156575620e-06 1.488389534642919898e-05
1.963000000000000000e+03 1.166991424560546875e+01 5.461305141448974609e+00 3.704863775055855513e-05 -4.846864158025709912e-06 9.660532668931409717e-06 -7.924023520899936557e-06
1.964000000000000000e+03 1.456003570556640625e+01 7.442430019378662109e+00 3.085736170760355890e-05 2.029053803198621608e-06 9.865924766927491874e-06 8.411344424530398101e-06
1.965000000000000000e+03 1.710490798950195312e+01 7.419608592987060547e+00 5.389291254687123001e-05 -7.479904979845741764e-06 1.392390186083503067e-05 -1.649817750148940831e-05
1.966000000000000000e+03 1.968491363525390625e+01 7.477057933807373047e+00 -6.504225893877446651e-05 -2.081323628999598441e-07 -1.957511813088785857e-05 2.702202436921652406e-06
1.967000000000000000e+03 2.025176620483398438e+01 6.372186660766601562e+00 -6.038794163032434881e-05 -5.524689186131581664e-06 -1.977378997253254056e-05 1.571248139953240752e-05
1.968000000000000000e+03 2.087712287902832031e+01 5.938036441802978516e+00 3.083310730289667845e-05 -8.976796380011364818e-06 6.556893822562415153e-06 -3.551248300937004387e-05
1.969000000000000000e+03 2.333199691772460938e+01 7.116466045379638672e+00 -4.558871296467259526e-05 -6.885353286634199321e-06 -1.574222005729097873e-05 3.172234573867172003e-05
1.970000000000000000e+03 2.661796379089355469e+01 6.889451026916503906e+00 8.889457967597991228e-05 -1.141932625614572316e-05 2.324257729924283922e-05 -2.316360769327729940e-05
1.971000000000000000e+03 2.911734390258789062e+01 6.130987167358398438e+00 -2.437294460833072662e-05 1.525049901829333976e-05 -2.736733677011216059e-06 3.816952084889635444e-05
1.972000000000000000e+03 3.397387695312500000e+01 5.979314327239990234e+00 1.160518804681487381e-04 5.207686626818031073e-06 3.637787085608579218e-05 -1.247355498890101444e-06
1.973000000000000000e+03 3.736258316040039062e+01 6.403361797332763672e+00 1.060673093888908625e-04 2.220863098045811057e-05 3.848278356599621475e-05 3.993163409177213907e-05
1.974000000000000000e+03 3.860749816894531250e+01 6.510581016540527344e+00 -1.304089091718196869e-04 3.822643520834390074e-06 -3.797588215093128383e-05 9.465479706705082208e-06
1.975000000000000000e+03 4.028890228271484375e+01 7.476452827453613281e+00 -1.428302493877708912e-04 -1.776124008756596595e-05 -4.817744411411695182e-05 4.977755088475532830e-05
1.976000000000000000e+03 2.588360548019409180e+00 6.497098445892333984e+00 8.967572284745983779e-06 5.670062364515615627e-06 4.391290531202685088e-06 -4.500137492868816480e-06
1.977000000000000000e+03 4.359449386596679688e+00 4.540297031402587891e+00 -1.290813816012814641e-05 -4.815797638002550229e-06 -5.317180693964473903e-06 1.342090968137199525e-06
1.978000000000000000e+03 7.047032833099365234e+00 6.391142368316650391e+00 1.436120146536268294e-05 1.308098944718949497e-05 8.232656909967772663e-06 -7.391851795546244830e-06
1.979000000000000000e+03 8.369574546813964844e+00 5.962996482849121094e+00 2.270637560286559165e-05 9.030786713992711157e-06 9.521148967905901372e-06 1.143319082075322513e-06
1.980000000000000000e+03 1.285550403594970703e+01 4.484045982360839844e+00 3.205111715942621231e-05 -2.944344032584922388e-06 8.732031346880830824e-06 -6.304627731879008934e-06
1.981000000000000000e+03 1.529957771301269531e+01 5.668739795684814453e+00 -4.614976205630227923e-05 1.293107652600156143e-05 -9.965605386241804808e-06 -1.030054863804252818e-05
1.982000000000000000e+03 1.702501869201660156e+01 4.970335483551025391e+00 -4.673845614888705313e-05 -1.752943830979347695e-06 -1.454741959605598822e-05 1.832308726079645567e-06
1.983000000000000000e+03 1.957255935668945312e+01 4.757564067840576172e+00 -2.758521986834239215e-05 -1.132623128796694800e-05 -1.167343543784227222e-05 -1.089715624402742833e-05
1.984000000000000000e+03 3.754301452636718750e+01 5.393231391906738281e+00 -1.017612012219615281e-04 3.587657556636258960e-05 -1.976538806047756225e-05 -2.859989945136476308e-05
1.985000000000000000e+03 4.008913803100585938e+01 4.668828964233398438e+00 -2.998125819431152195e-05 8.402748062508180737e-05 1.621386763872578740e-05 -4.585156420944258571e-05
1.986000000000000000e+03 4.166270446777343750e+01 4.947924137115478516e+00 -3.868810017593204975e-05 5.393938772613182664e-05 4.575386356009403244e-06 -4.876056846114806831e-05
1.987000000000000000e+03 4.082931518554687500e+01 5.692784309387207031e+00 1.714330392132978886e-05 -7.099877984728664160e-05 -1.615664405107963830e-05 7.848101085983216763e-05
1.988000000000000000e+03 1.868445992469787598e+00 7.324044227600097656e+00 1.673613405728247017e-05 1.168854396382812411e-05 8.527403224434237927e-06 -1.898198934213723987e-05
1.989000000000000000e+03 2.484488248825073242e+00 3.777375459671020508e+00 -9.894126833387417719e-07 -4.741707471112022176e-06 -1.719336069072596729e-06 1.640147502257605083e-06
1.990000000000000000e+03 5.281348705291748047e+00 4.075674057006835938e+00 1.858545329014305025e-05 1.035435798257822171e-05 8.681943654664792120e-06 -9.350480468128807843e-06
1.991000000000000000e+03 7.928067684173583984e+00 3.614748477935791016e+00 -2.405100303803919815e-06 -6.106362889113370329e-06 -2.553438889663084410e-06 -1.405042803526157513e-05
1.992000000000000000e+03 9.461814880371093750e+00 3.457983732223510742e+00 -6.449737156799528748e-06 2.605671056699065957e-07 -1.856751055129279848e-06 -1.729191171762067825e-05
1.993000000000000000e+03 1.155910873413085938e+01 3.798455715179443359e+00 -1.390501711284741759e-05 8.288131539302412421e-06 -1.685065740275604185e-06 -1.366765900456812233e-05
1.994000000000000000e+03 1.292527580261230469e+01 3.318243503570556641e+00 2.674959068826865405e-05 -7.861399353714659810e-07 7.789035407768096775e-06 -7.955627552291844040e-06
1.995000000000000000e+03 1.496076297760009766e+01 3.720600843429565430e+00 3.652889063232578337e-05 -1.092971047000901308e-06 1.063077615981455892e-05 -1.202790463139535859e-05
1.996000000000000000e+03 1.647329330444335938e+01 3.643319129943847656e+00 -1.042578605847666040e-05 -3.297988939721108181e-07 -3.226675289624836296e-06 -4.272991191101027653e-06
1.997000000000000000e+03 1.862973785400390625e+01 3.925333738327026367e+00 -2.821997259161435068e-05 -7.665785233257338405e-06 -1.076572789315832779e-05 -1.308438459091121331e-05
1.998000000000000000e+03 2.006308937072753906e+01 3.781948804855346680e+00 -6.206488706084201112e-06 -1.887739381345454603e-05 -7.525164619437418878e-06 -5.206912646826822311e-06
1.999000000000000000e+03 2.195689964294433594e+01 4.506508827209472656e+00 3.861833101836964488e-05 4.760997853736625984e-06 1.301379870710661635e-05 2.251904879813082516e-05
2.000000000000000000e+03 2.518408203125000000e+01 4.367226123809814453e+00 -2.145778307749424130e-05 -2.776122528302948922e-05 -1.476570196246029809e-05 4.381646795081906021e-05
2.001000000000000000e+03 2.623402976989746094e+01 4.564636230468750000e+00 1.765425804478581995e-05 -4.727885607280768454e-05 -8.887379408406559378e-06 4.253084262018091977e-05
2.002000000000000000e+03 2.885943603515625000e+01 4.414137840270996094e+00 2.054860124189872295e-05 2.208309160778298974e-05 1.278950821870239452e-05 4.629000977729447186e-05
2.003000000000000000e+03 3.257210159301757812e+01 4.077538967132568359e+00 -8.994094241643324494e-05 6.927741651452379301e-06 -2.490396036591846496e-05 8.050147698668297380e-06
2.004000000000000000e+03 3.563021469116210938e+01 4.343384742736816406e+00 -1.431538748875027522e-06 -4.081613042217213660e-06 -1.653945446378202178e-06 -1.304240777244558558e-05
2.005000000000000000e+03 3.796257781982421875e+01 3.711769580841064453e+00 -1.232532522408291698e-04 2.416245479253120720e-05 -2.972723814309574664e-05 1.558047006255947053e-05
2.006000000000000000e+03 3.869693374633789062e+01 4.787302970886230469e+00 -1.000075935735367239e-04 6.979757017688825727e-05 -9.063007382792420685e-06 -6.655101606156677008e-05
2.007000000000000000e+03 3.912197113037109375e+01 3.956241846084594727e+00 1.094829858629964292e-04 -3.458585706539452076e-05 2.246913754788693041e-05 3.107144584646448493e-05
2.008000000000000000e+03 4.102111434936523438e+01 4.069264411926269531e+00 -3.279386510257609189e-05 -5.862765829078853130e-05 -2.742645665421150625e-05 6.274598126765340567e-05
2.009000000000000000e+03 5.367336869239807129e-01 5.015246868133544922e+00 -2.097260403388645500e-05 1.406664580372307682e-07 -6.249581019801553339e-06 5.099593636259669438e-06
2.010000000000000000e+03 1.291076469421386719e+01 2.045202493667602539e+00 2.630398739711381495e-05 5.257938369140902068e-07 8.048934432736132294e-06 -8.792700100457295775e-06
2.011000000000000000e+03 1.406987190246582031e+01 2.272984027862548828e+00 2.987968582601752132e-05 -1.687172215270038578e-07 8.913290002965368330e-06 -7.614085461682407185e-06
2.012000000000000000e+03 1.742902565002441406e+01 2.224526166915893555e+00 4.080637154402211308e-05 -2.531635630020900862e-07 1.216596319864038378e-05 1.170291852758964524e-06
2.013000000000000000e+03 1.812687492370605469e+01 1.931300044059753418e+00 -2.055500408459920436e-05 -1.226484528160654008e-06 -6.534447038575308397e-06 -4.082403847860405222e-06
2.014000000000000000e+03 1.961739921569824219e+01 1.904870986938476562e+00 2.672936534509062767e-05 -1.370375503029208630e-05 3.907683094439562410e-06 -8.047937626542989165e-06
2.015000000000000000e+03 2.234905433654785156e+01 1.275902390480041504e+00 4.475110472412779927e-05 -1.005900776362977922e-05 1.040762890625046566e-05 -1.679912747931666672e-05
2.016000000000000000e+03 2.300960731506347656e+01 2.190580129623413086e+00 -2.962785583804361522e-05 -2.278840156577643938e-07 -8.956722012953832746e-06 1.454781340726185590e-05
2.017000000000000000e+03 2.554869461059570312e+01 2.796383380889892578e+00 2.212758590758312494e-05 4.373821411718381569e-06 7.950422514113597572e-06 -6.154177754069678485e-06
2.018000000000000000e+03 2.927979850769042969e+01 2.371046781539916992e+00 1.090430032490985468e-05 2.795036925817839801e-05 1.165640060207806528e-05 2.744565972534473985e-05
2.019000000000000000e+03 3.105944442749023438e+01 2.682035684585571289e+00 3.989788820035755634e-05 8.938623068388551474e-06 1.465095283492701128e-05 4.581017128657549620e-05
2.020000000000000000e+03 3.394105148315429688e+01 2.830818653106689453e+00 -1.207182685902807862e-05 2.292061981279402971e-05 3.254637704230844975e-06 -2.284548372699646279e-06
2.021000000000000000e+03 3.529801940917968750e+01 2.741333961486816406e+00 -1.703823181742336601e-05 9.456979569222312421e-06 -2.274375901833991520e-06 -3.616327603594982065e-06
2.022000000000000000e+03 3.677840805053710938e+01 2.466995000839233398e+00 -5.359683927963487804e-05 -2.025088178925216198e-06 -1.668657750997226685e-05 -5.595780294243013486e-06
2.023000000000000000e+03 4.061827468872070312e+01 1.694506168365478516e+00 -7.456819730577990413e-05 -1.300611165788723156e-05 -2.627229332574643195e-05 1.099718883779132739e-05
2.024000000000000000e+03 1.889987754821777344e+01 -6.778241395950317383e-01 2.609611101433984004e-06 -8.946737466430931818e-07 5.144812007529253606e-07 4.860155513597419485e-06
2.025000000000000000e+03 2.100917816162109375e+01 7.794520854949951172e-01 4.853555583395063877e-05 -4.938471647619735450e-06 1.307912498305086046e-05 -3.484806256892625242e-06
2.026000000000000000e+03 2.144480133056640625e+01 -2.207242548465728760e-01 2.130422763002570719e-05 1.496426739322487265e-05 1.088054887077305466e-05 -1.874007830338086933e-05
2.027000000000000000e+03 2.605007743835449219e+01 -4.498643875122070312e-01 6.333997589536011219e-05 -6.618533006985671818e-06 1.701643304841127247e-05 3.897285296261543408e-06
2.028000000000000000e+03 2.661603164672851562e+01 7.324635982513427734e-01 -4.846163938054814935e-05 4.941182851325720549e-06 -1.305613659496884793e-05 7.061878022796008736e-06
2.029000000000000000e+03 2.850731849670410156e+01 -6.486213803291320801e-01 2.257852145248762099e-07 -1.363638375551090576e-06 -3.413559568343771389e-07 2.744735502346884459e-05
2.030000000000000000e+03 3.054100608825683594e+01 8.881458640098571777e-01 -6.489613951998762786e-06 5.881781817151932046e-07 -1.770430799297173508e-06 4.494391032494604588e-05
2.031000000000000000e+03 3.236688995361328125e+01 7.337146997451782227e-01 1.436787533748429269e-05 -2.963093038488295861e-06 3.421434712436166592e-06 4.128682849113829434e-05
2.032000000000000000e+03 3.797475814819335938e+01 6.864349246025085449e-01 8.167800842784345150e-05 -3.721643452081480063e-06 2.338690865144599229e-05 1.858242285379674286e-05
2.033000000000000000e+03 4.032128143310546875e+01 5.248968005180358887e-01 6.859156565042212605e-05 8.151492693286854774e-06 2.302291613887064159e-05 -5.186990165384486318e-06
2.034000000000000000e+03 4.331211853027343750e+01 8.944033980369567871e-01 -4.304408776079071686e-07 -6.274148745433194563e-06 -2.011376864174962975e-06 1.444196004740661010e-05
2.035000000000000000e+03 1.953448677062988281e+01 -1.254540801048278809e+00 1.751470517774578184e-05 3.646439949989144225e-07 5.363805030356161296e-06 -8.636103302706032991e-06
2.036000000000000000e+03 2.250621032714843750e+01 -9.164478778839111328e-01 1.094145954994019121e-05 2.008104092965368181e-05 9.306750143878161907e-06 -1.351540959149133414e-05
2.037000000000000000e+03 2.308045578002929688e+01 -1.045294284820556641e+00 -1.391757905366830528e-05 -1.525193238194333389e-05 -8.750853339734021574e-06 -4.074647222296334803e-06
2.038000000000000000e+03 2.917024612426757812e+01 -1.438773393630981445e+00 1.768798256307491101e-06 -4.944718511978862807e-06 -9.527760767014115117e-07 -2.763056181720457971e-05
2.039000000000000000e+03 3.093750381469726562e+01 -1.663407444953918457e+00 1.709040770947467536e-05 -1.471994619350880384e-05 7.111382842595048714e-07 -1.192133186123101041e-05
2.040000000000000000e+03 3.204743194580078125e+01 -1.020477533340454102e+00 2.283131652802694589e-05 2.369003595958929509e-06 7.560096037195762619e-06 2.912413219746667892e-05
2.041000000000000000e+03 3.737934875488281250e+01 -1.364331126213073730e+00 6.808493344578891993e-05 -8.642694410809781402e-06 1.783267180144321173e-05 1.545250597700942308e-05
2.042000000000000000e+03 4.059921646118164062e+01 -1.827565670013427734e+00 -2.752049113041721284e-05 -2.669060813786927611e-05 -1.626332959858700633e-05 3.766502413782291114e-05
2.043000000000000000e+03 4.333193969726562500e+01 -9.519584178924560547e-01 1.288728253712179139e-05 8.198650220947456546e-07 4.112144324608379975e-06 -9.641287761041894555e-06
2.044000000000000000e+03 4.602934646606445312e+01 -2.682467401027679443e-01 -5.013157715438865125e-05 -1.632609564694575965e-05 -1.993730256799608469e-05 -2.194252192566636950e-05
2.045000000000000000e+03 2.142172050476074219e+01 -2.949777603149414062e+00 4.303519176573900040e-07 -5.685379164788173512e-06 -1.576508225298312027e-06 1.795509092517022509e-06
2.046000000000000000e+03 2.252539825439453125e+01 -2.653815269470214844e+00 -7.437963176926132292e-06 -2.304489271409693174e-06 -2.922735802712850273e-06 1.059703936334699392e-05
2.047000000000000000e+03 2.486001014709472656e+01 -2.732999801635742188e+00 -1.929301106429193169e-05 -1.091890408133622259e-05 -9.063573997991625220e-06 -7.971426384756341577e-06
2.048000000000000000e+03 2.693230056762695312e+01 -3.616119146347045898e+00 4.453288056538440287e-05 8.763718142290599644e-06 1.598898052179720253e-05 -1.358717781840823591e-05
2.049000000000000000e+03 2.895624923706054688e+01 -3.085431575775146484e+00 -3.574379297788254917e-05 -1.543224698252743110e-06 -1.118610452977009118e-05 -1.056695964507525787e-06
2.050000000000000000e+03 3.052185440063476562e+01 -4.255088329315185547e+00 3.658637979242485017e-06 -2.122927435266319662e-05 -5.271190730127273127e-06 -9.337280062027275562e-06
2.051000000000000000e+03 3.211837387084960938e+01 -2.978360891342163086e+00 4.786318095284514129e-05 -2.669995774340350181e-05 6.348967417579842731e-06 -5.159114607522496954e-06
2.052000000000000000e+03 3.500913238525390625e+01 -2.444122314453125000e+00 -4.056024044984951615e-05 -1.378886463498929515e-05 -1.630473161640111357e-05 -8.408002940996084362e-06
2.053000000000000000e+03 3.624221801757812500e+01 -2.429183959960937500e+00 4.720575088867917657e-05 1.109944787458516657e-05 1.749156035657506436e-05 2.220563692389987409e-05
2.054000000000000000e+03 3.729251098632812500e+01 -2.261572837829589844e+00 -4.367995643406175077e-05 -2.627639787533553317e-06 -1.389227873005438596e-05 3.165910811731009744e-06
2.055000000000000000e+03 4.154945373535156250e+01 -2.150652647018432617e+00 4.034432276966981590e-05 3.667524651973508298e-05 2.310587115061935037e-05 -3.708368240040726960e-05
2.056000000000000000e+03 4.407479476928710938e+01 -1.712934255599975586e+00 -1.446264741389313713e-05 4.863543836108874530e-06 -2.879730800486868247e-06 1.099931068893056363e-05
2.057000000000000000e+03 2.565174674987792969e+01 -5.091329574584960938e+00 -2.203386429755482823e-05 -5.207421509112464264e-06 -8.172385605575982481e-06 1.064476964529603720e-05
2.058000000000000000e+03 2.668785667419433594e+01 -4.571206092834472656e+00 -2.581386070232838392e-05 -1.283126130147138610e-05 -1.159353632829152048e-05 1.660724956309422851e-05
2.059000000000000000e+03 2.953341674804687500e+01 -5.408756732940673828e+00 -3.092594124609604478e-05 -5.803392923553474247e-06 -1.101880116038955748e-05 1.574736188558745198e-06
2.060000000000000000e+03 3.105894279479980469e+01 -4.901279449462890625e+00 -2.594492116259061731e-06 8.621262168162502348e-06 1.808030901884194463e-06 2.293228499183896929e-05
2.061000000000000000e+03 3.259696197509765625e+01 -5.050891399383544922e+00 -5.990323188598267734e-06 1.321536001341883093e-05 2.167510956496698782e-06 2.805185249599162489e-05
2.062000000000000000e+03 3.581277465820312500e+01 -4.295690059661865234e+00 -1.884965240606106818e-05 7.192689281509956345e-06 -3.497088982840068638e-06 6.675371878372970968e-06
2.063000000000000000e+03 3.749444580078125000e+01 -4.144378662109375000e+00 -3.932342224288731813e-05 1.195916411234065890e-05 -8.209277439163997769e-06 1.699112908681854606e-05
2.064000000000000000e+03 3.937761306762695312e+01 -3.635725498199462891e+00 -1.351273476757341996e-05 4.963155333825852722e-06 -2.564873739174799994e-06 3.335737710585817695e-05
2.065000000000000000e+03 4.046982955932617188e+01 -4.266231536865234375e+00 2.022710759774781764e-05 -2.182336629630299285e-06 5.413431608758401126e-06 -2.116617906722240150e-05
2.066000000000000000e+03 4.163303756713867188e+01 -4.941033363342285156e+00 -7.762395398458465934e-06 1.704845772110274993e-06 -1.817264774217619561e-06 1.521459580544615164e-05
2.067000000000000000e+03 4.430299758911132812e+01 -3.288849353790283203e+00 1.824280479922890663e-05 3.221234919692506082e-06 6.439212029363261536e-06 9.500659871264360845e-06
2.068000000000000000e+03 4.565163040161132812e+01 -3.722250938415527344e+00 -3.349128019181080163e-05 -8.724638973944820464e-06 -1.266477556782774627e-05 -1.164633067674003541e-05
2.069000000000000000e+03 4.718336105346679688e+01 -3.740284919738769531e+00 4.507314952206797898e-05 1.536015406600199640e-05 1.812999107642099261e-05 1.941581831488292664e-05
2.070000000000000000e+03 2.422652626037597656e+01 -6.473939895629882812e+00 6.851278612884925678e-06 -4.471838565223151818e-06 7.138320938793185633e-07 -1.514498308097245172e-05
2.071000000000000000e+03 2.768114089965820312e+01 -6.518614768981933594e+00 3.449779251241125166e-05 -1.106622221413999796e-06 1.001735108729917556e-05 8.946783964347559959e-06
2.072000000000000000e+03 2.860186004638671875e+01 -7.121925830841064453e+00 3.143771027680486441e-05 1.013002133731788490e-06 9.735214007378090173e-06 2.950399220935651101e-06
2.073000000000000000e+03 3.033198738098144531e+01 -7.760000705718994141e+00 -1.358226381853455678e-05 -1.046382931235712022e-05 -7.213827757368562743e-06 9.662243428465444595e-06
2.074000000000000000e+03 3.426097106933593750e+01 -5.713173866271972656e+00 3.274057235103100538e-05 -4.724688096757745370e-06 8.404766049352474511e-06 1.874710687843617052e-05
2.075000000000000000e+03 3.591156768798828125e+01 -6.142218112945556641e+00 7.259653557412093505e-06 1.010341520668589510e-06 2.480998546161572449e-06 1.365047046419931576e-05
2.076000000000000000e+03 3.792160415649414062e+01 -5.729094505310058594e+00 -2.783013769658282399e-05 1.076301714419969358e-06 -8.026150680962018669e-06 1.366183460049796849e-05
2.077000000000000000e+03 3.979751586914062500e+01 -6.600535869598388672e+00 1.681809771980624646e-05 -9.897629752231296152e-06 2.076140390272485092e-06 1.715773396426811814e-05
2.078000000000000000e+03 4.121244812011718750e+01 -6.892800807952880859e+00 3.147759343846701086e-05 1.446234819013625383e-05 1.378198248858097941e-05 1.231857913808198646e-05
2.079000000000000000e+03 4.443778991699218750e+01 -5.943511486053466797e+00 -2.061434497591108084e-05 7.652897693333216012e-06 -3.888434093823889270e-06 1.883400386759603862e-06
2.080000000000000000e+03 4.579419326782226562e+01 -6.463602066040039062e+00 1.739598519634455442e-05 -1.705999420664738864e-05 1.007968322142005491e-07 -2.550582166804815643e-06
2.081000000000000000e+03 2.473698997497558594e+01 -8.241765022277832031e+00 3.447602693995577283e-06 2.537074408337502973e-07 1.110393100134388078e-06 7.585670573462266475e-06
2.082000000000000000e+03 2.883436965942382812e+01 -8.545160293579101562e+00 2.161019619961734861e-05 1.076523972187715117e-06 6.806015790061792359e-06 6.188691259012557566e-06
2.083000000000000000e+03 3.294578170776367188e+01 -8.901292800903320312e+00 3.428047421039082110e-05 -5.667708364853751846e-07 1.011411131912609562e-05 3.193874135831720196e-06
2.084000000000000000e+03 3.456628417968750000e+01 -8.770766258239746094e+00 -6.430986104533076286e-06 -2.845911922122468241e-06 -2.783069248835090548e-06 -1.054883341566892341e-05
2.085000000000000000e+03 4.014667129516601562e+01 -8.194937705993652344e+00 2.586318260000552982e-05 1.118195905291941017e-05 1.111354231397854164e-05 2.616602159832837060e-06
2.086000000000000000e+03 4.124550628662109375e+01 -8.012747764587402344e+00 -3.019331415998749435e-05 -4.178925337328109890e-06 -1.031167175824521109e-05 -7.294784154510125518e-06
2.087000000000000000e+03 2.725406455993652344e+01 -9.152539253234863281e+00 2.053574098681565374e-05 -3.429343919947314134e-08 6.150434273877181113e-06 5.169821179151767865e-06
2.088000000000000000e+03 2.825398826599121094e+01 -1.068439102172851562e+01 -1.320811588811920956e-05 2.216219627371174283e-06 -3.297569037385983393e-06 -1.195966547129501123e-06
2.089000000000000000e+03 3.246604919433593750e+01 -1.096176147460937500e+01 -1.805546708055771887e-05 1.783534798960317858e-06 -4.881580025539733469e-06 -4.080922280991217121e-06
2.090000000000000000e+03 3.627494812011718750e+01 -9.305196762084960938e+00 -6.545506494148867205e-06 -5.868530479347100481e-06 -3.724210955624585040e-06 -7.988913239387329668e-06
2.091000000000000000e+03 3.893659973144531250e+01 -9.215657234191894531e+00 2.623955333547201008e-05 7.209379873529542238e-06 1.003467968985205516e-05 -1.175690340460278094e-05
2.092000000000000000e+03 4.219107055664062500e+01 -1.048158264160156250e+01 -1.583439006935805082e-05 8.676638572069350630e-06 -2.147325631085550413e-06 1.051466733770212159e-05
2.093000000000000000e+03 4.322051620483398438e+01 -9.756730079650878906e+00 -1.934150895976927131e-05 -4.181908934697275981e-06 -7.057025413814699277e-06 7.702054972469341010e-06
2.094000000000000000e+03 4.152173233032226562e+01 -9.979332923889160156e+00 -1.082353628589771688e-05 -8.831983905110973865e-06 -5.896656148252077401e-06 -1.048953799909213558e-05
2.095000000000000000e+03 4.436938095092773438e+01 -9.060259819030761719e+00 -8.202082426578272134e-06 -1.234314458997687325e-05 -6.163567832118133083e-06 9.857341865426860750e-06
2.096000000000000000e+03 4.526617813110351562e+01 -9.257901191711425781e+00 4.882537041339674033e-07 2.443623998260591179e-05 7.477348390239058062e-06 -4.067019290232565254e-06
2.097000000000000000e+03 4.562154769897460938e+01 -8.624391555786132812e+00 5.712936854251893237e-06 -2.797939032461727038e-06 8.744993351683660876e-07 8.204065125028137118e-06
2.098000000000000000e+03 2.645687866210937500e+01 -1.199644184112548828e+01 -2.798982450258336030e-06 -2.002593646466266364e-06 -1.440472829017380718e-06 -5.130168574396520853e-06
2.099000000000000000e+03 3.080258941650390625e+01 -1.110875797271728516e+01 4.611751137417741120e-06 -2.269747028549318202e-06 7.026012553978944197e-07 1.062383489625062793e-06
2.100000000000000000e+03 3.218241500854492188e+01 -1.196398735046386719e+01 1.603695409357897006e-06 -5.007379968446912244e-07 3.308872180696198484e-07 -1.913366531880456023e-06
2.101000000000000000e+03 3.318564224243164062e+01 -1.158234024047851562e+01 -1.964021612366195768e-05 6.149898126750485972e-06 -4.047095444548176602e-06 3.828679837170056999e-06
2.102000000000000000e+03 3.594089508056640625e+01 -1.136917591094970703e+01 -7.178305622801417485e-06 -6.535689408337930217e-06 -4.114198418392334133e-06 -7.856386218918487430e-06
2.103000000000000000e+03 3.808982849121093750e+01 -1.271739959716796875e+01 1.584110009389405604e-06 -5.384075620895600878e-07 3.137107285056117689e-07 -1.167289838122087531e-07
2.104000000000000000e+03 4.095991134643554688e+01 -1.258024501800537109e+01 -1.718209387036040425e-05 -7.298559694390860386e-07 -5.373584826884325594e-06 1.280184915231075138e-05
2.105000000000000000e+03 4.239645767211914062e+01 -1.198134613037109375e+01 5.818236331833759323e-06 1.279457251257554162e-06 2.129308086296077818e-06 1.201816667162347585e-05
2.106000000000000000e+03 4.168343734741210938e+01 -1.126917266845703125e+01 -6.706604835926555097e-07 -7.651361556781921536e-06 -2.496606839486048557e-06 -7.175383871071971953e-06
2.107000000000000000e+03 4.378609466552734375e+01 -1.188439083099365234e+01 9.670500730862841010e-06 -6.180930540722329170e-07 2.715722303037182428e-06 1.064230946212774143e-05
2.108000000000000000e+03 3.184078407287597656e+01 -1.394169807434082031e+01 -6.826799562986707315e-06 6.787795996388013009e-07 -1.844406028794765007e-06 -8.168514682438399177e-07
2.109000000000000000e+03 3.232233428955078125e+01 -1.303779315948486328e+01 9.070315172721166164e-06 1.646721727865951834e-07 2.770496394077781588e-06 -4.056212787872937042e-07
2.110000000000000000e+03 3.398438262939453125e+01 -1.226430988311767578e+01 -7.816743163857609034e-06 -4.652894858736544847e-06 -3.740891543202451430e-06 4.429172690834093373e-07
2.111000000000000000e+03 3.579108810424804688e+01 -1.343003177642822266e+01 1.052241259458241984e-05 -2.076385044347262010e-06 2.533808356020017527e-06 -1.680071136433980428e-06
2.112000000000000000e+03 3.699840545654296875e+01 -1.315362834930419922e+01 5.307656465447507799e-06 -3.650130565802101046e-06 4.972577016815193929e-07 -6.371089057211065665e-06
2.113000000000000000e+03 3.907086944580078125e+01 -1.419078350067138672e+01 -4.196280315227340907e-06 4.185621037322562188e-06 -3.197778486452307334e-09 1.104959846998099238e-05
2.114000000000000000e+03 4.242824935913085938e+01 -1.447463607788085938e+01 -1.230606449098559096e-05 -7.114071195246651769e-06 -5.826040705869672820e-06 4.341542307884083129e-07
2.115000000000000000e+03 4.072806930541992188e+01 -1.344652843475341797e+01 4.867891675530700013e-06 -4.147122126596514136e-06 2.162308305742044467e-07 -1.462219643144635484e-05
2.116000000000000000e+03 4.434536361694335938e+01 -1.248735046386718750e+01 -5.235286153038032353e-06 -7.179956810432486236e-06 -3.724572934515890665e-06 -3.029864501513657160e-06
2.117000000000000000e+03 4.656719207763671875e+01 -1.190006732940673828e+01 4.716604507848387584e-06 1.075030013453215361e-05 4.640071438188897446e-06 -4.744079888041596860e-06
2.118000000000000000e+03 4.795696258544921875e+01 -1.331754875183105469e+01 1.427839379175566137e-05 2.664449141320801573e-07 4.363451807876117527e-06 7.273990377143491060e-06
2.119000000000000000e+03 5.019606018066406250e+01 -1.343779754638671875e+01 1.993652222154196352e-05 -7.648743121535517275e-06 3.686333457153523341e-06 1.533000727249600459e-06
2.120000000000000000e+03 5.002141189575195312e+01 -1.432682895660400391e+01 -1.154072106146486476e-05 6.513006610475713387e-06 -1.508314312559377868e-06 3.943215688195778057e-06
2.121000000000000000e+03 3.135573577880859375e+01 -1.501933193206787109e+01 5.861894806002965197e-06 -3.854344186038360931e-07 1.642938173063157592e-06 2.320764906471595168e-06
2.122000000000000000e+03 3.274596786499023438e+01 -1.427652740478515625e+01 6.624127308896277100e-06 1.100578629120718688e-06 2.317411826879833825e-06 2.815188736349227838e-06
2.123000000000000000e+03 3.394052505493164062e+01 -1.334477901458740234e+01 8.523988071829080582e-06 4.225459633744321764e-06 3.824834493570961058e-06 2.534899067541118711e-06
2.124000000000000000e+03 3.570377731323242188e+01 -1.452671909332275391e+01 -1.143418649007799104e-05 -2.055384811683325097e-06 -4.046871254104189575e-06 3.078900817854446359e-06
2.125000000000000000e+03 3.722952270507812500e+01 -1.459326553344726562e+01 3.625711997301550582e-06 -3.562623760444694199e-07 9.808348977458081208e-07 -5.089586920803412795e-06
2.126000000000000000e+03 3.889572525024414062e+01 -1.493105697631835938e+01 9.387041245645377785e-06 2.224336185463471338e-06 3.483413138383184560e-06 -4.392964001453947276e-06
2.127000000000000000e+03 4.018970489501953125e+01 -1.416727638244628906e+01 4.521828941506100819e-06 5.701466307073133066e-06 3.066988483624299988e-06 8.737993084650952369e-06
2.128000000000000000e+03 4.786483001708984375e+01 -1.412432289123535156e+01 -1.272386725759133697e-05 2.440249090795987286e-06 -3.085085381826502271e-06 -1.672732764745887835e-06
2.129000000000000000e+03 5.100082015991210938e+01 -1.606250190734863281e+01 9.604334991308860481e-06 1.006030174721672665e-06 3.183109583915211260e-06 -2.324905153727740981e-06
2.130000000000000000e+03 3.283032226562500000e+01 -1.782110404968261719e+01 1.612363220715451462e-08 -3.648175834314315580e-06 -1.089615579985547811e-06 -4.909511019945966837e-08
2.131000000000000000e+03 4.120599365234375000e+01 -1.749472427368164062e+01 1.109038748836610466e-05 -2.864285761461360380e-06 2.467830654495628551e-06 -2.622700321808224544e-06
2.132000000000000000e+03 4.384300994873046875e+01 -1.652255630493164062e+01 7.022632416919805110e-06 1.146368731497204863e-06 2.450700321787735447e-06 4.610177199992904207e-07
2.133000000000000000e+03 4.056929397583007812e+01 -1.719369697570800781e+01 6.735542228852864355e-06 4.957368673785822466e-06 3.507873316266341135e-06 -8.068507213465636596e-07
2.134000000000000000e+03 4.601605224609375000e+01 -1.605749893188476562e+01 -8.534374501323327422e-06 -5.204831268201814964e-06 -4.121761776332277805e-06 -3.362837787790340371e-06
2.135000000000000000e+03 4.862604522705078125e+01 -1.586590099334716797e+01 7.032162102404981852e-06 -2.681585783648188226e-06 1.305172872889670543e-06 -3.264935685365344398e-06
2.136000000000000000e+03 2.731953239440917969e+01 -1.563642787933349609e+01 1.849525460784207098e-06 1.346003983826449257e-07 5.952377364337735344e-07 -3.784078899116138928e-06
2.137000000000000000e+03 4.054972457885742188e+01 -1.851819992065429688e+01 -1.487912584252626402e-07 7.090857707225950435e-06 2.082619857901590876e-06 5.920604053244460374e-06
2.138000000000000000e+03 4.388457489013671875e+01 -1.944090843200683594e+01 -2.017693759626126848e-06 -3.459358595137018710e-06 -1.643115751903678756e-06 -3.972038484789663926e-07
2.139000000000000000e+03 4.606270217895507812e+01 -1.760756874084472656e+01 -4.812878160009859130e-06 1.033820240081695374e-06 -1.133717319135030266e-06 -6.403371344276820309e-07
2.140000000000000000e+03 4.919205093383789062e+01 -1.749076080322265625e+01 -1.467905917706957553e-06 -1.899397375382250175e-06 -1.010190999295446090e-06 3.169964429616811685e-06
2.141000000000000000e+03 4.153739166259765625e+01 -1.971294593811035156e+01 1.478332819715433288e-06 -8.901007504391600378e-07 1.764696264672238613e-07 -2.261229383293539286e-06
2.142000000000000000e+03 4.450568771362304688e+01 -2.378519821166992188e+01 3.153292536735534668e-01 -9.833172559738159180e-01 -2.003963887691497803e-01 -8.832735419273376465e-01
2.143000000000000000e+03 4.246237564086914062e+01 -2.601870155334472656e+01 6.715106219053268433e-02 -1.557207465171813965e+00 -4.470169246196746826e-01 -7.387538999319076538e-02
2.144000000000000000e+03 4.790679168701171875e+01 -2.800613594055175781e+01 5.553912371397018433e-02 1.038944244384765625e+00 3.283450007438659668e-01 4.212386608123779297e-01
2.145000000000000000e+03 4.656274414062500000e+01 -2.818413352966308594e+01 1.178376898169517517e-01 3.267796933650970459e-01 1.333852112293243408e-01 4.509383141994476318e-01
2.146000000000000000e+03 4.257143402099609375e+01 -2.740635681152343750e+01 4.039691761136054993e-03 -1.653295040130615234e+00 -4.947766065597534180e-01 1.556721609085798264e-02
2.147000000000000000e+03 4.469603347778320312e+01 -2.842005157470703125e+01 -3.490827605128288269e-02 -4.417059421539306641e-01 -1.429842710494995117e-01 2.667647004127502441e-01
2.148000000000000000e+03 4.745524215698242188e+01 -2.880022239685058594e+01 -5.747571587562561035e-02 7.974823117256164551e-01 2.220019698143005371e-01 4.179191887378692627e-01
2.149000000000000000e+03 4.544965744018554688e+01 -3.270387268066406250e+01 -4.451005160808563232e-02 -1.304667349904775620e-02 -1.726701855659484863e-02 3.059370815753936768e-01
2.150000000000000000e+03 5.036138916015625000e+01 -2.982419204711914062e+01 -1.378818601369857788e-01 9.726027846336364746e-01 2.504162788391113281e-01 -1.335865706205368042e-01
2.151000000000000000e+03 5.159144973754882812e+01 -2.989437103271484375e+01 -3.154743090271949768e-02 7.860941886901855469e-01 2.263640314340591431e-01 -2.962818741798400879e-01
2.152000000000000000e+03 5.286204528808593750e+01 -2.997110176086425781e+01 5.385871604084968567e-02 5.928567647933959961e-01 1.940146386623382568e-01 -3.540185689926147461e-01
2.153000000000000000e+03 5.104195785522460938e+01 -3.205116653442382812e+01 -1.035171523690223694e-01 6.475710272789001465e-01 1.632161587476730347e-01 -1.158892437815666199e-01
2.154000000000000000e+03 5.308433151245117188e+01 -3.305526351928710938e+01 -6.535206455737352371e-03 5.033897757530212402e-01 1.490563601255416870e-01 -1.488062143325805664e-01
2.155000000000000000e+03 5.434104537963867188e+01 -3.069824981689453125e+01 6.212219223380088806e-02 4.446835517883300781e-01 1.520417183637619019e-01 -2.845143675804138184e-01
2.156000000000000000e+03 5.555081558227539062e+01 -3.166143608093261719e+01 2.083635777235031128e-01 5.395256280899047852e-01 2.243667691946029663e-01 -2.264752686023712158e-01
2.157000000000000000e+03 2.140995264053344727e+00 -3.467349243164062500e+01 5.787099871668033302e-05 1.880194613477215171e-04 7.376713620033115149e-05 -7.801687388564459980e-06
2.158000000000000000e+03 2.694316148757934570e+00 -3.323604202270507812e+01 -6.694482635793974623e-06 2.225934003945440054e-04 6.476967973867431283e-05 7.327606726903468370e-05
2.159000000000000000e+03 2.598162412643432617e+00 -3.195582389831542969e+01 -1.737172424327582121e-04 -1.160930187324993312e-04 -8.694308053236454725e-05 1.690585631877183914e-04
2.160000000000000000e+03 3.603824853897094727e+00 -3.534135437011718750e+01 3.217039557057432830e-05 2.561645524110645056e-04 8.650048403069376945e-05 2.649243651831056923e-05
2.161000000000000000e+03 3.963253021240234375e+00 -3.349283599853515625e+01 -1.217094031744636595e-04 -1.419231412000954151e-04 -7.908976840553805232e-05 2.764108066912740469e-04
2.162000000000000000e+03 3.166234016418457031e+00 -3.731690597534179688e+01 -5.999522909405641258e-05 1.309704530285671353e-04 2.129256608895957470e-05 -9.232653974322602153e-05
2.163000000000000000e+03 5.547073364257812500e+00 -3.361566543579101562e+01 5.622264579869806767e-04 1.529755390947684646e-04 2.145605976693332195e-04 -1.103343165596015751e-04
2.164000000000000000e+03 7.743837833404541016e+00 -3.534449768066406250e+01 1.097375643439590931e-03 1.923970703501254320e-04 3.869318170472979546e-04 2.239768946310505271e-04
2.165000000000000000e+03 7.246360778808593750e+00 -3.353261947631835938e+01 -3.953877021558582783e-04 2.341553772566840053e-05 -1.115916456910781562e-04 1.492390038038138300e-05
2.166000000000000000e+03 9.025790214538574219e+00 -3.379722213745117188e+01 3.106354270130395889e-04 4.535382613539695740e-04 2.292521094204857945e-04 6.290402961894869804e-05
2.167000000000000000e+03 1.123696994781494141e+01 -3.427023315429687500e+01 -2.154177782358601689e-04 -5.254735879134386778e-05 -8.038953819777816534e-05 1.037910697050392628e-03
2.168000000000000000e+03 1.599897289276123047e+01 -3.391991806030273438e+01 1.888219383545219898e-03 5.762271466664969921e-04 7.393339765258133411e-04 1.419331296347081661e-03
2.169000000000000000e+03 2.511800765991210938e+01 -3.439113616943359375e+01 4.202168900519609451e-03 -1.298497081734240055e-03 8.711015107110142708e-04 2.468702616170048714e-03
2.170000000000000000e+03 3.698328018188476562e+01 -3.526489639282226562e+01 -2.472197450697422028e-02 -6.469562649726867676e-02 -2.682528086006641388e-02 -6.047101691365242004e-02
2.171000000000000000e+03 4.121370315551757812e+01 -3.726845932006835938e+01 5.295698717236518860e-02 -1.432458758354187012e-01 -2.708666585385799408e-02 1.330052688717842102e-02
2.172000000000000000e+03 5.193383407592773438e+01 -3.533707809448242188e+01 -1.031981110572814941e-01 4.469658732414245605e-01 1.031303256750106812e-01 -1.787211745977401733e-02
2.173000000000000000e+03 2.352426719665527344e+01 -3.243288421630859375e+01 5.856213159859180450e-03 -2.079403493553400040e-04 1.694481936283409595e-03 1.036772038787603378e-03
2.174000000000000000e+03 5.576469421386718750e+00 -3.558099365234375000e+01 -2.967229229398071766e-04 -6.874542305013164878e-05 -1.096405030693858862e-04 4.607545561157166958e-04
2.175000000000000000e+03 9.267500877380371094e+00 -2.895868301391601562e+01 -4.053340817335993052e-04 -1.001202472252771258e-04 -1.516362972324714065e-04 -1.966161216842010617e-04
2.176000000000000000e+03 7.341666698455810547e+00 -2.795184135437011719e+01 -6.722931866534054279e-04 6.145544466562569141e-05 -1.832513225963339210e-04 -4.062599691678769886e-05
2.177000000000000000e+03 6.052585124969482422e+00 -2.831371498107910156e+01 6.458814023062586784e-04 -1.630728183954488486e-05 1.888722326839342713e-04 -1.776460267137736082e-04
2.178000000000000000e+03 2.850044727325439453e+00 -2.709496879577636719e+01 -4.119132645428180695e-04 5.429331213235855103e-05 -1.072859886335209012e-04 8.940495172282680869e-05
2.179000000000000000e+03 6.448503971099853516e+00 -2.516386985778808594e+01 -4.336847923696041107e-04 -6.663623207714408636e-05 -1.500963116995990276e-04 -2.260120527353137732e-05
2.180000000000000000e+03 6.824165821075439453e+00 -2.646955680847167969e+01 5.089688929729163647e-04 1.497529683547327295e-05 1.571832690387964249e-04 3.934582855436019599e-05
2.181000000000000000e+03 4.050168514251708984e+00 -2.393207740783691406e+01 4.722147132270038128e-04 1.114641854655928910e-04 1.751036616042256355e-04 -2.883010311052203178e-04
2.182000000000000000e+03 2.390589237213134766e+00 -2.211134719848632812e+01 5.505826557055115700e-04 -1.135892307502217591e-04 1.310980296693742275e-04 -2.293815305165480822e-05
2.183000000000000000e+03 4.189594268798828125e+00 -2.006979560852050781e+01 5.893140769330784678e-05 2.332054464204702526e-05 2.467558624630328268e-05 -3.229313733754679561e-05
2.184000000000000000e+03 3.286861896514892578e+00 -1.949441719055175781e+01 -4.507084086071699858e-04 6.218901489773998037e-06 -1.333468535449355841e-04 -6.167381798150017858e-05
2.185000000000000000e+03 8.040674209594726562e+00 -1.903746032714843750e+01 -2.595187979750335217e-04 -1.113339894800446928e-04 -1.112558384193107486e-04 1.159176463261246681e-04
2.186000000000000000e+03 5.539332866668701172e+00 -1.892155456542968750e+01 1.136594510171562433e-04 1.948147546499967575e-04 9.254226461052894592e-05 7.107289275154471397e-05
2.187000000000000000e+03 4.674325942993164062e+00 -1.861502647399902344e+01 -2.474285429343581200e-04 -2.409022854408249259e-04 -1.464992528781294823e-04 -1.616294321138411760e-04
2.188000000000000000e+03 3.553959846496582031e+00 -1.832672309875488281e+01 3.269444860052317381e-04 8.605525363236665726e-05 1.238999248016625643e-04 1.088487078959587961e-05
2.189000000000000000e+03 2.398878574371337891e+00 -1.657756996154785156e+01 3.399440320208668709e-04 5.087111276225186884e-05 1.172445481643080711e-04 6.056719030311796814e-06
2.190000000000000000e+03 1.360198497772216797e+01 -1.193183994293212891e+01 -1.460013882024213672e-04 -8.124007581500336528e-05 -6.817244138801470399e-05 4.611256372299976647e-05
2.191000000000000000e+03 1.394336414337158203e+01 -1.416546630859375000e+01 -3.498907244647853076e-05 -1.565329584991559386e-04 -5.745660746470093727e-05 5.792088995804078877e-05
2.192000000000000000e+03 1.168134117126464844e+01 -1.568256759643554688e+01 -5.101890201331116259e-05 -1.229260233230888844e-04 -5.218347359914332628e-05 1.205218068207614124e-04
2.193000000000000000e+03 1.043681716918945312e+01 -1.602453613281250000e+01 -3.161098284181207418e-04 4.702697697211988270e-05 -8.072485798038542271e-05 -2.347940244362689555e-05
2.194000000000000000e+03 1.052993679046630859e+01 -1.315507411956787109e+01 -2.197018511651549488e-05 -9.879653589450754225e-06 -9.554952157486695796e-06 8.028413867577910423e-05
2.195000000000000000e+03 1.122027397155761719e+01 -1.156545734405517578e+01 -2.643807647473295219e-06 -4.624993744073435664e-05 -1.466812318540178239e-05 5.142011650605127215e-05
2.196000000000000000e+03 1.067579650878906250e+01 -1.042328071594238281e+01 -1.307482762058498338e-05 -5.079616676084697247e-05 -1.916129804158117622e-05 -6.829983612988144159e-05
2.197000000000000000e+03 9.452681541442871094e+00 -1.356161785125732422e+01 -4.867372263106517494e-05 4.098737917956896126e-05 -2.305903308297274634e-06 -8.084378350758925080e-05
2.198000000000000000e+03 7.797837257385253906e+00 -1.521771240234375000e+01 1.346071949228644371e-04 4.786313184013124555e-06 4.181804979452863336e-05 -1.125184007833013311e-05
2.199000000000000000e+03 3.921082496643066406e+00 -1.485653400421142578e+01 1.519261713838204741e-04 2.759092012638575397e-07 4.566062125377357006e-05 1.764521948643960059e-05
2.200000000000000000e+03 1.277775859832763672e+01 -1.496279621124267578e+01 2.886790389311499894e-05 1.909201673697680235e-04 6.593642319785431027e-05 -8.877496293280273676e-05
2.201000000000000000e+03 1.529702758789062500e+01 -1.359859848022460938e+01 -1.242537746293237433e-05 1.208868998219259083e-04 3.253845716244541109e-05 -4.243312287144362926e-05
2.202000000000000000e+03 1.801340484619140625e+01 -1.223754501342773438e+01 -8.878319022187497467e-06 -2.562210829637479037e-05 -1.035012792272027582e-05 -8.179770702554378659e-06
2.203000000000000000e+03 1.450274372100830078e+01 -9.905877113342285156e+00 -1.041805298882536590e-04 -2.744096673268359154e-05 -3.948644734919071198e-05 4.205202640150673687e-05
2.204000000000000000e+03 1.444069480895996094e+01 -5.942398071289062500e+00 -4.791552055394276977e-05 -2.882939588744193316e-05 -2.302347456861753017e-05 -3.705378276208648458e-06
2.205000000000000000e+03 1.356666278839111328e+01 -6.301818847656250000e+00 -2.373930692556314170e-05 -6.415517418645322323e-05 -2.636834506120067090e-05 5.826797860208898783e-06
2.206000000000000000e+03 1.326520061492919922e+01 -5.366493701934814453e+00 -3.955010470235720277e-05 -4.228802936268039048e-05 -2.455144021951127797e-05 -2.437357579765375704e-05
2.207000000000000000e+03 1.263070678710937500e+01 -5.082201004028320312e+00 5.469583629746921360e-05 3.527542139636352658e-05 2.699137621675617993e-05 3.244798062951304018e-05
2.208000000000000000e+03 1.017219638824462891e+01 -4.580331325531005859e+00 8.334628364536911249e-05 1.747246278682723641e-05 3.024562465725466609e-05 2.343647975067142397e-05
2.209000000000000000e+03 1.032853221893310547e+01 -5.663939476013183594e+00 4.817565059056505561e-05 -1.025274377752793953e-05 1.137687195296166465e-05 -1.308548417000565678e-05
2.210000000000000000e+03 1.051816844940185547e+01 -6.473502635955810547e+00 2.389882865827530622e-06 5.995331594021990895e-05 1.870296000561211258e-05 2.468957973178476095e-05
2.211000000000000000e+03 1.215777683258056641e+01 -7.457169532775878906e+00 -4.520421134657226503e-05 -2.475880683050490916e-05 -2.098890581692103297e-05 2.693805618037004024e-05
2.212000000000000000e+03 9.669012069702148438e+00 -6.534410476684570312e+00 -7.333819667110219598e-05 -2.734199915721546859e-05 -3.020405893039423972e-05 -1.686948053247760981e-05
2.213000000000000000e+03 1.211415576934814453e+01 -1.386804103851318359e+01 -7.346395432250574231e-05 -6.480038427980616689e-05 -4.147930303588509560e-05 1.118197251344099641e-04
2.214000000000000000e+03 9.069273948669433594e+00 -1.101722240447998047e+01 -1.084351897588931024e-04 -7.952643500175327063e-05 -5.638848597300238907e-05 6.590635894099250436e-05
2.215000000000000000e+03 7.461096286773681641e+00 -1.429823112487792969e+01 -9.539670281810685992e-05 5.303857960825553164e-06 -2.702785423025488853e-05 -2.722984390857163817e-05
2.216000000000000000e+03 3.353810787200927734e+00 -1.227729892730712891e+01 2.234989660792052746e-04 -2.197997673647478223e-05 6.045569534762762487e-05 5.478321327245794237e-05
2.217000000000000000e+03 1.754577064514160156e+01 -1.030626773834228516e+01 2.172698259528260678e-05 2.452897024340927601e-05 1.387678639730438590e-05 2.260659857711289078e-05
2.218000000000000000e+03 1.159619712829589844e+01 -1.002901077270507812e+01 -7.429788820445537567e-05 -4.361137325759045780e-05 -3.537277734722010791e-05 1.726559094095136970e-05
2.219000000000000000e+03 1.284326171875000000e+01 -8.727152824401855469e+00 -4.288771742722019553e-05 -1.052445732057094574e-04 -4.443968646228313446e-05 6.623852095799520612e-05
2.220000000000000000e+03 1.329680633544921875e+01 -6.926437377929687500e+00 -7.694019359405501746e-07 9.745603892952203751e-05 2.900599247368518263e-05 -2.354269054194446653e-05
2.221000000000000000e+03 8.154768943786621094e+00 -1.164144229888916016e+01 8.276410881080664694e-06 6.488519284175708890e-05 2.194848093495238572e-05 -1.231576461577787995e-04
2.222000000000000000e+03 6.455112934112548828e+00 -1.119633483886718750e+01 -3.782968997256830335e-05 8.241777322837151587e-06 -8.876374522515106946e-06 -1.084510367945767939e-04
2.223000000000000000e+03 2.013164520263671875e+00 -1.100081253051757812e+01 2.408071159152314067e-04 2.418246549495961517e-05 7.949687278596684337e-05 -1.104980711374992097e-07
2.224000000000000000e+03 1.760939979553222656e+01 -7.992885112762451172e+00 3.754975477932021022e-05 1.651419006520882249e-05 1.621918272576294839e-05 6.869666322018019855e-06
2.225000000000000000e+03 1.651760292053222656e+01 -9.407572746276855469e+00 1.031015017360914499e-05 -2.909256124894454842e-07 3.005767212016507983e-06 4.090023867320269346e-05
2.226000000000000000e+03 1.554969692230224609e+01 -8.349132537841796875e+00 -1.055893972079502419e-05 4.759393050335347652e-05 1.111049732571700588e-05 -7.460709457518532872e-05
2.227000000000000000e+03 1.169821071624755859e+01 -8.802913665771484375e+00 -6.808229954913258553e-05 -5.363901072996668518e-05 -3.651639053714461625e-05 2.109656634274870157e-05
2.228000000000000000e+03 1.210495567321777344e+01 -8.248517990112304688e+00 4.754554902319796383e-05 9.893202513922005892e-05 4.394327334011904895e-05 -4.881556742475368083e-05
2.229000000000000000e+03 7.233890533447265625e+00 -1.010117626190185547e+01 -1.098585125873796642e-04 -1.008888721116818488e-04 -6.322421540971845388e-05 -9.667885024100542068e-05
2.230000000000000000e+03 6.042359352111816406e+00 -1.012405014038085938e+01 1.273668312933295965e-04 7.019466283963993192e-05 5.926844460191205144e-05 9.755059727467596531e-05
2.231000000000000000e+03 2.920005321502685547e+00 -9.136774063110351562e+00 -8.872928447090089321e-05 3.988828393630683422e-05 -1.465229888708563522e-05 -1.165677385870367289e-04
2.232000000000000000e+03 1.411408424377441406e+01 -1.082895088195800781e+01 1.323965698247775435e-04 2.380783007538411766e-05 4.686132160713896155e-05 -5.332125147106125951e-05
2.233000000000000000e+03 5.999665737152099609e+00 -7.578420639038085938e+00 -6.287539144977927208e-05 3.267422243879991584e-06 -1.788239023881033063e-05 -9.738235348777379841e-06
2.234000000000000000e+03 2.226697683334350586e+00 -6.775619506835937500e+00 -1.498730998719111085e-04 -1.286768474528798833e-05 -4.882223583990707994e-05 -2.563712951086927205e-05
2.235000000000000000e+03 8.025424003601074219e+00 -6.188942432403564453e+00 -8.563484880141913891e-05 -3.635157554526813328e-05 -3.659592766780406237e-05 4.429918044479563832e-05
2.236000000000000000e+03 6.359946727752685547e+00 -5.922119617462158203e+00 5.758878614869900048e-05 1.613782842468935996e-05 2.211798346252180636e-05 4.293387246434576809e-05
2.237000000000000000e+03 2.260926723480224609e+00 -5.682696819305419922e+00 1.547384308651089668e-04 1.197428991872584447e-05 5.001381578040309250e-05 1.777729448804166168e-05
2.238000000000000000e+03 1.343007469177246094e+01 -3.700961112976074219e+00 4.096256088814698160e-05 1.751820127537939698e-05 1.754422737576533109e-05 1.767228241078555584e-05
2.239000000000000000e+03 1.175644302368164062e+01 -3.696075439453125000e+00 -4.901907959720119834e-05 -2.313566255907062441e-05 -2.164642137358896434e-05 -4.472755790629889816e-06
2.240000000000000000e+03 1.008834457397460938e+01 -3.444507122039794922e+00 5.145339309819974005e-05 -8.981117389339488000e-06 1.274168334930436686e-05 -4.083447947778040543e-06
2.241000000000000000e+03 8.323421478271484375e+00 -4.572672367095947266e+00 -8.652286487631499767e-05 -2.255354957014787942e-05 -3.272292451583780348e-05 -7.233059477584902197e-06
2.242000000000000000e+03 6.496767520904541016e+00 -4.696451663970947266e+00 9.611383575247600675e-05 3.100811591139063239e-05 3.813658622675575316e-05 4.924630411551333964e-05
2.243000000000000000e+03 8.712881088256835938e+00 -2.454208850860595703e+00 -9.433787454327102751e-06 -5.958186193311121315e-06 -4.617591912392526865e-06 1.596533547854050994e-05
2.244000000000000000e+03 6.870442867279052734e+00 -3.054586410522460938e+00 6.974080315558239818e-05 1.930495272972621024e-05 2.671372567419894040e-05 2.263593705720268190e-05
2.245000000000000000e+03 5.004343032836914062e+00 -3.574056148529052734e+00 -9.255191980628296733e-05 3.477620566627592780e-06 -2.672228947631083429e-05 -2.517625762266106904e-05
2.246000000000000000e+03 4.440824985504150391e+00 -1.908218264579772949e+00 2.353997660975437611e-05 6.101980488892877474e-06 8.892587175068911165e-06 -2.659566291640658164e-07
2.247000000000000000e+03 5.173579216003417969e+00 -2.779239177703857422e+00 5.683331619366072118e-05 2.746673089859541506e-06 1.787399742170237005e-05 7.778592589602340013e-06
2.248000000000000000e+03 2.711542701721191406e+01 -3.764739227294921875e+01 -4.639484453946352005e-03 -4.024063702672719955e-03 -2.599064493551850319e-03 1.239303848706185818e-03
2.249000000000000000e+03 5.770486068725585938e+01 -3.586849212646484375e+01 1.624839846044778824e-03 2.806424200534820557e-01 8.468017727136611938e-02 -1.305417567491531372e-01
2.250000000000000000e+03 6.926113891601562500e+01 -3.495632171630859375e+01 -1.211551204323768616e-02 4.416027572005987167e-03 -2.309845294803380966e-03 4.464118741452693939e-03
2.251000000000000000e+03 7.111981964111328125e+01 -3.340216827392578125e+01 -7.349918130785226822e-03 2.644675783812999725e-03 -1.411572797223925591e-03 1.840439974330365658e-03
2.252000000000000000e+03 7.473607635498046875e+01 -3.539590835571289062e+01 -1.525693223811686039e-04 -1.751660485751926899e-03 -5.712689599022269249e-04 4.545985721051692963e-03
2.253000000000000000e+03 7.575894927978515625e+01 -3.648225402832031250e+01 8.121432038024067879e-04 -3.214749041944742203e-03 -7.207817398011684418e-04 3.124543698504567146e-03
2.254000000000000000e+03 3.671749114990234375e+01 -4.095880508422851562e+01 3.272784873843193054e-02 -8.421192318201065063e-02 -1.544522214680910110e-02 -1.211574487388134003e-02
2.255000000000000000e+03 5.662047958374023438e+01 -3.762107467651367188e+01 -5.850546434521675110e-02 3.268466889858245850e-01 8.050236850976943970e-02 -8.388380706310272217e-02
2.256000000000000000e+03 6.739424133300781250e+01 -4.121704864501953125e+01 1.959739625453948975e-02 6.435958202928304672e-03 7.810006383806467056e-03 1.753322430886328220e-03
2.257000000000000000e+03 7.185962677001953125e+01 -4.123182678222656250e+01 7.676293142139911652e-03 -3.851466579362750053e-03 1.147447968833148479e-03 3.569246502593159676e-03
2.258000000000000000e+03 2.615942001342773438e+00 -3.910216140747070312e+01 -6.071173265809193254e-05 -5.449495074572041631e-05 -3.456200283835642040e-05 1.368831931358727161e-06
2.259000000000000000e+03 7.821250915527343750e+01 -3.334249496459960938e+01 1.144071138696745038e-04 -1.146390452049672604e-03 -3.095949941780418158e-04 8.118143305182456970e-04
2.260000000000000000e+03 7.710514831542968750e+01 -3.310586166381835938e+01 -9.314596536569297314e-04 -7.942846859805285931e-04 -5.177233251743018627e-04 1.576476381160318851e-03
2.261000000000000000e+03 7.277819824218750000e+01 -3.119647026062011719e+01 -3.256173571571707726e-03 3.891587548423558474e-04 -8.601044537499547005e-04 -2.911333576776087284e-04
2.262000000000000000e+03 7.799033355712890625e+01 -2.537816619873046875e+01 -3.661247901618480682e-03 -3.835876123048365116e-04 -1.213450683280825615e-03 6.023746915161609650e-03
2.263000000000000000e+03 7.941658782958984375e+01 -2.526453018188476562e+01 -2.132415072992444038e-03 7.777954451739788055e-03 1.693661790341138840e-03 3.745200345292687416e-03
2.264000000000000000e+03 7.918404388427734375e+01 2.365388298034667969e+01 7.372418884187936783e-03 -2.050609827041625977e+00 -6.129711866378784180e-01 3.516685962677001953e-02
2.265000000000000000e+03 7.928654479980468750e+01 1.661893272399902344e+01 -1.179852709174156189e-02 -2.190968275070190430e+00 -6.608300805091857910e-01 1.644018292427062988e-02
2.266000000000000000e+03 7.935854339599609375e+01 -5.668918132781982422e+00 -1.706347102299332619e-03 -1.579148769378662109e+00 -4.742565155029296875e-01 -4.254009574651718140e-02
2.267000000000000000e+03 8.496191978454589844e+00 1.905333518981933594e+00 1.722763227007817477e-05 6.663902695436263457e-06 7.167460353230126202e-06 -2.839934495568741113e-06
2.268000000000000000e+03 4.799341678619384766e+00 1.850483179092407227e+00 -1.812203890949604101e-06 -8.407145287492312491e-06 -3.065804548896267079e-06 -1.217142994391906541e-06
2.269000000000000000e+03 3.365288972854614258e+00 1.877660870552062988e+00 -3.178035967721370980e-06 -8.172596608346793801e-06 -3.405189772820449434e-06 3.046369556614081375e-07
2.270000000000000000e+03 1.159575080871582031e+01 1.495958089828491211e+00 2.331641371711157262e-05 5.494512151926755905e-06 8.643277396913617849e-06 -3.118643462585168891e-06
2.271000000000000000e+03 1.321537685394287109e+01 7.681694626808166504e-01 2.520597263355739415e-05 1.593262368260184303e-06 8.039770364121068269e-06 -6.872277026559459046e-06
2.272000000000000000e+03 1.464435768127441406e+01 -2.945718728005886078e-02 2.672383743629325181e-05 -1.685668621576041915e-06 7.511450348829384893e-06 -7.949499376991298050e-06
2.273000000000000000e+03 1.736468505859375000e+01 -1.730979681015014648e+00 2.309337833139579743e-05 -1.292726437895908020e-06 6.540195499837864190e-06 -1.336094283033162355e-05
2.274000000000000000e+03 1.864885711669921875e+01 -2.703549623489379883e+00 1.646051896386779845e-05 8.543838703189976513e-07 5.194471214053919539e-06 -1.151923333964077756e-05
2.275000000000000000e+03 2.208993530273437500e+01 -6.167235374450683594e+00 6.163880243548192084e-06 -4.714292117569129914e-06 4.348763980033254484e-07 -6.768405000912025571e-06
2.276000000000000000e+03 2.305972862243652344e+01 -7.469851970672607422e+00 5.006936589779797941e-06 -3.391152858966961503e-06 4.847351533499022480e-07 -9.493500328972004354e-06
2.277000000000000000e+03 2.399217796325683594e+01 -8.791882514953613281e+00 -1.048499257194634993e-06 2.730513983806304168e-07 -2.326343491176885436e-07 -7.944011485960800201e-06
2.278000000000000000e+03 2.548406410217285156e+01 -1.158167839050292969e+01 -2.670301455509616062e-06 -2.295050535394693725e-06 -1.489605551796557847e-06 -4.570424152916530147e-06
2.279000000000000000e+03 2.701424217224121094e+01 -1.496172142028808594e+01 -2.706070972635643557e-06 3.103500390011504351e-08 -8.025107831599598285e-07 3.208580437785713002e-06
2.280000000000000000e+03 3.928717041015625000e+01 -1.889073944091796875e+01 1.416610302840126678e-06 -1.829525217544869520e-06 -1.238744573583971942e-07 -5.839653027805979946e-08
2.281000000000000000e+03 4.249766540527343750e+01 -1.988842582702636719e+01 -3.349192411405965686e-06 -1.879002411442343146e-06 -1.568458515066595282e-06 -5.081681706542440224e-07
2.282000000000000000e+03 4.457315826416015625e+01 -1.914332962036132812e+01 2.035978241110569797e-06 3.696221938298549503e-06 1.719660076560103334e-06 6.876149996060121339e-07
2.283000000000000000e+03 5.062994766235351562e+01 -1.794575881958007812e+01 7.277726581378374249e-07 5.826279902976239100e-06 1.966215904758428223e-06 -6.024865228937414940e-07
2.284000000000000000e+03 5.272252273559570312e+01 -1.730327606201171875e+01 -1.843212316998688038e-06 -7.027810625004349276e-06 -2.661307007656432688e-06 -2.649560713052778738e-07
2.285000000000000000e+03 5.472311782836914062e+01 -1.599634265899658203e+01 -1.387856627843575552e-05 -7.236506462504621595e-06 -6.334521913231583312e-06 -8.848213838064111769e-06
2.286000000000000000e+03 5.711889648437500000e+01 -1.648642158508300781e+01 -1.369692472508177161e-05 -1.719222564133815467e-05 -9.266745109925977886e-06 -8.240651368396356702e-06
2.287000000000000000e+03 5.838986587524414062e+01 -1.602180290222167969e+01 1.000239626591792330e-05 -2.834923861882998608e-06 2.150241925846785307e-06 2.062554358417401090e-06
2.288000000000000000e+03 5.472872543334960938e+01 3.668443679809570312e+01 -2.172817662358283997e-02 1.529331639176234603e-04 -6.472573149949312210e-03 1.166135258972644806e-02
2.289000000000000000e+03 6.384856796264648438e+01 -1.480935287475585938e+01 4.041137397289276123e-01 6.961145401000976562e-01 3.300684690475463867e-01 5.794931054115295410e-01
2.290000000000000000e+03 6.299145889282226562e+01 -1.619483184814453125e+01 5.328175425529479980e-01 6.728143095970153809e-01 3.616895675659179688e-01 5.697855949401855469e-01
2.291000000000000000e+03 6.213626480102539062e+01 -1.754002380371093750e+01 3.726671338081359863e-01 7.139480113983154297e-01 3.259845376014709473e-01 4.036791622638702393e-01
2.292000000000000000e+03 6.007141113281250000e+01 -1.931992721557617188e+01 2.377757057547569275e-02 6.507480144500732422e-01 2.023576647043228149e-01 4.781777262687683105e-01
2.293000000000000000e+03 5.138027191162109375e+01 -2.146773719787597656e+01 -1.725018382072448730e+00 6.750973463058471680e-01 -3.149763345718383789e-01 1.258576989173889160e+00
2.294000000000000000e+03 4.697260665893554688e+01 -2.231315803527832031e+01 -5.481818914413452148e-01 -7.077043056488037109e-01 -3.767658472061157227e-01 -1.711777210235595703e+00
2.295000000000000000e+03 4.561545562744140625e+01 -2.268863677978515625e+01 -2.358464002609252930e-01 -8.798796534538269043e-01 -3.347178101539611816e-01 -1.362592935562133789e+00
2.296000000000000000e+03 4.269585418701171875e+01 -2.378422927856445312e+01 6.795740872621536255e-02 -8.527035713195800781e-01 -2.354238331317901611e-01 -4.568361937999725342e-01
2.297000000000000000e+03 2.188160514831542969e+01 -1.260067176818847656e+01 1.311659798375330865e-05 2.234961721114814281e-05 1.063986383087467402e-05 -6.604518603126052767e-06
2.298000000000000000e+03 2.040197372436523438e+01 -1.029154872894287109e+01 4.345385968917980790e-05 1.843549398472532630e-05 1.856680682976730168e-05 2.363032035646028817e-05
2.299000000000000000e+03 2.120342826843261719e+01 -1.148829269409179688e+01 1.473658085160423070e-05 4.165459540672600269e-05 1.691735269560012966e-05 1.450787385692819953e-05
2.300000000000000000e+03 1.955873489379882812e+01 -9.161216735839843750e+00 3.528204979375004768e-05 2.325724381080362946e-05 1.756178789946716279e-05 1.239455559698399156e-05
2.301000000000000000e+03 1.868784332275390625e+01 -8.055953025817871094e+00 3.499647573335096240e-05 2.030181349255144596e-05 1.658948713156860322e-05 1.261471970792626962e-05
2.302000000000000000e+03 1.680697822570800781e+01 -6.030386924743652344e+00 3.932729305233806372e-05 2.204218435508664697e-05 1.841084304032847285e-05 1.773169242369476706e-05
2.303000000000000000e+03 1.776270103454589844e+01 -7.018579959869384766e+00 3.385540185263380408e-05 2.040175786532927305e-05 1.627714846108574420e-05 1.379872537654591724e-05
2.304000000000000000e+03 1.575130748748779297e+01 -5.179443836212158203e+00 4.614012505044229329e-05 1.809186142054386437e-05 1.926959521370008588e-05 2.212378967669792473e-05
2.305000000000000000e+03 1.462717247009277344e+01 -4.399517059326171875e+00 4.319485378800891340e-05 1.853862158895935863e-05 1.852004243119154125e-05 1.902889744087588042e-05
2.306000000000000000e+03 8.537611007690429688e+00 -1.844634652137756348e+00 -3.855860995827242732e-06 -1.380163939757039770e-05 -5.297250027069821954e-06 3.755744501177105121e-06
2.307000000000000000e+03 6.059844970703125000e+00 -1.979016423225402832e+00 3.656382978078909218e-05 3.022194505319930613e-06 1.187580710393376648e-05 8.375791367143392563e-06
2.308000000000000000e+03 5.242330074310302734e+00 -1.933448910713195801e+00 -3.171864227624610066e-05 -3.249196879551163875e-06 -1.049035199685022235e-05 -2.733590463321888819e-06
2.309000000000000000e+03 3.642947673797607422e+00 -1.936342597007751465e+00 -2.159051291528157890e-05 -8.268075362138915807e-06 -8.957576937973499298e-06 -5.439445430965861306e-06
2.310000000000000000e+03 2.798315525054931641e+00 -2.011765003204345703e+00 3.209058922948315740e-05 8.074982360994908959e-06 1.204967156809289008e-05 -3.850318535114638507e-07
2.311000000000000000e+03 1.983841180801391602e+00 -1.961762309074401855e+00 -1.993018304347060621e-05 -3.054111948586069047e-05 -1.514139057690044865e-05 1.651412821956910193e-05
2.312000000000000000e+03 8.516625761985778809e-01 -2.353298568725585938e+01 4.329700605012476444e-04 6.592743829969549552e-06 1.318688446190208197e-04 -1.139128580689430237e-04
2.313000000000000000e+03 7.944529724121093750e+01 -3.206822586059570312e+01 3.223886596970260143e-04 -4.328656068537384272e-04 -3.314308560220524669e-05 1.011649364954791963e-04
2.314000000000000000e+03 7.912142181396484375e+01 -3.746693038940429688e+01 4.242051218170672655e-04 -3.903086530044674873e-03 -1.043664407916367054e-03 5.714724538847804070e-04
2.315000000000000000e+03 7.886108398437500000e+01 -2.929877471923828125e+01 -1.566440332680940628e-04 -6.277137435972690582e-05 -6.582462083315476775e-05 1.531915040686726570e-04
2.316000000000000000e+03 7.811264801025390625e+01 -2.927389526367187500e+01 -1.469259859732119367e-05 -1.157178485300391912e-04 -3.912313331966288388e-05 -6.297748041106387973e-05
2.317000000000000000e+03 7.660256195068359375e+01 -2.932933616638183594e+01 -2.392622700426727533e-04 -1.461350184399634600e-04 -1.156191865447908640e-04 1.604441786184906960e-05
2.318000000000000000e+03 7.359678649902343750e+01 -2.918727874755859375e+01 -7.469385745935142040e-04 -9.822379797697067261e-05 -2.535487292334437370e-04 -2.631653915159404278e-04
2.319000000000000000e+03 7.291865539550781250e+01 -2.926965332031250000e+01 -5.232329131104052067e-04 2.131837827619165182e-04 -9.301473619416356087e-05 -4.276856634533032775e-05
2.320000000000000000e+03 6.274589157104492188e+01 -3.508973693847656250e+01 -4.074417427182197571e-02 -5.398606881499290466e-03 -1.384283509105443954e-02 -7.918208837509155273e-03
2.321000000000000000e+03 5.421553421020507812e+01 -2.955014228820800781e+01 9.199208766222000122e-02 3.853937983512878418e-01 1.432157605886459351e-01 -3.034544289112091064e-01
2.322000000000000000e+03 5.100673294067382812e+01 -2.725025177001953125e+01 2.639047801494598389e-01 1.221575856208801270e+00 4.456441998481750488e-01 -5.801292657852172852e-01
2.323000000000000000e+03 5.071784973144531250e+01 -2.691320228576660156e+01 2.719516456127166748e-01 1.422770977020263672e+00 5.084167718887329102e-01 -5.981230735778808594e-01
2.324000000000000000e+03 4.864046096801757812e+01 -2.502994728088378906e+01 2.437672376632690430e+00 1.901401162147521973e+00 1.301722049713134766e+00 1.318570256233215332e+00
2.325000000000000000e+03 4.851849746704101562e+01 -2.483787155151367188e+01 2.806952953338623047e+00 1.526169300079345703e+00 1.299936771392822266e+00 1.193355798721313477e+00
2.326000000000000000e+03 4.846205902099609375e+01 -2.460867691040039062e+01 3.256536483764648438e+00 1.165906310081481934e+00 1.326732754707336426e+00 9.737855195999145508e-01
2.327000000000000000e+03 4.858558654785156250e+01 -2.353418350219726562e+01 3.356425762176513672e+00 8.562202453613281250e-01 1.263793826103210449e+00 -9.399920701980590820e-01
2.328000000000000000e+03 4.703594589233398438e+01 -2.287057495117187500e+01 5.362566709518432617e-01 -7.515884041786193848e-01 -6.459951400756835938e-02 -1.493616580963134766e+00
2.329000000000000000e+03 4.877842330932617188e+01 -2.318182945251464844e+01 2.385584592819213867e+00 1.280617237091064453e+00 1.099860548973083496e+00 -1.316516399383544922e+00
2.330000000000000000e+03 5.126794433593750000e+01 -2.294413757324218750e+01 2.025536537170410156e+00 8.294727802276611328e-01 8.565027713775634766e-01 1.901930332183837891e+00
2.331000000000000000e+03 5.232585144042968750e+01 -2.390003013610839844e+01 2.185830831527709961e+00 -4.119076132774353027e-01 5.321769714355468750e-01 3.311918675899505615e-01
2.332000000000000000e+03 5.471261596679687500e+01 -2.423591041564941406e+01 7.262600660324096680e-01 -3.016601502895355225e-01 1.273799836635589600e-01 3.844864666461944580e-01
2.333000000000000000e+03 5.462329864501953125e+01 -2.537545013427734375e+01 6.291782259941101074e-01 -1.941409856081008911e-01 1.305111795663833618e-01 7.485868781805038452e-02
2.334000000000000000e+03 5.513412475585937500e+01 -2.562942314147949219e+01 5.275396108627319336e-01 -1.588464081287384033e-01 1.106079593300819397e-01 1.029480546712875366e-01
2.335000000000000000e+03 7.987836456298828125e+01 -2.510812377929687500e+01 1.774440606823191047e-04 1.557042449712753296e-02 4.724360536783933640e-03 1.210770569741725922e-03
2.336000000000000000e+03 5.693115997314453125e+01 -2.545678329467773438e+01 2.873299419879913330e-01 -3.001073747873306274e-02 7.719575613737106323e-02 1.936544328927993774e-01
2.337000000000000000e+03 5.038228607177734375e+01 -2.670482444763183594e+01 2.691515088081359863e-01 1.757174134254455566e+00 6.078976988792419434e-01 -5.627847313880920410e-01
2.338000000000000000e+03 5.057035827636718750e+01 -2.679475975036621094e+01 2.591717541217803955e-01 1.586865663528442383e+00 5.538112521171569824e-01 -5.731737017631530762e-01
2.339000000000000000e+03 4.986135864257812500e+01 -2.610061073303222656e+01 2.852659523487091064e-01 2.616158485412597656e+00 8.704273104667663574e-01 -3.219057023525238037e-01
2.340000000000000000e+03 5.012656784057617188e+01 -2.636771202087402344e+01 2.617836892604827881e-01 2.203749895095825195e+00 7.396600246429443359e-01 -5.147455334663391113e-01
2.341000000000000000e+03 4.937001037597656250e+01 -2.576301002502441406e+01 5.786933898925781250e-01 3.053552150726318359e+00 1.089673638343811035e+00 4.389417469501495361e-01
2.342000000000000000e+03 5.084877395629882812e+01 -2.707628059387207031e+01 2.808183729648590088e-01 1.325370311737060547e+00 4.818565845489501953e-01 -5.987389087677001953e-01
2.343000000000000000e+03 5.085823440551757812e+01 -2.798153877258300781e+01 7.449839264154434204e-02 1.188884854316711426e+00 3.790149986743927002e-01 -4.355294406414031982e-01
2.344000000000000000e+03 5.137399291992187500e+01 -2.748501968383789062e+01 2.557469010353088379e-01 9.850118160247802734e-01 3.722276091575622559e-01 -5.280971527099609375e-01
2.345000000000000000e+03 5.142327117919921875e+01 -2.308411216735839844e+01 2.354798555374145508e+00 4.212300479412078857e-01 8.328086137771606445e-01 1.689985513687133789e+00
2.346000000000000000e+03 4.810478973388671875e+01 -2.527736091613769531e+01 2.019557237625122070e+00 1.154236674308776855e+00 9.521381855010986328e-01 1.011899113655090332e+00
2.347000000000000000e+03 4.921578979492187500e+01 -2.238385963439941406e+01 -3.187711536884307861e-01 1.441709041595458984e+00 3.368813693523406982e-01 -9.325011968612670898e-01
2.348000000000000000e+03 5.069210052490234375e+01 -2.254758644104003906e+01 6.512556672096252441e-01 2.252008676528930664e+00 8.709793090820312500e-01 1.722133278846740723e+00
2.349000000000000000e+03 4.985545730590820312e+01 -2.254878997802734375e+01 1.023727506399154663e-01 2.974510908126831055e+00 9.230651259422302246e-01 -2.027549780905246735e-02
2.350000000000000000e+03 4.947814178466796875e+01 -2.264483261108398438e+01 3.676857054233551025e-01 2.589210271835327148e+00 8.870687484741210938e-01 -7.195747494697570801e-01
2.351000000000000000e+03 4.892911911010742188e+01 -2.243370628356933594e+01 1.192888841032981873e-01 1.409722685813903809e+00 4.587034881114959717e-01 -1.382770657539367676e+00
2.352000000000000000e+03 4.889510726928710938e+01 -2.297658157348632812e+01 1.830902814865112305e+00 1.661304950714111328e+00 1.047662258148193359e+00 -1.474442005157470703e+00
2.353000000000000000e+03 4.766049957275390625e+01 -2.216074371337890625e+01 -8.001109361648559570e-01 -3.701925575733184814e-01 -3.510910570621490479e-01 -1.785058259963989258e+00
2.354000000000000000e+03 4.834312820434570312e+01 -2.203507232666015625e+01 -1.094212532043457031e+00 2.335243672132492065e-01 -2.582064270973205566e-01 -1.625011205673217773e+00
2.355000000000000000e+03 4.966728210449218750e+01 -2.258946228027343750e+01 1.733116954565048218e-01 2.980223894119262695e+00 9.460606575012207031e-01 -2.848077714443206787e-01
2.356000000000000000e+03 4.844928359985351562e+01 -2.394771385192871094e+01 3.756740093231201172e+00 5.993962883949279785e-01 1.306840896606445312e+00 -1.852298825979232788e-01
2.357000000000000000e+03 4.832947921752929688e+01 -2.293208503723144531e+01 1.573171615600585938e+00 4.155173003673553467e-01 5.966066718101501465e-01 -1.507102131843566895e+00
2.358000000000000000e+03 5.045529174804687500e+01 -2.250321960449218750e+01 2.444405108690261841e-01 2.374570131301879883e+00 7.857031822204589844e-01 1.367487907409667969e+00
2.359000000000000000e+03 5.035452270507812500e+01 -2.208520889282226562e+01 -9.046189188957214355e-01 1.940581679344177246e+00 3.107888400554656982e-01 8.564763665199279785e-01
2.360000000000000000e+03 4.892687606811523438e+01 -2.534071922302246094e+01 1.589325904846191406e+00 2.752801418304443359e+00 1.302638173103332520e+00 1.268672704696655273e+00
2.361000000000000000e+03 4.806987380981445312e+01 -2.467018890380859375e+01 2.750435113906860352e+00 5.990618467330932617e-01 1.004849076271057129e+00 6.390319466590881348e-01
2.362000000000000000e+03 5.012211227416992188e+01 -2.217114448547363281e+01 -9.054003357887268066e-01 1.879604339599609375e+00 2.922612130641937256e-01 5.513067245483398438e-01
2.363000000000000000e+03 4.019513702392578125e+01 -1.938832855224609375e+01 8.369984243472572416e-06 2.427792651360505261e-06 3.239333182136761025e-06 8.514435307915846352e-07
2.364000000000000000e+03 4.129600143432617188e+01 -2.031948089599609375e+01 -7.106968382686318364e-07 -3.058223910556989722e-06 -1.130676196225977037e-06 6.887572112646012101e-07
2.365000000000000000e+03 5.216902160644531250e+01 -2.377301216125488281e+01 2.339541673660278320e+00 -3.750959336757659912e-01 5.893337130546569824e-01 4.788365066051483154e-01
2.366000000000000000e+03 5.171355438232421875e+01 -2.335905838012695312e+01 2.797039747238159180e+00 -5.474005267024040222e-02 8.226898908615112305e-01 1.184911608695983887e+00
2.367000000000000000e+03 5.334456253051757812e+01 -2.466289901733398438e+01 1.197264075279235840e+00 -3.008432686328887939e-01 2.689262330532073975e-01 3.986439481377601624e-02
2.368000000000000000e+03 5.249062728881835938e+01 -2.401619529724121094e+01 1.985017895698547363e+00 -4.074219167232513428e-01 4.732788205146789551e-01 2.137453109025955200e-01
2.369000000000000000e+03 5.186609649658203125e+01 -2.349755668640136719e+01 2.671396493911743164e+00 -2.689642608165740967e-01 7.207296490669250488e-01 8.724978566169738770e-01
2.370000000000000000e+03 5.298097610473632812e+01 -2.441835975646972656e+01 1.470533013343811035e+00 -3.396299481391906738e-01 3.392709195613861084e-01 4.572481662034988403e-02
2.371000000000000000e+03 5.314978790283203125e+01 -2.454354667663574219e+01 1.354524016380310059e+00 -3.338187932968139648e-01 3.062115609645843506e-01 2.342883124947547913e-02
2.372000000000000000e+03 5.109590530395507812e+01 -2.282384109497070312e+01 1.581304788589477539e+00 1.218763351440429688e+00 8.400204777717590332e-01 1.917414784431457520e+00
2.373000000000000000e+03 5.334884262084960938e+01 -2.404420280456542969e+01 1.285172224044799805e+00 -4.275789856910705566e-01 2.572779655456542969e-01 3.663100004196166992e-01
2.374000000000000000e+03 4.203109359741210938e+01 -2.418050384521484375e+01 3.933784551918506622e-03 -1.121846556663513184e+00 -3.353738486766815186e-01 -8.483663946390151978e-02
2.375000000000000000e+03 5.413914108276367188e+01 -2.511332893371582031e+01 8.136632442474365234e-01 -2.210002392530441284e-01 1.777988970279693604e-01 5.521805211901664734e-02
2.376000000000000000e+03 5.344802474975585938e+01 -2.434363174438476562e+01 1.249297738075256348e+00 -3.739504218101501465e-01 2.626042068004608154e-01 1.830224096775054932e-01
2.377000000000000000e+03 5.491380691528320312e+01 -2.487392425537109375e+01 6.601172089576721191e-01 -2.395253181457519531e-01 1.261775642633438110e-01 2.165372967720031738e-01
2.378000000000000000e+03 5.545381546020507812e+01 -2.505887222290039062e+01 5.170364975929260254e-01 -1.893789470195770264e-01 9.829727560281753540e-02 2.093437910079956055e-01
2.379000000000000000e+03 2.801416969299316406e+01 -1.523137283325195312e+01 -4.149422238697297871e-06 -4.413927001678530360e-07 -1.377244529976451304e-06 9.552427400194574147e-07
2.380000000000000000e+03 2.757014274597167969e+01 -1.455987548828125000e+01 3.855249815387651324e-06 2.920028236985672265e-07 1.244175791725865565e-06 -3.339015847814152949e-06
2.381000000000000000e+03 7.426998901367187500e+01 -2.925266265869140625e+01 -8.579461718909442425e-04 8.222307951655238867e-05 -2.327169204363599420e-04 3.184339147992432117e-04
2.382000000000000000e+03 7.230090332031250000e+01 -2.536964607238769531e+01 -6.388244684785604477e-03 -4.948144312947988510e-03 -3.400916699320077896e-03 -8.773338980972766876e-03
2.383000000000000000e+03 7.252884674072265625e+01 -2.463597679138183594e+01 -2.345495112240314484e-02 -8.730852045118808746e-03 -9.655741043388843536e-03 -1.604287070222198963e-03
2.384000000000000000e+03 5.416933822631835938e+01 -3.155050849914550781e+01 1.322644352912902832e-01 4.598137438297271729e-01 1.776234656572341919e-01 -2.687714695930480957e-01
2.385000000000000000e+03 4.227555465698242188e+01 -1.842660522460937500e+01 6.288239546847762540e-06 3.436937504375237040e-06 2.917553047154797241e-06 2.145565758837619796e-06
2.386000000000000000e+03 4.197679519653320312e+01 -1.921443748474121094e+01 3.609250597946811467e-06 9.511306870990665630e-07 1.368114340039028320e-06 2.937174031103495508e-06
2.387000000000000000e+03 1.629686355590820312e+01 -5.585026741027832031e+00 -4.434888614923693240e-05 -1.995479215111117810e-05 -1.929110294440761209e-05 -2.103554106724914163e-05
2.388000000000000000e+03 1.586267566680908203e+01 -6.041453838348388672e+00 4.699819328379817307e-05 1.611278639757074416e-05 1.893329317681491375e-05 1.948863427969627082e-05
2.389000000000000000e+03 1.718240737915039062e+01 -7.447877407073974609e+00 -3.711316821863874793e-05 -1.521642207080731168e-05 -1.569887717778328806e-05 -4.648837602871935815e-06
2.390000000000000000e+03 1.802777481079101562e+01 -8.546825408935546875e+00 -4.406043080962263048e-05 -1.859436270024161786e-05 -1.879643787106033415e-05 -4.629716841009212658e-06
2.391000000000000000e+03 1.301386737823486328e+01 -4.380677223205566406e+00 -5.155854887561872602e-05 -2.270330332976300269e-05 -2.227855475211981684e-05 -2.216819666500668973e-05
2.392000000000000000e+03 1.281515693664550781e+01 -3.360831499099731445e+00 -4.014301157440058887e-05 -1.829012944654095918e-05 -1.752994285197928548e-05 -1.178608727059327066e-05
2.393000000000000000e+03 1.238836193084716797e+01 -4.052971839904785156e+00 5.476847945828922093e-05 2.201113238697871566e-05 2.303388464497402310e-05 1.498218898632330820e-05
2.394000000000000000e+03 2.128485488891601562e+01 -1.283574485778808594e+01 -1.319299099122872576e-05 -3.484467015368863940e-05 -1.441129825252573937e-05 3.095225838478654623e-05
2.395000000000000000e+03 5.869258880615234375e+01 -2.072745132446289062e+01 -2.548457384109497070e-01 4.918469488620758057e-01 7.110036164522171021e-02 4.975572824478149414e-01
2.396000000000000000e+03 4.575556564331054688e+01 -2.325648689270019531e+01 4.312639534473419189e-01 -9.892106056213378906e-01 -1.673839837312698364e-01 -1.197416067123413086e+00
2.397000000000000000e+03 4.351169967651367188e+01 -2.340449142456054688e+01 -9.777851402759552002e-03 -7.802785038948059082e-01 -2.370169013738632202e-01 -7.522607445716857910e-01
2.398000000000000000e+03 7.360739898681640625e+01 -2.417865943908691406e+01 -4.649682343006134033e-02 -1.722317934036254883e-02 -1.911600120365619659e-02 1.660557091236114502e-02
2.399000000000000000e+03 7.715754699707031250e+01 -2.469615554809570312e+01 -1.760666444897651672e-02 -5.288043525069952011e-03 -6.868412252515554428e-03 -2.642285078763961792e-03
2.400000000000000000e+03 4.928770065307617188e+01 -2.271566772460937500e+01 9.073232412338256836e-01 2.288882017135620117e+00 9.588615894317626953e-01 -1.064346909523010254e+00
2.401000000000000000e+03 4.898274993896484375e+01 -2.191773414611816406e+01 -1.514571785926818848e+00 9.645100235939025879e-01 -1.650185286998748779e-01 -1.142055630683898926e+00
2.402000000000000000e+03 5.154459762573242188e+01 -1.674954032897949219e+01 -5.294949914969038218e-06 -4.022636858280748129e-06 -2.795276031974935904e-06 1.377233729726867750e-06
2.403000000000000000e+03 1.007443141937255859e+01 2.570680141448974609e+00 -1.608879870218515862e-06 2.463910504957311787e-06 2.565091676842712332e-07 -1.314495420956518501e-05
2.404000000000000000e+03 9.333396911621093750e+00 2.651739120483398438e+00 2.011490869335830212e-05 8.235214409069158137e-06 8.505036930728238076e-06 -1.613875156181165949e-06
2.405000000000000000e+03 8.587208747863769531e+00 2.717773437500000000e+00 -5.811624532725545578e-07 -2.875690597647917457e-06 -1.037055881170090288e-06 -1.352253184450091794e-05
2.406000000000000000e+03 7.817270755767822266e+00 2.772228956222534180e+00 1.527542553958483040e-05 1.068155870598275214e-05 7.787095455569215119e-06 -3.243601895519532263e-06
2.407000000000000000e+03 4.174542903900146484e+00 2.556667327880859375e+00 -8.711122973181772977e-06 -3.627396381489234045e-06 -3.701555669977096841e-06 -3.300723165011731908e-06
2.408000000000000000e+03 2.820190906524658203e+00 2.753318071365356445e+00 -3.493892563710687682e-06 -7.014912625891156495e-06 -3.152641511405818164e-06 1.368054995509737637e-06
2.409000000000000000e+03 6.178401947021484375e+00 2.842109680175781250e+00 1.560972850711550564e-05 9.728563782118726522e-06 7.601487595820799470e-06 -4.584545877150958404e-06
2.410000000000000000e+03 5.438931465148925781e+00 2.682222127914428711e+00 1.656728500165627338e-06 -5.568916549236746505e-06 -1.173656414721335750e-06 -3.876560640492243692e-06
2.411000000000000000e+03 4.816894531250000000e+00 2.536469697952270508e+00 1.351509854430332780e-05 5.266128027869854122e-06 5.634367880702484399e-06 -8.257280569523572922e-06
2.412000000000000000e+03 1.357487201690673828e+00 3.344543933868408203e+00 -3.306460939711541869e-06 -6.604458121728384867e-06 -2.973275741169345565e-06 5.255323685560142621e-06
2.413000000000000000e+03 2.716005897521972656e+01 -1.400304794311523438e+01 -3.115847448498243466e-06 7.858963613216474187e-07 -6.989853318373207003e-07 4.997600626666098833e-06
2.414000000000000000e+03 2.693449783325195312e+01 -1.342531871795654297e+01 -1.577063699187419843e-06 -2.619504584799869917e-06 -1.258970428352768067e-06 -5.467473783937748522e-06
2.415000000000000000e+03 2.780485916137695312e+01 -1.294809722900390625e+01 -7.852568160160444677e-06 8.575277092859323602e-07 -2.098512140946695581e-06 9.841787687037140131e-07
2.416000000000000000e+03 2.589331436157226562e+01 -1.052823257446289062e+01 -5.233931915427092463e-06 -2.894979616030468605e-06 -2.438673391225165688e-06 -6.184999620018061250e-06
2.417000000000000000e+03 5.005500030517578125e+01 -2.167402839660644531e+01 -2.094897985458374023e+00 1.397483587265014648e+00 -2.092243134975433350e-01 1.343160271644592285e-01
2.418000000000000000e+03 4.933687973022460938e+01 -2.202567672729492188e+01 -1.421826481819152832e+00 1.495323777198791504e+00 2.204920165240764618e-02 -7.885793447494506836e-01
2.419000000000000000e+03 5.067658996582031250e+01 -2.157918357849121094e+01 -2.019256114959716797e+00 1.109662532806396484e+00 -2.728780806064605713e-01 9.371973276138305664e-01
2.420000000000000000e+03 4.984348678588867188e+01 -1.751277923583984375e+01 -2.672488221833191346e-07 3.976819243689533323e-06 1.112871132136206143e-06 -2.802726385198184289e-06
2.421000000000000000e+03 5.222879791259765625e+01 -1.637745285034179688e+01 4.980495759809855372e-06 5.937189143878640607e-06 3.275305516581283882e-06 -3.065347300434950739e-06
2.422000000000000000e+03 7.733422851562500000e+01 -3.023297500610351562e+01 -1.356683496851474047e-04 -3.210229042451828718e-04 -1.370073732687160373e-04 1.704173628240823746e-04
2.423000000000000000e+03 5.441896057128906250e+01 -2.157826423645019531e+01 -4.549182951450347900e-01 -2.594479173421859741e-02 -1.442589312791824341e-01 9.520314931869506836e-01
2.424000000000000000e+03 5.520957946777343750e+01 -2.152399063110351562e+01 -3.790662884712219238e-01 3.088868968188762665e-02 -1.044532805681228638e-01 8.088962435722351074e-01
2.425000000000000000e+03 5.219865417480468750e+01 -2.188695335388183594e+01 -4.611788392066955566e-01 1.966066062450408936e-01 -7.937167584896087646e-02 1.523955702781677246e+00
2.426000000000000000e+03 4.845154953002929688e+01 -1.749021148681640625e+01 3.360367372806649655e-06 5.514729650712979492e-07 1.173552163891145028e-06 -3.161990662192692980e-06
2.427000000000000000e+03 4.848139190673828125e+01 -1.828056716918945312e+01 -2.732800339799723588e-06 -1.255671350008924492e-06 -1.196541575154697057e-06 2.382201500950031914e-06
2.428000000000000000e+03 7.495752716064453125e+01 -3.034167671203613281e+01 -1.214395393617451191e-03 3.911915409844368696e-04 -2.469611354172229767e-04 3.755428188014775515e-04
2.429000000000000000e+03 7.316799163818359375e+01 -3.008485984802246094e+01 -1.527443062514066696e-03 -3.687955322675406933e-04 -5.688715609721839428e-04 -9.839599806582555175e-05
2.430000000000000000e+03 7.417228698730468750e+01 -3.049407958984375000e+01 -1.349722500890493393e-03 -1.168402959592640400e-04 -4.399688623379915953e-04 3.391120699234306812e-04
2.431000000000000000e+03 7.656482696533203125e+01 -3.025342178344726562e+01 -7.788870134390890598e-04 1.255066745216026902e-04 -1.960140943992882967e-04 5.635509733110666275e-04
2.432000000000000000e+03 1.970167350769042969e+01 -2.552426576614379883e+00 1.713070923869963735e-05 3.272882798110998692e-10 5.139310815138742328e-06 -7.959116373967844993e-06
2.433000000000000000e+03 4.475856399536132812e+01 -1.798260307312011719e+01 5.438293555926065892e-06 2.565383738328819163e-06 2.401103074589627795e-06 1.189696149594965391e-06
2.434000000000000000e+03 4.355945968627929688e+01 -1.891956901550292969e+01 2.290096972501487471e-06 9.722351705931941979e-07 9.786996315597207285e-07 4.001493039140768815e-07
2.435000000000000000e+03 2.614160728454589844e+01 -8.593542098999023438e+00 2.153490459022577852e-05 2.739127694439957850e-06 7.282209480763413012e-06 3.495649707474512979e-06
2.436000000000000000e+03 2.273851966857910156e+01 -5.586346626281738281e+00 6.420528279704740271e-06 9.534175660519395024e-06 4.786411409440916032e-06 3.714376589414314367e-06
2.437000000000000000e+03 2.227753448486328125e+01 -4.830749988555908203e+00 9.023599886859301478e-06 -7.924268174974713475e-06 3.297996329365560086e-07 -5.487085672939429060e-06
2.438000000000000000e+03 1.747498321533203125e+01 2.202954143285751343e-01 -8.104229891614522785e-06 5.518556918104877695e-06 -7.757018352094746660e-07 -4.527630153461359441e-06
2.439000000000000000e+03 1.569027042388916016e+01 2.795144915580749512e-01 3.040137380594387650e-05 -1.867853256953821983e-06 8.560055903217289597e-06 -6.043435405445052311e-06
2.440000000000000000e+03 1.499969291687011719e+01 6.856371760368347168e-01 8.694264863606804283e-08 9.046471859619487077e-06 2.740024228842230514e-06 -8.468675332551356405e-06
2.441000000000000000e+03 5.144171524047851562e+01 -2.823541259765625000e+01 1.174289360642433167e-01 9.178122282028198242e-01 3.105723559856414795e-01 -4.472960233688354492e-01
2.442000000000000000e+03 5.233272933959960938e+01 -2.932763290405273438e+01 5.614060163497924805e-02 6.829693317413330078e-01 2.217329740524291992e-01 -3.866277337074279785e-01
2.443000000000000000e+03 5.304371643066406250e+01 -3.164994239807128906e+01 2.876910194754600525e-02 5.260171294212341309e-01 1.664358675479888916e-01 -2.383112907409667969e-01
2.444000000000000000e+03 5.355746841430664062e+01 -3.046200180053710938e+01 5.538171902298927307e-02 5.118073225021362305e-01 1.701567023992538452e-01 -3.326758146286010742e-01
2.445000000000000000e+03 2.097226905822753906e+01 -3.657234430313110352e+00 1.844249345595017076e-05 9.510977179161272943e-07 5.818077625008299947e-06 -7.848332643334288150e-06
2.446000000000000000e+03 1.777110862731933594e+01 -9.988484382629394531e-01 9.972976044991810340e-08 5.494148354046046734e-06 1.678163471297011711e-06 1.329898168478393927e-06
2.447000000000000000e+03 1.709094047546386719e+01 -5.506713390350341797e-01 3.150334305246360600e-05 -3.018782308572554030e-06 8.545368473278358579e-06 -9.601580131857190281e-06
2.448000000000000000e+03 5.693492889404296875e-01 -3.308645248413085938e+00 4.966443520970642567e-05 1.091571721190121025e-05 1.817404518078546971e-05 2.411797504464630038e-05
2.449000000000000000e+03 1.542667388916015625e+00 -2.710062742233276367e+00 -6.060466603230452165e-06 1.080485162674449384e-05 1.423315438842109870e-06 -1.295111906074453145e-05
2.450000000000000000e+03 8.163787841796875000e+00 -2.785396337509155273e+00 5.694819265045225620e-05 4.282690497348085046e-06 1.836926458054222167e-05 -2.063752071990165859e-05
2.451000000000000000e+03 9.285946846008300781e+00 -1.820932507514953613e+00 1.315115332545246929e-05 2.268628486490342766e-05 1.075123145710676908e-05 -3.472870503173908219e-06
2.452000000000000000e+03 9.863379478454589844e+00 -2.584483146667480469e+00 4.549984805635176599e-05 8.350849384441971779e-06 1.615520886844024062e-05 2.626715968290227465e-06
2.453000000000000000e+03 6.364223098754882812e+01 -1.673395538330078125e+01 3.933688700199127197e-01 5.146585106849670410e-01 2.724082171916961670e-01 3.887144625186920166e-01
2.454000000000000000e+03 6.341593551635742188e+01 -1.550988864898681641e+01 4.386905133724212646e-01 6.991842389106750488e-01 3.413624167442321777e-01 5.812356472015380859e-01
2.455000000000000000e+03 5.592411041259765625e+01 -2.069100761413574219e+01 -5.219909548759460449e-01 1.775789707899093628e-01 -1.033235862851142883e-01 5.895040035247802734e-01
2.456000000000000000e+03 5.705477523803710938e+01 -2.137772369384765625e+01 -2.772364318370819092e-01 2.687687277793884277e-01 -2.540314570069313049e-03 6.218321919441223145e-01
2.457000000000000000e+03 1.083316898345947266e+01 2.469241619110107422e+00 2.140802280337084085e-05 6.879095053591299802e-06 8.486134902341291308e-06 -5.575726845563622192e-06
2.458000000000000000e+03 1.361614131927490234e+01 1.544363856315612793e+00 -3.930729235435137525e-07 8.845815500535536557e-06 2.535822886784444563e-06 -8.256222827185411006e-06
2.459000000000000000e+03 6.050363540649414062e+01 -2.032087326049804688e+01 -2.467978596687316895e-01 5.845671892166137695e-01 1.013307943940162659e-01 3.916945159435272217e-01
2.460000000000000000e+03 6.160360336303710938e+01 -1.818363761901855469e+01 2.853219509124755859e-01 7.369673848152160645e-01 3.066867887973785400e-01 3.909516930580139160e-01
2.461000000000000000e+03 3.559566497802734375e+01 -1.687262344360351562e+01 -3.800037802648148499e-06 -3.021926602286839625e-07 -1.230669113283511251e-06 1.244490817953192163e-06
2.462000000000000000e+03 6.636766815185546875e+01 -1.369279861450195312e+01 2.793238461017608643e-01 6.459797024726867676e-01 2.775910496711730957e-01 3.263633847236633301e-01
2.463000000000000000e+03 5.609425354003906250e+01 -2.524304771423339844e+01 4.058803021907806396e-01 -1.300274431705474854e-01 8.275585621595382690e-02 2.172592133283615112e-01
2.464000000000000000e+03 1.111176109313964844e+01 -3.299873113632202148e+00 3.736818325705826283e-05 2.493142164894379675e-05 1.868988147180061787e-05 -1.646521923248656094e-06
2.465000000000000000e+03 1.062656974792480469e+01 -3.936104536056518555e+00 -5.943532960372976959e-05 -1.206154229294043034e-05 -2.144906102330423892e-05 -3.152132421746500768e-06
2.466000000000000000e+03 5.449498748779296875e+01 -3.249810409545898438e+01 1.123708114027976990e-01 4.371041655540466309e-01 1.648424863815307617e-01 -1.947347223758697510e-01
2.467000000000000000e+03 1.819603729248046875e+01 -1.326030540466308594e+01 6.436480816773837432e-06 1.088095305021852255e-04 3.457380444160662591e-05 -1.575365422468166798e-05
2.468000000000000000e+03 4.424876213073730469e+00 -2.676186323165893555e+00 -4.210410770610906184e-05 -4.187448212178424001e-06 -1.388746659358730540e-05 8.112005161819979548e-06
2.469000000000000000e+03 2.166953086853027344e+01 -4.182819843292236328e+00 9.598486485629109666e-07 -1.617132397768727969e-06 -1.971851020243775565e-07 1.243276187778974418e-06
2.470000000000000000e+03 1.106914901733398438e+01 -1.434637546539306641e+01 3.319021561765111983e-05 1.265320861421059817e-05 1.375302781525533646e-05 -1.254496455658227205e-04
2.471000000000000000e+03 4.137017440795898438e+01 1.965870094299316406e+01 -3.768927708733826876e-04 6.243628740776330233e-05 -9.433693776372820139e-05 1.388586824759840965e-04
2.472000000000000000e+03 6.504107666015625000e+01 -1.458410263061523438e+01 3.314296007156372070e-01 6.428747773170471191e-01 2.922913134098052979e-01 4.486711025238037109e-01
2.473000000000000000e+03 3.435034179687500000e+01 -1.679490089416503906e+01 2.649547468536184169e-06 -8.551769496989436448e-07 5.383112124945910182e-07 7.942629736135131679e-07
2.474000000000000000e+03 3.313854980468750000e+01 -1.667473411560058594e+01 -2.668201204869546928e-06 1.256212954103830270e-06 -4.235964468080055667e-07 -1.315598296969255898e-06
2.475000000000000000e+03 3.089255905151367188e+01 -1.616475677490234375e+01 -3.697121201184927486e-06 1.271441306016640738e-06 -7.277039912878535688e-07 -1.784594246601045597e-06
2.476000000000000000e+03 8.560584068298339844e+00 -2.421320152282714844e+01 -6.668622518191114068e-05 -8.835717017063871026e-05 -4.651301787816919386e-05 -8.606584015069529414e-05
2.477000000000000000e+03 7.515952110290527344e+00 -2.470274353027343750e+01 2.012519689742475748e-04 1.377029111608862877e-04 1.016864625853486359e-04 1.561968529131263494e-04
2.478000000000000000e+03 5.890993881225585938e+01 3.632625961303710938e+01 -2.732281573116779327e-02 1.745938882231712341e-02 -2.959028119221329689e-03 -3.072008490562438965e-02
2.479000000000000000e+03 7.790263366699218750e+01 -2.183327484130859375e+01 -3.219473734498023987e-02 -3.363408148288726807e-02 -1.974864676594734192e-02 -4.525106772780418396e-02
2.480000000000000000e+03 1.297234725952148438e+01 -1.307025146484375000e+01 1.376371801597997546e-04 1.401359622832387686e-04 8.333194273291155696e-05 -7.897522300481796265e-05
2.481000000000000000e+03 6.566561222076416016e+00 -2.265491104125976562e+01 -8.177405106835067272e-05 -4.640896077034994960e-05 -3.845490209641866386e-05 3.170706622768193483e-04
2.482000000000000000e+03 2.920483779907226562e+01 -3.216390609741210938e+01 1.293705403804779053e-02 3.344989672768861055e-04 3.981465939432382584e-03 -3.683946852106601000e-04
2.483000000000000000e+03 8.970520973205566406e+00 -1.692252349853515625e+01 -3.375667438376694918e-04 -7.724139140918850899e-05 -1.244424493052065372e-04 5.860673991264775395e-05
2.484000000000000000e+03 5.213594818115234375e+01 -1.505739974975585938e+01 5.840860467287711799e-06 5.448512638395186514e-06 3.386811840755399317e-06 4.143344085605349392e-06
2.485000000000000000e+03 5.041064834594726562e+01 -8.775391578674316406e+00 -2.641946412040852010e-05 -2.483704975020373240e-06 -8.670950592204462737e-06 -6.908225259394384921e-06
2.486000000000000000e+03 7.152690124511718750e+01 1.410598373413085938e+01 2.426739037036895752e-02 1.884424924850463867e+00 5.726076960563659668e-01 -3.352942690253257751e-02
2.487000000000000000e+03 7.133371734619140625e+01 9.933641433715820312e+00 -1.225826367735862732e-01 2.095497369766235352e+00 5.918744206428527832e-01 1.199019700288772583e-02
2.488000000000000000e+03 7.104470825195312500e+01 2.437939262390136719e+01 1.646890491247177124e-01 2.212026119232177734e+00 7.130145430564880371e-01 -1.440913975238800049e-01
2.489000000000000000e+03 7.090856170654296875e+01 2.587192153930664062e+01 2.243928015232086182e-01 2.138576507568359375e+00 7.088907957077026367e-01 -1.896519213914871216e-01
2.490000000000000000e+03 7.157308959960937500e+01 8.495333790779113770e-01 2.369804680347442627e-01 2.044483184814453125e+00 6.844390630722045898e-01 7.831564545631408691e-02
2.491000000000000000e+03 7.033664703369140625e+01 -4.863803386688232422e+00 1.384093463420867920e-01 1.479490756988525391e+00 4.853700399398803711e-01 2.140241414308547974e-01
2.492000000000000000e+03 7.109943389892578125e+01 2.294303131103515625e+01 8.476930856704711914e-02 2.243195533752441406e+00 6.983894705772399902e-01 -9.554584324359893799e-02
2.493000000000000000e+03 7.157509613037109375e+01 1.724876022338867188e+01 1.557041984051465988e-02 1.958254575729370117e+00 5.921475291252136230e-01 6.454209331423044205e-03
2.494000000000000000e+03 1.850858688354492188e+00 4.241880893707275391e+00 -1.238849563378607854e-05 1.335080651188036427e-05 2.886931440571061103e-07 -1.004520072456216440e-05
2.495000000000000000e+03 2.417135953903198242e+00 4.926069736480712891e+00 1.178496768261538818e-05 -1.555269591335672885e-05 -1.130318651121342555e-06 -1.342331415798980743e-06
2.496000000000000000e+03 4.377375793457031250e+01 3.182557582855224609e+00 6.110826507210731506e-05 5.053382483310997486e-05 3.349262624396942556e-05 2.897904596466105431e-05
2.497000000000000000e+03 6.680231475830078125e+01 -2.141182518005371094e+01 -1.311741232872009277e+00 -2.310844212770462036e-01 -4.628476798534393311e-01 -3.151791989803314209e-01
2.498000000000000000e+03 6.865264892578125000e+01 3.131989288330078125e+01 3.038124740123748779e-01 1.471820831298828125e+00 5.326899886131286621e-01 -4.984393119812011719e-01
2.499000000000000000e+03 7.758552551269531250e+01 -1.803051376342773438e+01 -3.526207059621810913e-02 -1.836600750684738159e-01 -6.567664444446563721e-02 -1.742154955863952637e-01
2.500000000000000000e+03 7.691816711425781250e+01 -1.090261173248291016e+01 1.490065176039934158e-02 -5.184624195098876953e-01 -1.510685384273529053e-01 -2.611954808235168457e-01
2.501000000000000000e+03 7.791523742675781250e+01 -9.875144958496093750e+00 1.220741029828786850e-02 -7.748560309410095215e-01 -2.287945896387100220e-01 -2.090900391340255737e-01
2.502000000000000000e+03 7.179074096679687500e+01 7.134695529937744141e+00 1.090475320816040039e-01 1.975117206573486328e+00 6.252494454383850098e-01 -2.240828424692153931e-02
2.503000000000000000e+03 7.420362854003906250e+01 7.725214958190917969e+00 1.300055999308824539e-02 6.055573821067810059e-01 1.855673789978027344e-01 5.342063307762145996e-02
2.504000000000000000e+03 2.443409442901611328e+00 2.300272941589355469e+01 -5.056935333414003253e-05 3.899904913851059973e-05 -3.471091758910915814e-06 -1.817095653677824885e-05
2.505000000000000000e+03 2.525626420974731445e+00 1.780137443542480469e+01 -6.172123539727181196e-05 1.928357778524514288e-05 -1.273129601031541824e-05 -1.681818321230821311e-05
2.506000000000000000e+03 4.237944602966308594e+00 1.653127288818359375e+01 -4.550365702016279101e-05 2.758624532361864112e-06 -1.282350967812817544e-05 -1.272207919100765139e-05
2.507000000000000000e+03 3.943568706512451172e+00 -1.705172348022460938e+01 -2.556081453803926706e-04 -1.110038356273435056e-04 -1.099836008506827056e-04 2.660245263541582972e-05
2.508000000000000000e+03 2.399650096893310547e+00 -1.508639907836914062e+01 -2.913952048402279615e-04 -6.165943432279163972e-06 -8.926833834266290069e-05 1.474264900025445968e-05
2.509000000000000000e+03 4.005492019653320312e+01 1.058947563171386719e+01 -1.790597452782094479e-04 4.907368202111683786e-05 -3.899582225130870938e-05 -7.675387792005494703e-08
2.510000000000000000e+03 7.612642669677734375e+01 -7.972532510757446289e-01 6.956546008586883545e-02 -4.700406491756439209e-01 -1.201425492763519287e-01 -1.991013586521148682e-01
2.511000000000000000e+03 7.187115478515625000e+01 4.301527500152587891e+00 1.138716563582420349e-01 2.181560993194580078e+00 6.886297464370727539e-01 4.335379227995872498e-02
2.512000000000000000e+03 7.191478729248046875e+01 5.692869663238525391e+00 1.049369499087333679e-01 2.023271083831787109e+00 6.384624242782592773e-01 -4.628247395157814026e-02
2.513000000000000000e+03 3.525310754776000977e+00 8.789363861083984375e+00 1.896941967061138712e-06 2.948240580735728145e-05 9.413804036739747971e-06 -1.501065889897290617e-05
2.514000000000000000e+03 4.773436737060546875e+01 -6.066724300384521484e+00 3.437327904975973070e-05 -1.417030489392345771e-05 6.060892246750881895e-06 6.086213033995591104e-06
2.515000000000000000e+03 7.128838348388671875e+01 -3.862356662750244141e+00 1.116990968585014343e-01 1.372942090034484863e+00 4.453923404216766357e-01 8.941563963890075684e-02
2.516000000000000000e+03 7.748734283447265625e+01 -3.501341342926025391e+00 8.572281338274478912e-03 -1.047975420951843262e+00 -3.118209242820739746e-01 -2.167669236660003662e-01
2.517000000000000000e+03 7.560530853271484375e+01 -3.453883409500122070e+00 2.673596888780593872e-02 -2.538428604602813721e-01 -6.813206523656845093e-02 -2.407582849264144897e-01
2.518000000000000000e+03 4.041239547729492188e+01 8.932987213134765625e+00 1.794145209714770317e-04 3.227482375223189592e-05 6.350680632749572396e-05 2.809231602896034019e-07
2.519000000000000000e+03 2.403696775436401367e+00 -8.004323959350585938e+00 1.497517368989065289e-04 -5.558987140830140561e-06 4.325782356318086386e-05 4.201252522761933506e-05
2.520000000000000000e+03 4.493585586547851562e+01 -2.741907501220703125e+01 3.080192804336547852e-01 -4.417349696159362793e-01 -4.011471197009086609e-02 2.301951944828033447e-01
2.521000000000000000e+03 6.431382656097412109e+00 -1.945142173767089844e+01 -2.122737205354496837e-04 -9.933432011166587472e-05 -9.348241292173042893e-05 7.488633127650246024e-05
2.522000000000000000e+03 7.553318023681640625e+01 -3.336108398437500000e+01 -1.168197137303650379e-03 -9.030440705828368664e-04 -6.213723681867122650e-04 2.696682931855320930e-03
2.523000000000000000e+03 3.926768112182617188e+01 -1.691389846801757812e+01 8.532248102710582316e-06 6.677284545730799437e-06 4.562859885481884703e-06 4.772484629711470916e-09
2.524000000000000000e+03 4.832998657226562500e+01 -2.931407928466796875e+01 -1.267970353364944458e-01 9.339857697486877441e-01 2.421566247940063477e-01 2.559805512428283691e-01
2.525000000000000000e+03 4.865749359130859375e+01 -2.805157852172851562e+01 -3.822876513004302979e-02 1.282692193984985352e+00 3.733390271663665771e-01 2.445698231458663940e-01
2.526000000000000000e+03 4.908898544311523438e+01 -2.592474365234375000e+01 6.568800210952758789e-01 2.663757562637329102e+00 9.961912631988525391e-01 6.735578775405883789e-01
2.527000000000000000e+03 4.952711486816406250e+01 -2.589262390136718750e+01 4.244724512100219727e-01 2.970927238464355469e+00 1.018619894981384277e+00 1.750664412975311279e-01
2.528000000000000000e+03 4.921159744262695312e+01 -2.563825035095214844e+01 8.425540328025817871e-01 3.041706323623657227e+00 1.165278077125549316e+00 7.658540606498718262e-01
2.529000000000000000e+03 5.118497467041015625e+01 -2.778195762634277344e+01 1.741740107536315918e-01 1.089967608451843262e+00 3.792425096035003662e-01 -4.865326583385467529e-01
2.530000000000000000e+03 5.170568847656250000e+01 -2.252718353271484375e+01 9.667336344718933105e-01 4.193087220191955566e-01 4.158127009868621826e-01 1.744726896286010742e+00
2.531000000000000000e+03 5.266561508178710938e+01 -2.413480186462402344e+01 1.805405974388122559e+00 -3.849893212318420410e-01 4.261249899864196777e-01 1.470072716474533081e-01
2.532000000000000000e+03 5.282004165649414062e+01 -2.428694152832031250e+01 1.627194285392761230e+00 -3.682243525981903076e-01 3.776909708976745605e-01 9.399148821830749512e-02
2.533000000000000000e+03 5.305952453613281250e+01 -2.413029098510742188e+01 1.506387829780578613e+00 -4.040446281433105469e-01 3.307029604911804199e-01 2.287871092557907104e-01
2.534000000000000000e+03 5.245775985717773438e+01 -2.364446067810058594e+01 1.970275998115539551e+00 -4.234906435012817383e-01 4.640356302261352539e-01 5.879848003387451172e-01
2.535000000000000000e+03 5.294916152954101562e+01 -2.343645668029785156e+01 1.500012755393981934e+00 -4.513966441154479980e-01 3.145848512649536133e-01 7.842332124710083008e-01
2.536000000000000000e+03 5.113735580444335938e+01 -2.227612304687500000e+01 5.794914066791534424e-02 1.118931412696838379e+00 3.530641496181488037e-01 1.706029176712036133e+00
2.537000000000000000e+03 4.909243774414062500e+01 -2.623497009277343750e+01 4.649921357631683350e-01 2.370673894882202148e+00 8.506997823715209961e-01 4.752036929130554199e-01
2.538000000000000000e+03 5.092144775390625000e+01 -2.266375732421875000e+01 1.121554255485534668e+00 1.787521719932556152e+00 8.727228045463562012e-01 1.874895215034484863e+00
2.539000000000000000e+03 4.863540649414062500e+01 -2.266786956787109375e+01 7.210463285446166992e-01 9.550220370292663574e-01 5.028204917907714844e-01 -1.544249176979064941e+00
2.540000000000000000e+03 4.909003067016601562e+01 -2.281345176696777344e+01 1.178305864334106445e+00 1.995006442070007324e+00 9.519937038421630859e-01 -1.380589127540588379e+00
2.541000000000000000e+03 5.075170135498046875e+01 -2.207384300231933594e+01 -6.989706158638000488e-01 1.604206204414367676e+00 2.715706825256347656e-01 1.314576148986816406e+00
2.542000000000000000e+03 4.852819824218750000e+01 -2.317990493774414062e+01 2.340128898620605469e+00 7.449269890785217285e-01 9.255167841911315918e-01 -1.378305792808532715e+00
2.543000000000000000e+03 4.842689132690429688e+01 -2.416490936279296875e+01 3.710455894470214844e+00 7.087804675102233887e-01 1.325770974159240723e+00 2.572152316570281982e-01
2.544000000000000000e+03 4.809164428710937500e+01 -2.496613502502441406e+01 2.401262521743774414e+00 9.014814496040344238e-01 9.908231496810913086e-01 9.110107421875000000e-01
2.545000000000000000e+03 4.941399002075195312e+01 -2.235001754760742188e+01 -4.428322315216064453e-01 2.331770658493041992e+00 5.666815042495727539e-01 -6.522862911224365234e-01
2.546000000000000000e+03 4.810844421386718750e+01 -2.387122535705566406e+01 3.028662681579589844e+00 1.452599316835403442e-01 9.521768093109130859e-01 -4.349820315837860107e-01
2.547000000000000000e+03 5.132820129394531250e+01 -2.262382888793945312e+01 1.170633196830749512e+00 8.237025141716003418e-01 5.983006954193115234e-01 1.876544833183288574e+00
2.548000000000000000e+03 5.406616973876953125e+01 -2.441545867919921875e+01 9.672101736068725586e-01 -3.440464138984680176e-01 1.869491338729858398e-01 2.731629908084869385e-01
2.549000000000000000e+03 5.118892669677734375e+01 -2.736740875244140625e+01 2.394069880247116089e-01 1.123495459556579590e+00 4.088707566261291504e-01 -5.435852408409118652e-01
2.550000000000000000e+03 4.036882781982421875e+01 -2.038661384582519531e+01 -8.163557140505872667e-06 -1.267370407731505111e-06 -2.829278400895418599e-06 3.455624266734957928e-07
2.551000000000000000e+03 5.442683410644531250e+01 -2.400203323364257812e+01 7.742850184440612793e-01 -3.459480702877044678e-01 1.285010725259780884e-01 4.738471508026123047e-01
2.552000000000000000e+03 1.890808677673339844e+01 -9.650628089904785156e+00 -4.407361120684072375e-05 -2.730292362684849650e-05 -2.141296135960146785e-05 -2.513325307518243790e-05
2.553000000000000000e+03 1.697251319885253906e+01 -8.406783103942871094e+00 -4.148403968429192901e-05 -3.048274038519593887e-06 -1.335969409410608932e-05 9.487665920460131019e-06
2.554000000000000000e+03 1.733170127868652344e+01 -9.060914993286132812e+00 5.336270260158926249e-05 9.499743100604973733e-06 1.885873280116356909e-05 -5.764892193838022649e-06
2.555000000000000000e+03 3.676628828048706055e+00 3.271933555603027344e+00 -6.586662038898793980e-06 -3.731288643393781967e-06 -3.095385181950405240e-06 2.475838755344739184e-06
2.556000000000000000e+03 1.422225856781005859e+01 -5.019085884094238281e+00 -4.556637577479705215e-05 -2.620831219246610999e-05 -2.153240529878530651e-05 -1.737204365781508386e-05
2.557000000000000000e+03 5.517800903320312500e+01 -2.216633033752441406e+01 -9.596577286720275879e-02 -5.669576302170753479e-02 -4.579845815896987915e-02 8.616833686828613281e-01
2.558000000000000000e+03 4.651275253295898438e+01 -2.366165733337402344e+01 1.213791608810424805e+00 -8.870706558227539062e-01 9.801629930734634399e-02 -9.515200853347778320e-01
2.559000000000000000e+03 2.863093566894531250e+01 -1.457136344909667969e+01 2.638436399138299748e-06 2.805408030326361768e-06 1.633153374314133544e-06 -1.608851562195923179e-06
2.560000000000000000e+03 5.184785461425781250e+01 -2.876199150085449219e+01 9.165707230567932129e-02 8.080753684043884277e-01 2.699197232723236084e-01 -4.181405901908874512e-01
2.561000000000000000e+03 7.300088500976562500e+01 -2.425954818725585938e+01 -2.339950390160083771e-02 -7.179358508437871933e-03 -9.173658676445484161e-03 2.727194514591246843e-04
2.562000000000000000e+03 4.114443588256835938e+01 -1.815573310852050781e+01 -1.969668664969503880e-05 3.385985110071487725e-06 -4.893210189038654789e-06 1.907702426251489669e-06
2.563000000000000000e+03 1.781985473632812500e+01 -9.603806495666503906e+00 -9.293425682699307799e-05 -3.079673660977277905e-06 -2.880417923734057695e-05 -2.097212200169451535e-05
2.564000000000000000e+03 1.618920898437500000e+01 -7.306091785430908203e+00 -3.257310163462534547e-05 -2.408303407719358802e-05 -1.699684071354568005e-05 9.520294042886234820e-06
2.565000000000000000e+03 2.365286636352539062e+01 -6.967856407165527344e+00 3.606725613281014375e-06 4.779165919899241999e-06 2.515767619115649723e-06 6.974295047257328406e-06
2.566000000000000000e+03 2.063327026367187500e+01 -1.232472538948059082e+00 1.813454764487687498e-05 -3.338854639878263697e-06 4.438707492226967588e-06 -1.409353717463091016e-05
2.567000000000000000e+03 1.906907272338867188e+01 -1.998150348663330078e+00 8.636044185550417751e-06 1.652954779274296016e-06 3.086699734922149219e-06 -1.326736480677936925e-07
2.568000000000000000e+03 4.512703323364257812e+01 -2.347740173339843750e+01 3.707729876041412354e-01 -9.849227070808410645e-01 -1.842449158430099487e-01 -1.062299489974975586e+00
2.569000000000000000e+03 4.654941940307617188e+01 -2.425963592529296875e+01 1.576281547546386719e+00 -7.733757495880126953e-01 2.408717274665832520e-01 -5.139526724815368652e-01
2.570000000000000000e+03 9.503046035766601562e+00 -3.592042684555053711e+00 7.934038148960098624e-05 2.684050741663668305e-06 2.460732866893522441e-05 2.585716538305860013e-05
2.571000000000000000e+03 5.156929016113281250e+01 -2.200825881958007812e+01 -4.070878922939300537e-01 6.659930944442749023e-01 7.767155766487121582e-02 1.649186015129089355e+00
2.572000000000000000e+03 4.850431442260742188e+01 -1.667912292480468750e+01 -4.602790340868523344e-06 7.973471269906440284e-07 -1.141632992585073225e-06 3.560704499250277877e-06
2.573000000000000000e+03 1.346769332885742188e+01 2.763009786605834961e+00 -6.692420356557704508e-06 8.211696695070713758e-06 4.557830379781080410e-07 -5.893090474273776636e-06
2.574000000000000000e+03 2.712099075317382812e+01 -1.175286388397216797e+01 7.104061296558938920e-06 1.034497699947678484e-06 2.441567630739882588e-06 3.195321141902240925e-06
2.575000000000000000e+03 1.197586536407470703e+01 -4.775147914886474609e+00 -6.981267506489530206e-05 -2.721479177125729620e-05 -2.910823968704789877e-05 -2.165178193536121398e-05
2.576000000000000000e+03 4.687826538085937500e+01 -1.671347808837890625e+01 -9.414659871254116297e-06 2.349176611460279673e-06 -2.119645159837091342e-06 3.298513888694287743e-07
2.577000000000000000e+03 4.806655502319335938e+01 -2.318327331542968750e+01 1.888220310211181641e+00 6.252004206180572510e-02 5.852221250534057617e-01 -1.328733921051025391e+00
2.578000000000000000e+03 4.766305160522460938e+01 -2.269430541992187500e+01 5.404065251350402832e-01 -3.525106310844421387e-01 5.636876448988914490e-02 -1.620391368865966797e+00
2.579000000000000000e+03 4.819636154174804688e+01 -2.361672973632812500e+01 2.897732496261596680e+00 1.904563605785369873e-01 9.264566302299499512e-01 -7.895745038986206055e-01
2.580000000000000000e+03 7.564981842041015625e+01 -2.392439270019531250e+01 -4.978939145803451538e-02 -6.143011152744293213e-03 -1.677972078323364258e-02 -1.400730665773153305e-02
2.581000000000000000e+03 7.640003967285156250e+01 -2.396658897399902344e+01 -3.812834993004798889e-02 -4.716472234576940536e-03 -1.285344641655683517e-02 -1.191720925271511078e-02
2.582000000000000000e+03 2.806823348999023438e+01 -1.399259948730468750e+01 -5.343389602785464376e-06 -8.805217248664121144e-07 -1.867173409664246719e-06 2.711209617700660601e-06
2.583000000000000000e+03 2.750783920288085938e+01 -1.353817176818847656e+01 7.736006409686524421e-06 1.953934543053037487e-07 2.379420038778334856e-06 -1.177731064672116190e-06
2.584000000000000000e+03 4.996638488769531250e+01 -1.698359870910644531e+01 2.643801281010382809e-06 3.115154072474979330e-07 8.865949894243385643e-07 1.647090698497777339e-06
2.585000000000000000e+03 7.276303100585937500e+01 -2.360903167724609375e+01 -8.383090794086456299e-02 -9.363995864987373352e-03 -2.795847132802009583e-02 3.146271035075187683e-02
2.586000000000000000e+03 5.203929138183593750e+01 -3.055631256103515625e+01 -2.744829840958118439e-02 6.539263725280761719e-01 1.879434287548065186e-01 -2.703831493854522705e-01
2.587000000000000000e+03 5.201245498657226562e+01 -3.145190429687500000e+01 -4.261342808604240417e-02 5.979319214820861816e-01 1.665955632925033569e-01 -2.043167054653167725e-01
2.588000000000000000e+03 2.523224830627441406e+01 -8.968022346496582031e+00 -4.456610440684016794e-06 -4.130989964323816821e-06 -2.576280166977085173e-06 -6.819705959060229361e-06
2.589000000000000000e+03 2.609325981140136719e+01 -7.730947017669677734e+00 -1.625474033062346280e-05 -6.033584213582798839e-06 -6.686497272312408313e-06 -5.898967629036633298e-06
2.590000000000000000e+03 1.675246429443359375e+01 6.179366707801818848e-01 3.416917752474546432e-05 -1.787388214324892033e-06 9.714537554827984422e-06 -4.563871243590256199e-06
2.591000000000000000e+03 5.600576782226562500e+01 -2.233893394470214844e+01 -8.155966550111770630e-02 4.247482120990753174e-02 -1.172545459121465683e-02 7.119951248168945312e-01
2.592000000000000000e+03 5.297116088867187500e+01 -1.589516353607177734e+01 -9.544044587528333068e-06 -7.273813025676645339e-06 -5.045357283961493522e-06 -5.486796794684778433e-07
2.593000000000000000e+03 4.390388107299804688e+01 -2.473216438293457031e+01 3.323245942592620850e-01 -1.090426564216613770e+00 -2.274305969476699829e-01 -5.806044936180114746e-01
2.594000000000000000e+03 4.616397476196289062e+01 -1.677184677124023438e+01 8.111383976938668638e-06 -2.174107748942333274e-06 1.781182959348370787e-06 2.053344360319897532e-06
2.595000000000000000e+03 4.555471420288085938e+01 -1.659292030334472656e+01 1.804465682653244585e-06 2.628761876621865667e-06 1.329968199570430443e-06 -2.838457248799386434e-06
2.596000000000000000e+03 2.639746475219726562e+01 -9.425472259521484375e+00 -1.143946428783237934e-05 -1.802787892302148975e-06 -3.972675585828255862e-06 -6.963997748243855312e-06
2.597000000000000000e+03 8.552354812622070312e+00 -3.873014211654663086e+00 8.433046605205163360e-05 2.135619979526381940e-05 3.170600029989145696e-05 1.360168153041740879e-05
2.598000000000000000e+03 2.515193223953247070e+00 -4.712288379669189453e+00 -1.285268081119284034e-04 1.615831934032030404e-05 -3.371054481249302626e-05 -1.991069893847452477e-06
2.599000000000000000e+03 5.075489807128906250e+01 -3.050796508789062500e+01 -1.255740076303482056e-01 7.828219532966613770e-01 1.971743702888488770e-01 -1.577534377574920654e-01
2.600000000000000000e+03 7.937584686279296875e+01 -2.447994422912597656e+01 4.500210343394428492e-04 1.042589172720909119e-02 3.262773854658007622e-03 1.510777743533253670e-03
2.601000000000000000e+03 3.986929321289062500e+01 -1.789068603515625000e+01 -1.036772664519958198e-05 -4.259439720044611022e-06 -4.388150045997463167e-06 -3.155153535772114992e-06
2.602000000000000000e+03 5.838963508605957031e+00 -3.739009618759155273e+00 8.300421905005350709e-05 1.310634979745373130e-05 2.883317029045429081e-05 3.799192199949175119e-05
2.603000000000000000e+03 6.680153846740722656e+00 -3.935719966888427734e+00 -8.453270856989547610e-05 -1.978190630325116217e-05 -3.129438482574187219e-05 -2.483782918716315180e-05
2.604000000000000000e+03 7.858436584472656250e+01 -2.446769332885742188e+01 -6.443646736443042755e-03 3.935661166906356812e-03 -7.523956592194736004e-04 2.197528025135397911e-03
2.605000000000000000e+03 1.048138999938964844e+01 -2.902803659439086914e+00 -3.517032746458426118e-05 -2.283748290210496634e-05 -1.740234256430994719e-05 -1.338146603302448057e-06
2.606000000000000000e+03 1.131416606903076172e+01 -4.395600318908691406e+00 6.388928159140050411e-05 2.449301609885878861e-05 2.651468821568414569e-05 9.057863280759193003e-06
2.607000000000000000e+03 3.730926513671875000e+00 -2.782439947128295898e+00 1.055137636285508052e-05 3.909996394213521853e-06 4.338411599746905267e-06 1.432130466128000990e-05
2.608000000000000000e+03 6.506807708740234375e+01 -1.586805152893066406e+01 2.983309328556060791e-01 4.605209231376647949e-01 2.276555597782135010e-01 3.481158912181854248e-01
2.609000000000000000e+03 6.569419860839843750e+01 -1.528882884979248047e+01 2.632034122943878174e-01 4.894820749759674072e-01 2.258056402206420898e-01 3.032944798469543457e-01
2.610000000000000000e+03 5.365801239013671875e+01 -2.171487426757812500e+01 -4.075199365615844727e-01 -7.812450081110000610e-02 -1.456933319568634033e-01 1.130351781845092773e+00
2.611000000000000000e+03 7.418395233154296875e+01 -2.401547431945800781e+01 -7.989342510700225830e-02 6.810275372117757797e-03 -2.192494459450244904e-02 3.748831106349825859e-03
2.612000000000000000e+03 7.499225616455078125e+01 -2.472152328491210938e+01 -3.298667445778846741e-02 -4.962758161127567291e-03 -1.138482894748449326e-02 1.232976792380213737e-03
2.613000000000000000e+03 2.101959037780761719e+01 -1.209971714019775391e+01 -3.378442443136009388e-06 5.454390702652744949e-05 1.534963848826009780e-05 9.047577805176842958e-06
2.614000000000000000e+03 2.010220718383789062e+01 -1.133676433563232422e+01 6.177098839543759823e-05 -5.110097390570444986e-06 1.699826680123806000e-05 2.888298877223860472e-05
2.615000000000000000e+03 6.353931045532226562e+01 -2.033734703063964844e+01 -4.489702284336090088e-01 2.772103548049926758e-01 -5.152795836329460144e-02 8.577699959278106689e-02
2.616000000000000000e+03 6.386021423339843750e+01 -2.132036590576171875e+01 -6.662051677703857422e-01 1.628540009260177612e-01 -1.510053426027297974e-01 -1.196316555142402649e-01
2.617000000000000000e+03 2.077709007263183594e+01 -2.436204433441162109e+00 2.029934694292023778e-05 1.201316877086355817e-07 6.125843356130644679e-06 -7.755532351438887417e-06
2.618000000000000000e+03 2.032992935180664062e+01 -3.111662387847900391e+00 5.403124305303208530e-06 1.367212689729058184e-06 2.031101075772312470e-06 -9.191192589241836686e-07
2.619000000000000000e+03 1.532483386993408203e+01 -1.120268821716308594e+01 -9.712958126328885555e-05 -1.059519263435504399e-06 -2.945673077192623168e-05 -2.583691093605011702e-05
2.620000000000000000e+03 1.431202697753906250e+01 1.102989196777343750e+00 2.820566805894486606e-05 -6.271764618759334553e-08 8.442884791293181479e-06 -5.939134553045732901e-06
2.621000000000000000e+03 1.537039089202880859e+01 1.413428544998168945e+00 3.045641642529517412e-05 -8.529210049346147571e-08 9.111337021749932319e-06 -4.062181687913835049e-06
2.622000000000000000e+03 6.055091857910156250e+01 -2.132532882690429688e+01 -4.280656278133392334e-01 4.081460237503051758e-01 -5.975884385406970978e-03 3.426186144351959229e-01
2.623000000000000000e+03 3.804566192626953125e+01 -1.591444492340087891e+01 6.025129550835117698e-06 2.755786908892332576e-06 2.634275006130337715e-06 -4.319103027228266001e-06
2.624000000000000000e+03 1.932868957519531250e+01 -1.132496452331542969e+01 3.877004201058298349e-05 4.535986590781249106e-05 2.523897273931652308e-05 2.609379862406058237e-06
2.625000000000000000e+03 4.651963806152343750e+01 1.495636105537414551e+00 -7.317141717066988349e-05 -1.628909012652002275e-05 -2.683815182535909116e-05 -3.540536272339522839e-05
2.626000000000000000e+03 2.565020370483398438e+01 -6.869600296020507812e+00 2.976782980113057420e-06 -1.355473432340659201e-05 -3.173385493937530555e-06 1.307207730860682204e-05
2.627000000000000000e+03 2.380668640136718750e+01 -5.820335388183593750e+00 8.373745004064403474e-06 7.616610218974528834e-06 4.797106612386414781e-06 1.048068861564388499e-05
2.628000000000000000e+03 5.901411056518554688e+01 -2.138811111450195312e+01 -2.922524213790893555e-01 4.617619812488555908e-01 5.085286125540733337e-02 4.964393973350524902e-01
2.629000000000000000e+03 5.566349029541015625e+01 -2.449586868286132812e+01 4.916936159133911133e-01 -1.993833780288696289e-01 8.769308030605316162e-02 3.446754813194274902e-01
2.630000000000000000e+03 7.736228942871093750e+01 -3.114071655273437500e+01 -8.094446384347975254e-04 -4.035677193314768374e-05 -2.549404161982238293e-04 7.009350229054689407e-04
2.631000000000000000e+03 1.235489845275878906e+01 2.713639974594116211e+00 1.959415158125921153e-06 1.034791512211086228e-05 3.692199015858932398e-06 -5.361238891055108979e-06
2.632000000000000000e+03 7.819504547119140625e+01 -3.103870391845703125e+01 5.872276597074232996e-05 -6.318032974377274513e-04 -1.719241554383188486e-04 4.206120211165398359e-04
2.633000000000000000e+03 4.983361053466796875e+01 -7.457243919372558594e+00 2.881671389332041144e-05 4.140261353313690051e-06 9.887092346616555005e-06 9.475853403273504227e-06
2.634000000000000000e+03 6.703228759765625000e+01 -1.022219657897949219e+01 3.589133620262145996e-01 1.045657277107238770e+00 4.213711619377136230e-01 4.751619100570678711e-01
2.635000000000000000e+03 2.527307510375976562e+00 1.425768947601318359e+01 -3.286860373918898404e-05 2.714805305004119873e-05 -1.716165002108027693e-06 1.569323467265348881e-05
2.636000000000000000e+03 7.147159576416015625e+01 -2.093366241455078125e+01 -4.777514338493347168e-01 1.123325228691101074e-01 -1.096256747841835022e-01 -1.479286849498748779e-01
2.637000000000000000e+03 5.114297866821289062e+01 -1.455883121490478516e+01 6.016749011905631050e-06 -5.365372999222017825e-06 1.954127810677164234e-07 -6.814323114667786285e-06
2.638000000000000000e+03 7.281300354003906250e+01 -3.236445999145507812e+01 -4.015248734503984451e-03 1.537673175334930420e-03 -7.432726561091840267e-04 1.106274896301329136e-03
2.639000000000000000e+03 7.388598632812500000e+01 -2.271628761291503906e+01 -1.613742858171463013e-01 3.408499434590339661e-02 -3.818678855895996094e-02 -3.723894059658050537e-02
2.640000000000000000e+03 5.176239013671875000e+00 1.827169990539550781e+01 -3.013472269230987877e-05 -2.357945277253747918e-06 -9.747800504555925727e-06 8.202336175600066781e-06
2.641000000000000000e+03 7.152320098876953125e+01 -5.772683620452880859e+00 8.638045191764831543e-02 9.952289462089538574e-01 3.244828283786773682e-01 -1.124190445989370346e-02
2.642000000000000000e+03 5.885101318359375000e+00 -1.737681198120117188e+01 2.310616255272179842e-04 1.022187934722751379e-04 9.998412133427336812e-05 3.754845602088607848e-05
2.643000000000000000e+03 5.628950119018554688e+00 -1.553827667236328125e+01 2.627014764584600925e-04 -1.585191639605909586e-04 3.125469447695650160e-05 5.110665370011702180e-05
2.644000000000000000e+03 7.506549835205078125e+01 1.052439880371093750e+01 -3.997595980763435364e-02 1.009705364704132080e-01 1.829837262630462646e-02 5.996832251548767090e-02
2.645000000000000000e+03 7.473587036132812500e+01 1.744455909729003906e+01 3.424353152513504028e-02 2.952117025852203369e-01 9.883657097816467285e-02 -1.365675777196884155e-02
2.646000000000000000e+03 3.636541366577148438e+01 1.050063896179199219e+01 -9.952041727956384420e-05 -2.762808890111045912e-06 -3.068496516789309680e-05 1.072013328666798770e-04
2.647000000000000000e+03 7.355559539794921875e+01 -6.851447820663452148e-01 1.356170475482940674e-01 7.413738965988159180e-01 2.630972862243652344e-01 -1.183808743953704834e-01
2.648000000000000000e+03 7.502056884765625000e+01 -3.881421089172363281e-01 1.137941926717758179e-01 4.193591699004173279e-02 4.671903327107429504e-02 -1.764665991067886353e-01
2.649000000000000000e+03 7.477804565429687500e+01 4.045608043670654297e+00 1.089756637811660767e-01 2.531474828720092773e-01 1.086369454860687256e-01 -3.209470584988594055e-02
2.650000000000000000e+03 4.228164672851562500e+01 2.823240041732788086e+00 -7.572026515845209360e-05 -4.492560765356756747e-05 -3.619376002461649477e-05 1.233979583048494533e-05
2.651000000000000000e+03 5.338867187500000000e+00 8.789315223693847656e+00 -1.468266304982535075e-06 2.217027758888434619e-05 6.210603260115021840e-06 -1.865003287093713880e-05
2.652000000000000000e+03 3.152696132659912109e+00 5.562792301177978516e+00 -1.295208585361251608e-05 9.513073564448859543e-06 -1.031703732223832048e-06 -4.631179763237014413e-06
2.653000000000000000e+03 6.156267642974853516e+00 -9.180809974670410156e+00 -2.096500247716903687e-04 -1.306290050706593320e-05 -6.681387458229437470e-05 -6.543511699419468641e-05
2.654000000000000000e+03 7.198740386962890625e+01 -1.752038478851318359e+00 1.251946836709976196e-01 1.404325842857360840e+00 4.588561654090881348e-01 -9.245577268302440643e-03
2.655000000000000000e+03 7.403247833251953125e+01 -3.511233091354370117e+00 4.667085409164428711e-02 3.020913302898406982e-01 1.046286597847938538e-01 -2.240400463342666626e-01
2.656000000000000000e+03 7.282662200927734375e+01 1.243199634552001953e+01 -9.740505367517471313e-02 1.305234074592590332e+00 3.623487353324890137e-01 -1.756041124463081360e-02
2.657000000000000000e+03 7.404692840576171875e+01 1.197257900238037109e+01 -7.984357327222824097e-02 7.155812382698059082e-01 1.907213032245635986e-01 -1.485180226154625416e-03
2.658000000000000000e+03 3.723121643066406250e+01 1.146004199981689453e+01 1.459931954741477966e-04 -3.489520850052940659e-06 4.275110404705628753e-05 -7.863824430387467146e-05
2.659000000000000000e+03 1.657668113708496094e+01 -1.129948997497558594e+01 2.596529702714178711e-05 1.279700518352910876e-05 1.162869011750444770e-05 3.277708310633897781e-05
2.660000000000000000e+03 1.170450115203857422e+01 -1.278377628326416016e+01 5.489861905516590923e-06 -6.775896326871588826e-05 -1.868073013611137867e-05 -6.534405110869556665e-05
2.661000000000000000e+03 7.626059722900390625e+01 -3.268709564208984375e+01 -7.819044403731822968e-04 -2.757575130090117455e-04 -3.172985743731260300e-04 1.159106031991541386e-03
2.662000000000000000e+03 7.464209747314453125e+01 1.998601531982421875e+01 3.382381051778793335e-02 3.819518685340881348e-01 1.247327104210853577e-01 -7.619859185069799423e-03
2.663000000000000000e+03 4.327615737915039062e+01 4.484772205352783203e+00 -5.738842446589842439e-05 -4.196914596832357347e-05 -2.980727185786236078e-05 -4.957816781825385988e-05
2.664000000000000000e+03 4.698887634277343750e+01 -2.511620044708251953e+00 -5.382536255638115108e-05 -1.023909771902253851e-05 -1.921933835546951741e-05 -2.310180570930242538e-05
2.665000000000000000e+03 4.557318878173828125e+01 -1.769781231880187988e+00 -3.923786789528094232e-05 -8.096390956779941916e-06 -1.420027820131508633e-05 -1.203429565066471696e-05
2.666000000000000000e+03 6.769793701171875000e+01 -1.923749732971191406e+01 -3.491038680076599121e-01 -1.313155144453048706e-01 -1.441258192062377930e-01 -1.572000533342361450e-01
2.667000000000000000e+03 6.963787841796875000e+01 -1.914189720153808594e+01 -3.797717690467834473e-01 -3.416554629802703857e-02 -1.241811960935592651e-01 -2.772182822227478027e-01
2.668000000000000000e+03 6.997632598876953125e+01 -8.212604522705078125e+00 1.402000337839126587e-01 1.014553785324096680e+00 3.464261591434478760e-01 1.319396942853927612e-01
2.669000000000000000e+03 3.046476936340332031e+01 -1.477066898345947266e+01 -5.089098976895911619e-06 -4.255804242347949184e-07 -1.654403718021058012e-06 -3.629925686254864559e-06
2.670000000000000000e+03 2.183750629425048828e+00 2.041895294189453125e+01 -6.227758422028273344e-05 3.596231181290932000e-05 -7.894581358414143324e-06 -1.152022196038160473e-05
2.671000000000000000e+03 3.634310245513916016e+00 1.927214622497558594e+01 -5.057706584921106696e-05 1.713997335173189640e-05 -1.003112720354693010e-05 -2.414212030998896807e-05
2.672000000000000000e+03 3.670063972473144531e+00 1.055906295776367188e+01 -3.146397648379206657e-05 1.305421756114810705e-05 -5.522927040146896616e-06 -2.460783207425265573e-06
2.673000000000000000e+03 3.583237409591674805e+00 -1.351946449279785156e+01 -2.169374347431585193e-04 2.308730654476676136e-05 -5.815503755002282560e-05 -3.476747588138096035e-05
2.674000000000000000e+03 2.152827024459838867e+00 -9.820901870727539062e+00 -1.919713104143738747e-04 -6.462314922828227282e-05 -7.697833643760532141e-05 4.472454020287841558e-05
2.675000000000000000e+03 3.761199712753295898e+00 2.141937065124511719e+01 -5.506697561941109598e-05 3.505623317323625088e-05 -6.003222551953513175e-06 -1.995951606659218669e-05
2.676000000000000000e+03 3.548670530319213867e+00 -6.841225147247314453e+00 1.239272532984614372e-04 2.634845077409408987e-05 4.508271013037301600e-05 4.325138797867111862e-05
2.677000000000000000e+03 3.574345397949218750e+01 -1.568026065826416016e+01 6.667833531537326053e-06 2.004654334086808376e-06 2.601746473374078050e-06 -1.265661126126360614e-06
2.678000000000000000e+03 4.477830886840820312e+01 -2.637237739562988281e+01 4.724554419517517090e-01 -7.215239405632019043e-01 -7.472056150436401367e-02 -3.180934861302375793e-02
2.679000000000000000e+03 4.462084960937500000e+01 -2.553723907470703125e+01 6.105185151100158691e-01 -9.523947238922119141e-01 -1.025628522038459778e-01 -2.857743799686431885e-01
2.680000000000000000e+03 7.715126800537109375e+01 -7.783891677856445312e+00 1.517312787473201752e-02 -7.127393484115600586e-01 -2.092698663473129272e-01 -2.507261931896209717e-01
2.681000000000000000e+03 7.638840484619140625e+01 -1.954273033142089844e+01 -7.846244424581527710e-02 -8.185783773660659790e-02 -4.809608682990074158e-02 -1.754252910614013672e-01
2.682000000000000000e+03 7.632127380371093750e+01 -1.254275131225585938e+01 3.201316110789775848e-03 -3.361668586730957031e-01 -9.988965839147567749e-02 -2.983284890651702881e-01
2.683000000000000000e+03 7.773046112060546875e+01 1.752096563577651978e-01 3.527610376477241516e-02 -1.348996520042419434e+00 -3.941161334514617920e-01 -1.059477552771568298e-01
2.684000000000000000e+03 7.150570678710937500e+01 8.561085700988769531e+00 2.878225408494472504e-02 2.072790861129760742e+00 6.304719448089599609e-01 1.635773666203022003e-02
2.685000000000000000e+03 7.594126892089843750e+01 7.759181499481201172e+00 1.538938563317060471e-02 -3.721127212047576904e-01 -1.070170029997825623e-01 6.195526942610740662e-02
2.686000000000000000e+03 7.774168395996093750e+01 -1.613529777526855469e+01 -1.076046749949455261e-02 -3.077990412712097168e-01 -9.556785225868225098e-02 -1.917692422866821289e-01
2.687000000000000000e+03 7.624105072021484375e+01 9.025341033935546875e+00 -2.561977505683898926e-02 -5.844348669052124023e-01 -1.830163896083831787e-01 5.191293358802795410e-02
2.688000000000000000e+03 7.134032440185546875e+01 1.873921966552734375e+01 1.741777360439300537e-02 2.104308128356933594e+00 6.365177631378173828e-01 -5.847676657140254974e-03
2.689000000000000000e+03 7.113079833984375000e+01 2.154860496520996094e+01 3.412808850407600403e-02 2.241033077239990234e+00 6.825483441352844238e-01 -5.550871789455413818e-02
2.690000000000000000e+03 5.282791519165039062e+01 -2.378855705261230469e+01 1.673413395881652832e+00 -4.425082802772521973e-01 3.692715167999267578e-01 4.673622250556945801e-01
2.691000000000000000e+03 5.284028625488281250e+01 -2.245691108703613281e+01 4.977321922779083252e-01 -1.989351361989974976e-01 8.963911235332489014e-02 1.321809887886047363e+00
2.692000000000000000e+03 4.841588211059570312e+01 -2.525463867187500000e+01 2.078164100646972656e+00 1.580880641937255859e+00 1.097713470458984375e+00 1.172744989395141602e+00
2.693000000000000000e+03 4.768073272705078125e+01 -2.439516067504882812e+01 2.611866950988769531e+00 -3.651514649391174316e-02 7.726055383682250977e-01 4.767785593867301941e-02
2.694000000000000000e+03 4.957172393798828125e+01 -2.703692054748535156e+01 1.036393195390701294e-01 1.907515168190002441e+00 6.033463478088378906e-01 -6.831976026296615601e-02
2.695000000000000000e+03 5.249544906616210938e+01 -2.339796447753906250e+01 1.808467626571655273e+00 -4.058308303356170654e-01 4.207910299301147461e-01 8.467513322830200195e-01
2.696000000000000000e+03 5.217655563354492188e+01 -2.293935203552246094e+01 1.578497529029846191e+00 -1.545307785272598267e-01 4.271900355815887451e-01 1.355180501937866211e+00
2.697000000000000000e+03 5.381447601318359375e+01 -2.412470817565917969e+01 1.066219806671142578e+00 -4.002412855625152588e-01 1.997935324907302856e-01 3.552476465702056885e-01
2.698000000000000000e+03 4.739928817749023438e+01 -2.457701873779296875e+01 2.275856494903564453e+00 -1.645779311656951904e-01 6.333835721015930176e-01 8.353181183338165283e-02
2.699000000000000000e+03 4.588870620727539062e+01 -2.383087539672851562e+01 8.827205300331115723e-01 -9.836773872375488281e-01 -3.028706833720207214e-02 -9.177669286727905273e-01
2.700000000000000000e+03 5.052427291870117188e+01 -2.801988220214843750e+01 3.397263959050178528e-02 1.270325541496276855e+00 3.912894427776336670e-01 -3.760928511619567871e-01
2.701000000000000000e+03 5.630420684814453125e+01 -2.460254096984863281e+01 3.588753938674926758e-01 -1.110779643058776855e-01 7.433922588825225830e-02 3.137979805469512939e-01
2.702000000000000000e+03 5.354024505615234375e+01 -2.358052825927734375e+01 1.085823535919189453e+00 -4.408711791038513184e-01 1.934857219457626343e-01 6.508845090866088867e-01
2.703000000000000000e+03 5.513979721069335938e+01 -2.437252616882324219e+01 6.009090542793273926e-01 -2.505718767642974854e-01 1.051011532545089722e-01 3.491320013999938965e-01
2.704000000000000000e+03 5.587723922729492188e+01 -2.335613822937011719e+01 2.182520627975463867e-01 -9.251984953880310059e-02 3.771966695785522461e-02 5.957658290863037109e-01
2.705000000000000000e+03 5.083360290527343750e+01 -1.535963821411132812e+01 -7.186319180618738756e-06 3.492192263365723193e-06 -1.108238052438537125e-06 4.874261321674566716e-06
2.706000000000000000e+03 5.333978271484375000e+01 -2.263244438171386719e+01 5.242221951484680176e-01 -2.964180707931518555e-01 6.834123283624649048e-02 1.141782164573669434e+00
2.707000000000000000e+03 1.568625831604003906e+01 -8.814858436584472656e+00 6.984982610447332263e-05 -2.182816751883365214e-05 1.440649793948978186e-05 3.296385330031625926e-05
2.708000000000000000e+03 1.632178688049316406e+01 -8.701124191284179688e+00 6.821249826316488907e-06 4.510294274950865656e-06 3.399463139430736192e-06 -4.379092206363566220e-05
2.709000000000000000e+03 1.584689903259277344e+01 -6.830670356750488281e+00 2.791445695038419217e-05 2.033340388152282685e-05 1.447435806767316535e-05 1.084702580556040630e-05
2.710000000000000000e+03 4.768299102783203125e+01 -2.318645668029785156e+01 1.685524344444274902e+00 -3.057080507278442383e-01 4.139449000358581543e-01 -1.272508025169372559e+00
2.711000000000000000e+03 4.951604080200195312e+01 -2.870169258117675781e+01 -1.104287505149841309e-01 1.220358252525329590e+00 3.329788446426391602e-01 -1.116128545254468918e-02
2.712000000000000000e+03 4.488767242431640625e+01 -2.430511665344238281e+01 5.827611088752746582e-01 -1.031059622764587402e+00 -1.344895511865615845e-01 -7.277020215988159180e-01
2.713000000000000000e+03 5.381457138061523438e+01 -2.228779029846191406e+01 1.195763722062110901e-01 -1.974969655275344849e-01 -2.337617799639701843e-02 1.104438781738281250e+00
2.714000000000000000e+03 5.481847000122070312e+01 -2.381657600402832031e+01 6.294589638710021973e-01 -2.900726795196533203e-01 1.018158793449401855e-01 5.264371633529663086e-01
2.715000000000000000e+03 5.090934371948242188e+01 -2.858882904052734375e+01 9.788060560822486877e-03 1.068704724311828613e+00 3.235478401184082031e-01 -3.427640497684478760e-01
2.716000000000000000e+03 1.548960494995117188e+01 -6.473732471466064453e+00 -5.294427683111280203e-05 -5.546678949031047523e-06 -1.754728691594209522e-05 -1.678075568634085357e-05
2.717000000000000000e+03 7.566815185546875000e+01 -2.318524932861328125e+01 -6.643053144216537476e-02 -4.445061553269624710e-03 -2.126267738640308380e-02 -2.930925972759723663e-02
2.718000000000000000e+03 1.522939491271972656e+01 -7.448867797851562500e+00 -4.009902841062285006e-05 -6.612501692870864645e-06 -1.401345889462390915e-05 3.373695562913781032e-06
2.719000000000000000e+03 1.531232738494873047e+01 -6.940298557281494141e+00 3.730070238816551864e-05 2.094008323183516040e-06 1.181841253128368407e-05 -4.114645832942187553e-07
2.720000000000000000e+03 1.086044597625732422e+01 3.247944593429565430e+00 -7.196025762823410332e-06 4.578604603011626750e-06 -7.852264047869539354e-07 -1.185912333312444389e-05
2.721000000000000000e+03 9.624873161315917969e+00 4.312233448028564453e+00 2.480948023730888963e-05 8.441869795206002891e-06 9.975405191653408110e-06 2.413385118416044861e-06
2.722000000000000000e+03 6.712227630615234375e+01 -1.119675159454345703e+01 3.230839371681213379e-01 8.993415832519531250e-01 3.667276501655578613e-01 3.764709532260894775e-01
2.723000000000000000e+03 7.654851531982421875e+01 -3.197205162048339844e+01 -1.166543690487742424e-03 -1.442680950276553631e-04 -3.932435356546193361e-04 1.341258175671100616e-03
2.724000000000000000e+03 7.656231689453125000e+01 -3.114303970336914062e+01 -4.516105982474982738e-04 -4.864572547376155853e-04 -2.814203617163002491e-04 4.994358750991523266e-04
2.725000000000000000e+03 1.866165733337402344e+01 7.205345034599304199e-01 -1.465802324673859403e-05 1.944278977816793486e-07 -4.339078714110655710e-06 -2.584568846941692755e-06
2.726000000000000000e+03 4.004290580749511719e+00 3.822801351547241211e+00 1.233775310538476333e-05 4.024913778266636655e-06 4.908800292469095439e-06 -1.884413359221071005e-05
2.727000000000000000e+03 4.098572540283203125e+01 -1.599696159362792969e+01 8.924057510739658028e-06 6.804944405303103849e-06 4.718700438388623297e-06 -2.829430627571127843e-07
2.728000000000000000e+03 4.156323242187500000e+01 -1.471192073822021484e+01 1.433036231901496649e-05 4.281345809431513771e-06 5.583512574958149344e-06 -2.517057964723790064e-06
2.729000000000000000e+03 2.557897567749023438e+01 -9.767144203186035156e+00 9.815562407311517745e-06 3.429047410463681445e-06 3.973382717958884314e-06 5.066120138508267701e-06
2.730000000000000000e+03 2.618154525756835938e+01 -1.126825904846191406e+01 6.706807198497699574e-06 2.408284444754826836e-06 2.734527470238390379e-06 4.364337200968293473e-06
2.731000000000000000e+03 2.665305328369140625e+01 -1.022373771667480469e+01 1.316322504862910137e-05 1.698451683296298143e-06 4.458503099158406258e-06 4.593942776409676298e-06
2.732000000000000000e+03 5.579077148437500000e+01 -2.393580245971679688e+01 3.762458860874176025e-01 -1.504597961902618408e-01 6.773582100868225098e-02 4.487608969211578369e-01
2.733000000000000000e+03 6.352674102783203125e+01 -1.892291069030761719e+01 -4.480607807636260986e-02 3.539730310440063477e-01 9.275008738040924072e-02 1.955008655786514282e-01
2.734000000000000000e+03 5.685934066772460938e+01 -2.279661560058593750e+01 -3.138405457139015198e-02 1.062956750392913818e-01 2.247348427772521973e-02 5.910477042198181152e-01
2.735000000000000000e+03 1.776069831848144531e+01 -1.121797752380371094e+01 1.466995490773115307e-05 1.183752738143084571e-05 7.952244232001248747e-06 -1.192381751025095582e-05
2.736000000000000000e+03 7.507825374603271484e+00 -4.230487823486328125e+00 8.137464465107768774e-05 2.610081901366356760e-05 3.224263855372555554e-05 2.166429794669966213e-06
2.737000000000000000e+03 2.417833709716796875e+01 -4.705805301666259766e+00 2.158100323867984116e-05 9.134339961747173220e-06 9.214602869178634137e-06 9.535511708236299455e-06
2.738000000000000000e+03 6.367552185058593750e+01 -1.799228858947753906e+01 1.220487952232360840e-01 3.815894126892089844e-01 1.510914564132690430e-01 2.288038879632949829e-01
2.739000000000000000e+03 2.184596443176269531e+01 -2.254858732223510742e+00 2.399163713562302291e-05 3.380026100785471499e-06 8.211499334720429033e-06 -9.285497071687132120e-06
2.740000000000000000e+03 1.605006790161132812e+01 1.011991739273071289e+00 -5.564847015193663538e-06 6.416555606847396120e-06 2.555125604430941166e-07 -8.488150342600420117e-06
2.741000000000000000e+03 7.834757995605468750e+01 -3.207829284667968750e+01 -5.664476193487644196e-04 -4.508006677497178316e-04 -3.051745006814599037e-04 6.493105320259928703e-04
2.742000000000000000e+03 2.793938064575195312e+01 -1.231068325042724609e+01 9.849770322034601122e-06 -5.756650693911069538e-07 2.782231376841082238e-06 -1.295048832616885193e-06
2.743000000000000000e+03 4.525595855712890625e+01 -1.733141326904296875e+01 -1.525369043520186096e-06 -1.717646455290378071e-06 -9.729046723805367947e-07 1.275900785913108848e-06
2.744000000000000000e+03 6.437293243408203125e+01 -1.739798927307128906e+01 1.588583588600158691e-01 3.473228812217712402e-01 1.518543660640716553e-01 2.587244510650634766e-01
2.745000000000000000e+03 1.511723232269287109e+01 2.562459707260131836e+00 3.057092180824838579e-05 1.040722622747125570e-06 9.483493158768396825e-06 -6.361812211252981797e-06
2.746000000000000000e+03 2.289819717407226562e+01 -3.334552526473999023e+00 2.345079337828792632e-06 -2.107767249981407076e-05 -5.619777766696643084e-06 -1.183607309940271080e-05
2.747000000000000000e+03 2.309131050109863281e+01 -4.263082981109619141e+00 1.798306948330719024e-05 1.198888458020519465e-05 8.991586582851596177e-06 5.658225290972040966e-06
2.748000000000000000e+03 1.386716747283935547e+01 -5.654664039611816406e+00 4.059624552610330284e-05 3.922243558918125927e-05 2.394560397078748792e-05 1.055782922776415944e-05
2.749000000000000000e+03 5.757003784179687500e+01 -2.350962257385253906e+01 -3.992710262537002563e-02 1.579325646162033081e-01 3.540163859724998474e-02 4.054247736930847168e-01
2.750000000000000000e+03 5.757821655273437500e+01 -2.222236251831054688e+01 -2.069273442029953003e-01 2.602585852146148682e-01 1.599937304854393005e-02 5.627950429916381836e-01
2.751000000000000000e+03 1.242002296447753906e+01 3.889803409576416016e+00 -1.111566325562307611e-05 1.059080386767163873e-05 -1.574577765950380126e-07 -1.041293307935120538e-05
2.752000000000000000e+03 8.812376022338867188e+00 -3.299973011016845703e+00 -9.323849371867254376e-05 2.302678240084787831e-06 -2.728074468905106187e-05 -2.057885694739525206e-06
2.753000000000000000e+03 9.372881889343261719e+00 -4.201574802398681641e+00 -9.352825145469978452e-05 -1.280208380194380879e-05 -3.189910057699307799e-05 -3.012105298694223166e-05
2.754000000000000000e+03 5.984388732910156250e+01 -2.300500869750976562e+01 -3.554639518260955811e-01 3.865162432193756104e-01 9.315690957009792328e-03 2.987308502197265625e-01
2.755000000000000000e+03 1.198654556274414062e+01 3.396794080734252930e+00 2.233463601442053914e-05 -1.961219140866887756e-06 6.112025403126608580e-06 -9.267780114896595478e-06
2.756000000000000000e+03 4.201454544067382812e+01 -1.662246322631835938e+01 1.173256441688863561e-05 2.995993327203905210e-06 4.418567186803556979e-06 -2.771540152934903745e-07
2.757000000000000000e+03 4.352950286865234375e+01 -1.779341316223144531e+01 4.819471087103011087e-06 3.079152293139486574e-06 2.369587036810116842e-06 1.521409558336017653e-06
2.758000000000000000e+03 6.273016357421875000e+01 -2.156356430053710938e+01 -5.197577476501464844e-01 2.086526006460189819e-01 -9.333153814077377319e-02 1.250565145164728165e-02
2.759000000000000000e+03 2.011726570129394531e+01 -5.096386075019836426e-01 9.936972674040589482e-06 4.660938429879024625e-06 4.379373422125354409e-06 4.889130650553852320e-06
2.760000000000000000e+03 2.977972602844238281e+01 -1.441820907592773438e+01 2.899705350500880741e-06 1.969214508790173568e-06 1.460675889575213660e-06 -5.593818741544964723e-07
2.761000000000000000e+03 2.925291538238525391e+00 4.401199817657470703e+00 -2.728348817981895991e-06 8.466657163808122277e-06 1.721492481010500342e-06 -8.276932135231618304e-07
2.762000000000000000e+03 3.856212615966796875e+00 -4.093786239624023438e+00 -1.096537453122437000e-04 1.345246528217103332e-05 -2.886038419092074037e-05 -7.966717021190561354e-06
2.763000000000000000e+03 9.260634422302246094e+00 -2.396174430847167969e+00 -4.122134851058945060e-05 -2.231428624099862645e-07 -1.243334736500401050e-05 -3.852782356261741370e-06
2.764000000000000000e+03 4.122178649902343750e+01 -1.678804206848144531e+01 -1.185934615932637826e-05 -3.839484179479768500e-06 -4.709649147116579115e-06 1.575859641889110208e-06
2.765000000000000000e+03 1.827342796325683594e+01 -1.011884689331054688e+01 5.510176197276450694e-05 8.458150659862440079e-06 1.906797479023225605e-05 4.567578071146272123e-05
2.766000000000000000e+03 1.867070579528808594e+01 -1.081338596343994141e+01 -3.772901618503965437e-05 -6.865215254947543144e-05 -3.191435098415240645e-05 -1.799076562747359276e-05
2.767000000000000000e+03 8.714399337768554688e+00 3.539343833923339844e+00 1.783522020559757948e-05 1.133552814280847088e-05 8.751224413572344929e-06 -1.551489390294591431e-07
2.768000000000000000e+03 2.530916404724121094e+01 -7.553760051727294922e+00 1.316688030783552676e-05 5.804575266665779054e-06 5.691436854249332100e-06 -8.706568223715294152e-06
2.769000000000000000e+03 2.619532585144042969e+01 -6.966777801513671875e+00 2.699527976801618934e-05 2.625817842272226699e-06 8.886328942026011646e-06 5.330006842996226624e-06
2.770000000000000000e+03 3.768321228027343750e+01 -1.358784675598144531e+01 -4.170313331997022033e-06 8.931290835789695848e-07 -9.831553597905440256e-07 4.845627245231298730e-06
2.771000000000000000e+03 3.533180713653564453e+00 4.743756294250488281e+00 2.432030851196032017e-05 1.011223230307223275e-05 1.032976251735817641e-05 -4.669087047659559175e-06
2.772000000000000000e+03 4.248123550415039062e+01 -1.936625099182128906e+01 6.785451205360004678e-06 -1.921773900903644972e-06 1.459103145862172823e-06 8.371388275918434374e-07
2.773000000000000000e+03 3.039523887634277344e+01 -1.387373161315917969e+01 5.894714263376954477e-07 2.324795076447117026e-07 2.465852730892947875e-07 4.737080871564103290e-06
2.774000000000000000e+03 5.562749099731445312e+01 -2.292259025573730469e+01 1.851642429828643799e-01 -9.726726263761520386e-02 2.636909298598766327e-02 6.838180422782897949e-01
2.775000000000000000e+03 5.645164489746093750e+01 -2.342366981506347656e+01 1.232498809695243835e-01 -6.898043677210807800e-03 3.490554913878440857e-02 5.239632725715637207e-01
2.776000000000000000e+03 6.218585491180419922e+00 3.807935237884521484e+00 -8.663498192618135363e-06 -6.781682714063208550e-06 -4.633553999155992642e-06 -7.746475603198632598e-06
2.777000000000000000e+03 4.460618972778320312e+01 -2.486617851257324219e+01 5.517402887344360352e-01 -1.034175753593444824e+00 -1.447306573390960693e-01 -5.689839720726013184e-01
2.778000000000000000e+03 1.086819076538085938e+01 -5.125764846801757812e+00 -7.140667003113776445e-05 -3.380179623491130769e-05 -3.156254024361260235e-05 -2.358141682634595782e-05
2.779000000000000000e+03 4.183708572387695312e+01 -1.815920829772949219e+01 1.270112534257350489e-05 -4.577405888994690031e-06 2.437115654174704105e-06 -3.796994860749691725e-06
2.780000000000000000e+03 4.290206527709960938e+01 -1.816206932067871094e+01 -1.111161600420018658e-05 2.944907464552670717e-07 -3.245137577323475853e-06 1.423285880264302250e-06
2.781000000000000000e+03 4.655330276489257812e+01 -2.626444244384765625e+01 9.455786347389221191e-01 -5.560038611292839050e-03 2.820055782794952393e-01 4.022052288055419922e-01
2.782000000000000000e+03 2.864092826843261719e+01 -1.234755229949951172e+01 -9.763868547452148050e-06 1.200423639602377079e-06 -2.569033313193358481e-06 6.442631388381414581e-07
2.783000000000000000e+03 4.957390213012695312e+01 -1.603692054748535156e+01 -1.737430579851206858e-06 2.155443553419900127e-06 1.254038579645566642e-07 5.241387952992226928e-06
2.784000000000000000e+03 4.930154037475585938e+01 -1.677453231811523438e+01 6.340827667372650467e-07 5.845741384291613940e-07 3.655970601812441600e-07 -4.043118678964674473e-06
2.785000000000000000e+03 4.877161407470703125e+01 -1.504434967041015625e+01 -9.548538400849793106e-06 3.357351715749246068e-06 -1.857355982792796567e-06 2.039893161054351367e-06
2.786000000000000000e+03 4.767602157592773438e+01 -1.666959571838378906e+01 6.979139016038971022e-06 -1.326093638454040047e-06 1.695913510957325343e-06 -2.399023287580348551e-06
2.787000000000000000e+03 4.805019760131835938e+01 -2.739778709411621094e+01 2.406595647335052490e-01 1.206478357315063477e+00 4.341413974761962891e-01 5.070850849151611328e-01
2.788000000000000000e+03 6.690588378906250000e+01 -1.564458751678466797e+01 1.596348583698272705e-01 2.926197052001953125e-01 1.356763690710067749e-01 1.131199970841407776e-01
2.789000000000000000e+03 4.520494461059570312e+01 -2.517101287841796875e+01 8.148386478424072266e-01 -8.846431970596313477e-01 -2.094137482345104218e-02 -3.544797003269195557e-01
2.790000000000000000e+03 4.015751266479492188e+01 -1.641407966613769531e+01 -5.891760793019784614e-06 -9.150369805865921080e-06 -4.512639407039387152e-06 5.477408535625727382e-07
2.791000000000000000e+03 7.536455535888671875e+01 -2.166246414184570312e+01 -1.300876140594482422e-01 1.491064787842333317e-03 -3.857896476984024048e-02 -8.853530138731002808e-02
2.792000000000000000e+03 7.577885437011718750e+01 -1.454094409942626953e+01 -1.709436438977718353e-02 -2.217978537082672119e-01 -7.166766375303268433e-02 -3.181112408638000488e-01
2.793000000000000000e+03 7.655924987792968750e+01 -2.247629928588867188e+01 -6.688047200441360474e-02 -1.539921574294567108e-02 -2.468390576541423798e-02 -4.908258095383644104e-02
2.794000000000000000e+03 6.314208507537841797e+00 1.473957729339599609e+01 -6.560097517649410293e-06 5.556908490689238533e-06 -3.009566000855556922e-07 -5.846181920787785202e-06
2.795000000000000000e+03 5.430097579956054688e+00 7.240301132202148438e+00 1.009708012134069577e-05 2.186300662287976593e-05 9.588025932316668332e-06 -1.716246333671733737e-05
2.796000000000000000e+03 4.518885803222656250e+01 -7.371576309204101562e+00 -8.075612640823237598e-06 3.327043486933689564e-06 -1.424570655217394233e-06 8.661701031087432057e-06
2.797000000000000000e+03 7.311665344238281250e+01 -7.987735271453857422e+00 5.511788651347160339e-02 3.693312704563140869e-01 1.273347437381744385e-01 -2.110713124275207520e-01
2.798000000000000000e+03 6.736314296722412109e+00 -1.540177726745605469e+01 -2.655446005519479513e-04 5.028972373111173511e-05 -6.457645940827205777e-05 -1.618792521185241640e-05
2.799000000000000000e+03 4.614915847778320312e+00 -5.974329471588134766e+00 1.158193554147146642e-04 2.560073335189372301e-05 4.242602517479099333e-05 5.963284274912439287e-05
2.800000000000000000e+03 5.736673831939697266e+00 -6.757503509521484375e+00 7.434314466081559658e-05 1.817315205698832870e-05 2.775488974293693900e-05 3.985135845141485333e-05
2.801000000000000000e+03 7.377075552940368652e-01 2.052925682067871094e+01 6.763143028365448117e-05 3.579674012144096196e-05 3.102845221292227507e-05 -3.363937139511108398e-06
2.802000000000000000e+03 3.597193527221679688e+01 9.571734428405761719e+00 1.478451013099402189e-04 1.248438275069929659e-05 4.809884558198973536e-05 -3.092541373916901648e-05
2.803000000000000000e+03 8.410151481628417969e+00 -1.394480323791503906e+01 8.109054761007428169e-05 -4.493424785323441029e-05 1.084688938135514036e-05 7.845736399758607149e-05
2.804000000000000000e+03 8.861388206481933594e+00 -1.496446514129638672e+01 -1.625465665711089969e-04 3.945281059714034200e-05 -3.692812606459483504e-05 1.280717788176843897e-05
2.805000000000000000e+03 4.149193191528320312e+01 2.448493242263793945e-01 -5.200185842113569379e-05 -7.393913165287813172e-06 -1.781873106665443629e-05 3.392556027392856777e-05
2.806000000000000000e+03 7.444368743896484375e+01 7.844980359077453613e-01 1.772736161947250366e-01 3.733592331409454346e-01 1.651898473501205444e-01 -1.362412571907043457e-01
2.807000000000000000e+03 7.379367828369140625e+01 1.248309612274169922e+00 1.962468177080154419e-01 8.511110544204711914e-01 3.142073750495910645e-01 -9.662479162216186523e-02
2.808000000000000000e+03 7.956472778320312500e+01 -8.335915565490722656e+00 -6.932837888598442078e-03 -1.342507600784301758e+00 -4.048321545124053955e-01 -2.960988692939281464e-02
2.809000000000000000e+03 7.110197544097900391e+00 8.901994705200195312e+00 -5.632251486531458795e-06 1.117575902753742412e-05 1.663052330513892230e-06 -1.874988083727657795e-05
2.810000000000000000e+03 4.320928573608398438e+01 -2.650776147842407227e+00 7.256954631884582341e-06 -3.127976924588438123e-06 1.238693243976740632e-06 -2.940065996881457977e-06
2.811000000000000000e+03 7.326993942260742188e+00 -9.292281150817871094e+00 1.401286135660484433e-04 7.614109927089884877e-05 6.488091457867994905e-05 8.891859761206433177e-05
2.812000000000000000e+03 4.077621841430664062e+01 2.915528774261474609e+00 6.914218829479068518e-05 5.778932245448231697e-05 3.807945176959037781e-05 -3.017652306880336255e-05
2.813000000000000000e+03 4.311245918273925781e+00 1.240135097503662109e+01 -8.517633432347793132e-06 1.537235584692098200e-05 2.056416406048811041e-06 8.007119504327420145e-06
2.814000000000000000e+03 7.520084381103515625e+01 1.926921463012695312e+01 1.672217994928359985e-02 7.400684058666229248e-03 7.236858829855918884e-03 -9.750463999807834625e-03
2.815000000000000000e+03 7.380950927734375000e+01 8.632410049438476562e+00 -2.993924310430884361e-03 8.567807674407958984e-01 2.561360597610473633e-01 5.963346734642982483e-02
2.816000000000000000e+03 6.811695098876953125e+01 -1.730402755737304688e+01 -5.954404175281524658e-02 5.866931751370429993e-02 -2.624177432153373957e-04 -1.221954673528671265e-01
2.817000000000000000e+03 6.749033355712890625e+01 -1.640349769592285156e+01 7.766794413328170776e-02 1.786544770002365112e-01 7.689672708511352539e-02 7.208198308944702148e-03
2.818000000000000000e+03 6.983359527587890625e+01 -1.733745193481445312e+01 -1.322456300258636475e-01 5.929782986640930176e-02 -2.188433893024921417e-02 -2.665316164493560791e-01
2.819000000000000000e+03 6.799591827392578125e+01 -9.976031303405761719e+00 2.628531157970428467e-01 9.801118373870849609e-01 3.728894889354705811e-01 3.268017470836639404e-01
2.820000000000000000e+03 7.408631896972656250e+01 2.440423727035522461e+00 1.542446613311767578e-01 6.300355792045593262e-01 2.352840602397918701e-01 -8.098860085010528564e-02
2.821000000000000000e+03 1.308984756469726562e+01 -1.018379974365234375e+01 -6.549711542902514338e-05 -1.067298508132807910e-04 -5.166808841750025749e-05 8.003999391803517938e-05
2.822000000000000000e+03 3.629659891128540039e+00 -4.985323429107666016e+00 1.372536353301256895e-04 -8.930409421736840159e-06 3.849696804536506534e-05 3.319423558423295617e-05
2.823000000000000000e+03 3.490470123291015625e+01 -1.328006362915039062e+01 -1.259867076441878453e-05 -2.704722191992914304e-06 -4.591017841448774561e-06 -2.796607759592006914e-06
2.824000000000000000e+03 4.744699859619140625e+01 -1.123386764526367188e+01 -7.216660378617234528e-06 -1.375088504573795944e-05 -6.290263627306558192e-06 -1.275611452911107335e-06
2.825000000000000000e+03 7.938002777099609375e+01 1.525281810760498047e+01 1.633854769170284271e-02 -2.213181972503662109e+00 -6.590530276298522949e-01 1.778557710349559784e-02
2.826000000000000000e+03 7.782322692871093750e+01 1.546374440193176270e+00 5.966683477163314819e-02 -1.419680356979370117e+00 -4.080040454864501953e-01 -8.374514430761337280e-02
2.827000000000000000e+03 7.811029815673828125e+01 -6.075428009033203125e+00 1.484260614961385727e-02 -1.125201702117919922e+00 -3.331077396869659424e-01 -1.734919100999832153e-01
2.828000000000000000e+03 4.873585510253906250e+01 -2.570208930969238281e+01 1.130201339721679688e+00 2.293592929840087891e+00 1.027138352394104004e+00 1.019882559776306152e+00
2.829000000000000000e+03 4.872152709960937500e+01 -2.599263954162597656e+01 8.318951129913330078e-01 2.143177270889282227e+00 8.925216794013977051e-01 8.188418149948120117e-01
2.830000000000000000e+03 5.304651260375976562e+01 -2.383408546447753906e+01 1.516330122947692871e+00 -4.418293833732604980e-01 3.223502337932586670e-01 4.663871824741363525e-01
2.831000000000000000e+03 5.219255447387695312e+01 -2.337792587280273438e+01 2.195319890975952148e+00 -3.115491867065429688e-01 5.651311874389648438e-01 9.503839015960693359e-01
2.832000000000000000e+03 5.014050292968750000e+01 -2.715738105773925781e+01 1.093733683228492737e-01 1.697829365730285645e+00 5.421608090400695801e-01 -3.642247319221496582e-01
2.833000000000000000e+03 5.045147705078125000e+01 -2.712731933593750000e+01 1.825064271688461304e-01 1.541510939598083496e+00 5.172051787376403809e-01 -4.873480200767517090e-01
2.834000000000000000e+03 4.840125656127929688e+01 -2.547006034851074219e+01 1.657923698425292969e+00 1.574561357498168945e+00 9.697455167770385742e-01 1.049085021018981934e+00
2.835000000000000000e+03 4.714429092407226562e+01 -2.343835830688476562e+01 1.501992821693420410e+00 -7.061297297477722168e-01 2.387589216232299805e-01 -1.072501182556152344e+00
2.836000000000000000e+03 4.768705749511718750e+01 -2.542918205261230469e+01 1.708849787712097168e+00 6.613473296165466309e-01 7.110591530799865723e-01 7.843860983848571777e-01
2.837000000000000000e+03 4.805756759643554688e+01 -2.439552879333496094e+01 3.028809785842895508e+00 3.259319663047790527e-01 1.006422519683837891e+00 3.368584215641021729e-01
2.838000000000000000e+03 4.786874389648437500e+01 -2.348135185241699219e+01 2.269481182098388672e+00 -2.000330388545989990e-01 6.208344101905822754e-01 -9.874677658081054688e-01
2.839000000000000000e+03 5.054090118408203125e+01 -2.741838645935058594e+01 1.374333649873733521e-01 1.436696887016296387e+00 4.722390770912170410e-01 -4.688341319561004639e-01
2.840000000000000000e+03 5.203965759277343750e+01 -2.323703575134277344e+01 2.208969831466674805e+00 -2.417606413364410400e-01 5.901627540588378906e-01 1.139048933982849121e+00
2.841000000000000000e+03 5.223334121704101562e+01 -2.246989822387695312e+01 7.015345692634582520e-01 2.259223721921443939e-02 2.172380387783050537e-01 1.559525132179260254e+00
2.842000000000000000e+03 4.769126510620117188e+01 -2.409885978698730469e+01 2.588090658187866211e+00 -1.769056618213653564e-01 7.233554720878601074e-01 -2.228132337331771851e-01
2.843000000000000000e+03 4.596814346313476562e+01 -2.443930053710937500e+01 1.183757781982421875e+00 -8.826690912246704102e-01 9.032660722732543945e-02 -5.436941385269165039e-01
2.844000000000000000e+03 1.606089210510253906e+01 -8.132167816162109375e+00 -1.799247547751292586e-05 -2.416370807623025030e-05 -1.264685579371871427e-05 4.004676156910136342e-05
2.845000000000000000e+03 1.563739299774169922e+01 -9.426235198974609375e+00 -8.524810255039483309e-05 8.699324098415672779e-06 -2.296463208040222526e-05 -1.453819277230650187e-05
2.846000000000000000e+03 1.572347545623779297e+01 -7.662744998931884766e+00 2.547699477872811258e-05 4.727958730654790998e-05 2.182697426178492606e-05 -3.603691948228515685e-05
2.847000000000000000e+03 4.678814697265625000e+01 -1.582854080200195312e+01 1.121078821597620845e-05 1.689989126418822707e-08 3.368306579432100989e-06 -8.621591973678732757e-08
2.848000000000000000e+03 4.653777313232421875e+01 -2.472328186035156250e+01 1.583343505859375000e+00 -6.500560641288757324e-01 2.799862325191497803e-01 -2.053405791521072388e-01
2.849000000000000000e+03 4.877471160888671875e+01 -2.671617317199707031e+01 3.458178043365478516e-01 1.871141433715820312e+00 6.650877594947814941e-01 4.518869817256927490e-01
2.850000000000000000e+03 5.364618301391601562e+01 -2.385633850097656250e+01 1.133000254631042480e+00 -4.270540177822113037e-01 2.117838561534881592e-01 4.781315326690673828e-01
2.851000000000000000e+03 5.528429412841796875e+01 -2.387168312072753906e+01 5.049201846122741699e-01 -2.409598976373672485e-01 7.918808609247207642e-02 5.176246166229248047e-01
2.852000000000000000e+03 1.386685466766357422e+01 -7.302083969116210938e+00 -5.572586815105751157e-05 -4.501042712945491076e-05 -3.022088822035584599e-05 4.858967076870612800e-05
2.853000000000000000e+03 1.414237689971923828e+01 -6.583054065704345703e+00 5.013744521420449018e-05 3.425855175009928644e-05 2.531879908929113299e-05 -1.998689913307316601e-05
2.854000000000000000e+03 5.634350204467773438e+01 -2.399859046936035156e+01 3.021472096443176270e-01 -9.455989301204681396e-02 6.227619946002960205e-02 4.205502569675445557e-01
2.855000000000000000e+03 4.147570037841796875e+01 -1.371443653106689453e+01 -1.116090879804687575e-05 -2.858447942344355397e-06 -4.205807272228412330e-06 9.310383575211744756e-06
2.856000000000000000e+03 3.954886245727539062e+01 -1.470752048492431641e+01 -5.890325155633036047e-06 -6.076065801607910544e-06 -3.589917241697548889e-06 -2.995277100126259029e-06
2.857000000000000000e+03 4.654813385009765625e+01 -2.556982994079589844e+01 1.287968397140502930e+00 -2.357996106147766113e-01 3.156506419181823730e-01 2.663253247737884521e-01
2.858000000000000000e+03 4.769903945922851562e+01 -1.581126022338867188e+01 -8.924717803893145174e-06 1.588925897522130981e-06 -2.200737753810244612e-06 1.271952669412712567e-06
2.859000000000000000e+03 2.912441253662109375e+01 -1.126287364959716797e+01 -6.697990102111361921e-06 1.725092943161143921e-06 -1.491869056735595223e-06 -3.358799176567117684e-06
2.860000000000000000e+03 1.296870136260986328e+01 -6.041109085083007812e+00 2.358494566578883678e-05 6.490528903668746352e-05 2.654707168403547257e-05 2.204511656600516289e-05
2.861000000000000000e+03 2.788418388366699219e+01 -8.089249610900878906e+00 2.230173959105741233e-05 4.039568921143654734e-06 7.902393008407671005e-06 7.363906661339569837e-06
2.862000000000000000e+03 2.849988174438476562e+01 -1.324721336364746094e+01 9.440714165975805372e-06 3.974448361532267882e-07 2.951447640953119844e-06 -2.406909516139421612e-06
2.863000000000000000e+03 2.984612464904785156e+01 -1.306133651733398438e+01 5.030071914546851986e-09 1.272984036404523067e-06 3.834042274775129044e-07 -4.284559054212877527e-06
2.864000000000000000e+03 1.213547039031982422e+01 -6.610744953155517578e+00 2.737106478889472783e-05 5.770002098870463669e-05 2.552132536948192865e-05 1.408658135915175080e-05
2.865000000000000000e+03 6.756105804443359375e+01 -1.361293315887451172e+01 2.173272669315338135e-01 5.263536572456359863e-01 2.231042832136154175e-01 1.429638564586639404e-01
2.866000000000000000e+03 2.689110946655273438e+01 -6.766510486602783203e+00 -1.525596780993510038e-05 -5.603866611636476591e-06 -6.257950190047267824e-06 -1.375454758090199903e-05
2.867000000000000000e+03 2.607230758666992188e+01 -6.399691581726074219e+00 -1.421077922714175656e-05 1.029050690704025328e-05 -1.176081582343613263e-06 -1.695707578619476408e-05
2.868000000000000000e+03 2.520086669921875000e+01 -6.490910053253173828e+00 3.393660563233424909e-06 6.938055321370484307e-06 3.099514742643805221e-06 -1.970387711480725557e-05
2.869000000000000000e+03 2.530114173889160156e+01 -5.585752964019775391e+00 1.038646314555080608e-05 -1.140400854637846351e-06 2.773818778223358095e-06 -2.667168701009359211e-05
2.870000000000000000e+03 2.478046035766601562e+01 -6.006933212280273438e+00 7.601039214932825416e-06 -1.473353563596901949e-07 2.236111185993649997e-06 1.724455069052055478e-05
2.871000000000000000e+03 4.456556701660156250e+01 -1.682262039184570312e+01 8.716367005945357960e-07 2.382213097007479519e-06 9.761549790709977970e-07 -3.854801889247028157e-06
2.872000000000000000e+03 5.504182815551757812e+01 -2.274734306335449219e+01 1.875147819519042969e-01 -1.560751497745513916e-01 9.431887418031692505e-03 7.931621074676513672e-01
2.873000000000000000e+03 5.399340438842773438e+01 -2.274816131591796875e+01 4.720546007156372070e-01 -2.918649017810821533e-01 5.405691266059875488e-02 9.415282011032104492e-01
2.874000000000000000e+03 5.488289642333984375e+01 -2.331179618835449219e+01 4.956845939159393311e-01 -2.641961574554443359e-01 6.944653391838073730e-02 6.725805401802062988e-01
2.875000000000000000e+03 1.033150100708007812e+01 4.196863174438476562e+00 -1.511420214228564873e-05 4.377077857498079538e-06 -3.221137149012065493e-06 -1.551674358779564500e-05
2.876000000000000000e+03 1.231313610076904297e+01 -5.818542480468750000e+00 -4.011697456007823348e-05 -5.909474202780984342e-05 -2.976351606776006520e-05 -3.679932342492975295e-05
2.877000000000000000e+03 2.384101104736328125e+01 -2.957998991012573242e+00 2.958651748485863209e-05 1.002280259854160249e-05 1.188279657071689144e-05 9.756995495990850031e-06
2.878000000000000000e+03 7.586145782470703125e+01 -3.203144454956054688e+01 -9.983802447095513344e-04 -6.572817801497876644e-04 -4.966986016370356083e-04 1.317588961683213711e-03
2.879000000000000000e+03 4.838181304931640625e+01 -2.685150337219238281e+01 4.122871458530426025e-01 1.513589859008789062e+00 5.777631402015686035e-01 5.798168182373046875e-01
2.880000000000000000e+03 4.983096313476562500e+01 -1.521231746673583984e+01 6.639009825448738411e-06 -2.739690444286679849e-06 1.169795723399147391e-06 -3.886900231009349227e-06
2.881000000000000000e+03 2.695033454895019531e+01 -7.561973094940185547e+00 2.302189750480465591e-05 5.371838597056921571e-06 8.518120921507943422e-06 8.717941454960964620e-06
2.882000000000000000e+03 4.776159667968750000e+01 -1.496340560913085938e+01 1.152863751485710964e-05 -3.611333340813871473e-06 2.375191115788766183e-06 -5.110844085720600560e-07
2.883000000000000000e+03 2.443362808227539062e+01 -5.414478302001953125e+00 3.721781069998542080e-07 -9.343745659862179309e-06 -2.691470172067056410e-06 -1.745036934153176844e-05
2.884000000000000000e+03 2.496610832214355469e+01 -4.450362205505371094e+00 -1.524833260191371664e-05 -1.189576960314298049e-05 -8.143230843415949494e-06 -8.806317055132240057e-06
2.885000000000000000e+03 4.184093856811523438e+01 -1.570502758026123047e+01 -1.215118209074717015e-05 -4.973368959326762706e-06 -5.137365405971650034e-06 9.491538435213442426e-07
2.886000000000000000e+03 4.068306732177734375e+01 -1.505065155029296875e+01 -9.153948667517397553e-06 -6.763633336959173903e-06 -4.775274646817706525e-06 -2.794020701912813820e-06
2.887000000000000000e+03 7.101715087890625000e+00 3.697129964828491211e+00 1.466459343646420166e-05 1.424220590706681833e-05 8.672040166857186705e-06 -3.878405095747439191e-06
2.888000000000000000e+03 2.162463951110839844e+01 -1.187384724617004395e+00 1.397564938088180497e-05 1.092270485969493166e-05 7.469506272173020989e-06 -1.660393536440096796e-05
2.889000000000000000e+03 2.846516990661621094e+01 -1.146061420440673828e+01 1.451692151022143662e-05 -3.213868694729171693e-06 3.390915708223474212e-06 7.055612627482332755e-07
2.890000000000000000e+03 2.743747711181640625e+01 -9.990013122558593750e+00 -1.380142839479958639e-05 -2.643050720507744700e-07 -4.219719812681432813e-06 -4.766524853039300069e-06
2.891000000000000000e+03 1.098483371734619141e+01 4.016442298889160156e+00 2.842540197889320552e-05 4.391806214698590338e-06 9.845161912380717695e-06 -4.750023890665033832e-06
2.892000000000000000e+03 4.584364700317382812e+01 -2.548452758789062500e+01 1.031625270843505859e+00 -6.091076731681823730e-01 1.267552673816680908e-01 -4.629771783947944641e-02
2.893000000000000000e+03 3.487939071655273438e+01 -1.197614669799804688e+01 1.336921559413895011e-05 4.995926246920134872e-06 5.509542461368255317e-06 4.916039415547857061e-06
2.894000000000000000e+03 3.264849090576171875e+01 -1.166934871673583984e+01 2.062377279798965901e-05 -4.064583208673866466e-06 4.967756467522121966e-06 2.274222197229391895e-06
2.895000000000000000e+03 3.262908554077148438e+01 -1.230618476867675781e+01 -1.258075008081505075e-05 1.226830818268354051e-06 -3.406175665077171288e-06 2.236554564660764299e-06
2.896000000000000000e+03 9.116951942443847656e+00 -4.875715732574462891e+00 1.020515846903435886e-04 1.094351409847149625e-05 3.389853009139187634e-05 1.517938017059350386e-05
2.897000000000000000e+03 8.934135437011718750e+00 -5.600640296936035156e+00 -9.874976240098476410e-05 -1.980696470127440989e-05 -3.556701631168834865e-05 1.048077956511406228e-05
2.898000000000000000e+03 8.077635765075683594e+00 4.446717739105224609e+00 1.567162507853936404e-05 1.398328004142967984e-05 8.896471626940183342e-06 -8.240195938924443908e-07
2.899000000000000000e+03 2.121446037292480469e+01 -1.795305371284484863e+00 5.268097538646543398e-06 -5.787919690192211419e-06 -1.559466653588970075e-07 5.615092959487810731e-06
2.900000000000000000e+03 2.110799598693847656e+01 -7.429921627044677734e-01 1.830452856665942818e-05 -1.099628570955246687e-05 2.192472720707883127e-06 1.927809535118285567e-05
2.901000000000000000e+03 1.910397720336914062e+01 2.528092145919799805e+00 -2.037170270341448486e-05 4.374498075776500627e-06 -4.799161160917719826e-06 3.347194933667196892e-06
2.902000000000000000e+03 1.783657264709472656e+01 1.053321719169616699e+00 3.813454895862378180e-05 -3.928297758193366462e-07 1.132251600211020559e-05 -4.044872184749692678e-06
2.903000000000000000e+03 4.293613815307617188e+01 -1.650934410095214844e+01 -1.181340940092923120e-05 -1.516881866336916573e-06 -3.999087311967741698e-06 -4.579366930101969047e-07
2.904000000000000000e+03 1.675922393798828125e+01 2.547484159469604492e+00 -1.019653245748486370e-05 -6.454090453189564869e-07 -3.252582473578513600e-06 -1.049626462190644816e-05
2.905000000000000000e+03 1.641118240356445312e+01 1.772325992584228516e+00 3.391460631974041462e-05 -3.889360300490807276e-08 1.016271289699943736e-05 -1.321878357884997968e-06
2.906000000000000000e+03 1.452151966094970703e+01 2.992447376251220703e+00 -1.079514004231896251e-05 6.044233941793208942e-06 -1.425271875632461160e-06 -4.817041372007224709e-06
2.907000000000000000e+03 1.552031326293945312e+01 3.303091526031494141e+00 -9.548090929456520826e-06 1.621465685275325086e-06 -2.377987584623042494e-06 -3.909075076080625877e-06
2.908000000000000000e+03 3.812110519409179688e+01 -1.484733295440673828e+01 -7.251761871884809807e-06 -5.876197661791593418e-08 -2.193157115470967256e-06 5.995702395011903718e-06
2.909000000000000000e+03 8.023366928100585938e+00 1.778252029418945312e+01 1.143184454122092575e-05 1.113261350838001817e-05 6.769337232981342822e-06 -2.558485721237957478e-05
2.910000000000000000e+03 6.520999431610107422e+00 1.652265548706054688e+01 1.354362325400870759e-06 4.048265327583067119e-05 1.255110510101076216e-05 -7.572298727609449998e-06
2.911000000000000000e+03 6.945067405700683594e+00 1.035333538055419922e+01 1.336979221377987415e-05 3.298243609606288373e-05 1.390566922054858878e-05 -2.620526720420457423e-05
2.912000000000000000e+03 4.596648406982421875e+01 -1.125751018524169922e+01 -1.008747312880586833e-05 -2.622047531986027025e-06 -3.812856220974936150e-06 1.057602617038355675e-06
2.913000000000000000e+03 4.535820770263671875e+01 -1.066701889038085938e+01 1.594194873177912086e-05 -1.683700475041405298e-06 4.277474545233417302e-06 4.560941761155845597e-06
2.914000000000000000e+03 4.895612239837646484e+00 -2.098645019531250000e+01 4.840775727643631399e-05 -1.185151922982186079e-04 -2.103223232552409172e-05 1.740824664011597633e-04
2.915000000000000000e+03 5.292469978332519531e+00 -1.444322490692138672e+01 -1.973602920770645142e-04 5.056781810708343983e-05 -4.403774073580279946e-05 3.264277984271757305e-05
2.916000000000000000e+03 7.170241546630859375e+01 -1.072408294677734375e+01 7.336647808551788330e-02 4.300944805145263672e-01 1.510382890701293945e-01 -1.802148073911666870e-01
2.917000000000000000e+03 7.254635620117187500e+01 -1.132682037353515625e+01 5.379968509078025818e-02 2.528257668018341064e-01 9.198763966560363770e-02 -2.509714066982269287e-01
2.918000000000000000e+03 7.271041107177734375e+01 -1.327846431732177734e+01 2.857876755297183990e-02 1.323406547307968140e-01 4.827582836151123047e-02 -3.027806878089904785e-01
2.919000000000000000e+03 3.333409500122070312e+01 9.954047203063964844e+00 1.707607152638956904e-04 -1.781725404725875705e-05 4.588304000208154321e-05 -2.647039082148694433e-06
2.920000000000000000e+03 4.099734497070312500e+01 -8.414817452430725098e-01 3.924685734091326594e-05 2.421168392174877226e-05 1.903756310639437288e-05 -3.275485141784884036e-05
2.921000000000000000e+03 4.000401687622070312e+01 -5.557222366333007812e-01 -5.170393342268653214e-05 -9.597178177500609308e-06 -1.839033393480349332e-05 1.422991226718295366e-05
2.922000000000000000e+03 4.298088455200195312e+01 -5.516431808471679688e+00 2.333642623852938414e-05 -2.381670356044196524e-06 6.286426923907129094e-06 -6.275894520513247699e-06
2.923000000000000000e+03 4.359039306640625000e+01 -7.966971874237060547e+00 -1.610030267329420894e-05 -7.040418950055027381e-06 -6.942216259631095454e-06 1.096821415558224544e-05
2.924000000000000000e+03 7.328195953369140625e+01 -4.080270290374755859e+00 8.296228200197219849e-02 6.764937043190002441e-01 2.278368026018142700e-01 -1.583660840988159180e-01
2.925000000000000000e+03 3.709836578369140625e+01 4.075561523437500000e+00 -5.296752988215303048e-06 3.374133666511625051e-05 8.533374966646078974e-06 -3.642095180111937225e-05
2.926000000000000000e+03 6.880467414855957031e+00 1.160263729095458984e+01 -4.351031293481355533e-06 2.086129279632586986e-05 4.953078587277559564e-06 -3.115970321232452989e-05
2.927000000000000000e+03 6.136024475097656250e+00 -1.274521064758300781e+01 -1.873505607363767922e-05 6.553734419867396355e-05 1.404068643751088530e-05 -7.432342681568115950e-05
2.928000000000000000e+03 7.325288391113281250e+01 -1.195327472686767578e+01 2.981495857238769531e-02 1.034522205591201782e-01 3.998015448451042175e-02 -3.033623099327087402e-01
2.929000000000000000e+03 6.834616851806640625e+01 -1.545519447326660156e+01 9.988593310117721558e-02 2.564918696880340576e-01 1.069133430719375610e-01 -4.570778086781501770e-02
2.930000000000000000e+03 7.002968597412109375e+01 -1.560339546203613281e+01 4.458017181605100632e-03 1.707134395837783813e-01 5.255143716931343079e-02 -2.170024812221527100e-01
2.931000000000000000e+03 1.102920532226562500e+01 -9.161722183227539062e+00 5.563473314396105707e-05 -8.442728358204476535e-06 1.415760107192909345e-05 -4.777296999236568809e-05
2.932000000000000000e+03 4.803965759277343750e+01 -1.257754802703857422e+01 -1.737444836180657148e-05 4.549382026652892819e-07 -5.075852641311939806e-06 -1.092246566258836538e-05
2.933000000000000000e+03 3.911505889892578125e+01 6.381699442863464355e-01 -7.393052510451525450e-05 3.956646651204209775e-06 -2.099216362694278359e-05 -4.435565188032342121e-06
2.934000000000000000e+03 4.847846603393554688e+01 -1.072492408752441406e+01 1.519399756944039837e-05 9.786182090465445071e-06 7.494053988921223208e-06 6.952172498131403700e-06
2.935000000000000000e+03 4.887357711791992188e+01 -1.164410400390625000e+01 -1.780716957000549883e-05 -6.359218787110876292e-06 -7.249916507134912536e-06 -7.117634595488198102e-06
2.936000000000000000e+03 4.940649795532226562e+01 -2.690306663513183594e+01 1.237558051943778992e-01 1.941461205482482910e+00 6.195650696754455566e-01 4.434077441692352295e-02
2.937000000000000000e+03 4.827639007568359375e+01 -2.608199501037597656e+01 9.702765941619873047e-01 1.611655712127685547e+00 7.745797038078308105e-01 8.933831453323364258e-01
2.938000000000000000e+03 4.951687240600585938e+01 -2.755814743041992188e+01 -1.644163206219673157e-02 1.631871819496154785e+00 4.846290349960327148e-01 -2.629446238279342651e-02
2.939000000000000000e+03 4.723374557495117188e+01 -2.499502182006835938e+01 1.875894546508789062e+00 -1.158203929662704468e-01 5.280222296714782715e-01 3.203348517417907715e-01
2.940000000000000000e+03 4.989520263671875000e+01 -2.767804718017578125e+01 7.720257155597209930e-03 1.543061494827270508e+00 4.652345180511474609e-01 -1.904200911521911621e-01
2.941000000000000000e+03 4.705861282348632812e+01 -2.433849525451660156e+01 1.958989620208740234e+00 -5.478823781013488770e-01 4.233321547508239746e-01 -2.900503873825073242e-01
2.942000000000000000e+03 5.397376632690429688e+01 -2.316130256652832031e+01 7.254522442817687988e-01 -3.564867079257965088e-01 1.106896549463272095e-01 8.083542585372924805e-01
2.943000000000000000e+03 5.328112030029296875e+01 -2.375507545471191406e+01 1.325942158699035645e+00 -4.663616418838500977e-01 2.578741610050201416e-01 5.431170463562011719e-01
2.944000000000000000e+03 5.022939300537109375e+01 -2.783913803100585938e+01 2.360220067203044891e-02 1.399938225746154785e+00 4.270621240139007568e-01 -2.963640391826629639e-01
2.945000000000000000e+03 4.735567474365234375e+01 -2.390412139892578125e+01 2.170980215072631836e+00 -4.810889065265655518e-01 5.069674253463745117e-01 -5.938362479209899902e-01
2.946000000000000000e+03 4.797813415527343750e+01 -2.697065544128417969e+01 4.702988266944885254e-01 1.235114932060241699e+00 5.116240978240966797e-01 6.174687147140502930e-01
2.947000000000000000e+03 4.616396713256835938e+01 -2.492043495178222656e+01 1.348197340965270996e+00 -7.011548876762390137e-01 1.941127330064773560e-01 -2.042222172021865845e-01
2.948000000000000000e+03 1.455885601043701172e+01 -7.468697547912597656e+00 5.535496893571689725e-05 -4.272481874068034813e-06 1.532474561827257276e-05 -1.847091880335938185e-06
2.949000000000000000e+03 4.540682220458984375e+01 -2.453061866760253906e+01 9.292637705802917480e-01 -9.319518804550170898e-01 -8.064219728112220764e-04 -5.664920806884765625e-01
2.950000000000000000e+03 2.868774795532226562e+01 -7.848376750946044922e+00 -1.772237010300159454e-05 -5.761886313848663121e-06 -7.045276561257196590e-06 -4.944043666910147294e-06
2.951000000000000000e+03 5.364988708496093750e+01 -2.296832084655761719e+01 7.109121680259704590e-01 -3.630014955997467041e-01 1.043732091784477234e-01 9.257229566574096680e-01
2.952000000000000000e+03 7.472166538238525391e+00 5.370894908905029297e+00 1.734589204716030508e-05 1.405093462381046265e-05 9.419048183190170676e-06 -2.887763230319251306e-06
2.953000000000000000e+03 7.266654968261718750e+00 4.557049751281738281e+00 -6.454223694163374603e-06 -6.621246029681060463e-06 -3.922641099052270874e-06 -1.354542291664984077e-05
2.954000000000000000e+03 4.722034454345703125e+01 -2.614107513427734375e+01 1.070249676704406738e+00 4.914040267467498779e-01 4.684961140155792236e-01 6.448111534118652344e-01
2.955000000000000000e+03 6.327013492584228516e+00 -5.335543155670166016e+00 -1.178999373223632574e-04 -1.951984813786111772e-05 -4.122593600186519325e-05 -7.475208258256316185e-05
2.956000000000000000e+03 6.711638450622558594e+00 5.599826335906982422e+00 -8.410285772697534412e-06 -7.318342341022798792e-06 -4.718588570540305227e-06 -9.060564480023458600e-06
2.957000000000000000e+03 8.118321418762207031e+00 -5.361587047576904297e+00 8.272143168142065406e-05 4.365714266896247864e-05 3.791357084992341697e-05 -5.159558895684313029e-06
2.958000000000000000e+03 4.674398803710937500e+01 -2.697885322570800781e+01 5.817938446998596191e-01 3.411840498447418213e-01 2.768933475017547607e-01 5.178647041320800781e-01
2.959000000000000000e+03 4.761024856567382812e+01 -2.718296432495117188e+01 4.168582558631896973e-01 9.291921854019165039e-01 4.038151204586029053e-01 5.828400254249572754e-01
2.960000000000000000e+03 1.157980823516845703e+01 -5.567273616790771484e+00 7.124789408408105373e-05 4.583756890497170389e-05 3.512563853291794658e-05 3.629036655183881521e-05
2.961000000000000000e+03 2.886009788513183594e+01 -1.052044582366943359e+01 1.133514251705491915e-05 -1.785816948540741578e-06 2.864797806978458539e-06 3.904959157807752490e-06
2.962000000000000000e+03 3.057645225524902344e+01 -1.248695373535156250e+01 1.540983248560223728e-06 -7.747153176751453429e-07 2.298803849498654017e-07 2.019352905335836112e-06
2.963000000000000000e+03 1.430149173736572266e+01 5.280944824218750000e+00 -3.033271241292823106e-05 1.365066236758138984e-05 -5.004615104553522542e-06 -1.335420438408618793e-05
2.964000000000000000e+03 9.011255264282226562e+00 5.210881710052490234e+00 1.726541267998982221e-05 1.370399513689335436e-05 9.290822163166012615e-06 2.448144186928402632e-06
2.965000000000000000e+03 2.383927536010742188e+01 -1.904731273651123047e+00 -1.318308295594761148e-05 -1.450117179047083482e-05 -8.305276423925533891e-06 -1.555479684611782432e-05
2.966000000000000000e+03 1.611697769165039062e+01 2.907697439193725586e+00 3.025811747647821903e-05 2.170377001675660722e-06 9.728548320708796382e-06 -3.770607008846127428e-06
2.967000000000000000e+03 1.541091918945312500e+01 4.473333358764648438e+00 -2.155622132704593241e-05 3.932460458599962294e-06 -5.287128260533791035e-06 3.525800366332987323e-06
2.968000000000000000e+03 4.921406173706054688e+01 -2.805759048461914062e+01 -6.575907766819000244e-02 1.506307840347290039e+00 4.321646094322204590e-01 5.827932804822921753e-02
2.969000000000000000e+03 4.014471054077148438e+01 -1.277907371520996094e+01 1.341275401500752196e-05 5.042993961978936568e-06 5.536724529520142823e-06 1.052303105097962543e-05
2.970000000000000000e+03 3.952066802978515625e+01 -1.343127155303955078e+01 4.379608071758411825e-06 -7.222784915938973427e-06 -8.529530077794333920e-07 -1.168820017483085394e-05
2.971000000000000000e+03 9.659300804138183594e+00 -7.454216480255126953e+00 6.625430978601798415e-05 5.228750160313211381e-05 3.556254159775562584e-05 4.094850373803637922e-05
2.972000000000000000e+03 4.545609283447265625e+01 -1.549428367614746094e+01 4.093505140190245584e-06 3.215341621398692951e-06 2.192653937527211383e-06 5.038371455157175660e-06
2.973000000000000000e+03 1.550975608825683594e+01 -1.022816276550292969e+01 8.944998990045860410e-05 -7.273430355780874379e-07 2.661679354787338525e-05 9.477210369368549436e-06
2.974000000000000000e+03 1.486579704284667969e+01 4.876084327697753906e+00 5.152985977474600077e-05 -9.777383638720493764e-06 1.252574293175712228e-05 -1.138686729973414913e-05
2.975000000000000000e+03 5.553602695465087891e+00 -5.245571136474609375e+00 1.141258762800134718e-04 1.711094409984070808e-05 3.937104702345095575e-05 7.139857189031317830e-05
2.976000000000000000e+03 1.066818523406982422e+01 -8.304710388183593750e+00 -7.353612545557552949e-06 4.847214222536422312e-05 1.233555849466938525e-05 3.095361171290278435e-05
2.977000000000000000e+03 4.697616958618164062e+01 -1.319643592834472656e+01 -1.057259760273154825e-05 -6.380037120834458619e-06 -5.085790689918212593e-06 -3.709687689479324035e-06
2.978000000000000000e+03 9.666660308837890625e+00 -5.769291877746582031e+00 9.619808406569063663e-05 -1.516922480959692621e-07 2.881391810660716146e-05 6.361747182381805032e-07
2.979000000000000000e+03 7.343217849731445312e+00 -8.355231285095214844e+00 -1.081791924661956728e-04 -1.188549413200234994e-05 -3.601940625230781734e-05 -2.442060394969303161e-05
2.980000000000000000e+03 6.945139408111572266e+00 -5.640014171600341797e+00 6.328744348138570786e-05 2.339688580832444131e-05 2.600529842311516404e-05 1.597777190909255296e-05
2.981000000000000000e+03 1.949420166015625000e+01 2.299434244632720947e-01 2.884776768041774631e-05 -1.481329036323586479e-06 8.209931365854572505e-06 -1.202987914439290762e-05
2.982000000000000000e+03 5.597663879394531250e+00 5.022455692291259766e+00 -1.139021514973137528e-05 -5.628479357255855575e-06 -5.105608579469844699e-06 1.138255811383714899e-06
2.983000000000000000e+03 2.504820442199707031e+01 -5.114109992980957031e+00 2.541420326451770961e-05 4.497731424635276198e-06 8.973580406745895743e-06 1.137047638621879742e-05
2.984000000000000000e+03 1.126228713989257812e+01 4.763444423675537109e+00 -1.831617191783152521e-05 7.537577403127215803e-06 -3.233578581784968264e-06 -1.490842987550422549e-05
2.985000000000000000e+03 5.032944679260253906e+00 6.273934364318847656e+00 -1.413090012647444382e-05 -1.170345331047428772e-05 -7.750306394882500172e-06 8.862611139193177223e-06
2.986000000000000000e+03 3.646581268310546875e+01 -1.402663803100585938e+01 -5.791694661638757680e-07 5.616216185444500297e-06 1.511113964625110384e-06 6.206494731486600358e-07
2.987000000000000000e+03 6.160074234008789062e+01 -2.149082374572753906e+01 -4.494390189647674561e-01 3.228459656238555908e-01 -3.797791898250579834e-02 1.927796751260757446e-01
2.988000000000000000e+03 4.240916824340820312e+01 -7.883234500885009766e+00 2.919348844443447888e-05 2.697773425097693689e-06 9.567378583597019315e-06 -3.408144493732834235e-06
2.989000000000000000e+03 9.984002113342285156e+00 1.781251716613769531e+01 1.090177283913362771e-05 8.414536750933621079e-06 5.794893240818055347e-06 -2.697161471587605774e-05
2.990000000000000000e+03 1.108093166351318359e+01 1.526243400573730469e+01 -2.305989255546592176e-05 3.278244321336387657e-06 -5.934494311077287421e-06 -1.016334590531187132e-05
2.991000000000000000e+03 8.612008094787597656e+00 1.433886718750000000e+01 1.202435305458493531e-05 1.426550170435803011e-05 7.886956154834479094e-06 -2.327951915503945202e-05
2.992000000000000000e+03 9.498566627502441406e+00 1.363837051391601562e+01 -1.425948448741110042e-05 6.533298346766969189e-06 -2.317855660294299014e-06 -2.666361979208886623e-06
2.993000000000000000e+03 8.149183273315429688e+00 -1.034278297424316406e+01 1.494432362960651517e-04 8.832035382511094213e-05 7.132907921914011240e-05 -1.892263207992073148e-05
2.994000000000000000e+03 7.187095642089843750e+01 -1.440911102294921875e+01 1.379333809018135071e-02 1.650932729244232178e-01 5.366598069667816162e-02 -2.829130291938781738e-01
2.995000000000000000e+03 3.889646530151367188e+01 -1.454270362854003906e+00 -3.106057192781008780e-05 -2.031865005847066641e-05 -1.541376695968210697e-05 -2.178766590077430010e-05
2.996000000000000000e+03 4.232818222045898438e+01 -8.877231597900390625e+00 -2.364859028602950275e-05 -6.491976819233968854e-06 -9.042169949680101126e-06 4.055597855767700821e-06
2.997000000000000000e+03 4.337449264526367188e+01 -8.893390655517578125e+00 1.814688221202231944e-05 8.171170520654413849e-06 7.895416274550370872e-06 -1.017321483232080936e-05
2.998000000000000000e+03 4.119162368774414062e+01 -3.207493066787719727e+00 -2.190862142015248537e-05 -1.018812872644048184e-05 -9.629025043977890164e-06 1.941993468790315092e-05
2.999000000000000000e+03 4.068826675415039062e+01 -5.917291641235351562e+00 -1.154397978098131716e-05 -7.954065495141549036e-07 -3.701815785461803898e-06 -1.913588494062423706e-05
3.000000000000000000e+03 9.446984291076660156e+00 1.211823558807373047e+01 -4.876385901297908276e-06 1.098258780984906480e-05 1.831860686252184678e-06 5.155976396054029465e-06
3.001000000000000000e+03 7.824167251586914062e+00 -1.302396488189697266e+01 -2.676265467016492039e-05 6.599279731744900346e-05 1.176904243038734421e-05 -1.407969102729111910e-04
3.002000000000000000e+03 6.974755096435546875e+01 -1.172746753692626953e+01 1.564820855855941772e-01 5.476807951927185059e-01 2.112488597631454468e-01 -1.282568927854299545e-02
3.003000000000000000e+03 7.044756317138671875e+01 -1.398270225524902344e+01 7.621525973081588745e-02 2.907051742076873779e-01 1.100761294364929199e-01 -1.808561831712722778e-01
3.004000000000000000e+03 4.453863525390625000e+01 -1.123922157287597656e+01 -8.376370715268421918e-06 -2.817712640990066575e-07 -2.597442517071613111e-06 -5.780153060186421499e-06
3.005000000000000000e+03 4.416917800903320312e+01 -9.920481681823730469e+00 1.035317927744472399e-05 1.079457888408796862e-05 6.344327630358748138e-06 -5.602275450655724853e-06
3.006000000000000000e+03 3.497499847412109375e+01 5.315217018127441406e+00 -5.119113211549120024e-06 -1.002884528134018183e-05 -4.544387593341525644e-06 3.029780236829537898e-05
3.007000000000000000e+03 4.872366333007812500e+01 -2.634613227844238281e+01 5.674410462379455566e-01 2.007359504699707031e+00 7.724401354789733887e-01 6.548098325729370117e-01
3.008000000000000000e+03 4.926488494873046875e+01 -2.733519172668457031e+01 3.190729767084121704e-02 1.711353778839111328e+00 5.229783654212951660e-01 8.597140759229660034e-02
3.009000000000000000e+03 4.766089630126953125e+01 -2.502446365356445312e+01 2.090817451477050781e+00 3.834649026393890381e-01 7.422847151756286621e-01 5.700713396072387695e-01
3.010000000000000000e+03 4.717874908447265625e+01 -2.553452110290527344e+01 1.496696949005126953e+00 1.733927726745605469e-01 5.010269284248352051e-01 5.223186612129211426e-01
3.011000000000000000e+03 4.778565597534179688e+01 -2.610233306884765625e+01 1.092455267906188965e+00 9.884137511253356934e-01 6.242606639862060547e-01 7.913658618927001953e-01
3.012000000000000000e+03 4.789844131469726562e+01 -2.573117256164550781e+01 1.400051951408386230e+00 1.024716377258300781e+00 7.274305224418640137e-01 8.838348388671875000e-01
3.013000000000000000e+03 4.656608581542968750e+01 -2.506480789184570312e+01 1.439009547233581543e+00 -4.296296238899230957e-01 3.028139770030975342e-01 4.137534275650978088e-02
3.014000000000000000e+03 5.274913406372070312e+01 -2.298602294921875000e+01 1.270728826522827148e+00 -3.417300879955291748e-01 2.786996066570281982e-01 1.172862291336059570e+00
3.015000000000000000e+03 4.880587768554687500e+01 -2.748696327209472656e+01 8.105338364839553833e-02 1.528273224830627441e+00 4.827979803085327148e-01 2.569268047809600830e-01
3.016000000000000000e+03 1.482996845245361328e+01 -9.162477493286132812e+00 1.007220998872071505e-04 2.168663377233315259e-05 3.672262027976103127e-05 -4.244401497999206185e-05
3.017000000000000000e+03 2.085636520385742188e+01 2.129554271697998047e+00 3.657528577605262399e-05 -3.363586301929899491e-06 9.963509000954218209e-06 -6.644157565460773185e-06
3.018000000000000000e+03 2.019968414306640625e+01 1.207250475883483887e+00 -7.864528924983460456e-06 -1.724699814076302573e-06 -2.876768576243193820e-06 5.442451310955220833e-06
3.019000000000000000e+03 4.848797225952148438e+01 -2.727373313903808594e+01 2.123481631278991699e-01 1.446383237838745117e+00 4.976194202899932861e-01 4.093784391880035400e-01
3.020000000000000000e+03 2.385408210754394531e+01 -8.734771609306335449e-01 3.336713780299760401e-05 4.491040726861683652e-06 1.135745333158411086e-05 1.416797749698162079e-05
3.021000000000000000e+03 2.294313812255859375e+01 -1.875714421272277832e+00 3.512016701279208064e-05 7.624365935043897480e-06 1.282336052099708468e-05 -1.112517225010378752e-06
3.022000000000000000e+03 2.592978477478027344e+01 -3.523910760879516602e+00 -2.553850936237722635e-05 -1.173520013253437355e-05 -1.118211275752400979e-05 1.468389427827787586e-06
3.023000000000000000e+03 2.586220550537109375e+01 -1.572879672050476074e+00 -3.497446596156805754e-05 -1.161775344371562824e-06 -1.084087216440821066e-05 -5.269027496979106218e-06
3.024000000000000000e+03 8.662376403808593750e+00 -7.355233669281005859e+00 -1.332713582087308168e-04 -2.215100357716437429e-05 -4.662670835386961699e-05 -7.349996167249628343e-07
3.025000000000000000e+03 4.691024017333984375e+01 -1.404737567901611328e+01 1.368472567264689133e-05 -2.711008619371568784e-06 3.292115025033126585e-06 -9.722143090584722813e-09
3.026000000000000000e+03 1.229768657684326172e+01 -9.452566146850585938e+00 3.733477569767273962e-05 1.231907081091776490e-04 4.815764623344875872e-05 -4.208350583212450147e-05
3.027000000000000000e+03 1.412076091766357422e+01 -8.628301620483398438e+00 -5.280537152430042624e-05 -7.385486242128536105e-05 -3.799807018367573619e-05 5.977573164273053408e-05
3.028000000000000000e+03 1.733317947387695312e+01 4.042969703674316406e+00 -5.678843990608584136e-06 -1.163169781648321077e-05 -5.193162451178068295e-06 6.750785360054578632e-06
3.029000000000000000e+03 1.681847381591796875e+01 4.308474540710449219e+00 4.540344525594264269e-05 -1.101269481296185404e-05 1.031722422339953482e-05 -1.903680458781309426e-05
3.030000000000000000e+03 3.122912406921386719e+01 -1.187162685394287109e+01 1.161790805781492963e-06 -4.084672156068336335e-08 3.362832501352386316e-07 -3.065933640300499974e-08
3.031000000000000000e+03 9.807878494262695312e+00 5.235363483428955078e+00 -1.296281334361992776e-05 -1.692964360699988902e-06 -4.396732947498094290e-06 -2.558007145125884563e-05
3.032000000000000000e+03 4.901603698730468750e+01 -1.336939811706542969e+01 -1.868724393716547638e-05 3.507413339320919476e-06 -4.553949111141264439e-06 -6.401403879863210022e-06
3.033000000000000000e+03 1.136198711395263672e+01 -6.472202777862548828e+00 -3.670911246445029974e-05 -5.577041156357154250e-05 -2.774385757220443338e-05 -1.574560337758157402e-05
3.034000000000000000e+03 2.895175933837890625e+01 -9.164449691772460938e+00 -1.640376467548776418e-05 -5.255386668068240397e-07 -5.078790763946017250e-06 -1.091353624360635877e-05
3.035000000000000000e+03 2.952355003356933594e+01 -8.358608245849609375e+00 -1.439293555449694395e-05 -3.927860689145745710e-06 -5.496238827618071809e-06 -4.198258466203697026e-06
3.036000000000000000e+03 2.757084274291992188e+01 -5.649316787719726562e+00 -3.182666841894388199e-05 -1.302005557590746321e-06 -9.938602488546166569e-06 -3.070088496315293014e-06
3.037000000000000000e+03 2.760209846496582031e+01 -4.715861320495605469e+00 4.655819429899565876e-05 3.801584853135864250e-06 1.510793390480102971e-05 -4.316582817409653217e-06
3.038000000000000000e+03 1.329899215698242188e+01 5.117579460144042969e+00 -1.816292933654040098e-05 9.503355613560415804e-06 -2.597872025944525376e-06 -1.083008373825578019e-05
3.039000000000000000e+03 1.272967529296875000e+01 5.631085395812988281e+00 3.216381446691229939e-05 -2.485054210410453379e-06 8.903628440748434514e-06 -1.014121789921773598e-05
3.040000000000000000e+03 4.586833953857421875e+01 -1.474901485443115234e+01 4.290923243388533592e-06 -2.007577450058306567e-06 6.850037834738031961e-07 1.171884832729119807e-06
3.041000000000000000e+03 2.864602470397949219e+01 -9.900421142578125000e+00 -2.525275249354308471e-06 -3.578193400244344957e-06 -1.831040663091698661e-06 -9.904896614898461848e-06
3.042000000000000000e+03 2.812014007568359375e+01 -9.946649551391601562e+00 1.915261054818984121e-05 3.894588758157624397e-07 5.862621037522330880e-06 -3.730664730028365739e-06
3.043000000000000000e+03 4.420096588134765625e+01 -1.569676589965820312e+01 8.423148187830520328e-07 6.035074420651653782e-06 2.063216697933967225e-06 5.364604476199019700e-06
3.044000000000000000e+03 4.359030151367187500e+01 -1.501839733123779297e+01 -7.074473614920862019e-06 -1.036636058415751904e-05 -5.232250259723514318e-06 -2.348615453229285777e-06
3.045000000000000000e+03 2.290353202819824219e+01 -4.229318499565124512e-01 2.852850775525439531e-05 -1.745401641528587788e-05 3.322347538414760493e-06 1.649675323278643191e-05
3.046000000000000000e+03 2.243058776855468750e+01 6.478139758110046387e-02 1.482140578445978463e-05 9.163271897705271840e-06 7.195403213700046763e-06 -2.158667302865069360e-05
3.047000000000000000e+03 1.842348670959472656e+01 2.874270439147949219e+00 5.227295696386136115e-05 -4.997446922061499208e-06 1.418265219399472699e-05 2.164242829394424916e-07
3.048000000000000000e+03 1.791232299804687500e+01 3.963967561721801758e+00 3.026634112757164985e-05 1.271233304578345269e-05 1.289360261580441147e-05 9.802118256629910320e-06
3.049000000000000000e+03 1.468967151641845703e+01 5.931695938110351562e+00 5.024678830523043871e-05 -9.249739377992227674e-06 1.229911504196934402e-05 4.835135314351646230e-06
3.050000000000000000e+03 2.672461509704589844e+01 -5.975441932678222656e+00 2.485746153979562223e-05 -4.616730620909947902e-06 6.072219548514112830e-06 1.274463920708512887e-05
3.051000000000000000e+03 2.976443481445312500e+01 -1.090731620788574219e+01 5.683843028236879036e-06 -2.293721536261728033e-06 1.017036424855177756e-06 3.002912990268669091e-06
3.052000000000000000e+03 2.912010955810546875e+01 -9.677746772766113281e+00 7.273877145053120330e-06 -2.550435283410479315e-06 1.417032649442262482e-06 1.281855202250881121e-05
3.053000000000000000e+03 4.569460678100585938e+01 -1.254583358764648438e+01 -9.889833563647698611e-06 -9.782965207705274224e-06 -5.901839358557481319e-06 1.903449401652324013e-06
3.054000000000000000e+03 6.622307777404785156e+00 -6.595846652984619141e+00 -1.926275945152156055e-05 -2.238666638731956482e-05 -1.249482738785445690e-05 -2.238432534795720130e-05
3.055000000000000000e+03 4.302720642089843750e+01 -1.059782695770263672e+01 2.352458250243216753e-05 -2.417032419543829747e-06 6.332265002129133791e-06 -6.027019594512239564e-07
3.056000000000000000e+03 7.036999225616455078e+00 -7.408141136169433594e+00 4.459404954104684293e-05 -2.966890860989224166e-05 4.477542006497969851e-06 3.720371023518964648e-05
3.057000000000000000e+03 8.829656600952148438e+00 -6.418856143951416016e+00 1.122538524214178324e-04 1.314875771640799940e-05 3.762078267754986882e-05 -2.205308373959269375e-05
3.058000000000000000e+03 2.581611251831054688e+01 -4.392535209655761719e+00 3.932127947336994112e-05 3.889161234837956727e-06 1.296313257626025006e-05 -3.987142918049357831e-06
3.059000000000000000e+03 1.962790298461914062e+01 3.163920640945434570e+00 3.148696123389527202e-05 -1.254217113455524668e-05 5.683436938852537423e-06 -2.086602580675389618e-05
3.060000000000000000e+03 8.493786811828613281e+00 -9.528081893920898438e+00 -1.513570605311542749e-04 -8.754368900554254651e-05 -7.167022704379633069e-05 -5.426836651167832315e-06
3.061000000000000000e+03 4.722676086425781250e+01 -1.241818332672119141e+01 5.550749847316183150e-06 -6.559183475474128500e-06 -3.025301396064605797e-07 2.747966846072813496e-06
3.062000000000000000e+03 1.183518791198730469e+01 1.601975250244140625e+01 1.672140388109255582e-05 1.527893232378119137e-06 5.474788849824108183e-06 -2.038719321717508137e-05
3.063000000000000000e+03 1.013589000701904297e+01 1.606701087951660156e+01 1.956577580131124705e-05 6.276322437770431861e-06 7.752629244350828230e-06 -1.836906085372902453e-05
3.064000000000000000e+03 1.268614768981933594e+01 1.524479103088378906e+01 -2.672409573278855532e-05 -2.929794618466985412e-06 -8.896166946215089411e-06 -9.873536328086629510e-06
3.065000000000000000e+03 1.124754905700683594e+01 1.368953704833984375e+01 -2.378975841565988958e-05 5.009301730751758441e-06 -5.634137323795584962e-06 -8.998867997433990240e-06
3.066000000000000000e+03 1.186349678039550781e+01 1.038959598541259766e+01 -4.160259413765743375e-05 -9.415094609721563756e-06 -1.530530607851687819e-05 -1.659685585764236748e-05
3.067000000000000000e+03 3.933855819702148438e+01 -2.195821285247802734e+00 -2.376187239860882983e-06 3.227312390663428232e-06 2.553375395564216888e-07 3.535010910127311945e-05
3.068000000000000000e+03 3.629985809326171875e+01 1.173875212669372559e+00 9.409222911926917732e-06 -5.434611921373289078e-06 1.192383138004515786e-06 -8.559794650864205323e-07
3.069000000000000000e+03 4.008399963378906250e+01 -9.287802696228027344e+00 -2.716475137276574969e-05 -3.058522679566522129e-06 -9.066981874639168382e-06 4.165783138887491077e-06
3.070000000000000000e+03 4.123617553710937500e+01 -9.101266860961914062e+00 2.606104135338682681e-05 8.206428901758044958e-06 1.028024144034134224e-05 7.202498636615928262e-06
3.071000000000000000e+03 1.130955028533935547e+01 1.204556846618652344e+01 -2.143553683708887547e-05 6.863074759166920558e-06 -4.371738668851321563e-06 -2.168919309042394161e-06
3.072000000000000000e+03 9.773478507995605469e+00 1.977443122863769531e+01 4.060947685502469540e-05 -4.588396222970914096e-06 1.080632409866666421e-05 -3.520567770465277135e-05
3.073000000000000000e+03 3.352390289306640625e+01 4.937386035919189453e+00 -1.051796280080452561e-04 1.334006628894712776e-05 -2.755186869762837887e-05 4.025142698083072901e-05
3.074000000000000000e+03 3.704930877685546875e+01 1.592167258262634277e+00 7.433793507516384125e-05 5.663806859956821427e-06 2.400052107986994088e-05 2.143382880603894591e-05
3.075000000000000000e+03 4.917121887207031250e+01 -2.702772712707519531e+01 1.522402167320251465e-01 1.875116229057312012e+00 6.082069277763366699e-01 2.062803208827972412e-01
3.076000000000000000e+03 1.140997123718261719e+01 -8.158464431762695312e+00 3.152072531520389020e-05 -8.011481986613944173e-05 -1.457822781958384439e-05 2.065285116259474307e-06
3.077000000000000000e+03 1.135782909393310547e+01 -7.380102634429931641e+00 1.562601028126664460e-05 6.259093061089515686e-05 2.346508154005277902e-05 -3.687961907417047769e-06
3.078000000000000000e+03 1.938586235046386719e+01 3.882403850555419922e+00 3.120340261375531554e-05 1.120703655033139512e-05 1.272313147637760267e-05 1.292065826419275254e-05
3.079000000000000000e+03 2.142415237426757812e+01 3.003710508346557617e+00 -5.399206202127970755e-06 -9.779737411008682102e-06 -4.553683083940995857e-06 -1.168846210930496454e-06
3.080000000000000000e+03 3.093654632568359375e+01 -9.782531738281250000e+00 -5.611567758023738861e-06 -4.035783149447524920e-06 -2.894205408665584400e-06 4.352605628810124472e-06
3.081000000000000000e+03 2.993017768859863281e+01 -9.818086624145507812e+00 -9.825786264627822675e-07 -2.672208665899233893e-06 -1.096436221814656164e-06 6.485012818302493542e-06
3.082000000000000000e+03 2.948717880249023438e+01 -7.704411506652832031e+00 2.742238029895815998e-05 6.030220447428291664e-06 1.003578017844120041e-05 8.078764039964880794e-07
3.083000000000000000e+03 7.334838390350341797e+00 -6.270050525665283203e+00 -2.630099334055557847e-05 1.879249794001225382e-05 -2.252548711112467572e-06 -2.711015076783951372e-05
3.084000000000000000e+03 4.538437271118164062e+01 -1.371192359924316406e+01 -5.328989232111780439e-07 -8.388316928176209331e-06 -2.676364829312660731e-06 5.417880856839474291e-06
3.085000000000000000e+03 1.362507247924804688e+01 -9.368077278137207031e+00 7.006371743045747280e-05 8.079817052930593491e-05 4.525856638792902231e-05 -7.160984387155622244e-05
3.086000000000000000e+03 2.589622879028320312e+01 -2.578441619873046875e+00 4.893966615782119334e-05 -4.971755515725817531e-06 1.319037346547702327e-05 4.263316895958269015e-06
3.087000000000000000e+03 4.294988632202148438e+01 -1.329665470123291016e+01 -1.625177901587449014e-05 -5.768470145994797349e-06 -6.606074748560786247e-06 2.573620122348074801e-06
3.088000000000000000e+03 4.221831512451171875e+01 -1.353192424774169922e+01 9.986603799916338176e-06 9.561797014612238854e-06 5.864520062459632754e-06 3.642388492153258994e-06
3.089000000000000000e+03 7.707038879394531250e+00 6.105010986328125000e+00 -1.253988830285379663e-05 9.239346923095581587e-07 -3.484786020635510795e-06 -1.651712227612733841e-05
3.090000000000000000e+03 1.375282001495361328e+01 5.757068157196044922e+00 3.191250289091840386e-05 -4.024403096991591156e-06 8.366429938178043813e-06 -3.306276767034432851e-06
3.091000000000000000e+03 1.048493576049804688e+01 6.549087047576904297e+00 1.782342224032618105e-05 -6.056073743820888922e-06 3.530204367052647285e-06 -1.991238787013571709e-05
3.092000000000000000e+03 9.063194274902343750e+00 5.974060058593750000e+00 -1.042390704242279753e-05 -1.241873405888327397e-06 -3.499734248180175200e-06 -2.143932942999526858e-05
3.093000000000000000e+03 7.509473800659179688e+00 7.079364299774169922e+00 -4.933623586111934856e-06 9.618875992600806057e-06 1.405575858370866627e-06 -6.052928711142158136e-06
3.094000000000000000e+03 2.305423355102539062e+01 7.166812419891357422e-01 1.848706688178936020e-06 -9.577296623319853097e-06 -2.318577116966480389e-06 2.201240022259298712e-05
3.095000000000000000e+03 4.607917404174804688e+01 -1.396742630004882812e+01 -1.254823382623726502e-05 5.373032763600349426e-06 -2.152560455215279944e-06 -3.546703283063834533e-06
3.096000000000000000e+03 2.837135887145996094e+01 -9.411848068237304688e+00 4.751424967253115028e-06 2.839705075530218892e-06 2.277339035572367720e-06 1.603627060831058770e-05
3.097000000000000000e+03 4.385000991821289062e+01 -1.073171138763427734e+01 -1.898179561976576224e-06 -2.917072606578585692e-06 -1.444575673303916119e-06 7.453316356986761093e-06
3.098000000000000000e+03 9.736662864685058594e+00 8.950052261352539062e+00 2.590330404927954078e-05 1.328387315879808739e-05 1.175615307147381827e-05 3.754701538127847016e-06
3.099000000000000000e+03 1.340099525451660156e+01 -8.008119583129882812e+00 5.158349449629895389e-05 7.468658441212028265e-05 3.788102549151517451e-05 -5.047025115345604718e-05
3.100000000000000000e+03 1.184054470062255859e+01 1.760945892333984375e+01 -4.639893631974700838e-06 1.520493128737143707e-06 -9.358201964460022282e-07 -4.174166315351612866e-05
3.101000000000000000e+03 1.399893569946289062e+01 1.540580081939697266e+01 -5.564864113694056869e-05 -9.714538464322686195e-06 -1.960895315278321505e-05 -7.819948223186656833e-06
3.102000000000000000e+03 1.296197986602783203e+01 1.380107212066650391e+01 -4.020813867100514472e-05 -1.863900109810856520e-07 -1.211835842696018517e-05 -1.001885175355710089e-05
3.103000000000000000e+03 1.275323009490966797e+01 9.955727577209472656e+00 1.305709793086862192e-05 2.936820055765565485e-05 1.272758981940569356e-05 -1.364707804896170273e-05
3.104000000000000000e+03 3.857663726806640625e+01 -6.977458477020263672e+00 5.145300292497267947e-06 -2.682593185454607010e-05 -6.504189514089375734e-06 1.914986751216929406e-05
3.105000000000000000e+03 3.406056213378906250e+01 5.228210687637329102e-01 1.949045326909981668e-05 -6.175619546411326155e-06 3.994449798483401537e-06 3.497798752505332232e-05
3.106000000000000000e+03 3.857859802246093750e+01 -2.825589179992675781e+00 -9.998707355407532305e-06 -8.280159818241372705e-06 -5.483660061145201325e-06 -2.021069667534902692e-05
3.107000000000000000e+03 1.321019268035888672e+01 1.226648235321044922e+01 -4.081470615346916020e-05 5.957603661954635754e-06 -1.045712997438386083e-05 -1.482139055042352993e-06
3.108000000000000000e+03 3.340332794189453125e+01 4.065411090850830078e+00 1.212620554724708200e-04 -2.473573294992092997e-05 2.895789839385543019e-05 -5.849679382663452998e-06
3.109000000000000000e+03 3.161798477172851562e+01 5.919150829315185547e+00 4.085082400706596673e-05 1.118964610213879496e-05 1.561214048706460744e-05 4.867422103416174650e-05
3.110000000000000000e+03 3.495895004272460938e+01 1.227551221847534180e+00 -6.082811069063609466e-06 3.633473397712805308e-06 -7.348012331931386143e-07 -1.073385283234529197e-05
3.111000000000000000e+03 2.944844055175781250e+01 -6.230164051055908203e+00 3.704903065226972103e-05 -2.945555252154008485e-06 1.023104232444893569e-05 -6.346279860736103728e-06
3.112000000000000000e+03 2.956426239013671875e+01 -4.612409114837646484e+00 4.134932896704412997e-05 6.076946647226577625e-06 1.422788318450329825e-05 4.719019216281594709e-06
3.113000000000000000e+03 8.139961242675781250e+00 7.591510772705078125e+00 -3.203113919880706817e-06 -4.483692464418709278e-06 -2.306042006239295006e-06 -2.561882320151198655e-05
3.114000000000000000e+03 8.999874114990234375e+00 6.607604980468750000e+00 3.091994585702195764e-05 -2.070623395411530510e-06 8.654796147311571985e-06 5.179545041755773127e-06
3.115000000000000000e+03 1.108516693115234375e+01 7.145193576812744141e+00 -1.264724141947226599e-05 1.420577791577670723e-05 4.675608238358108792e-07 -7.309797183552291244e-06
3.116000000000000000e+03 9.496212959289550781e+00 6.862719535827636719e+00 1.751355557644274086e-05 -5.876852810615673661e-06 3.491010602374444716e-06 -2.783186573651619256e-05
3.117000000000000000e+03 2.722669601440429688e+01 -1.768279433250427246e+00 2.909080103563610464e-05 -4.616596197593025863e-05 -5.122547918290365487e-06 -5.090359422865731176e-07
3.118000000000000000e+03 2.815185546875000000e+01 -2.952310085296630859e+00 4.831215119338594377e-05 1.420296030119061470e-06 1.491973398515256122e-05 -3.707152018250781111e-06
3.119000000000000000e+03 3.699891662597656250e+01 -1.044723987579345703e+01 6.178511739562964067e-06 8.265444193966686726e-06 4.333187007432570681e-06 9.364420293422881514e-06
3.120000000000000000e+03 2.946837234497070312e+01 -7.003726959228515625e+00 -2.232991027995012701e-05 -6.334726094792131335e-06 -8.599391549068968743e-06 6.038483206793898717e-06
3.121000000000000000e+03 4.484111022949218750e+01 -1.315627479553222656e+01 4.929951046506175771e-06 1.181186507892562076e-05 5.022544883104274049e-06 -4.106759661226533353e-06
3.122000000000000000e+03 4.403215026855468750e+01 -1.373087501525878906e+01 -6.859060704300645739e-06 -1.230788984685204923e-05 -5.750085165345808491e-06 1.714104541861161124e-06
3.123000000000000000e+03 7.985830783843994141e+00 6.706419467926025391e+00 1.886769859993364662e-05 5.333736226020846516e-07 5.820321803184924647e-06 -9.122968549490906298e-06
3.124000000000000000e+03 2.733610916137695312e+01 -2.749577283859252930e+00 -2.270893855893518776e-05 -1.114385759137803689e-05 -1.015583893604343757e-05 1.712001539999619126e-05
3.125000000000000000e+03 3.124600791931152344e+01 -8.988822937011718750e+00 1.577597322466317564e-05 1.081785921996925026e-05 7.978150279086548835e-06 2.236812406408716924e-07
3.126000000000000000e+03 2.982394981384277344e+01 -8.876443862915039062e+00 2.893114924518158659e-06 -5.966151547909248620e-06 -9.219109529112756718e-07 9.407251127413474023e-06
3.127000000000000000e+03 9.785764694213867188e+00 6.126303195953369141e+00 1.155141944764181972e-05 1.483453615946928039e-05 7.915787136880680919e-06 8.067874659900553524e-06
3.128000000000000000e+03 1.004394245147705078e+01 7.263525009155273438e+00 6.220994919203803875e-07 1.114009955927031115e-05 3.528659817675361410e-06 9.571559530741069466e-06
3.129000000000000000e+03 2.179257965087890625e+01 4.803467392921447754e-01 -9.218747436534613371e-06 -9.559938916936516762e-06 -5.633605724142398685e-06 9.235614015778992325e-06
3.130000000000000000e+03 3.934164047241210938e+01 -7.293483257293701172e+00 4.929751412419136614e-06 2.462653537804726511e-05 8.866885764291509986e-06 -1.848519059421960264e-05
3.131000000000000000e+03 1.377149295806884766e+01 6.988531112670898438e+00 2.066715569526422769e-05 1.674426783893068205e-07 6.250379556149709970e-06 -1.391145724483067170e-05
3.132000000000000000e+03 1.089553356170654297e+01 9.238650321960449219e+00 -1.736004742269869894e-05 -1.698344931355677545e-06 -5.717517979064723477e-06 -2.563417729106731713e-05
3.133000000000000000e+03 1.127080345153808594e+01 8.333093643188476562e+00 9.914553629641886801e-06 1.000300835585221648e-05 5.975268777547171339e-06 -1.915992243084474467e-06
3.134000000000000000e+03 1.457496356964111328e+01 1.411991786956787109e+01 -4.990850356989540160e-05 -1.493865238444413990e-05 -1.945414805959444493e-05 -1.016709757095668465e-05
3.135000000000000000e+03 1.407141971588134766e+01 1.009528636932373047e+01 1.157442329713376239e-05 -2.545058350733597763e-06 2.708809461182681844e-06 -3.064760312554426491e-05
3.136000000000000000e+03 3.310850524902343750e+01 -2.858199775218963623e-01 7.274966264958493412e-06 -1.462728391743439715e-06 1.743671418807934970e-06 -1.561956378282047808e-05
3.137000000000000000e+03 2.850309181213378906e+01 7.111188411712646484e+00 3.536343501764349639e-05 -2.932266033894848078e-05 1.812232426345872227e-06 -3.258886863477528095e-05
3.138000000000000000e+03 3.088417434692382812e+01 3.759716749191284180e+00 -3.808570909313857555e-05 -2.025547473749611527e-05 -1.750235605868510902e-05 -2.464129283907823265e-05
3.139000000000000000e+03 3.511512374877929688e+01 -5.202491760253906250e+00 1.123486981668975204e-05 -1.439465336261491757e-06 2.938621491921367124e-06 -5.715280622098362073e-06
3.140000000000000000e+03 3.315618896484375000e+01 2.328035116195678711e+00 1.057017434504814446e-04 -2.358582605666015297e-05 2.463477540004532784e-05 1.676053216215223074e-05
3.141000000000000000e+03 3.767780685424804688e+01 -6.855234146118164062e+00 3.200822538929060102e-05 9.092189429793506861e-06 1.233012517332099378e-05 1.097832409868715331e-06
3.142000000000000000e+03 2.963241767883300781e+01 1.462891292572021484e+01 1.599589886609464884e-04 6.436558123823488131e-06 4.991866444470360875e-05 6.268693687161430717e-05
3.143000000000000000e+03 3.171061515808105469e+01 4.925940513610839844e+00 -5.239617166807875037e-05 -2.356174627493601292e-05 -2.278737520100548863e-05 -2.792156556097324938e-05
3.144000000000000000e+03 3.511614990234375000e+01 -1.248205423355102539e+00 5.473705459735356271e-05 1.310369680140865967e-05 2.035222496488131583e-05 3.727388684637844563e-05
3.145000000000000000e+03 2.702556037902832031e+01 -7.444216609001159668e-01 -2.622553256514947861e-05 -1.199063808599021286e-05 -1.146485101344296709e-05 1.718594467092771083e-05
3.146000000000000000e+03 2.455621719360351562e+01 5.387080311775207520e-01 7.803168955433648080e-06 -6.744242000422673300e-07 2.138623358405311592e-06 2.693960414035245776e-05
3.147000000000000000e+03 3.017091751098632812e+01 -3.629863500595092773e+00 -1.315544068347662687e-06 1.525656443845946342e-05 4.182305929134599864e-06 8.375064680876675993e-06
3.148000000000000000e+03 1.921599006652832031e+01 5.818252086639404297e+00 -5.148381023900583386e-05 1.332135434495285153e-05 -1.144873749581165612e-05 -4.016852926724823192e-06
3.149000000000000000e+03 1.766240692138671875e+01 4.634181976318359375e+00 3.274421396781690419e-05 5.549153456740896218e-07 9.989738828153349459e-06 -2.940978993137832731e-05
3.150000000000000000e+03 3.175464820861816406e+01 -7.880609989166259766e+00 2.139396747224964201e-05 1.880470676951517817e-06 6.982331342442194000e-06 4.515135060501052067e-06
3.151000000000000000e+03 3.136852645874023438e+01 -6.888806343078613281e+00 -1.601013536856044084e-05 -7.736050974926911294e-06 -7.123855993995675817e-06 -1.701736351833460503e-07
3.152000000000000000e+03 1.309231948852539062e+01 7.541061401367187500e+00 -3.329530954943038523e-05 -6.763549436072935350e-07 -1.019149931380525231e-05 -4.100122168892994523e-06
3.153000000000000000e+03 1.158565711975097656e+01 6.583836555480957031e+00 3.665494296001270413e-05 -9.169765689875930548e-06 8.245553544838912785e-06 -1.772032373992260545e-05
3.154000000000000000e+03 2.212158393859863281e+01 2.602217912673950195e+00 6.523779302369803190e-05 -1.503426756244152784e-05 1.506105672888224944e-05 8.018932931008748710e-06
3.155000000000000000e+03 4.364878845214843750e+01 -1.302593135833740234e+01 4.753012945002410561e-06 9.560800208419095725e-06 4.294143764127511531e-06 -2.734144857186038280e-07
3.156000000000000000e+03 1.682236289978027344e+01 1.768630981445312500e+01 -1.388636974297696725e-05 -5.048050661571323872e-05 -1.931006227096077055e-05 3.033351276826579124e-05
3.157000000000000000e+03 1.494417858123779297e+01 1.625153732299804688e+01 -6.882702291477471590e-05 1.687005351413972676e-05 -1.558708936499897391e-05 -4.301277840568218380e-06
3.158000000000000000e+03 1.634190177917480469e+01 9.872255325317382812e+00 6.811394996475428343e-06 2.084425887005636469e-06 2.668746219569584355e-06 1.998171319428365678e-05
3.159000000000000000e+03 2.981697463989257812e+01 4.659663677215576172e+00 -5.794567186967469752e-05 -1.371419511997373775e-05 -2.149796091543976218e-05 -2.462203337927348912e-05
3.160000000000000000e+03 2.998859405517578125e+01 3.575292110443115234e+00 6.811246566940099001e-05 1.932765144374570809e-06 2.101356949424371123e-05 3.734941128641366959e-05
3.161000000000000000e+03 3.361412811279296875e+01 -3.347552299499511719e+00 -4.713799717137590051e-05 -4.394274128571851179e-06 -1.545968189020641148e-05 -3.563478230717009865e-06
3.162000000000000000e+03 3.402741622924804688e+01 -1.056379556655883789e+00 -2.758482696663122624e-05 -8.828341378830373287e-06 -1.092395086743636057e-05 1.483922824263572693e-05
3.163000000000000000e+03 3.368382263183593750e+01 -2.194124460220336914e+00 4.687988985097035766e-05 1.586341932124923915e-05 1.882299147837329656e-05 1.117144893214572221e-05
3.164000000000000000e+03 1.226801967620849609e+01 8.590483665466308594e+00 -2.441006654407829046e-05 -7.095804903656244278e-06 -9.451761798118241131e-06 -1.207600507768802345e-05
3.165000000000000000e+03 1.230981540679931641e+01 7.772192955017089844e+00 4.013816214865073562e-05 8.563538358430378139e-06 1.461051033402327448e-05 -2.345160055483574979e-06
3.166000000000000000e+03 3.079430198669433594e+01 4.756874084472656250e+00 7.014803122729063034e-05 6.088771897339029238e-06 2.287104143761098385e-05 3.365047086845152080e-05
3.167000000000000000e+03 2.834589958190917969e+01 5.391777992248535156e+00 4.088044079253450036e-05 -2.905723886215128005e-05 3.546959987943409942e-06 -3.158164327032864094e-05
3.168000000000000000e+03 3.233470916748046875e+01 2.434335708618164062e+00 -5.833044269820675254e-05 -5.004573267797240987e-06 -1.900050483527593315e-05 5.820425576530396938e-05
3.169000000000000000e+03 1.058342266082763672e+01 7.792504787445068359e+00 1.862827048171311617e-05 8.140821591950953007e-06 8.030728167796041816e-06 -1.147582952398806810e-05
3.170000000000000000e+03 2.850082397460937500e+01 -2.111095428466796875e+00 -2.189409497077576816e-05 -1.724881258269306272e-05 -1.174287262983852997e-05 8.899953172658570111e-06
3.171000000000000000e+03 1.560831356048583984e+01 6.621273040771484375e+00 5.349552520783618093e-05 -5.961451279290486127e-07 1.586981306900270283e-05 4.633105163520667702e-06
3.172000000000000000e+03 1.351350784301757812e+01 9.432074546813964844e+00 -2.140192009392194450e-05 -2.581405533419456333e-05 -1.416479244653601199e-05 -4.442269982973812148e-06
3.173000000000000000e+03 1.628577804565429688e+01 8.137598991394042969e+00 -2.547343319747596979e-05 -7.056951289996504784e-06 -9.759115528140682727e-06 -3.614172555899131112e-06
3.174000000000000000e+03 1.206577587127685547e+01 7.153409481048583984e+00 -3.353477222844958305e-05 1.783541301847435534e-05 -4.709807853942038491e-06 -1.272551116926479153e-06
3.175000000000000000e+03 2.779395484924316406e+01 -1.950883626937866211e+00 4.211400300846435130e-05 1.192829950014129281e-05 1.621269075258169323e-05 -1.591113459653570317e-06
3.176000000000000000e+03 1.639180564880371094e+01 1.698119926452636719e+01 -1.137130493589211255e-05 4.504144817474298179e-05 1.010104278975632042e-05 -4.154564885539002717e-05
3.177000000000000000e+03 1.735255622863769531e+01 1.424776268005371094e+01 4.110982263227924705e-05 2.829802360793109983e-05 2.082235369016416371e-05 -1.267571042262716219e-05
3.178000000000000000e+03 1.777642250061035156e+01 9.823289871215820312e+00 -1.542897916806396097e-05 4.731158242066157982e-06 -3.209346232324605808e-06 -6.004266197123797610e-06
3.179000000000000000e+03 2.535359764099121094e+01 1.520865058898925781e+01 -6.006428156979382038e-05 -8.570816135033965111e-05 -4.373173214844428003e-05 -1.872349093900993466e-05
3.180000000000000000e+03 2.364794158935546875e+01 9.787741661071777344e+00 1.118358995881862938e-04 -1.987005816772580147e-05 2.758975097094662488e-05 1.526607593405060470e-05
3.181000000000000000e+03 3.022326469421386719e+01 -8.113647699356079102e-01 7.524102329625748098e-06 1.372338488181412686e-06 2.668932211236096919e-06 3.079010275541804731e-05
3.182000000000000000e+03 2.733524513244628906e+01 3.948375701904296875e+00 7.636960071977227926e-05 1.059775911471660947e-07 2.294267324032261968e-05 -1.746302041283342987e-05
3.183000000000000000e+03 1.638122558593750000e+01 1.199640178680419922e+01 5.908884486416354775e-05 7.732053745712619275e-06 2.004626912821549922e-05 1.028399128699675202e-05
3.184000000000000000e+03 2.598170280456542969e+01 5.901983737945556641e+00 -5.351633808459155262e-05 -2.638068508531432599e-05 -2.396910531388130039e-05 2.677834527275990695e-05
3.185000000000000000e+03 3.246430969238281250e+01 -2.076510190963745117e+00 -3.170114359818398952e-05 -2.480875082255806774e-05 -1.695296850812155753e-05 -1.235183572134701535e-05
3.186000000000000000e+03 1.824181747436523438e+01 1.737725448608398438e+01 9.320724529970902950e-06 -4.242979048285633326e-05 -9.932719876815099269e-06 1.952582897501997650e-05
3.187000000000000000e+03 1.973977661132812500e+01 1.654576873779296875e+01 2.427971776342019439e-05 -1.661487294768448919e-05 2.299453171872301027e-06 5.897357368667144328e-06
3.188000000000000000e+03 2.308607292175292969e+01 8.796416282653808594e+00 -7.192351768026128411e-05 -2.704755388549529016e-06 -2.238848173874430358e-05 1.728683542978615151e-07
3.189000000000000000e+03 2.215353965759277344e+01 8.263928413391113281e+00 -9.731638783705420792e-06 -1.405232796969357878e-05 -7.135190116969170049e-06 -6.396767275873571634e-05
3.190000000000000000e+03 2.566164588928222656e+01 3.946320772171020508e+00 -4.193620043224655092e-06 3.249733708798885345e-05 8.491115295328199863e-06 -2.630271046655252576e-05
3.191000000000000000e+03 2.733889007568359375e+01 2.995179891586303711e+00 -4.695140523836016655e-05 -1.207996774610364810e-05 -1.770941162249073386e-05 1.856937160482630134e-06
3.192000000000000000e+03 1.938449859619140625e+01 1.215692234039306641e+01 -4.611097392626106739e-05 -4.204499418847262859e-05 -2.644679079821798950e-05 -2.555092032707761973e-05
3.193000000000000000e+03 2.201239013671875000e+01 1.200950336456298828e+01 2.923391366493888199e-05 -5.016859358875080943e-05 -6.280404249991988763e-06 -7.814705895725637674e-05
3.194000000000000000e+03 1.541837024688720703e+01 8.511171340942382812e+00 4.732207526103593409e-05 1.090170098905218765e-05 1.746713314787484705e-05 2.363905878155492246e-05
3.195000000000000000e+03 2.470090293884277344e+01 5.265337944030761719e+00 -6.720951932948082685e-05 -3.140758281006128527e-06 -2.110508285113610327e-05 -6.686004326184047386e-06
3.196000000000000000e+03 2.828756904602050781e+01 1.979063749313354492e+00 -8.316640560224186629e-06 -2.849556403816677630e-05 -1.104366128856781870e-05 -2.961908467113971710e-05
3.197000000000000000e+03 2.873121261596679688e+01 9.596685171127319336e-01 -3.273486072430387139e-06 4.793461357621708885e-06 4.559925343983195489e-07 4.624326174962334335e-05
3.198000000000000000e+03 4.085512542724609375e+01 -1.165812397003173828e+01 2.395204683125484735e-05 1.716669203233323060e-06 7.700614332861732692e-06 -7.946192454255651683e-06
3.199000000000000000e+03 2.358420372009277344e+01 3.065917730331420898e+00 5.373481326387263834e-05 -9.625910934119019657e-06 1.323267133557237685e-05 -2.612106436572503299e-05
3.200000000000000000e+03 1.799840164184570312e+01 6.843872070312500000e+00 -4.185679063084535301e-05 3.652778104878962040e-06 -1.146120393968885764e-05 8.273226740129757673e-06
3.201000000000000000e+03 2.622226333618164062e+01 2.264780044555664062e+00 -2.555978062446229160e-05 -1.817849624785594642e-05 -1.312148287979653105e-05 1.099874225474195555e-05
3.202000000000000000e+03 2.030778312683105469e+01 8.435626983642578125e+00 9.480441076448187232e-05 -3.078686859225854278e-05 1.920526301546487957e-05 -2.124185994034633040e-05
3.203000000000000000e+03 2.112516212463378906e+01 7.881980895996093750e+00 -3.429825301282107830e-05 8.950877600000239909e-06 -7.604212896694662049e-06 4.424829603522084653e-05
3.204000000000000000e+03 2.142026901245117188e+01 7.137215614318847656e+00 -1.477791829529451206e-05 -3.311953332740813494e-05 -1.436923594155814499e-05 -5.555147799896076322e-05
3.205000000000000000e+03 2.414539527893066406e+01 3.603730440139770508e+00 2.923501779150683433e-05 -2.170176594518125057e-05 2.259975872220820747e-06 5.445270653581246734e-05
3.206000000000000000e+03 2.436606597900390625e+01 2.940539836883544922e+00 -1.239298580912873149e-05 -1.105849332816433161e-05 -7.035444014036329463e-06 -3.374457082827575505e-05
3.207000000000000000e+03 2.249966239929199219e+01 6.604031562805175781e+00 -1.512208837084472179e-05 1.727654108663045918e-07 -4.484797045734012499e-06 -4.701546276919543743e-05
3.208000000000000000e+03 2.273719596862792969e+01 5.780972480773925781e+00 3.199018101440742612e-05 -1.802229121494747233e-06 9.056386261363513768e-06 2.599280196591280401e-05
3.209000000000000000e+03 2.460310173034667969e+01 4.494902610778808594e+00 8.251595136243849993e-05 -2.468274760758504272e-05 1.734996112645603716e-05 2.614816185086965561e-05
3.210000000000000000e+03 2.475005912780761719e+01 3.919694900512695312e+00 -8.989216439658775926e-06 9.923774086928460747e-06 2.803672884965635603e-07 -5.157510167919099331e-05
3.211000000000000000e+03 2.388798713684082031e+01 4.288063526153564453e+00 -2.074739859381224960e-05 -4.245174750394653529e-06 -7.497772003262070939e-06 -3.424601527513004839e-05
3.212000000000000000e+03 3.978041076660156250e+01 -1.174908161163330078e+01 -2.615528683236334473e-05 1.209376364386116620e-06 -7.483773060812382028e-06 -2.301875156263122335e-06
3.213000000000000000e+03 4.319728088378906250e+01 -1.131488609313964844e+01 -1.976759449462406337e-05 5.532217073778156191e-06 -4.270613317203242332e-06 -1.199460348288994282e-05
3.214000000000000000e+03 1.941721725463867188e+01 6.589151382446289062e+00 8.636357961222529411e-05 -1.314317523792851716e-05 2.196612149418797344e-05 3.486204604996601120e-06
3.215000000000000000e+03 1.552283191680908203e+01 7.592644691467285156e+00 -2.894501631089951843e-05 2.791815177261014469e-06 -7.845960681152064353e-06 -2.931313792942091823e-05
3.216000000000000000e+03 2.111197471618652344e+01 5.270888328552246094e+00 3.571969500626437366e-05 1.098312259273370728e-05 1.401084500685101375e-05 1.981188506761100143e-05
3.217000000000000000e+03 2.107539749145507812e+01 4.408711433410644531e+00 -2.292515819135587662e-05 -2.390770714555401355e-05 -1.404985960107296705e-05 -5.505689841811545193e-06
3.218000000000000000e+03 1.929440307617187500e+01 8.843485832214355469e+00 -7.391692633973434567e-05 4.361304490885231644e-06 -2.086668791889678687e-05 4.624921530194114894e-06
3.219000000000000000e+03 2.049811935424804688e+01 5.334273815155029297e+00 -1.166199581348337233e-05 -3.235357144149020314e-05 -1.320466981269419193e-05 1.179335231427103281e-05
3.220000000000000000e+03 2.288093376159667969e+01 4.841540336608886719e+00 -5.863656497240299359e-06 -2.523274997656699270e-05 -9.328921805717982352e-06 -3.326510704937390983e-05
3.221000000000000000e+03 1.987578773498535156e+01 5.586690902709960938e+00 6.325607682811096311e-05 -7.582498255942482501e-06 1.670207166171167046e-05 -1.638588946661911905e-05
3.222000000000000000e+03 3.985110092163085938e+01 -1.050844383239746094e+01 2.944978041341528296e-05 -6.239238700800342485e-06 6.963162377360276878e-06 -4.444933438207954168e-06
3.223000000000000000e+03 4.716092300415039062e+01 -3.851469039916992188e+01 -5.464034155011177063e-02 1.522888988256454468e-01 2.929456718266010284e-02 9.432078152894973755e-02
3.224000000000000000e+03 4.856845092773437500e+01 4.100969696044921875e+01 6.122983060777187347e-03 -3.658423200249671936e-03 7.393680280074477196e-04 3.013884881511330605e-03
3.225000000000000000e+03 6.763777923583984375e+01 -3.879968643188476562e+01 1.000346988439559937e-02 1.666751806624233723e-03 3.501066472381353378e-03 7.511754054576158524e-03
3.226000000000000000e+03 5.888627243041992188e+01 -1.572361278533935547e+01 -3.536673602866358124e-06 4.022997018182650208e-06 1.458970046996910241e-07 -2.763219754342571832e-06
3.227000000000000000e+03 2.177492141723632812e+01 -1.344452762603759766e+01 3.205902976333163679e-05 -3.791425342569709755e-06 8.480281394440680742e-06 -5.282716756482841447e-06
3.228000000000000000e+03 5.775326538085937500e+01 -2.592799568176269531e+01 2.464330047369003296e-01 7.460419833660125732e-02 9.631115943193435669e-02 1.643271297216415405e-01
3.229000000000000000e+03 4.093377304077148438e+01 -1.950702476501464844e+01 -5.121995400259038433e-06 -2.273012427167486749e-07 -1.604789076736778952e-06 -3.157668402309354860e-07
3.230000000000000000e+03 7.084481048583984375e+01 -2.928485679626464844e+01 -3.436309052631258965e-04 -7.214679499156773090e-06 -1.052536754286848009e-04 -7.471938151866197586e-04
3.231000000000000000e+03 4.982831192016601562e+01 -2.710617446899414062e+01 9.658486396074295044e-02 1.849215626716613770e+00 5.837401151657104492e-01 -2.221720814704895020e-01
3.232000000000000000e+03 5.000070190429687500e+01 -2.622531890869140625e+01 2.858061492443084717e-01 2.386565923690795898e+00 8.017115592956542969e-01 -4.323606789112091064e-01
3.233000000000000000e+03 4.994671249389648438e+01 -2.674883842468261719e+01 1.533401161432266235e-01 1.984926104545593262e+00 6.414798498153686523e-01 -3.058268427848815918e-01
3.234000000000000000e+03 4.983720397949218750e+01 -2.639382362365722656e+01 2.414464503526687622e-01 2.355408668518066406e+00 7.790565490722656250e-01 -2.904878556728363037e-01
3.235000000000000000e+03 4.975443649291992188e+01 -2.656310272216796875e+01 1.958614140748977661e-01 2.211002826690673828e+00 7.220593094825744629e-01 -1.570629775524139404e-01
3.236000000000000000e+03 4.992432785034179688e+01 -2.652796936035156250e+01 2.382211983203887939e-01 2.158177137374877930e+00 7.189194560050964355e-01 -3.586188852787017822e-01
3.237000000000000000e+03 4.972016906738281250e+01 -2.628425025939941406e+01 2.730560600757598877e-01 2.473794698715209961e+00 8.240552544593811035e-01 -1.676890552043914795e-01
3.238000000000000000e+03 4.958427810668945312e+01 -2.620240783691406250e+01 3.017244338989257812e-01 2.632514238357543945e+00 8.802716135978698730e-01 -1.564686372876167297e-02
3.239000000000000000e+03 4.879458999633789062e+01 -2.518378829956054688e+01 2.036856889724731445e+00 2.427454710006713867e+00 1.339293479919433594e+00 1.396431088447570801e+00
3.240000000000000000e+03 4.858000946044921875e+01 -2.536154556274414062e+01 1.795658469200134277e+00 2.051703929901123047e+00 1.154208779335021973e+00 1.203514695167541504e+00
3.241000000000000000e+03 4.843180465698242188e+01 -2.438512992858886719e+01 3.526080608367919922e+00 9.023956656455993652e-01 1.328542947769165039e+00 6.087390780448913574e-01
3.242000000000000000e+03 4.806639099121093750e+01 -2.413223838806152344e+01 3.112814188003540039e+00 1.826190054416656494e-01 9.886299967765808105e-01 -2.948424406349658966e-02
3.243000000000000000e+03 4.994138717651367188e+01 -2.222764396667480469e+01 -6.915216445922851562e-01 2.442568778991699219e+00 5.253141522407531738e-01 3.834984451532363892e-02
3.244000000000000000e+03 5.155776977539062500e+01 -2.323731613159179688e+01 2.731775522232055664e+00 1.084129139780998230e-01 8.520565032958984375e-01 1.365941047668457031e+00
3.245000000000000000e+03 5.201841354370117188e+01 -2.363525962829589844e+01 2.492214202880859375e+00 -3.349719345569610596e-01 6.471726894378662109e-01 6.537803411483764648e-01
3.246000000000000000e+03 5.231815338134765625e+01 -2.354018592834472656e+01 2.073672056198120117e+00 -3.929517567157745361e-01 5.042161345481872559e-01 7.236205935478210449e-01
3.247000000000000000e+03 5.263370513916015625e+01 -2.370702552795410156e+01 1.852864146232604980e+00 -4.372908473014831543e-01 4.246719777584075928e-01 5.348020195960998535e-01
3.248000000000000000e+03 5.716874313354492188e+01 -2.659400939941406250e+01 1.927730441093444824e-01 -4.228610545396804810e-03 5.656332895159721375e-02 1.092277392745018005e-01
3.249000000000000000e+03 6.569550037384033203e-01 -3.204083633422851562e+01 3.065748387598432600e-05 -1.847518069553188980e-05 3.654691454357816838e-06 9.632290129957254976e-06
3.250000000000000000e+03 2.001537799835205078e+00 -2.898311042785644531e+01 -2.341474755667150021e-04 -3.445777110755443573e-05 -8.058157254708930850e-05 1.201413469971157610e-04
3.251000000000000000e+03 6.808935403823852539e-01 -2.908118820190429688e+01 1.229537156177684665e-04 -1.401078134222188964e-05 3.268288128310814500e-05 -8.796084875939413905e-05
3.252000000000000000e+03 7.742343902587890625e+01 -3.701279067993164062e+01 -4.395720607135444880e-04 -3.156507853418588638e-03 -1.078823930583894253e-03 1.670850208029150963e-03
3.253000000000000000e+03 2.518482923507690430e+00 3.696757125854492188e+01 -3.614515298977494240e-05 4.057680052937939763e-05 1.329494466517644469e-06 1.959122164407745004e-05
3.254000000000000000e+03 5.778474044799804688e+01 -2.676202583312988281e+01 1.351419538259506226e-01 1.315236240625381470e-01 7.999967038631439209e-02 1.353179514408111572e-01
3.255000000000000000e+03 4.272320175170898438e+01 -2.504939079284667969e+01 5.727483332157135010e-02 -1.289280772209167480e+00 -3.696017861366271973e-01 -2.816802561283111572e-01
3.256000000000000000e+03 5.780937957763671875e+01 -1.596298313140869141e+01 4.511424776865169406e-06 -6.606853730772854760e-06 -6.286286406975705177e-07 -5.704054274247027934e-06
3.257000000000000000e+03 2.113270568847656250e+01 -3.421842193603515625e+01 7.150580058805644512e-04 -3.706815186887979507e-04 1.033129519782960415e-04 2.787578152492642403e-03
3.258000000000000000e+03 7.951781463623046875e+01 -9.504505157470703125e+00 1.967795565724372864e-02 -1.141958355903625488e+00 -3.366841375827789307e-01 -5.496377870440483093e-02
3.259000000000000000e+03 4.753637695312500000e+01 -4.931278705596923828e+00 -3.861863297061063349e-05 -1.011852691590320319e-05 -1.462114869354991242e-05 -6.428338110708864406e-06
3.260000000000000000e+03 5.243139648437500000e+01 3.527049636840820312e+01 -1.341280713677406311e-02 3.242341335862874985e-03 -3.051139879971742630e-03 7.917530019767582417e-04
3.261000000000000000e+03 5.143659210205078125e+01 3.667029190063476562e+01 -8.178069256246089935e-03 1.888776663690805435e-03 -1.886787940748035908e-03 8.599665015935897827e-03
3.262000000000000000e+03 5.324096298217773438e+01 3.892560577392578125e+01 7.863208651542663574e-03 -2.830169163644313812e-03 1.509911846369504929e-03 1.259454432874917984e-02
3.263000000000000000e+03 3.974943923950195312e+01 -3.962182617187500000e+01 4.996500909328460693e-02 -1.058764532208442688e-01 -1.677343249320983887e-02 -4.388128872960805893e-03
3.264000000000000000e+03 6.367655944824218750e+01 3.644161987304687500e+01 5.052093788981437683e-02 3.957389593124389648e-01 1.338779628276824951e-01 -2.477675825357437134e-01
3.265000000000000000e+03 4.824547195434570312e+01 -2.255805397033691406e+01 4.480035006999969482e-01 3.133750855922698975e-01 2.284135818481445312e-01 -1.641059041023254395e+00
3.266000000000000000e+03 4.113111877441406250e+01 -1.878839874267578125e+01 1.326073015661677346e-05 -4.186519163340562955e-06 2.722263388932333328e-06 -6.958001108614553232e-07
3.267000000000000000e+03 7.367337036132812500e+01 -2.482429885864257812e+01 -2.763391099870204926e-02 -6.418222561478614807e-03 -1.021564006805419922e-02 -3.515081014484167099e-03
3.268000000000000000e+03 7.485790252685546875e+01 -2.388029670715332031e+01 -7.250441610813140869e-02 2.148909261450171471e-03 -2.110665105283260345e-02 -1.498728897422552109e-02
3.269000000000000000e+03 1.027380466461181641e+01 -3.062898445129394531e+01 9.384764125570654869e-04 8.770699059823527932e-05 3.078550216741859913e-04 1.863306388258934021e-04
3.270000000000000000e+03 4.976360702514648438e+01 -2.227394104003906250e+01 -7.122004628181457520e-01 2.464785099029541016e+00 5.257754325866699219e-01 -1.656830310821533203e-02
3.271000000000000000e+03 4.982852172851562500e+01 -2.191023063659667969e+01 -1.693139791488647461e+00 1.727469682693481445e+00 1.029899716377258301e-02 -1.358412951231002808e-01
3.272000000000000000e+03 4.959939575195312500e+01 -2.231128501892089844e+01 -4.947221279144287109e-01 2.277725696563720703e+00 5.349010825157165527e-01 -5.578182339668273926e-01
3.273000000000000000e+03 5.074052047729492188e+01 -2.762731552124023438e+01 1.339474469423294067e-01 1.286747097969055176e+00 4.262083768844604492e-01 -4.540083110332489014e-01
3.274000000000000000e+03 7.351699066162109375e+01 -3.089146804809570312e+01 -2.046303590759634972e-03 1.209774287417531013e-03 -2.509588084649294615e-04 8.677090227138251066e-05
3.275000000000000000e+03 4.833310699462890625e+01 -2.337601089477539062e+01 2.570238828659057617e+00 3.924433887004852295e-01 8.888046741485595703e-01 -1.144813537597656250e+00
3.276000000000000000e+03 5.416448211669921875e+01 -2.373187637329101562e+01 8.408933877944946289e-01 -3.677180707454681396e-01 1.419525891542434692e-01 5.661523342132568359e-01
3.277000000000000000e+03 4.269069194793701172e+00 3.275923728942871094e+00 1.540985067549627274e-05 8.840532245812937617e-06 7.275114967342233285e-06 6.469885533988417592e-07
3.278000000000000000e+03 4.971350479125976562e+01 -2.677227592468261719e+01 1.262317895889282227e-01 2.064374446868896484e+00 6.571818590164184570e-01 -1.500096619129180908e-01
3.279000000000000000e+03 4.938239288330078125e+01 -2.618082427978515625e+01 3.568534851074218750e-01 2.629436016082763672e+00 8.958868980407714844e-01 2.485360801219940186e-01
3.280000000000000000e+03 5.271854782104492188e+01 -2.337571334838867188e+01 1.625521779060363770e+00 -4.256598651409149170e-01 3.599585592746734619e-01 8.278413414955139160e-01
3.281000000000000000e+03 4.850259017944335938e+01 -2.565892028808593750e+01 1.293713331222534180e+00 1.873804092407226562e+00 9.502552151679992676e-01 1.002339720726013184e+00
3.282000000000000000e+03 4.770365524291992188e+01 -2.468654632568359375e+01 2.430293798446655273e+00 1.887547671794891357e-01 7.857146263122558594e-01 3.879276514053344727e-01
3.283000000000000000e+03 4.774528121948242188e+01 -2.378082084655761719e+01 2.425341367721557617e+00 -2.588107585906982422e-01 6.499591469764709473e-01 -6.805267333984375000e-01
3.284000000000000000e+03 3.515831756591796875e+01 -3.565888595581054688e+01 -1.855225861072540283e-02 -3.516710922122001648e-02 -1.611581072211265564e-02 -3.894937783479690552e-02
3.285000000000000000e+03 5.318445587158203125e+01 3.717795181274414062e+01 -6.197535432875156403e-03 2.833236241713166237e-03 -1.009289757348597050e-03 1.320133451372385025e-02
3.286000000000000000e+03 5.369884872436523438e+01 3.588591766357421875e+01 -2.844372391700744629e-02 3.584768157452344894e-03 -7.457686588168144226e-03 3.456481499597430229e-03
3.287000000000000000e+03 5.836008071899414062e+01 -2.177430725097656250e+01 -2.837084233760833740e-01 4.103848934173583984e-01 3.800293803215026855e-02 5.156813263893127441e-01
3.288000000000000000e+03 6.746817016601562500e+01 -1.481566619873046875e+01 1.871935427188873291e-01 3.953650891780853271e-01 1.747675836086273193e-01 9.827999025583267212e-02
3.289000000000000000e+03 7.323507690429687500e+01 -2.046963882446289062e+01 -3.031167089939117432e-01 7.312864810228347778e-02 -6.899641454219818115e-02 -1.918714642524719238e-01
3.290000000000000000e+03 9.098625183105468750e+00 -2.850217103958129883e+00 7.735221151961013675e-05 -2.257457708765286952e-05 1.643329051148612052e-05 -2.071387825708370656e-05
3.291000000000000000e+03 7.707733917236328125e+01 -2.401651191711425781e+01 -2.739669568836688995e-02 -6.788711063563823700e-03 -1.025562174618244171e-02 -8.404219523072242737e-03
3.292000000000000000e+03 4.448895263671875000e+01 -3.124578666687011719e+01 -4.784031584858894348e-02 -3.260036706924438477e-01 -1.121532022953033447e-01 3.675031960010528564e-01
3.293000000000000000e+03 5.225767612457275391e+00 -2.424403762817382812e+01 -5.211126408539712429e-04 -1.273640373256057501e-04 -1.945430121850222349e-04 2.532397047616541386e-04
3.294000000000000000e+03 6.164389133453369141e+00 -2.411137962341308594e+01 2.501092094462364912e-04 1.017774193314835429e-04 1.055659886333160102e-04 1.212434071931056678e-04
3.295000000000000000e+03 4.142550277709960938e+01 2.575996398925781250e+01 3.274538030382245779e-04 1.424841175321489573e-04 1.409813703503459692e-04 -3.672726961667649448e-06
3.296000000000000000e+03 4.174438476562500000e+01 -1.872848892211914062e+01 -1.022979449771810323e-05 -1.189953536595567130e-06 -3.425924433031468652e-06 6.215239523044147063e-07
3.297000000000000000e+03 4.284215164184570312e+01 -1.745607185363769531e+01 1.161468935606535524e-05 -3.221702627342892811e-06 2.517896064091473818e-06 -2.386430651313276030e-06
3.298000000000000000e+03 2.303708076477050781e+00 1.311894512176513672e+01 4.180496762273833156e-05 2.880666761484462768e-05 2.118349038937594742e-05 -1.911691470013465732e-05
3.299000000000000000e+03 1.623239159584045410e+00 6.262886047363281250e+00 -2.031837539107073098e-05 -5.547191221921821125e-07 -6.261928319872822613e-06 1.114142196456668898e-05
3.300000000000000000e+03 1.633480429649353027e+00 -2.744808387756347656e+01 1.519345532869920135e-04 -6.650819705100730062e-05 2.562790541560389102e-05 -7.590447057737037539e-05
3.301000000000000000e+03 3.985356903076171875e+01 -1.551311397552490234e+01 5.773589691671077162e-06 8.221000825869850814e-06 4.198377155262278393e-06 1.172716906694404315e-06
3.302000000000000000e+03 6.856079864501953125e+01 -1.208456039428710938e+01 2.086287587881088257e-01 6.509633660316467285e-01 2.578776478767395020e-01 1.126804128289222717e-01
3.303000000000000000e+03 5.384259033203125000e+01 -2.355533790588378906e+01 9.361952543258666992e-01 -4.132858514785766602e-01 1.568728238344192505e-01 6.506291627883911133e-01
3.304000000000000000e+03 4.830604171752929688e+01 -2.645310783386230469e+01 6.807203292846679688e-01 1.579603433609008789e+00 6.780971288681030273e-01 7.280693650245666504e-01
3.305000000000000000e+03 4.959262466430664062e+01 -2.198637390136718750e+01 -1.507181286811828613e+00 1.641708016395568848e+00 4.035801067948341370e-02 -4.393975436687469482e-01
3.306000000000000000e+03 2.735723304748535156e+01 -1.246242237091064453e+01 -1.992648748228020850e-07 -1.628293034627859015e-06 -5.482673941514804028e-07 -2.836869271050090902e-06
3.307000000000000000e+03 3.410676002502441406e+00 4.087578296661376953e+00 -2.204980046371929348e-05 8.549719495931640267e-06 -4.050024472235236317e-06 6.778983561162021942e-07
3.308000000000000000e+03 5.189788055419921875e+01 -2.306874275207519531e+01 1.896019458770751953e+00 -4.267149418592453003e-02 5.560044050216674805e-01 1.370560765266418457e+00
3.309000000000000000e+03 5.241836166381835938e+01 -2.311815643310546875e+01 1.613310694694519043e+00 -3.120126426219940186e-01 3.903894126415252686e-01 1.155828475952148438e+00
3.310000000000000000e+03 2.779107093811035156e+01 -1.158038997650146484e+01 -9.412183317181188613e-06 1.302727696383954026e-06 -2.432836708976537921e-06 -1.129365955421235412e-06
3.311000000000000000e+03 2.689008140563964844e+01 -1.100435733795166016e+01 -7.299724529730156064e-06 -1.035569880514231045e-06 -2.500588379916734993e-06 -5.382707968237809837e-06
3.312000000000000000e+03 4.786479187011718750e+01 -9.794163703918457031e+00 -1.088573117158375680e-05 -1.702586996543686837e-05 -8.373480341106187552e-06 -4.853852715314133093e-06
3.313000000000000000e+03 4.245655059814453125e+01 -1.889959144592285156e+01 -9.332881745649501681e-06 3.569767557110026246e-07 -2.692771658985293470e-06 -3.344418928463710472e-07
3.314000000000000000e+03 4.303670883178710938e+01 -1.873958969116210938e+01 7.867570275266189128e-06 -5.030850758203087025e-08 2.345178700124961324e-06 -2.699790684346226044e-07
3.315000000000000000e+03 4.262836837768554688e+01 3.043915939331054688e+01 -4.717851115856319666e-04 -1.162647968158125877e-04 -1.764149637892842293e-04 5.033400957472622395e-04
3.316000000000000000e+03 4.543397903442382812e+00 -1.119323444366455078e+01 2.408479340374469757e-04 3.469575631243060343e-06 7.329525396926328540e-05 8.904284914024174213e-05
3.317000000000000000e+03 7.365380096435546875e+01 -2.355474662780761719e+01 -1.131924018263816833e-01 2.764970762655138969e-03 -3.312822803854942322e-02 1.595541276037693024e-02
3.318000000000000000e+03 4.784432220458984375e+01 -2.655656814575195312e+01 7.185055017471313477e-01 1.131742358207702637e+00 5.550743341445922852e-01 7.275042533874511719e-01
3.319000000000000000e+03 5.034347534179687500e+01 -2.860673522949218750e+01 -5.896609276533126831e-02 1.194900512695312500e+00 3.407803177833557129e-01 -2.512026727199554443e-01
3.320000000000000000e+03 4.943035888671875000e+01 -2.661662483215332031e+01 2.092697620391845703e-01 2.194392919540405273e+00 7.210987806320190430e-01 1.041753813624382019e-01
3.321000000000000000e+03 1.574803543090820312e+01 2.157860279083251953e+00 -6.486972324637463316e-06 3.241955255361972377e-06 -9.735051662573823705e-07 -8.660451385367196053e-06
3.322000000000000000e+03 1.395476055145263672e+01 3.456132411956787109e+00 3.389588164282031357e-05 -1.726459458950557746e-06 9.650826541474089026e-06 -9.056403541762847453e-06
3.323000000000000000e+03 7.087574768066406250e+01 3.288467025756835938e+01 -3.432738780975341797e-02 8.783720731735229492e-01 2.532134056091308594e-01 5.758044496178627014e-02
3.324000000000000000e+03 5.447753906250000000e+01 -2.270647811889648438e+01 3.150513470172882080e-01 -2.387569397687911987e-01 2.288831956684589386e-02 9.030751585960388184e-01
3.325000000000000000e+03 4.013575553894042969e+00 -2.542742347717285156e+01 -5.251107504591345787e-04 -7.695986425915180007e-08 -1.575563219375908375e-04 2.342207299079746008e-04
3.326000000000000000e+03 4.884118270874023438e+01 -2.709445571899414062e+01 1.731203198432922363e-01 1.777550101280212402e+00 5.852011442184448242e-01 3.350179493427276611e-01
3.327000000000000000e+03 4.911725234985351562e+01 -2.656158828735351562e+01 2.787384986877441406e-01 2.160083532333374023e+00 7.316465973854064941e-01 3.344140946865081787e-01
3.328000000000000000e+03 4.954492950439453125e+01 -2.672360420227050781e+01 1.676440536975860596e-01 2.087621927261352539e+00 6.765798330307006836e-01 -1.883088424801826477e-02
3.329000000000000000e+03 7.464631652832031250e+01 2.643470764160156250e+01 1.450700312852859497e-01 1.599630266427993774e-01 9.150991588830947876e-02 1.465573161840438843e-01
3.330000000000000000e+03 4.816118621826171875e+01 -2.554637527465820312e+01 1.616699576377868652e+00 1.303542017936706543e+00 8.760724663734436035e-01 9.941705465316772461e-01
3.331000000000000000e+03 4.824832153320312500e+01 -2.578085327148437500e+01 1.217666864395141602e+00 1.498091340065002441e+00 8.147274851799011230e-01 9.306208491325378418e-01
3.332000000000000000e+03 4.733876037597656250e+01 -2.671449470520019531e+01 7.064108252525329590e-01 6.938628554344177246e-01 4.200821220874786377e-01 6.225050687789916992e-01
3.333000000000000000e+03 5.315648269653320312e+01 -2.355176544189453125e+01 1.388786792755126953e+00 -4.732165038585662842e-01 2.746710777282714844e-01 6.844226717948913574e-01
3.334000000000000000e+03 4.937134170532226562e+01 -2.643413162231445312e+01 2.793503403663635254e-01 2.322758197784423828e+00 7.806325554847717285e-01 1.899635493755340576e-01
3.335000000000000000e+03 4.956771850585937500e+01 -2.638398933410644531e+01 2.381720244884490967e-01 2.438591241836547852e+00 8.030290007591247559e-01 -4.254343220964074135e-04
3.336000000000000000e+03 4.959391403198242188e+01 -2.655377578735351562e+01 2.079846709966659546e-01 2.254572629928588867e+00 7.387672066688537598e-01 -4.931544885039329529e-02
3.337000000000000000e+03 3.310504436492919922e+00 -2.055777549743652344e+01 3.435788967180997133e-04 -5.855043855262920260e-05 8.550853817723691463e-05 9.865162428468465805e-05
3.338000000000000000e+03 7.234872436523437500e+01 3.281901168823242188e+01 -5.232240632176399231e-02 5.939868092536926270e-01 1.624993234872817993e-01 1.945557296276092529e-01
3.339000000000000000e+03 7.424015808105468750e+01 3.005556297302246094e+01 7.886467128992080688e-02 1.679846793413162231e-01 7.405480742454528809e-02 2.676039040088653564e-01
3.340000000000000000e+03 2.684249114990234375e+01 -3.518235778808593750e+01 2.042825566604733467e-03 -1.413184334523975849e-03 1.888923288788646460e-04 8.481011027470231056e-04
3.341000000000000000e+03 4.267984867095947266e+00 -2.697275161743164062e+01 5.004495615139603615e-04 -2.025786125159356743e-05 1.440575142623856664e-04 -2.100911806337535381e-04
3.342000000000000000e+03 5.538113784790039062e+01 -2.337607383728027344e+01 3.548491001129150391e-01 -1.854642033576965332e-01 5.081546679139137268e-02 6.232998371124267578e-01
3.343000000000000000e+03 4.962475967407226562e+01 -2.818020820617675781e+01 -7.622212171554565430e-02 1.400691986083984375e+00 3.973409831523895264e-01 -3.230465203523635864e-02
3.344000000000000000e+03 4.687607192993164062e+01 -2.482318687438964844e+01 1.658210515975952148e+00 -3.610262572765350342e-01 3.891552984714508057e-01 7.469325792044401169e-03
3.345000000000000000e+03 5.338526153564453125e+01 -2.328651237487792969e+01 1.062639474868774414e+00 -4.451529681682586670e-01 1.852459609508514404e-01 8.565698862075805664e-01
3.346000000000000000e+03 4.996072387695312500e+01 -2.834593772888183594e+01 -7.437122613191604614e-02 1.285103201866149902e+00 3.632195889949798584e-01 -1.716388016939163208e-01
3.347000000000000000e+03 4.786132431030273438e+01 -3.029695510864257812e+01 -1.752946376800537109e-01 6.649693250656127930e-01 1.469024121761322021e-01 2.989802360534667969e-01
3.348000000000000000e+03 7.508300018310546875e+01 -3.230180740356445312e+01 -2.093002432957291603e-03 1.050509046763181686e-03 -3.127480449620634317e-04 1.907019643113017082e-03
3.349000000000000000e+03 1.385981464385986328e+01 4.616322994232177734e+00 3.876588743878528476e-05 -5.731282726628705859e-06 9.910381777444854379e-06 -6.225430297490675002e-06
3.350000000000000000e+03 5.125402069091796875e+01 -3.108938980102539062e+01 -1.176716014742851257e-01 7.302181720733642578e-01 1.837639808654785156e-01 -1.663911938667297363e-01
3.351000000000000000e+03 7.313871765136718750e+01 2.798057556152343750e+01 1.946824193000793457e-01 7.275851368904113770e-01 2.766802608966827393e-01 1.237159222364425659e-01
3.352000000000000000e+03 4.924565124511718750e+01 -2.677307319641113281e+01 2.161401063203811646e-01 2.028970479965209961e+00 6.735331416130065918e-01 2.288752645254135132e-01
3.353000000000000000e+03 4.896147918701171875e+01 -3.002607727050781250e+01 -1.749807447195053101e-01 8.658030629158020020e-01 2.072466909885406494e-01 1.105369403958320618e-01
3.354000000000000000e+03 3.368848800659179688e+01 1.122760486602783203e+01 -1.733299723127856851e-04 1.634150976315140724e-05 -4.709654240286909044e-05 2.890147698053624481e-05
3.355000000000000000e+03 4.617144584655761719e+00 1.560892677307128906e+01 1.894720480777323246e-05 9.326160579803399742e-06 8.482009434374049306e-06 9.510207746643573046e-06
3.356000000000000000e+03 4.493664550781250000e+01 -1.615791511535644531e+01 -9.471294788454542868e-07 -3.834111794276395813e-06 -1.434372279618401080e-06 -1.352143385702220257e-06
3.357000000000000000e+03 5.509487152099609375e+00 1.510223293304443359e+01 3.590872438508085907e-05 1.319527109444607049e-05 1.473119846195913851e-05 -2.415037306491285563e-05
3.358000000000000000e+03 2.732452011108398438e+01 2.559770965576171875e+01 -2.529642370063811541e-05 -1.022763972287066281e-04 -3.827184627880342305e-05 1.235218369401991367e-04
3.359000000000000000e+03 4.614887237548828125e+01 -9.260817527770996094e+00 -1.020213039737427607e-05 -2.685300751181785017e-05 -1.111654182750498876e-05 6.679895250272238627e-07
3.360000000000000000e+03 6.897799015045166016e+00 1.541521453857421875e+01 2.649755879247095436e-05 1.563176010677125305e-05 1.263879585167160258e-05 -1.637283094169106334e-05
3.361000000000000000e+03 4.476586151123046875e+01 -1.506606101989746094e+01 -4.730124146590242162e-06 -3.534720462994300760e-06 -2.479453542036935687e-06 -6.294123522820882499e-06
3.362000000000000000e+03 3.146356773376464844e+01 -1.048476600646972656e+01 1.443441561832514708e-07 -1.278314584851614200e-06 -3.401911499167908914e-07 -1.772931682353373617e-06
3.363000000000000000e+03 3.036876106262207031e+01 -1.040899944305419922e+01 1.444024519514641725e-06 2.800177071549114771e-06 1.273260522793862037e-06 -5.006298124499153346e-06
3.364000000000000000e+03 2.801565170288085938e+01 2.761771965026855469e+01 9.562335617374628782e-05 -1.213896393892355263e-04 -7.729884600848890841e-06 6.409156776499003172e-05
3.365000000000000000e+03 4.888997268676757812e+01 -2.860943412780761719e+01 -1.064990758895874023e-01 1.189614534378051758e+00 3.249346315860748291e-01 1.797123998403549194e-01
3.366000000000000000e+03 7.413245391845703125e+01 -3.134414291381835938e+01 -2.274301834404468536e-03 4.939050413668155670e-04 -5.341190262697637081e-04 5.582594894804060459e-04
3.367000000000000000e+03 1.469919967651367188e+01 -8.140333175659179688e+00 -1.926274080688017420e-06 6.616333121201023459e-05 1.927111770783085376e-05 -6.344899884425103664e-05
3.368000000000000000e+03 1.472506332397460938e+01 -6.798178672790527344e+00 -5.707765740226022899e-05 -1.138017250923439860e-05 -2.053734897344838828e-05 2.596799504317459650e-06
3.369000000000000000e+03 3.220890808105468750e+01 -1.005327320098876953e+01 2.037134254351258278e-05 3.090586631060432410e-08 6.120674697740469128e-06 6.251164904824690893e-06
3.370000000000000000e+03 3.531784057617187500e+01 -1.007799911499023438e+01 8.404859727306757122e-06 5.189392595639219508e-06 4.078275651409057900e-06 1.039190283336210996e-05
3.371000000000000000e+03 1.772614669799804688e+01 3.079597234725952148e+00 -1.692369551165029407e-05 -5.902995326323434711e-06 -6.848007160442648456e-06 -1.430097290722187608e-05
3.372000000000000000e+03 1.593030834197998047e+01 4.044769287109375000e+00 3.033680695807561278e-05 5.282315100885170978e-07 9.259511898562777787e-06 -1.176209298137109727e-05
3.373000000000000000e+03 8.625936508178710938e+00 1.287982940673828125e+01 5.664641776093048975e-06 8.317345418618060648e-06 4.194595931039657444e-06 -2.951051646959967911e-05
3.374000000000000000e+03 5.530395984649658203e+00 3.335522460937500000e+01 -2.733628389250952750e-05 9.046855666383635253e-06 -5.486828285938827321e-06 4.479608833207748830e-06
3.375000000000000000e+03 1.514245510101318359e+01 -8.636722564697265625e+00 -8.395659097004681826e-05 -2.193408363382332027e-05 -3.176720201736316085e-05 7.093483145581558347e-05
3.376000000000000000e+03 1.528307342529296875e+01 -7.920578002929687500e+00 3.337240559631027281e-05 -6.710051093250513077e-05 -1.011843232845421880e-05 5.390333535615354776e-05
3.377000000000000000e+03 3.035412788391113281e+01 -9.306477546691894531e+00 8.343429726664908230e-06 4.190627805655822158e-06 3.760217396120424382e-06 -2.255468871226185001e-06
3.378000000000000000e+03 4.177294540405273438e+01 -1.283506298065185547e+01 -2.088080464091035537e-07 1.606250975783041213e-06 4.192328901808650699e-07 -1.564816739119123667e-05
3.379000000000000000e+03 4.607380676269531250e+01 -1.324248504638671875e+01 1.150638672697823495e-05 1.204373893415322527e-05 7.065037607389967889e-06 1.447887370886746794e-06
3.380000000000000000e+03 3.304824447631835938e+01 -9.937231063842773438e+00 -2.395266710664145648e-05 5.704283921659225598e-06 -5.474515091918874532e-06 2.794209876810782589e-06
3.381000000000000000e+03 3.373758316040039062e+01 -1.128578376770019531e+01 1.049376896844478324e-05 -4.585723672789754346e-06 1.772413611433876213e-06 1.906152874653344043e-06
3.382000000000000000e+03 4.312271881103515625e+01 -1.252216529846191406e+01 6.265181127673713490e-06 -4.323082521295873448e-06 5.826295250699331518e-07 -1.258758038602536544e-05
3.383000000000000000e+03 1.286204051971435547e+01 -7.374328613281250000e+00 6.857083576505829114e-07 -5.135787796461954713e-05 -1.520165096735581756e-05 -7.051882676023524255e-06
3.384000000000000000e+03 1.277586746215820312e+01 -6.705219268798828125e+00 1.730893018248025328e-06 -7.433311839122325182e-05 -2.178066642954945564e-05 -1.305952355323825032e-05
3.385000000000000000e+03 1.421902465820312500e+01 6.335014820098876953e+00 -1.434481600881554186e-05 1.327745121670886874e-05 -3.202094660537113668e-07 -8.654552402731496841e-06
3.386000000000000000e+03 3.066575241088867188e+01 -8.719815254211425781e+00 8.213498404074925929e-06 -1.727636481518857181e-05 -2.718859832384623587e-06 4.277799689589301124e-06
3.387000000000000000e+03 8.464561462402343750e+00 1.148696899414062500e+01 -3.844201273750513792e-06 6.721419140376383439e-06 8.631653258817095775e-07 -3.361289418535307050e-05
3.388000000000000000e+03 3.201207733154296875e+01 -8.970844268798828125e+00 -1.596661059011239558e-05 -6.941189894860144705e-06 -6.872340236441232264e-06 -6.438790023821638897e-06
3.389000000000000000e+03 2.359119033813476562e+01 2.429367974400520325e-03 2.163743602068279870e-06 -1.936776925504091196e-06 6.809003139096603263e-08 -1.973748840100597590e-05
3.390000000000000000e+03 3.793130493164062500e+01 -1.128355026245117188e+01 3.938977897632867098e-06 -5.224192591413157061e-06 -3.855644479244801914e-07 -1.492673709435621276e-05
3.391000000000000000e+03 7.922577857971191406e+00 1.026253890991210938e+01 -2.522186878195498139e-05 -5.078809408587403595e-06 -9.090203093364834785e-06 -2.119677265000063926e-05
3.392000000000000000e+03 2.995168495178222656e+01 2.188702583312988281e+01 1.897028269013389945e-04 -4.643288775696419179e-05 4.298098065191879869e-05 -5.849925946677103639e-05
3.393000000000000000e+03 8.996682167053222656e+00 7.175852775573730469e+00 -4.306230403017252684e-05 1.511851132818264887e-05 -8.383138265344314277e-06 -3.223592648282647133e-05
3.394000000000000000e+03 3.102763938903808594e+01 -8.199130058288574219e+00 -9.459487046115100384e-06 7.590102995891356841e-06 -5.608151241176528856e-07 -2.958817958642612211e-06
3.395000000000000000e+03 3.899189758300781250e+01 -6.110913276672363281e+00 8.840266673360019922e-06 1.057190547726349905e-05 5.823651918035466224e-06 -1.434771911590360105e-05
3.396000000000000000e+03 9.846352577209472656e+00 8.033744812011718750e+00 -2.379943180130794644e-05 -5.045417310611810535e-06 -8.653454642626456916e-06 -3.280692180851474404e-05
3.397000000000000000e+03 2.856976127624511719e+01 -4.696272850036621094e+00 -2.917905476351734251e-05 -1.196072662423830479e-05 -1.234193405252881348e-05 3.806752602031338029e-06
3.398000000000000000e+03 3.699429321289062500e+01 7.837245464324951172e-01 -7.422867929562926292e-05 1.457606867916183546e-05 -1.789578345778863877e-05 -1.174308749796182383e-06
3.399000000000000000e+03 3.658556365966796875e+01 -1.336552649736404419e-01 7.638506212970241904e-05 -1.522259663033764809e-05 1.834873910411261022e-05 1.437096034351270646e-05
3.400000000000000000e+03 3.040321922302246094e+01 -7.013500213623046875e+00 2.834970109688583761e-05 7.058573828544467688e-06 1.062248247762909159e-05 -9.800745829124934971e-06
3.401000000000000000e+03 3.029147720336914062e+01 -6.236193656921386719e+00 -2.438303999952040613e-05 -4.942364739690674469e-06 -8.797621376288589090e-06 1.649582736718002707e-05
3.402000000000000000e+03 3.874232864379882812e+01 -1.207688617706298828e+01 1.929711106640752405e-05 3.480112354736775160e-06 6.833166935393819585e-06 1.024113771563861519e-05
3.403000000000000000e+03 2.475628280639648438e+01 2.146735191345214844e+00 -2.211722573974839179e-07 -3.050068698939867318e-06 -9.813722954277181998e-07 2.276826489833183587e-05
3.404000000000000000e+03 1.641069412231445312e+01 4.748467922210693359e+00 -3.534685220074607059e-06 7.458787877112627029e-06 1.177230842586141080e-06 4.184495082881767303e-06
3.405000000000000000e+03 2.770383644104003906e+01 -1.240933418273925781e+00 -4.525212716544046998e-06 7.752534656901843846e-06 9.681965593699715100e-07 -9.608351319911889732e-06
3.406000000000000000e+03 4.092103576660156250e+01 -1.072111034393310547e+01 -1.416524901287630200e-05 7.440934496116824448e-06 -2.017294264078373089e-06 6.693185241601895541e-06
3.407000000000000000e+03 3.086108779907226562e+01 1.781783294677734375e+01 8.145091123878955841e-05 -7.717082917224615812e-05 1.284023596781480592e-06 4.426192390383221209e-05
3.408000000000000000e+03 3.179764747619628906e+01 1.700299835205078125e+01 -2.226190117653459311e-04 -6.164532533148303628e-05 -8.527930185664445162e-05 -8.466946746921166778e-05
3.409000000000000000e+03 1.215090847015380859e+01 6.111175537109375000e+00 -2.670676985871978104e-05 1.289739520871080458e-05 -4.142812031204812229e-06 -4.032739070680690929e-06
3.410000000000000000e+03 1.263665199279785156e+01 6.773772716522216797e+00 3.882149394485168159e-05 -2.812297225318616256e-06 1.080275887943571433e-05 -2.009785930567886680e-05
3.411000000000000000e+03 3.486263275146484375e+01 -6.851613521575927734e+00 -1.426679591531865299e-05 1.474799660172720905e-06 -3.837598796962993219e-06 -1.042050189425935969e-05
3.412000000000000000e+03 3.564199829101562500e+01 4.090563952922821045e-01 -1.960928238986525685e-05 1.240558958670590073e-05 -2.161107659048866481e-06 2.182472053391393274e-05
3.413000000000000000e+03 2.949193191528320312e+01 -3.901273488998413086e+00 -2.911197771027218550e-05 -8.263885320047847927e-06 -1.121275909099495038e-05 -2.049117028946056962e-06
3.414000000000000000e+03 2.796968841552734375e+01 2.060281562805175781e+01 -1.328629296040162444e-04 -3.154216392431408167e-05 -4.932153024128638208e-05 -9.637686162022873759e-05
3.415000000000000000e+03 3.330418777465820312e+01 3.197500705718994141e+00 -9.490420779911801219e-05 1.525617517472710460e-05 -2.389441033301409334e-05 2.408853106317110360e-05
3.416000000000000000e+03 3.042998313903808594e+01 -5.539324283599853516e+00 2.925205808423925191e-05 -1.022737379230420629e-07 8.744935257709585130e-06 -1.350491493212757632e-05
3.417000000000000000e+03 3.100458145141601562e+01 -6.065297126770019531e+00 1.588992381584830582e-05 6.931044481461867690e-06 6.846290943940402940e-06 5.490807325259083882e-06
3.418000000000000000e+03 3.174595832824707031e+01 3.964373588562011719e+00 6.559181929333135486e-05 5.842889549967367202e-06 2.143041274393908679e-05 3.386390744708478451e-05
3.419000000000000000e+03 1.733432388305664062e+01 5.842985630035400391e+00 5.165733455214649439e-05 -4.538500206763274036e-07 1.536104537080973387e-05 -1.070760936272563413e-05
3.420000000000000000e+03 3.231133270263671875e+01 -6.535599231719970703e+00 2.138890158676076680e-05 5.543537099583772942e-06 8.079731742327567190e-06 1.200583301397273317e-05
3.421000000000000000e+03 2.608882904052734375e+01 3.442976951599121094e+00 2.094322553602978587e-05 -4.150012318859808147e-05 -6.167069386719958857e-06 2.985388846354908310e-06
3.422000000000000000e+03 3.813371276855468750e+01 -7.766314029693603516e+00 -1.551240711705759168e-05 1.146890281233936548e-05 -1.213051405102305580e-06 -1.284234076592838392e-05
3.423000000000000000e+03 3.134759140014648438e+01 -3.645657539367675781e+00 -1.506504759163362905e-05 2.278895954077597708e-05 2.317173311894293875e-06 1.283635356230661273e-05
3.424000000000000000e+03 3.080700683593750000e+01 -3.036733865737915039e+00 3.086261131102219224e-05 -2.735844464041292667e-05 1.051249910233309492e-06 3.026395233973744325e-06
3.425000000000000000e+03 2.967795562744140625e+01 -3.245447397232055664e+00 4.751593223772943020e-05 -1.194877040688879788e-05 1.067014818545430899e-05 1.483521145928534679e-07
3.426000000000000000e+03 3.014157867431640625e+01 2.519835710525512695e+00 -5.900164251215755939e-05 -1.185556811833521351e-05 -2.125716309819836169e-05 -6.115357336966553703e-06
3.427000000000000000e+03 1.609463500976562500e+01 1.087443828582763672e+01 -3.678436769405379891e-05 -2.512282662792131305e-05 -1.857215829659253359e-05 -4.447784158401191235e-05
3.428000000000000000e+03 2.664281845092773438e+01 3.883589506149291992e+00 -4.618053935701027513e-05 6.601841050724033266e-06 -1.187360885523958132e-05 -2.004171165026491508e-06
3.429000000000000000e+03 2.661214828491210938e+01 3.106101036071777344e+00 6.549306272063404322e-05 -2.010845321365195559e-07 1.958759457920677960e-05 -8.878947141965909395e-07
3.430000000000000000e+03 2.805328941345214844e+01 4.035866260528564453e+00 8.799142051429953426e-06 -3.928439764422364533e-05 -9.145576768787577748e-06 -8.017538675630930811e-06
3.431000000000000000e+03 2.760453414916992188e+01 4.730382919311523438e+00 -2.604168548714369535e-05 -1.685159622866194695e-05 -1.286798487853957340e-05 4.173744673607870936e-05
3.432000000000000000e+03 3.809917449951171875e+01 -1.894501209259033203e+00 -2.575016878836322576e-06 2.812632737914100289e-05 7.665393241040874273e-06 1.967975185834802687e-05
3.433000000000000000e+03 3.760810470581054688e+01 -3.192529916763305664e+00 5.244769999990239739e-05 -1.523302557870920282e-06 1.527731910755392164e-05 1.912223979161353782e-06
3.434000000000000000e+03 1.616200637817382812e+01 1.921213912963867188e+01 -6.902319000801071525e-05 -2.276574741699732840e-05 -2.753668195509817451e-05 2.222369766968768090e-05
3.435000000000000000e+03 2.160316276550292969e+01 6.323893070220947266e+00 3.175758320139721036e-05 -5.330123258318053558e-06 7.928238119347952306e-06 4.463558070710860193e-05
3.436000000000000000e+03 3.014831542968750000e+01 -2.474032402038574219e+00 -2.929043148469645530e-05 5.143156613485189155e-06 -7.244182143040234223e-06 2.631947609188500792e-06
3.437000000000000000e+03 3.332656478881835938e+01 -4.299741268157958984e+00 4.762890239362604916e-05 -1.952260754478629678e-05 8.431888090854045004e-06 -9.391373168909922242e-06
3.438000000000000000e+03 3.269721221923828125e+01 -3.610574483871459961e+00 -1.335927845502737910e-05 2.634510019561275840e-05 3.895746431226143613e-06 1.629083271836861968e-05
3.439000000000000000e+03 1.971724319458007812e+01 9.791995048522949219e+00 8.445452112937346101e-05 3.339766863064141944e-06 2.633828808029647917e-05 1.296028699471207801e-06
3.440000000000000000e+03 3.425098800659179688e+01 -4.679941177368164062e+00 -4.972009628545492887e-05 1.367609002045355737e-05 -1.081320169760147110e-05 3.099766445302520879e-06
3.441000000000000000e+03 1.563744831085205078e+01 1.733889961242675781e+01 -5.527745452127419412e-05 -1.079505636880639941e-05 -1.982175308512523770e-05 1.137363415182335302e-05
3.442000000000000000e+03 1.704340362548828125e+01 1.642441368103027344e+01 5.070532097306568176e-06 -6.177645991556346416e-05 -1.701177825452759862e-05 3.241379818064160645e-05
3.443000000000000000e+03 2.398283958435058594e+01 1.539093017578125000e+01 5.016484647057950497e-05 2.998244781338144094e-05 2.404418773949146271e-05 1.089244619834062178e-06
3.444000000000000000e+03 1.778293800354003906e+01 1.616724777221679688e+01 4.080958751728758216e-05 -8.305291885335464031e-06 9.751289326231926680e-06 -2.440010939608328044e-05
3.445000000000000000e+03 2.398190689086914062e+01 1.666809082031250000e+01 -5.041673284722492099e-05 -7.036628812784329057e-05 -3.623490920290350914e-05 1.516205657026148401e-06
3.446000000000000000e+03 2.332814979553222656e+01 1.146548366546630859e+01 8.922713459469377995e-05 -6.476689304690808058e-05 7.338072464335709810e-06 -5.182045424589887261e-05
3.447000000000000000e+03 2.240692138671875000e+01 1.113809585571289062e+01 3.737188671948388219e-05 2.236345972050912678e-05 1.792060356820002198e-05 7.151035970309749246e-05
3.448000000000000000e+03 2.293109893798828125e+01 1.226381874084472656e+01 1.005669400910846889e-05 4.114894545637071133e-05 1.536169293103739619e-05 6.503159966086968780e-05
3.449000000000000000e+03 7.733950042724609375e+01 -2.693638038635253906e+01 1.634765602648258209e-02 1.178126083686947823e-03 5.257735028862953186e-03 3.751695854589343071e-03
3.450000000000000000e+03 7.808976745605468750e+01 -2.689747047424316406e+01 1.024202536791563034e-02 -5.881258402951061726e-04 2.896169899031519890e-03 3.569649532437324524e-03
3.451000000000000000e+03 7.946337890625000000e+01 -2.608721351623535156e+01 2.267683623358607292e-03 5.026264116168022156e-03 2.188184298574924469e-03 3.680786583572626114e-03
3.452000000000000000e+03 7.731392669677734375e+01 -2.619355583190917969e+01 4.634197801351547241e-03 -1.347294775769114494e-03 9.860709542408585548e-04 5.971542093902826309e-03
3.453000000000000000e+03 7.658641815185546875e+01 -2.697609710693359375e+01 2.042852528393268585e-02 -1.770925708115100861e-03 5.597279872745275497e-03 2.744694473221898079e-03
3.454000000000000000e+03 7.882611083984375000e+01 -2.686320304870605469e+01 4.987148102372884750e-03 1.721087144687771797e-03 2.012470504269003868e-03 2.733561908826231956e-03
3.455000000000000000e+03 7.988860321044921875e+01 -2.624045753479003906e+01 3.807370667345821857e-04 3.814795520156621933e-03 1.258659758605062962e-03 -3.175226156599819660e-04
3.456000000000000000e+03 7.656615447998046875e+01 -2.623495864868164062e+01 7.305009756237268448e-03 -1.104908413253724575e-03 1.860030344687402248e-03 5.166728049516677856e-03
3.457000000000000000e+03 7.805887603759765625e+01 -2.615296745300292969e+01 4.072170704603195190e-03 1.220333273522555828e-03 1.587751088663935661e-03 7.421140093356370926e-03
3.458000000000000000e+03 7.878989410400390625e+01 -2.611702537536621094e+01 1.527531305328011513e-03 2.104407176375389099e-03 1.089581521227955818e-03 5.996347870677709579e-03
3.459000000000000000e+03 7.950491333007812500e+01 -2.683506774902343750e+01 2.411472378298640251e-04 -4.486708203330636024e-04 -6.225707329576835036e-05 1.902018324472010136e-03
3.460000000000000000e+03 7.435298156738281250e+01 -2.623328590393066406e+01 6.473115179687738419e-03 -4.162577912211418152e-03 6.931611569598317146e-04 -2.044003689661622047e-03
3.461000000000000000e+03 7.434702301025390625e+01 -2.697327041625976562e+01 2.604961954057216644e-02 8.930508629418909550e-04 8.082800544798374176e-03 -9.830975905060768127e-04
3.462000000000000000e+03 7.360214233398437500e+01 -2.696339035034179688e+01 2.278375625610351562e-02 -1.960247755050659180e-03 6.247052457183599472e-03 -2.185768680647015572e-03
3.463000000000000000e+03 7.509201812744140625e+01 -2.698283576965332031e+01 2.613647654652595520e-02 -2.230373444035649300e-03 7.171830628067255020e-03 2.850645396392792463e-04
3.464000000000000000e+03 7.582418823242187500e+01 -2.625184822082519531e+01 7.266709581017494202e-03 -3.062517149373888969e-03 1.261257682926952839e-03 2.575373044237494469e-03
3.465000000000000000e+03 7.583707427978515625e+01 -2.699207496643066406e+01 2.409911341965198517e-02 8.675932767800986767e-04 7.490012329071760178e-03 1.690281205810606480e-03
3.466000000000000000e+03 7.361753082275390625e+01 -2.622352600097656250e+01 5.241364240646362305e-03 -2.204581629484891891e-03 9.110348182730376720e-04 -5.978857167065143585e-03
3.467000000000000000e+03 7.508855438232421875e+01 -2.624273109436035156e+01 7.417834829539060593e-03 -1.404556795023381710e-03 1.803983352147042751e-03 1.127938041463494301e-03
3.468000000000000000e+03 7.157109069824218750e+01 -2.632641410827636719e+01 4.750613006763160229e-04 6.411595735698938370e-03 2.065997105091810226e-03 -4.971107468008995056e-03
3.469000000000000000e+03 7.196121978759765625e+01 -2.690628433227539062e+01 4.565624985843896866e-03 2.860997105017304420e-03 2.227986697107553482e-03 -2.230637241154909134e-03
3.470000000000000000e+03 7.278822326660156250e+01 -2.694778633117675781e+01 1.404733210802078247e-02 -9.956860449165105820e-04 3.915493842214345932e-03 -5.659916903823614120e-03
3.471000000000000000e+03 7.288609313964843750e+01 -2.621121215820312500e+01 6.572355050593614578e-03 -5.936399102210998535e-03 1.907868281705304980e-04 -8.207488805055618286e-03
3.472000000000000000e+03 7.221461486816406250e+01 -2.617616653442382812e+01 7.047857623547315598e-03 5.814043805003166199e-03 3.858570475131273270e-03 -1.212249323725700378e-02
3.473000000000000000e+03 7.174316406250000000e+01 -2.767622184753417969e+01 2.894262433983385563e-04 7.932034786790609360e-04 3.247889108024537563e-04 -2.066698507405817509e-04
3.474000000000000000e+03 7.290261077880859375e+01 -2.808098602294921875e+01 1.353692059637978673e-04 -1.499486825196072459e-04 -4.373842784843873233e-06 -2.766143006738275290e-05
3.475000000000000000e+03 7.162282562255859375e+01 -2.841186141967773438e+01 -9.404332377016544342e-05 -1.739037543302401900e-04 -8.038412488531321287e-05 1.335209672106429935e-04
3.476000000000000000e+03 7.285732269287109375e+01 -2.857239532470703125e+01 -3.753933124244213104e-04 -9.731148747960105538e-05 -1.418114406988024712e-04 -2.229997917311266065e-04
3.477000000000000000e+03 7.282831573486328125e+01 -2.759895896911621094e+01 -1.216107484651729465e-04 -5.084458971396088600e-04 -1.890169951366260648e-04 3.277882351540029049e-04
3.478000000000000000e+03 7.119623565673828125e+01 -2.820100975036621094e+01 -9.861230500973761082e-05 -6.277194479480385780e-04 -2.178995200665667653e-04 4.925713874399662018e-04
3.479000000000000000e+03 7.222229003906250000e+01 -2.849229240417480469e+01 -4.780662711709737778e-04 2.397943462710827589e-04 -7.148157601477578282e-05 -1.149550298578105867e-04
3.480000000000000000e+03 7.236045074462890625e+01 -2.788129997253417969e+01 5.422089598141610622e-04 -3.928062506020069122e-05 1.508785062469542027e-04 -3.372537321411073208e-04
3.481000000000000000e+03 7.898888397216796875e+01 -2.760950279235839844e+01 6.411952927010133862e-05 1.434719615645008162e-05 2.354001662752125412e-05 -4.505445031099952757e-05
3.482000000000000000e+03 7.791374206542968750e+01 -2.760621070861816406e+01 1.347985962638631463e-04 -2.143179881386458874e-04 -2.385582047281786799e-05 -2.799030880851205438e-06
3.483000000000000000e+03 7.662735748291015625e+01 -2.860783195495605469e+01 -3.010776999872177839e-04 1.449558621970936656e-04 -4.683654697146266699e-05 1.878330658655613661e-04
3.484000000000000000e+03 7.936871337890625000e+01 -2.833490943908691406e+01 -1.322559401160106063e-04 1.824201899580657482e-04 1.504927513451548293e-05 -6.176399620017036796e-05
3.485000000000000000e+03 7.877022552490234375e+01 -2.845338821411132812e+01 1.506885018898174167e-04 -9.837932157097384334e-05 1.569275264046154916e-05 -1.201106715598143637e-04
3.486000000000000000e+03 7.735025787353515625e+01 -2.800172805786132812e+01 -1.546990679344162345e-04 2.058319369098171592e-04 1.533985778223723173e-05 3.439177089603617787e-05
3.487000000000000000e+03 7.730879211425781250e+01 -2.756325721740722656e+01 1.792660768842324615e-04 1.999206870095804334e-04 1.137560248025692999e-04 5.630607120110653341e-05
3.488000000000000000e+03 7.740731048583984375e+01 -2.851380729675292969e+01 8.003905531950294971e-05 -9.847017645370215178e-05 -5.529337158804992214e-06 -1.464615925215184689e-04
3.489000000000000000e+03 7.659568023681640625e+01 -2.762480163574218750e+01 7.652315252926200628e-05 -9.729716839501634240e-05 -6.232204668776830658e-06 -1.664137198531534523e-05
3.490000000000000000e+03 7.660980987548828125e+01 -2.810980606079101562e+01 1.269954518647864461e-04 -1.403352216584607959e-04 -4.001933575636940077e-06 -4.462981087272055447e-05
3.491000000000000000e+03 7.813754272460937500e+01 -2.849098777770996094e+01 -1.487777335569262505e-04 -5.455757127492688596e-05 -6.100059181335382164e-05 1.841082121245563030e-04
3.492000000000000000e+03 7.842007446289062500e+01 -2.793042945861816406e+01 1.605659235792700201e-05 2.255004255857784301e-05 1.158199029305251315e-05 -6.091097020544111729e-05
3.493000000000000000e+03 7.964272308349609375e+01 -2.773777580261230469e+01 -2.008157207455951720e-05 -2.869539093808270991e-05 -1.463308853999478742e-05 2.535957173677161336e-05
3.494000000000000000e+03 4.454376983642578125e+01 -2.153533744812011719e+01 -1.475913047790527344e+00 -3.480648398399353027e-01 -5.471933484077453613e-01 -7.574259638786315918e-01
3.495000000000000000e+03 4.525796890258789062e+01 -2.133341026306152344e+01 -2.136085033416748047e+00 -3.939274549484252930e-01 -7.590037584304809570e-01 -9.910081028938293457e-01
3.496000000000000000e+03 4.405188369750976562e+01 -2.244241142272949219e+01 -4.789637923240661621e-01 -5.919556021690368652e-01 -3.212758302688598633e-01 -8.810800313949584961e-01
3.497000000000000000e+03 4.615114593505859375e+01 -2.184869003295898438e+01 -1.550785183906555176e+00 -6.516229510307312012e-01 -6.607224345207214355e-01 -1.500566720962524414e+00
3.498000000000000000e+03 4.545270156860351562e+01 -2.204736137390136719e+01 -1.083772897720336914e+00 -6.952592134475708008e-01 -5.337096452713012695e-01 -1.275012612342834473e+00
3.499000000000000000e+03 4.475288772583007812e+01 -2.224522018432617188e+01 -7.324076890945434570e-01 -6.589397788047790527e-01 -4.174042344093322754e-01 -1.099729061126708984e+00
3.500000000000000000e+03 4.597079086303710938e+01 -2.113067054748535156e+01 -2.836578607559204102e+00 -3.843982815742492676e-01 -9.662930965423583984e-01 -1.161763429641723633e+00
3.501000000000000000e+03 4.382838821411132812e+01 -2.173659515380859375e+01 -8.726583719253540039e-01 -2.489473968744277954e-01 -3.364817500114440918e-01 -5.595093369483947754e-01
3.502000000000000000e+03 4.742242813110351562e+01 -2.080677986145019531e+01 -4.786319732666015625e+00 -3.503763377666473389e-01 -1.541008830070495605e+00 -1.461648106575012207e+00
3.503000000000000000e+03 4.815383148193359375e+01 -2.066137695312500000e+01 -5.657214164733886719e+00 -2.592710554599761963e-01 -1.774945616722106934e+00 -1.494584560394287109e+00
3.504000000000000000e+03 4.686201095581054688e+01 -2.167665290832519531e+01 -2.013238906860351562e+00 -5.964496135711669922e-01 -7.829065322875976562e-01 -1.703281283378601074e+00
3.505000000000000000e+03 4.830693054199218750e+01 -2.138541984558105469e+01 -3.033806324005126953e+00 -4.488398879766464233e-02 -9.236070513725280762e-01 -1.601595401763916016e+00
3.506000000000000000e+03 4.888698577880859375e+01 -2.051945686340332031e+01 -6.151141643524169922e+00 -1.621293723583221436e-01 -1.893981218338012695e+00 -1.355541467666625977e+00
3.507000000000000000e+03 4.903206253051757812e+01 -2.124509811401367188e+01 -3.548484325408935547e+00 3.856769502162933350e-01 -9.488422274589538574e-01 -1.114920735359191895e+00
3.508000000000000000e+03 4.758355331420898438e+01 -2.152922821044921875e+01 -2.464241981506347656e+00 -4.150812625885009766e-01 -8.637969493865966797e-01 -1.762088894844055176e+00
3.509000000000000000e+03 4.669285964965820312e+01 -2.095580101013183594e+01 -3.730280160903930664e+00 -3.515577018260955811e-01 -1.224551439285278320e+00 -1.313120007514953613e+00
3.510000000000000000e+03 5.036022949218750000e+01 -2.024225044250488281e+01 -5.739521026611328125e+00 2.221007831394672394e-02 -1.715193271636962891e+00 -7.371975779533386230e-01
3.511000000000000000e+03 5.123764038085937500e+01 -2.082924842834472656e+01 -3.235861778259277344e+00 4.166148006916046143e-01 -8.457741141319274902e-01 6.183223128318786621e-01
3.512000000000000000e+03 4.976291656494140625e+01 -2.110580253601074219e+01 -3.757603883743286133e+00 6.562759876251220703e-01 -9.303983449935913086e-01 -4.068922400474548340e-01
3.513000000000000000e+03 5.197274780273437500e+01 -2.068717575073242188e+01 -2.735251426696777344e+00 2.784757614135742188e-01 -7.370326519012451172e-01 7.158970832824707031e-01
3.514000000000000000e+03 5.050101470947265625e+01 -2.096874237060546875e+01 -3.600085258483886719e+00 6.215693950653076172e-01 -8.935547471046447754e-01 2.360005676746368408e-01
3.515000000000000000e+03 5.183234024047851562e+01 -1.996061325073242188e+01 -3.953105688095092773e+00 1.382824499160051346e-02 -1.181783199310302734e+00 -2.938235402107238770e-01
3.516000000000000000e+03 4.962194442749023438e+01 -2.037934684753417969e+01 -6.185985565185546875e+00 -2.577838860452175140e-02 -1.863529205322265625e+00 -1.081189513206481934e+00
3.517000000000000000e+03 5.109704208374023438e+01 -2.010272216796875000e+01 -4.910406589508056641e+00 9.843463078141212463e-03 -1.470168948173522949e+00 -4.670603275299072266e-01
3.518000000000000000e+03 5.405023574829101562e+01 -1.952743339538574219e+01 -1.619380235671997070e+00 1.076782494783401489e-02 -4.825837016105651855e-01 -6.051824614405632019e-02
3.519000000000000000e+03 5.331044006347656250e+01 -1.967299842834472656e+01 -2.241829395294189453e+00 2.805517753586173058e-03 -6.717071533203125000e-01 -1.074021533131599426e-01
3.520000000000000000e+03 5.271442794799804688e+01 -2.054370307922363281e+01 -2.212170600891113281e+00 1.480395942926406860e-01 -6.192393302917480469e-01 6.584680080413818359e-01
3.521000000000000000e+03 5.495590972900390625e+01 -2.010264968872070312e+01 -9.560781121253967285e-01 1.029497310519218445e-01 -2.559385001659393311e-01 3.913028240203857422e-01
3.522000000000000000e+03 5.478977203369140625e+01 -1.938115119934082031e+01 -1.133840441703796387e+00 1.988209597766399384e-02 -3.341875076293945312e-01 -1.605731621384620667e-02
3.523000000000000000e+03 5.420899581909179688e+01 -2.025038337707519531e+01 -1.325518727302551270e+00 1.014607474207878113e-01 -3.672173917293548584e-01 4.564021527767181396e-01
3.524000000000000000e+03 5.257042312622070312e+01 -1.981785011291503906e+01 -3.033313274383544922e+00 6.982977036386728287e-03 -9.078990817070007324e-01 -1.762658357620239258e-01
3.525000000000000000e+03 5.346182250976562500e+01 -2.039739990234375000e+01 -1.744575858116149902e+00 1.119799762964248657e-01 -4.897787570953369141e-01 5.451591014862060547e-01
3.526000000000000000e+03 5.553008651733398438e+01 -1.920907402038574219e+01 -6.976218223571777344e-01 2.605416439473628998e-02 -2.014703005552291870e-01 2.527039311826229095e-02
3.527000000000000000e+03 5.725695419311523438e+01 -1.950564956665039062e+01 -1.559612751007080078e-01 2.887207865715026855e-01 3.982785344123840332e-02 4.026167392730712891e-01
3.528000000000000000e+03 5.571527862548828125e+01 -1.992561912536621094e+01 -6.646148562431335449e-01 1.503890901803970337e-01 -1.542677283287048340e-01 3.685307800769805908e-01
3.529000000000000000e+03 5.802567672729492188e+01 -1.928994750976562500e+01 1.575217349454760551e-03 3.921059072017669678e-01 1.181043311953544617e-01 4.505293071269989014e-01
3.530000000000000000e+03 5.701029205322265625e+01 -1.880601882934570312e+01 7.899347692728042603e-04 8.651001006364822388e-02 2.618998289108276367e-02 1.732547730207443237e-01
3.531000000000000000e+03 5.627075195312500000e+01 -1.900946998596191406e+01 -3.182680010795593262e-01 7.822311669588088989e-02 -7.201346755027770996e-02 8.308238536119461060e-02
3.532000000000000000e+03 5.774827575683593750e+01 -1.859877204895019531e+01 3.390020132064819336e-01 2.303359955549240112e-01 1.708014011383056641e-01 3.030731081962585449e-01
3.533000000000000000e+03 5.648667907714843750e+01 -1.971755790710449219e+01 -3.930217623710632324e-01 1.845683902502059937e-01 -6.253600865602493286e-02 3.527618348598480225e-01
3.534000000000000000e+03 5.914070129394531250e+01 -1.790256118774414062e+01 7.438425421714782715e-01 4.521914720535278320e-01 3.588102161884307861e-01 5.660343766212463379e-01
3.535000000000000000e+03 5.952583312988281250e+01 -1.853448677062988281e+01 4.126220047473907471e-01 5.580008029937744141e-01 2.911868393421173096e-01 5.675155520439147949e-01
3.536000000000000000e+03 6.026574707031250000e+01 -1.809379196166992188e+01 5.144132375717163086e-01 8.100599646568298340e-01 3.973419666290283203e-01 6.605147719383239746e-01
3.537000000000000000e+03 5.878223419189453125e+01 -1.896722793579101562e+01 1.905987411737442017e-01 5.023370385169982910e-01 2.078807353973388672e-01 4.782155454158782959e-01
3.538000000000000000e+03 6.099867248535156250e+01 -1.764663124084472656e+01 4.855774939060211182e-01 9.204342365264892578e-01 4.218035340309143066e-01 5.076064467430114746e-01
3.539000000000000000e+03 6.048994827270507812e+01 -1.708762741088867188e+01 1.154267787933349609e+00 1.026105165481567383e+00 6.541119217872619629e-01 9.180192351341247559e-01
3.540000000000000000e+03 5.845867919921875000e+01 -1.829862213134765625e+01 5.880992412567138672e-01 3.431368172168731689e-01 2.793708145618438721e-01 4.643277823925018311e-01
3.541000000000000000e+03 5.981904220581054688e+01 -1.749854469299316406e+01 9.172485470771789551e-01 5.381659865379333496e-01 4.366243481636047363e-01 7.193181514739990234e-01
3.542000000000000000e+03 6.389270019531250000e+01 -1.315513706207275391e+01 4.729029834270477295e-01 8.550142645835876465e-01 3.983751833438873291e-01 6.903033852577209473e-01
3.543000000000000000e+03 6.362155151367187500e+01 -1.258993911743164062e+01 5.405473113059997559e-01 7.875344157218933105e-01 3.984245061874389648e-01 6.860975623130798340e-01
3.544000000000000000e+03 6.364220046997070312e+01 -1.379344177246093750e+01 3.726329505443572998e-01 8.234524130821228027e-01 3.588255941867828369e-01 6.265234947204589844e-01
3.545000000000000000e+03 6.329390716552734375e+01 -1.445079326629638672e+01 4.354026913642883301e-01 8.056547045707702637e-01 3.723172247409820557e-01 6.752198338508605957e-01
3.546000000000000000e+03 6.296297836303710938e+01 -1.507676315307617188e+01 4.725651741027832031e-01 7.969579696655273438e-01 3.808569312095642090e-01 6.216533780097961426e-01
3.547000000000000000e+03 6.250194549560546875e+01 -1.563844871520996094e+01 4.906268119812011719e-01 8.704181909561157227e-01 4.083134829998016357e-01 6.714091897010803223e-01
3.548000000000000000e+03 6.201707839965820312e+01 -1.631484985351562500e+01 6.740006804466247559e-01 9.087370634078979492e-01 4.748213291168212891e-01 7.012836337089538574e-01
3.549000000000000000e+03 6.148456954956054688e+01 -1.575653648376464844e+01 4.979562759399414062e-01 1.233149409294128418e+00 5.193316936492919922e-01 8.008762598037719727e-01
3.550000000000000000e+03 6.157407379150390625e+01 -1.705956077575683594e+01 6.981427073478698730e-01 8.320855498313903809e-01 4.590684771537780762e-01 5.419785380363464355e-01
3.551000000000000000e+03 6.322280120849609375e+01 -1.338076305389404297e+01 4.735865592956542969e-01 7.559351921081542969e-01 3.688565194606781006e-01 6.509917974472045898e-01
3.552000000000000000e+03 6.233250427246093750e+01 -1.494980430603027344e+01 4.874872565269470215e-01 9.592179656028747559e-01 4.340115785598754883e-01 6.734029650688171387e-01
3.553000000000000000e+03 6.185053634643554688e+01 -1.498038387298583984e+01 4.743045270442962646e-01 1.160803675651550293e+00 4.905324578285217285e-01 7.083551287651062012e-01
3.554000000000000000e+03 6.265357208251953125e+01 -1.377886962890625000e+01 3.759776651859283447e-01 8.576493263244628906e-01 3.700881004333496094e-01 6.022258400917053223e-01
3.555000000000000000e+03 6.103660202026367188e+01 -1.651272010803222656e+01 9.047980308532714844e-01 1.384831666946411133e+00 6.868888735771179199e-01 9.366995692253112793e-01
3.556000000000000000e+03 6.219382095336914062e+01 -1.432803440093994141e+01 3.808320462703704834e-01 1.068827748298645020e+00 4.348979592323303223e-01 6.531507372856140137e-01
3.557000000000000000e+03 6.283056640625000000e+01 -1.454834175109863281e+01 4.782807826995849609e-01 8.405640721321105957e-01 3.956534564495086670e-01 6.854736208915710449e-01
3.558000000000000000e+03 6.100513076782226562e+01 -1.542561531066894531e+01 1.456896711715671699e-06 9.777249942999333143e-07 7.303864890673139598e-07 2.921610757766757160e-07
3.559000000000000000e+03 5.980083084106445312e+01 -1.543185615539550781e+01 -3.260654466430423781e-06 -6.617123290197923779e-06 -2.963333372463239357e-06 -2.141378672604332678e-06
3.560000000000000000e+03 6.019709777832031250e+01 -1.577101421356201172e+01 3.745131834875792265e-06 -3.427742356620910869e-08 1.113256303142406978e-06 5.497415713762165979e-07
3.561000000000000000e+03 6.056436157226562500e+01 -1.607985115051269531e+01 -8.717502737454196904e-07 -5.498152404470602050e-07 -4.264696542577439686e-07 4.313523334076307947e-07
3.562000000000000000e+03 6.142192840576171875e+01 -1.476541900634765625e+01 -2.328147502339561470e-06 -6.920096211615600623e-07 -9.060471484190202318e-07 -7.987836170286755078e-07
3.563000000000000000e+03 6.213092422485351562e+01 -1.359696483612060547e+01 -1.298509118896618020e-06 -1.238544342641034746e-07 -4.267090787379856920e-07 -2.992159124914905988e-07
3.564000000000000000e+03 6.144266128540039062e+01 -1.412735176086425781e+01 -4.020353969735879218e-07 -5.183927953567035729e-08 -1.361623986895210692e-07 -4.053435418427397963e-07
3.565000000000000000e+03 6.036208724975585938e+01 -1.491959762573242188e+01 2.627864148507796926e-07 -2.776472229015780613e-06 -7.541057698290387634e-07 3.960191747864882927e-07
3.566000000000000000e+03 6.065115356445312500e+01 -1.523142147064208984e+01 -3.768930127989733592e-06 -3.496033968986012042e-07 -1.235560148415970616e-06 9.027346550283255056e-07
3.567000000000000000e+03 6.182951354980468750e+01 -1.412581539154052734e+01 2.742781589404330589e-06 1.868470036470171181e-07 8.788885565991222393e-07 7.777870791869645473e-07
3.568000000000000000e+03 6.099356460571289062e+01 -1.469548988342285156e+01 2.057128313026623800e-06 3.365356860740575939e-06 1.626745529392792378e-06 1.519755521428578504e-08
3.569000000000000000e+03 5.861434173583984375e+01 -1.637038230895996094e+01 -3.380854650458786637e-06 6.549195745719771367e-07 -8.177805170817009639e-07 -2.155109939394606045e-07
3.570000000000000000e+03 5.907415390014648438e+01 -1.671718597412109375e+01 3.377291250217240304e-06 4.507946869125589728e-06 2.365571390328113921e-06 1.610331537449383177e-06
3.571000000000000000e+03 5.928987884521484375e+01 -1.589454174041748047e+01 4.339397946750978008e-06 4.221052222419530153e-06 2.568134959801682271e-06 -4.704836555902147666e-07
3.572000000000000000e+03 5.789558410644531250e+01 -1.685814666748046875e+01 7.111950708349468186e-07 -2.427182153041940182e-07 1.405430509748839540e-07 1.197692540699790698e-06
3.573000000000000000e+03 5.817584609985351562e+01 -1.755254173278808594e+01 -2.389700739513500594e-07 -3.224201691409689374e-06 -1.038951609189098235e-06 1.816232497731107287e-06
3.574000000000000000e+03 6.003462982177734375e+01 -1.659701728820800781e+01 1.109845356950245332e-06 1.374007467802584870e-07 3.741738510143477470e-07 -5.299056624608056154e-07
3.575000000000000000e+03 5.967214584350585938e+01 -1.625088500976562500e+01 -2.116203177138231695e-06 -2.308527200511889532e-06 -1.327419113295036368e-06 -9.831996976572554559e-07
3.576000000000000000e+03 5.885440826416015625e+01 -1.725676536560058594e+01 -1.611453853911370970e-06 5.516764304047683254e-06 1.171593225990363862e-06 -3.823628560439829016e-07
3.577000000000000000e+03 5.944448852539062500e+01 -1.698521423339843750e+01 -2.023057277256157249e-06 -4.122734480915823951e-06 -1.843737550188961904e-06 -1.842460847001348156e-06
3.578000000000000000e+03 5.587814712524414062e+01 -1.781697273254394531e+01 -9.659450370236299932e-06 -6.678936188109219074e-06 -4.901516149402596056e-06 6.559415623996756040e-07
3.579000000000000000e+03 5.585419845581054688e+01 -1.838780212402343750e+01 1.517521610594485537e-07 -9.922843673848547041e-06 -2.931327344413148239e-06 2.411757577647222206e-06
3.580000000000000000e+03 5.528112792968750000e+01 -1.847929763793945312e+01 4.416178001065418357e-07 4.573613296088296920e-06 1.504569354437990114e-06 -4.132538833800936118e-06
3.581000000000000000e+03 5.635134124755859375e+01 -1.824832153320312500e+01 -2.762923031696118414e-06 6.980327270866837353e-06 1.265221158064377960e-06 6.652429078712884802e-07
3.582000000000000000e+03 5.686418914794921875e+01 -1.803310203552246094e+01 -2.942998889921000227e-06 -2.172678925660420646e-08 -8.894176630747097079e-07 -1.298034590035967994e-06
3.583000000000000000e+03 5.634397506713867188e+01 -1.740873908996582031e+01 1.010458890959853306e-05 5.634307399304816499e-06 4.721668574347859249e-06 -7.030282176856417209e-06
3.584000000000000000e+03 5.748024749755859375e+01 -1.785220718383789062e+01 1.611119273547956254e-06 4.186213402590510668e-07 6.089221642469055951e-07 -2.563945145084289834e-06
3.585000000000000000e+03 5.711166381835937500e+01 -1.718612289428710938e+01 2.653311867106822319e-06 -5.518086254596710205e-06 -8.594323048782825936e-07 2.269234300911193714e-06
3.586000000000000000e+03 5.518711853027343750e+01 -1.773766326904296875e+01 -4.695585175795713440e-06 3.746890115507994778e-06 -2.846084896646061679e-07 4.408374479680787772e-06
3.587000000000000000e+03 5.241899490356445312e+01 -1.905364608764648438e+01 2.519218753604945960e-07 1.020200556922645774e-06 3.816367382114549400e-07 1.174247927338001318e-06
3.588000000000000000e+03 5.315275955200195312e+01 -1.891308021545410156e+01 -2.007004411552770762e-07 1.006989691632043105e-06 2.418867666165169794e-07 -1.205654257319110911e-06
3.589000000000000000e+03 5.388480377197265625e+01 -1.876910972595214844e+01 9.797647635423345491e-07 -2.082112587231677026e-06 -3.307043243694351986e-07 7.569061608592164703e-07
3.590000000000000000e+03 5.372604370117187500e+01 -1.804615974426269531e+01 -4.404761057230643928e-06 -3.366666305737453513e-06 -2.331428277102531865e-06 2.798866773900954286e-07
3.591000000000000000e+03 5.461503982543945312e+01 -1.862159919738769531e+01 -2.917545543823507614e-06 8.290202799798862543e-07 -6.265575507313769776e-07 1.597994696567184292e-06
3.592000000000000000e+03 5.444890213012695312e+01 -1.790010070800781250e+01 4.516202807280933484e-06 7.771857326588360593e-07 1.588016630194033496e-06 -7.868088118812011089e-07
3.593000000000000000e+03 5.227499008178710938e+01 -1.832779121398925781e+01 -1.303926921991660492e-08 -5.338417395250871778e-06 -1.605436978024954442e-06 -1.819581484596710652e-06
3.594000000000000000e+03 5.300137710571289062e+01 -1.818867683410644531e+01 2.076533519357326441e-06 4.448246272659162059e-06 1.957434051291784272e-06 2.097080141538754106e-06
3.595000000000000000e+03 5.021003341674804688e+01 -1.947287559509277344e+01 -3.925553357930766651e-07 -4.306359642214374617e-06 -1.409674496244406328e-06 6.947212796148960479e-07
3.596000000000000000e+03 5.094702148437500000e+01 -1.933323669433593750e+01 3.449292478308052523e-07 4.022866960440296680e-06 1.310338916482578497e-06 -2.622730619350477355e-07
3.597000000000000000e+03 4.947301483154296875e+01 -1.961274909973144531e+01 5.305064973981643561e-07 3.715917955560144037e-06 1.273927296097099315e-06 -1.108245783143502194e-06
3.598000000000000000e+03 5.168397521972656250e+01 -1.919383239746093750e+01 2.246272146066985442e-07 -2.934369604190578684e-06 -8.129227353492751718e-07 -4.517067395681806374e-07
3.599000000000000000e+03 5.154356384277343750e+01 -1.846726989746093750e+01 2.167120101148611866e-07 4.758689556183526292e-06 1.492620526732935105e-06 9.507100457994965836e-07
3.600000000000000000e+03 4.933204269409179688e+01 -1.888629341125488281e+01 -1.195097638628794812e-06 -3.100351477769436315e-06 -1.288634734919469338e-06 1.482925426898873411e-06
3.601000000000000000e+03 5.080642700195312500e+01 -1.860671043395996094e+01 -2.849099303148250328e-07 -4.467402959562605247e-06 -1.425693881174083799e-06 -4.447547325980849564e-07
3.602000000000000000e+03 5.006925201416015625e+01 -1.874638557434082031e+01 5.773159728050814010e-07 3.917091817129403353e-06 1.348322257399559021e-06 -7.846709308978461195e-07
3.603000000000000000e+03 4.725450897216796875e+01 -2.004898452758789062e+01 -1.172901534118864220e-06 3.860141930545069044e-07 -2.360662136879909667e-07 4.633606636161857750e-07
3.604000000000000000e+03 4.709337997436523438e+01 -1.932653617858886719e+01 2.592159489722689614e-06 6.565274475178739522e-07 9.746061095938785002e-07 -1.517898112979310099e-06
3.605000000000000000e+03 4.651494979858398438e+01 -2.019693183898925781e+01 7.065807494655018672e-07 -1.296001073569641449e-06 -1.768260773360452731e-07 8.462838252398796612e-08
3.606000000000000000e+03 4.799435043334960938e+01 -1.990183448791503906e+01 6.735563715665193740e-07 1.050847345140937250e-06 5.173210979592113290e-07 -9.771965778782032430e-07
3.607000000000000000e+03 4.873443222045898438e+01 -1.975547790527343750e+01 -9.269009524359717034e-07 -2.552534397182171233e-06 -1.043830593516759109e-06 1.033810917761002202e-06
3.608000000000000000e+03 4.858935928344726562e+01 -1.902983856201171875e+01 1.849772615969413891e-06 1.944355290106614120e-06 1.138238417297543492e-06 -2.066118440779973753e-06
3.609000000000000000e+03 4.634579849243164062e+01 -1.947607994079589844e+01 -3.519509391480823979e-06 -4.185415036772610620e-07 -1.181415314022160601e-06 4.541123814760794630e-07
3.610000000000000000e+03 4.784125137329101562e+01 -1.917778968811035156e+01 -2.566779130575014278e-06 -1.130217128775257152e-06 -1.109098889173765201e-06 1.756531105456815567e-06
3.611000000000000000e+03 4.432126998901367188e+01 -2.078344535827636719e+01 -2.100484977063388214e-07 -9.708218158266390674e-07 -3.542610897966369521e-07 -5.247468379820929840e-07
3.612000000000000000e+03 4.505051040649414062e+01 -2.057725715637207031e+01 2.363170068520048517e-07 -2.351983994230977260e-07 3.355849209629724328e-10 8.665501809446141124e-07
3.613000000000000000e+03 4.359247589111328125e+01 -2.099166297912597656e+01 2.500250388948188629e-07 1.884927314677042887e-06 6.404857231245841831e-07 -2.302212109839274490e-08
3.614000000000000000e+03 4.411215209960937500e+01 -2.007356262207031250e+01 5.266082894195278641e-07 2.457478103679022752e-06 8.952259236139070708e-07 8.749574931243842002e-07
3.615000000000000000e+03 4.578023910522460938e+01 -2.037289810180664062e+01 -8.259694936896266881e-07 1.203240913127956446e-06 1.131814499899519433e-07 -7.282570209099503700e-07
3.616000000000000000e+03 4.559988403320312500e+01 -1.965488052368164062e+01 2.695623152249027044e-06 1.453319669053598773e-06 1.244682835022103973e-06 1.304594093198829796e-06
3.617000000000000000e+03 4.336897659301757812e+01 -2.028584671020507812e+01 -9.427948839402233716e-07 -2.008690671573276632e-06 -8.854456723383918870e-07 -4.987023203284479678e-07
3.618000000000000000e+03 4.485577392578125000e+01 -1.986330604553222656e+01 -1.315507461185916327e-06 -2.473731910868082196e-06 -1.136771743404096924e-06 -1.462856062062201090e-06
3.619000000000000000e+03 4.105918121337890625e+01 -2.103385925292968750e+01 -6.509382274089148268e-06 -5.275455237097048666e-07 -2.111078401867416687e-06 1.964010380106628872e-06
3.620000000000000000e+03 4.198300170898437500e+01 -2.076494598388671875e+01 -1.225032519869273528e-06 -1.866192519628384616e-06 -9.273674663745623548e-07 1.130486793954332825e-06
3.621000000000000000e+03 4.264957046508789062e+01 -2.053101348876953125e+01 1.041511723087751307e-06 1.476730062677233946e-06 7.554725129921280313e-07 -8.816129160038599366e-09
3.622000000000000000e+03 4.200543975830078125e+01 -2.154659652709960938e+01 1.483983140815325896e-07 1.238866275343752932e-06 4.161793754065001849e-07 -6.582617970707360655e-07
3.623000000000000000e+03 4.281084060668945312e+01 -2.126075172424316406e+01 -5.660542115037969779e-07 -2.074439862553845160e-06 -7.921482279016345274e-07 1.500329176451487001e-07
3.624000000000000000e+03 4.143973159790039062e+01 -2.146877861022949219e+01 3.332216238050023094e-06 1.659562940403702669e-07 1.049451725521066692e-06 -3.199111233698204160e-07
3.625000000000000000e+03 4.140149307250976562e+01 -2.091440773010253906e+01 -1.413920358572795521e-06 3.101070205957512371e-06 5.061448860033124220e-07 -1.684719563854741864e-06
3.626000000000000000e+03 4.100804138183593750e+01 -2.131018257141113281e+01 2.949726876977365464e-06 -1.625190407139598392e-06 3.973609352669882355e-07 1.481741605857678223e-06
3.627000000000000000e+03 4.183971786499023438e+01 -2.302727508544921875e+01 -1.656554266810417175e-02 -2.516921758651733398e-01 -8.047731220722198486e-02 -3.617005888372659683e-03
3.628000000000000000e+03 4.219042205810546875e+01 -2.229762840270996094e+01 -3.816628828644752502e-02 -1.181864738464355469e-01 -4.690582677721977234e-02 -1.355116069316864014e-01
3.629000000000000000e+03 4.326124572753906250e+01 -2.270085716247558594e+01 -2.122626602649688721e-01 -5.308492779731750488e-01 -2.229335755109786987e-01 -6.577115058898925781e-01
3.630000000000000000e+03 4.302730941772460938e+01 -2.199828910827636719e+01 -3.830412924289703369e-01 -2.326907515525817871e-01 -1.847196072340011597e-01 -3.312149643898010254e-01
3.631000000000000000e+03 4.243085479736328125e+01 -2.299776458740234375e+01 -7.733754068613052368e-02 -5.621069073677062988e-01 -1.918333321809768677e-01 -3.244167268276214600e-01
3.632000000000000000e+03 1.605741500854492188e+01 -3.611289262771606445e+00 -2.331773976038675755e-05 -2.728344952629413456e-05 -1.518035696790320799e-05 -2.237683111161459237e-05
3.633000000000000000e+03 1.562254238128662109e+01 -4.210125446319580078e+00 3.230391666875220835e-05 2.080640115309506655e-05 1.593309571035206318e-05 2.125948412867728621e-05
3.634000000000000000e+03 1.505074691772460938e+01 -3.785051584243774414e+00 -3.292187466286122799e-05 -2.036790283455047756e-05 -1.598693415871821344e-05 -1.881741263787262142e-05
3.635000000000000000e+03 1.676181221008300781e+01 -5.065579891204833984e+00 3.179624036420136690e-05 2.502678944438230246e-05 1.704690839687827975e-05 2.225088974228128791e-05
3.636000000000000000e+03 1.619318008422851562e+01 -4.636556148529052734e+00 -3.239289799239486456e-05 -2.269829201395623386e-05 -1.652735591051168740e-05 -2.165649493690580130e-05
3.637000000000000000e+03 1.723610115051269531e+01 -4.496263980865478516e+00 -2.790556754916906357e-05 -3.252334499848075211e-05 -1.812867412809282541e-05 -2.699961078178603202e-05
3.638000000000000000e+03 1.546591091156005859e+01 -3.171455383300781250e+00 1.950540354300756007e-05 2.389018845860846341e-05 1.301867723668692634e-05 1.864261685113888234e-05
3.639000000000000000e+03 1.664776039123535156e+01 -4.052479743957519531e+00 2.538206354074645787e-05 3.042407843167893589e-05 1.674184204603079706e-05 2.572265839262399822e-05
3.640000000000000000e+03 1.831977081298828125e+01 -5.492505550384521484e+00 -2.946107997559010983e-05 -3.107875818386673927e-05 -1.816195253923069686e-05 -2.697457057365681976e-05
3.641000000000000000e+03 1.780974006652832031e+01 -6.028855800628662109e+00 2.858598418242763728e-05 2.733821565925609320e-05 1.677725958870723844e-05 2.095078525599092245e-05
3.642000000000000000e+03 1.730055999755859375e+01 -5.529824733734130859e+00 -3.065885903197340667e-05 -2.754851084318943322e-05 -1.746221096254885197e-05 -2.099287485179957002e-05
3.643000000000000000e+03 1.831691551208496094e+01 -6.530111789703369141e+00 -2.839243825292214751e-05 -2.751289139268919826e-05 -1.677159889368340373e-05 -1.976778366952203214e-05
3.644000000000000000e+03 1.882190132141113281e+01 -7.033396244049072266e+00 2.997561387019231915e-05 2.719517033256124705e-05 1.715123471512924880e-05 1.894854904094245285e-05
3.645000000000000000e+03 1.936644935607910156e+01 -6.531159877777099609e+00 -2.814602703438140452e-05 -2.602530912554357201e-05 -1.625140066607855260e-05 -2.312761171197053045e-05
3.646000000000000000e+03 1.779333305358886719e+01 -4.976417064666748047e+00 2.853896330634597689e-05 3.223574822186492383e-05 1.823241291276644915e-05 2.775914617814123631e-05
3.647000000000000000e+03 1.884420585632324219e+01 -6.010818481445312500e+00 2.813480568875093013e-05 2.848124495358206332e-05 1.698481537459883839e-05 2.612236312415916473e-05
3.648000000000000000e+03 2.031454658508300781e+01 -7.659852027893066406e+00 -2.553940248617436737e-05 -1.941842492669820786e-05 -1.348734804196283221e-05 -1.864799742179457098e-05
3.649000000000000000e+03 2.077073287963867188e+01 -8.240385055541992188e+00 2.425446837150957435e-05 1.593913657416123897e-05 1.205808166560018435e-05 1.683190748735796660e-05
3.650000000000000000e+03 1.929654693603515625e+01 -7.565644741058349609e+00 -2.836239946191199124e-05 -2.628957736305892467e-05 -1.639559377508703619e-05 -1.854957008617930114e-05
3.651000000000000000e+03 2.062350273132324219e+01 -9.254287719726562500e+00 3.276202915003523231e-05 1.899048402265179902e-05 1.552575304231140763e-05 1.658335168031044304e-05
3.652000000000000000e+03 2.018299865722656250e+01 -8.690117835998535156e+00 -3.149811527691781521e-05 -2.112664878950454295e-05 -1.578742921992670745e-05 -1.572704059071838856e-05
3.653000000000000000e+03 1.974063491821289062e+01 -8.127175331115722656e+00 2.938494435511529446e-05 2.406309067737311125e-05 1.603440978215076029e-05 1.650718877499457449e-05
3.654000000000000000e+03 2.122505760192871094e+01 -8.822144508361816406e+00 -2.294010300829540938e-05 -1.394128685205942020e-05 -1.106441686715697870e-05 -1.470348342991201207e-05
3.655000000000000000e+03 1.985663604736328125e+01 -7.080731868743896484e+00 2.647285509738139808e-05 2.190718623751308769e-05 1.451401294616516680e-05 2.153343484678771347e-05
3.656000000000000000e+03 2.203341293334960938e+01 -1.005728912353515625e+01 -2.083498111460357904e-05 -9.951556421583518386e-06 -9.235961442755069584e-06 -1.051398248819168657e-05
3.657000000000000000e+03 2.140859222412109375e+01 -1.045394611358642578e+01 2.779187343548983335e-05 1.937492197612300515e-05 1.415003862348385155e-05 1.125680591940181330e-05
3.658000000000000000e+03 2.103163337707519531e+01 -9.842617988586425781e+00 -2.943354047602042556e-05 -2.001048596866894513e-05 -1.483320829720469192e-05 -1.646922464715316892e-05
3.659000000000000000e+03 2.178438568115234375e+01 -1.106581783294677734e+01 -3.044057484657969326e-05 -1.198926111101172864e-05 -1.272895042347954586e-05 -9.297945325670298189e-06
3.660000000000000000e+03 2.215780448913574219e+01 -1.167914867401123047e+01 2.132000190613325685e-05 1.274949227081378922e-05 1.022084870783146471e-05 9.601586498320102692e-06
3.661000000000000000e+03 2.280443191528320312e+01 -1.131808185577392578e+01 -2.251454498036764562e-05 -8.147513653966598213e-06 -9.198617590300273150e-06 -6.890096301503945142e-06
3.662000000000000000e+03 2.164555168151855469e+01 -9.428166389465332031e+00 2.116581708833109587e-05 1.182478990813251585e-05 9.897181371343322098e-06 1.278726267628371716e-05
3.663000000000000000e+03 2.242011070251464844e+01 -1.068695640563964844e+01 1.920287286338862032e-05 7.599580840178532526e-06 8.040736247494351119e-06 1.015004545479314402e-05
3.664000000000000000e+03 2.317674064636230469e+01 -1.199929141998291016e+01 2.068104186037089676e-05 3.065392320422688499e-06 7.123930117813870311e-06 8.472807166981510818e-06
3.665000000000000000e+03 2.284523010253906250e+01 -1.300796508789062500e+01 1.900782808661460876e-05 -7.827731565157591831e-07 5.467516075441380963e-06 2.172423364754649810e-06
3.666000000000000000e+03 2.406083297729492188e+01 -1.497063064575195312e+01 -4.285557224648073316e-06 2.348853740841150284e-06 -5.810110792481282260e-07 2.340464106964645907e-06
3.667000000000000000e+03 2.462505912780761719e+01 -1.485978507995605469e+01 1.661312853684648871e-05 -1.215926204167772084e-06 4.619160790753085166e-06 -3.270466095273150131e-06
3.668000000000000000e+03 2.389264106750488281e+01 -1.346117115020751953e+01 7.683015610382426530e-06 7.375270797638222575e-06 4.517486104305135086e-06 3.554664544935803860e-06
3.669000000000000000e+03 2.353559875488281250e+01 -1.273112678527832031e+01 -1.389300177834229544e-05 -5.556320957111893222e-06 -5.834796866110991687e-06 -9.194761332764755934e-06
3.670000000000000000e+03 2.488323020935058594e+01 -1.545215702056884766e+01 -7.689387530263047665e-06 -8.350784810318145901e-07 -2.557339712438988499e-06 4.986761581449172809e-08
3.671000000000000000e+03 2.424729537963867188e+01 -1.417472362518310547e+01 -1.237168180523440242e-05 -5.374172360461670905e-06 -5.323756340658292174e-06 4.457203885976923630e-06
3.672000000000000000e+03 2.350594520568847656e+01 -1.435108280181884766e+01 1.529956716694869101e-05 2.247964221169240773e-05 1.133376281359232962e-05 -2.388031361988396384e-06
3.673000000000000000e+03 2.317678260803222656e+01 -1.368776988983154297e+01 -2.082162791339214891e-05 -9.950569619832094759e-06 -9.231659532815683633e-06 -1.032724139804486185e-05
3.674000000000000000e+03 2.251189041137695312e+01 -1.232635593414306641e+01 -1.118217460316373035e-05 -1.139318646892206743e-05 -6.772608230676269159e-06 -9.542607131152180955e-07
3.675000000000000000e+03 2.456154632568359375e+01 -1.316923522949218750e+01 5.239785423327703029e-07 4.405287654662970454e-07 2.893521866553783184e-07 1.445142629563633818e-06
3.676000000000000000e+03 2.482023620605468750e+01 -1.197365283966064453e+01 8.542451155335584190e-07 2.080866352116572671e-06 8.805334346106974408e-07 1.914085942189558409e-06
3.677000000000000000e+03 2.650333786010742188e+01 -1.565426826477050781e+01 1.776248723217577208e-06 -2.695621105885948054e-06 -2.758117432222206844e-07 9.107729965762700886e-07
3.678000000000000000e+03 2.385268974304199219e+01 -1.163848972320556641e+01 9.776301794772734866e-07 1.239809648723166902e-06 6.652319939348672051e-07 6.326014840851712506e-07
3.679000000000000000e+03 2.484836769104003906e+01 -1.395820903778076172e+01 -9.579815696270088665e-07 -8.615256774646695703e-07 -5.458521741275035311e-07 -1.074952933777240105e-06
3.680000000000000000e+03 2.532261657714843750e+01 -1.399315357208251953e+01 2.742669266808661632e-06 6.899763320689089596e-07 1.029793679663271178e-06 -1.448948410143202636e-06
3.681000000000000000e+03 2.568108749389648438e+01 -1.559443092346191406e+01 9.304552577305003069e-07 1.216038640450278763e-06 6.439481694542337209e-07 7.243697268677351531e-07
3.682000000000000000e+03 2.449533462524414062e+01 -1.126426315307617188e+01 -1.340775270364247262e-06 -2.504530129954218864e-06 -1.153591597358172294e-06 -2.902292862927424721e-06
3.683000000000000000e+03 2.516623687744140625e+01 -1.270689773559570312e+01 1.173676878352125641e-06 -1.607952754056896083e-06 -1.302827854487986770e-07 -2.025136154770734720e-06
3.684000000000000000e+03 2.556309509277343750e+01 -1.336782169342041016e+01 -3.140089120279299095e-06 1.634163595554127824e-06 -4.517776517332094954e-07 2.478779833836597390e-06
3.685000000000000000e+03 2.595065307617187500e+01 -1.390986061096191406e+01 4.070764134667115286e-06 -2.592329337858245708e-06 4.435304390426608734e-07 -3.468185468591400422e-06
3.686000000000000000e+03 2.620536613464355469e+01 -1.446394062042236328e+01 -8.527169939043233171e-07 1.579521608618961181e-06 2.180414071517589036e-07 3.781033683480927721e-06
3.687000000000000000e+03 2.637091255187988281e+01 -1.507584285736083984e+01 -3.708629776610905537e-07 -4.281112921944441041e-07 -2.396922695879766252e-07 -1.986018560273805633e-06
3.688000000000000000e+03 2.638264656066894531e+01 -1.612632179260253906e+01 -2.318588258276577108e-06 -1.593425622559152544e-06 -1.173604232462821528e-06 -4.461633977825840702e-07
3.689000000000000000e+03 2.419656753540039062e+01 -1.239193534851074219e+01 -1.951930528321099700e-07 -1.288045154979045037e-06 -4.449714481324917870e-07 -1.416530039932695217e-06
3.690000000000000000e+03 2.512793922424316406e+01 -1.461182594299316406e+01 -2.048318634706447483e-07 -1.206131400977028534e-06 -4.232889807553874562e-07 8.398040449719701428e-07
3.691000000000000000e+03 2.566095924377441406e+01 -1.495156669616699219e+01 -3.320569703646469861e-07 9.285034821004956029e-07 1.789339592050964711e-07 8.050255360103619751e-07
3.692000000000000000e+03 2.577541732788085938e+01 -1.432993030548095703e+01 -2.011203008578377194e-07 -9.196947985401493497e-07 -3.362445397669944214e-07 3.448691927587788086e-07
3.693000000000000000e+03 2.269077491760253906e+01 -9.641036033630371094e+00 -2.476233703418984078e-06 3.319282200209272560e-07 -6.432916848098102491e-07 -3.760389745366410352e-06
3.694000000000000000e+03 2.348543930053710938e+01 -1.093805503845214844e+01 -1.044932560034794733e-06 -2.533798504344986213e-09 -3.142399123134964611e-07 -1.683325422163761687e-06
3.695000000000000000e+03 2.229273414611816406e+01 -8.991255760192871094e+00 5.728052656195359305e-06 3.609965233408729546e-06 2.801405344143859111e-06 1.646195983084908221e-06
3.696000000000000000e+03 2.308835411071777344e+01 -1.029005146026611328e+01 3.373713752807816491e-06 1.522088609817728866e-06 1.468740720156347379e-06 8.891409493116952945e-07
3.697000000000000000e+03 2.413209533691406250e+01 -1.057697391510009766e+01 4.540385816653724760e-06 1.778294063115026802e-06 1.895603872981155291e-06 1.751362447066640016e-06
3.698000000000000000e+03 2.290665245056152344e+01 -8.576805114746093750e+00 -1.443092742192675360e-06 -8.820308607937477063e-07 -6.975370752115850337e-07 -7.415218988171545789e-06
3.699000000000000000e+03 2.331559562683105469e+01 -9.244379997253417969e+00 6.819313512096414343e-06 1.558768417453393340e-06 2.513424533390207216e-06 3.150933025608537719e-06
3.700000000000000000e+03 2.372407913208007812e+01 -9.911190032958984375e+00 -3.317251639600726776e-06 -3.164304871461354196e-07 -1.090104660761426203e-06 -4.365032054920447990e-06
3.701000000000000000e+03 2.091797065734863281e+01 -7.169854164123535156e+00 -2.292833727324250503e-07 7.551795988547382876e-07 1.577688664156084997e-07 -7.513873697462258860e-06
3.702000000000000000e+03 2.044657707214355469e+01 -6.570147991180419922e+00 1.057631470757769421e-05 7.714387720625381917e-06 5.487210728460922837e-06 -2.161116583465627627e-07
3.703000000000000000e+03 2.138868331909179688e+01 -7.768980979919433594e+00 6.277610737015493214e-06 6.022193247190443799e-06 3.689941195261781104e-06 9.988133342631044798e-07
3.704000000000000000e+03 2.185866355895996094e+01 -8.367236137390136719e+00 -1.416236955265048891e-06 9.844575998840809916e-08 -3.953373663989623310e-07 -6.377290901582455263e-06
3.705000000000000000e+03 2.246022033691406250e+01 -7.935092449188232422e+00 5.642722044285619631e-06 4.221960352879250422e-06 2.959404582725255750e-06 3.812167278738343157e-06
3.706000000000000000e+03 2.100666618347167969e+01 -6.085235118865966797e+00 3.873616662986023584e-07 -7.644196671208192129e-07 -1.131174087731778855e-07 -9.493238394497893751e-06
3.707000000000000000e+03 2.149188232421875000e+01 -6.702531337738037109e+00 9.672463420429266989e-06 6.540460162796080112e-06 4.863877165917074308e-06 1.585650466040533502e-06
3.708000000000000000e+03 2.197641754150390625e+01 -7.319247722625732422e+00 1.409370611327176448e-06 -2.492580506441299804e-06 -3.249629401125275763e-07 -8.557413821108639240e-06
3.709000000000000000e+03 1.885587120056152344e+01 -4.930348396301269531e+00 3.247506583647918887e-06 -6.733118880219990388e-07 7.722583745817246381e-07 -1.476212764828233048e-05
3.710000000000000000e+03 1.831238174438476562e+01 -4.393686294555664062e+00 1.676874489930924028e-05 1.497250013926532120e-05 9.522373147774487734e-06 -8.375579341191041749e-07
3.711000000000000000e+03 1.939846801757812500e+01 -5.466702461242675781e+00 1.309744402533397079e-05 1.145005717262392864e-05 7.364250450336840004e-06 8.549441758987086359e-07
3.712000000000000000e+03 1.994004440307617188e+01 -6.002428531646728516e+00 4.803114848073164467e-07 1.416990698999143206e-06 5.691906608262797818e-07 -1.205485386890359223e-05
3.713000000000000000e+03 2.048459243774414062e+01 -5.500192165374755859e+00 1.103154500015079975e-05 4.780955350724980235e-06 4.743750196212204173e-06 2.792079385471879505e-06
3.714000000000000000e+03 1.880515289306640625e+01 -3.840278863906860352e+00 8.234573215304408222e-06 -1.842150027187017258e-06 1.917727104228106327e-06 -1.385363430017605424e-05
3.715000000000000000e+03 1.936590194702148438e+01 -4.393997669219970703e+00 1.230417637998471037e-05 9.617529030947480351e-06 6.576511623279657215e-06 1.012887651086202823e-06
3.716000000000000000e+03 1.992575645446777344e+01 -4.947409152984619141e+00 6.476538601418724284e-06 2.312524394199044764e-08 1.949899115061271004e-06 -1.346244062006007880e-05
3.717000000000000000e+03 1.695117187500000000e+01 -2.380243301391601562e+00 1.442575194232631475e-05 1.398359472659649327e-05 8.522803909727372229e-06 2.461249266616505338e-07
3.718000000000000000e+03 1.651630020141601562e+01 -2.979079723358154297e+00 1.081648133549606428e-05 -3.780641009143437259e-06 2.110752120643155649e-06 -1.908413287310395390e-05
3.719000000000000000e+03 1.590384101867675781e+01 -2.523920059204101562e+00 2.094310912070795894e-05 1.955310835910495371e-05 1.214886469824705273e-05 -2.557548668846720830e-06
3.720000000000000000e+03 1.712716102600097656e+01 -3.436568260192871094e+00 1.880361560324672610e-05 1.689779674052260816e-05 1.071042424882762134e-05 -9.885502549877855927e-07
3.721000000000000000e+03 1.758174324035644531e+01 -2.852491855621337891e+00 1.283045003219740465e-05 -2.015142854361329228e-06 3.244592107876087539e-06 -1.699410131550393999e-05
3.722000000000000000e+03 1.773609352111816406e+01 -3.896142244338989258e+00 7.667677891731727868e-06 -1.361132035526679829e-06 1.891963620437309146e-06 -1.781568789738230407e-05
3.723000000000000000e+03 1.821038436889648438e+01 -3.326825857162475586e+00 1.418268493580399081e-05 1.081294340110616758e-05 7.498688773921458051e-06 1.344442921435984317e-06
3.724000000000000000e+03 1.631900405883789062e+01 -1.910323858261108398e+00 1.939610956469550729e-05 -4.504647222347557545e-06 4.467438884603325278e-06 -1.605620855116285384e-05
3.725000000000000000e+03 1.460399055480957031e+01 -1.730789542198181152e+00 2.038043567154090852e-05 1.772983523551374674e-05 1.143308145401533693e-05 -4.880384494754252955e-06
3.726000000000000000e+03 1.394003677368164062e+01 -1.356149435043334961e+00 1.963544491445645690e-05 -4.133133643335895613e-06 4.650693426810903475e-06 -1.581880860612727702e-05
3.727000000000000000e+03 1.327490711212158203e+01 -9.841976165771484375e-01 2.132085319317411631e-05 1.525823972770012915e-05 1.097372751246439293e-05 -6.790222869312856346e-06
3.728000000000000000e+03 1.429506587982177734e+01 -7.068015336990356445e-01 1.289148804062278941e-05 1.460284693166613579e-05 8.248300218838267028e-06 -6.499586106656352058e-06
3.729000000000000000e+03 1.497913169860839844e+01 -1.092790365219116211e+00 2.334299824724439532e-05 -4.544199782685609534e-06 5.639639766741311178e-06 -1.346911994914989918e-05
3.730000000000000000e+03 1.526644039154052734e+01 -2.107936620712280273e+00 1.767386493156664073e-05 -5.126114047016017139e-06 3.764325583688332699e-06 -1.863929173850920051e-05
3.731000000000000000e+03 1.566169452667236328e+01 -1.481285929679870605e+00 1.129162592405918986e-05 1.613030144653748721e-05 8.226577847381122410e-06 -3.158423169224988669e-06
3.732000000000000000e+03 1.360982322692871094e+01 -3.235010504722595215e-01 2.420688724669162184e-05 -2.345158009120495990e-06 6.558518634847132489e-06 -1.084580071619711816e-05
3.733000000000000000e+03 1.136861705780029297e+01 6.672526597976684570e-01 1.062398496287642047e-05 8.174301910912618041e-06 5.639486062136711553e-06 -9.606334060663357377e-06
3.734000000000000000e+03 1.043688488006591797e+01 2.462611943483352661e-01 1.953155879164114594e-05 8.719902325537987053e-06 8.475438335153739899e-06 -7.481248303520260379e-06
3.735000000000000000e+03 1.187135696411132812e+01 -3.428127467632293701e-01 1.958171014848630875e-05 1.126934239437105134e-05 9.255315490008797497e-06 -7.095283308444777504e-06
3.736000000000000000e+03 1.258574008941650391e+01 -6.459255814552307129e-01 2.311117714270949364e-05 -2.693896931305062026e-06 6.125184427219210193e-06 -1.327329573541646823e-05
3.737000000000000000e+03 1.288842964172363281e+01 2.964896708726882935e-02 1.182463802251731977e-05 1.138312836701516062e-05 6.962329734960803762e-06 -7.680436283408198506e-06
3.738000000000000000e+03 1.060655117034912109e+01 9.770575761795043945e-01 2.269543801958207041e-05 3.465279178271885030e-06 7.848215318517759442e-06 -4.096258180652512237e-06
3.739000000000000000e+03 1.212970542907714844e+01 3.511690795421600342e-01 2.587252674857154489e-05 -2.590780923128477298e-07 7.684034244448412210e-06 -9.260183105652686208e-06
3.740000000000000000e+03 1.115460968017578125e+01 -4.513646289706230164e-02 2.225433672720100731e-05 -2.177814849346759729e-06 6.022956767992582172e-06 -9.973307896871119738e-06
3.741000000000000000e+03 9.852642059326171875e+00 1.127630591392517090e+00 9.500841770204715431e-06 4.086446551809785888e-06 4.076186542079085484e-06 -1.112924655899405479e-05
3.742000000000000000e+03 8.934872627258300781e+00 3.838182985782623291e-01 1.198857535200659186e-05 -2.061855184365413152e-06 2.978016027554986067e-06 -3.650609869509935379e-06
3.743000000000000000e+03 8.173450469970703125e+00 3.805501461029052734e-01 1.284548034163890406e-05 4.637146957975346595e-06 5.244788098934805021e-06 5.093677941658825148e-07
3.744000000000000000e+03 7.412311553955078125e+00 3.753647208213806152e-01 5.274620434647658840e-06 -5.977980436000507325e-06 -2.110079435624356847e-07 -3.577033112378558144e-06
3.745000000000000000e+03 6.650998592376708984e+00 3.733136355876922607e-01 8.547947800252586603e-06 7.617285973537946120e-06 4.849569904763484374e-06 2.054247261185082607e-06
3.746000000000000000e+03 5.128288269042968750e+00 3.666210770606994629e-01 5.600521944870706648e-06 1.010924370348220691e-05 4.712929694505874068e-06 3.323145392641890794e-06
3.747000000000000000e+03 4.367394924163818359e+00 3.671234846115112305e-01 -1.388186433359805960e-06 -1.019357478071469814e-05 -3.474528284641564824e-06 -4.115442607144359499e-06
3.748000000000000000e+03 2.846046209335327148e+00 3.605891168117523193e-01 -1.832189013839524705e-06 -7.871500201872549951e-06 -2.911106776082306169e-06 -2.287919642185443081e-06
3.749000000000000000e+03 2.087270975112915039e+00 3.584179878234863281e-01 2.474375548899843125e-07 5.091339062346378341e-06 1.601633016434789170e-06 7.916901978433088516e-08
3.750000000000000000e+03 2.412721395492553711e+00 1.098417997360229492e+00 -7.045430265861796215e-07 -6.836149168520933017e-06 -2.262207772218971513e-06 6.104547196628118400e-07
3.751000000000000000e+03 1.340976357460021973e+00 3.674286305904388428e-01 -3.132018093765509548e-07 -1.273169800697360188e-06 -4.759114631269767415e-07 1.806315594876650721e-06
3.752000000000000000e+03 1.683374881744384766e+00 1.107428669929504395e+00 1.288705675506207626e-06 6.779026080039329827e-06 2.420319560769712552e-06 -3.158577555950614624e-06
3.753000000000000000e+03 6.602545380592346191e-01 3.962357640266418457e-01 -5.552441962208831683e-06 -3.861397999571636319e-06 -2.824152034008875489e-06 -5.815049462398746982e-06
3.754000000000000000e+03 3.572900295257568359e-01 9.584811329841613770e-01 7.908885891083627939e-06 4.520096354099223390e-06 3.728694764504325576e-06 2.099092171192751266e-06
3.755000000000000000e+03 3.154548645019531250e+00 1.100589156150817871e+00 3.705059270942001604e-06 7.528590685978997499e-06 3.370094873389462009e-06 -8.879977144715667237e-07
3.756000000000000000e+03 3.606354475021362305e+00 3.667278885841369629e-01 3.114079845545347780e-06 9.647465049056336284e-06 3.828463377431035042e-06 2.795424052237649448e-06
3.757000000000000000e+03 5.385946273803710938e+00 1.106621026992797852e+00 -1.238036020367871970e-06 -7.408525561913847923e-06 -2.593968474684515968e-06 -5.091382718092063442e-06
3.758000000000000000e+03 5.889441967010498047e+00 3.716917037963867188e-01 8.318922937178285792e-07 -8.892167898011393845e-06 -2.418082658550702035e-06 -4.357164925750112161e-06
3.759000000000000000e+03 7.619125843048095703e+00 1.115364670753479004e+00 1.451729531254386529e-05 5.711262019758578390e-06 6.068567017791792750e-06 -4.011026248917914927e-07
3.760000000000000000e+03 8.363317489624023438e+00 1.120550155639648438e+00 5.386510565585922450e-06 -2.786934828691300936e-06 7.798727779118053149e-07 -7.544764230260625482e-06
3.761000000000000000e+03 9.107789993286132812e+00 1.123818278312683105e+00 1.950212754309177399e-05 3.824844043265329674e-06 6.998091521381866187e-06 -2.510216972950729541e-06
3.762000000000000000e+03 9.696672439575195312e+00 3.876306116580963135e-01 2.183764263463672251e-05 1.425134769306168891e-06 6.978832971071824431e-06 -2.427651679681730457e-06
3.763000000000000000e+03 6.874760627746582031e+00 1.113313674926757812e+00 5.482000347001303453e-07 -5.554128620133269578e-06 -1.501778569945599884e-06 -6.068398761271964759e-06
3.764000000000000000e+03 6.130152225494384766e+00 1.111691713333129883e+00 1.126446022681193426e-05 7.359572009590920061e-06 5.587209670920856297e-06 1.270022949029225856e-06
3.765000000000000000e+03 4.642001152038574219e+00 1.107123494148254395e+00 6.762589691788889468e-06 8.357375008927192539e-06 4.535989774012705311e-06 6.179411116136179771e-07
3.766000000000000000e+03 3.897908926010131836e+00 1.106727957725524902e+00 -1.666706452851940412e-06 -7.467993782483972609e-06 -2.740410081969457678e-06 -2.133909447366022505e-06
3.767000000000000000e+03 1.019601225852966309e+00 1.136235833168029785e+00 3.055969273191294633e-07 -7.250393991853343323e-06 -2.083439085254212841e-06 4.422125130076892674e-06
3.768000000000000000e+03 1.356510353088378906e+01 -2.044676303863525391e+00 -1.080637503036996350e-05 -1.337647972832201049e-05 -7.254856427607592195e-06 -7.908915904408786446e-06
3.769000000000000000e+03 1.321007442474365234e+01 -2.694024085998535156e+00 2.525836134736891836e-05 1.875340785773005337e-05 1.320353112532757223e-05 1.165683352155610919e-05
3.770000000000000000e+03 1.258673477172851562e+01 -2.342205762863159180e+00 -2.099760786222759634e-05 -2.287287679791916162e-05 -1.316114503424614668e-05 -7.873067261243704706e-06
3.771000000000000000e+03 1.420777034759521484e+01 -2.407426834106445312e+00 1.338803940598154441e-05 1.553078254801221192e-05 8.675646313349716365e-06 1.192212403111625463e-05
3.772000000000000000e+03 1.383262920379638672e+01 -3.045426130294799805e+00 -2.920126098615583032e-05 -1.715666076052002609e-05 -1.390737634210381657e-05 -1.524044000689173117e-05
3.773000000000000000e+03 1.445424365997314453e+01 -3.396085023880004883e+00 3.013378227478824556e-05 1.746992893458809704e-05 1.428111409040866420e-05 1.907996193040162325e-05
3.774000000000000000e+03 1.484949779510498047e+01 -2.769434452056884766e+00 -1.638937646930571645e-05 -1.997092840611003339e-05 -1.090809109882684425e-05 -1.548628097225446254e-05
3.775000000000000000e+03 1.292164993286132812e+01 -1.681509137153625488e+00 7.735115104878786951e-06 1.343955955235287547e-05 6.352402579068439081e-06 6.258147095650201663e-06
3.776000000000000000e+03 7.433924102783203125e+01 -2.812477111816406250e+01 -7.469664706150069833e-05 1.596451184013858438e-04 2.548453994677402079e-05 -3.208802809240296483e-05
3.777000000000000000e+03 7.509891510009765625e+01 -2.813425064086914062e+01 -4.278969299775781110e-06 -1.070865619112737477e-04 -3.340965849929489195e-05 -3.483239197521470487e-05
3.778000000000000000e+03 7.585762023925781250e+01 -2.814273452758789062e+01 -1.689476048341020942e-04 1.047306650434620678e-04 -1.926508048200048506e-05 6.763288547517731786e-05
3.779000000000000000e+03 7.434243011474609375e+01 -2.763040924072265625e+01 1.572183100506663322e-04 -1.165577341453172266e-04 1.219817295350367203e-05 1.028231145028257743e-05
3.780000000000000000e+03 7.584872436523437500e+01 -2.764876174926757812e+01 1.770572416717186570e-04 2.089392728521488607e-05 5.938535105087794363e-05 -2.688502263481495902e-06
3.781000000000000000e+03 7.433468627929687500e+01 -2.861659622192382812e+01 -2.570150245446711779e-04 -1.346358621958643198e-04 -1.174952631117776036e-04 -1.649639598326757550e-04
3.782000000000000000e+03 7.358879852294921875e+01 -2.761993026733398438e+01 2.529690682422369719e-04 2.798979694489389658e-04 1.598601083969697356e-04 -1.289446809096261859e-04
3.783000000000000000e+03 7.356816101074218750e+01 -2.860633087158203125e+01 -2.820276713464409113e-04 6.320017564576119184e-05 -6.564824434462934732e-05 1.911813160404562950e-04
3.784000000000000000e+03 7.357871246337890625e+01 -2.811377334594726562e+01 -2.082105056615546346e-04 -9.035519906319677830e-05 -8.956970850704237819e-05 4.480563802644610405e-05
3.785000000000000000e+03 7.586600494384765625e+01 -2.863568687438964844e+01 -6.980691250646486878e-05 -1.875947782536968589e-04 -7.722050941083580256e-05 -8.040132524911314249e-05
3.786000000000000000e+03 7.510072326660156250e+01 -2.862630081176757812e+01 -4.162523837294429541e-04 2.438887167954817414e-04 -5.170910299057140946e-05 1.419268519384786487e-04
3.787000000000000000e+03 7.509568023681640625e+01 -2.763993263244628906e+01 1.063910531229339540e-04 4.338916187407448888e-05 4.493406595429405570e-05 -1.534802578362359782e-07
3.788000000000000000e+03 1.114702796936035156e+01 -1.674520134925842285e+00 -1.608777529327198863e-05 -2.552797741373069584e-05 -1.248472563020186499e-05 -5.386454631661763415e-06
3.789000000000000000e+03 1.155607700347900391e+01 -1.043098807334899902e+00 6.750782176823122427e-06 2.285801201651338488e-05 8.882638212526217103e-06 6.344425401039188728e-06
3.790000000000000000e+03 1.007052421569824219e+01 -1.379528045654296875e+00 2.714762013056315482e-05 1.842846359068062156e-05 1.367282584396889433e-05 -5.874388079973869026e-06
3.791000000000000000e+03 1.091052532196044922e+01 -7.195191383361816406e-01 -5.537066954275360331e-06 -2.858974403352476656e-05 -1.023804270516848192e-05 -1.144288216892164201e-05
3.792000000000000000e+03 1.189208316802978516e+01 -2.005299091339111328e+00 1.548277941765263677e-05 2.208810656156856567e-05 1.127126597566530108e-05 6.417812983272597194e-06
3.793000000000000000e+03 1.224500656127929688e+01 -1.350578069686889648e+00 -7.234134045575046912e-06 -1.504544525232631713e-05 -6.683873834845144302e-06 -5.517308636626694351e-06
3.794000000000000000e+03 1.012131404876708984e+01 -8.739756941795349121e-01 -3.528695742716081440e-05 -1.914648601086810231e-05 -1.633003375900443643e-05 -1.388240161759313196e-05
3.795000000000000000e+03 1.027311420440673828e+01 -4.096257984638214111e-01 1.048131525749340653e-05 2.574406607891432941e-05 1.086761403712444007e-05 1.142312703450443223e-05
3.796000000000000000e+03 1.058933448791503906e+01 -1.247088074684143066e+00 1.011552922136615962e-05 1.820254874473903328e-05 8.495423571730498224e-06 1.882218566606752574e-05
3.797000000000000000e+03 8.909210205078125000e+00 -3.212539851665496826e-01 -3.556424053385853767e-05 2.235856845800299197e-05 -3.961701622756663710e-06 3.602688138926168904e-06
3.798000000000000000e+03 9.317807197570800781e+00 -1.205478549003601074e+00 -1.017866634356323630e-05 -3.586939783417619765e-05 -1.381441961711971089e-05 -1.855425944086164236e-05
3.799000000000000000e+03 9.460213661193847656e+00 -6.912539601325988770e-01 5.699427856598049402e-05 -6.670958100585266948e-06 1.509699632151750848e-05 2.298960680491290987e-05
3.800000000000000000e+03 8.266005516052246094e+00 -6.800254583358764648e-01 6.178537296364083886e-05 2.265383955091238022e-05 2.533176484575960785e-05 4.015034392068628222e-06
3.801000000000000000e+03 7.622209548950195312e+00 -4.054784178733825684e-01 -4.113381510251201689e-05 -2.965638850582763553e-05 -2.123706144629977643e-05 -3.077786459471099079e-05
3.802000000000000000e+03 6.825774669647216797e+00 -3.814763724803924561e-01 1.849170257628429681e-05 1.819607314246241003e-05 1.100633289752295241e-05 1.619429713173303753e-05
3.803000000000000000e+03 6.001619815826416016e+00 -3.739211261272430420e-01 -1.689179407549090683e-05 -1.347144279861822724e-05 -9.108970516535919160e-06 -1.144335965364007279e-05
3.804000000000000000e+03 5.174842834472656250e+00 -3.715220093727111816e-01 1.130359851231332868e-05 1.085595522454241291e-05 6.647866030107252300e-06 8.293286555272061378e-06
3.805000000000000000e+03 4.347759723663330078e+00 -3.725122809410095215e-01 -1.147251896327361465e-05 -8.675916433276142925e-06 -6.044530437065986916e-06 -7.261981863848632202e-06
3.806000000000000000e+03 3.520621299743652344e+00 -3.760701715946197510e-01 1.024451921693980694e-05 6.398195182555355132e-06 4.992814410798018798e-06 5.005560524296015501e-06
3.807000000000000000e+03 2.694509983062744141e+00 -3.805325925350189209e-01 -7.770803676976356655e-06 -4.908509708911878988e-06 -3.803794015766470693e-06 -3.543179900589166209e-06
3.808000000000000000e+03 1.143715500831604004e+00 -3.599454164505004883e-01 -2.687169398996047676e-06 -1.272537701879628003e-05 -4.623763743438757956e-06 -3.704192295117536560e-07
3.809000000000000000e+03 4.021799862384796143e-01 -5.506002306938171387e-01 4.448652816790854558e-06 9.590007721271831542e-06 4.211598024994600564e-06 5.364287972042802721e-06
3.810000000000000000e+03 7.210693359375000000e-01 -1.099945425987243652e+00 2.892205338866915554e-05 -3.315566573292016983e-06 7.681946044613141567e-06 1.940031097547034733e-06
3.811000000000000000e+03 8.506304740905761719e+00 -1.218084216117858887e+00 -2.473282256687525660e-05 7.134769839467480779e-05 1.398446238454198465e-05 6.953970114409457892e-06
3.812000000000000000e+03 7.803927898406982422e+00 -1.221213579177856445e+00 -4.086265835212543607e-05 -4.936284676659852266e-05 -2.706765008042566478e-05 -7.755183105473406613e-06
3.813000000000000000e+03 7.101232528686523438e+00 -1.145478367805480957e+00 6.160427437862381339e-05 1.413943027728237212e-05 2.272311030537821352e-05 2.612030948512256145e-05
3.814000000000000000e+03 6.317089557647705078e+00 -1.121476411819458008e+00 -3.930401726393029094e-05 -1.269398489966988564e-05 -1.559940028528217226e-05 -1.761977364367339760e-05
3.815000000000000000e+03 5.505225658416748047e+00 -1.113921165466308594e+00 2.709000909817405045e-05 1.113733105739811435e-05 1.146820159192429855e-05 1.002325734589248896e-05
3.816000000000000000e+03 4.690740108489990234e+00 -1.111521959304809570e+00 -2.243680501123890281e-05 -1.084323594113811851e-05 -9.984012649510987103e-06 -9.571338523528538644e-06
3.817000000000000000e+03 3.875948190689086914e+00 -1.112512230873107910e+00 2.222512193839065731e-05 8.925615475163795054e-06 9.345220860268454999e-06 8.885119314072653651e-06
3.818000000000000000e+03 3.061101198196411133e+00 -1.116070151329040527e+00 -2.510588819859549403e-05 -7.558107427030336112e-06 -9.799198778637219220e-06 -6.747593488398706540e-06
3.819000000000000000e+03 2.247281074523925781e+00 -1.120532631874084473e+00 1.923909803736023605e-05 1.219129171659005806e-05 9.429117199033498764e-06 2.493329702701885253e-06
3.820000000000000000e+03 1.882497906684875488e+00 -3.807797729969024658e-01 8.123564839479513466e-06 6.139835932117421180e-06 4.279020231479080394e-06 1.360067699351930059e-06
3.821000000000000000e+03 9.580569267272949219e+00 -2.457754313945770264e-01 -3.193159500369802117e-05 -2.787022822303697467e-05 -1.794054696802049875e-05 5.568046162807149813e-06
3.822000000000000000e+03 1.447560310363769531e+00 -1.120779752731323242e+00 -1.682860965956933796e-05 -1.313079610554268584e-05 -8.987822184280958027e-06 -9.103835509449709207e-06
3.823000000000000000e+03 5.018539810180664062e+01 -2.422167778015136719e+01 1.204252433776855469e+01 3.679770469665527344e+00 4.716688632965087891e+00 -5.786520004272460938e+00
3.824000000000000000e+03 5.019488525390625000e+01 -2.420467567443847656e+01 1.632331848144531250e+01 2.023566484451293945e+00 5.504065513610839844e+00 -3.257493495941162109e+00
3.825000000000000000e+03 5.020087432861328125e+01 -2.418615150451660156e+01 1.846730804443359375e+01 2.212965726852416992e+00 6.204082012176513672e+00 -1.042627692222595215e+00
3.826000000000000000e+03 5.020314407348632812e+01 -2.416681480407714844e+01 1.964732742309570312e+01 3.154742717742919922e+00 6.840620994567871094e+00 1.446011185646057129e+00
3.827000000000000000e+03 5.020160675048828125e+01 -2.414740753173828125e+01 1.980047798156738281e+01 4.776567459106445312e+00 7.373113632202148438e+00 3.605603694915771484e+00
3.828000000000000000e+03 5.019631958007812500e+01 -2.412866973876953125e+01 1.902813339233398438e+01 6.955287933349609375e+00 7.795026302337646484e+00 5.420948982238769531e+00
3.829000000000000000e+03 5.018748855590820312e+01 -2.411132049560546875e+01 1.764579200744628906e+01 9.420668601989746094e+00 8.119937896728515625e+00 6.523681163787841797e+00
3.830000000000000000e+03 5.017544555664062500e+01 -2.409602355957031250e+01 1.584113025665283203e+01 1.195630264282226562e+01 8.339229583740234375e+00 6.876538276672363281e+00
3.831000000000000000e+03 5.016065597534179688e+01 -2.408336257934570312e+01 1.404291915893554688e+01 1.420634174346923828e+01 8.474778175354003906e+00 6.452138423919677734e+00
3.832000000000000000e+03 5.014368438720703125e+01 -2.407382392883300781e+01 1.247431564331054688e+01 1.593413257598876953e+01 8.522534370422363281e+00 5.395462512969970703e+00
3.833000000000000000e+03 5.012517929077148438e+01 -2.406777191162109375e+01 1.147590351104736328e+01 1.703865432739257812e+01 8.554367065429687500e+00 3.904863595962524414e+00
3.834000000000000000e+03 5.010585021972656250e+01 -2.406543731689453125e+01 1.094849777221679688e+01 1.738009071350097656e+01 8.498576164245605469e+00 2.248538017272949219e+00
3.835000000000000000e+03 5.008643722534179688e+01 -2.406691169738769531e+01 1.112188243865966797e+01 1.710983657836914062e+01 8.469515800476074219e+00 7.188657522201538086e-01
3.836000000000000000e+03 5.006768417358398438e+01 -2.407213783264160156e+01 1.180059528350830078e+01 1.627688217163085938e+01 8.423243522644042969e+00 -5.787340998649597168e-01
3.837000000000000000e+03 5.005030441284179688e+01 -2.408091354370117188e+01 1.278036594390869141e+01 1.509656810760498047e+01 8.363080024719238281e+00 -1.418037295341491699e+00
3.838000000000000000e+03 5.003496932983398438e+01 -2.409290504455566406e+01 1.415794658660888672e+01 1.379306602478027344e+01 8.385303497314453125e+00 -1.730445384979248047e+00
3.839000000000000000e+03 5.002225875854492188e+01 -2.410765266418457031e+01 1.540555286407470703e+01 1.235986518859863281e+01 8.329625129699707031e+00 -1.562861919403076172e+00
3.840000000000000000e+03 5.001266479492187500e+01 -2.412459373474121094e+01 1.667690849304199219e+01 1.131637191772460938e+01 8.397984504699707031e+00 -8.104446530342102051e-01
3.841000000000000000e+03 5.000654983520507812e+01 -2.414307785034179688e+01 1.754064941406250000e+01 1.040554141998291016e+01 8.383856773376464844e+00 3.756666779518127441e-01
3.842000000000000000e+03 5.000415420532226562e+01 -2.416239929199218750e+01 1.796007919311523438e+01 1.013259696960449219e+01 8.427803039550781250e+00 1.884003758430480957e+00
3.843000000000000000e+03 5.000556182861328125e+01 -2.418181610107421875e+01 1.769150352478027344e+01 1.032725429534912109e+01 8.405627250671386719e+00 3.552724838256835938e+00
3.844000000000000000e+03 5.001072692871093750e+01 -2.420058822631835938e+01 1.674325561523437500e+01 1.119329166412353516e+01 8.380964279174804688e+00 5.105824947357177734e+00
3.845000000000000000e+03 5.001944732666015625e+01 -2.421799468994140625e+01 1.505500698089599609e+01 1.247801876068115234e+01 8.259907722473144531e+00 6.318111896514892578e+00
3.846000000000000000e+03 5.003138732910156250e+01 -2.423337173461914062e+01 1.284678077697753906e+01 1.412289047241210938e+01 8.090901374816894531e+00 6.928870201110839844e+00
3.847000000000000000e+03 5.004609680175781250e+01 -2.424612808227539062e+01 1.029447269439697266e+01 1.571401882171630859e+01 7.802547454833984375e+00 6.832097053527832031e+00
3.848000000000000000e+03 5.006300354003906250e+01 -2.425577926635742188e+01 7.719123840332031250e+00 1.705604553222656250e+01 7.432550907135009766e+00 5.969999790191650391e+00
3.849000000000000000e+03 5.008146667480468750e+01 -2.426195335388183594e+01 5.371023178100585938e+00 1.773669052124023438e+01 6.932313919067382812e+00 4.529177665710449219e+00
3.850000000000000000e+03 5.010078048706054688e+01 -2.426441383361816406e+01 3.496075630187988281e+00 1.768019485473632812e+01 6.352880954742431641e+00 2.609300136566162109e+00
3.851000000000000000e+03 5.012020111083984375e+01 -2.426306724548339844e+01 2.125713348388671875e+00 1.672500801086425781e+01 5.655216217041015625e+00 6.275162100791931152e-01
3.852000000000000000e+03 5.013898849487304688e+01 -2.425796508789062500e+01 1.487083196640014648e+00 1.488733386993408203e+01 4.912325382232666016e+00 -1.408198595046997070e+00
3.853000000000000000e+03 5.015642547607421875e+01 -2.424930381774902344e+01 1.362334609031677246e+00 1.232997798919677734e+01 4.107693672180175781e+00 -3.026146650314331055e+00
3.854000000000000000e+03 5.017184066772460938e+01 -2.423741149902343750e+01 3.244385004043579102e+00 7.831758975982666016e+00 3.322843074798583984e+00 -4.440989494323730469e+00
