# el_label, x, y, sXX, sYY, sZZ, sXY
1.000000000000000000e+00 2.156412315368652344e+01 -8.676288604736328125e+00 -2.115097284317016602e+00 1.864626049995422363e+00 -7.514139264822006226e-02 -1.393005609512329102e+00
2.000000000000000000e+00 2.142547607421875000e+01 -8.533480644226074219e+00 2.686865329742431641e+00 1.480676293373107910e+00 1.250262498855590820e+00 -1.469421267509460449e+00
3.000000000000000000e+00 2.128682899475097656e+01 -8.390672683715820312e+00 6.759777069091796875e-01 6.014369130134582520e-01 3.832243680953979492e-01 -9.792497754096984863e-01
4.000000000000000000e+00 2.114818000793457031e+01 -8.247864723205566406e+00 7.841330170631408691e-01 1.339345127344131470e-01 2.754202485084533691e-01 -3.834065198898315430e-01
5.000000000000000000e+00 2.152639770507812500e+01 -8.720876693725585938e+00 5.863309860229492188e+00 4.641244888305664062e+00 3.151366472244262695e+00 -7.325842857360839844e+00
6.000000000000000000e+00 2.136260032653808594e+01 -8.607793807983398438e+00 4.084248542785644531e+00 1.984185338020324707e+00 1.820530176162719727e+00 -2.911880731582641602e+00
7.000000000000000000e+00 2.119880294799804688e+01 -8.494709968566894531e+00 4.416298389434814453e+00 1.011605739593505859e+00 1.628371357917785645e+00 -2.422946929931640625e+00
8.000000000000000000e+00 2.103500556945800781e+01 -8.381627082824707031e+00 2.913203477859497070e+00 4.297372400760650635e-01 1.002882242202758789e+00 -1.781907558441162109e+00
9.000000000000000000e+00 2.149807739257812500e+01 -8.771954536437988281e+00 1.474005222320556641e+01 2.664643764495849609e+00 5.221408843994140625e+00 -8.142152786254882812e+00
1.000000000000000000e+01 2.131539726257324219e+01 -8.692924499511718750e+00 9.104953765869140625e+00 1.705251812934875488e+00 3.243061542510986328e+00 -4.905148983001708984e+00
1.100000000000000000e+01 2.113271903991699219e+01 -8.613894462585449219e+00 7.265748023986816406e+00 6.230579018592834473e-01 2.366641759872436523e+00 -3.030184745788574219e+00
1.200000000000000000e+01 2.095004081726074219e+01 -8.534863471984863281e+00 6.528574466705322266e+00 4.386257380247116089e-03 1.959888219833374023e+00 -2.410617828369140625e+00
1.300000000000000000e+01 2.148024177551269531e+01 -8.827569961547851562e+00 2.223764038085937500e+01 1.135643720626831055e+00 7.011984825134277344e+00 -6.598180294036865234e+00
1.400000000000000000e+01 2.128567314147949219e+01 -8.785616874694824219e+00 1.431913375854492188e+01 2.653574347496032715e-01 4.375347614288330078e+00 -4.338898658752441406e+00
1.500000000000000000e+01 2.109110260009765625e+01 -8.743662834167480469e+00 1.145083141326904297e+01 -1.730764806270599365e-01 3.383326530456542969e+00 -3.121778964996337891e+00
1.600000000000000000e+01 2.089653396606445312e+01 -8.701709747314453125e+00 9.595609664916992188e+00 -7.935776710510253906e-01 2.640609502792358398e+00 -2.146267652511596680e+00
1.700000000000000000e+01 2.147357368469238281e+01 -8.885594367980957031e+00 2.761906623840332031e+01 -4.954442847520112991e-03 8.284234046936035156e+00 -3.008679628372192383e+00
1.800000000000000000e+01 2.127456092834472656e+01 -8.882322311401367188e+00 1.901216888427734375e+01 -3.167548775672912598e-01 5.608623981475830078e+00 -2.373780488967895508e+00
1.900000000000000000e+01 2.107554626464843750e+01 -8.879052162170410156e+00 1.485728359222412109e+01 -1.093881726264953613e+00 4.129020690917968750e+00 -1.679703354835510254e+00
2.000000000000000000e+01 2.087653160095214844e+01 -8.875781059265136719e+00 1.282424736022949219e+01 -1.422763109207153320e+00 3.420445203781127930e+00 -1.102135419845581055e+00
2.100000000000000000e+01 2.147833061218261719e+01 -8.943804740905761719e+00 3.098604393005371094e+01 1.043156504631042480e+00 9.608759880065917969e+00 1.410867571830749512e+00
2.200000000000000000e+01 2.128248786926269531e+01 -8.979341506958007812e+00 2.194756126403808594e+01 -4.938480854034423828e-01 6.436113834381103516e+00 6.676524281501770020e-01
2.300000000000000000e+01 2.108664512634277344e+01 -9.014878273010253906e+00 1.770878410339355469e+01 -7.894883751869201660e-01 5.075788497924804688e+00 6.857722401618957520e-01
2.400000000000000000e+01 2.089080047607421875e+01 -9.050415039062500000e+00 1.470422458648681641e+01 -1.754625201225280762e+00 3.884879827499389648e+00 8.428530097007751465e-01
2.500000000000000000e+01 2.149432945251464844e+01 -8.999977111816406250e+00 3.174871635437011719e+01 3.127635717391967773e+00 1.046290588378906250e+01 5.919900894165039062e+00
2.600000000000000000e+01 2.130915260314941406e+01 -9.072960853576660156e+00 2.352443122863769531e+01 1.203009605407714844e+00 7.418232440948486328e+00 3.880354166030883789e+00
2.700000000000000000e+01 2.112397384643554688e+01 -9.145944595336914062e+00 1.895961761474609375e+01 -1.471188366413116455e-01 5.643749713897705078e+00 3.489487648010253906e+00
2.800000000000000000e+01 2.093879699707031250e+01 -9.218929290771484375e+00 1.626996612548828125e+01 -5.518679022789001465e-01 4.715429782867431641e+00 3.309191226959228516e+00
2.900000000000000000e+01 2.152095794677734375e+01 -9.051959037780761719e+00 3.089111137390136719e+01 7.041420459747314453e+00 1.137975978851318359e+01 9.386911392211914062e+00
3.000000000000000000e+01 2.135353279113769531e+01 -9.159597396850585938e+00 2.333032035827636719e+01 3.587460041046142578e+00 8.075333595275878906e+00 6.885511398315429688e+00
3.100000000000000000e+01 2.118610763549804688e+01 -9.267236709594726562e+00 1.914512634277343750e+01 1.998243451118469238e+00 6.343010902404785156e+00 5.974897861480712891e+00
3.200000000000000000e+01 2.101868057250976562e+01 -9.374875068664550781e+00 1.644405555725097656e+01 9.092295765876770020e-01 5.205985546112060547e+00 5.472047805786132812e+00
3.300000000000000000e+01 2.155719566345214844e+01 -9.097762107849121094e+00 2.858351325988769531e+01 1.160072898864746094e+01 1.205527210235595703e+01 1.149246597290039062e+01
3.400000000000000000e+01 2.141393089294433594e+01 -9.235936164855957031e+00 2.215599060058593750e+01 6.919511318206787109e+00 8.722650527954101562e+00 8.954427719116210938e+00
3.500000000000000000e+01 2.127066421508789062e+01 -9.374111175537109375e+00 1.819702339172363281e+01 4.776537895202636719e+00 6.892068386077880859e+00 7.859417438507080078e+00
3.600000000000000000e+01 2.112739753723144531e+01 -9.512285232543945312e+00 1.521268367767333984e+01 3.439803123474121094e+00 5.595746040344238281e+00 7.046081066131591797e+00
3.700000000000000000e+01 2.160165786743164062e+01 -9.135633468627929688e+00 2.588377380371093750e+01 1.637820053100585938e+01 1.267859172821044922e+01 1.197630405426025391e+01
3.800000000000000000e+01 2.148803520202636719e+01 -9.299056053161621094e+00 2.022121810913085938e+01 1.047971630096435547e+01 9.210280418395996094e+00 9.787406921386718750e+00
3.900000000000000000e+01 2.137441062927246094e+01 -9.462477684020996094e+00 1.666678810119628906e+01 7.838782310485839844e+00 7.351671218872070312e+00 8.740807533264160156e+00
4.000000000000000000e+01 2.126078605651855469e+01 -9.625900268554687500e+00 1.387372016906738281e+01 6.449445724487304688e+00 6.096950054168701172e+00 8.322900772094726562e+00
4.100000000000000000e+01 2.165264320373535156e+01 -9.164125442504882812e+00 2.318205642700195312e+01 2.009610939025878906e+01 1.298344993591308594e+01 1.116195487976074219e+01
4.200000000000000000e+01 2.157300949096679688e+01 -9.346540451049804688e+00 1.840846633911132812e+01 1.424605369567871094e+01 9.796356201171875000e+00 9.298467636108398438e+00
4.300000000000000000e+01 2.149337387084960938e+01 -9.528957366943359375e+00 1.478625392913818359e+01 1.059509563446044922e+01 7.614405155181884766e+00 8.542668342590332031e+00
4.400000000000000000e+01 2.141374015808105469e+01 -9.711373329162597656e+00 1.296446132659912109e+01 8.565001487731933594e+00 6.458838939666748047e+00 8.200839996337890625e+00
4.500000000000000000e+01 2.170819854736328125e+01 -9.182145118713378906e+00 2.204064941406250000e+01 2.339270782470703125e+01 1.363000774383544922e+01 8.938751220703125000e+00
4.600000000000000000e+01 2.166560173034667969e+01 -9.376573562622070312e+00 1.619040870666503906e+01 1.671885108947753906e+01 9.872777938842773438e+00 8.124856948852539062e+00
4.700000000000000000e+01 2.162300491333007812e+01 -9.571002960205078125e+00 1.396544456481933594e+01 1.345542144775390625e+01 8.226260185241699219e+00 7.083819389343261719e+00
4.800000000000000000e+01 2.158040809631347656e+01 -9.765433311462402344e+00 1.118054008483886719e+01 1.010147094726562500e+01 6.384603500366210938e+00 6.667230129241943359e+00
4.900000000000000000e+01 2.176620101928710938e+01 -9.189002990722656250e+00 2.059449768066406250e+01 2.471868324279785156e+01 1.359395408630371094e+01 6.553572177886962891e+00
5.000000000000000000e+01 2.176226997375488281e+01 -9.388005256652832031e+00 1.605717468261718750e+01 1.873500823974609375e+01 1.043765449523925781e+01 5.907555103302001953e+00
5.100000000000000000e+01 2.175834083557128906e+01 -9.587007522583007812e+00 1.239799213409423828e+01 1.474958419799804688e+01 8.144272804260253906e+00 5.319900512695312500e+00
5.200000000000000000e+01 2.175441169738769531e+01 -9.786009788513183594e+00 1.109776782989501953e+01 1.285529899597167969e+01 7.185919761657714844e+00 4.750919818878173828e+00
5.300000000000000000e+01 2.182442665100097656e+01 -9.184439659118652344e+00 2.137594032287597656e+01 2.521683883666992188e+01 1.397783374786376953e+01 4.012355327606201172e+00
5.400000000000000000e+01 2.185931587219238281e+01 -9.380399703979492188e+00 1.567156219482421875e+01 1.909143257141113281e+01 1.042889785766601562e+01 3.691560029983520508e+00
5.500000000000000000e+01 2.189420318603515625e+01 -9.576358795166015625e+00 1.276713371276855469e+01 1.565567493438720703e+01 8.526843070983886719e+00 3.151897192001342773e+00
5.600000000000000000e+01 2.192909240722656250e+01 -9.772318840026855469e+00 1.088710594177246094e+01 1.290242290496826172e+01 7.136858463287353516e+00 3.220030546188354492e+00
5.700000000000000000e+01 2.188065147399902344e+01 -9.168627738952636719e+00 2.237686157226562500e+01 2.434764671325683594e+01 1.401735305786132812e+01 2.089852809906005859e+00
5.800000000000000000e+01 2.195302200317382812e+01 -9.354045867919921875e+00 1.674963188171386719e+01 1.860866928100585938e+01 1.060749053955078125e+01 1.489173173904418945e+00
5.900000000000000000e+01 2.202539443969726562e+01 -9.539463043212890625e+00 1.354236793518066406e+01 1.513167858123779297e+01 8.602213859558105469e+00 1.634906411170959473e+00
6.000000000000000000e+01 2.209776306152343750e+01 -9.724881172180175781e+00 1.153850841522216797e+01 1.205898857116699219e+01 7.079248905181884766e+00 8.225868940353393555e-01
6.100000000000000000e+01 2.193272209167480469e+01 -9.142170906066894531e+00 2.444110107421875000e+01 2.248180007934570312e+01 1.407686996459960938e+01 5.510844588279724121e-01
6.200000000000000000e+01 2.203980445861816406e+01 -9.309951782226562500e+00 1.811893463134765625e+01 1.727749633789062500e+01 1.061892986297607422e+01 4.995603561401367188e-01
6.300000000000000000e+01 2.214689064025878906e+01 -9.477732658386230469e+00 1.515807723999023438e+01 1.356438064575195312e+01 8.616737365722656250e+00 3.723846003413200378e-02
6.400000000000000000e+01 2.225397300720214844e+01 -9.645512580871582031e+00 1.239286041259765625e+01 1.174792957305908203e+01 7.242237091064453125e+00 -1.305293887853622437e-01
6.500000000000000000e+01 2.197864341735839844e+01 -9.106084823608398438e+00 2.596128463745117188e+01 2.045740318298339844e+01 1.392560577392578125e+01 1.424639075994491577e-01
6.600000000000000000e+01 2.211634254455566406e+01 -9.249807357788085938e+00 2.068371009826660156e+01 1.491443061828613281e+01 1.067944240570068359e+01 1.851006299257278442e-01
6.700000000000000000e+01 2.225404357910156250e+01 -9.393528938293457031e+00 1.608709526062011719e+01 1.227155876159667969e+01 8.507596015930175781e+00 -1.615572720766067505e-01
6.800000000000000000e+01 2.239174270629882812e+01 -9.537251472473144531e+00 1.426757049560546875e+01 9.957336425781250000e+00 7.267472267150878906e+00 -4.228138625621795654e-01
6.900000000000000000e+01 2.201666259765625000e+01 -9.061747550964355469e+00 2.829052925109863281e+01 1.810036468505859375e+01 1.391726779937744141e+01 9.921101927757263184e-01
7.000000000000000000e+01 2.217970848083496094e+01 -9.175911903381347656e+00 2.207297897338867188e+01 1.280883216857910156e+01 1.046454334259033203e+01 5.233556032180786133e-01
7.100000000000000000e+01 2.234275436401367188e+01 -9.290076255798339844e+00 1.845431900024414062e+01 1.022342967987060547e+01 8.603324890136718750e+00 1.088927745819091797e+00
7.200000000000000000e+01 2.250579833984375000e+01 -9.404240608215332031e+00 1.436828041076660156e+01 8.504286766052246094e+00 6.861770153045654297e+00 2.570016086101531982e-01
7.300000000000000000e+01 2.204532241821289062e+01 -9.010857582092285156e+00 2.979814529418945312e+01 1.594132232666015625e+01 1.372183990478515625e+01 2.613163709640502930e+00
7.400000000000000000e+01 2.222747421264648438e+01 -9.091094970703125000e+00 2.309803390502929688e+01 1.107994365692138672e+01 1.025339317321777344e+01 2.324294567108154297e+00
7.500000000000000000e+01 2.240962600708007812e+01 -9.171332359313964844e+00 1.981206130981445312e+01 8.464566230773925781e+00 8.482988357543945312e+00 2.116274595260620117e+00
7.600000000000000000e+01 2.259177780151367188e+01 -9.251569747924804688e+00 1.655389976501464844e+01 7.045520305633544922e+00 7.079825878143310547e+00 2.695615768432617188e+00
7.700000000000000000e+01 2.206352615356445312e+01 -8.955360412597656250e+00 3.003956985473632812e+01 1.398736763000488281e+01 1.320808124542236328e+01 4.989679813385009766e+00
7.800000000000000000e+01 2.225781440734863281e+01 -8.998600959777832031e+00 2.352283859252929688e+01 1.050928974151611328e+01 1.020963859558105469e+01 4.780140399932861328e+00
7.900000000000000000e+01 2.245210075378417969e+01 -9.041840553283691406e+00 1.936198997497558594e+01 7.249246120452880859e+00 7.983370780944824219e+00 3.832820415496826172e+00
8.000000000000000000e+01 2.264638900756835938e+01 -9.085080146789550781e+00 1.860177993774414062e+01 6.456536769866943359e+00 7.517495155334472656e+00 3.672078132629394531e+00
8.100000000000000000e+01 2.207057762145996094e+01 -8.897382736206054688e+00 2.947870826721191406e+01 1.417578506469726562e+01 1.309634780883789062e+01 8.132622718811035156e+00
8.200000000000000000e+01 2.226956558227539062e+01 -8.901969909667968750e+00 2.220273780822753906e+01 9.732891082763671875e+00 9.580689430236816406e+00 7.180222988128662109e+00
8.300000000000000000e+01 2.246855354309082031e+01 -8.906558036804199219e+00 1.855270957946777344e+01 8.191455841064453125e+00 8.023249626159667969e+00 6.087357997894287109e+00
8.400000000000000000e+01 2.266754150390625000e+01 -8.911146163940429688e+00 1.549589824676513672e+01 6.030900955200195312e+00 6.458039760589599609e+00 4.814444541931152344e+00
8.500000000000000000e+01 2.206620597839355469e+01 -8.839139938354492188e+00 2.697023773193359375e+01 1.447694683074951172e+01 1.243415546417236328e+01 1.122676563262939453e+01
8.600000000000000000e+01 2.226227951049804688e+01 -8.804900169372558594e+00 1.993846893310546875e+01 1.106140995025634766e+01 9.299963951110839844e+00 9.381514549255371094e+00
8.700000000000000000e+01 2.245835304260253906e+01 -8.770660400390625000e+00 1.613687133789062500e+01 8.797863006591796875e+00 7.480420112609863281e+00 7.985999584197998047e+00
8.800000000000000000e+01 2.265442657470703125e+01 -8.736420631408691406e+00 1.284836387634277344e+01 7.278870582580566406e+00 6.038170337677001953e+00 7.502943038940429688e+00
8.900000000000000000e+01 2.205057907104492188e+01 -8.782863616943359375e+00 2.311520767211914062e+01 1.631079864501953125e+01 1.182780170440673828e+01 1.362962818145751953e+01
9.000000000000000000e+01 2.223623657226562500e+01 -8.711106300354003906e+00 1.647786331176757812e+01 1.279318332672119141e+01 8.781313896179199219e+00 1.078857135772705078e+01
9.100000000000000000e+01 2.242189216613769531e+01 -8.639348983764648438e+00 1.292556285858154297e+01 1.021825218200683594e+01 6.943144798278808594e+00 9.449582099914550781e+00
9.200000000000000000e+01 2.260754776000976562e+01 -8.567591667175292969e+00 1.153546333312988281e+01 8.280940055847167969e+00 5.944921016693115234e+00 8.728983879089355469e+00
9.300000000000000000e+01 2.202429580688476562e+01 -8.730707168579101562e+00 1.818139076232910156e+01 1.909351348876953125e+01 1.118247127532958984e+01 1.465810966491699219e+01
9.400000000000000000e+01 2.219243049621582031e+01 -8.624177932739257812e+00 1.222589588165283203e+01 1.469576644897460938e+01 8.076498985290527344e+00 1.127577114105224609e+01
9.500000000000000000e+01 2.236056327819824219e+01 -8.517648696899414062e+00 9.823201179504394531e+00 1.191790580749511719e+01 6.522332191467285156e+00 9.651226043701171875e+00
9.600000000000000000e+01 2.252869606018066406e+01 -8.411120414733886719e+00 8.416914939880371094e+00 9.659949302673339844e+00 5.423059463500976562e+00 8.388959884643554688e+00
9.700000000000000000e+01 2.198836135864257812e+01 -8.684664726257324219e+00 1.244782543182373047e+01 2.184244346618652344e+01 1.028708076477050781e+01 1.413928604125976562e+01
9.800000000000000000e+01 2.213253784179687500e+01 -8.547441482543945312e+00 8.148657798767089844e+00 1.651228713989257812e+01 7.398283481597900391e+00 1.037917995452880859e+01
9.900000000000000000e+01 2.227671432495117188e+01 -8.410217285156250000e+00 6.284255027770996094e+00 1.328258895874023438e+01 5.870053291320800781e+00 8.664661407470703125e+00
1.000000000000000000e+02 2.242089080810546875e+01 -8.272994041442871094e+00 5.258145809173583984e+00 1.126313591003417969e+01 4.956384658813476562e+00 7.527533054351806641e+00
1.010000000000000000e+02 2.194415092468261719e+01 -8.646499633789062500e+00 7.122471332550048828e+00 2.384053039550781250e+01 9.288900375366210938e+00 1.186832237243652344e+01
1.020000000000000000e+02 2.205885314941406250e+01 -8.483833312988281250e+00 4.390370845794677734e+00 1.752991104125976562e+01 6.576084613800048828e+00 8.295543670654296875e+00
1.030000000000000000e+02 2.217355346679687500e+01 -8.321166038513183594e+00 3.129482269287109375e+00 1.407003402709960938e+01 5.159854888916015625e+00 6.808229446411132812e+00
1.040000000000000000e+02 2.228825759887695312e+01 -8.158498764038085938e+00 2.662352800369262695e+00 1.184011840820312500e+01 4.350741386413574219e+00 5.847969532012939453e+00
1.050000000000000000e+02 2.189335441589355469e+01 -8.617671966552734375e+00 2.934511661529541016e+00 2.443741989135742188e+01 8.211579322814941406e+00 8.141544342041015625e+00
1.060000000000000000e+02 2.197419357299804688e+01 -8.435787200927734375e+00 1.386780738830566406e+00 1.717288970947265625e+01 5.567901134490966797e+00 5.478167533874511719e+00
1.070000000000000000e+02 2.205503082275390625e+01 -8.253901481628417969e+00 9.898288846015930176e-01 1.375958538055419922e+01 4.424824237823486328e+00 4.364356994628906250e+00
1.080000000000000000e+02 2.213587188720703125e+01 -8.072014808654785156e+00 4.697802364826202393e-01 1.150428485870361328e+01 3.592219352722167969e+00 3.699320077896118164e+00
1.090000000000000000e+02 2.183791732788085938e+01 -8.599285125732421875e+00 6.149154528975486755e-02 2.268641090393066406e+01 6.824370861053466797e+00 3.849048137664794922e+00
1.100000000000000000e+02 2.188179969787597656e+01 -8.405141830444335938e+00 -1.814213693141937256e-01 1.540270614624023438e+01 4.566385269165039062e+00 2.343623638153076172e+00
1.110000000000000000e+02 2.192568206787109375e+01 -8.210998535156250000e+00 -3.889658451080322266e-01 1.189448451995849609e+01 3.451655626296997070e+00 1.889321804046630859e+00
1.120000000000000000e+02 2.196956253051757812e+01 -8.016854286193847656e+00 -3.324659168720245361e-01 1.022135257720947266e+01 2.966665983200073242e+00 1.838552594184875488e+00
1.130000000000000000e+02 2.177996444702148438e+01 -8.592042922973632812e+00 -8.483441472053527832e-01 1.872067070007324219e+01 5.361698150634765625e+00 -2.845712006092071533e-01
1.140000000000000000e+02 2.178520774841308594e+01 -8.393070220947265625e+00 -7.760491371154785156e-01 1.171672439575195312e+01 3.282202720642089844e+00 -2.367040216922760010e-01
1.150000000000000000e+02 2.179045295715332031e+01 -8.194098472595214844e+00 -5.448880195617675781e-01 9.121726989746093750e+00 2.573051691055297852e+00 -2.276706509292125702e-03
1.160000000000000000e+02 2.179570007324218750e+01 -7.995127201080322266e+00 -4.600014090538024902e-01 7.307148933410644531e+00 2.054144382476806641e+00 2.613773643970489502e-01
1.170000000000000000e+02 2.172170829772949219e+01 -8.596221923828125000e+00 -6.079397797584533691e-01 1.221343231201171875e+01 3.481647729873657227e+00 -2.926107406616210938e+00
1.180000000000000000e+02 2.168811607360839844e+01 -8.400035858154296875e+00 -3.207346796989440918e-01 7.011298656463623047e+00 2.007169246673583984e+00 -1.752006649971008301e+00
1.190000000000000000e+02 2.165452384948730469e+01 -8.203849792480468750e+00 -1.104336902499198914e-01 5.143887996673583984e+00 1.510036349296569824e+00 -6.549343466758728027e-01
1.200000000000000000e+02 2.162093162536621094e+01 -8.007664680480957031e+00 -4.495506286621093750e-01 4.601255893707275391e+00 1.245511531829833984e+00 -5.191571116447448730e-01
1.210000000000000000e+02 2.166537857055664062e+01 -8.611661911010742188e+00 4.868301451206207275e-01 3.655629634857177734e+00 1.242737889289855957e+00 -3.799192905426025391e+00
1.220000000000000000e+02 2.159423637390136719e+01 -8.425769805908203125e+00 2.046852558851242065e-01 1.486719012260437012e+00 5.074212551116943359e-01 -6.401938199996948242e-01
1.230000000000000000e+02 2.152309226989746094e+01 -8.239877700805664062e+00 -1.369684189558029175e-01 2.405161857604980469e+00 6.804580688476562500e-01 -3.656279742717742920e-01
1.240000000000000000e+02 2.145194816589355469e+01 -8.053985595703125000e+00 -3.512180149555206299e-01 1.436364293098449707e+00 3.255438804626464844e-01 -4.178827106952667236e-01
1.250000000000000000e+02 2.161313629150390625e+01 -8.637773513793945312e+00 -1.039116859436035156e+00 -6.383141994476318359e+00 -2.226677656173706055e+00 1.134265422821044922e+00
1.260000000000000000e+02 2.150716400146484375e+01 -8.469288825988769531e+00 -3.066747188568115234e-01 -6.745305657386779785e-02 -1.122383326292037964e-01 9.965024590492248535e-01
1.270000000000000000e+02 2.140118980407714844e+01 -8.300804138183593750e+00 -7.241131067276000977e-01 -1.227920055389404297e+00 -5.856099128723144531e-01 5.382989645004272461e-01
1.280000000000000000e+02 2.129521751403808594e+01 -8.132319450378417969e+00 -6.093474626541137695e-01 -8.472898006439208984e-01 -4.369911849498748779e-01 8.992952704429626465e-01
1.290000000000000000e+02 1.664671516418457031e+01 -4.055796146392822266e+00 -2.003774881362915039e+00 -1.051202416419982910e+00 -9.164931774139404297e-01 1.503812909126281738e+00
1.300000000000000000e+02 1.605672454833984375e+01 -3.613803625106811523e+00 -2.023316860198974609e+00 -9.744154810905456543e-01 -8.993197679519653320e-01 1.425776600837707520e+00
1.310000000000000000e+02 1.505074691772460938e+01 -3.785051584243774414e+00 -1.779719591140747070e+00 -4.216615855693817139e-01 -6.604143381118774414e-01 1.103690266609191895e+00
1.320000000000000000e+02 1.676145553588867188e+01 -5.066381931304931641e+00 -1.341667056083679199e+00 -8.546482324600219727e-01 -6.588945984840393066e-01 1.325844407081604004e+00
1.330000000000000000e+02 1.619213485717773438e+01 -4.639872550964355469e+00 -1.499300599098205566e+00 -7.213757038116455078e-01 -6.662029027938842773e-01 1.216722607612609863e+00
1.340000000000000000e+02 1.562185287475585938e+01 -4.212639808654785156e+00 -1.660353064537048340e+00 -5.439330339431762695e-01 -6.612858176231384277e-01 1.148251891136169434e+00
1.350000000000000000e+02 1.723574447631835938e+01 -4.497066020965576172e+00 -1.816188693046569824e+00 -1.115340232849121094e+00 -8.794586658477783203e-01 1.494942784309387207e+00
1.360000000000000000e+02 1.546591091156005859e+01 -3.171455144882202148e+00 -1.925792574882507324e+00 -7.584505081176757812e-01 -8.052729368209838867e-01 1.300436377525329590e+00
1.370000000000000000e+02 1.876308822631835938e+01 -5.930083751678466797e+00 -1.394674420356750488e+00 -1.522289156913757324e+00 -8.750890493392944336e-01 1.524939656257629395e+00
1.380000000000000000e+02 1.828910255432128906e+01 -5.444587707519531250e+00 -1.590382575988769531e+00 -1.511307001113891602e+00 -9.305068850517272949e-01 1.574700355529785156e+00
1.390000000000000000e+02 1.726799011230468750e+01 -5.488178730010986328e+00 -1.197818756103515625e+00 -9.369518160820007324e-01 -6.404311656951904297e-01 1.310656666755676270e+00
1.400000000000000000e+02 1.811118698120117188e+01 -6.326220035552978516e+00 -4.884436428546905518e-01 -1.164874672889709473e+00 -4.959954917430877686e-01 1.093201756477355957e+00
1.410000000000000000e+02 1.951161575317382812e+01 -6.679972171783447266e+00 -6.477668285369873047e-01 -1.362284183502197266e+00 -6.030153036117553711e-01 1.225220680236816406e+00
1.420000000000000000e+02 1.847114562988281250e+01 -6.728154659271240234e+00 -3.988772165030241013e-03 -1.304232954978942871e+00 -3.924665153026580811e-01 9.944478869438171387e-01
1.430000000000000000e+02 1.873201751708984375e+01 -7.308308601379394531e+00 8.904872536659240723e-01 -1.418402791023254395e+00 -1.583746522665023804e-01 7.777489423751831055e-01
1.440000000000000000e+02 1.919966697692871094e+01 -6.687477111816406250e+00 -4.078148603439331055e-01 -1.284374713897705078e+00 -5.076568722724914551e-01 1.095480322837829590e+00
1.450000000000000000e+02 1.939794349670410156e+01 -6.833740711212158203e+00 -3.614251613616943359e-01 -1.226488471031188965e+00 -4.763740897178649902e-01 9.751785397529602051e-01
1.460000000000000000e+02 1.905080795288085938e+01 -6.387962818145751953e+00 -1.077658534049987793e+00 -1.411353111267089844e+00 -7.467035055160522461e-01 1.262467026710510254e+00
1.470000000000000000e+02 1.959143638610839844e+01 -6.438205242156982422e+00 -1.346739649772644043e+00 -1.497137546539306641e+00 -8.531631231307983398e-01 1.438536047935485840e+00
1.480000000000000000e+02 1.770430374145507812e+01 -5.907044410705566406e+00 -8.930930495262145996e-01 -1.024839401245117188e+00 -5.753797292709350586e-01 1.223602294921875000e+00
1.490000000000000000e+02 1.778568458557128906e+01 -4.959402561187744141e+00 -1.622188806533813477e+00 -1.282297611236572266e+00 -8.713459372520446777e-01 1.552340149879455566e+00
1.500000000000000000e+02 1.912420272827148438e+01 -7.088868618011474609e+00 4.428237378597259521e-01 -1.327697396278381348e+00 -2.654621005058288574e-01 7.672437429428100586e-01
1.510000000000000000e+02 1.875452613830566406e+01 -7.008128643035888672e+00 3.480666577816009521e-01 -1.323821663856506348e+00 -2.927265167236328125e-01 8.296338319778442383e-01
1.520000000000000000e+02 1.904932785034179688e+01 -6.884785175323486328e+00 -4.325661063194274902e-02 -1.367445945739746094e+00 -4.232107698917388916e-01 9.705877304077148438e-01
1.530000000000000000e+02 1.926389503479003906e+01 -6.973375797271728516e+00 -9.171313792467117310e-02 -1.197686672210693359e+00 -3.868199586868286133e-01 9.029182195663452148e-01
1.540000000000000000e+02 1.895266532897949219e+01 -7.207276821136474609e+00 6.277732253074645996e-01 -1.259697914123535156e+00 -1.895774006843566895e-01 6.524294018745422363e-01
1.550000000000000000e+02 1.988594818115234375e+01 -6.693306922912597656e+00 -1.020805954933166504e+00 -1.415524363517761230e+00 -7.308990955352783203e-01 1.270154714584350586e+00
1.560000000000000000e+02 2.014826965332031250e+01 -8.584589958190917969e+00 6.322618961334228516e+00 -1.840359210968017578e+00 1.344677925109863281e+00 -4.794492423534393311e-01
1.570000000000000000e+02 2.066404342651367188e+01 -9.701612472534179688e+00 1.167685127258300781e+01 -4.817206263542175293e-01 3.358539342880249023e+00 5.234071254730224609e+00
1.580000000000000000e+02 2.152089881896972656e+01 -9.929752349853515625e+00 9.927123069763183594e+00 8.512834548950195312e+00 5.531987190246582031e+00 6.278715610504150391e+00
1.590000000000000000e+02 2.277400970458984375e+01 -9.744886398315429688e+00 1.160128498077392578e+01 5.376232624053955078e+00 5.093255043029785156e+00 -3.157666325569152832e-01
1.600000000000000000e+02 2.262233734130859375e+01 -9.534015655517578125e+00 1.362407302856445312e+01 6.959022045135498047e+00 6.174928665161132812e+00 1.793406307697296143e-01
1.610000000000000000e+02 2.297710418701171875e+01 -9.084870338439941406e+00 1.347106456756591797e+01 4.003329277038574219e+00 5.242318153381347656e+00 3.301859855651855469e+00
1.620000000000000000e+02 2.035927200317382812e+01 -6.479740142822265625e+00 -1.153103232383728027e+00 -1.110563397407531738e+00 -6.790999770164489746e-01 1.097871661186218262e+00
1.630000000000000000e+02 2.258734130859375000e+01 -7.957948684692382812e+00 2.257360219955444336e+00 9.266942024230957031e+00 3.457290887832641602e+00 5.318100452423095703e+00
1.640000000000000000e+02 2.270359420776367188e+01 -8.339533805847167969e+00 8.672437667846679688e+00 8.231649398803710938e+00 5.071226119995117188e+00 7.719336986541748047e+00
1.650000000000000000e+02 2.175754356384277344e+01 -1.005334663391113281e+01 7.774515151977539062e+00 9.827513694763183594e+00 5.280608654022216797e+00 4.554194450378417969e+00
1.660000000000000000e+02 1.893951034545898438e+01 -7.537453651428222656e+00 1.587143778800964355e+00 -1.388720631599426270e+00 5.952692031860351562e-02 6.540352106094360352e-01
1.670000000000000000e+02 1.910170173645019531e+01 -7.395013332366943359e+00 9.836898446083068848e-01 -1.327261567115783691e+00 -1.030715033411979675e-01 6.649557352066040039e-01
1.680000000000000000e+02 1.992537498474121094e+01 -7.624701976776123047e+00 1.030684590339660645e+00 -1.170635938644409180e+00 -4.198540374636650085e-02 2.010582983493804932e-01
1.690000000000000000e+02 1.975797843933105469e+01 -8.627028465270996094e+00 6.196842670440673828e+00 -2.147453069686889648e+00 1.214816808700561523e+00 2.564435899257659912e-01
1.700000000000000000e+02 2.048489761352539062e+01 -7.488312721252441406e+00 -4.935181736946105957e-01 -1.239183425903320312e+00 -5.198104381561279297e-01 8.028421998023986816e-01
1.710000000000000000e+02 2.051165962219238281e+01 -9.541115760803222656e+00 1.252730846405029297e+01 -1.500128507614135742e+00 3.308154106140136719e+00 4.610941886901855469e+00
1.720000000000000000e+02 2.070782661437988281e+01 -9.230865478515625000e+00 1.394083213806152344e+01 -1.783097147941589355e+00 3.647320508956909180e+00 2.762546062469482422e+00
1.730000000000000000e+02 2.065535163879394531e+01 -9.400388717651367188e+00 1.334099960327148438e+01 -1.481583118438720703e+00 3.557824850082397461e+00 3.666799306869506836e+00
1.740000000000000000e+02 2.067292594909667969e+01 -8.646141052246093750e+00 8.252596855163574219e+00 -1.196560621261596680e+00 2.116810798645019531e+00 -1.570964217185974121e+00
1.750000000000000000e+02 2.019943237304687500e+01 -8.389630317687988281e+00 4.971538543701171875e+00 -1.471673727035522461e+00 1.049959421157836914e+00 -6.524134278297424316e-01
1.760000000000000000e+02 1.950627326965332031e+01 -7.838996410369873047e+00 2.385571956634521484e+00 -1.458424568176269531e+00 2.781442105770111084e-01 2.925464510917663574e-01
1.770000000000000000e+02 1.919236946105957031e+01 -7.839108943939208984e+00 2.464099168777465820e+00 -1.551606655120849609e+00 2.737477719783782959e-01 5.008153915405273438e-01
1.780000000000000000e+02 2.102248764038085938e+01 -5.688540935516357422e+00 -1.053116440773010254e+00 1.178728938102722168e+00 3.768374770879745483e-02 4.355463087558746338e-01
1.790000000000000000e+02 2.114559936523437500e+01 -5.859158039093017578e+00 -1.040921568870544434e+00 1.328340053558349609e+00 8.622555434703826904e-02 3.601730763912200928e-01
1.800000000000000000e+02 2.173812675476074219e+01 -7.778322696685791016e+00 -8.178976178169250488e-01 6.073945522308349609e+00 1.576814413070678711e+00 7.030909508466720581e-02
1.810000000000000000e+02 2.225828170776367188e+01 -7.308533668518066406e+00 -4.826953113079071045e-01 6.992002487182617188e+00 1.952792167663574219e+00 2.008271455764770508e+00
1.820000000000000000e+02 2.203634452819824219e+01 -7.834164142608642578e+00 -5.684336423873901367e-01 8.924460411071777344e+00 2.506808042526245117e+00 1.705256938934326172e+00
1.830000000000000000e+02 2.007547187805175781e+01 -6.521317958831787109e+00 -1.379959702491760254e+00 -1.781162738800048828e+00 -9.483367204666137695e-01 1.441049456596374512e+00
1.840000000000000000e+02 2.118439674377441406e+01 -7.968891620635986328e+00 -7.778816223144531250e-01 -1.119728803634643555e+00 -5.692831277847290039e-01 8.507634997367858887e-01
1.850000000000000000e+02 2.240079498291015625e+01 -9.761157035827636719e+00 1.183329772949218750e+01 9.974167823791503906e+00 6.542239665985107422e+00 3.884867727756500244e-01
1.860000000000000000e+02 2.257571220397949219e+01 -9.699810028076171875e+00 1.298273468017578125e+01 7.985693931579589844e+00 6.290528774261474609e+00 -1.022356972098350525e-01
1.870000000000000000e+02 2.293221855163574219e+01 -8.768795013427734375e+00 1.176926708221435547e+01 5.184674263000488281e+00 5.086182594299316406e+00 5.275400638580322266e+00
1.880000000000000000e+02 2.101007461547851562e+01 -8.104189872741699219e+00 2.988822758197784424e-01 -2.891210019588470459e-01 2.928388537839055061e-03 -1.105294078588485718e-01
1.890000000000000000e+02 2.054332160949707031e+01 -7.982831954956054688e+00 1.512697815895080566e+00 -6.474591493606567383e-01 2.595716118812561035e-01 -3.990223109722137451e-01
1.900000000000000000e+02 2.086511421203613281e+01 -9.545388221740722656e+00 1.389634799957275391e+01 5.434820055961608887e-01 4.331949234008789062e+00 5.491973876953125000e+00
1.910000000000000000e+02 2.148658752441406250e+01 -1.018969821929931641e+01 7.465685367584228516e+00 7.987849712371826172e+00 4.636060237884521484e+00 5.315117835998535156e+00
1.920000000000000000e+02 2.233660316467285156e+01 -1.008646011352539062e+01 8.384242057800292969e+00 8.913928031921386719e+00 5.189450740814208984e+00 7.947193384170532227e-01
1.930000000000000000e+02 2.200934982299804688e+01 -1.003900814056396484e+01 8.321053504943847656e+00 9.625602722167968750e+00 5.383996963500976562e+00 2.754518747329711914e+00
1.940000000000000000e+02 1.966727256774902344e+01 -8.489897727966308594e+00 5.216892242431640625e+00 -2.072165489196777344e+00 9.434180259704589844e-01 2.872620709240436554e-02
1.950000000000000000e+02 2.000819206237792969e+01 -6.849261283874511719e+00 -9.657893180847167969e-01 -1.540698051452636719e+00 -7.519462108612060547e-01 1.251643896102905273e+00
1.960000000000000000e+02 2.065070152282714844e+01 -8.863912582397460938e+00 1.074594593048095703e+01 -1.845225334167480469e+00 2.670216321945190430e+00 -4.960050284862518311e-01
1.970000000000000000e+02 2.015808677673339844e+01 -7.481354713439941406e+00 1.227360367774963379e-01 -1.157692909240722656e+00 -3.104870915412902832e-01 4.700474143028259277e-01
1.980000000000000000e+02 1.959938240051269531e+01 -8.316262245178222656e+00 4.247609138488769531e+00 -1.872774124145507812e+00 7.124505043029785156e-01 9.864825755357742310e-02
1.990000000000000000e+02 2.040643501281738281e+01 -8.909736633300781250e+00 9.836831092834472656e+00 -2.216057777404785156e+00 2.286231994628906250e+00 1.430208534002304077e-01
2.000000000000000000e+02 1.939690780639648438e+01 -7.399833202362060547e+00 8.354716300964355469e-01 -1.292453050613403320e+00 -1.370944082736968994e-01 5.493863224983215332e-01
2.010000000000000000e+02 2.040728950500488281e+01 -9.393457412719726562e+00 1.169734668731689453e+01 -2.284416913986206055e+00 2.823878765106201172e+00 3.011720418930053711e+00
2.020000000000000000e+02 1.947565078735351562e+01 -8.141924858093261719e+00 3.518719434738159180e+00 -1.711905121803283691e+00 5.420442819595336914e-01 1.862294971942901611e-01
2.030000000000000000e+02 2.097681236267089844e+01 -9.975902557373046875e+00 1.088132381439208984e+01 2.719309568405151367e+00 4.080189704895019531e+00 7.009225368499755859e+00
2.040000000000000000e+02 2.118076896667480469e+01 -9.763463973999023438e+00 1.313193416595458984e+01 5.790445327758789062e+00 5.676713943481445312e+00 8.109708786010742188e+00
2.050000000000000000e+02 2.135340499877929688e+01 -9.853467941284179688e+00 1.151430511474609375e+01 7.542679309844970703e+00 5.717095375061035156e+00 7.675901412963867188e+00
2.060000000000000000e+02 2.070335006713867188e+01 -8.131610870361328125e+00 2.008653402328491211e+00 -4.401705563068389893e-01 4.705448448657989502e-01 -8.097111582756042480e-01
2.070000000000000000e+02 2.223259735107421875e+01 -9.883947372436523438e+00 1.002238559722900391e+01 1.105467224121093750e+01 6.323117256164550781e+00 4.581059217453002930e-01
2.080000000000000000e+02 2.249783515930175781e+01 -9.639086723327636719e+00 1.333287334442138672e+01 9.378314971923828125e+00 6.813356876373291016e+00 -7.724171876907348633e-01
2.090000000000000000e+02 2.251426887512207031e+01 -8.110460281372070312e+00 4.320292472839355469e+00 1.013155269622802734e+01 4.335553646087646484e+00 6.551710128784179688e+00
2.100000000000000000e+02 2.220918464660644531e+01 -7.893645286560058594e+00 3.923002183437347412e-01 1.018591880798339844e+01 3.173465728759765625e+00 3.491912126541137695e+00
2.110000000000000000e+02 2.282644271850585938e+01 -7.997076988220214844e+00 4.131683349609375000e+00 7.896521568298339844e+00 3.608461380004882812e+00 5.773731708526611328e+00
2.120000000000000000e+02 2.178002929687500000e+01 -6.673660278320312500e+00 -9.777972698211669922e-01 3.727288246154785156e+00 8.248472809791564941e-01 5.209603905677795410e-01
2.130000000000000000e+02 2.267029953002929688e+01 -8.140746116638183594e+00 5.406830310821533203e+00 8.595526695251464844e+00 4.200706958770751953e+00 6.529976844787597656e+00
2.140000000000000000e+02 2.283679199218750000e+01 -8.438798904418945312e+00 9.688575744628906250e+00 7.438947200775146484e+00 5.138257026672363281e+00 7.749660015106201172e+00
2.150000000000000000e+02 2.299319267272949219e+01 -8.362010002136230469e+00 8.292653083801269531e+00 6.391264915466308594e+00 4.405175209045410156e+00 6.857957363128662109e+00
2.160000000000000000e+02 2.106319046020507812e+01 -7.812172889709472656e+00 -7.398375868797302246e-01 -1.142083406448364258e+00 -5.645762681961059570e-01 9.806241989135742188e-01
2.170000000000000000e+02 2.136518096923828125e+01 -7.869149208068847656e+00 -3.683498501777648926e-01 1.311262369155883789e+00 2.828737497329711914e-01 2.699886634945869446e-02
2.180000000000000000e+02 2.281491470336914062e+01 -9.408129692077636719e+00 1.308459281921386719e+01 4.949998378753662109e+00 5.410377502441406250e+00 9.588224887847900391e-01
2.190000000000000000e+02 2.245050811767578125e+01 -7.823276042938232422e+00 1.350328564643859863e+00 9.443634033203125000e+00 3.238188743591308594e+00 4.646310806274414062e+00
2.200000000000000000e+02 2.205612754821777344e+01 -6.966551303863525391e+00 -8.889129757881164551e-01 5.112775325775146484e+00 1.267158627510070801e+00 1.033889055252075195e+00
2.210000000000000000e+02 2.005989456176757812e+01 -7.307822704315185547e+00 -1.092179715633392334e-01 -1.254408717155456543e+00 -4.090880155563354492e-01 7.260906696319580078e-01
2.220000000000000000e+02 1.972627067565917969e+01 -6.832764148712158203e+00 -7.794461846351623535e-01 -1.543089985847473145e+00 -6.967608332633972168e-01 1.160197854042053223e+00
2.230000000000000000e+02 2.012900352478027344e+01 -7.007024765014648438e+00 -8.737204074859619141e-01 -1.536831617355346680e+00 -7.231656312942504883e-01 1.193488001823425293e+00
2.240000000000000000e+02 1.955503273010253906e+01 -7.548595428466796875e+00 1.184292554855346680e+00 -1.205396056175231934e+00 -6.331017240881919861e-03 3.266463577747344971e-01
2.250000000000000000e+02 2.073860359191894531e+01 -7.804378032684326172e+00 -9.726132452487945557e-02 -8.895087242126464844e-01 -2.960310280323028564e-01 4.120282828807830811e-01
2.260000000000000000e+02 2.024718284606933594e+01 -7.167088985443115234e+00 -7.650063633918762207e-01 -1.474071979522705078e+00 -6.717234849929809570e-01 1.088873505592346191e+00
2.270000000000000000e+02 2.112132263183593750e+01 -6.719401836395263672e+00 -8.503305912017822266e-01 1.081566452980041504e+00 6.937075406312942505e-02 2.959454059600830078e-01
2.280000000000000000e+02 2.037223625183105469e+01 -6.220109939575195312e+00 -1.134406208992004395e+00 -8.028267621994018555e-01 -5.811699032783508301e-01 9.572343230247497559e-01
2.290000000000000000e+02 2.082603454589843750e+01 -7.495501518249511719e+00 -7.599981427192687988e-01 -1.281830430030822754e+00 -6.125485897064208984e-01 9.971550107002258301e-01
2.300000000000000000e+02 2.110098838806152344e+01 -7.562549591064453125e+00 -5.732219815254211426e-01 -2.336239516735076904e-01 -2.420537769794464111e-01 5.761833786964416504e-01
2.310000000000000000e+02 2.073648643493652344e+01 -7.315041542053222656e+00 -8.478644490242004395e-01 -1.300325870513916016e+00 -6.444571018218994141e-01 1.009036898612976074e+00
2.320000000000000000e+02 2.241011428833007812e+01 -7.490124702453613281e+00 9.229001402854919434e-02 7.987373352050781250e+00 2.423898935317993164e+00 3.101453542709350586e+00
2.330000000000000000e+02 2.203992271423339844e+01 -7.428304672241210938e+00 -6.813001036643981934e-01 6.913572311401367188e+00 1.869681715965270996e+00 1.464243650436401367e+00
2.340000000000000000e+02 2.151741981506347656e+01 -6.352293968200683594e+00 -1.028328061103820801e+00 2.587431192398071289e+00 4.677309095859527588e-01 3.507211208343505859e-01
2.350000000000000000e+02 2.126856231689453125e+01 -6.025371074676513672e+00 -1.038458824157714844e+00 1.687943696975708008e+00 1.948454678058624268e-01 3.704808354377746582e-01
2.360000000000000000e+02 2.051852798461914062e+01 -6.110921859741210938e+00 -1.089302659034729004e+00 -1.406607329845428467e-01 -3.689890205860137939e-01 6.737197637557983398e-01
2.370000000000000000e+02 2.164606666564941406e+01 -6.514395713806152344e+00 -1.011867046356201172e+00 3.142256736755371094e+00 6.391168832778930664e-01 4.621355235576629639e-01
2.380000000000000000e+02 2.161010742187500000e+01 -6.855840682983398438e+00 -9.169270396232604980e-01 3.285610437393188477e+00 7.106050252914428711e-01 3.697697520256042480e-01
2.390000000000000000e+02 2.215670204162597656e+01 -7.119092941284179688e+00 -8.104296922683715820e-01 6.055236816406250000e+00 1.573442101478576660e+00 1.434697628021240234e+00
2.400000000000000000e+02 2.068668556213378906e+01 -5.995376110076904297e+00 -1.046890377998352051e+00 1.508931070566177368e-01 -2.687991559505462646e-01 5.464424490928649902e-01
2.410000000000000000e+02 1.925870132446289062e+01 -7.252896785736083984e+00 5.795494914054870605e-01 -1.206005334854125977e+00 -1.879367530345916748e-01 6.208959221839904785e-01
2.420000000000000000e+02 1.968574905395507812e+01 -7.118173599243164062e+00 -1.379745006561279297e-01 -1.343404412269592285e+00 -4.444136619567871094e-01 8.248111605644226074e-01
2.430000000000000000e+02 2.048719787597656250e+01 -6.292360782623291016e+00 -1.035736083984375000e+00 -4.556503593921661377e-01 -4.474159479141235352e-01 7.950136065483093262e-01
2.440000000000000000e+02 2.020594024658203125e+01 -6.663812637329101562e+00 -1.114223718643188477e+00 -1.545168280601501465e+00 -7.978175878524780273e-01 1.398413658142089844e+00
2.450000000000000000e+02 2.086963844299316406e+01 -8.263566017150878906e+00 2.700042247772216797e+00 -5.423293262720108032e-02 7.937427759170532227e-01 -1.217146039009094238e+00
2.460000000000000000e+02 2.035639572143554688e+01 -6.796901702880859375e+00 -1.107162594795227051e+00 -1.429415345191955566e+00 -7.609733343124389648e-01 1.231199026107788086e+00
2.470000000000000000e+02 1.937642288208007812e+01 -7.691495418548583984e+00 1.863135218620300293e+00 -1.439434409141540527e+00 1.271102428436279297e-01 3.055179715156555176e-01
2.480000000000000000e+02 2.002470207214355469e+01 -8.895132064819335938e+00 8.136205673217773438e+00 -2.404718637466430664e+00 1.719446063041687012e+00 7.008760571479797363e-01
2.490000000000000000e+02 2.030462455749511719e+01 -9.225833892822265625e+00 1.087046337127685547e+01 -2.518042564392089844e+00 2.505726099014282227e+00 2.006791114807128906e+00
2.500000000000000000e+02 1.923831176757812500e+01 -7.543407440185546875e+00 1.444693565368652344e+00 -1.326042413711547852e+00 3.559531271457672119e-02 4.835987091064453125e-01
2.510000000000000000e+02 2.017125892639160156e+01 -9.048815727233886719e+00 9.354301452636718750e+00 -2.543285131454467773e+00 2.043304920196533203e+00 1.190461874008178711e+00
2.520000000000000000e+02 2.156314277648925781e+01 -7.636575698852539062e+00 -4.079320132732391357e-01 3.482621908187866211e+00 9.224069714546203613e-01 -6.596232205629348755e-02
2.530000000000000000e+02 1.984469413757324219e+01 -6.985218048095703125e+00 -5.960910916328430176e-01 -1.308800935745239258e+00 -5.714675784111022949e-01 1.042700171470642090e+00
2.540000000000000000e+02 2.063224601745605469e+01 -7.128503322601318359e+00 -9.512264728546142578e-01 -1.308442354202270508e+00 -6.779006719589233398e-01 1.059717655181884766e+00
2.550000000000000000e+02 2.089830780029296875e+01 -6.919390678405761719e+00 -7.921515107154846191e-01 -6.412534415721893311e-02 -2.568830549716949463e-01 5.442467331886291504e-01
2.560000000000000000e+02 2.050205993652343750e+01 -6.950235366821289062e+00 -1.009186267852783203e+00 -1.338964343070983887e+00 -7.044451832771301270e-01 1.161530971527099609e+00
2.570000000000000000e+02 2.120175743103027344e+01 -6.370469093322753906e+00 -9.649266600608825684e-01 1.482954740524291992e+00 1.554084420204162598e-01 3.161871731281280518e-01
2.580000000000000000e+02 2.127317428588867188e+01 -7.214008808135986328e+00 -5.937823653221130371e-01 1.448397874832153320e+00 2.563846409320831299e-01 1.163190454244613647e-01
2.590000000000000000e+02 2.061788368225097656e+01 -6.371285915374755859e+00 -1.070601701736450195e+00 -2.484130710363388062e-01 -3.957044184207916260e-01 7.188113331794738770e-01
2.600000000000000000e+02 2.156127738952636719e+01 -7.816147804260253906e+00 -6.148260235786437988e-01 3.526591539382934570e+00 8.735296726226806641e-01 -3.808874487876892090e-01
2.610000000000000000e+02 2.227842903137207031e+01 -7.695211887359619141e+00 2.416918613016605377e-02 8.721264839172363281e+00 2.623630285263061523e+00 2.922068357467651367e+00
2.620000000000000000e+02 2.097180747985839844e+01 -6.027232170104980469e+00 -1.036884069442749023e+00 9.019982814788818359e-01 -4.046571999788284302e-02 4.027002453804016113e-01
2.630000000000000000e+02 2.034430313110351562e+01 -8.172441482543945312e+00 3.320434808731079102e+00 -9.986025691032409668e-01 6.965496540069580078e-01 -8.404363989830017090e-01
2.640000000000000000e+02 1.990416145324707031e+01 -8.293382644653320312e+00 4.305490493774414062e+00 -1.641880273818969727e+00 7.990831136703491211e-01 -2.730815112590789795e-01
2.650000000000000000e+02 1.967790412902832031e+01 -7.950049400329589844e+00 2.672010898590087891e+00 -1.492063641548156738e+00 3.539842367172241211e-01 -3.543387725949287415e-02
2.660000000000000000e+02 1.969083976745605469e+01 -7.728840351104736328e+00 1.734256386756896973e+00 -1.236714720726013184e+00 1.492625027894973755e-01 7.666387408971786499e-02
2.670000000000000000e+02 2.123339080810546875e+01 -7.465004920959472656e+00 -5.323795676231384277e-01 6.062293052673339844e-01 2.215490862727165222e-02 2.165139317512512207e-01
2.680000000000000000e+02 2.126836967468261719e+01 -6.881340026855468750e+00 -8.120769262313842773e-01 1.533171057701110840e+00 2.163282483816146851e-01 2.465672791004180908e-01
2.690000000000000000e+02 2.144744873046875000e+01 -7.050004959106445312e+00 -8.139052987098693848e-01 2.513668775558471680e+00 5.099290013313293457e-01 1.247591599822044373e-01
2.700000000000000000e+02 2.166175270080566406e+01 -7.192679882049560547e+00 -7.808278203010559082e-01 3.816490411758422852e+00 9.106987714767456055e-01 3.235238492488861084e-01
2.710000000000000000e+02 2.076952934265136719e+01 -6.735303878784179688e+00 -8.856997489929199219e-01 -2.978365421295166016e-01 -3.550608754158020020e-01 6.435810327529907227e-01
2.720000000000000000e+02 1.993518638610839844e+01 -8.027553558349609375e+00 2.901895523071289062e+00 -1.284012198448181152e+00 4.853650033473968506e-01 -3.048092722892761230e-01
2.730000000000000000e+02 2.107557106018066406e+01 -7.069725036621093750e+00 -7.102161645889282227e-01 5.037212371826171875e-01 -6.194848194718360901e-02 3.604291677474975586e-01
2.740000000000000000e+02 2.085862159729003906e+01 -5.841016292572021484e+00 -9.943037629127502441e-01 6.384454965591430664e-01 -1.067574918270111084e-01 4.868572354316711426e-01
2.750000000000000000e+02 2.078815460205078125e+01 -6.194915771484375000e+00 -9.592908620834350586e-01 2.647508680820465088e-01 -2.083619982004165649e-01 5.381466150283813477e-01
2.760000000000000000e+02 2.108588409423828125e+01 -6.201270103454589844e+00 -9.661347866058349609e-01 1.130341053009033203e+00 4.926187172532081604e-02 3.640902638435363770e-01
2.770000000000000000e+02 2.023066329956054688e+01 -6.368654727935791016e+00 -1.181104063987731934e+00 -1.186218380928039551e+00 -7.101967334747314453e-01 1.140267610549926758e+00
2.780000000000000000e+02 2.069451332092285156e+01 -6.537034511566162109e+00 -9.125602245330810547e-01 -2.979786694049835205e-01 -3.631616830825805664e-01 7.300113439559936523e-01
2.790000000000000000e+02 2.050789451599121094e+01 -6.571506977081298828e+00 -9.514135718345642090e-01 -8.570387959480285645e-01 -5.425357222557067871e-01 9.406350255012512207e-01
2.800000000000000000e+02 1.956760597229003906e+01 -6.971736431121826172e+00 -3.194284141063690186e-01 -1.195391178131103516e+00 -4.544458687305450439e-01 8.762735724449157715e-01
2.810000000000000000e+02 1.941234970092773438e+01 -7.111763000488281250e+00 1.346749216318130493e-01 -1.264544725418090820e+00 -3.389609158039093018e-01 7.763239741325378418e-01
2.820000000000000000e+02 1.995886993408203125e+01 -7.141588687896728516e+00 -4.294634759426116943e-01 -1.314360022544860840e+00 -5.231470465660095215e-01 8.908556103706359863e-01
2.830000000000000000e+02 1.954027557373046875e+01 -7.256935119628906250e+00 3.657282590866088867e-01 -1.134945273399353027e+00 -2.307651191949844360e-01 5.841947793960571289e-01
2.840000000000000000e+02 1.906602287292480469e+01 -7.688454627990722656e+00 1.877087473869323730e+00 -1.494495272636413574e+00 1.147776767611503601e-01 5.317363739013671875e-01
2.850000000000000000e+02 1.932303810119628906e+01 -7.990087032318115234e+00 2.739972591400146484e+00 -1.634962081909179688e+00 3.315031528472900391e-01 2.796570062637329102e-01
2.860000000000000000e+02 2.139207267761230469e+01 -6.189659118652343750e+00 -1.015906572341918945e+00 2.089753389358520508e+00 3.221540153026580811e-01 3.772995769977569580e-01
2.870000000000000000e+02 2.036429023742675781e+01 -7.328027248382568359e+00 -6.084788441658020020e-01 -1.366152048110961914e+00 -5.923892855644226074e-01 9.722689986228942871e-01
2.880000000000000000e+02 2.027500534057617188e+01 -7.651714801788330078e+00 5.588579773902893066e-01 -1.015158057212829590e+00 -1.368900239467620850e-01 2.698436677455902100e-01
2.890000000000000000e+02 2.040265274047851562e+01 -7.819588184356689453e+00 1.019325017929077148e+00 -8.558056354522705078e-01 4.905583709478378296e-02 -7.186258584260940552e-02
2.900000000000000000e+02 2.060961532592773438e+01 -7.647549152374267578e+00 -2.620784938335418701e-01 -1.053507566452026367e+00 -3.946757912635803223e-01 6.665763854980468750e-01
2.910000000000000000e+02 2.055615425109863281e+01 -8.323143005371093750e+00 4.400926589965820312e+00 -7.158818840980529785e-01 1.105513453483581543e+00 -1.275199055671691895e+00
2.920000000000000000e+02 2.087291908264160156e+01 -7.956858634948730469e+00 1.296468079090118408e-01 -5.940783619880676270e-01 -1.393294632434844971e-01 1.921874582767486572e-01
2.930000000000000000e+02 2.132349205017089844e+01 -6.535337448120117188e+00 -9.065083861351013184e-01 1.874497294425964355e+00 2.903966605663299561e-01 3.049601316452026367e-01
2.940000000000000000e+02 2.145745658874511719e+01 -6.698145866394042969e+00 -9.244203567504882812e-01 2.483659505844116211e+00 4.677717685699462891e-01 2.169512659311294556e-01
2.950000000000000000e+02 2.178059196472167969e+01 -6.997313022613525391e+00 -9.249566197395324707e-01 4.116268634796142578e+00 9.573936462402343750e-01 4.641432166099548340e-01
2.960000000000000000e+02 2.191905212402343750e+01 -6.826448440551757812e+00 -9.617911577224731445e-01 4.530152797698974609e+00 1.070508480072021484e+00 7.878125905990600586e-01
2.970000000000000000e+02 2.196627998352050781e+01 -7.114209651947021484e+00 -9.159325361251831055e-01 5.329580783843994141e+00 1.324094533920288086e+00 8.972688913345336914e-01
2.980000000000000000e+02 2.075769424438476562e+01 -8.443702697753906250e+00 5.148343563079833984e+00 -5.029023289680480957e-01 1.393632411956787109e+00 -1.836430668830871582e+00
2.990000000000000000e+02 2.044018936157226562e+01 -8.533179283142089844e+00 6.563454151153564453e+00 -1.401224851608276367e+00 1.548668861389160156e+00 -1.133230566978454590e+00
3.000000000000000000e+02 2.189801406860351562e+01 -7.696097850799560547e+00 -5.760482549667358398e-01 6.828158378601074219e+00 1.875633001327514648e+00 7.942379713058471680e-01
3.010000000000000000e+02 2.256485939025878906e+01 -7.647391796112060547e+00 9.427862167358398438e-01 8.422908782958984375e+00 2.809708595275878906e+00 4.053634643554687500e+00
3.020000000000000000e+02 2.269973373413085938e+01 -7.809887409210205078e+00 2.270696163177490234e+00 8.668462753295898438e+00 3.281747817993164062e+00 5.359787940979003906e+00
3.030000000000000000e+02 2.112823295593261719e+01 -7.334897994995117188e+00 -6.450676918029785156e-01 4.976040422916412354e-01 -4.423909261822700500e-02 3.070766925811767578e-01
3.040000000000000000e+02 2.093939781188964844e+01 -7.656511306762695312e+00 -7.657929658889770508e-01 -1.260435819625854492e+00 -6.078686714172363281e-01 9.779896140098571777e-01
3.050000000000000000e+02 2.123657608032226562e+01 -7.705996036529541016e+00 -4.308729171752929688e-01 4.157184958457946777e-01 -4.546327050775289536e-03 2.500633001327514648e-01
3.060000000000000000e+02 1.987965965270996094e+01 -8.759382247924804688e+00 6.933099269866943359e+00 -2.271271705627441406e+00 1.398548364639282227e+00 4.037520289421081543e-01
3.070000000000000000e+02 1.985731697082519531e+01 -8.500754356384277344e+00 5.630535602569580078e+00 -1.905375957489013672e+00 1.117547869682312012e+00 -1.134885475039482117e-01
3.080000000000000000e+02 2.051141929626464844e+01 -9.113862991333007812e+00 1.182248687744140625e+01 -2.298274517059326172e+00 2.857263803482055664e+00 1.421945214271545410e+00
3.090000000000000000e+02 2.101987648010253906e+01 -9.672301292419433594e+00 1.312512683868408203e+01 3.213392019271850586e+00 4.901555538177490234e+00 6.855433464050292969e+00
3.100000000000000000e+02 2.069009780883789062e+01 -9.064203262329101562e+00 1.326387596130371094e+01 -1.991824865341186523e+00 3.381615400314331055e+00 1.028160572052001953e+00
3.110000000000000000e+02 2.110390281677246094e+01 -9.860522270202636719e+00 1.220647907257080078e+01 4.690418720245361328e+00 5.069069385528564453e+00 7.574090957641601562e+00
3.120000000000000000e+02 2.135325431823730469e+01 -9.977335929870605469e+00 1.044597625732421875e+01 7.292957305908203125e+00 5.321680068969726562e+00 6.778575420379638672e+00
3.130000000000000000e+02 2.208299255371093750e+01 -7.640089511871337891e+00 -4.359598159790039062e-01 7.872415542602539062e+00 2.230936765670776367e+00 1.859609723091125488e+00
3.140000000000000000e+02 2.237490272521972656e+01 -7.993581295013427734e+00 1.696475028991699219e+00 1.045303726196289062e+01 3.644853830337524414e+00 4.960984706878662109e+00
3.150000000000000000e+02 2.274589347839355469e+01 -8.502963066101074219e+00 1.061473178863525391e+01 7.855016708374023438e+00 5.540924549102783203e+00 8.442691802978515625e+00
3.160000000000000000e+02 2.281581306457519531e+01 -8.637843132019042969e+00 1.142104911804199219e+01 6.646805286407470703e+00 5.420356273651123047e+00 7.306122779846191406e+00
3.170000000000000000e+02 2.100131225585937500e+01 -6.551169872283935547e+00 -8.578154444694519043e-01 7.154427170753479004e-01 -4.271183162927627563e-02 3.905733227729797363e-01
3.180000000000000000e+02 1.979925537109375000e+01 -7.256769657135009766e+00 8.468330837786197662e-03 -1.213366746902465820e+00 -3.614695072174072266e-01 6.813231706619262695e-01
3.190000000000000000e+02 1.986403274536132812e+01 -7.416176319122314453e+00 4.412364363670349121e-01 -1.153994083404541016e+00 -2.138272970914840698e-01 5.096319913864135742e-01
3.200000000000000000e+02 2.183776473999023438e+01 -7.470588684082031250e+00 -9.294710159301757812e-01 5.798639297485351562e+00 1.460750579833984375e+00 4.656229913234710693e-01
3.210000000000000000e+02 2.188699913024902344e+01 -7.285501956939697266e+00 -8.283486962318420410e-01 5.304074287414550781e+00 1.342717647552490234e+00 5.997328758239746094e-01
3.220000000000000000e+02 2.019048309326171875e+01 -7.986416816711425781e+00 2.507359027862548828e+00 -1.073993682861328125e+00 4.300096035003662109e-01 -3.774133324623107910e-01
3.230000000000000000e+02 2.030174827575683594e+01 -8.707948684692382812e+00 7.756651878356933594e+00 -2.008790969848632812e+00 1.724358201026916504e+00 -3.630952239036560059e-01
3.240000000000000000e+02 1.999860382080078125e+01 -8.621458053588867188e+00 6.500445842742919922e+00 -2.102851629257202148e+00 1.319278240203857422e+00 -1.556829363107681274e-01
3.250000000000000000e+02 1.968465995788574219e+01 -7.393918991088867188e+00 5.570608973503112793e-01 -1.270062923431396484e+00 -2.139005959033966064e-01 5.023760199546813965e-01
3.260000000000000000e+02 2.136347389221191406e+01 -7.572127342224121094e+00 -4.869475066661834717e-01 1.845347404479980469e+00 4.075199961662292480e-01 -2.649585250765085220e-03
3.270000000000000000e+02 2.160632133483886719e+01 -7.423379898071289062e+00 -6.953194141387939453e-01 3.648949146270751953e+00 8.860889077186584473e-01 4.857049509882926941e-02
3.280000000000000000e+02 2.089696502685546875e+01 -6.374101638793945312e+00 -9.569470882415771484e-01 4.746550917625427246e-01 -1.446875929832458496e-01 4.372455179691314697e-01
3.290000000000000000e+02 2.012711715698242188e+01 -8.735587120056152344e+00 7.989554405212402344e+00 -2.180608987808227539e+00 1.742683649063110352e+00 -4.219564422965049744e-02
3.300000000000000000e+02 2.138454437255859375e+01 -7.396096229553222656e+00 -6.060545444488525391e-01 2.208125829696655273e+00 4.806213974952697754e-01 9.557100012898445129e-03
3.310000000000000000e+02 2.006223869323730469e+01 -7.811122894287109375e+00 1.507360458374023438e+00 -1.128910064697265625e+00 1.135351061820983887e-01 -2.294110134243965149e-02
3.320000000000000000e+02 2.099921798706054688e+01 -7.418385505676269531e+00 -7.356482744216918945e-01 -5.871917009353637695e-01 -3.968519866466522217e-01 7.190872430801391602e-01
3.330000000000000000e+02 2.096678352355957031e+01 -7.256800651550292969e+00 -7.336696982383728027e-01 -2.643236815929412842e-01 -2.993980050086975098e-01 6.522673368453979492e-01
3.340000000000000000e+02 2.008936882019042969e+01 -6.137080192565917969e+00 -1.383532524108886719e+00 -1.316744327545166016e+00 -8.100830316543579102e-01 1.188916563987731934e+00
3.350000000000000000e+02 1.925736427307128906e+01 -4.300516605377197266e+00 -1.453099608421325684e+00 -7.152988314628601074e-01 -6.505195498466491699e-01 1.019526004791259766e+00
3.360000000000000000e+02 2.012221527099609375e+01 -5.575979709625244141e+00 -1.235817790031433105e+00 -6.425449252128601074e-01 -5.635088086128234863e-01 9.231913089752197266e-01
3.370000000000000000e+02 1.977944374084472656e+01 -5.202848911285400391e+00 -1.291659474372863770e+00 -7.566511034965515137e-01 -6.144931912422180176e-01 1.020372629165649414e+00
3.380000000000000000e+02 2.047323417663574219e+01 -5.779041290283203125e+00 -1.065321564674377441e+00 -6.680836528539657593e-02 -3.396389782428741455e-01 6.398984789848327637e-01
3.390000000000000000e+02 2.064766120910644531e+01 -5.618885517120361328e+00 -1.150605678558349609e+00 2.491163611412048340e-01 -2.704467773437500000e-01 5.419529676437377930e-01
3.400000000000000000e+02 2.077460289001464844e+01 -5.427557945251464844e+00 -1.118863463401794434e+00 6.713305711746215820e-01 -1.342598795890808105e-01 4.364304244518280029e-01
3.410000000000000000e+02 1.876255607604980469e+01 -3.807685136795043945e+00 -1.573994398117065430e+00 -8.370706439018249512e-01 -7.233194708824157715e-01 1.049898624420166016e+00
3.420000000000000000e+02 1.829820442199707031e+01 -4.389182090759277344e+00 -1.909097313880920410e+00 -1.516862750053405762e+00 -1.027788043022155762e+00 1.616399049758911133e+00
3.430000000000000000e+02 2.018285179138183594e+01 -4.987530231475830078e+00 -1.094948291778564453e+00 -4.977419599890708923e-02 -3.434167504310607910e-01 6.713376641273498535e-01
3.440000000000000000e+02 2.033856773376464844e+01 -5.965989589691162109e+00 -1.117033958435058594e+00 -5.049147605895996094e-01 -4.865846037864685059e-01 7.752958536148071289e-01
3.450000000000000000e+02 2.042636680603027344e+01 -5.342577934265136719e+00 -1.141355276107788086e+00 1.412768512964248657e-01 -3.000235259532928467e-01 6.263288259506225586e-01
3.460000000000000000e+02 1.975962638854980469e+01 -4.667787075042724609e+00 -1.293531656265258789e+00 -5.203756690025329590e-01 -5.441721677780151367e-01 8.522857427597045898e-01
3.470000000000000000e+02 1.883259582519531250e+01 -4.921134471893310547e+00 -1.624523401260375977e+00 -1.426509261131286621e+00 -9.153097867965698242e-01 1.518695950508117676e+00
3.480000000000000000e+02 1.934172439575195312e+01 -5.507109642028808594e+00 -1.520591139793395996e+00 -1.454602122306823730e+00 -8.925579786300659180e-01 1.432642340660095215e+00
3.490000000000000000e+02 2.024797821044921875e+01 -6.130824565887451172e+00 -1.308614134788513184e+00 -8.813874125480651855e-01 -6.570004820823669434e-01 9.772599339485168457e-01
3.500000000000000000e+02 2.002225303649902344e+01 -5.901978492736816406e+00 -1.251201629638671875e+00 -1.026236057281494141e+00 -6.832312941551208496e-01 1.142890214920043945e+00
3.510000000000000000e+02 2.014239692687988281e+01 -6.248748779296875000e+00 -1.222668170928955078e+00 -1.368963718414306641e+00 -7.774895429611206055e-01 1.171356678009033203e+00
3.520000000000000000e+02 2.001180648803710938e+01 -6.313068866729736328e+00 -1.345242977142333984e+00 -1.679428458213806152e+00 -9.074014425277709961e-01 1.387435436248779297e+00
3.530000000000000000e+02 1.976017189025878906e+01 -6.075589179992675781e+00 -1.423716187477111816e+00 -1.486125946044921875e+00 -8.729526400566101074e-01 1.469806790351867676e+00
3.540000000000000000e+02 1.695117187500000000e+01 -2.380243301391601562e+00 -1.834945440292358398e+00 -9.514993429183959961e-01 -8.359334468841552734e-01 1.245201945304870605e+00
3.550000000000000000e+02 1.651630020141601562e+01 -2.979079723358154297e+00 -2.151234626770019531e+00 -1.200252294540405273e+00 -1.005446076393127441e+00 1.592290639877319336e+00
3.560000000000000000e+02 1.590384101867675781e+01 -2.523920059204101562e+00 -2.345870733261108398e+00 -1.199659824371337891e+00 -1.063659191131591797e+00 1.595418691635131836e+00
3.570000000000000000e+02 1.712716102600097656e+01 -3.436568260192871094e+00 -2.117501497268676758e+00 -1.222265720367431641e+00 -1.001930117607116699e+00 1.595019698143005371e+00
3.580000000000000000e+02 1.758174324035644531e+01 -2.852491855621337891e+00 -1.708906054496765137e+00 -1.009118676185607910e+00 -8.154073953628540039e-01 1.247222304344177246e+00
3.590000000000000000e+02 1.773609352111816406e+01 -3.896142244338989258e+00 -2.120153665542602539e+00 -1.396395683288574219e+00 -1.054964780807495117e+00 1.638166666030883789e+00
3.600000000000000000e+02 1.821038436889648438e+01 -3.326825857162475586e+00 -1.603667974472045898e+00 -9.690533876419067383e-01 -7.718164324760437012e-01 1.118552565574645996e+00
3.610000000000000000e+02 1.631900405883789062e+01 -1.910323858261108398e+00 -1.844167590141296387e+00 -9.463636875152587891e-01 -8.371593952178955078e-01 1.179182052612304688e+00
3.620000000000000000e+02 1.460399055480957031e+01 -1.730789542198181152e+00 -2.317418336868286133e+00 -8.435765504837036133e-01 -9.482984542846679688e-01 1.382955670356750488e+00
3.630000000000000000e+02 1.394003677368164062e+01 -1.356149435043334961e+00 -2.249606609344482422e+00 -7.872526645660400391e-01 -9.110577702522277832e-01 1.315303564071655273e+00
3.640000000000000000e+02 1.327490711212158203e+01 -9.841976165771484375e-01 -2.312193632125854492e+00 -7.541092038154602051e-01 -9.198908805847167969e-01 1.245969057083129883e+00
3.650000000000000000e+02 1.429506587982177734e+01 -7.068015336990356445e-01 -1.870903849601745605e+00 -7.758878469467163086e-01 -7.940374612808227539e-01 1.129988670349121094e+00
3.660000000000000000e+02 1.497913169860839844e+01 -1.092790365219116211e+00 -1.847726821899414062e+00 -8.861376047134399414e-01 -8.201593160629272461e-01 1.211717009544372559e+00
3.670000000000000000e+02 1.526644039154052734e+01 -2.107936620712280273e+00 -2.437173843383789062e+00 -1.040475249290466309e+00 -1.043294787406921387e+00 1.509190559387207031e+00
3.680000000000000000e+02 1.566169452667236328e+01 -1.481285929679870605e+00 -1.810637235641479492e+00 -9.639423489570617676e-01 -8.323739171028137207e-01 1.183925151824951172e+00
3.690000000000000000e+02 1.360982322692871094e+01 -3.235010504722595215e-01 -1.789194345474243164e+00 -7.400261759757995605e-01 -7.587661743164062500e-01 1.032371282577514648e+00
3.700000000000000000e+02 1.136861705780029297e+01 6.672526597976684570e-01 -1.646531462669372559e+00 -4.992494285106658936e-01 -6.437342762947082520e-01 7.842328548431396484e-01
3.710000000000000000e+02 1.043688488006591797e+01 2.462611943483352661e-01 -2.082592010498046875e+00 -4.255641996860504150e-01 -7.524468302726745605e-01 7.369225621223449707e-01
3.720000000000000000e+02 1.187135696411132812e+01 -3.428127467632293701e-01 -2.090502977371215820e+00 -4.668316245079040527e-01 -7.672003507614135742e-01 9.586271047592163086e-01
3.730000000000000000e+02 1.258574008941650391e+01 -6.459255814552307129e-01 -2.273073673248291016e+00 -6.142863035202026367e-01 -8.662080168724060059e-01 1.111671447753906250e+00
3.740000000000000000e+02 1.288842964172363281e+01 2.964896708726882935e-02 -1.707256913185119629e+00 -7.063793540000915527e-01 -7.240908741950988770e-01 9.825144410133361816e-01
3.750000000000000000e+02 1.060655117034912109e+01 9.770575761795043945e-01 -1.390785455703735352e+00 -5.199981927871704102e-01 -5.732350945472717285e-01 6.449147462844848633e-01
3.760000000000000000e+02 1.212970542907714844e+01 3.511690795421600342e-01 -1.663214921951293945e+00 -5.929171442985534668e-01 -6.768395900726318359e-01 9.436302185058593750e-01
3.770000000000000000e+02 1.115460968017578125e+01 -4.513646289706230164e-02 -1.976368308067321777e+00 -4.024815857410430908e-01 -7.136549949645996094e-01 8.845766782760620117e-01
3.780000000000000000e+02 9.852642059326171875e+00 1.127630591392517090e+00 -1.231792211532592773e+00 -4.478877186775207520e-01 -5.039039850234985352e-01 6.833508610725402832e-01
3.790000000000000000e+02 8.934872627258300781e+00 3.838182985782623291e-01 -1.275163173675537109e+00 -1.432734820991754532e-02 -3.868471682071685791e-01 1.886924058198928833e-01
3.800000000000000000e+02 8.173450469970703125e+00 3.805501163005828857e-01 -9.463310837745666504e-01 -3.149398416280746460e-02 -2.933475077152252197e-01 1.359857916831970215e-01
3.810000000000000000e+02 7.412311553955078125e+00 3.753646016120910645e-01 -7.050244212150573730e-01 -7.987367920577526093e-03 -2.139035463333129883e-01 1.005806475877761841e-01
3.820000000000000000e+02 6.650998115539550781e+00 3.733131885528564453e-01 -5.161050558090209961e-01 -1.060966216027736664e-02 -1.580144017934799194e-01 7.957473397254943848e-02
3.830000000000000000e+02 5.128285408020019531e+00 3.666158020496368408e-01 -2.441162765026092529e-01 -6.582844071090221405e-03 -7.520973682403564453e-02 5.109282582998275757e-02
3.840000000000000000e+02 4.367387771606445312e+00 3.671060204505920410e-01 -1.468672603368759155e-01 -4.125189501792192459e-03 -4.529773816466331482e-02 4.032366722822189331e-02
3.850000000000000000e+02 2.846023797988891602e+00 3.604519069194793701e-01 -2.098732069134712219e-02 -5.716195795685052872e-03 -8.011055178940296173e-03 1.941914111375808716e-02
3.860000000000000000e+02 2.087270259857177734e+00 3.580870926380157471e-01 4.923205357044935226e-03 -4.715065471827983856e-03 6.244191899895668030e-05 7.922753691673278809e-03
3.870000000000000000e+02 2.412720918655395508e+00 1.098087072372436523e+00 -5.309625342488288879e-02 -2.640203759074211121e-02 -2.384948730468750000e-02 4.439940676093101501e-02
3.880000000000000000e+02 1.683379054069519043e+00 1.107025504112243652e+00 -2.092946320772171021e-02 -2.323929779231548309e-02 -1.325062848627567291e-02 1.773677021265029907e-02
3.890000000000000000e+02 3.580766618251800537e-01 9.541204571723937988e-01 -1.132371486164629459e-03 4.640437662601470947e-03 1.052419771440327168e-03 -2.489695092663168907e-03
3.900000000000000000e+02 1.340980529785156250e+00 3.670255243778228760e-01 7.547199260443449020e-03 -3.943972755223512650e-03 1.080967951565980911e-03 -1.434051780961453915e-03
3.910000000000000000e+02 3.154525995254516602e+00 1.100451946258544922e+00 -1.000228598713874817e-01 -2.488419041037559509e-02 -3.747211396694183350e-02 7.333368808031082153e-02
3.920000000000000000e+02 3.606339454650878906e+00 3.666762709617614746e-01 -7.225424051284790039e-02 -4.267363343387842178e-03 -2.295648120343685150e-02 3.104948624968528748e-02
3.930000000000000000e+02 5.385943889617919922e+00 1.106615781784057617e+00 -3.327673673629760742e-01 -2.638188749551773071e-02 -1.077447757124900818e-01 1.633097976446151733e-01
3.940000000000000000e+02 5.889441013336181641e+00 3.716900944709777832e-01 -3.661598265171051025e-01 -5.198044236749410629e-03 -1.114073619246482849e-01 6.451561301946640015e-02
3.950000000000000000e+02 7.619125843048095703e+00 1.115364551544189453e+00 -7.556357383728027344e-01 -7.345716655254364014e-02 -2.487278729677200317e-01 3.087190389633178711e-01
3.960000000000000000e+02 8.363317489624023438e+00 1.120550155639648438e+00 -9.532557129859924316e-01 -8.120162785053253174e-02 -3.103371858596801758e-01 3.868414461612701416e-01
3.970000000000000000e+02 9.107789993286132812e+00 1.123818278312683105e+00 -1.210295677185058594e+00 -2.285138517618179321e-01 -4.316428303718566895e-01 5.712642669677734375e-01
3.980000000000000000e+02 9.696672439575195312e+00 3.876306116580963135e-01 -1.849882125854492188e+00 -2.447150796651840210e-01 -6.283791661262512207e-01 4.086984097957611084e-01
3.990000000000000000e+02 1.020380139350891113e+00 1.131703853607177734e+00 -6.941294297575950623e-03 -1.186356786638498306e-02 -5.641458556056022644e-03 1.023819902911782265e-03
4.000000000000000000e+02 6.610335111618041992e-01 3.917038440704345703e-01 3.517650999128818512e-03 8.944697910919785500e-04 1.323636271990835667e-03 -2.059610327705740929e-03
4.010000000000000000e+02 6.874760627746582031e+00 1.113313198089599609e+00 -5.886203050613403320e-01 -3.832818195223808289e-02 -1.880845427513122559e-01 2.449393272399902344e-01
4.020000000000000000e+02 6.130151271820068359e+00 1.111690044403076172e+00 -4.484922289848327637e-01 -3.759638220071792603e-02 -1.458265781402587891e-01 2.010417580604553223e-01
4.030000000000000000e+02 4.641993999481201172e+00 1.107105970382690430e+00 -2.374879568815231323e-01 -2.725044637918472290e-02 -7.942152023315429688e-02 1.324643045663833618e-01
4.040000000000000000e+02 3.897893905639648438e+00 1.106676340103149414e+00 -1.613877117633819580e-01 -2.303908020257949829e-02 -5.532803758978843689e-02 1.024267673492431641e-01
4.050000000000000000e+02 1.356510353088378906e+01 -2.044676303863525391e+00 -1.950280904769897461e+00 -4.651356935501098633e-01 -7.246249914169311523e-01 9.771870970726013184e-01
4.060000000000000000e+02 1.321007442474365234e+01 -2.694024085998535156e+00 -1.767469644546508789e+00 -1.296123564243316650e-01 -5.691245794296264648e-01 7.290083169937133789e-01
4.070000000000000000e+02 1.258673477172851562e+01 -2.342205762863159180e+00 -1.751075983047485352e+00 -3.809447214007377625e-02 -5.367510914802551270e-01 6.385011076927185059e-01
4.080000000000000000e+02 1.420777034759521484e+01 -2.407426834106445312e+00 -2.041059494018554688e+00 -5.341719985008239746e-01 -7.725694775581359863e-01 1.087185382843017578e+00
4.090000000000000000e+02 1.383262920379638672e+01 -3.045426130294799805e+00 -1.755154371261596680e+00 -2.503780126571655273e-01 -6.016597151756286621e-01 8.595546483993530273e-01
4.100000000000000000e+02 1.445424365997314453e+01 -3.396085023880004883e+00 -1.766898512840270996e+00 -3.447771966457366943e-01 -6.335027217864990234e-01 1.028404712677001953e+00
4.110000000000000000e+02 1.484949779510498047e+01 -2.769434452056884766e+00 -1.971701264381408691e+00 -6.011928915977478027e-01 -7.718682885169982910e-01 1.162166237831115723e+00
4.120000000000000000e+02 1.292164993286132812e+01 -1.681509137153625488e+00 -1.769257783889770508e+00 -3.172530531883239746e-01 -6.259532570838928223e-01 8.322703242301940918e-01
4.130000000000000000e+02 1.211094474792480469e+01 -3.719137191772460938e+00 -1.439476251602172852e+00 3.918855488300323486e-01 -3.142772018909454346e-01 3.452742695808410645e-01
4.140000000000000000e+02 1.214846992492675781e+01 -1.236131763458251953e+01 2.507987499237060547e+00 3.753585815429687500e+00 1.878471970558166504e+00 2.065718889236450195e+00
4.150000000000000000e+02 1.276883792877197266e+01 -1.503502655029296875e+01 6.347087860107421875e+00 3.821328401565551758e+00 3.050524950027465820e+00 4.762878894805908203e+00
4.160000000000000000e+02 1.677713394165039062e+01 -1.341781902313232422e+01 4.553452491760253906e+00 6.442471146583557129e-01 1.559309959411621094e+00 1.881423830986022949e+00
4.170000000000000000e+02 1.535269069671630859e+01 -1.367854213714599609e+01 6.548521041870117188e+00 1.753270983695983887e+00 2.490537643432617188e+00 2.948648691177368164e+00
4.180000000000000000e+02 1.764166069030761719e+01 -6.737957477569580078e+00 1.863071322441101074e-01 -1.023762226104736328e+00 -2.512365281581878662e-01 1.068251609802246094e+00
4.190000000000000000e+02 1.683171081542968750e+01 -5.977957725524902344e+00 -5.911012291908264160e-01 -7.232384085655212402e-01 -3.943018913269042969e-01 1.136198163032531738e+00
4.200000000000000000e+02 1.353737831115722656e+01 -3.685204982757568359e+00 -1.580644130706787109e+00 3.265162184834480286e-02 -4.643977582454681396e-01 7.231460809707641602e-01
4.210000000000000000e+02 1.006861305236816406e+01 -2.112452268600463867e+00 -1.405359864234924316e+00 3.242349028587341309e-01 -3.243375122547149658e-01 9.210494160652160645e-02
4.220000000000000000e+02 8.559704780578613281e+00 -2.762227773666381836e+00 -1.152012228965759277e+00 3.729731142520904541e-01 -2.337117344141006470e-01 -2.270898073911666870e-01
4.230000000000000000e+02 3.712010383605957031e+00 -1.950564742088317871e+00 -4.160157740116119385e-01 -6.692977249622344971e-02 -1.448836624622344971e-01 -4.027488529682159424e-01
4.240000000000000000e+02 1.722763061523437500e+00 -1.065213203430175781e+01 1.486592646688222885e-02 -2.424599409103393555e+00 -7.229200005531311035e-01 -7.630196809768676758e-01
4.250000000000000000e+02 1.769114255905151367e+00 -1.767852020263671875e+01 2.317078262567520142e-01 -3.627450227737426758e+00 -1.018722772598266602e+00 2.662814781069755554e-02
4.260000000000000000e+02 1.938174843788146973e+00 -2.450266075134277344e+01 1.175797656178474426e-01 -7.343081831932067871e-01 -1.850185394287109375e-01 1.604878425598144531e+00
4.270000000000000000e+02 7.073121666908264160e-01 -3.178533363342285156e+01 -6.474772095680236816e-02 3.407099485397338867e+00 1.002705574035644531e+00 2.955157458782196045e-01
4.280000000000000000e+02 2.636796474456787109e+00 -3.811676406860351562e+01 -1.805964857339859009e-01 3.623724460601806641e+00 1.032938361167907715e+00 -2.177954278886318207e-02
4.290000000000000000e+02 8.197250962257385254e-01 -3.737653732299804688e+01 -9.151412546634674072e-02 4.299518108367919922e+00 1.262401223182678223e+00 -1.781156100332736969e-02
4.300000000000000000e+02 6.472022533416748047e+00 -3.860297393798828125e+01 -2.807414531707763672e-01 1.946314692497253418e+00 4.996719658374786377e-01 2.224809527397155762e-01
4.310000000000000000e+02 8.810276031494140625e+00 -3.926652526855468750e+01 -2.734259068965911865e-01 1.267881631851196289e+00 2.983367145061492920e-01 8.807972818613052368e-02
4.320000000000000000e+02 1.371849155426025391e+01 -3.039784240722656250e+01 -3.454214334487915039e+00 -8.269007205963134766e-01 -1.284334421157836914e+00 1.391330122947692871e+00
4.330000000000000000e+02 1.246538829803466797e+01 -2.969728851318359375e+01 -2.972790479660034180e+00 -1.013101339340209961e+00 -1.195767521858215332e+00 1.575049877166748047e+00
4.340000000000000000e+02 1.137570190429687500e+01 -2.881484794616699219e+01 -2.014217138290405273e+00 -8.890324831008911133e-01 -8.709748983383178711e-01 1.257115721702575684e+00
4.350000000000000000e+02 1.072871398925781250e+01 -2.994175529479980469e+01 -2.163527488708496094e+00 4.621834456920623779e-01 -5.104032158851623535e-01 6.537345647811889648e-01
4.360000000000000000e+02 1.039260005950927734e+01 -2.783998680114746094e+01 -1.186588048934936523e+00 3.696431219577789307e-02 -3.448871374130249023e-01 7.484566569328308105e-01
4.370000000000000000e+02 6.646078228950500488e-01 -2.612955474853515625e+01 -1.409053523093461990e-02 -7.133838534355163574e-01 -2.182423174381256104e-01 6.290169358253479004e-01
4.380000000000000000e+02 8.579708099365234375e+00 -2.225205421447753906e+01 7.654008269309997559e-01 1.151235103607177734e+01 3.683325529098510742e+00 2.091006994247436523e+00
4.390000000000000000e+02 9.384638786315917969e+00 -1.959449386596679688e+01 2.405739068984985352e+00 1.088169860839843750e+01 3.986231327056884766e+00 4.603024005889892578e+00
4.400000000000000000e+02 8.309840202331542969e+00 -1.924581336975097656e+01 2.090861797332763672e+00 8.398040771484375000e+00 3.146670818328857422e+00 2.761260032653808594e+00
4.410000000000000000e+02 1.062192630767822266e+01 -1.703134346008300781e+01 4.288689613342285156e+00 8.843994140625000000e+00 3.939805269241333008e+00 5.252222061157226562e+00
4.420000000000000000e+02 1.156105232238769531e+01 -1.589294719696044922e+01 6.252484321594238281e+00 6.928770065307617188e+00 3.954376220703125000e+00 5.264178752899169922e+00
4.430000000000000000e+02 1.198372268676757812e+01 -1.406970596313476562e+01 4.508347988128662109e+00 4.807374954223632812e+00 2.794716835021972656e+00 3.436408758163452148e+00
4.440000000000000000e+02 5.715823173522949219e-01 -1.068128204345703125e+01 -5.318270064890384674e-03 -3.442539453506469727e+00 -1.034357309341430664e+00 -2.709488570690155029e-01
4.450000000000000000e+02 1.596483707427978516e+01 -3.648071670532226562e+01 -9.641181230545043945e-01 -4.664624929428100586e-01 -4.291741847991943359e-01 4.335277378559112549e-01
4.460000000000000000e+02 1.457369327545166016e+01 -3.836600112915039062e+01 -6.541196703910827637e-01 -3.086254894733428955e-01 -2.888235449790954590e-01 2.564378976821899414e-01
4.470000000000000000e+02 2.351618766784667969e+01 -3.133902359008789062e+01 -1.589003086090087891e+00 8.882842026650905609e-03 -4.740360975265502930e-01 7.573428004980087280e-02
4.480000000000000000e+02 1.625309562683105469e+01 -3.276463699340820312e+01 -2.168067455291748047e+00 -5.235764384269714355e-01 -8.074931502342224121e-01 7.396438121795654297e-01
4.490000000000000000e+02 1.646582794189453125e+01 -3.124112510681152344e+01 -3.187592029571533203e+00 -3.281199038028717041e-01 -1.054713606834411621e+00 7.354780435562133789e-01
4.500000000000000000e+02 2.004277610778808594e+01 -3.933031082153320312e+01 -9.403623938560485840e-01 -5.299094319343566895e-01 -4.410815536975860596e-01 2.079481929540634155e-01
4.510000000000000000e+02 2.222735595703125000e+01 -3.719063186645507812e+01 -1.322976946830749512e+00 -3.103174567222595215e-01 -4.899883270263671875e-01 2.633566558361053467e-01
4.520000000000000000e+02 2.871717071533203125e+01 -3.205132675170898438e+01 -1.731963038444519043e+00 -3.357890527695417404e-03 -5.205962657928466797e-01 1.303725838661193848e-01
4.530000000000000000e+02 3.402573394775390625e+01 -3.652731323242187500e+01 -1.397510290145874023e+00 6.782674044370651245e-02 -3.989050686359405518e-01 -1.695317476987838745e-01
4.540000000000000000e+02 3.299219131469726562e+01 -3.281740188598632812e+01 -2.587059497833251953e+00 -4.787475988268852234e-02 -7.904803156852722168e-01 2.621468305587768555e-01
4.550000000000000000e+02 3.158240509033203125e+01 -3.260546493530273438e+01 -2.083921432495117188e+00 -9.937237016856670380e-03 -6.281576156616210938e-01 2.151957601308822632e-01
4.560000000000000000e+02 3.691481781005859375e+01 -3.553730392456054688e+01 -1.448180079460144043e+00 2.837626039981842041e-01 -3.493252396583557129e-01 4.500370323657989502e-01
4.570000000000000000e+02 3.700526809692382812e+01 -4.143911743164062500e+01 -1.067526102066040039e+00 1.267468810081481934e+00 5.998281762003898621e-02 9.593737870454788208e-02
4.580000000000000000e+02 3.972883987426757812e+01 -3.182313728332519531e+01 -1.018961310386657715e+00 7.991037964820861816e-01 -6.595726311206817627e-02 3.406653404235839844e-01
4.590000000000000000e+02 3.575721740722656250e+01 -3.291058731079101562e+01 -3.685705900192260742e+00 -1.098059564828872681e-01 -1.138653516769409180e+00 -1.120043992996215820e-01
4.600000000000000000e+02 3.437643432617187500e+01 -3.293843841552734375e+01 -3.258827924728393555e+00 -1.860769242048263550e-01 -1.033471465110778809e+00 1.781140714883804321e-01
4.610000000000000000e+02 4.216210174560546875e+01 -3.739998626708984375e+01 -1.793207406997680664e+00 4.198426723480224609e+00 7.215657830238342285e-01 4.903476834297180176e-01
4.620000000000000000e+02 4.092436218261718750e+01 -3.120911598205566406e+01 2.159428447484970093e-01 4.135770320892333984e+00 1.305513978004455566e+00 1.469615221023559570e+00
4.630000000000000000e+02 4.226491928100585938e+01 -2.930633354187011719e+01 1.117566943168640137e+00 1.004511070251464844e+01 3.348803520202636719e+00 1.656623840332031250e+00
4.640000000000000000e+02 4.818355178833007812e+01 -4.103370666503906250e+01 -1.934312105178833008e+00 6.065373897552490234e+00 1.239318490028381348e+00 -5.001498386263847351e-02
4.650000000000000000e+02 5.009208297729492188e+01 -3.596250534057617188e+01 -8.552986979484558105e-01 6.292929649353027344e+00 1.631289243698120117e+00 -5.603410601615905762e-01
4.660000000000000000e+02 5.399197387695312500e+01 -2.974132728576660156e+01 2.158163785934448242e+00 6.757050991058349609e+00 2.674564361572265625e+00 -1.973533630371093750e+00
4.670000000000000000e+02 5.562506866455078125e+01 -2.944023895263671875e+01 7.319794297218322754e-01 8.134789466857910156e+00 2.660030841827392578e+00 3.142578005790710449e-01
4.680000000000000000e+02 5.523085784912109375e+01 -2.812801933288574219e+01 1.400120377540588379e+00 6.149981498718261719e+00 2.265030622482299805e+00 2.611437737941741943e-01
4.690000000000000000e+02 5.943362426757812500e+01 -2.467251205444335938e+01 2.499095916748046875e+00 1.583482980728149414e+00 1.224773645401000977e+00 1.954972147941589355e+00
4.700000000000000000e+02 5.481747436523437500e+01 -1.630677795410156250e+01 -4.676793098449707031e+00 -1.182259321212768555e+00 -1.757715821266174316e+00 1.657914400100708008e+00
4.710000000000000000e+02 5.640690994262695312e+01 -1.672803497314453125e+01 -4.712640762329101562e+00 -5.863419175148010254e-01 -1.589694857597351074e+00 1.052045702934265137e+00
4.720000000000000000e+02 5.193967437744140625e+01 -1.282312870025634766e+01 -4.160710573196411133e-01 1.485909223556518555e+00 3.209514617919921875e-01 9.217708557844161987e-02
4.730000000000000000e+02 5.085396194458007812e+01 -1.325895690917968750e+01 -1.066947460174560547e+00 2.933845281600952148e+00 5.600693225860595703e-01 2.920845746994018555e-01
4.740000000000000000e+02 4.847599029541015625e+01 -6.614196777343750000e+00 9.850551933050155640e-02 4.674993991851806641e+00 1.432049870491027832e+00 -1.172899603843688965e+00
4.750000000000000000e+02 4.599989318847656250e+01 -3.514970839023590088e-01 5.692372322082519531e-01 5.286880016326904297e+00 1.756835103034973145e+00 -2.032082796096801758e+00
4.760000000000000000e+02 4.540851593017578125e+01 8.770285844802856445e-01 7.442649006843566895e-01 5.519644260406494141e+00 1.879172801971435547e+00 -2.254987716674804688e+00
4.770000000000000000e+02 4.272597885131835938e+01 9.044336318969726562e+00 1.656909346580505371e+00 1.247831630706787109e+01 4.240567684173583984e+00 -3.482884407043457031e+00
4.780000000000000000e+02 4.105065155029296875e+01 1.176227283477783203e+01 1.378756046295166016e+00 1.126986026763916016e+01 3.794584989547729492e+00 -9.697813391685485840e-01
4.790000000000000000e+02 4.251895904541015625e+01 1.614868736267089844e+01 6.192216277122497559e-01 1.158366870880126953e+01 3.660867214202880859e+00 1.479318857192993164e+00
4.800000000000000000e+02 4.311423873901367188e+01 1.893609809875488281e+01 7.130770683288574219e-01 9.408853530883789062e+00 3.036579132080078125e+00 2.234117507934570312e+00
4.810000000000000000e+02 4.446504592895507812e+01 2.300179481506347656e+01 1.240965604782104492e+00 7.110785484313964844e+00 2.505525350570678711e+00 2.652384757995605469e+00
4.820000000000000000e+02 3.523183441162109375e+01 2.787429237365722656e+01 -2.141784578561782837e-01 4.945454120635986328e+00 1.419382691383361816e+00 -4.200001358985900879e-01
4.830000000000000000e+02 3.229533767700195312e+01 4.078570938110351562e+01 -1.126195073127746582e+00 4.154717922210693359e+00 9.085568785667419434e-01 -8.741703629493713379e-02
4.840000000000000000e+02 2.233368492126464844e+01 4.057841491699218750e+01 -5.969558358192443848e-01 2.639927864074707031e+00 6.128916144371032715e-01 -1.045663431286811829e-01
4.850000000000000000e+02 1.744956016540527344e+01 4.086996459960937500e+01 -3.628199398517608643e-01 1.702098488807678223e+00 4.017835557460784912e-01 -5.733234435319900513e-02
4.860000000000000000e+02 2.141220664978027344e+01 3.680753707885742188e+01 -4.585493206977844238e-01 2.436624288558959961e+00 5.934224724769592285e-01 -2.794006168842315674e-01
4.870000000000000000e+02 1.347858715057373047e+01 2.945800209045410156e+01 2.595160715281963348e-02 7.417848706245422363e-01 2.303209304809570312e-01 -2.822721004486083984e-01
4.880000000000000000e+02 1.693310356140136719e+01 2.312529182434082031e+01 3.634403944015502930e-01 1.147281169891357422e+00 4.532164633274078369e-01 -3.491441309452056885e-01
4.890000000000000000e+02 1.479682731628417969e+01 1.573814201354980469e+01 5.597410202026367188e-01 4.289903342723846436e-01 2.966193854808807373e-01 -2.096757292747497559e-02
4.900000000000000000e+02 1.812640571594238281e+01 6.785772800445556641e+00 3.921302855014801025e-01 5.391035079956054688e-01 2.793701291084289551e-01 9.493011981248855591e-02
4.910000000000000000e+02 1.083715343475341797e+01 1.803642272949218750e+00 -9.624237418174743652e-01 -5.819135904312133789e-01 -4.633012115955352783e-01 7.455670237541198730e-01
4.920000000000000000e+02 1.392388248443603516e+01 3.057115077972412109e-01 -1.406852364540100098e+00 -7.385199666023254395e-01 -6.436117291450500488e-01 9.179261326789855957e-01
4.930000000000000000e+02 1.493870830535888672e+01 5.297979712486267090e-01 -1.121910810470581055e+00 -7.019199132919311523e-01 -5.471492409706115723e-01 7.991813421249389648e-01
4.940000000000000000e+02 1.564524173736572266e+01 1.275255084037780762e-01 -1.145714879035949707e+00 -6.805825233459472656e-01 -5.478892326354980469e-01 7.900930047035217285e-01
4.950000000000000000e+02 1.670260429382324219e+01 -1.324411511421203613e+00 -1.460600376129150391e+00 -7.737030982971191406e-01 -6.702910661697387695e-01 9.426566362380981445e-01
4.960000000000000000e+02 1.913098144531250000e+01 -3.271927595138549805e+00 -1.317018866539001465e+00 -3.743042647838592529e-01 -5.073969364166259766e-01 7.296899557113647461e-01
4.970000000000000000e+02 2.098701667785644531e+01 -5.091344356536865234e+00 -1.060383319854736328e+00 1.164173364639282227e+00 3.113703243434429169e-02 4.207858741283416748e-01
4.980000000000000000e+02 2.163512229919433594e+01 -6.008783817291259766e+00 -1.058779358863830566e+00 2.758680343627929688e+00 5.099703073501586914e-01 4.465338289737701416e-01
4.990000000000000000e+02 2.419272422790527344e+01 -8.501873016357421875e+00 7.261400222778320312e+00 2.303575277328491211e+00 2.869492769241333008e+00 3.592268228530883789e+00
5.000000000000000000e+02 2.336716079711914062e+01 -9.777412414550781250e+00 9.606810569763183594e+00 3.459085702896118164e+00 3.919768810272216797e+00 -2.780937254428863525e-01
5.010000000000000000e+02 2.430576133728027344e+01 -1.035637283325195312e+01 5.766060829162597656e+00 9.943423867225646973e-01 2.028120994567871094e+00 -8.710842728614807129e-01
5.020000000000000000e+02 2.564694404602050781e+01 -1.299224853515625000e+01 -2.299434423446655273e+00 6.824850440025329590e-01 -4.850848615169525146e-01 -9.323287606239318848e-01
5.030000000000000000e+02 2.590649795532226562e+01 -1.435732841491699219e+01 -4.691244602203369141e+00 4.334947466850280762e-01 -1.277324914932250977e+00 4.340901970863342285e-01
5.040000000000000000e+02 2.874252891540527344e+01 -1.682563400268554688e+01 -3.064509391784667969e+00 -2.687602937221527100e-01 -9.999809265136718750e-01 1.005419850349426270e+00
5.050000000000000000e+02 3.037351417541503906e+01 -1.625724601745605469e+01 -2.210123062133789062e+00 2.986003458499908447e-01 -5.734568238258361816e-01 1.818096041679382324e-01
5.060000000000000000e+02 3.601001358032226562e+01 -1.454303550720214844e+01 8.636260777711868286e-02 2.529886007308959961e+00 7.848746180534362793e-01 -2.405842781066894531e+00
5.070000000000000000e+02 3.930571365356445312e+01 -3.931163787841796875e+00 -9.138850122690200806e-02 5.327806949615478516e+00 1.570925474166870117e+00 -1.203276157379150391e+00
5.080000000000000000e+02 3.928909301757812500e+01 6.595259189605712891e+00 1.204927325248718262e+00 7.796219348907470703e+00 2.700343847274780273e+00 -7.225935459136962891e-01
5.090000000000000000e+02 3.831983566284179688e+01 1.481912994384765625e+01 1.329474329948425293e+00 8.098066329956054688e+00 2.828262329101562500e+00 -3.080041706562042236e-01
5.100000000000000000e+02 3.843986129760742188e+01 1.641910362243652344e+01 1.152172923088073730e+00 7.864934921264648438e+00 2.705132246017456055e+00 -1.172695159912109375e-01
5.110000000000000000e+02 3.961234664916992188e+01 2.840373420715332031e+01 -2.752272188663482666e-01 5.296279430389404297e+00 1.506315708160400391e+00 1.401327848434448242e-01
5.120000000000000000e+02 3.997736358642578125e+01 2.442104339599609375e+01 3.517041206359863281e-01 6.184489250183105469e+00 1.960858106613159180e+00 4.172271788120269775e-01
5.130000000000000000e+02 2.909022140502929688e+01 2.179790115356445312e+01 6.209540963172912598e-01 3.790415287017822266e+00 1.323410749435424805e+00 -7.365181446075439453e-01
5.140000000000000000e+02 2.843425941467285156e+01 3.091889762878417969e+01 -3.856413662433624268e-01 3.681792259216308594e+00 9.888452887535095215e-01 -5.964081883430480957e-01
5.150000000000000000e+02 5.649774169921875000e+01 -3.597413253784179688e+01 -4.297673702239990234e-01 4.999152660369873047e+00 1.370815515518188477e+00 -1.759756922721862793e+00
5.160000000000000000e+02 5.726888275146484375e+01 -4.119598007202148438e+01 -4.193354845046997070e-01 3.707877397537231445e+00 9.865626096725463867e-01 -3.862916827201843262e-01
5.170000000000000000e+02 5.714468765258789062e+01 -3.348753738403320312e+01 1.829906582832336426e+00 4.846057415008544922e+00 2.002789258956909180e+00 -3.103438377380371094e+00
5.180000000000000000e+02 5.819579315185546875e+01 -3.471105575561523438e+01 8.727172017097473145e-01 2.928412437438964844e+00 1.140338897705078125e+00 -1.801580309867858887e+00
5.190000000000000000e+02 5.638704299926757812e+01 -3.242026138305664062e+01 2.477417945861816406e+00 8.482064247131347656e+00 3.287844657897949219e+00 -3.709250688552856445e+00
5.200000000000000000e+02 5.542360305786132812e+01 -3.322650146484375000e+01 9.797500371932983398e-01 6.383291244506835938e+00 2.208912372589111328e+00 -1.336882948875427246e+00
5.210000000000000000e+02 6.265016555786132812e+01 -3.746422576904296875e+01 4.538604617118835449e-01 3.172210156917572021e-01 2.313244342803955078e-01 -3.060597777366638184e-01
5.220000000000000000e+02 6.293115234375000000e+01 -3.493931579589843750e+01 -1.439995527267456055e+00 -5.593562964349985123e-03 -4.336767494678497314e-01 -1.817128360271453857e-01
5.230000000000000000e+02 6.567576599121093750e+01 -3.445572662353515625e+01 -1.301261305809020996e+00 -3.373921662569046021e-02 -4.005001485347747803e-01 -2.338660955429077148e-01
5.240000000000000000e+02 6.428201293945312500e+01 -3.479899978637695312e+01 -1.445043802261352539e+00 -8.951941132545471191e-02 -4.603689610958099365e-01 -1.957452744245529175e-01
5.250000000000000000e+02 6.158829116821289062e+01 -3.527718734741210938e+01 -9.991091489791870117e-01 2.026388645172119141e-01 -2.389410883188247681e-01 -4.067346751689910889e-01
5.260000000000000000e+02 5.981842422485351562e+01 -3.539029693603515625e+01 -4.398729652166366577e-02 1.028340458869934082e+00 2.953059673309326172e-01 -1.145981788635253906e+00
5.270000000000000000e+02 6.869816589355468750e+01 -3.465485000610351562e+01 -5.353414416313171387e-01 2.395770549774169922e+00 5.581287145614624023e-01 9.896187782287597656e-01
5.280000000000000000e+02 6.997219085693359375e+01 -3.129122352600097656e+01 1.174567222595214844e+00 3.793598175048828125e+00 1.490449666976928711e+00 2.042069196701049805e+00
5.290000000000000000e+02 6.949125671386718750e+01 -3.315713119506835938e+01 -2.136185914278030396e-01 3.197133302688598633e+00 8.950543999671936035e-01 1.215520501136779785e+00
5.300000000000000000e+02 6.899610137939453125e+01 -3.214328765869140625e+01 6.735187768936157227e-01 1.963179826736450195e+00 7.910096049308776855e-01 1.152438879013061523e+00
5.310000000000000000e+02 7.777819061279296875e+01 -3.939815902709960938e+01 -1.040770485997200012e-01 8.013115882873535156e+00 2.372711658477783203e+00 1.790782958269119263e-01
5.320000000000000000e+02 7.765236663818359375e+01 -3.639733886718750000e+01 -2.030095756053924561e-01 7.490376949310302734e+00 2.186210155487060547e+00 -2.438343465328216553e-01
5.330000000000000000e+02 7.813092041015625000e+01 -2.932975006103515625e+01 9.779625385999679565e-02 6.740285873413085938e+00 2.051424503326416016e+00 -4.041326344013214111e-01
5.340000000000000000e+02 7.377450561523437500e+01 -2.559125709533691406e+01 1.164951920509338379e+00 8.932614326477050781e+00 3.029269933700561523e+00 3.690409660339355469e-01
5.350000000000000000e+02 7.815995788574218750e+01 -1.539327335357666016e+01 -7.588455826044082642e-02 7.561170101165771484e+00 2.245585680007934570e+00 -2.225322127342224121e-01
5.360000000000000000e+02 7.817111206054687500e+01 -8.437207221984863281e+00 -1.015057973563671112e-02 6.569122791290283203e+00 1.967691659927368164e+00 -4.268083572387695312e-01
5.370000000000000000e+02 7.817494964599609375e+01 -1.598954796791076660e+00 6.920896470546722412e-02 5.607567310333251953e+00 1.703032970428466797e+00 -2.738270461559295654e-01
5.380000000000000000e+02 7.819023895263671875e+01 5.427399635314941406e+00 9.710299968719482422e-02 5.862508296966552734e+00 1.787883400917053223e+00 3.734321892261505127e-01
5.390000000000000000e+02 7.824414825439453125e+01 1.242888927459716797e+01 -4.182480275630950928e-02 7.153423309326171875e+00 2.133479595184326172e+00 4.011426866054534912e-01
5.400000000000000000e+02 7.822894287109375000e+01 1.939378738403320312e+01 1.667619124054908752e-02 8.180648803710937500e+00 2.459197521209716797e+00 3.532959520816802979e-01
5.410000000000000000e+02 7.723994445800781250e+01 2.356904983520507812e+01 5.834900215268135071e-02 8.712870597839355469e+00 2.631366014480590820e+00 6.094371080398559570e-01
5.420000000000000000e+02 7.932257843017578125e+01 3.202743148803710938e+01 1.886362791992723942e-03 1.129227638244628906e+01 3.388248920440673828e+00 1.510700732469558716e-01
5.430000000000000000e+02 7.693229675292968750e+01 3.942625045776367188e+01 -7.828262448310852051e-02 1.063587379455566406e+01 3.167277336120605469e+00 -5.508674308657646179e-02
5.440000000000000000e+02 7.923886108398437500e+01 3.751218795776367188e+01 -1.809207536280155182e-02 1.150148010253906250e+01 3.445016384124755859e+00 -1.141976490616798401e-01
5.450000000000000000e+02 7.200571441650390625e+01 4.109866333007812500e+01 8.540640026330947876e-02 5.805136203765869141e+00 1.767162680625915527e+00 -2.827039733529090881e-02
5.460000000000000000e+02 7.041023254394531250e+01 3.609679794311523438e+01 -5.193142294883728027e-01 4.480835914611816406e+00 1.188456416130065918e+00 -1.988663971424102783e-01
5.470000000000000000e+02 6.766823577880859375e+01 3.101370239257812500e+01 -4.499835073947906494e-01 9.767714142799377441e-01 1.580363661050796509e-01 -5.413363128900527954e-02
5.480000000000000000e+02 6.675988769531250000e+01 3.215076065063476562e+01 -9.202200174331665039e-01 1.723656058311462402e-02 -2.708950340747833252e-01 5.497737526893615723e-01
5.490000000000000000e+02 6.845817565917968750e+01 2.982186698913574219e+01 8.785212039947509766e-02 2.734920263290405273e+00 8.468316793441772461e-01 -6.330294013023376465e-01
5.500000000000000000e+02 6.903408813476562500e+01 2.851108932495117188e+01 2.787939012050628662e-01 4.596231460571289062e+00 1.462507605552673340e+00 -8.936157226562500000e-01
5.510000000000000000e+02 6.970098114013671875e+01 2.573026847839355469e+01 2.372982203960418701e-01 7.458373546600341797e+00 2.308701515197753906e+00 -6.091755032539367676e-01
5.520000000000000000e+02 7.942950439453125000e+01 2.365462493896484375e+01 3.933228086680173874e-03 9.062744140625000000e+00 2.720003366470336914e+00 1.884159296751022339e-01
5.530000000000000000e+02 6.218894195556640625e+01 3.532851028442382812e+01 -1.970856666564941406e+00 -3.511070907115936279e-01 -6.965891122817993164e-01 7.611401081085205078e-01
5.540000000000000000e+02 5.976087570190429688e+01 3.802494430541992188e+01 -5.066435337066650391e-01 -4.667704105377197266e-01 -2.920241653919219971e-01 2.684866786003112793e-01
5.550000000000000000e+02 6.336661911010742188e+01 3.665050125122070312e+01 -7.579703927040100098e-01 -5.198088288307189941e-01 -3.833337724208831787e-01 5.213374495506286621e-01
5.560000000000000000e+02 6.337850189208984375e+01 3.476293182373046875e+01 -2.498341798782348633e+00 -6.765121221542358398e-01 -9.524561762809753418e-01 1.100795984268188477e+00
5.570000000000000000e+02 5.710757446289062500e+01 3.584939575195312500e+01 -1.407400965690612793e+00 -1.641443073749542236e-01 -4.714635610580444336e-01 -1.354162096977233887e-01
5.580000000000000000e+02 5.939721679687500000e+01 3.613339996337890625e+01 -1.723866224288940430e+00 -2.582481205463409424e-01 -5.946342945098876953e-01 2.940517961978912354e-01
5.590000000000000000e+02 6.080434036254882812e+01 3.580513763427734375e+01 -1.713310837745666504e+00 -2.671531736850738525e-01 -5.941392183303833008e-01 5.343504548072814941e-01
5.600000000000000000e+02 5.410625839233398438e+01 3.647320175170898438e+01 -6.152464151382446289e-01 4.290111064910888672e-01 -5.587058514356613159e-02 2.667872607707977295e-01
5.610000000000000000e+02 5.136500167846679688e+01 3.748977661132812500e+01 -5.822855234146118164e-01 1.316244363784790039e+00 2.201876491308212280e-01 3.903788924217224121e-01
5.620000000000000000e+02 4.911791610717773438e+01 3.034696006774902344e+01 7.407504320144653320e-01 1.980100870132446289e+00 8.162553906440734863e-01 1.210584998130798340e+00
5.630000000000000000e+02 5.114568710327148438e+01 3.234014511108398438e+01 2.665616869926452637e-01 8.773140311241149902e-01 3.431627154350280762e-01 5.693571567535400391e-01
5.640000000000000000e+02 4.889907455444335938e+01 3.411415100097656250e+01 -3.988566994667053223e-01 2.360408782958984375e+00 5.884656310081481934e-01 6.483576893806457520e-01
5.650000000000000000e+02 5.342503356933593750e+01 3.414806365966796875e+01 -3.305401206016540527e-01 2.130616456270217896e-01 -3.524354472756385803e-02 7.961931079626083374e-02
5.660000000000000000e+02 5.472121047973632812e+01 3.481282043457031250e+01 -6.260330677032470703e-01 8.575169742107391357e-02 -1.620844006538391113e-01 -1.046077609062194824e-01
5.670000000000000000e+02 4.544350433349609375e+01 3.751130676269531250e+01 -1.019931554794311523e+00 3.401355981826782227e+00 7.144273519515991211e-01 3.422927558422088623e-01
5.680000000000000000e+02 4.203939819335937500e+01 4.062263107299804688e+01 -1.285332322120666504e+00 4.027644157409667969e+00 8.226935863494873047e-01 3.213752433657646179e-02
5.690000000000000000e+02 4.580571746826171875e+01 3.149292755126953125e+01 -2.097696214914321899e-01 3.739066123962402344e+00 1.058788895606994629e+00 8.811278343200683594e-01
5.700000000000000000e+02 4.506932830810546875e+01 2.430292129516601562e+01 1.252742171287536621e+00 5.998950958251953125e+00 2.175508022308349609e+00 2.561316728591918945e+00
5.710000000000000000e+02 4.572965240478515625e+01 2.558577346801757812e+01 1.177564620971679688e+00 5.056222438812255859e+00 1.870136141777038574e+00 2.345812797546386719e+00
5.720000000000000000e+02 4.724044799804687500e+01 2.809188461303710938e+01 1.139787077903747559e+00 3.537819147109985352e+00 1.403281807899475098e+00 1.904697418212890625e+00
5.730000000000000000e+02 4.909296035766601562e+01 3.258567428588867188e+01 -5.781648680567741394e-02 2.180353879928588867e+00 6.367611885070800781e-01 7.937836647033691406e-01
5.740000000000000000e+02 4.668733215332031250e+01 3.268340682983398438e+01 -3.604826331138610840e-01 3.283323049545288086e+00 8.768521547317504883e-01 7.764822244644165039e-01
5.750000000000000000e+02 3.715489959716796875e+01 4.061255264282226562e+01 -1.294923663139343262e+00 4.360951900482177734e+00 9.198084473609924316e-01 -3.489725664258003235e-02
5.760000000000000000e+02 4.200193405151367188e+01 3.721973037719726562e+01 -1.170122981071472168e+00 4.120834350585937500e+00 8.852134943008422852e-01 1.474755257368087769e-01
5.770000000000000000e+02 3.787615585327148438e+01 2.933112716674804688e+01 -4.279637038707733154e-01 5.094050407409667969e+00 1.399825930595397949e+00 -1.350590884685516357e-01
5.780000000000000000e+02 1.271224117279052734e+01 4.105632781982421875e+01 -1.963256746530532837e-01 7.712037563323974609e-01 1.724634319543838501e-01 -4.311199486255645752e-02
5.790000000000000000e+02 6.351421356201171875e+00 3.798334884643554688e+01 -3.857954218983650208e-02 -3.695106208324432373e-01 -1.224270462989807129e-01 -5.284741520881652832e-02
5.800000000000000000e+02 8.359503746032714844e+00 3.089431762695312500e+01 -1.259522885084152222e-02 -1.179758384823799133e-01 -3.917131945490837097e-02 -1.521357148885726929e-01
5.810000000000000000e+02 8.284234046936035156e+00 1.464628219604492188e+01 2.674240171909332275e-01 -4.462871253490447998e-01 -5.365892872214317322e-02 2.795512080192565918e-01
5.820000000000000000e+02 8.091919898986816406e+00 8.594317436218261719e+00 1.335743665695190430e-01 -4.980254471302032471e-01 -1.093353182077407837e-01 5.675691366195678711e-01
5.830000000000000000e+02 6.217037200927734375e+00 1.860303640365600586e+00 -4.532073140144348145e-01 -7.871723175048828125e-02 -1.595773696899414062e-01 3.180691599845886230e-01
5.840000000000000000e+02 1.164298152923583984e+01 1.384893059730529785e+00 -1.151151418685913086e+00 -6.286106705665588379e-01 -5.339286327362060547e-01 7.625707387924194336e-01
5.850000000000000000e+02 2.015883445739746094e+00 4.164139556884765625e+01 -7.491867989301681519e-02 -1.111908316612243652e+00 -3.560481071472167969e-01 -2.125264890491962433e-02
5.860000000000000000e+02 4.541666507720947266e+00 3.769840621948242188e+01 -7.962292991578578949e-03 -7.976503372192382812e-01 -2.416837960481643677e-01 2.231875434517860413e-03
5.870000000000000000e+02 2.008821249008178711e+00 3.576504516601562500e+01 1.038406230509281158e-02 -1.160911917686462402e+00 -3.451583385467529297e-01 -6.807847321033477783e-02
5.880000000000000000e+02 2.016981363296508789e+00 2.904158592224121094e+01 5.384302698075771332e-03 -1.287268757820129395e+00 -3.845653235912322998e-01 -4.752784222364425659e-02
5.890000000000000000e+02 1.989407658576965332e+00 2.332778549194335938e+01 1.250379066914319992e-02 -1.374190926551818848e+00 -4.085061252117156982e-01 -7.119597867131233215e-03
5.900000000000000000e+02 1.867865920066833496e+00 1.770289611816406250e+01 1.960055716335773468e-02 -1.313289642333984375e+00 -3.881067037582397461e-01 7.310239970684051514e-02
5.910000000000000000e+02 5.701683163642883301e-01 6.472512722015380859e+00 -2.890345640480518341e-03 -4.064836800098419189e-01 -1.228122040629386902e-01 7.528056949377059937e-02
5.920000000000000000e+02 1.754029750823974609e+00 9.318199157714843750e+00 1.148758642375469208e-02 -7.268345355987548828e-01 -2.146040797233581543e-01 2.175923436880111694e-01
5.930000000000000000e+02 4.729503154754638672e+00 2.577270984649658203e+00 -2.636944651603698730e-01 -1.159024834632873535e-01 -1.138790845870971680e-01 2.893556356430053711e-01
5.940000000000000000e+02 2.251166152954101562e+01 -1.062981224060058594e+01 5.022433280944824219e+00 5.871332168579101562e+00 3.268129587173461914e+00 2.911770641803741455e-01
5.950000000000000000e+02 2.322556877136230469e+01 -1.376854228973388672e+01 -8.542726516723632812e+00 -7.011806964874267578e-01 -2.773172378540039062e+00 1.945295333862304688e+00
5.960000000000000000e+02 2.094886970520019531e+01 -1.358612251281738281e+01 -1.063083648681640625e+01 -8.425956368446350098e-01 -3.442029714584350586e+00 3.458261251449584961e+00
5.970000000000000000e+02 2.041389846801757812e+01 -9.881103515625000000e+00 1.055920410156250000e+01 -1.138916373252868652e+00 2.826086282730102539e+00 5.438830375671386719e+00
5.980000000000000000e+02 2.031782913208007812e+01 -9.672594070434570312e+00 1.053795242309570312e+01 -1.731563806533813477e+00 2.641916751861572266e+00 4.446504592895507812e+00
5.990000000000000000e+02 6.565964508056640625e+01 -2.203236770629882812e+01 -1.511825919151306152e+00 1.952367424964904785e-01 -3.949767351150512695e-01 -1.544766724109649658e-01
6.000000000000000000e+02 6.431940460205078125e+01 -2.116938781738281250e+01 -7.234961986541748047e-01 8.671284317970275879e-01 4.308967292308807373e-02 1.074182271957397461e+00
6.010000000000000000e+02 5.941000747680664062e+01 -1.579619503021240234e+01 -4.305260181427001953e-01 5.149078369140625000e-01 2.531453780829906464e-02 4.557691514492034912e-01
6.020000000000000000e+02 6.999553680419921875e+01 -2.083939552307128906e+01 -2.022088766098022461e+00 3.304126262664794922e+00 3.846112489700317383e-01 -1.410699844360351562e+00
6.030000000000000000e+02 7.053889465332031250e+01 -2.177887344360351562e+01 -1.076486945152282715e+00 4.115762233734130859e+00 9.117825031280517578e-01 -1.232970118522644043e+00
6.040000000000000000e+02 7.219552612304687500e+01 -2.195907592773437500e+01 -1.489634633064270020e+00 8.385216712951660156e+00 2.068674564361572266e+00 -1.613972038030624390e-01
6.050000000000000000e+02 7.289093017578125000e+01 -2.286282539367675781e+01 -2.969805598258972168e-01 8.121157646179199219e+00 2.347253084182739258e+00 8.011883497238159180e-01
6.060000000000000000e+02 7.189840698242187500e+01 -2.599350929260253906e+01 6.942088007926940918e-01 1.275561237335205078e+01 4.034946441650390625e+00 -1.696535497903823853e-01
6.070000000000000000e+02 7.157317352294921875e+01 -2.842441177368164062e+01 1.400629758834838867e+00 1.185229873657226562e+01 3.975878715515136719e+00 2.236749887466430664e+00
6.080000000000000000e+02 7.126648712158203125e+01 -3.524078369140625000e+01 -5.361633300781250000e-01 4.945443153381347656e+00 1.322783946990966797e+00 8.023534417152404785e-01
6.090000000000000000e+02 7.933879089355468750e+01 -3.346731948852539062e+01 -6.858464330434799194e-02 7.492229461669921875e+00 2.227093458175659180e+00 -2.071832567453384399e-01
6.100000000000000000e+02 5.838956451416015625e+01 -2.554520034790039062e+01 2.196791887283325195e+00 2.027984857559204102e+00 1.267433047294616699e+00 1.874765515327453613e+00
6.110000000000000000e+02 6.054463958740234375e+01 -2.386294937133789062e+01 2.442286014556884766e+00 1.370207905769348145e+00 1.143748164176940918e+00 1.746055603027343750e+00
6.120000000000000000e+02 6.310753631591796875e+01 -2.272131156921386719e+01 4.447552263736724854e-01 5.263714790344238281e-01 2.913380265235900879e-01 7.736341357231140137e-01
6.130000000000000000e+02 6.443068695068359375e+01 -2.249420166015625000e+01 -5.149758458137512207e-01 2.650406360626220703e-01 -7.498055696487426758e-02 2.382604032754898071e-01
6.140000000000000000e+02 7.074848937988281250e+01 2.605571365356445312e+01 2.517496645450592041e-01 7.182133674621582031e+00 2.230165004730224609e+00 2.294340170919895172e-02
6.150000000000000000e+02 6.997620391845703125e+01 2.006981468200683594e+01 1.992874778807163239e-02 8.729368209838867188e+00 2.624788999557495117e+00 1.492497175931930542e-01
6.160000000000000000e+02 7.941170501708984375e+01 1.668186759948730469e+01 1.266370061784982681e-03 7.578368663787841797e+00 2.273890495300292969e+00 1.385283470153808594e-01
6.170000000000000000e+02 6.994961547851562500e+01 1.583048439025878906e+01 4.324906039983034134e-03 9.707579612731933594e+00 2.913571119308471680e+00 2.240186333656311035e-01
6.180000000000000000e+02 6.977916717529296875e+01 1.030809307098388672e+01 -1.867183446884155273e-01 8.772510528564453125e+00 2.575737476348876953e+00 -5.821689963340759277e-01
6.190000000000000000e+02 7.940304565429687500e+01 9.710762023925781250e+00 8.528239093720912933e-03 6.024199485778808594e+00 1.809818387031555176e+00 1.897990256547927856e-01
6.200000000000000000e+02 6.997534942626953125e+01 8.938060760498046875e+00 7.703820616006851196e-02 1.061774539947509766e+01 3.208435058593750000e+00 -9.758237004280090332e-01
6.210000000000000000e+02 7.015518188476562500e+01 7.546143531799316406e+00 3.702785074710845947e-01 1.269479942321777344e+01 3.919523477554321289e+00 -7.239632606506347656e-01
6.220000000000000000e+02 7.011109924316406250e+01 1.909362435340881348e+00 5.378190279006958008e-01 1.489965248107910156e+01 4.631241321563720703e+00 1.218248724937438965e+00
6.230000000000000000e+02 6.963545989990234375e+01 -8.799598813056945801e-01 8.018159866333007812e-01 1.213386535644531250e+01 3.880704402923583984e+00 2.693864583969116211e+00
6.240000000000000000e+02 6.715465545654296875e+01 -7.506511688232421875e+00 1.061562180519104004e+00 5.676068305969238281e+00 2.021289110183715820e+00 2.311421632766723633e+00
6.250000000000000000e+02 6.775343322753906250e+01 -6.222558498382568359e+00 1.017220616340637207e+00 6.625918865203857422e+00 2.292941808700561523e+00 2.488094568252563477e+00
6.260000000000000000e+02 6.695713043212890625e+01 -1.048112392425537109e+01 1.022234678268432617e+00 4.491370677947998047e+00 1.654081583023071289e+00 1.652725696563720703e+00
6.270000000000000000e+02 6.582378387451171875e+01 -1.002387905120849609e+01 1.255168199539184570e+00 4.068451881408691406e+00 1.597086071968078613e+00 2.093603134155273438e+00
6.280000000000000000e+02 6.505754852294921875e+01 -1.125714874267578125e+01 1.561693072319030762e+00 3.463069677352905273e+00 1.507428884506225586e+00 2.100135087966918945e+00
6.290000000000000000e+02 6.325251007080078125e+01 -2.004339599609375000e+01 -6.440365314483642578e-01 1.406006693840026855e+00 2.285910546779632568e-01 1.709722638130187988e+00
6.300000000000000000e+02 6.827658081054687500e+01 -2.140665054321289062e+01 -3.892323970794677734e+00 -1.269387900829315186e-01 -1.205778837203979492e+00 -6.012193113565444946e-02
6.310000000000000000e+02 6.936732482910156250e+01 -1.999281883239746094e+01 -1.222688436508178711e+00 2.383279323577880859e+00 3.481772840023040771e-01 -1.361102938652038574e+00
6.320000000000000000e+02 6.692221069335937500e+01 -2.158431434631347656e+01 -3.415741205215454102e+00 -1.965758502483367920e-01 -1.083695173263549805e+00 -3.438840806484222412e-01
6.330000000000000000e+02 3.124100875854492188e+01 -1.763171386718750000e+01 -2.223353624343872070e+00 4.027824848890304565e-02 -6.549226045608520508e-01 3.942037522792816162e-01
6.340000000000000000e+02 3.271580505371093750e+01 -1.677528762817382812e+01 -1.488238215446472168e+00 3.172105848789215088e-01 -3.513082861900329590e-01 -1.811562627553939819e-01
6.350000000000000000e+02 3.511164474487304688e+01 -1.579614448547363281e+01 1.603219062089920044e-01 1.141629576683044434e+00 3.905854523181915283e-01 -1.775283575057983398e+00
6.360000000000000000e+02 4.259185028076171875e+01 -1.930211257934570312e+01 2.223533153533935547e+00 9.919424057006835938e+00 3.642887115478515625e+00 -2.369335412979125977e+00
6.370000000000000000e+02 4.236983871459960938e+01 -2.281529808044433594e+01 2.826232910156250000e+00 1.847266769409179688e+01 6.389670372009277344e+00 -4.415455818176269531e+00
6.380000000000000000e+02 4.232927322387695312e+01 -2.403024101257324219e+01 3.342547416687011719e-01 1.682240867614746094e+01 5.146999359130859375e+00 -1.683307766914367676e+00
6.390000000000000000e+02 5.173496246337890625e+01 -2.804378700256347656e+01 1.970782756805419922e+00 5.640028953552246094e+00 2.283243417739868164e+00 -2.011637687683105469e+00
6.400000000000000000e+02 4.947885513305664062e+01 -3.160118293762207031e+01 9.449855089187622070e-01 6.360828876495361328e+00 2.191744327545166016e+00 -1.708223223686218262e+00
6.410000000000000000e+02 5.103096008300781250e+01 -2.979380989074707031e+01 1.793460369110107422e+00 5.817016601562500000e+00 2.283143043518066406e+00 -1.849263429641723633e+00
6.420000000000000000e+02 4.014373779296875000e+01 -3.314036178588867188e+01 -1.383442759513854980e+00 2.798363924026489258e+00 4.244763255119323730e-01 1.397230625152587891e+00
6.430000000000000000e+02 2.972272300720214844e+01 -1.488606262207031250e+01 -1.928303956985473633e+00 5.335531830787658691e-01 -4.184252321720123291e-01 -2.902305722236633301e-01
6.440000000000000000e+02 2.994177246093750000e+01 -7.400916576385498047e+00 1.772526621818542480e+00 1.784907460212707520e+00 1.067230224609375000e+00 1.452790498733520508e-01
6.450000000000000000e+02 3.365887451171875000e+01 5.004222869873046875e+00 9.395266771316528320e-01 5.124516487121582031e+00 1.819212913513183594e+00 8.228088170289993286e-02
6.460000000000000000e+02 3.279457092285156250e+01 8.125298500061035156e+00 1.274631381034851074e+00 4.951179504394531250e+00 1.867743253707885742e+00 -3.273582458496093750e-02
6.470000000000000000e+02 3.213737869262695312e+01 1.674596786499023438e+01 1.227478861808776855e+00 4.751354217529296875e+00 1.793649911880493164e+00 -6.120918393135070801e-01
6.480000000000000000e+02 2.843293571472167969e+01 2.581514167785644531e+01 1.475901305675506592e-01 3.678092956542968750e+00 1.147704958915710449e+00 -7.108651995658874512e-01
6.490000000000000000e+02 2.592829704284667969e+01 2.527065467834472656e+01 2.442024797201156616e-01 3.068408250808715820e+00 9.937831759452819824e-01 -6.840767264366149902e-01
6.500000000000000000e+02 2.352866363525390625e+01 3.317835998535156250e+01 -3.609966039657592773e-01 2.708636045455932617e+00 7.042918801307678223e-01 -4.017900824546813965e-01
6.510000000000000000e+02 2.091320610046386719e+01 3.342655944824218750e+01 -2.757102251052856445e-01 2.235323905944824219e+00 5.878841280937194824e-01 -4.193999767303466797e-01
6.520000000000000000e+02 3.708498382568359375e+01 -1.427622985839843750e+01 -2.531409822404384613e-02 3.580821037292480469e+00 1.066652059555053711e+00 -2.858060121536254883e+00
6.530000000000000000e+02 3.626263809204101562e+01 -1.566346073150634766e+01 1.949508935213088989e-01 2.283241271972656250e+00 7.434576749801635742e-01 -2.576743125915527344e+00
6.540000000000000000e+02 5.053744125366210938e+01 -8.830100059509277344e+00 1.809718161821365356e-01 3.884133338928222656e+00 1.219531536102294922e+00 -9.523802995681762695e-01
6.550000000000000000e+02 4.710618209838867188e+01 -9.910820960998535156e+00 -7.293338179588317871e-01 5.262245655059814453e+00 1.359873533248901367e+00 -6.471653580665588379e-01
6.560000000000000000e+02 3.976353454589843750e+01 -1.906497192382812500e+01 4.662033557891845703e+00 6.401239871978759766e+00 3.318982124328613281e+00 -5.081389427185058594e+00
6.570000000000000000e+02 4.056157302856445312e+01 -2.002681541442871094e+01 5.266442775726318359e+00 8.017632484436035156e+00 3.985222578048706055e+00 -6.814974308013916016e+00
6.580000000000000000e+02 5.153450393676757812e+01 -1.460064315795898438e+01 -1.859178781509399414e+00 2.282828330993652344e+00 1.270948350429534912e-01 5.601626038551330566e-01
6.590000000000000000e+02 5.091155242919921875e+01 -1.634210777282714844e+01 -1.382444977760314941e+00 3.535162687301635742e+00 6.458153724670410156e-01 -2.408752888441085815e-01
6.600000000000000000e+02 5.245439529418945312e+01 -2.626523971557617188e+01 1.851417899131774902e+00 4.873733520507812500e+00 2.017545461654663086e+00 -1.460620880126953125e+00
6.610000000000000000e+02 5.740189743041992188e+01 -2.645775794982910156e+01 1.800802707672119141e+00 2.586662292480468750e+00 1.316239476203918457e+00 1.966746091842651367e+00
6.620000000000000000e+02 2.925820350646972656e+01 -1.351257610321044922e+01 -1.227902650833129883e+00 7.182309627532958984e-01 -1.529015004634857178e-01 -8.422947525978088379e-01
6.630000000000000000e+02 5.869691967964172363e-01 -1.772768592834472656e+01 5.491844192147254944e-02 -5.843960762023925781e+00 -1.736712694168090820e+00 7.311309454962611198e-04
6.640000000000000000e+02 6.101412773132324219e-01 -2.332568740844726562e+01 6.003076955676078796e-02 -3.362897872924804688e+00 -9.908601045608520508e-01 5.167235136032104492e-01
6.650000000000000000e+02 8.741701126098632812e+00 -2.579985427856445312e+01 6.481646001338958740e-02 5.817594051361083984e+00 1.764723181724548340e+00 -8.291625976562500000e-02
6.660000000000000000e+02 6.801045536994934082e-01 -3.036787796020507812e+01 -4.067207500338554382e-02 2.712097406387329102e+00 8.014276027679443359e-01 4.092925488948822021e-01
6.670000000000000000e+02 7.939432525634765625e+01 -2.649333190917968750e+01 9.019435942173004150e-02 5.846758842468261719e+00 1.781085968017578125e+00 3.691365197300910950e-02
6.680000000000000000e+02 7.941240692138671875e+01 -2.091752052307128906e+01 -4.667673632502555847e-02 7.540516376495361328e+00 2.248152017593383789e+00 1.971975415945053101e-01
6.690000000000000000e+02 7.937060546875000000e+01 -1.256450366973876953e+01 -1.848325133323669434e-02 7.468590736389160156e+00 2.235032320022583008e+00 -1.404590606689453125e-01
6.700000000000000000e+02 6.926380157470703125e+01 -2.246367931365966797e+00 8.892803192138671875e-01 1.055764865875244141e+01 3.434078693389892578e+00 2.752695798873901367e+00
6.710000000000000000e+02 7.941409301757812500e+01 -5.616186618804931641e+00 7.306202314794063568e-03 5.667584419250488281e+00 1.702467203140258789e+00 -1.660702079534530640e-01
6.720000000000000000e+02 7.132484436035156250e+01 6.178601264953613281e+00 4.413498938083648682e-01 1.159098911285400391e+01 3.609701633453369141e+00 7.344089448451995850e-02
6.730000000000000000e+02 7.937755584716796875e+01 2.726254224777221680e+00 1.331219822168350220e-02 4.461104869842529297e+00 1.342325091361999512e+00 4.522649571299552917e-02
6.740000000000000000e+02 7.934803009033203125e+01 3.062969017028808594e+01 -3.158274665474891663e-02 1.101241588592529297e+01 3.294249773025512695e+00 1.824060082435607910e-01
6.750000000000000000e+02 1.600221443176269531e+01 3.424040603637695312e+01 -1.804278641939163208e-01 1.370600104331970215e+00 3.570517003536224365e-01 -2.780137658119201660e-01
6.760000000000000000e+02 7.606437683105468750e+00 3.452375030517578125e+01 -4.698184132575988770e-02 -1.930000633001327515e-01 -7.199457287788391113e-02 -1.132243722677230835e-01
6.770000000000000000e+02 7.370275974273681641e+00 2.442662811279296875e+01 1.121058836579322815e-01 -3.958976566791534424e-01 -8.513753861188888550e-02 -8.171792328357696533e-02
6.780000000000000000e+02 2.664372825622558594e+01 2.310756111145019531e+01 4.646795690059661865e-01 3.204300403594970703e+00 1.100694060325622559e+00 -7.099645137786865234e-01
6.790000000000000000e+02 2.540044975280761719e+01 1.659526252746582031e+01 9.470802545547485352e-01 2.747156620025634766e+00 1.108271121978759766e+00 -5.210632085800170898e-01
6.800000000000000000e+02 2.148039436340332031e+01 7.266283988952636719e+00 5.172932744026184082e-01 1.479879736900329590e+00 5.991519093513488770e-01 -5.295526981353759766e-02
6.810000000000000000e+02 2.034436416625976562e+01 2.214651107788085938e+00 -2.255137115716934204e-01 9.990807771682739258e-01 2.320701181888580322e-01 8.951222896575927734e-02
6.820000000000000000e+02 2.062427330017089844e+01 6.214103102684020996e-01 -4.858625829219818115e-01 1.103880524635314941e+00 1.854054033756256104e-01 1.408680975437164307e-01
6.830000000000000000e+02 3.417322540283203125e+01 2.173673629760742188e+00 6.262087225914001465e-01 5.035389900207519531e+00 1.698479533195495605e+00 4.927401244640350342e-02
6.840000000000000000e+02 1.987015604972839355e+00 3.176941108703613281e+01 -4.837636370211839676e-03 -1.252620339393615723e+00 -3.772373795509338379e-01 -4.761523753404617310e-02
6.850000000000000000e+02 6.829293727874755859e+00 1.753371047973632812e+01 1.860538870096206665e-01 -5.890637636184692383e-01 -1.209029555320739746e-01 1.555573195219039917e-01
6.860000000000000000e+02 1.321903038024902344e+01 1.795737648010253906e+01 4.544555842876434326e-01 2.979573309421539307e-01 2.257238775491714478e-01 -3.652800619602203369e-02
6.870000000000000000e+02 3.246586608886718750e+01 2.026261711120605469e+01 8.302963376045227051e-01 4.768244743347167969e+00 1.679562330245971680e+00 -6.606326103210449219e-01
6.880000000000000000e+02 2.623497390747070312e+01 1.881219482421875000e+01 8.449037671089172363e-01 3.012282133102416992e+00 1.157155752182006836e+00 -6.303401589393615723e-01
6.890000000000000000e+02 1.675676918029785156e+01 2.653314208984375000e+01 1.680315285921096802e-01 1.260868310928344727e+00 4.286699593067169189e-01 -3.810262978076934814e-01
6.900000000000000000e+02 6.552413940429687500e+00 1.007695388793945312e+01 1.334273219108581543e-01 -5.732061266899108887e-01 -1.319336295127868652e-01 4.866910874843597412e-01
6.910000000000000000e+02 1.503648090362548828e+01 7.461298942565917969e+00 3.631702959537506104e-01 -6.945443153381347656e-02 8.811476081609725952e-02 2.895255386829376221e-01
6.920000000000000000e+02 3.356458282470703125e+01 1.217587280273437500e+01 1.541682958602905273e+00 5.331625938415527344e+00 2.061992645263671875e+00 -3.699550926685333252e-01
6.930000000000000000e+02 3.973234558105468750e+01 1.477778911590576172e+01 1.090410590171813965e+00 9.240029335021972656e+00 3.099131822586059570e+00 -8.145468682050704956e-02
6.940000000000000000e+02 1.841195940971374512e+00 1.630097961425781250e+01 1.831905916333198547e-02 -1.260437726974487305e+00 -3.726356029510498047e-01 9.743636846542358398e-02
6.950000000000000000e+02 3.993765640258789062e+01 1.001907348632812500e+01 1.845786929130554199e+00 9.303484916687011719e+00 3.344781398773193359e+00 -8.473886847496032715e-01
6.960000000000000000e+02 4.237900924682617188e+01 1.044519233703613281e+01 1.155837774276733398e+00 1.442723083496093750e+01 4.674920558929443359e+00 -2.110573291778564453e+00
6.970000000000000000e+02 3.843039321899414062e+01 4.050340652465820312e+00 7.099219560623168945e-01 6.739569187164306641e+00 2.234847307205200195e+00 -5.785012245178222656e-01
6.980000000000000000e+02 4.409907531738281250e+01 3.333909034729003906e+00 9.046186804771423340e-01 6.591773033142089844e+00 2.248917579650878906e+00 -2.579262495040893555e+00
6.990000000000000000e+02 4.534089660644531250e+01 -2.125824689865112305e+00 2.210298478603363037e-01 5.377502441406250000e+00 1.679559588432312012e+00 -1.793739914894104004e+00
7.000000000000000000e+02 4.878747177124023438e+01 -3.564631938934326172e+00 4.639056622982025146e-01 4.628489971160888672e+00 1.527718663215637207e+00 -1.574430108070373535e+00
7.010000000000000000e+02 4.385159301757812500e+01 6.406443595886230469e+00 1.905254960060119629e+00 8.481186866760253906e+00 3.115932703018188477e+00 -3.648290872573852539e+00
7.020000000000000000e+02 2.935495567321777344e+01 -7.483532428741455078e+00 2.042098045349121094e+00 1.627129316329956055e+00 1.100768208503723145e+00 3.758446574211120605e-01
7.030000000000000000e+02 3.907432174682617188e+01 -2.892522573471069336e+00 -1.039673201739788055e-02 5.445096015930175781e+00 1.630409836769104004e+00 -1.070243716239929199e+00
7.040000000000000000e+02 4.599757766723632812e+01 -1.010783290863037109e+01 -9.116106629371643066e-01 5.685951232910156250e+00 1.432302236557006836e+00 -8.213707208633422852e-01
7.050000000000000000e+02 5.266795349121093750e+01 -1.407051467895507812e+01 -1.241840124130249023e+00 -5.337527487426996231e-03 -3.741532862186431885e-01 7.928386330604553223e-01
7.060000000000000000e+02 8.515198707580566406e+00 -1.923684716224670410e+00 -1.204880714416503906e+00 2.470961958169937134e-01 -2.873353660106658936e-01 -1.091373041272163391e-01
7.070000000000000000e+02 6.920914649963378906e+00 -1.902502655982971191e+00 -9.688313603401184082e-01 1.210670247673988342e-01 -2.543292939662933350e-01 -3.301827311515808105e-01
7.080000000000000000e+02 7.721095085144042969e+00 -1.907244801521301270e+00 -1.086597442626953125e+00 1.624948829412460327e-01 -2.772307693958282471e-01 -2.255052328109741211e-01
7.090000000000000000e+02 5.316837310791015625e+00 -1.914709806442260742e+00 -6.916370987892150879e-01 2.069621533155441284e-02 -2.012822628021240234e-01 -4.301888048648834229e-01
7.100000000000000000e+02 2.905999422073364258e+00 -1.989889502525329590e+00 -2.916107177734375000e-01 -1.101405248045921326e-01 -1.205253675580024719e-01 -3.561899960041046143e-01
7.110000000000000000e+02 3.090807199478149414e+00 -2.933906793594360352e+00 -2.950534522533416748e-01 -1.841890811920166016e-01 -1.437727510929107666e-01 -4.952903389930725098e-01
7.120000000000000000e+02 2.090175151824951172e+00 -2.052718162536621094e+00 -1.721561104059219360e-01 -1.693476587533950806e-01 -1.024511307477951050e-01 -2.753665447235107422e-01
7.130000000000000000e+02 1.265155911445617676e+00 -2.136466264724731445e+00 -7.288474589586257935e-02 -1.877696961164474487e-01 -7.819633185863494873e-02 -1.617094576358795166e-01
7.140000000000000000e+02 4.257754981517791748e-01 -2.194321632385253906e+00 -1.652241498231887817e-02 -1.118211969733238220e-01 -3.850308433175086975e-02 -5.492272228002548218e-02
7.150000000000000000e+02 2.032152414321899414e+00 -4.164692306518554688e+01 1.840999871492385864e-01 4.005343914031982422e+00 1.256833076477050781e+00 -5.250212550163269043e-02
7.160000000000000000e+02 3.512257575988769531e+00 -3.917689132690429688e+01 -1.136599406599998474e-01 3.593387126922607422e+00 1.043918132781982422e+00 7.829596847295761108e-02
7.170000000000000000e+02 9.768911600112915039e-01 -3.873031616210937500e+01 2.076155506074428558e-02 4.226584911346435547e+00 1.274203896522521973e+00 -5.139103531837463379e-02
7.180000000000000000e+02 7.736731767654418945e-01 -3.459723663330078125e+01 -5.005494505167007446e-02 4.116831779479980469e+00 1.220033049583435059e+00 1.082925200462341309e-01
7.190000000000000000e+02 7.441453933715820312e-01 -3.319676589965820312e+01 -4.125335067510604858e-02 3.857354640960693359e+00 1.144830346107482910e+00 1.949665248394012451e-01
7.200000000000000000e+02 6.699630022048950195e-01 -2.895066452026367188e+01 -6.780279427766799927e-02 1.762535929679870605e+00 5.084199309349060059e-01 5.207337141036987305e-01
7.210000000000000000e+02 6.699534058570861816e-01 -2.753746414184570312e+01 -3.344638505950570107e-03 5.869365334510803223e-01 1.750775724649429321e-01 6.101993322372436523e-01
7.220000000000000000e+02 6.411826610565185547e-01 -2.472752571105957031e+01 3.405186161398887634e-02 -2.058797836303710938e+00 -6.074237823486328125e-01 6.180350184440612793e-01
7.230000000000000000e+02 5.878716707229614258e-01 -2.192500877380371094e+01 5.257442593574523926e-02 -4.451227664947509766e+00 -1.319596052169799805e+00 3.832079470157623291e-01
7.240000000000000000e+02 5.785134434700012207e-01 -2.052910232543945312e+01 5.042996257543563843e-02 -5.239961624145507812e+00 -1.556859493255615234e+00 2.572569251060485840e-01
7.250000000000000000e+02 1.740298628807067871e+00 -2.041732025146484375e+01 2.416900694370269775e-01 -3.121207475662231445e+00 -8.638551831245422363e-01 7.076093554496765137e-01
7.260000000000000000e+02 5.957819819450378418e-01 -1.632123374938964844e+01 3.057149797677993774e-02 -5.684997558593750000e+00 -1.696327805519104004e+00 -1.016368344426155090e-01
7.270000000000000000e+02 6.023222208023071289e-01 -1.491353130340576172e+01 3.869499638676643372e-02 -5.304323673248291016e+00 -1.579688549041748047e+00 -1.812927126884460449e-01
7.280000000000000000e+02 6.022463440895080566e-01 -1.350223922729492188e+01 6.395730655640363693e-03 -4.767521858215332031e+00 -1.428337812423706055e+00 -2.322185784578323364e-01
7.290000000000000000e+02 1.822821497917175293e+00 -1.347141551971435547e+01 9.597272425889968872e-02 -3.140152931213378906e+00 -9.132540225982666016e-01 -6.425271034240722656e-01
7.300000000000000000e+02 5.470928549766540527e-01 -9.277944564819335938e+00 -2.625708933919668198e-03 -2.729614257812500000e+00 -8.196719288825988770e-01 -2.564022243022918701e-01
7.310000000000000000e+02 5.254661440849304199e-01 -7.882944583892822266e+00 -9.526644833385944366e-03 -2.038107633590698242e+00 -6.142902970314025879e-01 -2.357523888349533081e-01
7.320000000000000000e+02 3.877840518951416016e+00 -2.843418121337890625e+00 -4.030170738697052002e-01 -1.127419173717498779e-01 -1.547276973724365234e-01 -5.509817004203796387e-01
7.330000000000000000e+02 4.056318283081054688e+00 -3.736416578292846680e+00 -3.957138061523437500e-01 -1.421740949153900146e-01 -1.613663733005523682e-01 -6.931186914443969727e-01
7.340000000000000000e+02 7.231747436523437500e+01 -4.110886764526367188e+01 7.467243075370788574e-02 4.927800178527832031e+00 1.500741839408874512e+00 9.034543484449386597e-02
7.350000000000000000e+02 3.227980804443359375e+01 -3.929021072387695312e+01 -1.063101530075073242e+00 -2.389825507998466492e-02 -3.260999619960784912e-01 -1.131907552480697632e-01
7.360000000000000000e+02 1.227504348754882812e+01 -4.141099166870117188e+01 -2.891990840435028076e-01 1.746935695409774780e-01 -3.435165435075759888e-02 -3.679612185806035995e-03
7.370000000000000000e+02 7.878506469726562500e+01 4.018016433715820312e+01 -1.665553003549575806e-01 1.093466663360595703e+01 3.230433464050292969e+00 -2.786227166652679443e-01
7.380000000000000000e+02 7.910688018798828125e+01 3.884856033325195312e+01 -3.731075266841799021e-04 1.126399040222167969e+01 3.379085063934326172e+00 -1.262208372354507446e-01
7.390000000000000000e+02 7.929025268554687500e+01 3.615904617309570312e+01 -9.724774211645126343e-02 1.166710853576660156e+01 3.470958232879638672e+00 -1.095410529524087906e-02
7.400000000000000000e+02 7.789897155761718750e+01 3.471170806884765625e+01 -9.345004707574844360e-02 1.047673988342285156e+01 3.114986896514892578e+00 1.617706567049026489e-01
7.410000000000000000e+02 7.930830383300781250e+01 3.341551589965820312e+01 -3.832317516207695007e-02 1.149825096130371094e+01 3.437978267669677734e+00 1.125519871711730957e-01
7.420000000000000000e+02 7.805762481689453125e+01 3.055648612976074219e+01 -6.534624844789505005e-02 1.013957595825195312e+01 3.022269010543823242e+00 4.573754966259002686e-01
7.430000000000000000e+02 7.942134094238281250e+01 2.643928337097167969e+01 8.797208778560161591e-03 9.851722717285156250e+00 2.958155870437622070e+00 2.093209624290466309e-01
7.440000000000000000e+02 7.721741485595703125e+01 2.626212501525878906e+01 1.343533955514431000e-02 9.068635940551757812e+00 2.724621295928955078e+00 6.875013709068298340e-01
7.450000000000000000e+02 7.941902923583984375e+01 2.226249694824218750e+01 1.014945842325687408e-02 8.710283279418945312e+00 2.616129875183105469e+00 1.732759028673171997e-01
7.460000000000000000e+02 7.941139984130859375e+01 2.086907958984375000e+01 9.839152917265892029e-04 8.394676208496093750e+00 2.518697977066040039e+00 1.607464700937271118e-01
7.470000000000000000e+02 7.826693725585937500e+01 2.220610809326171875e+01 2.600768208503723145e-02 8.632281303405761719e+00 2.597486495971679688e+00 4.118424952030181885e-01
7.480000000000000000e+02 7.940895080566406250e+01 1.947237777709960938e+01 8.989050984382629395e-03 8.104825019836425781e+00 2.434144258499145508e+00 1.507627218961715698e-01
7.490000000000000000e+02 7.941148376464843750e+01 1.529009819030761719e+01 2.567195799201726913e-03 7.322205066680908203e+00 2.197431802749633789e+00 1.349418759346008301e-01
7.500000000000000000e+02 7.941042327880859375e+01 1.389802646636962891e+01 -1.402408070862293243e-02 7.050915241241455078e+00 2.111067295074462891e+00 1.487907022237777710e-01
7.510000000000000000e+02 7.940882110595703125e+01 1.250378608703613281e+01 5.490102339535951614e-03 6.745046615600585938e+00 2.025161027908325195e+00 1.610700935125350952e-01
7.520000000000000000e+02 7.940697479248046875e+01 1.110662651062011719e+01 -1.792554184794425964e-02 6.403604984283447266e+00 1.915703892707824707e+00 1.756230592727661133e-01
7.530000000000000000e+02 7.940020751953125000e+01 8.317277908325195312e+00 -1.024704612791538239e-02 5.622799396514892578e+00 1.683765769004821777e+00 1.917695552110671997e-01
7.540000000000000000e+02 7.939912414550781250e+01 6.921936988830566406e+00 2.300381846725940704e-02 5.224996089935302734e+00 1.574399948120117188e+00 1.804496645927429199e-01
7.550000000000000000e+02 7.820856475830078125e+01 6.829638957977294922e+00 4.350819066166877747e-02 6.095929622650146484e+00 1.841831326484680176e+00 4.603454470634460449e-01
7.560000000000000000e+02 7.939330291748046875e+01 5.524093627929687500e+00 7.044173311442136765e-03 4.874343872070312500e+00 1.464416503906250000e+00 1.451595276594161987e-01
7.570000000000000000e+02 7.937669372558593750e+01 1.327884316444396973e+00 3.140746802091598511e-02 4.421452045440673828e+00 1.335857748985290527e+00 -2.715420909225940704e-03
7.580000000000000000e+02 7.938148498535156250e+01 -6.655110418796539307e-02 2.188559249043464661e-02 4.497400760650634766e+00 1.355785965919494629e+00 -6.380169838666915894e-02
7.590000000000000000e+02 7.939179229736328125e+01 -1.455096483230590820e+00 1.000380702316761017e-02 4.685551166534423828e+00 1.408666491508483887e+00 -1.011443883180618286e-01
7.600000000000000000e+02 7.940543365478515625e+01 -2.840795040130615234e+00 1.667643710970878601e-02 4.952712059020996094e+00 1.490816473960876465e+00 -1.316495090723037720e-01
7.610000000000000000e+02 7.940253448486328125e+01 -7.003691196441650391e+00 -2.946794033050537109e-03 6.057577133178710938e+00 1.816389203071594238e+00 -1.715182363986968994e-01
7.620000000000000000e+02 7.939028930664062500e+01 -8.392995834350585938e+00 8.871905156411230564e-04 6.439923763275146484e+00 1.932243347167968750e+00 -1.687261015176773071e-01
7.630000000000000000e+02 7.937900543212890625e+01 -9.783076286315917969e+00 -6.472047418355941772e-03 6.804710865020751953e+00 2.039471626281738281e+00 -1.623727381229400635e-01
7.640000000000000000e+02 7.937815856933593750e+01 -1.395590686798095703e+01 1.157211023382842541e-03 7.748464584350585938e+00 2.324886560440063477e+00 -1.202348172664642334e-01
7.650000000000000000e+02 7.938858795166015625e+01 -1.534716033935546875e+01 -3.380206599831581116e-02 7.974184989929199219e+00 2.382114887237548828e+00 -8.427046984434127808e-02
7.660000000000000000e+02 7.939504241943359375e+01 -1.674042701721191406e+01 -1.442273799329996109e-02 8.099033355712890625e+00 2.425383329391479492e+00 -2.789951860904693604e-02
7.670000000000000000e+02 7.940479278564453125e+01 -2.231641006469726562e+01 9.363851509988307953e-03 7.022407531738281250e+00 2.109531402587890625e+00 2.439260780811309814e-01
7.680000000000000000e+02 7.707396697998046875e+01 -2.658328437805175781e+01 4.822865724563598633e-01 7.065399169921875000e+00 2.264305830001831055e+00 1.002025008201599121e-01
7.690000000000000000e+02 7.938945007324218750e+01 -2.371064567565917969e+01 2.072116546332836151e-02 6.501950263977050781e+00 1.956801533699035645e+00 2.093975692987442017e-01
7.700000000000000000e+02 7.939226531982421875e+01 -2.789366340637207031e+01 9.694800712168216705e-03 5.888180255889892578e+00 1.769362449645996094e+00 -8.176593482494354248e-02
7.710000000000000000e+02 7.937996673583984375e+01 -2.928850746154785156e+01 6.879681348800659180e-02 6.155958652496337891e+00 1.867426633834838867e+00 -1.681724339723587036e-01
7.720000000000000000e+02 7.937436676025390625e+01 -3.067753982543945312e+01 -3.212169185280799866e-02 6.563692569732666016e+00 1.959471225738525391e+00 -2.128090709447860718e-01
7.730000000000000000e+02 7.927713012695312500e+01 -3.487268829345703125e+01 3.889424353837966919e-02 7.858465671539306641e+00 2.369208097457885742e+00 -1.719197332859039307e-01
7.740000000000000000e+02 7.921303558349609375e+01 -3.629784011840820312e+01 -1.350282132625579834e-01 8.094919204711914062e+00 2.387967109680175781e+00 -9.508461505174636841e-02
7.750000000000000000e+02 7.918621063232421875e+01 -3.770829391479492188e+01 -2.708939462900161743e-02 8.132795333862304688e+00 2.431711673736572266e+00 5.654679238796234131e-02
7.760000000000000000e+02 7.924317932128906250e+01 -3.901564025878906250e+01 1.208591461181640625e-01 8.073668479919433594e+00 2.458358287811279297e+00 -9.860154241323471069e-03
7.770000000000000000e+02 1.296518898010253906e+01 3.808427047729492188e+01 -1.825022399425506592e-01 7.949174642562866211e-01 1.837245672941207886e-01 -1.154227778315544128e-01
7.780000000000000000e+02 2.735391616821289062e+01 4.060208892822265625e+01 -8.473622798919677734e-01 3.446464776992797852e+00 7.797307372093200684e-01 -1.046076789498329163e-01
7.790000000000000000e+02 3.861528337001800537e-01 2.178341388702392578e+00 -4.116608295589685440e-03 -5.009523127228021622e-03 -2.737839473411440849e-03 7.635818328708410263e-03
7.800000000000000000e+02 2.726466894149780273e+00 2.675642728805541992e+00 -1.104489937424659729e-01 -9.947912395000457764e-02 -6.297843903303146362e-02 1.487913727760314941e-01
7.810000000000000000e+02 1.735941410064697266e+00 6.537879467010498047e+00 -8.117496035993099213e-03 -4.348290562629699707e-01 -1.328839659690856934e-01 2.107005417346954346e-01
7.820000000000000000e+02 5.834643244743347168e-01 9.284682273864746094e+00 5.072987405583262444e-04 -7.853581309318542480e-01 -2.354552447795867920e-01 7.639541476964950562e-02
7.830000000000000000e+02 5.891903042793273926e-01 1.210184764862060547e+01 3.071554237976670265e-03 -1.130915164947509766e+00 -3.383530974388122559e-01 6.161921471357345581e-02
7.840000000000000000e+02 1.759672999382019043e+00 1.210448169708251953e+01 2.073622494935989380e-02 -9.939454197883605957e-01 -2.919627726078033447e-01 1.749783456325531006e-01
7.850000000000000000e+02 6.153817772865295410e-01 1.632946205139160156e+01 5.605028010904788971e-03 -1.476043939590454102e+00 -4.411316812038421631e-01 3.252923488616943359e-02
7.860000000000000000e+02 6.231612563133239746e-01 1.773953819274902344e+01 1.995363738387823105e-03 -1.545310139656066895e+00 -4.629944264888763428e-01 2.406582795083522797e-02
7.870000000000000000e+02 6.508342027664184570e-01 2.197277259826660156e+01 5.084264092147350311e-03 -1.639347195625305176e+00 -4.902788698673248291e-01 9.741627145558595657e-04
7.880000000000000000e+02 6.666179299354553223e-01 2.338707923889160156e+01 -4.145894490648061037e-04 -1.639874577522277832e+00 -4.920867383480072021e-01 -3.837179625406861305e-03
7.890000000000000000e+02 6.852579116821289062e-01 2.480591773986816406e+01 6.352627184242010117e-03 -1.628060460090637207e+00 -4.865123331546783447e-01 -1.028160192072391510e-02
7.900000000000000000e+02 6.743752360343933105e-01 2.905028915405273438e+01 4.855966661125421524e-03 -1.552853465080261230e+00 -4.643992483615875244e-01 -1.484202966094017029e-02
7.910000000000000000e+02 6.630995869636535645e-01 3.045444297790527344e+01 -3.782408603001385927e-04 -1.518063187599182129e+00 -4.555324316024780273e-01 -1.942042075097560883e-02
7.920000000000000000e+02 1.998882770538330078e+00 3.041266822814941406e+01 2.981664380058646202e-03 -1.268616318702697754e+00 -3.796904087066650391e-01 -4.580455273389816284e-02
7.930000000000000000e+02 6.534151434898376465e-01 3.184877586364746094e+01 -2.042575972154736519e-03 -1.481567621231079102e+00 -4.450830519199371338e-01 -1.679258793592453003e-02
7.940000000000000000e+02 6.695719361305236816e-01 3.601562118530273438e+01 -6.831450853496789932e-03 -1.352361798286437988e+00 -4.077579677104949951e-01 -2.081603743135929108e-02
7.950000000000000000e+02 3.288814544677734375e+00 3.715666961669921875e+01 1.404119189828634262e-02 -1.011220455169677734e+00 -2.991537749767303467e-01 -8.819388598203659058e-02
7.960000000000000000e+02 9.084700942039489746e-01 3.873304367065429688e+01 -1.130574196577072144e-02 -1.217280387878417969e+00 -3.685758113861083984e-01 -3.909584134817123413e-02
7.970000000000000000e+02 1.288655281066894531e+00 4.009015274047851562e+01 3.000410273671150208e-02 -1.143293261528015137e+00 -3.339867293834686279e-01 -6.253676116466522217e-02
7.980000000000000000e+02 9.991030693054199219e+00 2.000135660171508789e+00 -8.612189888954162598e-01 -4.974691867828369141e-01 -4.076064527034759521e-01 6.992824077606201172e-01
7.990000000000000000e+02 9.177329063415527344e+00 1.947771430015563965e+00 -8.089020252227783203e-01 -3.817000389099121094e-01 -3.571806252002716064e-01 6.693154573440551758e-01
8.000000000000000000e+02 8.420951843261718750e+00 1.909984827041625977e+00 -8.087557554244995117e-01 -2.317388951778411865e-01 -3.121483922004699707e-01 5.905615091323852539e-01
8.010000000000000000e+02 7.576504230499267578e+00 2.641776800155639648e+00 -5.596783757209777832e-01 -2.260488271713256836e-01 -2.357181608676910400e-01 5.662192106246948242e-01
8.020000000000000000e+02 6.947249412536621094e+00 1.868702888488769531e+00 -5.670388936996459961e-01 -1.149863824248313904e-01 -2.046075761318206787e-01 3.937100172042846680e-01
8.030000000000000000e+02 4.766529560089111328e+00 1.852944850921630859e+00 -2.745514214038848877e-01 -6.027837097644805908e-02 -1.004489362239837646e-01 2.179475426673889160e-01
8.040000000000000000e+02 4.048624992370605469e+00 1.852532148361206055e+00 -2.035083919763565063e-01 -6.324865669012069702e-02 -8.002711832523345947e-02 1.764611750841140747e-01
8.050000000000000000e+02 3.331921339035034180e+00 1.864426612854003906e+00 -1.460587978363037109e-01 -5.616122856736183167e-02 -6.066600978374481201e-02 1.345856189727783203e-01
8.060000000000000000e+02 1.882977008819580078e+00 1.984711885452270508e+00 -5.434506759047508240e-02 -6.183304265141487122e-02 -3.485343232750892639e-02 6.418757885694503784e-02
8.070000000000000000e+02 1.144078731536865234e+00 2.091936588287353516e+00 -2.091432921588420868e-02 -4.839916154742240906e-02 -2.079404704272747040e-02 2.872203290462493896e-02
8.080000000000000000e+02 1.318453598022460938e+01 6.692067980766296387e-01 -1.342058062553405762e+00 -7.022514939308166504e-01 -6.132928729057312012e-01 8.895744085311889648e-01
8.090000000000000000e+02 1.523675632476806641e+01 1.151931643486022949e+00 -8.499004244804382324e-01 -6.047610044479370117e-01 -4.363984167575836182e-01 6.728038191795349121e-01
8.100000000000000000e+02 1.602417182922363281e+01 -8.820729851722717285e-01 -1.454955935478210449e+00 -7.937582135200500488e-01 -6.746142506599426270e-01 9.580934047698974609e-01
8.110000000000000000e+02 1.735299110412597656e+01 -1.804653763771057129e+00 -1.455314874649047852e+00 -7.358675003051757812e-01 -6.573547124862670898e-01 9.274083375930786133e-01
8.120000000000000000e+02 1.859560394287109375e+01 -2.794500350952148438e+00 -1.367343902587890625e+00 -5.458575487136840820e-01 -5.739604234695434570e-01 8.287540078163146973e-01
8.130000000000000000e+02 1.959727668762207031e+01 -3.719964504241943359e+00 -1.296670079231262207e+00 -1.191815212368965149e-01 -4.247554838657379150e-01 6.669924259185791016e-01
8.140000000000000000e+02 2.057084274291992188e+01 -4.619400024414062500e+00 -1.159834623336791992e+00 5.803545713424682617e-01 -1.738440096378326416e-01 4.979639351367950439e-01
8.150000000000000000e+02 2.186615943908691406e+01 -6.348741531372070312e+00 -1.033850908279418945e+00 3.642751216888427734e+00 7.826701402664184570e-01 6.255632042884826660e-01
8.160000000000000000e+02 2.007874298095703125e+01 -9.405022621154785156e+00 9.863797187805175781e+00 -2.588127374649047852e+00 2.182700872421264648e+00 2.831765890121459961e+00
8.170000000000000000e+02 1.957180213928222656e+01 -8.754150390625000000e+00 6.107784748077392578e+00 -2.360711574554443359e+00 1.124122023582458496e+00 8.282868266105651855e-01
8.180000000000000000e+02 1.841544723510742188e+01 -7.477436065673828125e+00 1.437244892120361328e+00 -1.443988680839538574e+00 -2.023139037191867828e-03 8.398546576499938965e-01
8.190000000000000000e+02 1.636101341247558594e+01 -5.585137844085693359e+00 -9.123039245605468750e-01 -5.785816311836242676e-01 -4.472656846046447754e-01 1.120022416114807129e+00
8.200000000000000000e+02 1.724033355712890625e+01 -6.358820915222167969e+00 -2.474917769432067871e-01 -8.617767095565795898e-01 -3.327805399894714355e-01 1.099640727043151855e+00
8.210000000000000000e+02 1.471508312225341797e+01 -4.387391090393066406e+00 -1.451339125633239746e+00 -1.763358414173126221e-01 -4.883024990558624268e-01 9.378961324691772461e-01
8.220000000000000000e+02 1.230906772613525391e+01 -3.024175882339477539e+00 -1.588287353515625000e+00 1.721170842647552490e-01 -4.248510599136352539e-01 4.777007699012756348e-01
8.230000000000000000e+02 1.312249469757080078e+01 -4.953373432159423828e+00 -1.129353165626525879e+00 4.540033042430877686e-01 -2.026049494743347168e-01 5.464539527893066406e-01
8.240000000000000000e+02 9.295223236083984375e+00 -1.957747220993041992e+00 -1.324735641479492188e+00 2.955373525619506836e-01 -3.087594807147979736e-01 4.882392473518848419e-03
8.250000000000000000e+02 7.084354400634765625e+01 -3.040328216552734375e+01 1.405461430549621582e+00 7.066565036773681641e+00 2.541607856750488281e+00 2.557060241699218750e+00
8.260000000000000000e+02 6.684718322753906250e+01 -3.367190551757812500e+01 -9.260626435279846191e-01 1.597530245780944824e-01 -2.298928797245025635e-01 -1.170106530189514160e-01
8.270000000000000000e+02 6.454734039306640625e+01 3.420556259155273438e+01 -2.134759187698364258e+00 -7.247692942619323730e-01 -8.578585982322692871e-01 1.225514888763427734e+00
8.280000000000000000e+02 6.943141937255859375e+01 2.713318061828613281e+01 2.373974770307540894e-01 6.160159587860107422e+00 1.919267177581787109e+00 -8.725463151931762695e-01
8.290000000000000000e+02 6.992737579345703125e+01 2.290005493164062500e+01 1.039850488305091858e-01 8.442135810852050781e+00 2.563836336135864258e+00 1.660573668777942657e-02
8.300000000000000000e+02 6.985482025146484375e+01 2.431535530090332031e+01 1.368180215358734131e-01 8.189164161682128906e+00 2.497794866561889648e+00 -2.606707513332366943e-01
8.310000000000000000e+02 6.997425842285156250e+01 1.865366744995117188e+01 -3.265253733843564987e-03 9.001946449279785156e+00 2.699604511260986328e+00 1.643357872962951660e-01
8.320000000000000000e+02 6.992204284667968750e+01 1.441789722442626953e+01 2.313680350780487061e-01 1.019850635528564453e+01 3.128962278366088867e+00 4.923979938030242920e-01
8.330000000000000000e+02 6.980892181396484375e+01 1.302849388122558594e+01 4.952345788478851318e-02 9.151815414428710938e+00 2.760401725769042969e+00 6.601520180702209473e-01
8.340000000000000000e+02 7.125718688964843750e+01 4.745760440826416016e+00 1.985399872064590454e-01 1.226789093017578125e+01 3.739929437637329102e+00 3.343264162540435791e-01
8.350000000000000000e+02 6.993164062500000000e+01 5.056886076927185059e-01 7.661435604095458984e-01 1.403085708618164062e+01 4.439100265502929688e+00 2.255372762680053711e+00
8.360000000000000000e+02 6.882457733154296875e+01 -3.595450401306152344e+00 9.504579901695251465e-01 9.220616340637207031e+00 3.051322221755981445e+00 2.728656530380249023e+00
8.370000000000000000e+02 6.831963348388671875e+01 -4.922891616821289062e+00 1.074568748474121094e+00 7.949733734130859375e+00 2.707290887832641602e+00 2.661272287368774414e+00
8.380000000000000000e+02 6.942258453369140625e+01 -8.245161056518554688e+00 4.638330340385437012e-01 6.436050415039062500e+00 2.069965124130249023e+00 1.131947398185729980e+00
8.390000000000000000e+02 6.413072204589843750e+01 -1.240262794494628906e+01 1.868013739585876465e+00 2.740035295486450195e+00 1.382414698600769043e+00 2.040768623352050781e+00
8.400000000000000000e+02 6.188757705688476562e+01 -1.428482723236083984e+01 1.615326881408691406e+00 1.333780765533447266e+00 8.847323060035705566e-01 1.428340673446655273e+00
8.410000000000000000e+02 5.800276565551757812e+01 -1.646695899963378906e+01 -2.704214572906494141e+00 4.827194660902023315e-02 -7.967828512191772461e-01 4.239801466464996338e-01
8.420000000000000000e+02 5.096965408325195312e+01 -1.015991973876953125e+01 1.039718911051750183e-01 3.330289363861083984e+00 1.030278325080871582e+00 -7.179141044616699219e-01
8.430000000000000000e+02 5.011432266235351562e+01 -7.502743721008300781e+00 2.578291594982147217e-01 4.210587501525878906e+00 1.340525031089782715e+00 -1.148368477821350098e+00
8.440000000000000000e+02 4.967939758300781250e+01 -6.182387351989746094e+00 3.463397622108459473e-01 4.495177745819091797e+00 1.452455282211303711e+00 -1.320078969001770020e+00
8.450000000000000000e+02 4.754780197143554688e+01 -4.066780567169189453e+00 2.818421125411987305e-01 4.847894191741943359e+00 1.538920879364013672e+00 -1.579855680465698242e+00
8.460000000000000000e+02 4.777618789672851562e+01 -1.007748365402221680e+00 6.979046463966369629e-01 4.588194847106933594e+00 1.585829854011535645e+00 -1.944332838058471680e+00
8.470000000000000000e+02 4.718627929687500000e+01 2.382142841815948486e-01 9.385462403297424316e-01 4.879163265228271484e+00 1.745312809944152832e+00 -2.212686300277709961e+00
8.480000000000000000e+02 4.656846237182617188e+01 1.479264259338378906e+00 1.097486495971679688e+00 5.180891990661621094e+00 1.883513569831848145e+00 -2.415020942687988281e+00
8.490000000000000000e+02 4.592767715454101562e+01 2.715528964996337891e+00 1.210850715637207031e+00 5.404671192169189453e+00 1.984656572341918945e+00 -2.659919738769531250e+00
8.500000000000000000e+02 4.453806304931640625e+01 5.160898208618164062e+00 1.728981971740722656e+00 6.950794696807861328e+00 2.603933095932006836e+00 -3.403410911560058594e+00
8.510000000000000000e+02 4.324552154541015625e+01 7.700293540954589844e+00 1.643799066543579102e+00 9.931431770324707031e+00 3.472569227218627930e+00 -3.765120744705200195e+00
8.520000000000000000e+02 4.225129699707031250e+01 1.188131904602050781e+01 5.235046148300170898e-01 1.383605384826660156e+01 4.307867527008056641e+00 -4.097843170166015625e-01
8.530000000000000000e+02 4.237037658691406250e+01 1.473134040832519531e+01 2.198446840047836304e-01 1.170673942565917969e+01 3.577975034713745117e+00 8.782327175140380859e-01
8.540000000000000000e+02 4.277894592285156250e+01 1.755098724365234375e+01 6.354891061782836914e-01 1.045882606506347656e+01 3.328294754028320312e+00 2.027167081832885742e+00
8.550000000000000000e+02 4.394214248657226562e+01 2.166924667358398438e+01 1.052773237228393555e+00 8.008798599243164062e+00 2.718471527099609375e+00 2.544545173645019531e+00
8.560000000000000000e+02 4.643276596069335938e+01 2.686763000488281250e+01 1.208397626876831055e+00 4.334975719451904297e+00 1.663012027740478516e+00 2.136161088943481445e+00
8.570000000000000000e+02 4.816376495361328125e+01 2.923576354980468750e+01 9.530197381973266602e-01 2.649743080139160156e+00 1.080828905105590820e+00 1.538290619850158691e+00
8.580000000000000000e+02 5.011067581176757812e+01 3.136786842346191406e+01 5.690071582794189453e-01 1.452320098876953125e+00 6.063981652259826660e-01 8.863892555236816406e-01
8.590000000000000000e+02 5.598768234252929688e+01 3.533729553222656250e+01 -9.662442207336425781e-01 -2.208099886775016785e-02 -2.964975833892822266e-01 -2.823638916015625000e-01
8.600000000000000000e+02 2.107638359069824219e+01 -1.089426326751708984e+01 4.716169357299804688e+00 3.659632682800292969e+00 2.512740612030029297e+00 5.537160396575927734e+00
8.610000000000000000e+02 2.340358352661132812e+01 -1.048105144500732422e+01 6.281747341156005859e+00 3.414641380310058594e+00 2.908916711807250977e+00 -9.678840637207031250e-01
8.620000000000000000e+02 2.514235305786132812e+01 -1.519046401977539062e+01 -5.557719230651855469e+00 -8.680752515792846680e-01 -1.927738308906555176e+00 2.312893152236938477e+00
8.630000000000000000e+02 2.631015586853027344e+01 -1.579263591766357422e+01 -4.372123241424560547e+00 -5.307214856147766113e-01 -1.470853447914123535e+00 1.639940738677978516e+00
8.640000000000000000e+02 2.809549522399902344e+01 -1.540793991088867188e+01 -3.055563688278198242e+00 1.472354978322982788e-01 -8.724984526634216309e-01 4.345707893371582031e-01
8.650000000000000000e+02 2.997805023193359375e+01 -1.728315734863281250e+01 -2.517276525497436523e+00 -9.619408845901489258e-02 -7.840412259101867676e-01 6.809396743774414062e-01
8.660000000000000000e+02 3.518581390380859375e+01 -1.792996788024902344e+01 -1.238911390304565430e+00 1.576609164476394653e-01 -3.243751525878906250e-01 -3.522359728813171387e-01
8.670000000000000000e+02 3.784929656982421875e+01 -1.804295539855957031e+01 3.126553773880004883e+00 2.430652379989624023e+00 1.667161822319030762e+00 -2.754817724227905273e+00
8.680000000000000000e+02 3.927543258666992188e+01 -1.785141372680664062e+01 2.939255475997924805e+00 5.705078601837158203e+00 2.593300342559814453e+00 -3.849721193313598633e+00
8.690000000000000000e+02 4.143634414672851562e+01 -2.096384239196777344e+01 6.271172046661376953e+00 1.437728118896484375e+01 6.194536209106445312e+00 -7.155103206634521484e+00
8.700000000000000000e+02 4.386137008666992188e+01 -2.341163825988769531e+01 3.244205713272094727e+00 1.138495349884033203e+01 4.388747692108154297e+00 -3.612607717514038086e+00
8.710000000000000000e+02 4.234594726562500000e+01 -2.663492584228515625e+01 -4.852811992168426514e-02 1.313927459716796875e+01 3.927224159240722656e+00 -2.189793884754180908e-01
8.720000000000000000e+02 3.845166778564453125e+01 -3.234032440185546875e+01 -2.441861629486083984e+00 1.634335070848464966e-01 -6.835284233093261719e-01 -3.910073637962341309e-01
8.730000000000000000e+02 3.711923217773437500e+01 -3.271364212036132812e+01 -3.513826131820678711e+00 -2.540248632431030273e-01 -1.130355238914489746e+00 -4.255675077438354492e-01
8.740000000000000000e+02 3.330897521972656250e+01 -3.468365097045898438e+01 -1.999963402748107910e+00 -1.109754592180252075e-01 -6.332816481590270996e-01 -2.298961132764816284e-01
8.750000000000000000e+02 2.984941291809082031e+01 -3.445470046997070312e+01 -1.785075783729553223e+00 3.037087805569171906e-02 -5.264114737510681152e-01 -3.993526846170425415e-02
8.760000000000000000e+02 2.595971107482910156e+01 -3.152038002014160156e+01 -1.597713112831115723e+00 -1.955313608050346375e-02 -4.851798713207244873e-01 1.112175807356834412e-01
8.770000000000000000e+02 2.478317070007324219e+01 -3.128054237365722656e+01 -1.573697328567504883e+00 1.015279069542884827e-02 -4.690633714199066162e-01 1.054737716913223267e-01
8.780000000000000000e+02 2.215594673156738281e+01 -3.155371475219726562e+01 -1.771648049354553223e+00 -4.378780350089073181e-02 -5.446307659149169922e-01 1.170242205262184143e-01
8.790000000000000000e+02 1.924970054626464844e+01 -3.156538009643554688e+01 -2.350588321685791016e+00 -7.320712506771087646e-02 -7.271386384963989258e-01 2.343823611736297607e-01
8.800000000000000000e+02 1.786141777038574219e+01 -3.143243789672851562e+01 -2.837296724319458008e+00 -1.805517822504043579e-01 -9.053545594215393066e-01 4.353916347026824951e-01
8.810000000000000000e+02 9.460444450378417969e+00 -2.683751106262207031e+01 -6.128633618354797363e-01 1.709666371345520020e+00 3.290408849716186523e-01 -1.483112722635269165e-01
8.820000000000000000e+02 8.387728691101074219e+00 -2.361238670349121094e+01 4.607408344745635986e-01 9.360655784606933594e+00 2.946418762207031250e+00 9.521932005882263184e-01
8.830000000000000000e+02 8.893309593200683594e+00 -2.089940071105957031e+01 1.832485795021057129e+00 1.234027004241943359e+01 4.251826763153076172e+00 3.562307834625244141e+00
8.840000000000000000e+02 9.978548049926757812e+00 -1.833146476745605469e+01 2.621598958969116211e+00 9.612648010253906250e+00 3.670274019241333008e+00 4.789092063903808594e+00
8.850000000000000000e+02 9.388300895690917969e+00 -1.529081821441650391e+01 3.037095069885253906e+00 5.258392810821533203e+00 2.488646268844604492e+00 1.899559497833251953e+00
8.860000000000000000e+02 1.399142169952392578e+01 -1.423302841186523438e+01 6.717861175537109375e+00 2.981884479522705078e+00 2.909923553466796875e+00 3.821306467056274414e+00
8.870000000000000000e+02 1.691844558715820312e+01 -6.781824111938476562e+00 2.640265822410583496e-01 -7.547361850738525391e-01 -1.472128778696060181e-01 1.128040075302124023e+00
8.880000000000000000e+02 1.958960342407226562e+01 -1.330658721923828125e+01 -5.976202487945556641e+00 -6.390798687934875488e-01 -1.984584689140319824e+00 2.969107627868652344e+00
8.890000000000000000e+02 1.816939544677734375e+01 -1.324478435516357422e+01 -3.367753922939300537e-01 -2.656732201576232910e-01 -1.807345896959304810e-01 2.170587301254272461e+00
8.900000000000000000e+02 1.967127609252929688e+01 -8.929965019226074219e+00 7.094262599945068359e+00 -2.508377075195312500e+00 1.375765562057495117e+00 1.138904452323913574e+00
8.910000000000000000e+02 1.886162376403808594e+01 -7.867992877960205078e+00 2.438489913940429688e+00 -1.580780148506164551e+00 2.573129236698150635e-01 7.280087471008300781e-01
8.920000000000000000e+02 1.897936630249023438e+01 -8.015505790710449219e+00 2.981733322143554688e+00 -1.723985314369201660e+00 3.773244023323059082e-01 6.442281007766723633e-01
8.930000000000000000e+02 1.948627471923828125e+01 -8.597234725952148438e+00 5.128428936004638672e+00 -2.197606563568115234e+00 8.792466521263122559e-01 4.182271957397460938e-01
8.940000000000000000e+02 1.908181190490722656e+01 -8.215559005737304688e+00 3.755289077758789062e+00 -1.898108243942260742e+00 5.571542978286743164e-01 5.845580697059631348e-01
8.950000000000000000e+02 2.100254440307617188e+01 -1.261081981658935547e+01 -3.581908226013183594e+00 -2.871271669864654541e-01 -1.160710692405700684e+00 3.772893905639648438e+00
8.960000000000000000e+02 2.289674186706542969e+01 -7.657337188720703125e+00 2.130200147628784180e+00 7.402868270874023438e+00 2.859920501708984375e+00 4.773262500762939453e+00
8.970000000000000000e+02 2.052099800109863281e+01 -3.112172603607177734e+00 -1.099658727645874023e+00 8.762800097465515137e-01 -6.701362878084182739e-02 3.780539333820343018e-01
8.980000000000000000e+02 2.127510261535644531e+01 -5.415887355804443359e+00 -1.121180415153503418e+00 1.686327576637268066e+00 1.695441454648971558e-01 3.585678339004516602e-01
8.990000000000000000e+02 2.223720550537109375e+01 -6.830185413360595703e+00 -8.585571050643920898e-01 5.441482067108154297e+00 1.374877452850341797e+00 1.381424784660339355e+00
9.000000000000000000e+02 2.263002014160156250e+01 -7.306371212005615234e+00 3.428605198860168457e-01 7.106771469116210938e+00 2.234889507293701172e+00 3.241107702255249023e+00
9.010000000000000000e+02 2.152820396423339844e+01 -5.824197292327880859e+00 -1.058094739913940430e+00 2.373177051544189453e+00 3.945246934890747070e-01 4.229848980903625488e-01
9.020000000000000000e+02 2.174741554260253906e+01 -6.182774066925048828e+00 -1.050704360008239746e+00 3.173839330673217773e+00 6.369404792785644531e-01 5.427266359329223633e-01
9.030000000000000000e+02 2.198782348632812500e+01 -6.510072708129882812e+00 -1.003124833106994629e+00 4.192791461944580078e+00 9.569000005722045898e-01 8.456766605377197266e-01
9.040000000000000000e+02 2.235998153686523438e+01 -6.991089344024658203e+00 -6.788715720176696777e-01 6.208622932434082031e+00 1.658925533294677734e+00 1.852221846580505371e+00
9.050000000000000000e+02 2.248898887634277344e+01 -7.150078296661376953e+00 -2.009145319461822510e-01 6.795663356781005859e+00 1.978424668312072754e+00 2.655660390853881836e+00
9.060000000000000000e+02 2.141739463806152344e+01 -5.626869678497314453e+00 -1.055614471435546875e+00 2.010777950286865234e+00 2.865490019321441650e-01 4.077295958995819092e-01
9.070000000000000000e+02 2.322728538513183594e+01 -7.404262065887451172e+00 2.134952306747436523e+00 6.218195438385009766e+00 2.505944252014160156e+00 4.506156921386718750e+00
9.080000000000000000e+02 1.732202339172363281e+01 -7.136535644531250000e+00 7.477793097496032715e-01 -9.606324434280395508e-01 -6.385595351457595825e-02 1.082770943641662598e+00
9.090000000000000000e+02 1.643161582946777344e+01 -1.150875854492187500e+01 2.848989486694335938e+00 7.014389038085937500e-01 1.065128564834594727e+00 3.936883211135864258e+00
9.100000000000000000e+02 1.803560447692871094e+01 -7.113730430603027344e+00 7.290461659431457520e-01 -1.222248554229736328e+00 -1.479607075452804565e-01 9.249503612518310547e-01
9.110000000000000000e+02 1.521101760864257812e+01 -1.256184005737304688e+01 3.921977043151855469e+00 2.237879037857055664e+00 1.847956776618957520e+00 2.991809844970703125e+00
9.120000000000000000e+02 1.582260894775390625e+01 -5.181720256805419922e+00 -1.137388110160827637e+00 -4.314792156219482422e-01 -4.706602096557617188e-01 1.093296408653259277e+00
9.130000000000000000e+02 1.604420852661132812e+01 -6.064132213592529297e+00 -4.734291434288024902e-01 -4.036049544811248779e-01 -2.631102204322814941e-01 1.076279282569885254e+00
9.140000000000000000e+02 2.009459686279296875e+01 -4.151547431945800781e+00 -1.282953262329101562e+00 1.817342191934585571e-01 -3.303656876087188721e-01 5.977718234062194824e-01
9.150000000000000000e+02 1.798344230651855469e+01 -2.296486854553222656e+00 -1.415005207061767578e+00 -6.805583834648132324e-01 -6.286690831184387207e-01 8.829522132873535156e-01
9.160000000000000000e+02 1.987424659729003906e+01 -3.243496656417846680e+00 -1.177278518676757812e+00 1.892615407705307007e-01 -2.964051067829132080e-01 5.150590538978576660e-01
9.170000000000000000e+02 2.036476135253906250e+01 -3.610157966613769531e+00 -1.139622807502746582e+00 6.158784627914428711e-01 -1.571233123540878296e-01 4.225091636180877686e-01
9.180000000000000000e+02 1.527122402191162109e+01 -4.781086921691894531e+00 -1.327681422233581543e+00 -2.960161864757537842e-01 -4.871092736721038818e-01 1.012747764587402344e+00
9.190000000000000000e+02 1.554034042358398438e+01 -5.694475173950195312e+00 -7.770267128944396973e-01 -2.404788583517074585e-01 -3.052516579627990723e-01 1.003319382667541504e+00
9.200000000000000000e+02 1.413842964172363281e+01 -4.022382736206054688e+00 -1.547199249267578125e+00 -6.382776051759719849e-02 -4.833080768585205078e-01 8.268711566925048828e-01
9.210000000000000000e+02 1.446503734588623047e+01 -4.977149486541748047e+00 -1.166840910911560059e+00 4.206346347928047180e-02 -3.374332189559936523e-01 8.305484056472778320e-01
9.220000000000000000e+02 1.500910377502441406e+01 -5.329875469207763672e+00 -9.879255294799804688e-01 -9.413652867078781128e-02 -3.246186077594757080e-01 9.396106600761413574e-01
9.230000000000000000e+02 1.390711498260498047e+01 -4.641953945159912109e+00 -1.278853774070739746e+00 1.534284502267837524e-01 -3.376275897026062012e-01 7.378100156784057617e-01
9.240000000000000000e+02 1.332788658142089844e+01 -4.323086261749267578e+00 -1.373751997947692871e+00 2.533591389656066895e-01 -3.361178338527679443e-01 6.018275022506713867e-01
9.250000000000000000e+02 1.161750411987304688e+01 -2.700577974319458008e+00 -1.557273268699645996e+00 2.432316988706588745e-01 -3.942124545574188232e-01 3.425084054470062256e-01
9.260000000000000000e+02 1.272859668731689453e+01 -4.016117572784423828e+00 -1.414183020591735840e+00 3.248868286609649658e-01 -3.267888724803924561e-01 4.919875860214233398e-01
9.270000000000000000e+02 1.292723846435546875e+01 -3.353199720382690430e+00 -1.600601911544799805e+00 1.191101968288421631e-01 -4.444475173950195312e-01 5.884078741073608398e-01
9.280000000000000000e+02 8.842275619506835938e+00 3.646462678909301758e+00 -4.088331460952758789e-01 -4.369409680366516113e-01 -2.537322342395782471e-01 7.107833027839660645e-01
9.290000000000000000e+02 8.309456825256347656e+00 2.711589574813842773e+00 -5.716726779937744141e-01 -3.166532516479492188e-01 -2.664977908134460449e-01 6.340853571891784668e-01
9.300000000000000000e+02 1.767906904220581055e+00 7.924014091491699219e+00 -1.803691615350544453e-03 -5.765618681907653809e-01 -1.735096722841262817e-01 2.235175520181655884e-01
9.310000000000000000e+02 5.489599227905273438e+00 1.856015086174011230e+00 -3.586615622043609619e-01 -7.588692754507064819e-02 -1.303645521402359009e-01 2.699480056762695312e-01
9.320000000000000000e+02 9.068700790405273438e+00 2.820522546768188477e+00 -6.097775101661682129e-01 -4.063408672809600830e-01 -3.048355281352996826e-01 6.899023652076721191e-01
9.330000000000000000e+02 7.681011676788330078e+00 1.884388804435729980e+00 -6.764721870422363281e-01 -1.378875225782394409e-01 -2.443079203367233276e-01 4.584610462188720703e-01
9.340000000000000000e+02 6.855011940002441406e+00 2.601912260055541992e+00 -4.743943512439727783e-01 -1.698812097311019897e-01 -1.932826638221740723e-01 4.705576002597808838e-01
9.350000000000000000e+02 8.133350372314453125e+00 3.480804920196533203e+00 -4.421633183956146240e-01 -3.492205440998077393e-01 -2.374151498079299927e-01 6.561530232429504395e-01
9.360000000000000000e+02 1.888261914253234863e+00 4.107576370239257812e+00 -4.690717905759811401e-02 -1.985176801681518555e-01 -7.362745702266693115e-02 1.616127043962478638e-01
9.370000000000000000e+02 4.675112724304199219e+00 3.341892004013061523e+00 -2.235075086355209351e-01 -1.754364073276519775e-01 -1.196831762790679932e-01 3.421640992164611816e-01
9.380000000000000000e+02 1.345407485961914062e+00 3.274352550506591797e+00 -3.494869172573089600e-02 -1.237613558769226074e-01 -4.761301726102828979e-02 9.149568527936935425e-02
9.390000000000000000e+02 2.611549377441406250e+00 1.905303359031677246e+00 -9.697066992521286011e-02 -6.097106635570526123e-02 -4.738251864910125732e-02 1.000345125794410706e-01
9.400000000000000000e+02 2.054240703582763672e+00 2.894191503524780273e+00 -7.297975569963455200e-02 -1.125819459557533264e-01 -5.566851049661636353e-02 1.249826774001121521e-01
9.410000000000000000e+02 2.174680328369140625e+01 -1.076842689514160156e+01 4.510483741760253906e+00 5.905278205871582031e+00 3.124728679656982422e+00 4.077011108398437500e+00
9.420000000000000000e+02 2.070260238647460938e+01 -1.024562072753906250e+01 8.547700881958007812e+00 1.421556949615478516e+00 2.990777254104614258e+00 6.457332611083984375e+00
9.430000000000000000e+02 2.417800140380859375e+01 -9.737119674682617188e+00 7.399077892303466797e+00 1.128615856170654297e+00 2.558308124542236328e+00 4.511617124080657959e-01
9.440000000000000000e+02 2.365563583374023438e+01 -8.464556694030761719e+00 8.139600753784179688e+00 3.606899738311767578e+00 3.523950099945068359e+00 5.022441864013671875e+00
9.450000000000000000e+02 2.352307891845703125e+01 -9.103074073791503906e+00 1.058479785919189453e+01 2.745197534561157227e+00 3.998998641967773438e+00 2.699334621429443359e+00
9.460000000000000000e+02 2.204400825500488281e+01 -1.293742752075195312e+01 -5.218943595886230469e+00 5.498809814453125000e-01 -1.400718688964843750e+00 1.847300171852111816e+00
9.470000000000000000e+02 2.384021568298339844e+01 -1.202327728271484375e+01 -3.211389482021331787e-01 1.116200804710388184e+00 2.385185807943344116e-01 -1.207207918167114258e+00
9.480000000000000000e+02 2.317726135253906250e+01 -7.650559425354003906e+00 3.312787294387817383e+00 6.617304325103759766e+00 2.979027509689331055e+00 5.484433174133300781e+00
9.490000000000000000e+02 2.363462829589843750e+01 -7.993531227111816406e+00 5.172648429870605469e+00 4.416962146759033203e+00 2.876883268356323242e+00 4.712210655212402344e+00
9.500000000000000000e+02 1.665765953063964844e+01 3.255477547645568848e-01 -9.078821539878845215e-01 -4.784615337848663330e-01 -4.159030914306640625e-01 6.047923564910888672e-01
9.510000000000000000e+02 1.241619300842285156e+01 1.017014384269714355e+00 -1.304070353507995605e+00 -6.501845717430114746e-01 -5.862764716148376465e-01 8.367239832878112793e-01
9.520000000000000000e+02 1.462867259979248047e+01 -8.180854469537734985e-02 -1.441639542579650879e+00 -7.713644504547119141e-01 -6.639012098312377930e-01 9.561047554016113281e-01
9.530000000000000000e+02 1.532677364349365234e+01 -4.772099554538726807e-01 -1.459173679351806641e+00 -7.989688515663146973e-01 -6.774427294731140137e-01 9.611082077026367188e-01
9.540000000000000000e+02 1.773774147033691406e+01 -1.219180464744567871e+00 -1.171707272529602051e+00 -4.736285805702209473e-01 -4.936007559299468994e-01 6.806944608688354492e-01
9.550000000000000000e+02 1.836419105529785156e+01 -1.741116285324096680e+00 -1.189627647399902344e+00 -3.492437303066253662e-01 -4.616613984107971191e-01 6.438537836074829102e-01
9.560000000000000000e+02 1.942106246948242188e+01 -2.797693967819213867e+00 -1.197424530982971191e+00 -4.169899970293045044e-03 -3.604783415794372559e-01 5.555129647254943848e-01
9.570000000000000000e+02 1.065889644622802734e+01 -3.939681768417358398e+00 -1.262424230575561523e+00 6.221529841423034668e-01 -1.920813769102096558e-01 1.247362699359655380e-02
9.580000000000000000e+02 6.118956089019775391e+00 -1.905743598937988281e+00 -8.227915167808532715e-01 6.576975435018539429e-02 -2.271065264940261841e-01 -3.878645598888397217e-01
9.590000000000000000e+02 7.019045352935791016e+00 -2.715263605117797852e+00 -9.050545692443847656e-01 2.079531550407409668e-01 -2.091304212808609009e-01 -4.403936266899108887e-01
9.600000000000000000e+02 4.514728546142578125e+00 -1.928019762039184570e+00 -5.454667806625366211e-01 -2.656402438879013062e-02 -1.716092377901077271e-01 -4.300463795661926270e-01
9.610000000000000000e+02 6.234359741210937500e+00 -2.728114366531372070e+00 -7.899180650711059570e-01 1.365928351879119873e-01 -1.959975659847259521e-01 -5.237915515899658203e-01
9.620000000000000000e+02 7.797123908996582031e+00 -2.724289417266845703e+00 -1.032563567161560059e+00 3.017858266830444336e-01 -2.192333191633224487e-01 -3.423567414283752441e-01
9.630000000000000000e+02 4.822049617767333984e+00 -3.670636415481567383e+00 -4.991984963417053223e-01 -2.647081762552261353e-02 -1.577007919549942017e-01 -7.091588973999023438e-01
9.640000000000000000e+02 1.646710634231567383e+00 -9.270893096923828125e+00 -1.199842616915702820e-02 -2.013645172119140625e+00 -6.076930761337280273e-01 -7.421265840530395508e-01
9.650000000000000000e+02 5.173693895339965820e-01 -6.491168498992919922e+00 -6.240495014935731888e-03 -1.399537801742553711e+00 -4.217334687709808350e-01 -2.100586742162704468e-01
9.660000000000000000e+02 5.527911782264709473e-01 -5.067825794219970703e+00 -5.541139282286167145e-03 -8.348947763442993164e-01 -2.521307766437530518e-01 -1.903036385774612427e-01
9.670000000000000000e+02 5.173727273941040039e-01 -3.614488124847412109e+00 -3.449979797005653381e-02 -4.297016561031341553e-01 -1.392604410648345947e-01 -1.389200836420059204e-01
9.680000000000000000e+02 1.203096580505371094e+01 2.073451042175292969e+00 -8.477300405502319336e-01 -6.534019708633422852e-01 -4.503396153450012207e-01 7.522538304328918457e-01
9.690000000000000000e+02 1.348850631713867188e+01 1.281383275985717773e+00 -1.049575567245483398e+00 -6.860702037811279297e-01 -5.206937193870544434e-01 7.914971113204956055e-01
9.700000000000000000e+02 1.422036266326904297e+01 9.131462574005126953e-01 -1.084777116775512695e+00 -7.029407620429992676e-01 -5.363153815269470215e-01 8.047208786010742188e-01
9.710000000000000000e+02 1.084692859649658203e+01 -2.392726898193359375e+00 -1.488786816596984863e+00 2.836318612098693848e-01 -3.615464866161346436e-01 2.139868587255477905e-01
9.720000000000000000e+02 9.294382095336914062e+00 -2.836236476898193359e+00 -1.249549508094787598e+00 4.416653811931610107e-01 -2.423652559518814087e-01 -1.265565305948257446e-01
9.730000000000000000e+02 1.120293712615966797e+01 -4.858420848846435547e+00 -1.101328611373901367e+00 7.839412689208984375e-01 -9.521619230508804321e-02 7.413256913423538208e-02
9.740000000000000000e+02 1.074142551422119141e+01 -3.174674749374389648e+00 -1.396902918815612793e+00 4.658301770687103271e-01 -2.793218195438385010e-01 9.286116063594818115e-02
9.750000000000000000e+02 5.559059524536132812e+01 -3.070661735534667969e+01 1.582983493804931641e+00 1.025649070739746094e+01 3.551842212677001953e+00 -1.446106195449829102e+00
9.760000000000000000e+02 6.949272918701171875e+01 -2.177945899963378906e+01 -1.583254694938659668e+00 1.379422068595886230e+00 -6.114976480603218079e-02 -6.161370873451232910e-01
9.770000000000000000e+02 6.554145050048828125e+01 -2.089359855651855469e+01 -1.578436374664306641e+00 7.248408794403076172e-01 -2.560786306858062744e-01 8.088459372520446777e-01
9.780000000000000000e+02 6.176349639892578125e+01 -2.310779380798339844e+01 1.536671757698059082e+00 8.679303526878356934e-01 7.213806509971618652e-01 1.372096776962280273e+00
9.790000000000000000e+02 5.991537475585937500e+01 -2.292110633850097656e+01 1.450751900672912598e+00 1.337811470031738281e+00 8.365690112113952637e-01 1.587985396385192871e+00
9.800000000000000000e+02 5.650505447387695312e+01 -2.740824317932128906e+01 1.441259860992431641e+00 4.908373355865478516e+00 1.904889941215515137e+00 1.646792531013488770e+00
9.810000000000000000e+02 5.365034866333007812e+01 -2.860201644897460938e+01 1.597030997276306152e+00 6.301865577697753906e+00 2.369668960571289062e+00 -1.429030776023864746e+00
9.820000000000000000e+02 7.106712341308593750e+01 -2.284404373168945312e+01 5.570692420005798340e-01 6.440828800201416016e+00 2.099369525909423828e+00 -2.081626892089843750e+00
9.830000000000000000e+02 7.170629882812500000e+01 -2.389313316345214844e+01 1.228251338005065918e+00 1.091459465026855469e+01 3.642853736877441406e+00 -1.744190335273742676e+00
9.840000000000000000e+02 7.822919464111328125e+01 -2.235113906860351562e+01 -7.626046426594257355e-03 7.223124980926513672e+00 2.164649724960327148e+00 5.984625220298767090e-01
9.850000000000000000e+02 7.186865997314453125e+01 -2.982670974731445312e+01 1.010411381721496582e+00 9.198611259460449219e+00 3.062706708908081055e+00 1.558006882667541504e+00
9.860000000000000000e+02 5.881283187866210938e+01 -2.374950218200683594e+01 1.989766240119934082e+00 1.564185976982116699e+00 1.066185712814331055e+00 1.548266768455505371e+00
9.870000000000000000e+02 7.172389984130859375e+01 -2.720122146606445312e+01 2.864456772804260254e-01 1.321132564544677734e+01 4.049331665039062500e+00 1.085808396339416504e+00
9.880000000000000000e+02 7.308578491210937500e+01 -2.655624008178710938e+01 1.314951419830322266e+00 1.002044391632080078e+01 3.400618791580200195e+00 1.654845327138900757e-01
9.890000000000000000e+02 6.793905639648437500e+01 -3.292086410522460938e+01 -1.341423094272613525e-01 6.515462398529052734e-01 1.552211791276931763e-01 3.989296853542327881e-01
9.900000000000000000e+02 7.054874420166015625e+01 -3.253230285644531250e+01 -2.257892638444900513e-01 5.291450500488281250e+00 1.519698381423950195e+00 1.430489182472229004e+00
9.910000000000000000e+02 5.559585952758789062e+01 -2.611931991577148438e+01 1.426652789115905762e+00 4.181173801422119141e+00 1.682347893714904785e+00 4.351215064525604248e-01
9.920000000000000000e+02 7.154734039306640625e+01 -2.101948738098144531e+01 -1.677911281585693359e+00 6.712027549743652344e+00 1.510234832763671875e+00 -1.386462092399597168e+00
9.930000000000000000e+02 7.261795043945312500e+01 -2.839005279541015625e+01 1.254270315170288086e+00 9.596514701843261719e+00 3.255235433578491211e+00 5.932759046554565430e-01
9.940000000000000000e+02 5.772574996948242188e+01 -2.456429481506347656e+01 2.073491334915161133e+00 1.833123803138732910e+00 1.171984553337097168e+00 1.559849500656127930e+00
9.950000000000000000e+02 6.846431732177734375e+01 -3.373170471191406250e+01 -3.632945120334625244e-01 1.867118716239929199e+00 4.511472582817077637e-01 8.438065052032470703e-01
9.960000000000000000e+02 6.767557525634765625e+01 -3.449255371093750000e+01 -5.878243446350097656e-01 1.220408916473388672e+00 1.897753626108169556e-01 7.435734868049621582e-01
9.970000000000000000e+02 5.665081405639648438e+01 -2.536111450195312500e+01 1.742031455039978027e+00 3.173352718353271484e+00 1.474615216255187988e+00 1.368621706962585449e+00
9.980000000000000000e+02 6.023915481567382812e+01 -3.810740661621093750e+01 3.259363770484924316e-01 1.652167797088623047e+00 5.934312939643859863e-01 -1.141129374504089355e+00
9.990000000000000000e+02 6.466513061523437500e+01 -3.973662567138671875e+01 8.915189504623413086e-01 8.778747320175170898e-01 5.308181047439575195e-01 1.932450756430625916e-02
1.000000000000000000e+03 7.565695953369140625e+01 -2.891755294799804688e+01 5.970316529273986816e-01 7.585979938507080078e+00 2.454903364181518555e+00 -4.016272723674774170e-01
1.001000000000000000e+03 7.260791778564453125e+01 -2.482320594787597656e+01 1.256871104240417480e+00 1.089581680297851562e+01 3.645806312561035156e+00 -3.233761191368103027e-01
1.002000000000000000e+03 5.787165832519531250e+01 -2.034693527221679688e+01 1.411205716431140900e-02 7.730472683906555176e-01 2.361478060483932495e-01 1.842024326324462891e+00
1.003000000000000000e+03 6.129472351074218750e+01 -1.592346572875976562e+01 1.427407413721084595e-01 1.392604231834411621e+00 4.606034755706787109e-01 1.263607025146484375e+00
1.004000000000000000e+03 7.156005096435546875e+01 -3.190551948547363281e+01 -4.819121062755584717e-01 6.811397075653076172e+00 1.898845553398132324e+00 7.237493395805358887e-01
1.005000000000000000e+03 4.564510345458984375e+01 -3.007833290100097656e+01 6.478981375694274902e-01 7.476242065429687500e+00 2.437242031097412109e+00 -1.654459714889526367e+00
1.006000000000000000e+03 4.530747222900390625e+01 -2.877353286743164062e+01 1.038152694702148438e+00 8.397399902343750000e+00 2.830665826797485352e+00 -1.597855091094970703e+00
1.007000000000000000e+03 7.923190116882324219e+00 -2.713497352600097656e+01 -1.632705926895141602e+00 3.933524370193481445e+00 6.902455687522888184e-01 1.771600246429443359e+00
1.008000000000000000e+03 1.188445949554443359e+01 -3.087211418151855469e+01 -2.242663145065307617e+00 -3.007283508777618408e-01 -7.630174756050109863e-01 6.495720744132995605e-01
1.009000000000000000e+03 1.507361793518066406e+01 -3.090413665771484375e+01 -3.409457445144653320e+00 -4.714089930057525635e-01 -1.164259910583496094e+00 1.064349055290222168e+00
1.010000000000000000e+03 3.619909286499023438e+01 -3.418360519409179688e+01 -2.187576770782470703e+00 -2.962495684623718262e-01 -7.451479434967041016e-01 4.922669753432273865e-02
1.011000000000000000e+03 4.117351150512695312e+01 -1.847825813293457031e+01 1.900565981864929199e+00 8.836729049682617188e+00 3.221188545227050781e+00 -4.068907737731933594e+00
1.012000000000000000e+03 3.253364944458007812e+01 -1.783950233459472656e+01 -2.066185951232910156e+00 1.013793274760246277e-01 -5.894419550895690918e-01 1.134519726037979126e-01
1.013000000000000000e+03 3.075950050354003906e+01 -1.526271438598632812e+01 -1.641223073005676270e+00 5.912846326828002930e-01 -3.149815499782562256e-01 -3.611815273761749268e-01
1.014000000000000000e+03 4.079703903198242188e+01 -1.734417343139648438e+01 9.002074003219604492e-01 8.122497558593750000e+00 2.706811666488647461e+00 -3.521379947662353516e+00
1.015000000000000000e+03 7.466407775878906250e+00 -2.196098899841308594e+01 1.712197065353393555e+00 7.500631332397460938e+00 2.763848543167114258e+00 2.320538043975830078e+00
1.016000000000000000e+03 4.229944992065429688e+01 -2.531577110290527344e+01 4.454521834850311279e-01 1.429900550842285156e+01 4.423337459564208984e+00 -7.237412929534912109e-01
1.017000000000000000e+03 4.239101028442382812e+01 -2.798836898803710938e+01 7.904441356658935547e-01 1.306598091125488281e+01 4.156927585601806641e+00 6.563270092010498047e-01
1.018000000000000000e+03 4.167959594726562500e+01 -3.449813079833984375e+01 -1.768151760101318359e+00 4.391659259796142578e+00 7.870522737503051758e-01 6.482362151145935059e-01
1.019000000000000000e+03 3.881831741333007812e+01 -3.347005081176757812e+01 -1.797539591789245605e+00 8.460443019866943359e-01 -2.854486107826232910e-01 6.582840681076049805e-01
1.020000000000000000e+03 2.274001884460449219e+01 -3.306507873535156250e+01 -1.701024651527404785e+00 -5.984593182802200317e-02 -5.282611846923828125e-01 2.165707945823669434e-01
1.021000000000000000e+03 2.390419960021972656e+01 -3.382046127319335938e+01 -1.627200365066528320e+00 -6.109191104769706726e-02 -5.064876675605773926e-01 1.645447015762329102e-01
1.022000000000000000e+03 2.216313934326171875e+01 -1.390034294128417969e+01 -1.135320377349853516e+01 -1.055102586746215820e+00 -3.722491741180419922e+00 3.392436981201171875e+00
1.023000000000000000e+03 4.290008163452148438e+01 -3.258255767822265625e+01 -1.430387139320373535e+00 6.190060138702392578e+00 1.427901983261108398e+00 3.726128861308097839e-02
1.024000000000000000e+03 4.242468643188476562e+01 -3.082364654541015625e+01 4.993891716003417969e-02 7.205946445465087891e+00 2.176765680313110352e+00 7.813800573348999023e-01
1.025000000000000000e+03 7.142137527465820312e+00 -1.888038825988769531e+01 2.128720760345458984e+00 5.447334289550781250e+00 2.272816419601440430e+00 1.943655133247375488e+00
1.026000000000000000e+03 8.846284866333007812e+00 -1.795049095153808594e+01 2.638231992721557617e+00 7.784305572509765625e+00 3.126761198043823242e+00 3.525858163833618164e+00
1.027000000000000000e+03 2.402643585205078125e+01 -1.455875205993652344e+01 -8.298904418945312500e+00 -1.251129150390625000e+00 -2.865010261535644531e+00 2.827596426010131836e+00
1.028000000000000000e+03 2.472051239013671875e+01 -1.241173553466796875e+01 -1.484647989273071289e+00 1.032761454582214355e+00 -1.355659663677215576e-01 -1.423682570457458496e+00
1.029000000000000000e+03 3.751504898071289062e+01 -3.382278060913085938e+01 -2.100385189056396484e+00 1.905049830675125122e-01 -5.729640722274780273e-01 2.265569567680358887e-01
1.030000000000000000e+03 1.789917755126953125e+01 -3.442377090454101562e+01 -1.610423803329467773e+00 -4.487768113613128662e-01 -6.177601814270019531e-01 5.902240872383117676e-01
1.031000000000000000e+03 1.973057937622070312e+01 -1.231746482849121094e+01 -4.167341589927673340e-01 -9.633114933967590332e-01 -4.140136837959289551e-01 5.066596508026123047e+00
1.032000000000000000e+03 2.069782638549804688e+01 -3.169341850280761719e+01 -2.042579650878906250e+00 -2.409207075834274292e-02 -6.200014948844909668e-01 1.652556359767913818e-01
1.033000000000000000e+03 4.342299652099609375e+01 -2.434788131713867188e+01 1.734581232070922852e+00 1.376633453369140625e+01 4.650274753570556641e+00 -3.230299949645996094e+00
1.034000000000000000e+03 3.013827323913574219e+01 -3.233456802368164062e+01 -1.841544032096862793e+00 1.496217027306556702e-02 -5.479745268821716309e-01 1.661589443683624268e-01
1.035000000000000000e+03 3.165221786499023438e+01 -3.475736999511718750e+01 -1.918445587158203125e+00 -7.412929087877273560e-03 -5.777575373649597168e-01 -1.434934139251708984e-01
1.036000000000000000e+03 3.478025817871093750e+01 -3.446012496948242188e+01 -2.109205484390258789e+00 -1.536930948495864868e-01 -6.788696050643920898e-01 -1.162076517939567566e-01
1.037000000000000000e+03 2.114502143859863281e+01 -1.170402145385742188e+01 7.643303275108337402e-01 2.003707408905029297e+00 8.304113149642944336e-01 4.323569297790527344e+00
1.038000000000000000e+03 1.471980094909667969e+01 -3.233852767944335938e+01 -2.205091238021850586e+00 -6.582569479942321777e-01 -8.590044379234313965e-01 8.111587762832641602e-01
1.039000000000000000e+03 2.698909759521484375e+01 -3.364899063110351562e+01 -1.619549393653869629e+00 -3.567932173609733582e-02 -4.965686202049255371e-01 8.558423072099685669e-02
1.040000000000000000e+03 1.323017787933349609e+01 -3.168757629394531250e+01 -2.223656177520751953e+00 -5.717646479606628418e-01 -8.386262655258178711e-01 7.702683806419372559e-01
1.041000000000000000e+03 2.751908874511718750e+01 -1.632206726074218750e+01 -3.743414878845214844e+00 -4.321078062057495117e-01 -1.252656817436218262e+00 1.271756410598754883e+00
1.042000000000000000e+03 2.199837875366210938e+01 -1.163718605041503906e+01 2.791326642036437988e-01 2.815727949142456055e+00 9.284582138061523438e-01 2.003278493881225586e+00
1.043000000000000000e+03 3.517329025268554688e+01 -1.686920928955078125e+01 -2.413811236619949341e-01 4.559221863746643066e-01 6.436231732368469238e-02 -1.039182901382446289e+00
1.044000000000000000e+03 3.653384780883789062e+01 -1.794002342224121094e+01 3.367959260940551758e-01 2.829638421535491943e-01 1.859279274940490723e-01 -8.510292172431945801e-01
1.045000000000000000e+03 3.385181808471679688e+01 -1.791365242004394531e+01 -1.881871819496154785e+00 4.863876476883888245e-02 -5.499699115753173828e-01 -9.605087339878082275e-02
1.046000000000000000e+03 2.698180007934570312e+01 -1.491060161590576172e+01 -3.649605751037597656e+00 1.874738782644271851e-01 -1.038639545440673828e+00 6.001878976821899414e-01
1.047000000000000000e+03 3.153206062316894531e+01 -1.656929588317871094e+01 -1.846207380294799805e+00 3.599006533622741699e-01 -4.458920359611511230e-01 5.979547277092933655e-04
1.048000000000000000e+03 2.727332878112792969e+01 -3.185694122314453125e+01 -1.675738811492919922e+00 -2.981746802106499672e-03 -5.036161541938781738e-01 1.167705506086349487e-01
1.049000000000000000e+03 7.831999778747558594e+00 -2.506878662109375000e+01 3.567433655261993408e-01 6.506739139556884766e+00 2.059044599533081055e+00 1.288224816322326660e+00
1.050000000000000000e+03 2.834459114074707031e+01 -3.388159942626953125e+01 -1.672613024711608887e+00 1.286460179835557938e-02 -4.979245364665985107e-01 2.629871666431427002e-02
1.051000000000000000e+03 8.091627120971679688e+00 -2.914006614685058594e+01 -1.915732502937316895e+00 2.655676126480102539e+00 2.219830602407455444e-01 1.240015387535095215e+00
1.052000000000000000e+03 8.783091545104980469e+00 -2.797934150695800781e+01 -1.776535034179687500e+00 3.150064706802368164e+00 4.120588898658752441e-01 7.208827137947082520e-01
1.053000000000000000e+03 4.351718521118164062e+01 -2.650622558593750000e+01 9.153249859809875488e-01 1.224815940856933594e+01 3.949045181274414062e+00 -1.141484498977661133e+00
1.054000000000000000e+03 2.511150741577148438e+01 -3.239559555053710938e+01 -1.638673424720764160e+00 3.629071870818734169e-03 -4.905133247375488281e-01 1.095101684331893921e-01
1.055000000000000000e+03 4.156578445434570312e+01 -1.944613456726074219e+01 2.586355686187744141e+00 1.180115890502929688e+01 4.316254615783691406e+00 -4.618381500244140625e+00
1.056000000000000000e+03 4.332123947143554688e+01 -2.534423446655273438e+01 5.579639077186584473e-01 1.344559574127197266e+01 4.201067924499511719e+00 -1.786662578582763672e+00
1.057000000000000000e+03 2.064422225952148438e+01 -3.552967453002929688e+01 -1.446604371070861816e+00 -3.482870161533355713e-01 -5.384674072265625000e-01 3.970540463924407959e-01
1.058000000000000000e+03 1.897276496887207031e+01 -3.331659698486328125e+01 -1.910908579826354980e+00 -2.711297571659088135e-01 -6.546115279197692871e-01 5.636180639266967773e-01
1.059000000000000000e+03 5.627936172485351562e+01 3.844347381591796875e+01 -4.552116394042968750e-01 -2.222776599228382111e-02 -1.432318240404129028e-01 2.659595608711242676e-01
1.060000000000000000e+03 6.304607009887695312e+01 4.134064483642578125e+01 3.021102845668792725e-01 -1.864264756441116333e-01 3.470514714717864990e-02 4.457101225852966309e-02
1.061000000000000000e+03 5.709478378295898438e+01 -2.352217483520507812e+01 1.671364903450012207e+00 2.002127170562744141e+00 1.102047562599182129e+00 1.175262212753295898e+00
1.062000000000000000e+03 5.865566253662109375e+01 -1.762122535705566406e+01 -1.680402636528015137e+00 6.917501688003540039e-01 -2.965957522392272949e-01 1.660630822181701660e+00
1.063000000000000000e+03 5.362411117553710938e+01 3.848503112792968750e+01 -5.302571058273315430e-01 7.004976272583007812e-01 5.107214674353599548e-02 3.269566893577575684e-01
1.064000000000000000e+03 5.579166412353515625e+01 3.664495086669921875e+01 -9.420413970947265625e-01 1.574663817882537842e-01 -2.353725135326385498e-01 2.314372062683105469e-01
1.065000000000000000e+03 6.444779968261718750e+01 3.545277404785156250e+01 -1.132303714752197266e+00 -5.329601168632507324e-01 -4.995791614055633545e-01 5.474157929420471191e-01
1.066000000000000000e+03 6.067756652832031250e+01 -1.507209205627441406e+01 8.327032327651977539e-01 8.486409187316894531e-01 5.044032335281372070e-01 9.986292123794555664e-01
1.067000000000000000e+03 4.123030090332031250e+01 1.024111652374267578e+01 1.872057557106018066e+00 1.105064105987548828e+01 3.876809597015380859e+00 -1.325026631355285645e+00
1.068000000000000000e+03 4.227836227416992188e+01 1.331007003784179688e+01 2.634083032608032227e-01 1.234998607635498047e+01 3.784018278121948242e+00 4.542430937290191650e-01
1.069000000000000000e+03 7.116800689697265625e+01 2.949284172058105469e+01 -3.658864498138427734e-01 5.970851898193359375e+00 1.681489706039428711e+00 4.153307676315307617e-01
1.070000000000000000e+03 6.690607452392578125e+01 3.433142852783203125e+01 -1.138653397560119629e+00 1.163848638534545898e+00 7.558597717434167862e-03 5.441031977534294128e-02
1.071000000000000000e+03 4.032539367675781250e+01 1.938999176025390625e+01 8.090404272079467773e-01 8.074572563171386719e+00 2.665083885192871094e+00 6.673007011413574219e-01
1.072000000000000000e+03 4.122406005859375000e+01 1.624169731140136719e+01 8.438866138458251953e-01 9.875520706176757812e+00 3.215822219848632812e+00 8.066192865371704102e-01
1.073000000000000000e+03 7.021410369873046875e+01 6.135246753692626953e+00 2.111947536468505859e-01 1.335891532897949219e+01 4.071033000946044922e+00 -1.007105410099029541e-01
1.074000000000000000e+03 7.416302490234375000e+01 8.896805763244628906e+00 -5.414253100752830505e-02 8.913713455200195312e+00 2.657871246337890625e+00 8.960554599761962891e-01
1.075000000000000000e+03 7.785918426513671875e+01 -3.488328170776367188e+01 -1.327609121799468994e-01 7.475472927093505859e+00 2.202813625335693359e+00 -3.642292618751525879e-01
1.076000000000000000e+03 7.537461090087890625e+01 -2.176274871826171875e+01 -3.784736692905426025e-01 7.662354946136474609e+00 2.185164451599121094e+00 6.713274121284484863e-01
1.077000000000000000e+03 7.938682556152343750e+01 -2.509902572631835938e+01 2.075443603098392487e-02 6.081487178802490234e+00 1.830672502517700195e+00 1.628126800060272217e-01
1.078000000000000000e+03 7.815765380859375000e+01 -2.374670600891113281e+01 1.002415791153907776e-01 6.910970211029052734e+00 2.103363513946533203e+00 5.827274322509765625e-01
1.079000000000000000e+03 7.811328125000000000e+01 -3.072100639343261719e+01 8.247672766447067261e-02 6.929760932922363281e+00 2.103671312332153320e+00 -5.208941102027893066e-01
1.080000000000000000e+03 7.937066650390625000e+01 -3.207115936279296875e+01 4.718417301774024963e-02 7.033988475799560547e+00 2.124351739883422852e+00 -2.261927276849746704e-01
1.081000000000000000e+03 7.813836669921875000e+01 -3.210332870483398438e+01 -3.243609890341758728e-02 7.170523166656494141e+00 2.141426086425781250e+00 -5.506169795989990234e-01
1.082000000000000000e+03 7.616365051269531250e+01 -3.634696960449218750e+01 -2.947289347648620605e-01 7.124297618865966797e+00 2.048870563507080078e+00 -2.345218807458877563e-01
1.083000000000000000e+03 7.752449035644531250e+01 -3.795851516723632812e+01 -2.038463652133941650e-01 7.768602848052978516e+00 2.269427061080932617e+00 -1.826020479202270508e-01
1.084000000000000000e+03 7.576749420166015625e+01 -4.037064361572265625e+01 -3.852156177163124084e-02 6.964219570159912109e+00 2.077709436416625977e+00 -1.636560261249542236e-01
1.085000000000000000e+03 7.902613830566406250e+01 -4.023238754272460938e+01 -2.177857160568237305e-01 7.937053203582763672e+00 2.315780162811279297e+00 1.275380104780197144e-01
1.086000000000000000e+03 7.823953247070312500e+01 1.659300231933593750e+01 4.243839997798204422e-03 7.769142627716064453e+00 2.332015991210937500e+00 3.213812410831451416e-01
1.087000000000000000e+03 7.790412139892578125e+01 3.336157608032226562e+01 -7.548738270998001099e-02 1.041541957855224609e+01 3.101979494094848633e+00 2.641217410564422607e-01
1.088000000000000000e+03 7.815219879150390625e+01 2.914323425292968750e+01 -3.100994601845741272e-02 9.940214157104492188e+00 2.972761154174804688e+00 4.919700324535369873e-01
1.089000000000000000e+03 7.940271759033203125e+01 2.783279037475585938e+01 -6.360990460962057114e-03 1.026101589202880859e+01 3.076396465301513672e+00 2.098664492368698120e-01
1.090000000000000000e+03 7.829159545898437500e+01 2.635969734191894531e+01 8.054414764046669006e-03 9.444147109985351562e+00 2.835660457611083984e+00 4.856934845447540283e-01
1.091000000000000000e+03 7.832222747802734375e+01 2.497919082641601562e+01 1.786408200860023499e-02 9.167832374572753906e+00 2.755708932876586914e+00 4.740552902221679688e-01
1.092000000000000000e+03 7.943222045898437500e+01 2.504710769653320312e+01 3.335193032398819923e-03 9.446588516235351562e+00 2.834977149963378906e+00 1.958959251642227173e-01
1.093000000000000000e+03 7.707046508789062500e+01 1.648071670532226562e+01 5.934488959610462189e-03 7.960720539093017578e+00 2.389996528625488281e+00 4.746196866035461426e-01
1.094000000000000000e+03 7.941050720214843750e+01 1.807550621032714844e+01 7.798213628120720387e-04 7.836633682250976562e+00 2.351224184036254883e+00 1.396799385547637939e-01
1.095000000000000000e+03 7.823431396484375000e+01 1.798701477050781250e+01 1.414681691676378250e-02 7.967218875885009766e+00 2.394409656524658203e+00 3.398218154907226562e-01
1.096000000000000000e+03 7.824263000488281250e+01 1.520617485046386719e+01 -1.111860945820808411e-02 7.568040847778320312e+00 2.267076730728149414e+00 3.389583528041839600e-01
1.097000000000000000e+03 7.466805267333984375e+01 7.903011322021484375e+00 4.943270981311798096e-02 8.528220176696777344e+00 2.573295831680297852e+00 8.501642346382141113e-01
1.098000000000000000e+03 7.823802185058593750e+01 1.102675056457519531e+01 -1.304719131439924240e-02 6.894935607910156250e+00 2.064566612243652344e+00 4.421589374542236328e-01
1.099000000000000000e+03 7.701831817626953125e+01 8.135716438293457031e+00 -6.754648406058549881e-03 7.100389957427978516e+00 2.128090620040893555e+00 6.707653999328613281e-01
1.100000000000000000e+03 7.940489959716796875e+01 -1.952439308166503906e+01 -2.057225070893764496e-02 7.906629562377929688e+00 2.365817070007324219e+00 1.179792061448097229e-01
1.101000000000000000e+03 7.825415802001953125e+01 -2.095611381530761719e+01 -1.455610245466232300e-01 7.476859092712402344e+00 2.199389457702636719e+00 4.862091541290283203e-01
1.102000000000000000e+03 7.811952972412109375e+01 -1.400249290466308594e+01 -6.062756478786468506e-02 7.406641006469726562e+00 2.203804016113281250e+00 -3.063622415065765381e-01
1.103000000000000000e+03 7.821736907958984375e+01 -7.055785655975341797e+00 -6.533076521009206772e-03 6.344405174255371094e+00 1.901361584663391113e+00 -4.311828315258026123e-01
1.104000000000000000e+03 7.812901306152343750e+01 1.186381340026855469e+00 1.216736584901809692e-01 5.526566028594970703e+00 1.694471836090087891e+00 -2.920448780059814453e-02
1.105000000000000000e+03 7.937740325927734375e+01 2.922963905334472656e+01 8.081085048615932465e-03 1.066008949279785156e+01 3.200451135635375977e+00 2.110004723072052002e-01
1.106000000000000000e+03 7.802803802490234375e+01 4.167289733886718750e+01 3.479150235652923584e-01 1.077072811126708984e+01 3.335592985153198242e+00 -9.761326014995574951e-02
1.107000000000000000e+03 7.328192138671875000e+01 3.762398529052734375e+01 -2.457495182752609253e-01 6.780522346496582031e+00 1.960431933403015137e+00 -6.286833435297012329e-02
1.108000000000000000e+03 7.930365753173828125e+01 3.479143905639648438e+01 9.643096476793289185e-03 1.164390754699707031e+01 3.496065139770507812e+00 8.507131040096282959e-02
1.109000000000000000e+03 7.551200103759765625e+01 3.631414031982421875e+01 -2.268477231264114380e-01 8.594254493713378906e+00 2.510222196578979492e+00 1.030431464314460754e-01
1.110000000000000000e+03 7.228633117675781250e+01 4.738918781280517578e+00 5.053316354751586914e-01 1.092651748657226562e+01 3.429554700851440430e+00 5.403778553009033203e-01
1.111000000000000000e+03 7.938391113281250000e+01 4.125307559967041016e+00 3.443303704261779785e-02 4.613055706024169922e+00 1.394246578216552734e+00 1.007865592837333679e-01
1.112000000000000000e+03 7.815518951416015625e+01 4.018415451049804688e+00 8.902259171009063721e-02 5.702723979949951172e+00 1.737524032592773438e+00 2.587414979934692383e-01
1.113000000000000000e+03 7.687803649902343750e+01 1.021888732910156250e+00 2.822795510292053223e-01 6.527114391326904297e+00 2.042818069458007812e+00 -5.260342266410589218e-03
1.114000000000000000e+03 7.822606658935546875e+01 -2.964961767196655273e+00 5.016094446182250977e-02 5.732095718383789062e+00 1.734676957130432129e+00 -3.428114056587219238e-01
1.115000000000000000e+03 7.941613006591796875e+01 -4.228079795837402344e+00 2.203546464443206787e-03 5.289196491241455078e+00 1.587420105934143066e+00 -1.550752669572830200e-01
1.116000000000000000e+03 7.826048278808593750e+01 -5.689559936523437500e+00 1.154657173901796341e-02 6.109976291656494141e+00 1.836456894874572754e+00 -4.245018064975738525e-01
1.117000000000000000e+03 7.813035583496093750e+01 -9.824108123779296875e+00 -8.946322835981845856e-03 6.794892311096191406e+00 2.035783767700195312e+00 -4.274999201297760010e-01
1.118000000000000000e+03 7.937120819091796875e+01 -1.117315959930419922e+01 2.629369730129837990e-03 7.148969650268554688e+00 2.145479679107666016e+00 -1.574756503105163574e-01
1.119000000000000000e+03 7.809492492675781250e+01 -1.260786914825439453e+01 -3.151494264602661133e-02 7.215095043182373047e+00 2.155074119567871094e+00 -3.720492720603942871e-01
1.120000000000000000e+03 7.818504333496093750e+01 -1.678556060791015625e+01 -1.403316855430603027e-01 7.679639339447021484e+00 2.261792421340942383e+00 -8.484540134668350220e-02
1.121000000000000000e+03 7.939741516113281250e+01 -1.813413429260253906e+01 -4.538615047931671143e-02 8.086483955383300781e+00 2.412329196929931641e+00 4.029247909784317017e-02
1.122000000000000000e+03 7.698014831542968750e+01 -1.968245697021484375e+01 -3.763568997383117676e-01 7.507812500000000000e+00 2.139436721801757812e+00 3.611942827701568604e-01
1.123000000000000000e+03 7.105242919921875000e+01 1.304517364501953125e+01 -2.007235735654830933e-01 9.224060058593750000e+00 2.707000970840454102e+00 -1.722350157797336578e-02
1.124000000000000000e+03 5.025537109375000000e+01 -1.503096866607666016e+01 -1.714498639106750488e+00 4.003334522247314453e+00 6.866507530212402344e-01 3.500409051775932312e-02
1.125000000000000000e+03 5.357959747314453125e+01 -1.530458259582519531e+01 -2.757691383361816406e+00 -9.114033579826354980e-01 -1.100728511810302734e+00 1.548471212387084961e+00
1.126000000000000000e+03 5.221479797363281250e+01 3.333440399169921875e+01 -3.305971622467041016e-02 5.377171039581298828e-01 1.513972133398056030e-01 2.719290554523468018e-01
1.127000000000000000e+03 6.573910522460937500e+01 3.335122299194335938e+01 -1.593725562095642090e+00 -5.408818721771240234e-01 -6.403822302818298340e-01 9.313837885856628418e-01
1.128000000000000000e+03 7.093860626220703125e+01 2.459175491333007812e+01 3.043413758277893066e-01 7.771165370941162109e+00 2.422652006149291992e+00 8.066166937351226807e-02
1.129000000000000000e+03 6.970562744140625000e+01 1.166782283782958984e+01 -4.149512350559234619e-01 8.025054931640625000e+00 2.283031225204467773e+00 1.343483328819274902e-01
1.130000000000000000e+03 4.706562805175781250e+01 -2.818307876586914062e+00 3.501301705837249756e-01 4.938195228576660156e+00 1.586497545242309570e+00 -1.763644218444824219e+00
1.131000000000000000e+03 5.817137145996093750e+01 3.718451309204101562e+01 -1.049097418785095215e+00 -3.322043418884277344e-01 -4.143905341625213623e-01 1.646623909473419189e-01
1.132000000000000000e+03 6.651515197753906250e+01 -8.772220611572265625e+00 1.122194766998291016e+00 4.826297760009765625e+00 1.784547805786132812e+00 2.184731721878051758e+00
1.133000000000000000e+03 7.004975128173828125e+01 2.898679924011230469e+01 -1.183287575840950012e-01 5.241713523864746094e+00 1.537015438079833984e+00 -8.273122459650039673e-02
1.134000000000000000e+03 6.304740524291992188e+01 -1.340623569488525391e+01 1.891070842742919922e+00 1.949590325355529785e+00 1.152198314666748047e+00 1.817187190055847168e+00
1.135000000000000000e+03 6.512609100341796875e+01 -1.315211009979248047e+01 1.295153856277465820e+00 2.903104305267333984e+00 1.259477496147155762e+00 1.453553915023803711e+00
1.136000000000000000e+03 6.996350097656250000e+01 1.724107360839843750e+01 2.658207155764102936e-02 9.322744369506835938e+00 2.804797887802124023e+00 1.913558989763259888e-01
1.137000000000000000e+03 6.605850219726562500e+01 3.607290649414062500e+01 -6.170870661735534668e-01 7.935093641281127930e-01 5.292669683694839478e-02 7.831619679927825928e-02
1.138000000000000000e+03 4.107964324951171875e+01 1.475705337524414062e+01 7.125463485717773438e-01 1.064026737213134766e+01 3.405844211578369141e+00 4.719401597976684570e-01
1.139000000000000000e+03 4.580403137207031250e+01 2.914404678344726562e+01 3.206709921360015869e-01 4.110369682312011719e+00 1.329312205314636230e+00 1.267324924468994141e+00
1.140000000000000000e+03 4.304719543457031250e+01 2.346457672119140625e+01 8.402730226516723633e-01 6.772890567779541016e+00 2.283949136734008789e+00 1.640850067138671875e+00
1.141000000000000000e+03 4.691172027587890625e+01 3.034570693969726562e+01 2.074739187955856323e-01 3.437288761138916016e+00 1.093428850173950195e+00 1.185328841209411621e+00
1.142000000000000000e+03 4.362683868408203125e+01 2.485604095458984375e+01 7.102975845336914062e-01 6.145965099334716797e+00 2.056878805160522461e+00 1.658079981803894043e+00
1.143000000000000000e+03 6.869572448730468750e+01 3.168222236633300781e+01 -8.737853169441223145e-01 2.886202335357666016e+00 6.037251353263854980e-01 -1.034797057509422302e-01
1.144000000000000000e+03 6.782469940185546875e+01 3.292102050781250000e+01 -1.117959380149841309e+00 1.878185153007507324e+00 2.280677407979965210e-01 3.351520374417304993e-02
1.145000000000000000e+03 4.822299194335937500e+01 -9.594364166259765625e+00 -4.550294876098632812e-01 4.785592555999755859e+00 1.299168944358825684e+00 -6.128612160682678223e-01
1.146000000000000000e+03 4.349941253662109375e+01 2.030964660644531250e+01 8.274212479591369629e-01 8.674364089965820312e+00 2.850535631179809570e+00 2.382962942123413086e+00
1.147000000000000000e+03 4.924042129516601562e+01 -4.867755889892578125e+00 4.050460755825042725e-01 4.621157169342041016e+00 1.507861018180847168e+00 -1.449675083160400391e+00
1.148000000000000000e+03 4.730254745483398438e+01 -7.049025058746337891e+00 -1.551843881607055664e-01 4.972867012023925781e+00 1.445304751396179199e+00 -1.126793265342712402e+00
1.149000000000000000e+03 6.077776336669921875e+01 -1.766078948974609375e+01 -8.683324456214904785e-01 1.481423854827880859e+00 1.839274168014526367e-01 1.844680905342102051e+00
1.150000000000000000e+03 4.210676574707031250e+01 2.061677932739257812e+01 7.915583848953247070e-01 8.137196540832519531e+00 2.678626298904418945e+00 1.586645126342773438e+00
1.151000000000000000e+03 7.095938873291015625e+01 1.171780204772949219e+01 -6.145271658897399902e-01 9.600723266601562500e+00 2.695858955383300781e+00 1.135296970605850220e-01
1.152000000000000000e+03 5.230461120605468750e+01 -1.597120666503906250e+01 -2.315378189086914062e+00 1.771707773208618164e+00 -1.631011217832565308e-01 1.815698444843292236e-01
1.153000000000000000e+03 6.255722427368164062e+01 -1.510322666168212891e+01 8.079221248626708984e-01 1.748799800872802734e+00 7.670165896415710449e-01 1.415289044380187988e+00
1.154000000000000000e+03 4.101546096801757812e+01 1.326614952087402344e+01 7.619851827621459961e-01 1.113447761535644531e+01 3.568938732147216797e+00 -2.746079564094543457e-01
1.155000000000000000e+03 7.043061065673828125e+01 -2.418832302093505859e+00 6.034691333770751953e-01 1.014239788055419922e+01 3.223760128021240234e+00 1.592841029167175293e+00
1.156000000000000000e+03 7.017305755615234375e+01 3.319228172302246094e+00 1.368540972471237183e-01 1.397865295410156250e+01 4.234652042388916016e+00 3.733892142772674561e-01
1.157000000000000000e+03 4.138501739501953125e+01 5.294715404510498047e+00 8.886775970458984375e-01 8.077670097351074219e+00 2.689904212951660156e+00 -1.611072778701782227e+00
1.158000000000000000e+03 4.801564788818359375e+01 -5.331655502319335938e+00 2.084153890609741211e-01 4.776773452758789062e+00 1.495556592941284180e+00 -1.383174061775207520e+00
1.159000000000000000e+03 4.830562973022460938e+01 -2.276235342025756836e+00 5.492821335792541504e-01 4.581789493560791016e+00 1.539321541786193848e+00 -1.730429768562316895e+00
1.160000000000000000e+03 7.046188354492187500e+01 2.752724647521972656e+01 1.316704899072647095e-01 6.323807716369628906e+00 1.936643481254577637e+00 -4.293808341026306152e-02
1.161000000000000000e+03 7.000334167480468750e+01 -3.833374261856079102e+00 6.346892714500427246e-01 9.091160774230957031e+00 2.917754888534545898e+00 1.690392017364501953e+00
1.162000000000000000e+03 4.524543762207031250e+01 3.938512325286865234e+00 1.486666917800903320e+00 5.951799869537353516e+00 2.231539964675903320e+00 -2.983923673629760742e+00
1.163000000000000000e+03 4.491194534301757812e+01 2.773263549804687500e+01 4.920481741428375244e-01 4.714723587036132812e+00 1.562031507492065430e+00 1.431357622146606445e+00
1.164000000000000000e+03 6.002286148071289062e+01 -1.675158309936523438e+01 -1.058048725128173828e+00 1.225176572799682617e+00 5.013838037848472595e-02 1.276980638504028320e+00
1.165000000000000000e+03 4.655343627929687500e+01 -1.582247853279113770e+00 4.280662536621093750e-01 5.121981143951416016e+00 1.665014147758483887e+00 -1.927081108093261719e+00
1.166000000000000000e+03 6.890088653564453125e+01 -6.557722091674804688e+00 6.307063102722167969e-01 7.124913692474365234e+00 2.326685905456542969e+00 1.735572814941406250e+00
1.167000000000000000e+03 4.936681365966796875e+01 -9.225557327270507812e+00 -1.460590213537216187e-01 4.274642944335937500e+00 1.238575220108032227e+00 -7.096666097640991211e-01
1.168000000000000000e+03 6.828807830810546875e+01 -7.873389720916748047e+00 7.156763672828674316e-01 6.117393493652343750e+00 2.049921035766601562e+00 1.737737298011779785e+00
1.169000000000000000e+03 7.019514465332031250e+01 4.725387096405029297e+00 8.088209666311740875e-03 1.321821498870849609e+01 3.967890977859497070e+00 1.749945431947708130e-01
1.170000000000000000e+03 7.116406250000000000e+01 9.071862220764160156e+00 -1.077717691659927368e-01 1.036492919921875000e+01 3.077147245407104492e+00 3.225063085556030273e-01
1.171000000000000000e+03 7.203473663330078125e+01 1.055295181274414062e+01 -5.142970681190490723e-01 9.806755065917968750e+00 2.787737369537353516e+00 4.573854804039001465e-01
1.172000000000000000e+03 4.174617004394531250e+01 1.916958808898925781e+01 6.949248909950256348e-01 8.852151870727539062e+00 2.864122867584228516e+00 1.387706995010375977e+00
1.173000000000000000e+03 6.754335784912109375e+01 -1.222664737701416016e+01 8.458951115608215332e-01 4.082121849060058594e+00 1.478405117988586426e+00 9.983806014060974121e-01
1.174000000000000000e+03 4.981269073486328125e+01 -1.055247783660888672e+01 -3.030076920986175537e-01 3.965963602066040039e+00 1.098886847496032715e+00 -3.930018246173858643e-01
1.175000000000000000e+03 5.141642379760742188e+01 -1.149634552001953125e+01 -4.062024503946304321e-02 2.613110542297363281e+00 7.717471122741699219e-01 -4.244949221611022949e-01
1.176000000000000000e+03 5.029195022583007812e+01 -1.190011501312255859e+01 -5.633376836776733398e-01 3.466037750244140625e+00 8.708100318908691406e-01 -3.580594807863235474e-02
1.177000000000000000e+03 5.115108108520507812e+01 3.463576889038085938e+01 -2.967090606689453125e-01 1.204079031944274902e+00 2.722110152244567871e-01 4.859531223773956299e-01
1.178000000000000000e+03 6.947957611083984375e+01 -5.214791297912597656e+00 6.069085001945495605e-01 8.054319381713867188e+00 2.598368406295776367e+00 1.697212219238281250e+00
1.179000000000000000e+03 4.426015090942382812e+01 2.624266052246093750e+01 6.540515422821044922e-01 5.451905727386474609e+00 1.831787228584289551e+00 1.641901254653930664e+00
1.180000000000000000e+03 4.157224655151367188e+01 8.726178169250488281e+00 1.560451984405517578e+00 1.058483886718750000e+01 3.643587112426757812e+00 -1.676411271095275879e+00
1.181000000000000000e+03 4.204780960083007812e+01 7.258968353271484375e+00 1.312395215034484863e+00 9.667260169982910156e+00 3.293896675109863281e+00 -2.293405055999755859e+00
1.182000000000000000e+03 4.338002777099609375e+01 4.584287643432617188e+00 1.055615186691284180e+00 7.485338211059570312e+00 2.562286138534545898e+00 -2.540266036987304688e+00
1.183000000000000000e+03 4.266141510009765625e+01 5.880457878112792969e+00 1.203315258026123047e+00 8.354611396789550781e+00 2.867378234863281250e+00 -2.490262985229492188e+00
1.184000000000000000e+03 4.795606231689453125e+01 3.161789703369140625e+01 6.456413865089416504e-02 2.735768795013427734e+00 8.400998711585998535e-01 9.757801294326782227e-01
1.185000000000000000e+03 6.995961761474609375e+01 2.148546791076660156e+01 2.209258964285254478e-03 8.496436119079589844e+00 2.549593687057495117e+00 1.230718642473220825e-01
1.186000000000000000e+03 7.106234741210937500e+01 2.314250564575195312e+01 1.954083889722824097e-01 8.160445213317871094e+00 2.506756067276000977e+00 1.555616706609725952e-01
1.187000000000000000e+03 4.299285888671875000e+01 2.743101835250854492e+00 6.114656925201416016e-01 6.828700542449951172e+00 2.232049942016601562e+00 -2.064206600189208984e+00
1.188000000000000000e+03 7.116539001464843750e+01 2.169448852539062500e+01 9.829771518707275391e-02 8.464962959289550781e+00 2.568978309631347656e+00 2.554889023303985596e-01
1.189000000000000000e+03 7.590991973876953125e+01 1.496481895446777344e+01 -4.086300730705261230e-02 8.113212585449218750e+00 2.421704769134521484e+00 5.651818513870239258e-01
1.190000000000000000e+03 7.120851898193359375e+01 1.876813697814941406e+01 4.546274989843368530e-02 8.843683242797851562e+00 2.666743993759155273e+00 3.869598507881164551e-01
1.191000000000000000e+03 1.334788560867309570e+00 -4.009479904174804688e+01 -1.094466075301170349e-01 4.081002712249755859e+00 1.191466808319091797e+00 -1.403400897979736328e-01
1.192000000000000000e+03 7.335456013679504395e-01 3.738695907592773438e+01 1.957962848246097565e-02 -1.289090633392333984e+00 -3.808533251285552979e-01 -3.910273686051368713e-02
1.193000000000000000e+03 6.358348727226257324e-01 3.462985610961914062e+01 5.310428328812122345e-03 -1.401048541069030762e+00 -4.187214374542236328e-01 -2.450715191662311554e-02
1.194000000000000000e+03 6.366736888885498047e-01 3.323905181884765625e+01 1.400714274495840073e-03 -1.446457028388977051e+00 -4.335168898105621338e-01 -1.637371443212032318e-02
1.195000000000000000e+03 6.927047371864318848e-01 2.764107704162597656e+01 -2.651954302564263344e-03 -1.578430294990539551e+00 -4.743246436119079590e-01 -1.230909395962953568e-02
1.196000000000000000e+03 6.978278756141662598e-01 2.622723007202148438e+01 -7.818818558007478714e-04 -1.604369044303894043e+00 -4.815452694892883301e-01 -1.583882421255111694e-02
1.197000000000000000e+03 7.878280878067016602e-01 -3.599142837524414062e+01 5.960122216492891312e-03 4.269285202026367188e+00 1.282573580741882324e+00 7.810938358306884766e-02
1.198000000000000000e+03 2.234020471572875977e+00 -3.293621063232421875e+01 -2.549481987953186035e-01 3.219466686248779297e+00 8.893555402755737305e-01 5.777897834777832031e-01
1.199000000000000000e+03 3.559022903442382812e+00 2.618370056152343750e+01 2.337252721190452576e-02 -1.055620193481445312e+00 -3.096742928028106689e-01 -5.493057146668434143e-02
1.200000000000000000e+03 3.380175352096557617e+00 2.467654037475585938e+01 2.730462886393070221e-02 -1.112006783485412598e+00 -3.254106640815734863e-01 -3.006036579608917236e-02
1.201000000000000000e+03 1.912928342819213867e+00 3.311671447753906250e+01 9.425266645848751068e-03 -1.228921413421630859e+00 -3.658488392829895020e-01 -5.284763872623443604e-02
1.202000000000000000e+03 2.445087671279907227e+00 3.812473297119140625e+01 1.622745394706726074e-02 -1.062548875808715820e+00 -3.138964176177978516e-01 -7.872440665960311890e-02
1.203000000000000000e+03 3.376870155334472656e+00 3.912915039062500000e+01 -9.849476628005504608e-04 -1.032179236412048340e+00 -3.099492490291595459e-01 -4.453616589307785034e-02
1.204000000000000000e+03 1.978369593620300293e+00 -2.871844482421875000e+01 -2.225793600082397461e-01 1.826480150222778320e+00 4.811702370643615723e-01 1.373115897178649902e+00
1.205000000000000000e+03 6.577054500579833984e+00 -2.467367744445800781e+01 3.105406463146209717e-01 4.820946693420410156e+00 1.539446234703063965e+00 2.498404741287231445e+00
1.206000000000000000e+03 2.322486877441406250e+00 -3.703209304809570312e+01 -1.052291095256805420e-01 3.706085443496704102e+00 1.080256938934326172e+00 1.208636313676834106e-01
1.207000000000000000e+03 6.393268704414367676e-01 2.056133460998535156e+01 1.464054454118013382e-03 -1.625479817390441895e+00 -4.872047305107116699e-01 8.271597325801849365e-03
1.208000000000000000e+03 6.305889487266540527e-01 1.915064811706542969e+01 5.374126136302947998e-03 -1.594507813453674316e+00 -4.767400920391082764e-01 1.571710035204887390e-02
1.209000000000000000e+03 6.060866117477416992e-01 1.492002201080322266e+01 2.674963092431426048e-03 -1.385184049606323242e+00 -4.147527515888214111e-01 4.203491285443305969e-02
1.210000000000000000e+03 5.967245697975158691e-01 1.351045989990234375e+01 5.576358642429113388e-03 -1.270336389541625977e+00 -3.794279992580413818e-01 5.149789154529571533e-02
1.211000000000000000e+03 5.814616084098815918e-01 7.879110336303710938e+00 1.074671978130936623e-03 -5.953943729400634766e-01 -1.782959103584289551e-01 7.794914394617080688e-02
1.212000000000000000e+03 1.801720619201660156e+00 -1.628634071350097656e+01 1.921748518943786621e-01 -3.586457014083862305e+00 -1.018284678459167480e+00 -2.688970267772674561e-01
1.213000000000000000e+03 2.929853677749633789e+00 -2.160041236877441406e+01 5.497328639030456543e-01 -8.306630849838256836e-01 -8.427906036376953125e-02 1.473339438438415527e+00
1.214000000000000000e+03 4.040862083435058594e+00 -3.562563705444335938e+01 -3.695705831050872803e-01 3.022524833679199219e+00 7.958862781524658203e-01 4.375461637973785400e-01
1.215000000000000000e+03 2.355262994766235352e+00 -3.433094024658203125e+01 -1.796653419733047485e-01 3.464612245559692383e+00 9.854841232299804688e-01 3.952073156833648682e-01
1.216000000000000000e+03 2.096611499786376953e+00 -3.153532218933105469e+01 -2.375035136938095093e-01 2.900880098342895508e+00 7.990129590034484863e-01 8.140548467636108398e-01
1.217000000000000000e+03 1.998790025711059570e+00 -2.730711364746093750e+01 -1.261768788099288940e-01 1.068757891654968262e+00 2.827742993831634521e-01 1.618436217308044434e+00
1.218000000000000000e+03 2.009794473648071289e+00 -2.589352798461914062e+01 -4.022081848233938217e-03 1.853399425745010376e-01 5.439535900950431824e-02 1.723732590675354004e+00
1.219000000000000000e+03 3.015205621719360352e+00 -2.289232444763183594e+01 4.946786165237426758e-01 -1.843672841787338257e-01 9.309340268373489380e-02 1.886086344718933105e+00
1.220000000000000000e+03 1.745375633239746094e+00 -1.905817604064941406e+01 2.647609114646911621e-01 -3.489108800888061523e+00 -9.673043489456176758e-01 3.561343252658843994e-01
1.221000000000000000e+03 5.797869563102722168e-01 -1.913123130798339844e+01 5.265429988503456116e-02 -5.707455158233642578e+00 -1.696440219879150391e+00 1.312377303838729858e-01
1.222000000000000000e+03 2.916475296020507812e+00 -1.901025962829589844e+01 6.118088364601135254e-01 -1.519541978836059570e+00 -2.723199427127838135e-01 5.912625789642333984e-01
1.223000000000000000e+03 3.079510927200317383e+00 -1.343782711029052734e+01 2.674410641193389893e-01 -1.610039949417114258e+00 -4.027796685695648193e-01 -8.548530340194702148e-01
1.224000000000000000e+03 5.916041731834411621e-01 -1.209065437316894531e+01 1.880108006298542023e-02 -4.136356353759765625e+00 -1.235266566276550293e+00 -2.581332623958587646e-01
1.225000000000000000e+03 1.787329196929931641e+00 -1.205621719360351562e+01 5.743673443794250488e-02 -2.801508188247680664e+00 -8.232213854789733887e-01 -7.434020042419433594e-01
1.226000000000000000e+03 1.551988720893859863e+00 -6.601689815521240234e+00 -3.992255032062530518e-02 -1.181031227111816406e+00 -3.662861287593841553e-01 -5.894451141357421875e-01
1.227000000000000000e+03 2.571893930435180664e+00 -3.945400238037109375e+00 -1.867710649967193604e-01 -3.581767082214355469e-01 -1.634843200445175171e-01 -5.518961548805236816e-01
1.228000000000000000e+03 1.457728862762451172e+00 -3.403425216674804688e+00 -8.308023959398269653e-02 -4.008268117904663086e-01 -1.451721191406250000e-01 -3.302804231643676758e-01
1.229000000000000000e+03 5.678794384002685547e-01 5.022688388824462891e+00 -5.155890714377164841e-03 -2.291530966758728027e-01 -7.029269635677337646e-02 6.468386203050613403e-02
1.230000000000000000e+03 6.631192207336425781e+00 4.014355182647705078e+00 -2.908453345298767090e-01 -2.920198440551757812e-01 -1.748595535755157471e-01 5.580802559852600098e-01
1.231000000000000000e+03 1.747186660766601562e+00 1.071342086791992188e+01 1.551880035549402237e-02 -8.696373701095581055e-01 -2.562355697154998779e-01 1.982098817825317383e-01
1.232000000000000000e+03 5.845444202423095703e-01 1.069366455078125000e+01 4.585442133247852325e-03 -9.670639634132385254e-01 -2.887435555458068848e-01 7.055583596229553223e-02
1.233000000000000000e+03 1.783441185951232910e+00 1.349882698059082031e+01 1.989463344216346741e-02 -1.101921916007995605e+00 -3.246081769466400146e-01 1.500934958457946777e-01
1.234000000000000000e+03 1.914335608482360840e+00 2.051251220703125000e+01 1.744464598596096039e-02 -1.373566627502441406e+00 -4.068365991115570068e-01 2.924517355859279633e-02
1.235000000000000000e+03 1.890187025070190430e+00 1.910813903808593750e+01 1.618726924061775208e-02 -1.351142048835754395e+00 -4.004864096641540527e-01 5.063983798027038574e-02
1.236000000000000000e+03 2.048534393310546875e+00 2.475631523132324219e+01 1.274742837995290756e-02 -1.353521585464477539e+00 -4.022322297096252441e-01 -2.199565619230270386e-02
1.237000000000000000e+03 1.312547492980957031e+01 -1.324039745330810547e+01 4.381890296936035156e+00 3.171314239501953125e+00 2.265961408615112305e+00 2.915742635726928711e+00
1.238000000000000000e+03 1.074578475952148438e+01 -1.484083271026611328e+01 3.624574899673461914e+00 5.724819183349609375e+00 2.804818153381347656e+00 2.783147573471069336e+00
1.239000000000000000e+03 1.869244003295898438e+01 -7.733132362365722656e+00 1.983329176902770996e+00 -1.578935742378234863e+00 1.213180348277091980e-01 7.094210386276245117e-01
1.240000000000000000e+03 2.021429824829101562e+01 -9.528939247131347656e+00 1.086303424835205078e+01 -2.459897756576538086e+00 2.520941019058227539e+00 3.590280055999755859e+00
1.241000000000000000e+03 1.873030853271484375e+01 -8.494084358215332031e+00 4.157583713531494141e+00 -2.122998714447021484e+00 6.103754043579101562e-01 1.122808218002319336e+00
1.242000000000000000e+03 1.869254112243652344e+01 -1.179396820068359375e+01 2.067171573638916016e+00 -1.399362087249755859e+00 2.003428786993026733e-01 5.170890331268310547e+00
1.243000000000000000e+03 1.994261741638183594e+01 -9.256075859069824219e+00 9.239311218261718750e+00 -2.658093690872192383e+00 1.974365234375000000e+00 2.210659503936767578e+00
1.244000000000000000e+03 2.233893013000488281e+01 -6.519322395324707031e+00 -8.596829175949096680e-01 5.003467559814453125e+00 1.243135452270507812e+00 1.407146334648132324e+00
1.245000000000000000e+03 2.268825721740722656e+01 -6.983269691467285156e+00 -7.834543287754058838e-02 6.329498767852783203e+00 1.875345945358276367e+00 2.724250078201293945e+00
1.246000000000000000e+03 2.192355728149414062e+01 -5.864337444305419922e+00 -1.074844360351562500e+00 3.318753719329833984e+00 6.731727719306945801e-01 6.700876355171203613e-01
1.247000000000000000e+03 2.327153968811035156e+01 -6.888525009155273438e+00 9.402600526809692383e-01 5.666446685791015625e+00 1.982011914253234863e+00 3.546438932418823242e+00
1.248000000000000000e+03 1.770612525939941406e+01 -7.484674930572509766e+00 1.381625413894653320e+00 -1.211054563522338867e+00 5.117124691605567932e-02 1.096635937690734863e+00
1.249000000000000000e+03 1.479350090026855469e+01 -8.211118698120117188e+00 9.604542255401611328e-01 4.948696196079254150e-01 4.365971684455871582e-01 1.493139982223510742e+00
1.250000000000000000e+03 1.659678077697753906e+01 -7.223481655120849609e+00 7.035262584686279297e-01 -6.251288652420043945e-01 2.351922914385795593e-02 1.190673589706420898e+00
1.251000000000000000e+03 1.649940299987792969e+01 -6.426558017730712891e+00 -1.574422270059585571e-01 -5.707567930221557617e-01 -2.184597104787826538e-01 1.090972185134887695e+00
1.252000000000000000e+03 1.573891258239746094e+01 -6.567665100097656250e+00 -8.229719102382659912e-02 -2.297255098819732666e-01 -9.360681474208831787e-02 1.069923996925354004e+00
1.253000000000000000e+03 1.525571155548095703e+01 -6.231774806976318359e+00 -3.766373991966247559e-01 -5.862804502248764038e-02 -1.305796355009078979e-01 1.001529455184936523e+00
1.254000000000000000e+03 1.367912292480468750e+01 -5.253912925720214844e+00 -1.021174073219299316e+00 3.664409518241882324e-01 -1.964199542999267578e-01 6.555840373039245605e-01
1.255000000000000000e+03 2.106629562377929688e+01 -4.255068778991699219e+00 -1.165328741073608398e+00 1.324150323867797852e+00 4.764644429087638855e-02 4.030587971210479736e-01
1.256000000000000000e+03 2.042615699768066406e+01 -2.440784692764282227e+00 -1.024728775024414062e+00 8.431834578514099121e-01 -5.446358397603034973e-02 3.315134048461914062e-01
1.257000000000000000e+03 2.090811347961425781e+01 -3.715603113174438477e+00 -1.134782195091247559e+00 1.150563120841979980e+00 4.734263755381107330e-03 3.626964092254638672e-01
1.258000000000000000e+03 1.892583847045898438e+01 -2.287979125976562500e+00 -1.186811327934265137e+00 -1.923115700483322144e-01 -4.137368500232696533e-01 6.032596826553344727e-01
1.259000000000000000e+03 2.414956665039062500e+01 -9.124818801879882812e+00 8.192526817321777344e+00 1.711457371711730957e+00 2.971195220947265625e+00 2.028152227401733398e+00
1.260000000000000000e+03 1.421678352355957031e+01 -5.568199634552001953e+00 -8.505960106849670410e-01 2.458450943231582642e-01 -1.814252734184265137e-01 7.919850349426269531e-01
1.261000000000000000e+03 1.145087146759033203e+01 -3.432259082794189453e+00 -1.428295135498046875e+00 4.314501285552978516e-01 -2.990535199642181396e-01 2.321150749921798706e-01
1.262000000000000000e+03 1.254294681549072266e+01 -4.667603492736816406e+00 -1.221247315406799316e+00 5.362706184387207031e-01 -2.054930329322814941e-01 3.893043100833892822e-01
1.263000000000000000e+03 1.131723213195800781e+01 -4.153564929962158203e+00 -1.282926559448242188e+00 6.212854385375976562e-01 -1.984923481941223145e-01 1.230561509728431702e-01
1.264000000000000000e+03 7.939732074737548828e+00 -4.366705417633056641e+00 -8.957619071006774902e-01 5.667371749877929688e-01 -9.870742261409759521e-02 -5.631021261215209961e-01
1.265000000000000000e+03 9.296413421630859375e+00 -3.655286550521850586e+00 -1.161647319793701172e+00 5.748653411865234375e-01 -1.760346144437789917e-01 -2.278092950582504272e-01
1.266000000000000000e+03 5.429889202117919922e+00 2.579885482788085938e+00 -3.260871171951293945e-01 -1.228562071919441223e-01 -1.346829980611801147e-01 3.404872715473175049e-01
1.267000000000000000e+03 2.903146743774414062e+00 3.348069429397583008e+00 -1.000114306807518005e-01 -1.608315110206604004e-01 -7.825288176536560059e-02 1.925451159477233887e-01
1.268000000000000000e+03 2.654366493225097656e+00 4.272437572479248047e+00 -7.777548581361770630e-02 -2.389943152666091919e-01 -9.503094106912612915e-02 2.392724603414535522e-01
1.269000000000000000e+03 3.385707616806030273e+00 2.581754684448242188e+00 -1.512293368577957153e-01 -1.085494533181190491e-01 -7.793363183736801147e-02 1.904337108135223389e-01
1.270000000000000000e+03 4.049398422241210938e+00 2.570353746414184570e+00 -2.042119055986404419e-01 -1.048408299684524536e-01 -9.271581470966339111e-02 2.367374002933502197e-01
1.271000000000000000e+03 5.368352890014648438e+00 3.321602582931518555e+00 -2.816690504550933838e-01 -1.922966837882995605e-01 -1.421897262334823608e-01 4.098204672336578369e-01
1.272000000000000000e+03 6.061066150665283203e+00 3.307408094406127930e+00 -3.312327563762664795e-01 -2.055964469909667969e-01 -1.610487550497055054e-01 4.643545746803283691e-01
1.273000000000000000e+03 6.140516757965087891e+00 2.584028005599975586e+00 -4.055034518241882324e-01 -1.477868407964706421e-01 -1.659870892763137817e-01 4.119544327259063721e-01
1.274000000000000000e+03 7.437072277069091797e+00 3.375120162963867188e+00 -4.104256033897399902e-01 -2.899290621280670166e-01 -2.101064026355743408e-01 5.955237746238708496e-01
1.275000000000000000e+03 6.746992588043212891e+00 3.321703433990478516e+00 -3.923763930797576904e-01 -2.371904402971267700e-01 -1.888700574636459351e-01 5.383065938949584961e-01
1.276000000000000000e+03 9.898159980773925781e+00 2.985409259796142578e+00 -5.696961283683776855e-01 -5.202507972717285156e-01 -3.269840776920318604e-01 7.389500737190246582e-01
1.277000000000000000e+03 1.635022735595703125e+01 -2.931302189826965332e-01 -1.161702036857604980e+00 -6.454694867134094238e-01 -5.421514511108398438e-01 7.614863514900207520e-01
1.278000000000000000e+03 1.380492401123046875e+01 1.898892402648925781e+00 -7.647476792335510254e-01 -6.533189415931701660e-01 -4.254199862480163574e-01 6.988840103149414062e-01
1.279000000000000000e+03 1.705452537536621094e+01 -7.403613328933715820e-01 -1.160104393959045410e+00 -5.649268627166748047e-01 -5.175094008445739746e-01 7.303230762481689453e-01
1.280000000000000000e+03 1.623443031311035156e+01 1.393126368522644043e+00 -6.529744267463684082e-01 -4.194009006023406982e-01 -3.217125833034515381e-01 5.233314037322998047e-01
1.281000000000000000e+03 1.275587558746337891e+01 1.653567671775817871e+00 -9.582331180572509766e-01 -6.756799817085266113e-01 -4.901739358901977539e-01 7.605832815170288086e-01
1.282000000000000000e+03 1.881689643859863281e+01 -1.138720154762268066e+00 -9.598524570465087891e-01 1.239038445055484772e-02 -2.842386364936828613e-01 4.330281317234039307e-01
1.283000000000000000e+03 1.738621520996093750e+01 -1.091920584440231323e-01 -9.186346530914306641e-01 -3.618454635143280029e-01 -3.841440379619598389e-01 5.504111647605895996e-01
1.284000000000000000e+03 1.814847564697265625e+01 -5.577041506767272949e-01 -9.223178029060363770e-01 -1.596289873123168945e-01 -3.245840370655059814e-01 4.796329140663146973e-01
1.285000000000000000e+03 1.975070762634277344e+01 -2.350008010864257812e+00 -1.069531440734863281e+00 3.133110702037811279e-01 -2.268661260604858398e-01 4.095630347728729248e-01
1.286000000000000000e+03 1.932417297363281250e+01 -1.797012329101562500e+00 -1.030665397644042969e+00 1.744143962860107422e-01 -2.568753063678741455e-01 4.254081845283508301e-01
1.287000000000000000e+03 1.058892250061035156e+01 -4.679182529449462891e+00 -1.118020534515380859e+00 7.968474030494689941e-01 -9.635194391012191772e-02 -7.704947143793106079e-02
1.288000000000000000e+03 5.448140144348144531e+00 -2.753783702850341797e+00 -6.507092714309692383e-01 4.802297055721282959e-02 -1.808058917522430420e-01 -5.608469247817993164e-01
1.289000000000000000e+03 7.119057655334472656e+00 -3.542988300323486328e+00 -8.628891706466674805e-01 3.294453024864196777e-01 -1.600331664085388184e-01 -5.605412721633911133e-01
1.290000000000000000e+03 4.662508487701416016e+00 -2.788448572158813477e+00 -5.337596535682678223e-01 -2.815563045442104340e-02 -1.685745865106582642e-01 -5.750700235366821289e-01
1.291000000000000000e+03 6.357907772064208984e+00 -3.573052406311035156e+00 -7.361363768577575684e-01 2.106217890977859497e-01 -1.576543748378753662e-01 -6.363107562065124512e-01
1.292000000000000000e+03 4.980242729187011719e+00 -4.591104984283447266e+00 -4.840028584003448486e-01 8.384709246456623077e-03 -1.426854431629180908e-01 -8.470430374145507812e-01
1.293000000000000000e+03 2.288219928741455078e+00 -3.093973159790039062e+00 -1.903125643730163574e-01 -2.703939974308013916e-01 -1.382119655609130859e-01 -4.384893476963043213e-01
1.294000000000000000e+03 3.666450738906860352e+00 -7.902210712432861328e+00 -1.482485830783843994e-01 -5.731686353683471680e-01 -2.164251655340194702e-01 -1.121326804161071777e+00
1.295000000000000000e+03 1.612469434738159180e+00 -5.307125091552734375e+00 -6.642711162567138672e-02 -7.978634834289550781e-01 -2.592871785163879395e-01 -5.083724260330200195e-01
1.296000000000000000e+03 1.247166347503662109e+01 2.659195423126220703e+00 -6.082378625869750977e-01 -6.431863307952880859e-01 -3.754272758960723877e-01 6.949189901351928711e-01
1.297000000000000000e+03 1.192125225067138672e+01 3.192298889160156250e+00 -4.507823288440704346e-01 -6.204845905303955078e-01 -3.213800787925720215e-01 7.013318538665771484e-01
1.298000000000000000e+03 1.130430221557617188e+01 2.607142448425292969e+00 -6.733369827270507812e-01 -6.156702041625976562e-01 -3.867021501064300537e-01 7.297070026397705078e-01
1.299000000000000000e+03 1.451863384246826172e+01 1.536342620849609375e+00 -8.161994814872741699e-01 -6.366977691650390625e-01 -4.358691573143005371e-01 6.926791071891784668e-01
1.300000000000000000e+03 1.122157669067382812e+01 -1.307328891754150391e+01 2.576074361801147461e+00 4.220685005187988281e+00 2.039027690887451172e+00 1.664591431617736816e+00
1.301000000000000000e+03 9.332117080688476562e+00 -1.662307929992675781e+01 3.549605131149291992e+00 6.391454219818115234e+00 2.982317924499511719e+00 3.025300025939941406e+00
1.302000000000000000e+03 2.025686073303222656e+01 -1.055797958374023438e+01 6.453536510467529297e+00 -1.684038341045379639e-01 1.885539770126342773e+00 5.980179786682128906e+00
1.303000000000000000e+03 8.594429969787597656e+00 -3.581466674804687500e+00 -1.072710514068603516e+00 5.178826451301574707e-01 -1.664483547210693359e-01 -3.495274782180786133e-01
1.304000000000000000e+03 2.462320327758789062e+01 -1.105971527099609375e+01 3.041394948959350586e+00 1.046096205711364746e+00 1.226247310638427734e+00 -1.554970741271972656e+00
1.305000000000000000e+03 2.470874404907226562e+01 -8.514539718627929688e+00 6.295213699340820312e+00 1.657490730285644531e+00 2.385811328887939453e+00 2.777554750442504883e+00
1.306000000000000000e+03 2.281966972351074219e+01 -1.139770412445068359e+01 1.440925955772399902e+00 3.194809436798095703e+00 1.390720605850219727e+00 8.760415762662887573e-02
1.307000000000000000e+03 2.238852119445800781e+01 -1.234416294097900391e+01 -2.673937082290649414e+00 1.425873875617980957e+00 -3.744189441204071045e-01 1.264867067337036133e+00
1.308000000000000000e+03 1.001557826995849609e+01 -2.970395088195800781e+00 -1.336306810379028320e+00 4.602553546428680420e-01 -2.628154456615447998e-01 -1.248465571552515030e-02
1.309000000000000000e+03 7.098351287841796875e+01 1.042047309875488281e+01 -6.451110243797302246e-01 9.742166519165039062e+00 2.729116678237915039e+00 2.716971635818481445e-01
1.310000000000000000e+03 7.231154632568359375e+01 1.301740264892578125e+01 -2.597263157367706299e-01 9.168101310729980469e+00 2.672512292861938477e+00 3.584546744823455811e-01
1.311000000000000000e+03 3.180822563171386719e+01 -1.556986236572265625e+01 -1.340125918388366699e+00 5.925439000129699707e-01 -2.242746204137802124e-01 -4.333645999431610107e-01
1.312000000000000000e+03 2.337618446350097656e+01 -3.534099578857421875e+01 -1.523229598999023438e+00 -1.595906466245651245e-01 -5.048460364341735840e-01 2.231349498033523560e-01
1.313000000000000000e+03 3.208268356323242188e+01 -1.464769363403320312e+01 -8.345504403114318848e-01 8.858281970024108887e-01 1.538333948701620102e-02 -9.160335659980773926e-01
1.314000000000000000e+03 2.922977828979492188e+01 -1.586074161529541016e+01 -2.592895030975341797e+00 2.265495210886001587e-01 -7.099036574363708496e-01 2.818598449230194092e-01
1.315000000000000000e+03 2.739018440246582031e+01 -3.535836029052734375e+01 -1.559300184249877930e+00 -6.345033645629882812e-02 -4.868251681327819824e-01 1.000890042632818222e-03
1.316000000000000000e+03 3.197762298583984375e+01 -3.697849655151367188e+01 -1.357876777648925781e+00 -9.995750337839126587e-02 -4.373502731323242188e-01 -1.885985583066940308e-01
1.317000000000000000e+03 3.393027496337890625e+01 -1.686677169799804688e+01 -9.655665755271911621e-01 3.686861693859100342e-01 -1.790641248226165771e-01 -5.538321733474731445e-01
1.318000000000000000e+03 4.412348175048828125e+01 -2.638894319534301758e+00 2.867995761334896088e-02 5.570269107818603516e+00 1.679684638977050781e+00 -1.692682623863220215e+00
1.319000000000000000e+03 8.980215072631835938e+00 -3.012244987487792969e+01 -2.017522811889648438e+00 2.064357757568359375e+00 1.405047997832298279e-02 6.818072795867919922e-01
1.320000000000000000e+03 4.482216262817382812e+01 -9.051926136016845703e-01 3.257014453411102295e-01 5.575538158416748047e+00 1.770371913909912109e+00 -1.938476800918579102e+00
1.321000000000000000e+03 4.477696609497070312e+01 2.103770971298217773e+00 8.538815975189208984e-01 5.989697933197021484e+00 2.053073883056640625e+00 -2.440392732620239258e+00
1.322000000000000000e+03 6.103435516357421875e+01 -2.204606056213378906e+01 6.186189651489257812e-01 1.412997603416442871e+00 6.094849705696105957e-01 1.643790721893310547e+00
1.323000000000000000e+03 4.864773559570312500e+01 -1.091168785095214844e+01 -6.767381429672241211e-01 4.634853363037109375e+00 1.187434554100036621e+00 -3.206441700458526611e-01
1.324000000000000000e+03 4.896490871906280518e-01 3.567426204681396484e+00 -1.423593703657388687e-02 -9.593575447797775269e-02 -3.305150568485260010e-02 4.141187667846679688e-02
1.325000000000000000e+03 4.583059310913085938e+01 -3.344974756240844727e+00 1.226986348628997803e-01 5.242247104644775391e+00 1.609483718872070312e+00 -1.685419321060180664e+00
1.326000000000000000e+03 7.711848449707031250e+01 1.234898662567138672e+01 -7.333902269601821899e-02 7.558704853057861328e+00 2.245609760284423828e+00 5.362148284912109375e-01
1.327000000000000000e+03 4.892596054077148438e+01 -7.913449287414550781e+00 -1.608670689165592194e-02 4.539741516113281250e+00 1.357096433639526367e+00 -9.601704478263854980e-01
1.328000000000000000e+03 4.336052322387695312e+01 2.827631759643554688e+01 7.988020777702331543e-02 4.999779224395751953e+00 1.523897886276245117e+00 9.372630119323730469e-01
1.329000000000000000e+03 4.472921371459960938e+01 -2.616078186035156250e+01 1.814792633056640625e+00 9.996961593627929688e+00 3.543526411056518555e+00 -1.887282967567443848e+00
1.330000000000000000e+03 2.041306304931640625e+01 -3.366403579711914062e+01 -1.718700528144836426e+00 -2.321943342685699463e-01 -5.852684974670410156e-01 4.264518022537231445e-01
1.331000000000000000e+03 6.681726074218750000e+01 -2.055675125122070312e+01 -1.702780604362487793e+00 1.258885264396667480e-01 -4.730676114559173584e-01 7.455223798751831055e-01
1.332000000000000000e+03 6.382437896728515625e+01 -1.420688533782958984e+01 1.222060084342956543e+00 2.168729066848754883e+00 1.017236709594726562e+00 1.480799078941345215e+00
1.333000000000000000e+03 4.680380249023437500e+01 -5.805300235748291016e+00 -4.528797417879104614e-02 5.032036781311035156e+00 1.496024608612060547e+00 -1.333501338958740234e+00
1.334000000000000000e+03 7.245786285400390625e+01 6.160997867584228516e+00 3.893716037273406982e-01 1.037631702423095703e+01 3.229706764221191406e+00 5.503320097923278809e-01
1.335000000000000000e+03 2.491267967224121094e+01 -1.376388931274414062e+01 -4.647435665130615234e+00 5.854331254959106445e-01 -1.218600869178771973e+00 -1.933388710021972656e-01
1.336000000000000000e+03 2.661834907531738281e+01 -1.353591251373291016e+01 -2.428399085998535156e+00 5.876855850219726562e-01 -5.522140264511108398e-01 -7.392478585243225098e-01
1.337000000000000000e+03 7.707327270507812500e+01 -2.791600227355957031e+01 4.469708502292633057e-01 7.080197334289550781e+00 2.258150339126586914e+00 -1.958643496036529541e-01
1.338000000000000000e+03 4.778319549560546875e+01 -8.309837341308593750e+00 -2.974552512168884277e-01 4.878287792205810547e+00 1.374249696731567383e+00 -8.799414634704589844e-01
1.339000000000000000e+03 7.630492401123046875e+01 2.486369132995605469e+01 7.228551059961318970e-02 8.643733024597167969e+00 2.614805698394775391e+00 7.477198243141174316e-01
1.340000000000000000e+03 7.119815826416015625e+01 3.331918954849243164e+00 4.712279736995697021e-01 1.247384262084960938e+01 3.883521080017089844e+00 8.276647925376892090e-01
1.341000000000000000e+03 7.813346862792968750e+01 2.602025032043457031e+00 1.170635223388671875e-01 5.580284118652343750e+00 1.709204316139221191e+00 1.387495398521423340e-01
1.342000000000000000e+03 7.560350036621093750e+01 -3.818789672851562500e+01 -2.811703383922576904e-01 6.606208801269531250e+00 1.897511482238769531e+00 -1.129933595657348633e-01
1.343000000000000000e+03 7.257653808593750000e+01 -3.131581115722656250e+01 -3.861333802342414856e-02 7.249017238616943359e+00 2.163121223449707031e+00 1.339966505765914917e-01
1.344000000000000000e+03 7.805080413818359375e+01 -3.347040176391601562e+01 -8.306849002838134766e-02 7.397286415100097656e+00 2.194265365600585938e+00 -4.931281507015228271e-01
1.345000000000000000e+03 7.823620605468750000e+01 2.080509376525878906e+01 2.807429991662502289e-02 8.394946098327636719e+00 2.526906251907348633e+00 3.811918497085571289e-01
1.346000000000000000e+03 7.705810546875000000e+01 2.074969291687011719e+01 5.096795409917831421e-02 8.393572807312011719e+00 2.533362150192260742e+00 5.334658026695251465e-01
1.347000000000000000e+03 7.646166229248046875e+01 3.704717254638671875e+01 -2.622662484645843506e-01 9.320505142211914062e+00 2.717471599578857422e+00 1.575936377048492432e-01
1.348000000000000000e+03 7.645132446289062500e+01 3.470928955078125000e+01 -2.283523827791213989e-01 9.468623161315917969e+00 2.772081136703491211e+00 2.431156784296035767e-01
1.349000000000000000e+03 7.710762023925781250e+01 -2.234837341308593750e+01 -1.213217154145240784e-01 7.411519050598144531e+00 2.187059164047241211e+00 8.096202611923217773e-01
1.350000000000000000e+03 7.819586181640625000e+01 -2.792982292175292969e+01 2.241859734058380127e-01 6.581787109375000000e+00 2.041791915893554688e+00 -2.018565535545349121e-01
1.351000000000000000e+03 7.474617004394531250e+01 -2.810814666748046875e+01 9.196100831031799316e-01 8.117586135864257812e+00 2.711158990859985352e+00 -2.895178496837615967e-01
1.352000000000000000e+03 7.464492034912109375e+01 -2.269326019287109375e+01 -2.645875811576843262e-01 8.102741241455078125e+00 2.351446151733398438e+00 9.020069837570190430e-01
1.353000000000000000e+03 7.820098876953125000e+01 -2.652772712707519531e+01 2.303582280874252319e-01 6.586013793945312500e+00 2.044911623001098633e+00 1.166688799858093262e-01
1.354000000000000000e+03 7.815074157714843750e+01 -2.513475418090820312e+01 1.982084512710571289e-01 6.693889141082763672e+00 2.067629098892211914e+00 3.582247197628021240e-01
1.355000000000000000e+03 7.649565887451171875e+01 -3.472817230224609375e+01 -2.912276089191436768e-01 7.265369892120361328e+00 2.092242717742919922e+00 -4.004513323307037354e-01
1.356000000000000000e+03 7.686663055419921875e+01 -2.374925231933593750e+01 2.898337841033935547e-01 7.358731269836425781e+00 2.294569492340087891e+00 7.389519810676574707e-01
1.357000000000000000e+03 7.699645233154296875e+01 -3.214760589599609375e+01 -6.329306215047836304e-02 7.332347869873046875e+00 2.180716514587402344e+00 -7.002515196800231934e-01
1.358000000000000000e+03 7.430557250976562500e+01 -3.199182510375976562e+01 -2.440363168716430664e-01 7.411238193511962891e+00 2.150160551071166992e+00 -5.137585997581481934e-01
1.359000000000000000e+03 7.683979034423828125e+01 -3.334292984008789062e+01 -2.007480710744857788e-01 7.333013057708740234e+00 2.139679431915283203e+00 -5.648764371871948242e-01
1.360000000000000000e+03 7.830927276611328125e+01 2.359608840942382812e+01 2.935912460088729858e-02 8.883455276489257812e+00 2.673844337463378906e+00 4.360813200473785400e-01
1.361000000000000000e+03 7.713111877441406250e+01 2.218255043029785156e+01 6.647857278585433960e-02 8.531763076782226562e+00 2.579472303390502930e+00 5.653938651084899902e-01
1.362000000000000000e+03 7.727407836914062500e+01 2.491870498657226562e+01 4.902849346399307251e-02 8.883812904357910156e+00 2.679852485656738281e+00 6.413218975067138672e-01
1.363000000000000000e+03 7.708083343505859375e+01 1.510049152374267578e+01 -2.114318683743476868e-02 7.832335948944091797e+00 2.343357801437377930e+00 4.623975157737731934e-01
1.364000000000000000e+03 7.824407196044921875e+01 1.382091617584228516e+01 -1.848782226443290710e-02 7.363802909851074219e+00 2.203594446182250977e+00 3.475451171398162842e-01
1.365000000000000000e+03 7.709793090820312500e+01 1.372705841064453125e+01 -5.638581514358520508e-02 7.702562808990478516e+00 2.293853044509887695e+00 5.076637268066406250e-01
1.366000000000000000e+03 7.215148925781250000e+01 2.341267395019531250e+01 2.511866986751556396e-01 8.059170722961425781e+00 2.493107318878173828e+00 3.911517858505249023e-01
1.367000000000000000e+03 7.823242950439453125e+01 2.774513244628906250e+01 2.107023494318127632e-03 9.710822105407714844e+00 2.913878679275512695e+00 5.095848441123962402e-01
1.368000000000000000e+03 7.595555877685546875e+01 1.359716510772705078e+01 -8.742739260196685791e-02 8.042796134948730469e+00 2.386610507965087891e+00 5.672123432159423828e-01
1.369000000000000000e+03 7.820963287353515625e+01 -1.957306480407714844e+01 -1.595382988452911377e-01 7.638704776763916016e+00 2.243749856948852539e+00 2.844468057155609131e-01
1.370000000000000000e+03 7.715354919433593750e+01 -2.102673339843750000e+01 -2.698059082031250000e-01 7.521936416625976562e+00 2.175639152526855469e+00 5.792658329010009766e-01
1.371000000000000000e+03 7.796383666992187500e+01 3.196992111206054688e+01 -1.015015766024589539e-01 1.030048942565917969e+01 3.059696197509765625e+00 3.595462739467620850e-01
1.372000000000000000e+03 7.680585479736328125e+01 3.043111801147460938e+01 -1.394494324922561646e-01 9.359330177307128906e+00 2.765964031219482422e+00 6.210386753082275391e-01
1.373000000000000000e+03 7.705391693115234375e+01 9.553008079528808594e+00 -1.286501064896583557e-02 7.260703563690185547e+00 2.174351453781127930e+00 6.747081875801086426e-01
1.374000000000000000e+03 7.699786376953125000e+01 -1.683792114257812500e+01 -2.723506987094879150e-01 7.360984802246093750e+00 2.126590251922607422e+00 -1.661055684089660645e-01
1.375000000000000000e+03 7.693652343750000000e+01 -1.825461769104003906e+01 -3.706941604614257812e-01 7.473031520843505859e+00 2.130701303482055664e+00 8.613293617963790894e-02
1.376000000000000000e+03 7.575025177001953125e+01 -8.375783920288085938e+00 -4.782051313668489456e-03 6.794395923614501953e+00 2.036884307861328125e+00 -5.802770853042602539e-01
1.377000000000000000e+03 7.680338287353515625e+01 -1.122435283660888672e+01 -4.671958833932876587e-02 6.876826763153076172e+00 2.049032211303710938e+00 -5.540928244590759277e-01
1.378000000000000000e+03 7.440100860595703125e+01 -5.881872653961181641e+00 7.357827574014663696e-02 7.253462314605712891e+00 2.198112249374389648e+00 -4.049446284770965576e-01
1.379000000000000000e+03 7.716250610351562500e+01 -4.441820621490478516e+00 7.401258498430252075e-02 6.431326866149902344e+00 1.951601862907409668e+00 -5.111467838287353516e-01
1.380000000000000000e+03 7.704833984375000000e+01 6.731420993804931641e+00 1.214764788746833801e-01 6.937399864196777344e+00 2.117662906646728516e+00 6.463633179664611816e-01
1.381000000000000000e+03 7.626083374023437500e+01 3.823543548583984375e+01 -2.935011684894561768e-01 9.891703605651855469e+00 2.879460811614990234e+00 3.788833916187286377e-01
1.382000000000000000e+03 7.757193756103515625e+01 3.843202972412109375e+01 -1.231890022754669189e-01 1.046570682525634766e+01 3.102755308151245117e+00 -3.524524569511413574e-01
1.383000000000000000e+03 7.584723663330078125e+01 2.882916450500488281e+01 -7.740932703018188477e-02 8.756610870361328125e+00 2.603760480880737305e+00 7.581743001937866211e-01
1.384000000000000000e+03 7.820774841308593750e+01 8.229018211364746094e+00 1.146541908383369446e-02 6.371881484985351562e+00 1.915004014968872070e+00 4.910399317741394043e-01
1.385000000000000000e+03 7.578598785400390625e+01 8.014206886291503906e+00 3.691494092345237732e-02 7.878256320953369141e+00 2.374551296234130859e+00 8.107569813728332520e-01
1.386000000000000000e+03 7.814159393310546875e+01 -2.162934839725494385e-01 9.844714403152465820e-02 5.548248291015625000e+00 1.694008588790893555e+00 -1.576678752899169922e-01
1.387000000000000000e+03 7.694429779052734375e+01 -1.803308367729187012e+00 1.634580641984939575e-01 6.446068763732910156e+00 1.982858061790466309e+00 -3.486325442790985107e-01
1.388000000000000000e+03 7.695597076416015625e+01 -8.432583808898925781e+00 -1.141644734889268875e-02 6.694306373596191406e+00 2.004866838455200195e+00 -5.720611214637756348e-01
1.389000000000000000e+03 7.692606353759765625e+01 -1.546647739410400391e+01 -1.917253136634826660e-01 7.246891498565673828e+00 2.116549968719482422e+00 -3.120948970317840576e-01
1.390000000000000000e+03 7.643686676025390625e+01 3.331549072265625000e+01 -2.022089958190917969e-01 9.357995033264160156e+00 2.746735811233520508e+00 3.729242980480194092e-01
1.391000000000000000e+03 7.706160736083984375e+01 1.787735748291015625e+01 2.289139106869697571e-02 8.104843139648437500e+00 2.438320398330688477e+00 4.715487658977508545e-01
1.392000000000000000e+03 7.821970367431640625e+01 9.625816345214843750e+00 -2.657342702150344849e-02 6.637242794036865234e+00 1.983200788497924805e+00 4.710119366645812988e-01
1.393000000000000000e+03 7.711182403564453125e+01 1.095670890808105469e+01 -7.855190336704254150e-02 7.440905570983886719e+00 2.208706140518188477e+00 6.250085234642028809e-01
1.394000000000000000e+03 7.682880401611328125e+01 -1.406396293640136719e+01 -1.320118606090545654e-01 7.108546733856201172e+00 2.092960596084594727e+00 -4.406763911247253418e-01
1.395000000000000000e+03 7.704791259765625000e+01 -7.054869174957275391e+00 -7.369554135948419571e-03 6.587839603424072266e+00 1.974141001701354980e+00 -5.549035668373107910e-01
1.396000000000000000e+03 7.789981842041015625e+01 3.602019119262695312e+01 -1.738968640565872192e-01 1.055793666839599609e+01 3.115211725234985352e+00 7.209623605012893677e-02
1.397000000000000000e+03 7.779054260253906250e+01 3.726755523681640625e+01 -2.026759684085845947e-01 1.071439838409423828e+01 3.153516769409179688e+00 -5.578390881419181824e-02
1.398000000000000000e+03 7.566803741455078125e+01 2.335579156875610352e+00 4.788686037063598633e-01 7.565528392791748047e+00 2.413319110870361328e+00 2.750211954116821289e-01
1.399000000000000000e+03 7.701553344726562500e+01 5.347498416900634766e+00 1.973125785589218140e-01 6.782473564147949219e+00 2.093935728073120117e+00 5.290756225585937500e-01
1.400000000000000000e+03 7.693021392822265625e+01 3.927061557769775391e+00 2.134778499603271484e-01 6.672358512878417969e+00 2.065750837326049805e+00 3.943413197994232178e-01
1.401000000000000000e+03 7.688783264160156250e+01 -4.068866074085235596e-01 2.245753705501556396e-01 6.467305183410644531e+00 2.007564067840576172e+00 -2.104759067296981812e-01
1.402000000000000000e+03 7.826729583740234375e+01 -4.327594757080078125e+00 3.215228393673896790e-02 5.891877174377441406e+00 1.777208805084228516e+00 -3.907462656497955322e-01
1.403000000000000000e+03 7.705636596679687500e+01 -3.142763853073120117e+00 1.043933108448982239e-01 6.403413295745849609e+00 1.952342033386230469e+00 -4.498604536056518555e-01
1.404000000000000000e+03 7.810112762451171875e+01 -1.121341419219970703e+01 -2.821702696382999420e-02 7.013982772827148438e+00 2.095729589462280273e+00 -4.015729129314422607e-01
1.405000000000000000e+03 7.687117004394531250e+01 -9.824048995971679688e+00 -2.851381339132785797e-02 6.788609504699707031e+00 2.028028726577758789e+00 -5.604356527328491211e-01
1.406000000000000000e+03 7.818303680419921875e+01 -1.818464851379394531e+01 -1.401084512472152710e-01 7.698665618896484375e+00 2.267567157745361328e+00 1.021236851811408997e-01
1.407000000000000000e+03 3.398596572875976562e+01 -1.583872795104980469e+01 -4.989465177059173584e-01 7.392977476119995117e-01 7.210536301136016846e-02 -1.028939008712768555e+00
1.408000000000000000e+03 7.115058898925781250e+01 1.589333152770996094e+01 1.325516253709793091e-01 9.272536277770996094e+00 2.821526288986206055e+00 5.095070004463195801e-01
1.409000000000000000e+03 7.112130737304687500e+01 1.905820012092590332e+00 9.310024976730346680e-01 1.232762813568115234e+01 3.977589130401611328e+00 1.032229661941528320e+00
1.410000000000000000e+03 7.097771453857421875e+01 4.632982015609741211e-01 9.493467807769775391e-01 1.198348999023437500e+01 3.879851102828979492e+00 1.113580226898193359e+00
1.411000000000000000e+03 7.121931457519531250e+01 2.023141479492187500e+01 2.497139014303684235e-02 8.626767158508300781e+00 2.595521688461303711e+00 3.433640301227569580e-01
1.412000000000000000e+03 7.117959594726562500e+01 1.732542419433593750e+01 2.222322672605514526e-02 9.043521881103515625e+00 2.719723463058471680e+00 4.030762612819671631e-01
1.413000000000000000e+03 7.234889221191406250e+01 2.195097541809082031e+01 1.516285687685012817e-01 8.319434165954589844e+00 2.541318893432617188e+00 4.370063841342926025e-01
1.414000000000000000e+03 7.245582580566406250e+01 2.040870475769042969e+01 8.724010735750198364e-02 8.535152435302734375e+00 2.586717844009399414e+00 4.807652831077575684e-01
1.415000000000000000e+03 6.764380645751953125e+01 -9.172821998596191406e+00 8.418131470680236816e-01 5.280672073364257812e+00 1.836745500564575195e+00 1.691564559936523438e+00
1.416000000000000000e+03 7.003162384033203125e+01 -6.909994602203369141e+00 3.953689634799957275e-01 7.182726860046386719e+00 2.273428678512573242e+00 1.056901097297668457e+00
1.417000000000000000e+03 4.366175079345703125e+01 1.524863123893737793e+00 5.227854251861572266e-01 6.236935138702392578e+00 2.027916193008422852e+00 -2.103353261947631836e+00
1.418000000000000000e+03 4.257382965087890625e+01 9.674930572509765625e-01 3.071030080318450928e-01 6.380650043487548828e+00 2.006325960159301758e+00 -1.746560811996459961e+00
1.419000000000000000e+03 4.309090137481689453e+00 -1.635511589050292969e+01 7.849919199943542480e-01 9.039414674043655396e-02 2.626158297061920166e-01 -9.446353465318679810e-02
1.420000000000000000e+03 3.644208526611328125e+01 -1.680531692504882812e+01 9.517364501953125000e-01 1.345101833343505859e+00 6.890515089035034180e-01 -2.317154884338378906e+00
1.421000000000000000e+03 6.892444610595703125e+01 3.357727813720703125e+01 -1.093289971351623535e+00 3.208485841751098633e+00 6.345587372779846191e-01 -1.873969435691833496e-01
1.422000000000000000e+03 2.867716026306152344e+01 -1.447451877593994141e+01 -2.179820060729980469e+00 5.286046862602233887e-01 -4.953645765781402588e-01 -3.065930008888244629e-01
1.423000000000000000e+03 1.885330438613891602e+00 3.444322586059570312e+01 4.868714313488453627e-05 -1.210094213485717773e+00 -3.630136549472808838e-01 -4.661371558904647827e-02
1.424000000000000000e+03 3.146041870117187500e+00 3.540901565551757812e+01 1.479175966233015060e-02 -1.032808661460876465e+00 -3.054050803184509277e-01 -4.770240932703018188e-02
1.425000000000000000e+03 2.093539953231811523e+00 2.764051628112792969e+01 1.518255798146128654e-03 -1.317408084869384766e+00 -3.947669565677642822e-01 -4.699201136827468872e-02
1.426000000000000000e+03 3.378057003021240234e+00 3.035742378234863281e+01 3.000208176672458649e-03 -1.014355182647705078e+00 -3.034065067768096924e-01 -7.845412194728851318e-02
1.427000000000000000e+03 4.890137195587158203e+00 3.210726165771484375e+01 -1.121069490909576416e-02 -7.358608245849609375e-01 -2.241214662790298462e-01 -9.996195137500762939e-02
1.428000000000000000e+03 2.106061697006225586e+00 2.620588111877441406e+01 7.685706950724124908e-03 -1.337637543678283691e+00 -3.989855647087097168e-01 -3.180940449237823486e-02
1.429000000000000000e+03 3.564680337905883789e+00 2.772751235961914062e+01 1.368830539286136627e-02 -1.040392398834228516e+00 -3.080112338066101074e-01 -6.643158197402954102e-02
1.430000000000000000e+03 3.312090635299682617e+00 2.910987663269042969e+01 5.969297140836715698e-03 -1.065455913543701172e+00 -3.178460001945495605e-01 -7.602620124816894531e-02
1.431000000000000000e+03 3.164242029190063477e+00 3.309024429321289062e+01 -2.434358699247241020e-03 -1.001534938812255859e+00 -3.011907935142517090e-01 -6.341567635536193848e-02
1.432000000000000000e+03 5.776734828948974609e+00 3.056372642517089844e+01 6.837286986410617828e-03 -5.984132289886474609e-01 -1.774727851152420044e-01 -1.176367029547691345e-01
1.433000000000000000e+03 3.429508447647094727e+00 3.172420883178710938e+01 -1.214343006722629070e-03 -9.798961877822875977e-01 -2.943331599235534668e-01 -7.912039756774902344e-02
1.434000000000000000e+03 3.695992469787597656e+00 -3.257516479492187500e+01 -5.324903726577758789e-01 2.835107326507568359e+00 6.907851099967956543e-01 8.831911087036132812e-01
1.435000000000000000e+03 2.004860162734985352e+00 -3.012811851501464844e+01 -2.658529579639434814e-01 2.449628353118896484e+00 6.551325917243957520e-01 1.080096721649169922e+00
1.436000000000000000e+03 3.201343536376953125e+00 -2.851856231689453125e+01 -4.908146262168884277e-01 2.160550594329833984e+00 5.009207725524902344e-01 1.876310944557189941e+00
1.437000000000000000e+03 4.466047286987304688e+00 -2.711059188842773438e+01 -5.011558532714843750e-01 2.533323526382446289e+00 6.096503138542175293e-01 2.482020139694213867e+00
1.438000000000000000e+03 1.945793271064758301e+00 2.191674804687500000e+01 1.326431427150964737e-02 -1.382456898689270020e+00 -4.107577800750732422e-01 1.057433895766735077e-02
1.439000000000000000e+03 3.288551807403564453e+00 2.325634574890136719e+01 3.053820692002773285e-02 -1.134848833084106445e+00 -3.312931954860687256e-01 -8.765541948378086090e-03
1.440000000000000000e+03 2.886557102203369141e+00 -1.059041213989257812e+01 4.860268160700798035e-02 -1.424813389778137207e+00 -4.128631949424743652e-01 -1.070773601531982422e+00
1.441000000000000000e+03 1.824423193931579590e+00 -1.488623332977294922e+01 1.342869251966476440e-01 -3.402841806411743164e+00 -9.805664420127868652e-01 -4.854530990123748779e-01
1.442000000000000000e+03 3.228067874908447266e+00 2.185953330993652344e+01 3.575130552053451538e-02 -1.144317507743835449e+00 -3.325698673725128174e-01 1.729642041027545929e-02
1.443000000000000000e+03 2.909280061721801758e+00 1.211994838714599609e+01 4.506706073880195618e-02 -8.831586837768554688e-01 -2.514275014400482178e-01 2.622422575950622559e-01
1.444000000000000000e+03 4.343884944915771484e+00 1.762394142150878906e+01 8.218386769294738770e-02 -9.231083393096923828e-01 -2.522773444652557373e-01 1.394545137882232666e-01
1.445000000000000000e+03 3.182439088821411133e+00 2.046510505676269531e+01 3.921553865075111389e-02 -1.144612312316894531e+00 -3.316190242767333984e-01 4.617452248930931091e-02
1.446000000000000000e+03 1.763030290603637695e+00 -2.176707267761230469e+01 2.199436277151107788e-01 -2.503122806549072266e+00 -6.849537491798400879e-01 1.022861123085021973e+00
1.447000000000000000e+03 2.959342479705810547e+00 -1.766509819030761719e+01 5.782949924468994141e-01 -1.674814224243164062e+00 -3.289557993412017822e-01 1.172767281532287598e-01
1.448000000000000000e+03 3.012951374053955078e+00 -1.199776172637939453e+01 1.255876868963241577e-01 -1.537278056144714355e+00 -4.235070943832397461e-01 -1.010381340980529785e+00
1.449000000000000000e+03 1.580974459648132324e+00 -7.920841693878173828e+00 -3.933840990066528320e-02 -1.588145375251770020e+00 -4.882451295852661133e-01 -6.679474115371704102e-01
1.450000000000000000e+03 3.433922290802001953e+00 -4.707548141479492188e+00 -2.715685665607452393e-01 -3.402310907840728760e-01 -1.835398972034454346e-01 -7.780390381813049316e-01
1.451000000000000000e+03 2.793907403945922852e+00 5.256032466888427734e+00 -6.423593312501907349e-02 -3.173134028911590576e-01 -1.144647970795631409e-01 2.886184453964233398e-01
1.452000000000000000e+03 3.018266677856445312e+00 7.993349075317382812e+00 6.289080716669559479e-03 -5.610947012901306152e-01 -1.664416939020156860e-01 3.474696874618530273e-01
1.453000000000000000e+03 1.811092376708984375e+00 1.490003681182861328e+01 2.221639640629291534e-02 -1.190670967102050781e+00 -3.505363762378692627e-01 1.227605417370796204e-01
1.454000000000000000e+03 3.058871030807495117e+00 1.627058792114257812e+01 4.918638616800308228e-02 -1.073126554489135742e+00 -3.071820437908172607e-01 1.478216499090194702e-01
1.455000000000000000e+03 2.915783405303955078e+00 9.399454116821289062e+00 2.685301750898361206e-02 -6.854420304298400879e-01 -1.975767016410827637e-01 3.229081928730010986e-01
1.456000000000000000e+03 2.639008522033691406e+00 -7.936173439025878906e+00 -8.388970047235488892e-02 -1.088354945182800293e+00 -3.516733944416046143e-01 -9.610681533813476562e-01
1.457000000000000000e+03 1.828917741775512695e+00 -2.312999153137207031e+01 2.379170507192611694e-01 -1.662534594535827637e+00 -4.273852407932281494e-01 1.353644371032714844e+00
1.458000000000000000e+03 2.373206853866577148e+00 -3.572386169433593750e+01 -1.689384281635284424e-01 3.596786260604858398e+00 1.028354287147521973e+00 1.908467113971710205e-01
1.459000000000000000e+03 4.858408927917480469e+00 -3.774190139770507812e+01 -2.812824547290802002e-01 2.824525833129882812e+00 7.629730105400085449e-01 3.282427489757537842e-01
1.460000000000000000e+03 2.751663208007812500e+00 -9.233340263366699219e+00 -4.880379140377044678e-02 -1.275310277938842773e+00 -3.972342312335968018e-01 -1.038096547126770020e+00
1.461000000000000000e+03 3.036891460418701172e+00 -1.628659820556640625e+01 4.495604336261749268e-01 -1.676807284355163574e+00 -3.681740462779998779e-01 -2.738929092884063721e-01
1.462000000000000000e+03 3.083909749984741211e+00 -1.487959766387939453e+01 3.497137129306793213e-01 -1.667654752731323242e+00 -3.953823149204254150e-01 -5.793066620826721191e-01
1.463000000000000000e+03 4.038678169250488281e+00 -3.403341674804687500e+01 -4.920599758625030518e-01 2.849366664886474609e+00 7.071920633316040039e-01 6.199992299079895020e-01
1.464000000000000000e+03 6.276415824890136719e+00 -3.119191932678222656e+01 -1.322763442993164062e+00 2.563302040100097656e+00 3.721615672111511230e-01 1.201204538345336914e+00
1.465000000000000000e+03 5.526734352111816406e+00 -2.729645538330078125e+01 -9.949613809585571289e-01 3.084110498428344727e+00 6.267447471618652344e-01 2.485740900039672852e+00
1.466000000000000000e+03 5.011198520660400391e+00 -2.264566230773925781e+01 1.106093287467956543e+00 2.684376716613769531e+00 1.137140989303588867e+00 2.333326101303100586e+00
1.467000000000000000e+03 3.278295993804931641e+00 -2.421576309204101562e+01 3.500333428382873535e-01 7.822903990745544434e-01 3.396971225738525391e-01 2.285838603973388672e+00
1.468000000000000000e+03 7.837235927581787109e+00 -2.058908462524414062e+01 2.160175561904907227e+00 8.115296363830566406e+00 3.082641601562500000e+00 2.528374671936035156e+00
1.469000000000000000e+03 1.948104023933410645e+00 -4.343199253082275391e+00 -1.018097400665283203e-01 -5.275021791458129883e-01 -1.887935698032379150e-01 -4.945847690105438232e-01
1.470000000000000000e+03 2.890417098999023438e+00 1.076170825958251953e+01 3.900373727083206177e-02 -7.891231775283813477e-01 -2.250358313322067261e-01 2.936745882034301758e-01
1.471000000000000000e+03 2.948946237564086914e+00 1.349200916290283203e+01 5.142427235841751099e-02 -9.609871506690979004e-01 -2.728688716888427734e-01 2.248825430870056152e-01
1.472000000000000000e+03 3.144801139831542969e+00 1.906718826293945312e+01 4.342740774154663086e-02 -1.131298542022705078e+00 -3.263613283634185791e-01 7.799598574638366699e-02
1.473000000000000000e+03 6.879999542236328125e+01 -9.552916526794433594e+00 5.996483564376831055e-01 5.606179237365722656e+00 1.861748337745666504e+00 1.160247206687927246e+00
1.474000000000000000e+03 7.566998291015625000e+01 -2.104544878005981445e+00 2.568079829216003418e-01 7.187911987304687500e+00 2.233416080474853516e+00 -3.594866693019866943e-01
1.475000000000000000e+03 7.074868774414062500e+01 -9.823302030563354492e-01 7.057745456695556641e-01 1.124557685852050781e+01 3.585405349731445312e+00 1.393971920013427734e+00
1.476000000000000000e+03 1.611513900756835938e+01 -3.444051361083984375e+01 -1.464341521263122559e+00 -5.883604884147644043e-01 -6.158106327056884766e-01 6.055107712745666504e-01
1.477000000000000000e+03 4.212047576904296875e+01 2.540690040588378906e+01 4.191592335700988770e-01 5.997432708740234375e+00 1.924977540969848633e+00 9.911569356918334961e-01
1.478000000000000000e+03 1.768794631958007812e+01 -3.292756652832031250e+01 -2.077980756759643555e+00 -4.373322129249572754e-01 -7.545939087867736816e-01 6.530369520187377930e-01
1.479000000000000000e+03 4.006158447265625000e+01 1.786282730102539062e+01 9.135521054267883301e-01 8.449410438537597656e+00 2.808888912200927734e+00 5.061229467391967773e-01
1.480000000000000000e+03 4.145022583007812500e+01 1.771319770812988281e+01 7.958262562751770020e-01 9.508178710937500000e+00 3.091201543807983398e+00 1.018421530723571777e+00
1.481000000000000000e+03 4.387891769409179688e+01 -2.914796447753906250e+01 1.001000165939331055e+00 8.701770782470703125e+00 2.910831212997436523e+00 -1.288017868995666504e+00
1.482000000000000000e+03 4.424084854125976562e+01 -2.504189682006835938e+01 2.061100244522094727e+00 1.112311267852783203e+01 3.955263853073120117e+00 -2.869578599929809570e+00
1.483000000000000000e+03 4.253753280639648438e+01 2.205176353454589844e+01 8.651841878890991211e-01 7.425109863281250000e+00 2.487088203430175781e+00 1.662929654121398926e+00
1.484000000000000000e+03 4.065765762329101562e+01 2.091384506225585938e+01 7.192271351814270020e-01 7.542169570922851562e+00 2.478419065475463867e+00 8.601130247116088867e-01
1.485000000000000000e+03 7.097353935241699219e+00 -2.331028366088867188e+01 1.132815718650817871e+00 6.070132732391357422e+00 2.160884618759155273e+00 2.317043066024780273e+00
1.486000000000000000e+03 5.380075931549072266e+00 -2.014874267578125000e+01 1.523203492164611816e+00 2.678718090057373047e+00 1.260576486587524414e+00 1.573446273803710938e+00
1.487000000000000000e+03 4.360542678833007812e+01 3.236913299560546875e+01 -6.436104178428649902e-01 4.283274173736572266e+00 1.091899156570434570e+00 5.131707787513732910e-01
1.488000000000000000e+03 8.048158645629882812e+00 -1.647919273376464844e+01 2.218233108520507812e+00 4.983144760131835938e+00 2.160413265228271484e+00 1.565815448760986328e+00
1.489000000000000000e+03 4.225432586669921875e+01 -1.697108459472656250e+01 9.985781461000442505e-02 8.624242782592773438e+00 2.617230176925659180e+00 -2.409629583358764648e+00
1.490000000000000000e+03 4.968461227416992188e+01 -1.677260398864746094e+01 -9.854365587234497070e-01 4.678473949432373047e+00 1.107911229133605957e+00 -3.853478431701660156e-01
1.491000000000000000e+03 7.063561248779296875e+01 -5.528818130493164062e+00 3.593156933784484863e-01 8.003948211669921875e+00 2.508979082107543945e+00 9.631615877151489258e-01
1.492000000000000000e+03 4.224194335937500000e+01 3.982647895812988281e+00 7.231314778327941895e-01 7.334995269775390625e+00 2.417438030242919922e+00 -1.940315365791320801e+00
1.493000000000000000e+03 4.224048614501953125e+01 -2.016836357116699219e+01 2.723677396774291992e+00 1.237958240509033203e+01 4.530978202819824219e+00 -3.390260457992553711e+00
1.494000000000000000e+03 4.439748382568359375e+01 -1.723610687255859375e+01 -7.548967748880386353e-02 8.390749931335449219e+00 2.494578123092651367e+00 -1.280735373497009277e+00
1.495000000000000000e+03 6.946055603027343750e+01 3.038977050781250000e+01 -5.578362345695495605e-01 4.064884185791015625e+00 1.052114367485046387e+00 -4.850557819008827209e-02
1.496000000000000000e+03 7.131758880615234375e+01 7.643223285675048828e+00 3.973049521446228027e-01 1.087036132812500000e+01 3.380299806594848633e+00 2.695510089397430420e-01
1.497000000000000000e+03 7.490373229980468750e+01 -3.332296371459960938e+01 -3.864186108112335205e-01 7.274594306945800781e+00 2.066452741622924805e+00 -4.114901721477508545e-01
1.498000000000000000e+03 7.416922760009765625e+01 2.154385757446289062e+01 1.431593596935272217e-01 8.355813980102539062e+00 2.549692153930664062e+00 6.181904077529907227e-01
1.499000000000000000e+03 4.275106430053710938e+01 2.684003639221191406e+01 2.663188874721527100e-01 5.488114833831787109e+00 1.726330161094665527e+00 9.908586740493774414e-01
1.500000000000000000e+03 4.072335815429687500e+01 6.801110267639160156e+00 1.202170968055725098e+00 8.568859100341796875e+00 2.931309223175048828e+00 -1.215528607368469238e+00
1.501000000000000000e+03 7.057462310791015625e+01 -8.626404762268066406e+00 2.935648262500762939e-01 6.535111904144287109e+00 2.048603057861328125e+00 5.832141637802124023e-01
1.502000000000000000e+03 6.223777008056640625e+01 -1.981994056701660156e+01 -5.392513275146484375e-01 1.535438537597656250e+00 2.988561689853668213e-01 1.858195781707763672e+00
1.503000000000000000e+03 5.014267349243164062e+01 3.344167327880859375e+01 -1.307689398527145386e-01 1.590507388114929199e+00 4.379215240478515625e-01 5.743998885154724121e-01
1.504000000000000000e+03 4.721925354003906250e+01 3.458042526245117188e+01 -6.234835386276245117e-01 2.988251686096191406e+00 7.094303965568542480e-01 6.222755312919616699e-01
1.505000000000000000e+03 5.442971801757812500e+01 -2.680918121337890625e+01 1.573079228401184082e+00 4.798499584197998047e+00 1.911473631858825684e+00 -4.103671014308929443e-01
1.506000000000000000e+03 5.486561203002929688e+01 -2.490600395202636719e+01 1.700659632682800293e+00 3.496439933776855469e+00 1.559129834175109863e+00 6.141638755798339844e-02
1.507000000000000000e+03 1.985509300231933594e+01 -1.142923259735107422e+01 3.028068542480468750e+00 -7.569992542266845703e-01 6.813207864761352539e-01 5.921184539794921875e+00
1.508000000000000000e+03 4.155212402343750000e+01 2.393354415893554688e+01 5.441651344299316406e-01 6.504205226898193359e+00 2.114511013031005859e+00 9.718881249427795410e-01
1.509000000000000000e+03 3.986172866821289062e+01 1.632888412475585938e+01 9.766501784324645996e-01 8.954109191894531250e+00 2.979228019714355469e+00 2.708253562450408936e-01
1.510000000000000000e+03 6.619802856445312500e+01 -1.186215782165527344e+01 1.245447635650634766e+00 3.604642391204833984e+00 1.455027103424072266e+00 1.510287284851074219e+00
1.511000000000000000e+03 6.816379547119140625e+01 -1.085871791839599609e+01 7.715039253234863281e-01 4.833590507507324219e+00 1.681528329849243164e+00 1.132438182830810547e+00
1.512000000000000000e+03 7.272906303405761719e+00 -2.832149314880371094e+01 -1.499768376350402832e+00 3.246193885803222656e+00 5.239276289939880371e-01 1.531664967536926270e+00
1.513000000000000000e+03 6.432350158691406250e+01 -1.902064514160156250e+01 -5.908229351043701172e-01 1.387373685836791992e+00 2.389652431011199951e-01 1.684621572494506836e+00
1.514000000000000000e+03 2.911245346069335938e+00 -2.031557655334472656e+01 5.827100872993469238e-01 -1.237225532531738281e+00 -1.963546425104141235e-01 1.018561840057373047e+00
1.515000000000000000e+03 5.540054702758789062e+01 -3.200448989868164062e+01 2.554136991500854492e+00 8.901617050170898438e+00 3.436726093292236328e+00 -2.057693243026733398e+00
1.516000000000000000e+03 5.682567977905273438e+01 -3.839925003051757812e+01 -5.312651395797729492e-01 4.266498088836669922e+00 1.120569944381713867e+00 -1.176780343055725098e+00
1.517000000000000000e+03 5.598494338989257812e+01 -2.421672058105468750e+01 1.634088516235351562e+00 2.668103456497192383e+00 1.290657639503479004e+00 6.172851920127868652e-01
1.518000000000000000e+03 3.967456817626953125e+01 1.320737648010253906e+01 1.330006122589111328e+00 9.472737312316894531e+00 3.240823030471801758e+00 -4.665905535221099854e-01
1.519000000000000000e+03 4.314678955078125000e+01 -3.437100982666015625e+01 -1.803644776344299316e+00 5.685340881347656250e+00 1.164508819580078125e+00 3.016102015972137451e-01
1.520000000000000000e+03 6.817318725585937500e+01 -2.031820106506347656e+01 -1.239362955093383789e+00 5.012083649635314941e-01 -2.214463800191879272e-01 -4.651858210563659668e-01
1.521000000000000000e+03 7.201349639892578125e+01 2.487401390075683594e+01 2.732585668563842773e-01 7.708989620208740234e+00 2.394674539566040039e+00 3.961374163627624512e-01
1.522000000000000000e+03 7.180580902099609375e+01 2.637875175476074219e+01 1.868753880262374878e-01 7.276217460632324219e+00 2.238927841186523438e+00 4.176429212093353271e-01
1.523000000000000000e+03 6.734369659423828125e+01 -1.353208923339843750e+01 7.877097129821777344e-01 3.609262466430664062e+00 1.319091677665710449e+00 7.810094952583312988e-01
1.524000000000000000e+03 3.971747207641601562e+01 1.161721324920654297e+01 1.720368146896362305e+00 9.412409782409667969e+00 3.339833498001098633e+00 -7.829967141151428223e-01
1.525000000000000000e+03 7.256301116943359375e+01 7.744080066680908203e+00 2.369611859321594238e-01 9.956206321716308594e+00 3.057950258255004883e+00 6.551741957664489746e-01
1.526000000000000000e+03 7.096735382080078125e+01 -3.385086441040039062e+01 -7.380810976028442383e-01 5.261632442474365234e+00 1.357065439224243164e+00 8.620409965515136719e-01
1.527000000000000000e+03 1.120267200469970703e+01 -3.217420959472656250e+01 -1.744322419166564941e+00 3.700970113277435303e-01 -4.122676253318786621e-01 3.729146718978881836e-01
1.528000000000000000e+03 1.431524944305419922e+01 -3.385910797119140625e+01 -1.460946440696716309e+00 -4.739332497119903564e-01 -5.804639458656311035e-01 5.481139421463012695e-01
1.529000000000000000e+03 1.265992355346679688e+01 -3.306018447875976562e+01 -1.561165571212768555e+00 -2.402428835630416870e-01 -5.404225587844848633e-01 4.455713033676147461e-01
1.530000000000000000e+03 5.226512145996093750e+01 -2.911315727233886719e+01 2.137593269348144531e+00 5.851233959197998047e+00 2.396648168563842773e+00 -1.971378207206726074e+00
1.531000000000000000e+03 5.268198394775390625e+01 -3.008424377441406250e+01 2.115413188934326172e+00 5.789751052856445312e+00 2.371549367904663086e+00 -1.517607927322387695e+00
1.532000000000000000e+03 5.600841903686523438e+01 -2.125532531738281250e+01 9.095201492309570312e-01 1.345588326454162598e+00 6.765325069427490234e-01 6.813784837722778320e-01
1.533000000000000000e+03 4.910474777221679688e+01 -1.227473926544189453e+01 -9.547688961029052734e-01 4.509004592895507812e+00 1.066270709037780762e+00 5.953304935246706009e-04
1.534000000000000000e+03 3.808350753784179688e+01 -3.496451950073242188e+01 -1.441574096679687500e+00 6.024861931800842285e-01 -2.517263591289520264e-01 5.698280334472656250e-01
1.535000000000000000e+03 6.666165161132812500e+01 -1.940803337097167969e+01 -5.470030307769775391e-01 7.889994978904724121e-01 7.259892672300338745e-02 6.314125061035156250e-01
1.536000000000000000e+03 5.708189392089843750e+01 4.101964950561523438e+01 -1.726172864437103271e-01 -2.790262401103973389e-01 -1.354930549860000610e-01 7.733430713415145874e-02
1.537000000000000000e+03 6.174433898925781250e+01 3.751884841918945312e+01 -6.858928799629211426e-01 -4.505749046802520752e-01 -3.409403264522552490e-01 3.904520571231842041e-01
1.538000000000000000e+03 4.145687103271484375e+01 -3.284997558593750000e+01 -1.771439194679260254e+00 5.131705760955810547e+00 1.008079886436462402e+00 9.397163987159729004e-01
1.539000000000000000e+03 7.684008789062500000e+01 -2.932077598571777344e+01 3.098721504211425781e-01 7.163369655609130859e+00 2.241972446441650391e+00 -5.229626297950744629e-01
1.540000000000000000e+03 7.302497100830078125e+01 -2.947506713867187500e+01 8.132868409156799316e-01 8.903075218200683594e+00 2.914908647537231445e+00 8.478621020913124084e-03
1.541000000000000000e+03 7.232431793212890625e+01 1.451580238342285156e+01 -1.363678649067878723e-02 8.946190834045410156e+00 2.679766178131103516e+00 3.439525663852691650e-01
1.542000000000000000e+03 7.111838531494140625e+01 1.445483589172363281e+01 2.161134332418441772e-01 9.068293571472167969e+00 2.785322189331054688e+00 3.860365450382232666e-01
1.543000000000000000e+03 4.337755203247070312e+01 -2.071256828308105469e+01 3.553544521331787109e+00 1.071936225891113281e+01 4.281871795654296875e+00 -2.345756053924560547e+00
1.544000000000000000e+03 4.312837600708007812e+01 2.977927780151367188e+01 -2.208162248134613037e-01 4.757727622985839844e+00 1.361073374748229980e+00 7.258980870246887207e-01
1.545000000000000000e+03 1.781742286682128906e+01 -1.226345634460449219e+01 1.852003693580627441e+00 -3.620884716510772705e-01 4.469745755195617676e-01 4.346016407012939453e+00
1.546000000000000000e+03 7.562920379638671875e+01 -2.562286949157714844e+01 7.779045104980468750e-01 7.625141143798828125e+00 2.520913839340209961e+00 4.063738584518432617e-01
1.547000000000000000e+03 3.915303039550781250e+01 -3.465022659301757812e+01 -1.564916968345642090e+00 2.031916141510009766e+00 1.400997042655944824e-01 1.057533383369445801e+00
1.548000000000000000e+03 7.337335968017578125e+01 -1.929512405395507812e+01 -1.115491509437561035e+00 6.915842056274414062e+00 1.740105032920837402e+00 -3.912979662418365479e-01
1.549000000000000000e+03 3.283463478088378906e+00 -2.713060760498046875e+01 -3.103939294815063477e-01 1.790871024131774902e+00 4.441431164741516113e-01 2.227821111679077148e+00
1.550000000000000000e+03 9.990187644958496094e+00 -3.117786407470703125e+01 -1.883035302162170410e+00 9.748633503913879395e-01 -2.724515795707702637e-01 4.136068522930145264e-01
1.551000000000000000e+03 7.153332519531250000e+01 2.791956329345703125e+01 -8.932460099458694458e-03 6.717254638671875000e+00 2.012496709823608398e+00 4.397359788417816162e-01
1.552000000000000000e+03 7.329536437988281250e+01 3.269213867187500000e+01 -5.457898974418640137e-01 7.262547016143798828e+00 2.015027046203613281e+00 4.411226212978363037e-01
1.553000000000000000e+03 5.248789596557617188e+01 3.573497772216796875e+01 -4.693397879600524902e-01 8.481360673904418945e-01 1.136388927698135376e-01 3.477935492992401123e-01
1.554000000000000000e+03 4.974059295654296875e+01 3.952754592895507812e+01 -7.878412604331970215e-01 2.009716510772705078e+00 3.665625751018524170e-01 2.301573753356933594e-01
1.555000000000000000e+03 4.031168746948242188e+01 8.422555923461914062e+00 1.651487708091735840e+00 9.091166496276855469e+00 3.222796201705932617e+00 -1.006889820098876953e+00
1.556000000000000000e+03 3.902315139770507812e+01 -1.643489074707031250e+01 3.197262585163116455e-01 5.477151393890380859e+00 1.739063382148742676e+00 -3.299196720123291016e+00
1.557000000000000000e+03 4.962974929809570312e+01 -1.366313838958740234e+01 -1.341384053230285645e+00 4.201339721679687500e+00 8.579866886138916016e-01 1.896768361330032349e-01
1.558000000000000000e+03 1.656946563720703125e+01 -1.247419929504394531e+01 3.085925340652465820e+00 9.998635053634643555e-01 1.225736618041992188e+00 3.425442218780517578e+00
1.559000000000000000e+03 6.031945037841796875e+01 4.021859359741210938e+01 -1.637757010757923126e-02 -5.734880566596984863e-01 -1.769596934318542480e-01 2.221925556659698486e-01
1.560000000000000000e+03 5.596823120117187500e+01 -1.829943656921386719e+01 -1.210358500480651855e+00 -5.355379581451416016e-01 -5.237689614295959473e-01 1.036673545837402344e+00
1.561000000000000000e+03 5.701536941528320312e+01 -1.990102767944335938e+01 6.501316092908382416e-03 1.678202152252197266e-01 5.229645967483520508e-02 1.465744376182556152e+00
1.562000000000000000e+03 5.417535781860351562e+01 -1.782748222351074219e+01 -1.549858927726745605e+00 2.063544243574142456e-01 -4.030513465404510498e-01 -3.125099465250968933e-02
1.563000000000000000e+03 8.097913742065429688e+00 -1.538102817535400391e+01 2.179441928863525391e+00 4.309965610504150391e+00 1.946822285652160645e+00 1.036749601364135742e+00
1.564000000000000000e+03 1.391445350646972656e+01 -1.224925518035888672e+01 3.412376165390014648e+00 2.738308429718017578e+00 1.845205426216125488e+00 2.511399269104003906e+00
1.565000000000000000e+03 4.041195678710937500e+01 -1.604672241210937500e+01 1.277686059474945068e-01 7.131120204925537109e+00 2.177666664123535156e+00 -3.086005926132202148e+00
1.566000000000000000e+03 6.305280303955078125e+01 -2.127894592285156250e+01 -2.730872035026550293e-01 1.149277091026306152e+00 2.628569602966308594e-01 1.465694308280944824e+00
1.567000000000000000e+03 6.543766784667968750e+01 -1.980748939514160156e+01 -8.672654032707214355e-01 9.337492585182189941e-01 1.994515955448150635e-02 1.398298621177673340e+00
1.568000000000000000e+03 7.317090606689453125e+01 -2.104097747802734375e+01 -1.119816541671752930e+00 7.444989204406738281e+00 1.897551894187927246e+00 3.227115795016288757e-02
1.569000000000000000e+03 7.372772216796875000e+01 -2.372483253479003906e+01 7.166931629180908203e-01 8.160304069519042969e+00 2.663099050521850586e+00 5.879117250442504883e-01
1.570000000000000000e+03 4.421090316772460938e+01 -3.061369132995605469e+01 -4.822127893567085266e-02 8.302840232849121094e+00 2.476385593414306641e+00 -1.098102688789367676e+00
1.571000000000000000e+03 7.041894912719726562e+00 -2.649976921081542969e+01 -8.249917626380920410e-01 3.851581811904907227e+00 9.079769849777221680e-01 2.253148555755615234e+00
1.572000000000000000e+03 4.435583114624023438e+01 -2.239150810241699219e+01 3.374152421951293945e+00 1.026217746734619141e+01 4.090898990631103516e+00 -2.480215072631835938e+00
1.573000000000000000e+03 4.257778167724609375e+01 -1.820760154724121094e+01 7.130569815635681152e-01 1.007896232604980469e+01 3.237605810165405273e+00 -2.387854337692260742e+00
1.574000000000000000e+03 6.814581298828125000e+01 3.651815795898437500e+01 -4.464518129825592041e-01 2.554586887359619141e+00 6.324405670166015625e-01 -2.926553785800933838e-01
1.575000000000000000e+03 6.500447082519531250e+01 3.798794937133789062e+01 -1.435739547014236450e-01 3.235176801681518555e-01 5.398311838507652283e-02 8.959927409887313843e-02
1.576000000000000000e+03 6.835732269287109375e+01 3.481302261352539062e+01 -8.047569394111633301e-01 2.669345855712890625e+00 5.593766570091247559e-01 -2.595839500427246094e-01
1.577000000000000000e+03 5.002895832061767578e+00 -4.052248001098632812e+01 -4.047663882374763489e-02 2.828119754791259766e+00 8.362929224967956543e-01 1.853116899728775024e-01
1.578000000000000000e+03 5.265493392944335938e+01 -1.736006736755371094e+01 -1.753954172134399414e+00 1.590680956840515137e+00 -4.898196086287498474e-02 -3.630464076995849609e-01
1.579000000000000000e+03 5.403259658813476562e+01 -3.221556472778320312e+01 1.809728741645812988e+00 6.584852695465087891e+00 2.518374443054199219e+00 -8.590272665023803711e-01
1.580000000000000000e+03 4.983986377716064453e+00 4.033681488037109375e+01 -5.277355760335922241e-02 -6.717069745063781738e-01 -2.173441499471664429e-01 1.262275408953428268e-02
1.581000000000000000e+03 5.477698135375976562e+01 -3.535351562500000000e+01 -2.822089195251464844e-01 5.705019474029541016e+00 1.626843214035034180e+00 -9.368126392364501953e-01
1.582000000000000000e+03 5.278762054443359375e+01 -3.610080337524414062e+01 -5.999572277069091797e-01 6.347534656524658203e+00 1.724273324012756348e+00 -7.386335730552673340e-01
1.583000000000000000e+03 6.620642852783203125e+01 -3.755702590942382812e+01 3.823076188564300537e-01 1.041152119636535645e+00 4.270379245281219482e-01 4.589113891124725342e-01
1.584000000000000000e+03 6.409327697753906250e+01 -3.631374359130859375e+01 -2.027107030153274536e-01 -7.526794821023941040e-02 -8.339359611272811890e-02 -9.395574033260345459e-02
1.585000000000000000e+03 1.872114944458007812e+01 -8.124032020568847656e+00 3.097672700881958008e+00 -1.825584530830383301e+00 3.816264569759368896e-01 8.882516026496887207e-01
1.586000000000000000e+03 2.222496032714843750e+01 -5.944537162780761719e+00 -9.904258251190185547e-01 3.943801879882812500e+00 8.860127925872802734e-01 9.919434189796447754e-01
1.587000000000000000e+03 2.245287704467773438e+01 -5.655701160430908203e+00 -1.034819722175598145e+00 3.905576944351196289e+00 8.612271547317504883e-01 1.126465201377868652e+00
1.588000000000000000e+03 2.245248031616210938e+01 -6.227823257446289062e+00 -8.749291300773620605e-01 4.728378295898437500e+00 1.156034708023071289e+00 1.444875121116638184e+00
1.589000000000000000e+03 2.211175918579101562e+01 -6.670391082763671875e+00 -9.156794548034667969e-01 4.713057518005371094e+00 1.139213442802429199e+00 1.056157708168029785e+00
1.590000000000000000e+03 2.226960754394531250e+01 -5.325552940368652344e+00 -1.073254585266113281e+00 3.388995647430419922e+00 6.947222948074340820e-01 8.639788031578063965e-01
1.591000000000000000e+03 2.183494377136230469e+01 -5.375506401062011719e+00 -1.112167835235595703e+00 2.808852434158325195e+00 5.090053677558898926e-01 5.785880684852600098e-01
1.592000000000000000e+03 2.348696136474609375e+01 -7.673915386199951172e+00 4.261278629302978516e+00 5.110081195831298828e+00 2.811408042907714844e+00 5.088011264801025391e+00
1.593000000000000000e+03 1.841532325744628906e+01 -8.061750411987304688e+00 2.729867219924926758e+00 -1.680564165115356445e+00 3.147909343242645264e-01 9.961881041526794434e-01
1.594000000000000000e+03 1.981120300292968750e+01 -9.094301223754882812e+00 8.244601249694824219e+00 -2.605619192123413086e+00 1.691694498062133789e+00 1.693143367767333984e+00
1.595000000000000000e+03 1.736162376403808594e+01 -7.905982017517089844e+00 1.891467332839965820e+00 -1.154427766799926758e+00 2.211118936538696289e-01 1.320110321044921875e+00
1.596000000000000000e+03 1.536065292358398438e+01 -1.147861003875732422e+01 2.614242076873779297e+00 1.552006602287292480e+00 1.249874591827392578e+00 3.065304756164550781e+00
1.597000000000000000e+03 1.618348693847656250e+01 -6.896579265594482422e+00 2.956687808036804199e-01 -4.311654567718505859e-01 -4.064900428056716919e-02 1.150608301162719727e+00
1.598000000000000000e+03 2.138685417175292969e+01 -4.713658809661865234e+00 -1.131249666213989258e+00 1.784864306449890137e+00 1.960843801498413086e-01 4.532616138458251953e-01
1.599000000000000000e+03 2.068496513366699219e+01 -2.760299205780029297e+00 -1.041540622711181641e+00 1.032422065734863281e+00 -2.735545625910162926e-03 3.350089192390441895e-01
1.600000000000000000e+03 2.437122344970703125e+01 -7.918291568756103516e+00 5.216218471527099609e+00 3.038988113403320312e+00 2.476562023162841797e+00 4.128550529479980469e+00
1.601000000000000000e+03 1.586987876892089844e+01 -7.390794277191162109e+00 6.690633296966552734e-01 -2.522647082805633545e-01 1.250395923852920532e-01 1.240047454833984375e+00
1.602000000000000000e+03 1.698936271667480469e+01 -7.560474872589111328e+00 1.274274945259094238e+00 -8.889901638031005859e-01 1.155854240059852600e-01 1.290339231491088867e+00
1.603000000000000000e+03 1.844832801818847656e+01 -1.011175441741943359e+01 5.205813884735107422e+00 -2.132745742797851562e+00 9.219205379486083984e-01 4.075007438659667969e+00
1.604000000000000000e+03 2.090805244445800781e+01 -2.571049213409423828e+00 -1.002480387687683105e+00 1.209973931312561035e+00 6.224806234240531921e-02 3.150223791599273682e-01
1.605000000000000000e+03 1.344511985778808594e+01 -5.860983371734619141e+00 -7.354391813278198242e-01 5.671628713607788086e-01 -5.048289522528648376e-02 6.464968919754028320e-01
1.606000000000000000e+03 1.291603660583496094e+01 -5.573880672454833984e+00 -8.997527956962585449e-01 6.721194386482238770e-01 -6.829000264406204224e-02 4.825412034988403320e-01
1.607000000000000000e+03 2.581114768981933594e+01 -1.060206413269042969e+01 3.320040941238403320e+00 4.697963297367095947e-01 1.136951208114624023e+00 -8.227381706237792969e-01
1.608000000000000000e+03 2.528174972534179688e+01 -8.853327751159667969e+00 5.537050247192382812e+00 9.110148549079895020e-01 1.934419512748718262e+00 1.551185131072998047e+00
1.609000000000000000e+03 1.474456214904785156e+01 -5.896594047546386719e+00 -6.530277729034423828e-01 1.090789809823036194e-01 -1.631846427917480469e-01 8.864642381668090820e-01
1.610000000000000000e+03 1.544111824035644531e+01 -7.097164630889892578e+00 3.311935067176818848e-01 -6.927885115146636963e-02 7.857439666986465454e-02 1.154957294464111328e+00
1.611000000000000000e+03 2.131942176818847656e+01 -3.133660316467285156e+00 -1.079173445701599121e+00 1.531377196311950684e+00 1.356611251831054688e-01 3.247135877609252930e-01
1.612000000000000000e+03 1.165325546264648438e+01 -5.726133823394775391e+00 -8.656980395317077637e-01 9.475778937339782715e-01 2.456394582986831665e-02 1.725820004940032959e-01
1.613000000000000000e+03 1.194361305236816406e+01 -4.400223731994628906e+00 -1.259397983551025391e+00 5.772147178649902344e-01 -2.046549767255783081e-01 2.740944325923919678e-01
1.614000000000000000e+03 1.396100044250488281e+01 -6.160016059875488281e+00 -5.570280551910400391e-01 4.589039385318756104e-01 -2.943722717463970184e-02 7.557649612426757812e-01
1.615000000000000000e+03 9.186455726623535156e+00 4.707981109619140625e+00 -2.210773527622222900e-01 -4.847893714904785156e-01 -2.117600142955780029e-01 7.006363868713378906e-01
1.616000000000000000e+03 8.535453796386718750e+00 4.417921066284179688e+00 -2.715938389301300049e-01 -4.369936883449554443e-01 -2.125762552022933960e-01 6.835498213768005371e-01
1.617000000000000000e+03 1.497305870056152344e+01 -6.786099910736083984e+00 -1.850628852844238281e-02 1.453070044517517090e-01 3.804021328687667847e-02 1.034603953361511230e+00
1.618000000000000000e+03 7.897347927093505859e+00 4.210564613342285156e+00 -3.006398379802703857e-01 -3.869572281837463379e-01 -2.062791138887405396e-01 6.645389199256896973e-01
1.619000000000000000e+03 5.993734359741210938e+00 4.014405727386474609e+00 -2.733857929706573486e-01 -2.667104899883270264e-01 -1.620288789272308350e-01 5.150233507156372070e-01
1.620000000000000000e+03 5.330793380737304688e+00 4.060895919799804688e+00 -2.212578207254409790e-01 -2.544667124748229980e-01 -1.427173614501953125e-01 4.528566300868988037e-01
1.621000000000000000e+03 3.813799381256103516e+00 5.155282020568847656e+00 -9.990026056766510010e-02 -3.228080570697784424e-01 -1.268125027418136597e-01 3.699423372745513916e-01
1.622000000000000000e+03 4.680342197418212891e+00 4.981216907501220703e+00 -1.369914412498474121e-01 -3.195357024669647217e-01 -1.369581371545791626e-01 4.405225217342376709e-01
1.623000000000000000e+03 4.012006282806396484e+00 3.326321125030517578e+00 -1.850347071886062622e-01 -1.637492775917053223e-01 -1.046351939439773560e-01 2.903444170951843262e-01
1.624000000000000000e+03 5.371337890625000000e+00 4.754903793334960938e+00 -1.764335036277770996e-01 -3.129155635833740234e-01 -1.468047201633453369e-01 4.919103384017944336e-01
1.625000000000000000e+03 3.422942638397216797e+00 3.263754606246948242e+00 -1.442349553108215332e-01 -1.576189398765563965e-01 -9.055616706609725952e-02 2.439012527465820312e-01
1.626000000000000000e+03 1.693217635154724121e+00 5.154590129852294922e+00 -2.790320292115211487e-02 -2.897444069385528564e-01 -9.529428929090499878e-02 1.797425448894500732e-01
1.627000000000000000e+03 1.594730091094970703e+01 7.455440759658813477e-01 -8.827762007713317871e-01 -5.582287311553955078e-01 -4.323014616966247559e-01 6.434973478317260742e-01
1.628000000000000000e+03 1.581970214843750000e+01 2.486364364624023438e+00 -3.986171782016754150e-01 -3.710665404796600342e-01 -2.309051156044006348e-01 4.621738493442535400e-01
1.629000000000000000e+03 9.951211929321289062e+00 -4.538663864135742188e+00 -1.089422702789306641e+00 7.676808238029479980e-01 -9.652255475521087646e-02 -1.899459660053253174e-01
1.630000000000000000e+03 1.693814849853515625e+01 9.850806593894958496e-01 -6.845958232879638672e-01 -3.181893825531005859e-01 -3.008355796337127686e-01 4.754991531372070312e-01
1.631000000000000000e+03 7.866112709045410156e+00 -3.544449806213378906e+00 -9.717298150062561035e-01 4.236084520816802979e-01 -1.644364148378372192e-01 -4.525905251502990723e-01
1.632000000000000000e+03 5.590755462646484375e+00 -3.617318391799926758e+00 -6.305842995643615723e-01 1.032012104988098145e-01 -1.582149267196655273e-01 -6.966522932052612305e-01
1.633000000000000000e+03 6.493675231933593750e+00 -4.442739963531494141e+00 -6.993581056594848633e-01 3.205326795578002930e-01 -1.136476323008537292e-01 -7.572227716445922852e-01
1.634000000000000000e+03 4.209407329559326172e+00 -4.660048484802246094e+00 -3.620269298553466797e-01 -1.741261631250381470e-01 -1.608459204435348511e-01 -8.325415849685668945e-01
1.635000000000000000e+03 2.672721385955810547e+00 -4.687652111053466797e+00 -1.768971234560012817e-01 -5.158512592315673828e-01 -2.078245133161544800e-01 -6.803764700889587402e-01
1.636000000000000000e+03 3.552868604660034180e+00 -6.735993862152099609e+00 -2.043811231851577759e-01 -5.133399367332458496e-01 -2.153163105249404907e-01 -1.016644120216369629e+00
1.637000000000000000e+03 2.589262008666992188e+00 -5.589495182037353516e+00 -1.496711373329162598e-01 -6.529080867767333984e-01 -2.407737672328948975e-01 -7.689473628997802734e-01
1.638000000000000000e+03 1.920563316345214844e+01 1.808308511972427368e-01 -6.531403064727783203e-01 3.811738491058349609e-01 -8.158992975950241089e-02 2.537759244441986084e-01
1.639000000000000000e+03 2.054059791564941406e+01 -1.124027347564697266e+01 3.634763002395629883e+00 -2.776896655559539795e-01 1.007121920585632324e+00 5.721248149871826172e+00
1.640000000000000000e+03 1.976690101623535156e+01 -1.073358154296875000e+01 5.878239154815673828e+00 -1.336323380470275879e+00 1.362574696540832520e+00 5.776302337646484375e+00
1.641000000000000000e+03 1.287651157379150391e+01 3.161073923110961914e+00 -4.297077357769012451e-01 -6.179810762405395508e-01 -3.143066465854644775e-01 6.615087389945983887e-01
1.642000000000000000e+03 1.311597728729248047e+01 2.256339311599731445e+00 -7.098740339279174805e-01 -6.552276611328125000e-01 -4.095305204391479492e-01 7.085281014442443848e-01
1.643000000000000000e+03 1.980514717102050781e+01 -1.386927127838134766e+00 -9.184268116950988770e-01 5.106844305992126465e-01 -1.223227083683013916e-01 3.082964420318603516e-01
1.644000000000000000e+03 1.942327880859375000e+01 -6.676712036132812500e-01 -8.089827299118041992e-01 3.881849944591522217e-01 -1.262393146753311157e-01 2.964344620704650879e-01
1.645000000000000000e+03 1.149782085418701172e+01 3.918854236602783203e+00 -3.082837760448455811e-01 -5.931463837623596191e-01 -2.704290449619293213e-01 6.918533444404602051e-01
1.646000000000000000e+03 2.374064445495605469e+01 -1.127591133117675781e+01 2.182242870330810547e+00 1.976798415184020996e+00 1.247712373733520508e+00 -1.360492944717407227e+00
1.647000000000000000e+03 8.031871795654296875e+00 -5.191271305084228516e+00 -8.001891970634460449e-01 7.111235260963439941e-01 -2.671970054507255554e-02 -6.331181526184082031e-01
1.648000000000000000e+03 1.719913101196289062e+01 1.679869771003723145e+00 -4.823838472366333008e-01 -1.589228957891464233e-01 -1.923920214176177979e-01 3.734635114669799805e-01
1.649000000000000000e+03 7.528287887573242188e+00 -6.128082275390625000e+00 -6.197522878646850586e-01 7.651894092559814453e-01 4.363113641738891602e-02 -7.973813414573669434e-01
1.650000000000000000e+03 1.842523002624511719e+01 2.481173723936080933e-01 -7.063210606575012207e-01 6.521240621805191040e-02 -1.923325955867767334e-01 3.432390689849853516e-01
1.651000000000000000e+03 1.552773094177246094e+01 1.800477743148803711e+00 -6.113129258155822754e-01 -4.971041381359100342e-01 -3.325251042842864990e-01 5.625357031822204590e-01
1.652000000000000000e+03 1.481526374816894531e+01 2.189151763916015625e+00 -5.690429210662841797e-01 -5.502515435218811035e-01 -3.357883393764495850e-01 5.899917483329772949e-01
1.653000000000000000e+03 1.411513805389404297e+01 2.544120550155639648e+00 -5.319907665252685547e-01 -5.883653163909912109e-01 -3.361068069934844971e-01 6.221803426742553711e-01
1.654000000000000000e+03 1.787728118896484375e+01 -1.027794933319091797e+01 4.377666950225830078e+00 -1.647007107734680176e+00 8.191980123519897461e-01 3.989394664764404297e+00
1.655000000000000000e+03 9.980745315551757812e+00 -3.772521972656250000e+00 -1.224691748619079590e+00 6.196466088294982910e-01 -1.815135180950164795e-01 -1.240389645099639893e-01
1.656000000000000000e+03 1.031831073760986328e+01 4.292192459106445312e+00 -2.659877836704254150e-01 -5.430561304092407227e-01 -2.427131682634353638e-01 7.103633880615234375e-01
1.657000000000000000e+03 9.571077346801757812e+00 3.897127866744995117e+00 -3.443736433982849121e-01 -5.003875494003295898e-01 -2.534283697605133057e-01 7.145265340805053711e-01
1.658000000000000000e+03 3.117457008361816406e+01 -1.429959678649902344e+01 -1.010546565055847168e+00 8.069579601287841797e-01 -6.107657030224800110e-02 -7.801380753517150879e-01
1.659000000000000000e+03 1.249311733245849609e+01 3.594473838806152344e+00 -3.404900729656219482e-01 -5.993453264236450195e-01 -2.819506227970123291e-01 6.625536680221557617e-01
1.660000000000000000e+03 1.227355861663818359e+01 4.283443450927734375e+00 -1.975580751895904541e-01 -5.682210922241210938e-01 -2.297337502241134644e-01 6.399426460266113281e-01
1.661000000000000000e+03 6.798084259033203125e+01 -1.913636589050292969e+01 -5.008999705314636230e-01 1.537589550018310547e+00 3.110068738460540771e-01 -1.252077966928482056e-01
1.662000000000000000e+03 6.014073562622070312e+01 -2.118424034118652344e+01 2.102307230234146118e-01 1.366633772850036621e+00 4.730593562126159668e-01 1.857337355613708496e+00
1.663000000000000000e+03 2.823340225219726562e+01 -1.315114307403564453e+01 -1.109313964843750000e+00 6.350147128105163574e-01 -1.422897726297378540e-01 -9.698523283004760742e-01
1.664000000000000000e+03 6.534376525878906250e+01 -1.595863342285156250e+01 3.916797339916229248e-01 2.261608839035034180e+00 7.959865927696228027e-01 1.120871305465698242e+00
1.665000000000000000e+03 1.101600360870361328e+01 -6.245285987854003906e+00 -7.177106142044067383e-01 1.170204639434814453e+00 1.357482224702835083e-01 9.956547990441322327e-03
1.666000000000000000e+03 9.014212608337402344e+00 -1.407202053070068359e+01 2.156479835510253906e+00 4.123295307159423828e+00 1.883932471275329590e+00 9.461008906364440918e-01
1.667000000000000000e+03 4.247749710083007812e+01 -1.891938686370849609e+00 9.282298386096954346e-03 5.802486419677734375e+00 1.743530511856079102e+00 -1.569086670875549316e+00
1.668000000000000000e+03 4.507875442504882812e+01 -5.084016799926757812e+00 -1.764522939920425415e-01 5.357296943664550781e+00 1.554253458976745605e+00 -1.469699382781982422e+00
1.669000000000000000e+03 7.877084255218505859e+00 -1.431294727325439453e+01 1.854127526283264160e+00 3.472581386566162109e+00 1.598012685775756836e+00 3.686177730560302734e-01
1.670000000000000000e+03 1.015347862243652344e+01 -1.366603851318359375e+01 2.566021203994750977e+00 4.263598918914794922e+00 2.048886060714721680e+00 1.393613219261169434e+00
1.671000000000000000e+03 4.454330444335937500e+01 3.055859375000000000e+01 -1.934679448604583740e-01 4.281084537506103516e+00 1.226284980773925781e+00 8.472596406936645508e-01
1.672000000000000000e+03 4.458653640747070312e+01 -3.860252618789672852e+00 -6.807730346918106079e-02 5.443756103515625000e+00 1.612703561782836914e+00 -1.582099080085754395e+00
1.673000000000000000e+03 4.289638900756835938e+01 -3.115536689758300781e+00 -1.060579493641853333e-01 5.661702632904052734e+00 1.666693329811096191e+00 -1.545305967330932617e+00
1.674000000000000000e+03 2.408949279785156250e+01 -1.314490795135498047e+01 -4.236272811889648438e+00 2.785345315933227539e-01 -1.187321424484252930e+00 -2.577481269836425781e-01
1.675000000000000000e+03 4.313830566406250000e+01 -2.177121490240097046e-01 2.302864938974380493e-01 5.996234893798828125e+00 1.867956399917602539e+00 -1.786951303482055664e+00
1.676000000000000000e+03 4.426602554321289062e+01 3.119036853313446045e-01 4.251091778278350830e-01 5.882812500000000000e+00 1.892376422882080078e+00 -2.008105754852294922e+00
1.677000000000000000e+03 4.631285476684570312e+01 -4.569728851318359375e+00 5.070902407169342041e-02 5.119892120361328125e+00 1.551180362701416016e+00 -1.522580146789550781e+00
1.678000000000000000e+03 7.210585021972656250e+01 1.168754577636718750e+01 -4.866251945495605469e-01 9.407307624816894531e+00 2.676204681396484375e+00 2.859854698181152344e-01
1.679000000000000000e+03 7.419049835205078125e+01 5.022712230682373047e+00 4.515222012996673584e-01 8.909367561340332031e+00 2.808266878128051758e+00 6.630172729492187500e-01
1.680000000000000000e+03 7.223724365234375000e+01 3.357921123504638672e+00 6.528025269508361816e-01 1.105341625213623047e+01 3.511865615844726562e+00 7.156066894531250000e-01
1.681000000000000000e+03 4.670057296752929688e+01 -8.697457313537597656e+00 -5.426517128944396973e-01 5.254871845245361328e+00 1.413666009902954102e+00 -9.120031595230102539e-01
1.682000000000000000e+03 4.745668792724609375e+01 -1.119318199157714844e+01 -9.242115616798400879e-01 5.293442726135253906e+00 1.310769319534301758e+00 -4.099855720996856689e-01
1.683000000000000000e+03 7.494193267822265625e+01 1.208027076721191406e+01 -1.772081553936004639e-01 8.375094413757324219e+00 2.459365844726562500e+00 6.527718901634216309e-01
1.684000000000000000e+03 7.689159393310546875e+01 2.471457719802856445e+00 2.796134948730468750e-01 6.596569538116455078e+00 2.062854766845703125e+00 1.961199343204498291e-01
1.685000000000000000e+03 7.561525726318359375e+01 -6.420678496360778809e-01 3.944934010505676270e-01 7.356040000915527344e+00 2.325160026550292969e+00 -1.640175282955169678e-01
1.686000000000000000e+03 7.348498535156250000e+01 5.849026203155517578e+00 3.957965970039367676e-01 9.610544204711914062e+00 3.001902103424072266e+00 7.046018838882446289e-01
1.687000000000000000e+03 7.588601684570312500e+01 5.332979202270507812e+00 2.975277304649353027e-01 7.626116275787353516e+00 2.377093076705932617e+00 6.435341238975524902e-01
1.688000000000000000e+03 7.446859741210937500e+01 3.703936576843261719e+00 5.659565925598144531e-01 8.652544021606445312e+00 2.765550136566162109e+00 5.618709325790405273e-01
1.689000000000000000e+03 7.502490234375000000e+01 5.921631336212158203e+00 3.178898394107818604e-01 8.322087287902832031e+00 2.591993093490600586e+00 7.630598545074462891e-01
1.690000000000000000e+03 7.590789794921875000e+01 9.532511711120605469e+00 -5.912774428725242615e-02 7.960658073425292969e+00 2.370459079742431641e+00 7.961035966873168945e-01
1.691000000000000000e+03 7.586476135253906250e+01 -6.960790634155273438e+00 6.122266873717308044e-03 6.835422992706298828e+00 2.052463531494140625e+00 -5.723341703414916992e-01
1.692000000000000000e+03 7.714781188964843750e+01 -5.731138229370117188e+00 1.662784069776535034e-02 6.501030445098876953e+00 1.955297470092773438e+00 -5.435475111007690430e-01
1.693000000000000000e+03 7.245684814453125000e+01 -4.372747421264648438e+00 2.604256570339202881e-01 8.270718574523925781e+00 2.559343099594116211e+00 2.028397321701049805e-01
1.694000000000000000e+03 7.605404663085937500e+01 1.091249942779541016e+01 -1.319410949945449829e-01 7.905564308166503906e+00 2.332087039947509766e+00 6.897636055946350098e-01
1.695000000000000000e+03 7.431260681152343750e+01 -2.516135215759277344e+00 3.435103595256805420e-01 7.976562023162841797e+00 2.496021747589111328e+00 -2.062550038099288940e-01
1.696000000000000000e+03 7.612747192382812500e+01 -4.599542140960693359e+00 8.905620127916336060e-02 6.875816345214843750e+00 2.089461803436279297e+00 -5.295073986053466797e-01
1.697000000000000000e+03 7.356206512451171875e+01 1.894648742675781250e+01 7.512366771697998047e-02 8.542474746704101562e+00 2.585279464721679688e+00 5.872249603271484375e-01
1.698000000000000000e+03 7.589424133300781250e+01 1.634811210632324219e+01 3.298475872725248337e-03 8.179942131042480469e+00 2.454972267150878906e+00 5.363774299621582031e-01
1.699000000000000000e+03 7.705216979980468750e+01 1.930184555053710938e+01 4.360886663198471069e-02 8.236938476562500000e+00 2.484164237976074219e+00 5.041701793670654297e-01
1.700000000000000000e+03 7.352173614501953125e+01 1.608007049560546875e+01 3.556066751480102539e-02 8.627891540527343750e+00 2.599035739898681641e+00 5.243013501167297363e-01
1.701000000000000000e+03 7.360991668701171875e+01 2.038735008239746094e+01 1.080746650695800781e-01 8.415735244750976562e+00 2.557143211364746094e+00 5.712991952896118164e-01
1.702000000000000000e+03 7.550420379638671875e+01 -1.416894817352294922e+01 -2.082107365131378174e-01 6.797039508819580078e+00 1.976648688316345215e+00 -5.217542052268981934e-01
1.703000000000000000e+03 7.677799987792968750e+01 -1.264136981964111328e+01 -8.381981402635574341e-02 6.989432334899902344e+00 2.071683645248413086e+00 -5.107595920562744141e-01
1.704000000000000000e+03 7.000752258300781250e+01 -9.921893119812011719e+00 3.799726366996765137e-01 5.913826465606689453e+00 1.888139724731445312e+00 6.111819744110107422e-01
1.705000000000000000e+03 7.547172546386718750e+01 -1.118606185913085938e+01 -6.581177562475204468e-02 6.749504566192626953e+00 2.005107879638671875e+00 -5.897308588027954102e-01
1.706000000000000000e+03 7.569883728027343750e+01 -1.562510204315185547e+01 -3.304894566535949707e-01 6.954014778137207031e+00 1.987057566642761230e+00 -4.090673625469207764e-01
1.707000000000000000e+03 7.685973358154296875e+01 -2.519986724853515625e+01 4.808464348316192627e-01 7.249450206756591797e+00 2.319088935852050781e+00 5.063102245330810547e-01
1.708000000000000000e+03 7.609095001220703125e+01 -2.674837112426757812e+01 7.580145597457885742e-01 7.495154857635498047e+00 2.475950717926025391e+00 1.164292246103286743e-01
1.709000000000000000e+03 7.386762237548828125e+01 -2.188466453552246094e+01 -7.219189405441284180e-01 8.044002532958984375e+00 2.196625232696533203e+00 3.374329209327697754e-01
1.710000000000000000e+03 7.423845672607421875e+01 -1.839857864379882812e+01 -9.232012033462524414e-01 7.001373291015625000e+00 1.823451638221740723e+00 -3.009834289550781250e-01
1.711000000000000000e+03 7.349346923828125000e+01 -1.762731552124023438e+01 -8.336030244827270508e-01 6.536448478698730469e+00 1.710853576660156250e+00 -5.568542480468750000e-01
1.712000000000000000e+03 7.467501068115234375e+01 -2.643161010742187500e+01 1.127698659896850586e+00 8.418780326843261719e+00 2.863943815231323242e+00 2.066342830657958984e-01
1.713000000000000000e+03 7.476983642578125000e+01 -2.457662963867187500e+01 9.493964910507202148e-01 8.250995635986328125e+00 2.760117530822753906e+00 5.928938388824462891e-01
1.714000000000000000e+03 7.563338470458984375e+01 -2.341173362731933594e+01 2.274972349405288696e-01 7.586529731750488281e+00 2.344208002090454102e+00 9.311052560806274414e-01
1.715000000000000000e+03 7.492194366455078125e+01 3.492179870605468750e+01 -4.209619760513305664e-01 8.175388336181640625e+00 2.326327800750732422e+00 2.122606486082077026e-01
1.716000000000000000e+03 7.660842132568359375e+01 3.594958114624023438e+01 -2.612228989601135254e-01 9.553792953491210938e+00 2.787770986557006836e+00 1.206367984414100647e-01
1.717000000000000000e+03 7.095874786376953125e+01 3.336761474609375000e+01 -8.463366627693176270e-01 5.122485637664794922e+00 1.282844662666320801e+00 2.173178084194660187e-02
1.718000000000000000e+03 7.495203399658203125e+01 2.263918876647949219e+01 1.423963010311126709e-01 8.350978851318359375e+00 2.548012733459472656e+00 6.830015182495117188e-01
1.719000000000000000e+03 7.340773010253906250e+01 2.244246864318847656e+01 1.815944463014602661e-01 8.270305633544921875e+00 2.535570144653320312e+00 5.581092238426208496e-01
1.720000000000000000e+03 7.711032104492187500e+01 2.762227439880371094e+01 -7.479188032448291779e-03 9.206128120422363281e+00 2.759594678878784180e+00 6.797825694084167480e-01
1.721000000000000000e+03 7.542066192626953125e+01 2.477559852600097656e+01 1.157876029610633850e-01 8.399580955505371094e+00 2.554610490798950195e+00 7.816818952560424805e-01
1.722000000000000000e+03 7.697406768798828125e+01 2.901031112670898438e+01 -5.459250137209892273e-02 9.306212425231933594e+00 2.775485992431640625e+00 6.805717349052429199e-01
1.723000000000000000e+03 7.408396148681640625e+01 2.339372634887695312e+01 1.856799423694610596e-01 8.209349632263183594e+00 2.518508911132812500e+00 6.884300112724304199e-01
1.724000000000000000e+03 6.780737304687500000e+01 -1.657414054870605469e+01 1.612690985202789307e-01 2.774795055389404297e+00 8.808192014694213867e-01 1.181290522217750549e-01
1.725000000000000000e+03 7.127620697021484375e+01 -1.664981079101562500e+01 -4.785956144332885742e-01 5.022483825683593750e+00 1.363166451454162598e+00 -8.207926750183105469e-01
1.726000000000000000e+03 7.525506591796875000e+01 -3.468238830566406250e+01 -4.173552989959716797e-01 7.069690704345703125e+00 1.995700597763061523e+00 -3.901312053203582764e-01
1.727000000000000000e+03 7.660157012939453125e+01 3.186808967590332031e+01 -2.331707626581192017e-01 9.349548339843750000e+00 2.734913349151611328e+00 5.108338594436645508e-01
1.728000000000000000e+03 7.619049072265625000e+01 2.612930107116699219e+01 4.925702884793281555e-02 8.691032409667968750e+00 2.622086763381958008e+00 7.884913682937622070e-01
1.729000000000000000e+03 7.679129791259765625e+01 -3.079887771606445312e+01 1.395244598388671875e-01 7.266263484954833984e+00 2.221736431121826172e+00 -6.764383316040039062e-01
1.730000000000000000e+03 7.549211883544921875e+01 -3.124734687805175781e+01 8.889175951480865479e-02 7.501698017120361328e+00 2.277176856994628906e+00 -6.541777849197387695e-01
1.731000000000000000e+03 7.366497039794921875e+01 -3.070663833618164062e+01 3.184053003787994385e-01 8.011458396911621094e+00 2.498959302902221680e+00 -1.887769550085067749e-01
1.732000000000000000e+03 7.238493347167968750e+01 2.995197486877441406e+01 -4.254080653190612793e-01 6.836038589477539062e+00 1.923189163208007812e+00 6.195443272590637207e-01
1.733000000000000000e+03 7.562858581542968750e+01 3.023788642883300781e+01 -1.967459619045257568e-01 8.677975654602050781e+00 2.544368743896484375e+00 7.144777774810791016e-01
1.734000000000000000e+03 7.563402557373046875e+01 8.401856422424316406e-01 4.480892717838287354e-01 7.465707302093505859e+00 2.374139070510864258e+00 3.617143258452415466e-02
1.735000000000000000e+03 6.590406036376953125e+01 -1.410478687286376953e+01 9.271939396858215332e-01 2.884034633636474609e+00 1.143368601799011230e+00 1.073324918746948242e+00
1.736000000000000000e+03 7.466098022460937500e+01 3.844012451171875000e+01 -3.281238973140716553e-01 7.670909404754638672e+00 2.202835559844970703e+00 1.725533157587051392e-01
1.737000000000000000e+03 7.208458709716796875e+01 4.728296101093292236e-01 9.258159399032592773e-01 1.051902484893798828e+01 3.433452129364013672e+00 6.578115224838256836e-01
1.738000000000000000e+03 7.233926391601562500e+01 1.597314834594726562e+01 1.295730620622634888e-01 8.793825149536132812e+00 2.677019357681274414e+00 5.110067725181579590e-01
1.739000000000000000e+03 7.352362060546875000e+01 1.463358020782470703e+01 -4.901534691452980042e-02 8.692582130432128906e+00 2.593070030212402344e+00 5.115177035331726074e-01
1.740000000000000000e+03 7.239953613281250000e+01 1.887123870849609375e+01 4.738678783178329468e-02 8.659742355346679688e+00 2.612138986587524414e+00 5.120314955711364746e-01
1.741000000000000000e+03 7.236536407470703125e+01 1.741268157958984375e+01 7.476539909839630127e-02 8.815447807312011719e+00 2.667063951492309570e+00 5.529158115386962891e-01
1.742000000000000000e+03 7.393859863281250000e+01 -3.752659988403320312e+01 -3.137078881263732910e-01 6.108283519744873047e+00 1.738372802734375000e+00 5.072655901312828064e-02
1.743000000000000000e+03 4.521468734741210938e+01 3.291070938110351562e+01 -5.912283062934875488e-01 3.833065032958984375e+00 9.725509881973266602e-01 6.438261866569519043e-01
1.744000000000000000e+03 4.617673492431640625e+01 -7.507493495941162109e+00 -3.999768793582916260e-01 5.247776985168457031e+00 1.454339981079101562e+00 -1.117840290069580078e+00
1.745000000000000000e+03 4.384892463684082031e+00 -1.490899848937988281e+01 7.147310972213745117e-01 -6.568421144038438797e-03 2.124488055706024170e-01 -4.965793192386627197e-01
1.746000000000000000e+03 4.501212120056152344e+00 2.180515670776367188e+01 6.347537040710449219e-02 -9.227263331413269043e-01 -2.577753067016601562e-01 2.020948939025402069e-02
1.747000000000000000e+03 4.084832668304443359e+00 -1.898758697509765625e+01 1.054339885711669922e+00 2.907612025737762451e-01 4.035303294658660889e-01 7.980152964591979980e-01
1.748000000000000000e+03 6.454576969146728516e+00 -2.770128250122070312e+01 -1.352981805801391602e+00 3.603868961334228516e+00 6.752661466598510742e-01 2.068339586257934570e+00
1.749000000000000000e+03 4.081144809722900391e+00 -2.262810707092285156e+01 7.991837263107299805e-01 1.135361313819885254e+00 5.803635120391845703e-01 2.171438694000244141e+00
1.750000000000000000e+03 7.697583675384521484e+00 -1.763312721252441406e+01 2.429399728775024414e+00 5.436322689056396484e+00 2.359716653823852539e+00 1.835591554641723633e+00
1.751000000000000000e+03 6.126692295074462891e+00 -1.831803512573242188e+01 1.726751685142517090e+00 3.348942279815673828e+00 1.522708177566528320e+00 1.145669698715209961e+00
1.752000000000000000e+03 4.421094894409179688e+00 -2.362424468994140625e+01 5.998070836067199707e-01 1.886804580688476562e+00 7.459834814071655273e-01 2.514018774032592773e+00
1.753000000000000000e+03 3.409840106964111328e+00 -2.565520095825195312e+01 1.240269653499126434e-02 1.391957998275756836e+00 4.213082194328308105e-01 2.385860204696655273e+00
1.754000000000000000e+03 4.773497581481933594e+00 -2.569193840026855469e+01 -5.334653332829475403e-02 2.587259292602539062e+00 7.601738572120666504e-01 2.707951784133911133e+00
1.755000000000000000e+03 4.664212226867675781e+00 2.454007720947265625e+01 4.421784728765487671e-02 -8.838706016540527344e-01 -2.518958449363708496e-01 -3.430297970771789551e-02
1.756000000000000000e+03 4.456685066223144531e+00 2.964237785339355469e+01 4.680053330957889557e-03 -8.444011807441711426e-01 -2.519163191318511963e-01 -8.992486447095870972e-02
1.757000000000000000e+03 4.271690368652343750e+00 1.622652053833007812e+01 8.634768426418304443e-02 -9.046764373779296875e-01 -2.454986274242401123e-01 1.851901710033416748e-01
1.758000000000000000e+03 4.392706394195556641e+00 1.902427673339843750e+01 7.722500711679458618e-02 -9.319784641265869141e-01 -2.564260363578796387e-01 9.499882906675338745e-02
1.759000000000000000e+03 3.107527256011962891e+00 1.766689300537109375e+01 4.435809329152107239e-02 -1.107307791709899902e+00 -3.188849091529846191e-01 1.121349632740020752e-01
1.760000000000000000e+03 3.000134706497192383e+00 1.487969875335693359e+01 4.989602416753768921e-02 -1.025356173515319824e+00 -2.926380336284637451e-01 1.862457245588302612e-01
1.761000000000000000e+03 4.033337116241455078e+00 1.214805603027343750e+01 8.092638850212097168e-02 -7.853828668594360352e-01 -2.113369405269622803e-01 3.260062038898468018e-01
1.762000000000000000e+03 4.087643146514892578e+00 1.348470783233642578e+01 8.857144415378570557e-02 -8.420817255973815918e-01 -2.260530740022659302e-01 2.806630730628967285e-01
1.763000000000000000e+03 4.044002532958984375e+00 -1.047020435333251953e+01 5.137721449136734009e-02 -5.143182873725891113e-01 -1.388823240995407104e-01 -1.195908665657043457e+00
1.764000000000000000e+03 3.836615085601806641e+00 -9.146832466125488281e+00 -7.398645579814910889e-02 -5.888200402259826660e-01 -1.988419443368911743e-01 -1.183965325355529785e+00
1.765000000000000000e+03 4.372879505157470703e+00 -1.339954280853271484e+01 4.645028412342071533e-01 -1.702938973903656006e-01 8.826267719268798828e-02 -8.789767026901245117e-01
1.766000000000000000e+03 5.883175373077392578e+00 2.311022377014160156e+01 8.480224758386611938e-02 -6.768630146980285645e-01 -1.776182353496551514e-01 -1.965982466936111450e-02
1.767000000000000000e+03 4.848443508148193359e+00 2.590571975708007812e+01 4.273542016744613647e-02 -8.427042961120605469e-01 -2.399906665086746216e-01 -5.209447816014289856e-02
1.768000000000000000e+03 4.574751853942871094e+00 2.317863273620605469e+01 5.580750852823257446e-02 -9.072940945625305176e-01 -2.554459571838378906e-01 -1.039650384336709976e-02
1.769000000000000000e+03 5.123659133911132812e+00 1.090623569488525391e+01 1.030043736100196838e-01 -6.557150483131408691e-01 -1.658132076263427734e-01 4.180097281932830811e-01
1.770000000000000000e+03 6.574052810668945312e+00 2.888018417358398438e+01 3.159982338547706604e-02 -4.545206129550933838e-01 -1.268762350082397461e-01 -1.171398609876632690e-01
1.771000000000000000e+03 6.302476882934570312e+00 3.603076171875000000e+01 -3.941036015748977661e-02 -4.140309095382690430e-01 -1.360323876142501831e-01 -8.398799598217010498e-02
1.772000000000000000e+03 4.107861518859863281e+00 3.522599411010742188e+01 1.068702898919582367e-03 -8.167279958724975586e-01 -2.446977943181991577e-01 -5.536662787199020386e-02
1.773000000000000000e+03 3.236445665359497070e+00 -2.987422370910644531e+01 -5.622715353965759277e-01 2.477995395660400391e+00 5.747171044349670410e-01 1.509708285331726074e+00
1.774000000000000000e+03 5.276039600372314453e+00 -2.928646659851074219e+01 -1.231947779655456543e+00 2.846211671829223633e+00 4.842791259288787842e-01 1.855212330818176270e+00
1.775000000000000000e+03 4.280949592590332031e+00 -1.189443206787109375e+01 2.549766302108764648e-01 -3.142012059688568115e-01 -1.776737533509731293e-02 -1.090280771255493164e+00
1.776000000000000000e+03 4.010770320892333984e+00 1.083961391448974609e+01 6.369017064571380615e-02 -7.221308946609497070e-01 -1.975322216749191284e-01 3.630921840667724609e-01
1.777000000000000000e+03 4.333347797393798828e+00 -5.637946605682373047e+00 -3.424625694751739502e-01 -1.787278354167938232e-01 -1.563571244478225708e-01 -9.635408520698547363e-01
1.778000000000000000e+03 5.057894706726074219e+00 2.818409347534179688e+01 2.363753318786621094e-02 -7.631144523620605469e-01 -2.218430787324905396e-01 -8.735866844654083252e-02
1.779000000000000000e+03 3.044882774353027344e+00 3.429458618164062500e+01 6.351265124976634979e-03 -1.016842842102050781e+00 -3.031474649906158447e-01 -6.160820648074150085e-02
1.780000000000000000e+03 5.157800674438476562e+00 3.412184524536132812e+01 -1.614124886691570282e-02 -6.248950958251953125e-01 -1.923108994960784912e-01 -9.937624633312225342e-02
1.781000000000000000e+03 5.633261203765869141e+00 -3.333201980590820312e+01 -8.147810697555541992e-01 2.479757785797119141e+00 4.994930326938629150e-01 7.482153773307800293e-01
1.782000000000000000e+03 4.342483997344970703e+00 -2.960529518127441406e+01 -8.364080786705017090e-01 2.623996496200561523e+00 5.362765192985534668e-01 1.713852524757385254e+00
1.783000000000000000e+03 4.624957561492919922e+00 -3.078696250915527344e+01 -9.260005950927734375e-01 2.685191392898559570e+00 5.277572274208068848e-01 1.404768943786621094e+00
1.784000000000000000e+03 3.412430763244628906e+00 -3.121712684631347656e+01 -5.638799667358398438e-01 2.719116449356079102e+00 6.465709209442138672e-01 1.161256432533264160e+00
1.785000000000000000e+03 4.226885318756103516e+00 8.288681030273437500e+00 1.968186162412166595e-02 -5.551176071166992188e-01 -1.606307327747344971e-01 4.340867400169372559e-01
1.786000000000000000e+03 2.575937509536743164e+00 -6.706647396087646484e+00 -1.191774383187294006e-01 -8.595370054244995117e-01 -2.936143279075622559e-01 -8.607663512229919434e-01
1.787000000000000000e+03 1.432363319396972656e+01 -1.121465301513671875e+01 2.414893388748168945e+00 2.078191757202148438e+00 1.347925543785095215e+00 2.477249145507812500e+00
1.788000000000000000e+03 5.300847625732421875e+01 -2.441799545288085938e+01 1.797540068626403809e+00 3.831770420074462891e+00 1.688793182373046875e+00 -9.865501523017883301e-01
1.789000000000000000e+03 4.515609741210937500e+01 -2.429088592529296875e+01 2.524300813674926758e+00 9.519352912902832031e+00 3.613096237182617188e+00 -2.407805442810058594e+00
1.790000000000000000e+03 3.590580701828002930e+00 -3.709361648559570312e+01 -2.904625833034515381e-01 3.316547870635986328e+00 9.078255891799926758e-01 1.532738655805587769e-01
1.791000000000000000e+03 5.699005126953125000e+00 -3.604982757568359375e+01 -5.004345774650573730e-01 2.338997364044189453e+00 5.515688061714172363e-01 4.065222144126892090e-01
1.792000000000000000e+03 7.247217559814453125e+01 -2.017086219787597656e+01 -1.529992341995239258e+00 7.006816387176513672e+00 1.643047332763671875e+00 -5.047258138656616211e-01
1.793000000000000000e+03 3.716855621337890625e+01 -1.173034286499023438e+01 -2.597188949584960938e-01 4.015370368957519531e+00 1.126695513725280762e+00 -2.336467027664184570e+00
1.794000000000000000e+03 3.498151016235351562e+01 -1.474251747131347656e+01 -8.085738122463226318e-02 1.804230093955993652e+00 5.170118212699890137e-01 -2.004712343215942383e+00
1.795000000000000000e+03 4.505125427246093750e+01 -2.745673179626464844e+01 1.489561319351196289e+00 9.168007850646972656e+00 3.197270870208740234e+00 -2.091990947723388672e+00
1.796000000000000000e+03 4.641444778442382812e+01 -2.705087852478027344e+01 1.870702505111694336e+00 7.816714763641357422e+00 2.906225204467773438e+00 -2.262003660202026367e+00
1.797000000000000000e+03 6.981346130371093750e+01 3.241794967651367188e+01 -9.753517508506774902e-01 4.164663314819335938e+00 9.567934870719909668e-01 7.935651578009128571e-03
1.798000000000000000e+03 6.975988769531250000e+01 3.451573944091796875e+01 -8.101933002471923828e-01 4.054077625274658203e+00 9.731653928756713867e-01 -2.152307331562042236e-01
1.799000000000000000e+03 3.906356048583984375e+01 5.184037208557128906e+00 9.151280522346496582e-01 7.289113998413085938e+00 2.461272478103637695e+00 -7.063475847244262695e-01
1.800000000000000000e+03 4.193013000488281250e+01 2.137079954147338867e+00 4.244105517864227295e-01 6.703763008117675781e+00 2.138452053070068359e+00 -1.666434288024902344e+00
1.801000000000000000e+03 3.744137573242187500e+01 -1.544820594787597656e+01 2.036576867103576660e-01 3.559481859207153320e+00 1.128941893577575684e+00 -2.940790176391601562e+00
1.802000000000000000e+03 3.770855712890625000e+01 -1.668541908264160156e+01 7.650824189186096191e-01 3.627366781234741211e+00 1.317734718322753906e+00 -3.447390556335449219e+00
1.803000000000000000e+03 5.200423431396484375e+01 -2.030000305175781250e+01 7.483807206153869629e-01 2.957392454147338867e+00 1.111731886863708496e+00 -9.352512955665588379e-01
1.804000000000000000e+03 5.754250717163085938e+01 -1.872031593322753906e+01 -1.045360922813415527e+00 2.704420685768127441e-01 -2.324756383895874023e-01 1.802136421203613281e+00
1.805000000000000000e+03 7.261858367919921875e+01 -1.075913047790527344e+01 3.920596837997436523e-02 6.345468997955322266e+00 1.915402412414550781e+00 -2.778016924858093262e-01
1.806000000000000000e+03 7.121148681640625000e+01 -4.081061840057373047e+00 3.874696791172027588e-01 8.767039299011230469e+00 2.746352910995483398e+00 8.259600400924682617e-01
1.807000000000000000e+03 7.164559173583984375e+01 -2.567763805389404297e+00 5.032367706298828125e-01 9.488427162170410156e+00 2.997499227523803711e+00 7.225849032402038574e-01
1.808000000000000000e+03 5.518285751342773438e+00 -1.671259880065917969e+01 1.318636298179626465e+00 1.693588256835937500e+00 9.036673307418823242e-01 2.621370851993560791e-01
1.809000000000000000e+03 2.763408088684082031e+01 -1.402957248687744141e+01 -2.561984062194824219e+00 5.920003652572631836e-01 -5.909950733184814453e-01 -4.192654788494110107e-01
1.810000000000000000e+03 2.575180244445800781e+01 -1.112615489959716797e+01 2.355941534042358398e+00 4.622032642364501953e-01 8.454434275627136230e-01 -1.301286101341247559e+00
1.811000000000000000e+03 7.279378509521484375e+01 -6.338973999023437500e+00 1.245386600494384766e-01 7.538622379302978516e+00 2.298948287963867188e+00 -5.670115817338228226e-03
1.812000000000000000e+03 7.126986694335937500e+01 -1.030961322784423828e+01 1.954551786184310913e-01 6.107680320739746094e+00 1.890940666198730469e+00 1.134890913963317871e-01
1.813000000000000000e+03 3.593418884277343750e+01 2.173377990722656250e+01 6.246291399002075195e-01 5.801605224609375000e+00 1.927870392799377441e+00 -3.817282915115356445e-01
1.814000000000000000e+03 4.591175460815429688e+01 -2.314001846313476562e+01 2.969928503036499023e+00 8.447588920593261719e+00 3.425255298614501953e+00 -2.760668992996215820e+00
1.815000000000000000e+03 4.378057479858398438e+01 -1.960312652587890625e+01 1.885454416275024414e+00 1.024741935729980469e+01 3.639862298965454102e+00 -2.068940639495849609e+00
1.816000000000000000e+03 4.785067367553710938e+01 -1.257036018371582031e+01 -1.169873237609863281e+00 5.355350971221923828e+00 1.255643367767333984e+00 -2.169986367225646973e-01
1.817000000000000000e+03 3.824478912353515625e+01 1.318305206298828125e+01 1.580766916275024414e+00 8.071193695068359375e+00 2.895588159561157227e+00 -5.093149542808532715e-01
1.818000000000000000e+03 5.991537570953369141e+00 -2.603722763061523438e+01 -1.774219572544097900e-01 3.821211814880371094e+00 1.093136906623840332e+00 2.581013679504394531e+00
1.819000000000000000e+03 7.114228057861328125e+01 -7.288044929504394531e+00 2.357727140188217163e-01 7.200281620025634766e+00 2.230816364288330078e+00 5.147588849067687988e-01
1.820000000000000000e+03 6.708297729492187500e+01 -3.574327468872070312e+01 -2.654744982719421387e-01 1.141410589218139648e+00 2.627808153629302979e-01 7.219312787055969238e-01
1.821000000000000000e+03 6.944304656982421875e+01 -1.118058872222900391e+01 4.774959087371826172e-01 5.215398788452148438e+00 1.707868456840515137e+00 5.630697011947631836e-01
1.822000000000000000e+03 3.914146804809570312e+01 2.120295143127441406e+01 6.905065178871154785e-01 6.955536842346191406e+00 2.293812990188598633e+00 2.841950058937072754e-01
1.823000000000000000e+03 3.861243438720703125e+01 1.800658035278320312e+01 9.883565306663513184e-01 7.650291442871093750e+00 2.591594457626342773e+00 5.327438935637474060e-02
1.824000000000000000e+03 5.817989349365234375e+01 -2.279719161987304688e+01 1.461514830589294434e+00 1.348623633384704590e+00 8.430415391921997070e-01 1.411513805389404297e+00
1.825000000000000000e+03 5.536854553222656250e+01 -2.304442024230957031e+01 1.498023629188537598e+00 2.336728572845458984e+00 1.150425672531127930e+00 3.427451252937316895e-01
1.826000000000000000e+03 7.389054107666015625e+01 2.695711326599121094e+01 3.855714201927185059e-02 7.864809036254882812e+00 2.371009826660156250e+00 8.046311140060424805e-01
1.827000000000000000e+03 5.142276000976562500e+01 -1.754485321044921875e+01 -1.194875121116638184e+00 3.103584527969360352e+00 5.726128220558166504e-01 -5.502237081527709961e-01
1.828000000000000000e+03 5.212402343750000000e+01 -1.846381378173828125e+01 -7.408252358436584473e-01 2.253942728042602539e+00 4.539352357387542725e-01 -8.207103610038757324e-01
1.829000000000000000e+03 3.937312316894531250e+01 3.390176534652709961e+00 5.872675180435180664e-01 6.809171199798583984e+00 2.218931674957275391e+00 -8.392868041992187500e-01
1.830000000000000000e+03 7.528884124755859375e+01 4.039095306396484375e+01 6.045891344547271729e-02 8.745675086975097656e+00 2.641840457916259766e+00 2.246470600366592407e-01
1.831000000000000000e+03 5.042928695678710938e+01 -2.876337242126464844e+01 1.966321945190429688e+00 5.947144508361816406e+00 2.374039888381958008e+00 -2.207189798355102539e+00
1.832000000000000000e+03 4.178425979614257812e+01 -1.568136215209960938e+01 -5.147765278816223145e-01 7.751968860626220703e+00 2.171157598495483398e+00 -2.431046962738037109e+00
1.833000000000000000e+03 4.053934097290039062e+01 2.600533485412597656e+01 1.535324454307556152e-01 5.802905082702636719e+00 1.786931276321411133e+00 4.565732181072235107e-01
1.834000000000000000e+03 6.356007575988769531e+00 -2.165899085998535156e+01 1.769274830818176270e+00 4.699714660644531250e+00 1.940696835517883301e+00 2.253984928131103516e+00
1.835000000000000000e+03 6.664109230041503906e+00 -2.026247596740722656e+01 1.909310221672058105e+00 5.163449287414550781e+00 2.121827840805053711e+00 1.900500774383544922e+00
1.836000000000000000e+03 5.921350097656250000e+01 -2.201549720764160156e+01 8.574255108833312988e-01 1.376620054244995117e+00 6.702136397361755371e-01 1.669125318527221680e+00
1.837000000000000000e+03 6.193180465698242188e+01 -1.674180030822753906e+01 -3.163825273513793945e-01 1.734382987022399902e+00 4.254001379013061523e-01 1.519363284111022949e+00
1.838000000000000000e+03 7.285310363769531250e+01 2.667405891418457031e+01 1.127473264932632446e-01 7.513786792755126953e+00 2.287960290908813477e+00 6.697329878807067871e-01
1.839000000000000000e+03 7.260932922363281250e+01 2.824097633361816406e+01 -1.162670031189918518e-01 7.171548366546630859e+00 2.116584539413452148e+00 6.819702982902526855e-01
1.840000000000000000e+03 1.289590644836425781e+01 -3.676228332519531250e+01 -7.378457784652709961e-01 -2.670311369001865387e-03 -2.221548259258270264e-01 3.118850588798522949e-01
1.841000000000000000e+03 1.379543495178222656e+01 -3.539624023437500000e+01 -9.902741312980651855e-01 -3.170842230319976807e-01 -3.922075033187866211e-01 3.794442713260650635e-01
1.842000000000000000e+03 3.821389770507812500e+01 1.146869850158691406e+01 1.780799508094787598e+00 7.949626445770263672e+00 2.919127702713012695e+00 -5.420270562171936035e-01
1.843000000000000000e+03 3.540756225585937500e+01 -3.594376373291015625e+01 -1.479773402214050293e+00 6.752426922321319580e-02 -4.236747324466705322e-01 8.816698193550109863e-02
1.844000000000000000e+03 3.710569763183593750e+01 1.814215660095214844e+01 1.061895728111267090e+00 6.791589736938476562e+00 2.356045722961425781e+00 -2.546771168708801270e-01
1.845000000000000000e+03 6.862356567382812500e+01 -1.345168495178222656e+01 4.982824325561523438e-01 4.256043434143066406e+00 1.426297783851623535e+00 4.006608426570892334e-01
1.846000000000000000e+03 7.060408782958984375e+01 3.103395080566406250e+01 -7.314551472663879395e-01 5.139297962188720703e+00 1.322352766990661621e+00 1.869248002767562866e-01
1.847000000000000000e+03 7.397534942626953125e+01 -2.727439880371093750e+01 1.351993083953857422e+00 8.560259819030761719e+00 2.973675727844238281e+00 2.317548543214797974e-01
1.848000000000000000e+03 7.398988342285156250e+01 -2.890219688415527344e+01 9.358425736427307129e-01 8.374594688415527344e+00 2.793131113052368164e+00 -9.128823876380920410e-02
1.849000000000000000e+03 6.361036300659179688e+01 -1.685340690612792969e+01 -2.758651785552501678e-02 1.926585078239440918e+00 5.696995258331298828e-01 1.491663575172424316e+00
1.850000000000000000e+03 7.208396911621093750e+01 -3.330155944824218750e+01 -4.959843754768371582e-01 6.122324943542480469e+00 1.687902212142944336e+00 5.163706541061401367e-01
1.851000000000000000e+03 5.354210662841796875e+01 -2.252546882629394531e+01 1.460337042808532715e+00 2.699607372283935547e+00 1.247983336448669434e+00 -5.813604593276977539e-01
1.852000000000000000e+03 5.960947036743164062e+01 -1.858918952941894531e+01 -7.750499248504638672e-01 1.215536594390869141e+00 1.321460008621215820e-01 1.983615636825561523e+00
1.853000000000000000e+03 6.088405227661132812e+01 -2.034984779357910156e+01 -1.670412123203277588e-01 1.535806655883789062e+00 4.106296300888061523e-01 1.948715686798095703e+00
1.854000000000000000e+03 3.087095260620117188e+01 -1.284006214141845703e+01 -2.853109538555145264e-01 9.813258647918701172e-01 2.088044583797454834e-01 -1.134548425674438477e+00
1.855000000000000000e+03 6.777937316894531250e+01 3.875269699096679688e+01 5.528770387172698975e-02 2.154716730117797852e+00 6.630013585090637207e-01 -2.095621526241302490e-01
1.856000000000000000e+03 7.014320373535156250e+00 -1.544469165802001953e+01 1.578413367271423340e+00 3.166059017181396484e+00 1.423341751098632812e+00 4.328936934471130371e-01
1.857000000000000000e+03 4.784157562255859375e+01 -1.616562271118164062e+01 -8.468617796897888184e-01 6.054135799407958984e+00 1.562182188034057617e+00 -4.652258455753326416e-01
1.858000000000000000e+03 5.027202606201171875e+01 -1.806244659423828125e+01 -5.136446356773376465e-01 4.138663291931152344e+00 1.087505459785461426e+00 -7.838080525398254395e-01
1.859000000000000000e+03 5.941073894500732422e+00 -2.868005752563476562e+01 -1.227888464927673340e+00 2.949937582015991211e+00 5.166146755218505859e-01 1.959598660469055176e+00
1.860000000000000000e+03 5.204629898071289062e+00 -1.785249710083007812e+01 1.228524208068847656e+00 1.567457795143127441e+00 8.387945890426635742e-01 6.435081958770751953e-01
1.861000000000000000e+03 4.124373435974121094e+00 -1.771189117431640625e+01 9.812536835670471191e-01 1.573190093040466309e-01 3.415718078613281250e-01 3.082050979137420654e-01
1.862000000000000000e+03 3.850362014770507812e+01 9.757365226745605469e+00 1.815244197845458984e+00 7.924808025360107422e+00 2.922015666961669922e+00 -5.731946229934692383e-01
1.863000000000000000e+03 5.351484775543212891e+00 -2.427729034423828125e+01 5.489981770515441895e-01 3.185478687286376953e+00 1.120343089103698730e+00 2.672875642776489258e+00
1.864000000000000000e+03 5.975695610046386719e+00 -2.297116088867187500e+01 1.181642293930053711e+00 4.151235580444335938e+00 1.599863409996032715e+00 2.554858446121215820e+00
1.865000000000000000e+03 9.052188873291015625e+00 -3.250830078125000000e+01 -1.512701749801635742e+00 1.500937819480895996e+00 -3.529159817844629288e-03 4.397099614143371582e-01
1.866000000000000000e+03 1.202584266662597656e+01 -3.446526718139648438e+01 -1.134082674980163574e+00 1.584871411323547363e-01 -2.926786541938781738e-01 2.995242476463317871e-01
1.867000000000000000e+03 6.431932067871093750e+01 -2.002362442016601562e+01 -8.588674664497375488e-01 1.261308073997497559e+00 1.207321807742118835e-01 1.520369410514831543e+00
1.868000000000000000e+03 5.294448089599609375e+01 4.105531692504882812e+01 -5.340206027030944824e-01 1.022655844688415527e+00 1.465905904769897461e-01 1.124347075819969177e-01
1.869000000000000000e+03 4.795677947998046875e+01 -2.230501365661621094e+01 2.351569652557373047e+00 6.464385032653808594e+00 2.644786357879638672e+00 -2.039285898208618164e+00
1.870000000000000000e+03 5.309714126586914062e+01 -2.743027305603027344e+01 1.803103446960449219e+00 5.478866577148437500e+00 2.184591054916381836e+00 -1.297155618667602539e+00
1.871000000000000000e+03 3.610328292846679688e+01 -3.927302169799804688e+01 -1.027029037475585938e+00 7.922751903533935547e-01 -7.042614370584487915e-02 1.667297333478927612e-01
1.872000000000000000e+03 7.484845733642578125e+01 3.327344894409179688e+01 -3.939322829246520996e-01 8.195953369140625000e+00 2.340606451034545898e+00 3.886874616146087646e-01
1.873000000000000000e+03 6.289631652832031250e+01 3.926682662963867188e+01 4.784166812896728516e-02 -2.014749050140380859e-01 -4.608996957540512085e-02 2.089615613222122192e-01
1.874000000000000000e+03 6.162831497192382812e+01 -4.100233459472656250e+01 7.364829778671264648e-01 1.501497864723205566e+00 6.713942885398864746e-01 -2.640939354896545410e-01
1.875000000000000000e+03 6.805986785888671875e+01 -4.110957336425781250e+01 6.938812136650085449e-01 2.186877489089965820e+00 8.642275929450988770e-01 2.097656130790710449e-01
1.876000000000000000e+03 6.124045562744140625e+01 -1.941762542724609375e+01 -5.623218417167663574e-01 1.524165391921997070e+00 2.885530591011047363e-01 2.022346735000610352e+00
1.877000000000000000e+03 4.670672225952148438e+01 -2.841358947753906250e+01 1.523453474044799805e+00 7.456541538238525391e+00 2.693998575210571289e+00 -2.305913448333740234e+00
1.878000000000000000e+03 4.801050567626953125e+01 -1.807383728027343750e+01 8.346083760261535645e-02 6.094135761260986328e+00 1.853278994560241699e+00 -8.196190595626831055e-01
1.879000000000000000e+03 7.318122863769531250e+01 -3.267313385009765625e+01 -5.040948987007141113e-01 7.148018360137939453e+00 1.993177056312561035e+00 6.420214474201202393e-02
1.880000000000000000e+03 6.184832382202148438e+01 -2.096543312072753906e+01 -1.330225020647048950e-01 1.353751778602600098e+00 3.662187755107879639e-01 1.793501019477844238e+00
1.881000000000000000e+03 2.222336196899414062e+01 -6.364302635192871094e+00 -9.410089254379272461e-01 4.480266094207763672e+00 1.061777114868164062e+00 1.108134627342224121e+00
1.882000000000000000e+03 2.160398864746093750e+01 -3.996183395385742188e+00 -1.094827055931091309e+00 2.010939359664916992e+00 2.748336791992187500e-01 4.393604099750518799e-01
1.883000000000000000e+03 2.403868865966796875e+01 -7.033275127410888672e+00 2.476498842239379883e+00 4.456203460693359375e+00 2.079810619354248047e+00 4.049815654754638672e+00
1.884000000000000000e+03 1.812743186950683594e+01 -1.102580547332763672e+01 3.820874214172363281e+00 -1.283000349998474121e+00 7.613621950149536133e-01 4.801964282989501953e+00
1.885000000000000000e+03 1.904118537902832031e+01 -9.502054214477539062e+00 6.570600986480712891e+00 -2.667345285415649414e+00 1.170976638793945312e+00 3.018596649169921875e+00
1.886000000000000000e+03 1.909935188293457031e+01 -1.116985225677490234e+01 3.620106697082519531e+00 -1.927365660667419434e+00 5.078222751617431641e-01 5.408271789550781250e+00
1.887000000000000000e+03 1.949595260620117188e+01 -9.738701820373535156e+00 7.803006172180175781e+00 -2.683002233505249023e+00 1.536001205444335938e+00 3.576922416687011719e+00
1.888000000000000000e+03 1.626651000976562500e+01 -7.675516605377197266e+00 1.103677988052368164e+00 -4.825745522975921631e-01 1.863310188055038452e-01 1.370017766952514648e+00
1.889000000000000000e+03 1.662555503845214844e+01 -7.988598346710205078e+00 1.581150412559509277e+00 -6.879336237907409668e-01 2.679650485515594482e-01 1.498963356018066406e+00
1.890000000000000000e+03 1.976576614379882812e+01 -9.996165275573730469e+00 8.157433509826660156e+00 -2.013313770294189453e+00 1.843235850334167480e+00 4.757993221282958984e+00
1.891000000000000000e+03 2.463588714599609375e+01 -7.399271488189697266e+00 3.532971858978271484e+00 3.258127927780151367e+00 2.037329912185668945e+00 3.724539041519165039e+00
1.892000000000000000e+03 2.517278861999511719e+01 -8.444783210754394531e+00 5.436002731323242188e+00 1.281377434730529785e+00 2.015213966369628906e+00 2.319331884384155273e+00
1.893000000000000000e+03 2.092080879211425781e+01 -3.223530530929565430e+00 -1.087208628654479980e+00 1.188447237014770508e+00 3.037156164646148682e-02 3.524542152881622314e-01
1.894000000000000000e+03 1.447401905059814453e+01 -6.470715522766113281e+00 -3.053101003170013428e-01 3.194340765476226807e-01 4.237194079905748367e-03 9.135534763336181641e-01
1.895000000000000000e+03 1.739807510375976562e+01 -1.134100151062011719e+01 3.375977039337158203e+00 -5.623685717582702637e-01 8.440825343132019043e-01 4.468716621398925781e+00
1.896000000000000000e+03 1.319520473480224609e+01 -6.470334053039550781e+00 -4.880660474300384521e-01 8.049400448799133301e-01 9.506220370531082153e-02 6.163702011108398438e-01
1.897000000000000000e+03 1.236414813995361328e+01 -5.306757450103759766e+00 -9.998016953468322754e-01 7.253052592277526855e-01 -8.234892785549163818e-02 3.562742769718170166e-01
1.898000000000000000e+03 1.270293712615966797e+01 -6.185265541076660156e+00 -6.428799033164978027e-01 8.751008510589599609e-01 6.966628879308700562e-02 4.902389645576477051e-01
1.899000000000000000e+03 2.059383964538574219e+01 -1.694244265556335449e+00 -9.083886146545410156e-01 1.004291415214538574e+00 2.877085655927658081e-02 2.709460854530334473e-01
1.900000000000000000e+03 1.179236030578613281e+01 -5.068482398986816406e+00 -1.077129244804382324e+00 7.768031954765319824e-01 -9.009779989719390869e-02 1.860763281583786011e-01
1.901000000000000000e+03 1.110022449493408203e+01 -5.553788661956787109e+00 -9.279248714447021484e-01 9.722934961318969727e-01 1.331058051437139511e-02 6.528949365019798279e-03
1.902000000000000000e+03 8.633017539978027344e+00 -4.382684707641601562e+00 -9.811146259307861328e-01 6.551303863525390625e-01 -9.779526293277740479e-02 -4.380950629711151123e-01
1.903000000000000000e+03 1.285996818542480469e+01 -1.156873798370361328e+01 2.356697320938110352e+00 2.878359317779541016e+00 1.570517063140869141e+00 2.000448226928710938e+00
1.904000000000000000e+03 1.555360507965087891e+01 -7.930218696594238281e+00 1.046320796012878418e+00 -1.013105735182762146e-01 2.835030853748321533e-01 1.403459191322326660e+00
1.905000000000000000e+03 2.116648101806640625e+01 -2.095810651779174805e+00 -9.366995096206665039e-01 1.382613658905029297e+00 1.337742507457733154e-01 2.857837975025177002e-01
1.906000000000000000e+03 5.955355167388916016e+00 4.701592922210693359e+00 -1.958330869674682617e-01 -3.230241537094116211e-01 -1.556571722030639648e-01 5.379931926727294922e-01
1.907000000000000000e+03 3.233128070831298828e+00 3.893703699111938477e+00 -1.136607155203819275e-01 -2.144054174423217773e-01 -9.841983765363693237e-02 2.663343250751495361e-01
1.908000000000000000e+03 4.620583057403564453e+00 4.143829822540283203e+00 -1.792771220207214355e-01 -2.532279491424560547e-01 -1.297515183687210083e-01 3.975187242031097412e-01
1.909000000000000000e+03 7.731842041015625000e+00 5.767247676849365234e+00 -1.001295223832130432e-01 -4.446501433849334717e-01 -1.634338945150375366e-01 6.406287550926208496e-01
1.910000000000000000e+03 6.531023025512695312e+00 4.682719707489013672e+00 -2.248746156692504883e-01 -3.371471166610717773e-01 -1.686065196990966797e-01 5.807278156280517578e-01
1.911000000000000000e+03 1.369565105438232422e+01 -6.756381034851074219e+00 -2.561604082584381104e-01 6.835068464279174805e-01 1.282039284706115723e-01 8.102665543556213379e-01
1.912000000000000000e+03 1.469144248962402344e+01 -7.343147277832031250e+00 3.170236647129058838e-01 3.807536065578460693e-01 2.093331813812255859e-01 1.128129363059997559e+00
1.913000000000000000e+03 8.159429550170898438e+00 5.128571510314941406e+00 -1.730067878961563110e-01 -4.415966570377349854e-01 -1.843810379505157471e-01 6.699305772781372070e-01
1.914000000000000000e+03 7.266009807586669922e+00 4.069621086120605469e+00 -3.190443515777587891e-01 -3.295255899429321289e-01 -1.945709884166717529e-01 6.150583028793334961e-01
1.915000000000000000e+03 3.858663558959960938e+00 4.157530307769775391e+00 -1.355539411306381226e-01 -2.372797429561614990e-01 -1.118501052260398865e-01 3.260099291801452637e-01
1.916000000000000000e+03 1.052492713928222656e+01 -5.402155399322509766e+00 -9.374654293060302734e-01 9.596584439277648926e-01 6.657904479652643204e-03 -1.090139970183372498e-01
1.917000000000000000e+03 2.507722282409667969e+01 -1.014401054382324219e+01 4.806543350219726562e+00 4.735623896121978760e-01 1.584031701087951660e+00 -3.571464419364929199e-01
1.918000000000000000e+03 1.680740547180175781e+01 2.785437583923339844e+00 -2.532245814800262451e-01 -1.352828741073608398e-01 -1.165522411465644836e-01 3.334632515907287598e-01
1.919000000000000000e+03 6.649227619171142578e+00 -5.341885566711425781e+00 -6.251481771469116211e-01 4.415938854217529297e-01 -5.506628751754760742e-02 -8.435032367706298828e-01
1.920000000000000000e+03 7.356082439422607422e+00 -5.251662254333496094e+00 -7.230269312858581543e-01 5.967398285865783691e-01 -3.788613528013229370e-02 -7.568581104278564453e-01
1.921000000000000000e+03 7.227314472198486328e+00 -4.387947082519531250e+00 -7.965436577796936035e-01 4.468198716640472412e-01 -1.049171239137649536e-01 -6.587655544281005859e-01
1.922000000000000000e+03 5.741335391998291016e+00 -4.516602993011474609e+00 -5.771545767784118652e-01 1.631282418966293335e-01 -1.242078989744186401e-01 -8.112565875053405762e-01
1.923000000000000000e+03 5.134209632873535156e+00 -5.558844566345214844e+00 -4.247045218944549561e-01 4.978002980351448059e-02 -1.124773472547531128e-01 -9.646466970443725586e-01
1.924000000000000000e+03 1.765907478332519531e+01 5.907984972000122070e-01 -7.085536718368530273e-01 -1.750324219465255737e-01 -2.650758326053619385e-01 4.194837212562561035e-01
1.925000000000000000e+03 1.345592403411865234e+01 2.861668825149536133e+00 -4.837019443511962891e-01 -6.102342009544372559e-01 -3.281808495521545410e-01 6.363289356231689453e-01
1.926000000000000000e+03 8.380161285400390625e+00 -6.849530220031738281e+00 -5.487151741981506348e-01 1.063870072364807129e+00 1.545464545488357544e-01 -6.624818444252014160e-01
1.927000000000000000e+03 9.301245689392089844e+00 -4.440423011779785156e+00 -1.046359777450561523e+00 7.303966879844665527e-01 -9.478891640901565552e-02 -3.281763792037963867e-01
1.928000000000000000e+03 1.853778839111328125e+01 1.083968997001647949e+00 -4.985842108726501465e-01 2.297797799110412598e-01 -8.064132928848266602e-02 2.551285028457641602e-01
1.929000000000000000e+03 2.036318397521972656e+01 -1.079302906990051270e+00 -8.330813050270080566e-01 8.932123184204101562e-01 1.803929917514324188e-02 2.307275980710983276e-01
1.930000000000000000e+03 1.860894393920898438e+01 -1.069727039337158203e+01 4.408928394317626953e+00 -2.008751630783081055e+00 7.200530171394348145e-01 5.023154735565185547e+00
1.931000000000000000e+03 1.918672752380371094e+01 1.031664490699768066e+00 -4.848842918872833252e-01 4.643948376178741455e-01 -6.146834697574377060e-03 1.978497505187988281e-01
1.932000000000000000e+03 1.787322807312011719e+01 1.330286741256713867e+00 -5.022596120834350586e-01 1.085191383026540279e-03 -1.503523290157318115e-01 3.110805153846740723e-01
1.933000000000000000e+03 2.601491928100585938e+01 -9.519152641296386719e+00 4.341832637786865234e+00 3.875629901885986328e-01 1.418818593025207520e+00 3.219304382801055908e-01
1.934000000000000000e+03 2.492111778259277344e+01 -9.572215080261230469e+00 6.028298377990722656e+00 6.167841553688049316e-01 1.993524789810180664e+00 4.693489968776702881e-01
1.935000000000000000e+03 1.371617984771728516e+01 3.530001401901245117e+00 -2.883418798446655273e-01 -5.426490306854248047e-01 -2.492972761392593384e-01 5.828960537910461426e-01
1.936000000000000000e+03 1.651624488830566406e+01 2.075970172882080078e+00 -4.385511577129364014e-01 -2.788468301296234131e-01 -2.152193933725357056e-01 4.209973514080047607e-01
1.937000000000000000e+03 1.073063087463378906e+01 3.380367040634155273e+00 -4.539974033832550049e-01 -5.774793624877929688e-01 -3.094430267810821533e-01 7.263567447662353516e-01
1.938000000000000000e+03 9.848979949951171875e+00 5.123833179473876953e+00 -1.372291743755340576e-01 -5.183208584785461426e-01 -1.966650187969207764e-01 6.906583309173583984e-01
1.939000000000000000e+03 2.628240203857421875e+01 -1.224834537506103516e+01 -3.736501336097717285e-01 6.138681769371032715e-01 7.206542044878005981e-02 -1.443617343902587891e+00
1.940000000000000000e+03 1.510961818695068359e+01 2.886819124221801758e+00 -3.544581830501556396e-01 -4.485715627670288086e-01 -2.409089207649230957e-01 5.069296956062316895e-01
1.941000000000000000e+03 3.309114837646484375e+01 -1.403146457672119141e+01 -2.852633595466613770e-01 1.189641594886779785e+00 2.713134586811065674e-01 -1.425148487091064453e+00
1.942000000000000000e+03 2.776017951965332031e+01 -1.199198055267333984e+01 2.111353725194931030e-01 5.560835599899291992e-01 2.301656752824783325e-01 -1.280902028083801270e+00
1.943000000000000000e+03 9.373794555664062500e+00 -6.644717693328857422e+00 -6.048556566238403320e-01 1.225708961486816406e+00 1.862559914588928223e-01 -4.026083052158355713e-01
1.944000000000000000e+03 1.131435585021972656e+01 -1.148594951629638672e+01 1.555268049240112305e+00 3.222306489944458008e+00 1.433272361755371094e+00 1.015785813331604004e+00
1.945000000000000000e+03 1.206779384613037109e+01 5.205768108367919922e+00 -3.462846204638481140e-02 -5.239164233207702637e-01 -1.675634682178497314e-01 6.112728118896484375e-01
1.946000000000000000e+03 4.481452560424804688e+01 -2.124543571472167969e+01 3.472527503967285156e+00 9.782036781311035156e+00 3.976369380950927734e+00 -2.193741798400878906e+00
1.947000000000000000e+03 7.611799621582031250e+01 -2.223105430603027344e+01 -2.080887556076049805e-01 7.665384769439697266e+00 2.237188816070556641e+00 7.793428897857666016e-01
1.948000000000000000e+03 3.867500305175781250e+01 -1.512511825561523438e+01 -1.204108633100986481e-02 5.045777797698974609e+00 1.510121107101440430e+00 -3.239569902420043945e+00
1.949000000000000000e+03 4.364857864379882812e+01 -1.421296358108520508e+00 1.278548687696456909e-01 5.766744613647460938e+00 1.768379926681518555e+00 -1.730424761772155762e+00
1.950000000000000000e+03 4.332375335693359375e+01 -4.369901180267333984e+00 -2.286649793386459351e-01 5.562471866607666016e+00 1.600142121315002441e+00 -1.522010207176208496e+00
1.951000000000000000e+03 8.734888076782226562e+00 5.439175605773925781e+00 -1.193467006087303162e-01 -4.749129712581634521e-01 -1.782779097557067871e-01 6.760110855102539062e-01
1.952000000000000000e+03 1.624184608459472656e+01 -8.385431289672851562e+00 1.857275366783142090e+00 -5.002502202987670898e-01 4.071075320243835449e-01 1.759546041488647461e+00
1.953000000000000000e+03 5.325998687744140625e+01 -1.927640533447265625e+01 -3.568091988563537598e-02 1.561178326606750488e+00 4.576492309570312500e-01 -4.571661055088043213e-01
1.954000000000000000e+03 5.478085708618164062e+01 -2.180216789245605469e+01 1.150117993354797363e+00 1.872868537902832031e+00 9.068959355354309082e-01 8.179879188537597656e-02
1.955000000000000000e+03 1.198576164245605469e+01 -1.083314800262451172e+01 1.372256636619567871e+00 2.950966119766235352e+00 1.296966791152954102e+00 1.251109361648559570e+00
1.956000000000000000e+03 2.687813186645507812e+01 -1.074595928192138672e+01 2.156591176986694336e+00 2.392786443233489990e-01 7.187609076499938965e-01 -8.588104844093322754e-01
1.957000000000000000e+03 2.724148559570312500e+01 -1.274553585052490234e+01 -1.036771297454833984e+00 6.130117177963256836e-01 -1.271278858184814453e-01 -1.069291234016418457e+00
1.958000000000000000e+03 2.967010498046875000e+00 6.572546005249023438e+00 -2.838304080069065094e-02 -4.400168359279632568e-01 -1.405199617147445679e-01 3.383564054965972900e-01
1.959000000000000000e+03 3.659894180297851562e+01 1.159736442565917969e+01 1.738041043281555176e+00 6.862701892852783203e+00 2.580222845077514648e+00 -4.474611878395080566e-01
1.960000000000000000e+03 3.674770355224609375e+01 1.326762485504150391e+01 1.634774446487426758e+00 7.043472766876220703e+00 2.603474140167236328e+00 -4.702836275100708008e-01
1.961000000000000000e+03 3.025102615356445312e+01 -1.389221096038818359e+01 -1.093586921691894531e+00 7.653833031654357910e-01 -9.846109151840209961e-02 -8.242327570915222168e-01
1.962000000000000000e+03 3.170174980163574219e+01 -1.338657951354980469e+01 -3.969096541404724121e-01 1.103577852249145508e+00 2.120004594326019287e-01 -1.191085219383239746e+00
1.963000000000000000e+03 4.090545272827148438e+01 1.507584452629089355e+00 2.835171222686767578e-01 6.596137046813964844e+00 2.063896417617797852e+00 -1.329718708992004395e+00
1.964000000000000000e+03 4.447476959228515625e+01 -6.862175464630126953e+00 -4.915178120136260986e-01 5.512569427490234375e+00 1.506315469741821289e+00 -1.324438571929931641e+00
1.965000000000000000e+03 4.561639404296875000e+01 -6.306186676025390625e+00 -2.804575860500335693e-01 5.302858352661132812e+00 1.506720185279846191e+00 -1.308054089546203613e+00
1.966000000000000000e+03 6.545976257324218750e+01 -1.753003501892089844e+01 -4.423126950860023499e-02 1.878818154335021973e+00 5.503760576248168945e-01 1.124844074249267578e+00
1.967000000000000000e+03 7.353865814208984375e+01 1.751111984252929688e+01 8.235691487789154053e-02 8.544508934020996094e+00 2.588059902191162109e+00 5.898226499557495117e-01
1.968000000000000000e+03 7.469378662109375000e+01 2.048963546752929688e+01 9.610614925622940063e-02 8.403398513793945312e+00 2.549851417541503906e+00 6.347902417182922363e-01
1.969000000000000000e+03 9.031977653503417969e+00 -1.157914924621582031e+01 9.271345734596252441e-01 2.776423215866088867e+00 1.111067414283752441e+00 4.190363921225070953e-03
1.970000000000000000e+03 6.894268035888671875e+01 -1.239480018615722656e+01 5.280864238739013672e-01 4.635049819946289062e+00 1.548940896987915039e+00 4.969794452190399170e-01
1.971000000000000000e+03 6.704989624023437500e+01 -1.600857543945312500e+01 3.534313440322875977e-01 2.550836324691772461e+00 8.712803125381469727e-01 5.272457003593444824e-01
1.972000000000000000e+03 6.026206970214843750e+01 -1.955875778198242188e+01 -4.653649628162384033e-01 1.386046409606933594e+00 2.762044370174407959e-01 1.961570739746093750e+00
1.973000000000000000e+03 4.572293472290039062e+01 -9.080380439758300781e+00 -7.266935110092163086e-01 5.514493942260742188e+00 1.436340093612670898e+00 -9.676399230957031250e-01
1.974000000000000000e+03 7.416643524169921875e+01 2.550605964660644531e+01 1.477538049221038818e-01 8.060550689697265625e+00 2.462491512298583984e+00 7.740116119384765625e-01
1.975000000000000000e+03 7.527899169921875000e+01 3.166065406799316406e+01 -3.681178390979766846e-01 8.487521171569824219e+00 2.435821056365966797e+00 5.810694694519042969e-01
1.976000000000000000e+03 4.500328826904296875e+01 -9.702177047729492188e+00 -9.272770285606384277e-01 5.841889858245849609e+00 1.474383831024169922e+00 -1.040285944938659668e+00
1.977000000000000000e+03 4.150725936889648438e+01 4.227443933486938477e-01 2.036551088094711304e-01 6.262129783630371094e+00 1.939735412597656250e+00 -1.464022636413574219e+00
1.978000000000000000e+03 7.599765014648437500e+01 2.223835945129394531e+01 1.025492325425148010e-01 8.456032752990722656e+00 2.567574501037597656e+00 6.559135913848876953e-01
1.979000000000000000e+03 4.117805862426757812e+01 3.287545680999755859e+00 5.286831855773925781e-01 7.205312252044677734e+00 2.320198774337768555e+00 -1.475085258483886719e+00
1.980000000000000000e+03 7.602424621582031250e+01 2.745438575744628906e+01 -3.887235745787620544e-02 8.750967979431152344e+00 2.613628864288330078e+00 8.114495277404785156e-01
1.981000000000000000e+03 7.494808197021484375e+01 2.722917175292968750e+01 -4.371353425085544586e-03 8.278463363647460938e+00 2.482227563858032227e+00 8.565592169761657715e-01
1.982000000000000000e+03 7.341077423095703125e+01 9.851854324340820312e+00 -2.465755790472030640e-01 9.275605201721191406e+00 2.708709001541137695e+00 7.200690507888793945e-01
1.983000000000000000e+03 7.568894958496093750e+01 3.886879444122314453e+00 3.749960362911224365e-01 7.667453289031982422e+00 2.412734746932983398e+00 4.949998259544372559e-01
1.984000000000000000e+03 7.625236511230468750e+01 2.360907363891601562e+01 1.021052896976470947e-01 8.534333229064941406e+00 2.590931653976440430e+00 6.921673417091369629e-01
1.985000000000000000e+03 7.580821228027343750e+01 -1.808932685852050781e+01 -5.569692850112915039e-01 7.282681941986083984e+00 2.017713785171508789e+00 -4.772122576832771301e-02
1.986000000000000000e+03 7.477017211914062500e+01 -2.096405220031738281e+01 -7.883879542350769043e-01 7.659563064575195312e+00 2.061352491378784180e+00 5.348647236824035645e-01
1.987000000000000000e+03 7.427062225341796875e+01 -1.457003116607666016e+01 -2.859962284564971924e-01 6.492245197296142578e+00 1.861874699592590332e+00 -5.706843733787536621e-01
1.988000000000000000e+03 7.539169311523437500e+01 -1.266294097900390625e+01 -1.225182265043258667e-01 6.731247425079345703e+00 1.982618808746337891e+00 -5.709708333015441895e-01
1.989000000000000000e+03 7.602791595458984375e+01 1.225003147125244141e+01 -1.306226253509521484e-01 7.981529712677001953e+00 2.355272293090820312e+00 6.354847550392150879e-01
1.990000000000000000e+03 7.589083862304687500e+01 1.775293922424316406e+01 4.393219202756881714e-02 8.230068206787109375e+00 2.482200145721435547e+00 5.686147212982177734e-01
1.991000000000000000e+03 7.369854736328125000e+01 7.831228733062744141e+00 1.534993946552276611e-01 9.313029289245605469e+00 2.839958667755126953e+00 8.132428526878356934e-01
1.992000000000000000e+03 7.473880004882812500e+01 -6.961593151092529297e+00 3.665640577673912048e-02 7.029755592346191406e+00 2.119923591613769531e+00 -4.865207374095916748e-01
1.993000000000000000e+03 7.607984924316406250e+01 -5.688769817352294922e+00 3.932559117674827576e-02 6.823131084442138672e+00 2.058737039566040039e+00 -5.496997833251953125e-01
1.994000000000000000e+03 7.427075958251953125e+01 1.057464027404785156e+01 -2.186970859766006470e-01 8.771280288696289062e+00 2.565774917602539062e+00 7.919863462448120117e-01
1.995000000000000000e+03 7.323282623291015625e+01 5.390006899833679199e-01 7.940586209297180176e-01 9.375319480895996094e+00 3.050813436508178711e+00 3.245824873447418213e-01
1.996000000000000000e+03 7.586302947998046875e+01 -3.443815946578979492e+00 1.749516427516937256e-01 7.047237396240234375e+00 2.166656732559204102e+00 -4.670918881893157959e-01
1.997000000000000000e+03 7.354569244384765625e+01 -4.990111351013183594e+00 1.632031500339508057e-01 7.770538806915283203e+00 2.380122661590576172e+00 -1.865646094083786011e-01
1.998000000000000000e+03 7.588674926757812500e+01 1.919491577148437500e+01 5.698138475418090820e-02 8.319501876831054688e+00 2.512945175170898438e+00 5.821110606193542480e-01
1.999000000000000000e+03 7.560112762451171875e+01 -9.770866394042968750e+00 -2.872313931584358215e-02 6.762354373931884766e+00 2.020089387893676758e+00 -6.014984846115112305e-01
2.000000000000000000e+03 7.588839721679687500e+01 -1.691041755676269531e+01 -4.201818704605102539e-01 7.131990909576416016e+00 2.013542652130126953e+00 -2.464652657508850098e-01
2.001000000000000000e+03 7.016027069091796875e+01 -1.927227973937988281e+01 -1.113620042800903320e+00 3.877771377563476562e+00 8.292453289031982422e-01 -1.253847956657409668e+00
2.002000000000000000e+03 7.508501434326171875e+01 -1.917834663391113281e+01 -7.540704607963562012e-01 7.322865009307861328e+00 1.970638394355773926e+00 9.188197553157806396e-02
2.003000000000000000e+03 7.447573089599609375e+01 2.178550481796264648e+00 6.251361370086669922e-01 8.513951301574707031e+00 2.741726160049438477e+00 3.365356326103210449e-01
2.004000000000000000e+03 7.331013488769531250e+01 2.028362035751342773e+00 7.688418626785278320e-01 9.623133659362792969e+00 3.117592573165893555e+00 5.118257999420166016e-01
2.005000000000000000e+03 7.517817687988281250e+01 2.590746879577636719e+01 7.614943385124206543e-02 8.369103431701660156e+00 2.533576011657714844e+00 8.252598047256469727e-01
2.006000000000000000e+03 7.384281921386718750e+01 1.172939300537109375e+01 -3.156450390815734863e-01 8.952922821044921875e+00 2.591183423995971680e+00 6.296760439872741699e-01
2.007000000000000000e+03 7.478865814208984375e+01 1.340676116943359375e+01 -1.493137329816818237e-01 8.437920570373535156e+00 2.486582279205322266e+00 6.111350655555725098e-01
2.008000000000000000e+03 7.310815429687500000e+01 -1.016065001487731934e+00 6.443570852279663086e-01 9.104845046997070312e+00 2.924760580062866211e+00 2.001649290323257446e-01
2.009000000000000000e+03 7.191239929199218750e+01 -1.032667756080627441e+00 7.123677134513854980e-01 1.006272029876708984e+01 3.232526302337646484e+00 5.995969176292419434e-01
2.010000000000000000e+03 7.407906341552734375e+01 3.115855789184570312e+01 -4.647446870803833008e-01 7.783289909362792969e+00 2.195563554763793945e+00 6.067073941230773926e-01
2.011000000000000000e+03 7.301747131347656250e+01 -9.382380485534667969e+00 4.512679576873779297e-02 6.699460506439208984e+00 2.023376226425170898e+00 -2.753652036190032959e-01
2.012000000000000000e+03 7.368166351318359375e+01 -1.612680053710937500e+01 -5.472111701965332031e-01 6.366470336914062500e+00 1.745777845382690430e+00 -5.935561656951904297e-01
2.013000000000000000e+03 5.276807785034179688e+01 -3.106667327880859375e+01 1.804108023643493652e+00 6.213952064514160156e+00 2.405418157577514648e+00 -1.368214964866638184e+00
2.014000000000000000e+03 4.687360000610351562e+01 -2.968247413635253906e+01 9.956527948379516602e-01 7.337963581085205078e+00 2.500084877014160156e+00 -1.960602164268493652e+00
2.015000000000000000e+03 7.479542541503906250e+01 -2.996283149719238281e+01 4.730885624885559082e-01 7.782714843750000000e+00 2.476741075515747070e+00 -5.694637894630432129e-01
2.016000000000000000e+03 7.220407867431640625e+01 3.466778945922851562e+01 -5.973829627037048340e-01 6.108487129211425781e+00 1.653331279754638672e+00 1.104507520794868469e-01
2.017000000000000000e+03 7.252913665771484375e+01 -3.468074417114257812e+01 -6.998118162155151367e-01 6.040589332580566406e+00 1.602233290672302246e+00 3.677626550197601318e-01
2.018000000000000000e+03 7.599349212646484375e+01 -3.260587692260742188e+01 -2.227697968482971191e-01 7.284363269805908203e+00 2.118478059768676758e+00 -6.488779187202453613e-01
2.019000000000000000e+03 7.088462066650390625e+01 -2.010256195068359375e+01 -1.387240767478942871e+00 4.759876728057861328e+00 1.011790871620178223e+00 -1.397495269775390625e+00
2.020000000000000000e+03 7.410469055175781250e+01 -2.012186050415039062e+01 -1.071603298187255859e+00 7.505664825439453125e+00 1.930218458175659180e+00 3.753029182553291321e-02
2.021000000000000000e+03 3.684925842285156250e+01 1.490100574493408203e+01 1.449047803878784180e+00 7.031637191772460938e+00 2.544205427169799805e+00 -4.441251456737518311e-01
2.022000000000000000e+03 7.102929592132568359e+00 3.167809486389160156e+01 -4.731128457933664322e-03 -3.215135037899017334e-01 -9.787338972091674805e-02 -1.120125576853752136e-01
2.023000000000000000e+03 5.217025279998779297e+00 -2.837806320190429688e+01 -9.516596794128417969e-01 2.895334720611572266e+00 5.831025242805480957e-01 2.085509538650512695e+00
2.024000000000000000e+03 4.293122768402099609e+00 -2.839413833618164062e+01 -8.323535919189453125e-01 2.552660465240478516e+00 5.160920619964599609e-01 2.112759351730346680e+00
2.025000000000000000e+03 7.494035339355468750e+01 -3.601399612426757812e+01 -3.964795172214508057e-01 6.757865905761718750e+00 1.908415913581848145e+00 -1.532273292541503906e-01
2.026000000000000000e+03 5.638360977172851562e+00 2.686292457580566406e+01 4.130567610263824463e-02 -6.698698401451110840e-01 -1.885692477226257324e-01 -8.669543266296386719e-02
2.027000000000000000e+03 5.532078266143798828e+00 -1.155645656585693359e+01 3.440869450569152832e-01 6.626484394073486328e-01 3.020206093788146973e-01 -1.047801375389099121e+00
2.028000000000000000e+03 5.177546501159667969e+00 -1.023771286010742188e+01 4.587742313742637634e-02 2.621972262859344482e-01 9.242239594459533691e-02 -1.191426634788513184e+00
2.029000000000000000e+03 4.618772125244140625e+01 -1.134020328521728516e+01 -1.093268752098083496e+00 5.862556934356689453e+00 1.430786490440368652e+00 -6.461441516876220703e-01
2.030000000000000000e+03 5.966349124908447266e+00 2.444027519226074219e+01 7.064203172922134399e-02 -6.452569365501403809e-01 -1.723844707012176514e-01 -5.014225468039512634e-02
2.031000000000000000e+03 6.109920501708984375e+00 -1.579801273345947266e+01 1.313860297203063965e+00 2.205979585647583008e+00 1.055951952934265137e+00 1.352450549602508545e-01
2.032000000000000000e+03 5.626188278198242188e+00 -1.477615070343017578e+01 9.928668141365051270e-01 1.346628546714782715e+00 7.018486261367797852e-01 -3.294145762920379639e-01
2.033000000000000000e+03 4.172896385192871094e+00 1.484714221954345703e+01 9.077950567007064819e-02 -8.805584311485290527e-01 -2.369336783885955811e-01 2.314033359289169312e-01
2.034000000000000000e+03 5.585149765014648438e+00 1.757143211364746094e+01 1.309360563755035400e-01 -7.526862025260925293e-01 -1.865250319242477417e-01 1.556529551744461060e-01
2.035000000000000000e+03 5.495280742645263672e+00 1.615262985229492188e+01 1.297034919261932373e-01 -7.516839504241943359e-01 -1.865941286087036133e-01 2.105249315500259399e-01
2.036000000000000000e+03 4.440809726715087891e+00 2.041818046569824219e+01 7.068801671266555786e-02 -9.297808408737182617e-01 -2.577278316020965576e-01 5.545385926961898804e-02
2.037000000000000000e+03 5.986629486083984375e+00 2.571302223205566406e+01 6.703694909811019897e-02 -6.020879149436950684e-01 -1.605152785778045654e-01 -8.333586156368255615e-02
2.038000000000000000e+03 5.202333450317382812e+00 1.346052742004394531e+01 1.318467706441879272e-01 -7.313275933265686035e-01 -1.798442453145980835e-01 3.192919492721557617e-01
2.039000000000000000e+03 4.105839729309082031e+00 -2.023296356201171875e+01 1.012079358100891113e+00 5.651351213455200195e-01 4.731643497943878174e-01 1.291926026344299316e+00
2.040000000000000000e+03 7.534319400787353516e+00 -1.325312709808349609e+01 1.207075953483581543e+00 2.746141672134399414e+00 1.185965299606323242e+00 -1.228300631046295166e-01
2.041000000000000000e+03 4.313033580780029297e+00 3.332176208496093750e+01 -9.449427947402000427e-03 -8.073985576629638672e-01 -2.450544089078903198e-01 -8.249914646148681641e-02
2.042000000000000000e+03 5.763513088226318359e+00 2.174940681457519531e+01 9.629198908805847168e-02 -7.081115841865539551e-01 -1.835458725690841675e-01 1.536391116678714752e-02
2.043000000000000000e+03 5.679318904876708984e+00 2.037016487121582031e+01 1.048086881637573242e-01 -7.348996996879577637e-01 -1.890273094177246094e-01 5.441965535283088684e-02
2.044000000000000000e+03 5.062725067138671875e+00 -3.200030136108398438e+01 -9.078913927078247070e-01 2.656687736511230469e+00 5.246388912200927734e-01 1.045285105705261230e+00
2.045000000000000000e+03 7.981704711914062500e+00 -3.499665069580078125e+01 -8.964607715606689453e-01 1.589224934577941895e+00 2.078292518854141235e-01 3.503638803958892822e-01
2.046000000000000000e+03 4.035033226013183594e+00 9.560310363769531250e+00 5.194704607129096985e-02 -6.490303874015808105e-01 -1.791250109672546387e-01 3.951878249645233154e-01
2.047000000000000000e+03 5.070467472076416016e+00 9.716196060180664062e+00 7.281400263309478760e-02 -6.067900061607360840e-01 -1.601928025484085083e-01 4.502340257167816162e-01
2.048000000000000000e+03 6.534602642059326172e+00 -1.352170372009277344e+01 1.068289756774902344e+00 2.091146230697631836e+00 9.478307962417602539e-01 -4.627741873264312744e-01
2.049000000000000000e+03 7.105383396148681641e+00 -1.221695137023925781e+01 6.974242925643920898e-01 2.004120826721191406e+00 8.104635477066040039e-01 -6.171076893806457520e-01
2.050000000000000000e+03 5.201750278472900391e+00 8.735053062438964844e+00 5.280370265245437622e-02 -5.670130252838134766e-01 -1.542628109455108643e-01 4.830921590328216553e-01
2.051000000000000000e+03 4.458801746368408203e+00 -6.684813499450683594e+00 -2.789129614830017090e-01 -1.750836223363876343e-01 -1.361989676952362061e-01 -1.073795914649963379e+00
2.052000000000000000e+03 3.730175018310546875e+01 1.979765510559082031e+01 8.581442236900329590e-01 6.614785671234130859e+00 2.241878986358642578e+00 -1.754007339477539062e-01
2.053000000000000000e+03 3.884271621704101562e+01 1.960060119628906250e+01 8.473743796348571777e-01 7.276778221130371094e+00 2.437245845794677734e+00 1.990460306406021118e-01
2.054000000000000000e+03 4.100321769714355469e+00 3.427969360351562500e+01 -1.977205276489257812e-03 -8.402704000473022461e-01 -2.526742815971374512e-01 -5.791101977229118347e-02
2.055000000000000000e+03 4.630877017974853516e+00 -7.801709651947021484e+00 -2.296612560749053955e-01 -1.184334009885787964e-01 -1.044283956289291382e-01 -1.166985869407653809e+00
2.056000000000000000e+03 5.524440765380859375e+00 -7.631166458129882812e+00 -2.801643311977386475e-01 2.691270411014556885e-01 -3.311193548142910004e-03 -1.130654573440551758e+00
2.057000000000000000e+03 4.512280273437500000e+01 -8.031661033630371094e+00 -6.220327615737915039e-01 5.534888267517089844e+00 1.473856687545776367e+00 -1.148147344589233398e+00
2.058000000000000000e+03 7.234697723388671875e+01 9.287824630737304688e+00 -2.191686928272247314e-01 9.764081001281738281e+00 2.863473653793334961e+00 6.787806153297424316e-01
2.059000000000000000e+03 4.025933456420898438e+01 4.420507907867431641e+00 7.276696562767028809e-01 7.420488357543945312e+00 2.444447517395019531e+00 -1.070218086242675781e+00
2.060000000000000000e+03 3.573142623901367188e+01 -3.741232681274414062e+01 -1.131868600845336914e+00 4.192608296871185303e-01 -2.137823253870010376e-01 1.968264728784561157e-01
2.061000000000000000e+03 7.357371520996093750e+01 1.313638877868652344e+01 -2.171676605939865112e-01 8.826728820800781250e+00 2.582868337631225586e+00 4.796989262104034424e-01
2.062000000000000000e+03 3.819708633422851562e+01 -1.391748523712158203e+01 -3.628417551517486572e-01 4.659946918487548828e+00 1.289131522178649902e+00 -2.865371465682983398e+00
2.063000000000000000e+03 7.338462066650390625e+01 -8.046659469604492188e+00 3.950905054807662964e-02 7.036934375762939453e+00 2.122933149337768555e+00 -2.644137442111968994e-01
2.064000000000000000e+03 6.320174407958984375e+01 -1.596226882934570312e+01 3.348739147186279297e-01 1.870248794555664062e+00 6.615368127822875977e-01 1.429328560829162598e+00
2.065000000000000000e+03 6.318487930297851562e+01 -1.819789695739746094e+01 -4.464705884456634521e-01 1.682408452033996582e+00 3.707813620567321777e-01 1.777826905250549316e+00
2.066000000000000000e+03 7.224967193603515625e+01 -7.682765007019042969e+00 1.299290806055068970e-01 7.107094287872314453e+00 2.171107053756713867e+00 6.375447660684585571e-02
2.067000000000000000e+03 5.570151138305664062e+01 -1.988545227050781250e+01 2.249000370502471924e-01 5.642175078392028809e-01 2.367352545261383057e-01 6.118415594100952148e-01
2.068000000000000000e+03 7.535997772216796875e+01 -2.726947975158691406e+01 9.208719730377197266e-01 7.682938575744628906e+00 2.581143140792846680e+00 -2.149071311578154564e-03
2.069000000000000000e+03 6.341436767578125000e+01 -1.901293945312500000e+01 -6.097696423530578613e-01 1.545063376426696777e+00 2.805881202220916748e-01 1.752006411552429199e+00
2.070000000000000000e+03 7.287985992431640625e+01 -1.278813076019287109e+01 -7.905087620019912720e-02 6.095619678497314453e+00 1.804970741271972656e+00 -4.693473279476165771e-01
2.071000000000000000e+03 1.596149158477783203e+01 -9.092891693115234375e+00 2.106480836868286133e+00 -1.304550766944885254e-01 5.928077101707458496e-01 2.133962154388427734e+00
2.072000000000000000e+03 4.019723510742187500e+01 2.515389204025268555e+00 4.276803135871887207e-01 6.773450374603271484e+00 2.160339355468750000e+00 -1.073217988014221191e+00
2.073000000000000000e+03 3.899988555908203125e+01 8.155149459838867188e+00 1.592262387275695801e+00 7.999674320220947266e+00 2.877581119537353516e+00 -6.024469137191772461e-01
2.074000000000000000e+03 4.513940048217773438e+01 -2.001457786560058594e+01 2.060195207595825195e+00 8.523129463195800781e+00 3.174997568130493164e+00 -1.368111371994018555e+00
2.075000000000000000e+03 6.621054840087890625e+01 -1.835556221008300781e+01 -2.282096147537231445e-01 1.516981363296508789e+00 3.866315484046936035e-01 8.339253067970275879e-01
2.076000000000000000e+03 6.461550140380859375e+01 -1.686932945251464844e+01 1.062055900692939758e-01 1.970747113227844238e+00 6.230857968330383301e-01 1.277804493904113770e+00
2.077000000000000000e+03 4.106385040283203125e+01 2.243266105651855469e+01 6.641048192977905273e-01 7.017435550689697266e+00 2.304462194442749023e+00 9.253123402595520020e-01
2.078000000000000000e+03 7.175089263916015625e+01 -5.891510486602783203e+00 2.145960330963134766e-01 7.759742736816406250e+00 2.392301559448242188e+00 3.832454681396484375e-01
2.079000000000000000e+03 7.375501251220703125e+01 -6.814477443695068359e+00 7.367426156997680664e-02 7.285764217376708984e+00 2.207831382751464844e+00 -3.273877501487731934e-01
2.080000000000000000e+03 7.218773651123046875e+01 1.938284993171691895e+00 8.812489509582519531e-01 1.085511875152587891e+01 3.520910263061523438e+00 7.395935654640197754e-01
2.081000000000000000e+03 7.197975158691406250e+01 -1.201033782958984375e+01 5.576350167393684387e-02 5.917814731597900391e+00 1.792073488235473633e+00 -2.746631503105163574e-01
2.082000000000000000e+03 6.763119220733642578e+00 -1.451319503784179688e+01 1.438418269157409668e+00 2.654858827590942383e+00 1.227983117103576660e+00 -1.224928908050060272e-02
2.083000000000000000e+03 8.569406509399414062e+00 -1.296293926239013672e+01 1.450074672698974609e+00 3.195758342742919922e+00 1.393749952316284180e+00 1.987309902906417847e-01
2.084000000000000000e+03 4.455283737182617188e+01 -3.232632064819335938e+01 -7.725360989570617676e-01 7.118820667266845703e+00 1.903885364532470703e+00 -7.731655240058898926e-01
2.085000000000000000e+03 7.290357971191406250e+01 1.106103515625000000e+01 -3.531215786933898926e-01 9.300714492797851562e+00 2.684277772903442383e+00 5.931229591369628906e-01
2.086000000000000000e+03 7.318764495849609375e+01 2.367806816101074219e+01 2.278343141078948975e-01 8.076379776000976562e+00 2.491264343261718750e+00 5.751115679740905762e-01
2.087000000000000000e+03 7.537420654296875000e+01 2.378692054748535156e+01 1.337985843420028687e-01 8.417218208312988281e+00 2.565304994583129883e+00 7.316262125968933105e-01
2.088000000000000000e+03 4.744229125976562500e+01 -2.520896148681640625e+01 2.468495368957519531e+00 6.968439102172851562e+00 2.831080436706542969e+00 -2.503406047821044922e+00
2.089000000000000000e+03 4.600519561767578125e+01 -2.558461952209472656e+01 2.247408866882324219e+00 8.661018371582031250e+00 3.272528171539306641e+00 -2.710060596466064453e+00
2.090000000000000000e+03 3.887679290771484375e+01 2.666104698181152344e+01 -3.766927495598793030e-02 5.566770553588867188e+00 1.658730387687683105e+00 5.700938776135444641e-02
2.091000000000000000e+03 7.114090728759765625e+01 3.837587738037109375e+01 -1.775429546833038330e-01 5.173272609710693359e+00 1.498718857765197754e+00 -1.082735359668731689e-01
2.092000000000000000e+03 1.851420974731445312e+01 -3.651403427124023438e+01 -1.121057271957397461e+00 -5.026627779006958008e-01 -4.871160089969635010e-01 4.832747876644134521e-01
2.093000000000000000e+03 6.896269989013671875e+01 -3.858719253540039062e+01 2.660669982433319092e-01 2.859993457794189453e+00 9.378181099891662598e-01 6.102343201637268066e-01
2.094000000000000000e+03 7.149713897705078125e+01 -3.677671813964843750e+01 -4.591095149517059326e-01 4.824968338012695312e+00 1.309757709503173828e+00 6.133661270141601562e-01
2.095000000000000000e+03 7.310589599609375000e+01 2.513030815124511719e+01 2.079507559537887573e-01 7.859837532043457031e+00 2.420336484909057617e+00 6.348748207092285156e-01
2.096000000000000000e+03 6.608745098114013672e+00 -1.724328994750976562e+01 1.858413100242614746e+00 3.757234811782836914e+00 1.684694409370422363e+00 9.207981824874877930e-01
2.097000000000000000e+03 6.956860351562500000e+01 -1.377346992492675781e+01 2.945433259010314941e-01 4.537950992584228516e+00 1.449748277664184570e+00 4.281644150614738464e-02
2.098000000000000000e+03 5.650753021240234375e+01 -2.243606185913085938e+01 1.305232048034667969e+00 1.645535230636596680e+00 8.852301836013793945e-01 7.887088060379028320e-01
2.099000000000000000e+03 3.365160751342773438e+01 -1.312486362457275391e+01 -2.377798967063426971e-02 1.631658315658569336e+00 4.823641180992126465e-01 -1.704883456230163574e+00
2.100000000000000000e+03 6.453558349609375000e+01 -1.509321022033691406e+01 7.067555189132690430e-01 2.292323589324951172e+00 8.997237682342529297e-01 1.290160059928894043e+00
2.101000000000000000e+03 5.419736099243164062e+01 -2.371599006652832031e+01 1.595810294151306152e+00 3.055467844009399414e+00 1.395383477210998535e+00 -3.049001395702362061e-01
2.102000000000000000e+03 5.370266342163085938e+01 -2.559292411804199219e+01 1.711276650428771973e+00 4.293679237365722656e+00 1.801486730575561523e+00 -6.960131525993347168e-01
2.103000000000000000e+03 6.975047111511230469e+00 -1.629586410522460938e+01 1.774129867553710938e+00 3.620620250701904297e+00 1.618425011634826660e+00 7.980920076370239258e-01
2.104000000000000000e+03 6.578734874725341797e+00 -2.935252189636230469e+01 -1.632375240325927734e+00 2.988531351089477539e+00 4.068468511104583740e-01 1.672293066978454590e+00
2.105000000000000000e+03 5.702815055847167969e+00 -3.018168640136718750e+01 -1.211522579193115234e+00 2.740678787231445312e+00 4.587468802928924561e-01 1.479191541671752930e+00
2.106000000000000000e+03 6.256707382202148438e+01 -1.886649513244628906e+01 -6.005681157112121582e-01 1.620057821273803711e+00 3.058468997478485107e-01 1.893168926239013672e+00
2.107000000000000000e+03 7.474887084960937500e+01 2.862023925781250000e+01 -1.634203046560287476e-01 8.223462104797363281e+00 2.418012380599975586e+00 8.221410512924194336e-01
2.108000000000000000e+03 3.900772476196289062e+01 3.138433074951171875e+01 -6.947439908981323242e-01 4.864842414855957031e+00 1.251029491424560547e+00 -2.198462188243865967e-02
2.109000000000000000e+03 4.198571395874023438e+01 2.889680862426757812e+01 -2.158983051776885986e-01 5.135285854339599609e+00 1.475816249847412109e+00 5.566251873970031738e-01
2.110000000000000000e+03 4.514166641235351562e+01 3.491571426391601562e+01 -8.341678380966186523e-01 3.703269243240356445e+00 8.607304692268371582e-01 4.882815480232238770e-01
2.111000000000000000e+03 5.231981754302978516e+00 -2.146889686584472656e+01 1.410035610198974609e+00 2.813895702362060547e+00 1.267179369926452637e+00 2.033613204956054688e+00
2.112000000000000000e+03 7.293721771240234375e+01 -2.692837476730346680e+00 4.186889529228210449e-01 8.668298721313476562e+00 2.726096391677856445e+00 9.587325155735015869e-02
2.113000000000000000e+03 4.828044891357421875e+01 -1.403756427764892578e+01 -1.344082355499267578e+00 5.479809284210205078e+00 1.240718126296997070e+00 -1.110393702983856201e-01
2.114000000000000000e+03 4.082530593872070312e+01 -3.575939941406250000e+01 -1.567456603050231934e+00 3.461899757385253906e+00 5.683329701423645020e-01 9.417259693145751953e-01
2.115000000000000000e+03 4.614756393432617188e+01 -3.225878906250000000e+01 -4.110188782215118408e-01 7.125433921813964844e+00 2.014324665069580078e+00 -1.256388187408447266e+00
2.116000000000000000e+03 3.398701477050781250e+01 -1.485647106170654297e+01 -1.844682842493057251e-01 1.177530646324157715e+00 2.979187071323394775e-01 -1.502170681953430176e+00
2.117000000000000000e+03 8.091856956481933594e+00 -3.126854324340820312e+01 -1.669756293296813965e+00 2.066774368286132812e+00 1.191054210066795349e-01 7.920010685920715332e-01
2.118000000000000000e+03 7.284512996673583984e+00 -3.022572898864746094e+01 -1.661353826522827148e+00 2.651061773300170898e+00 2.969123423099517822e-01 1.130173206329345703e+00
2.119000000000000000e+03 4.399682617187500000e+01 -1.838353157043457031e+01 9.525656700134277344e-01 8.837143898010253906e+00 2.936913013458251953e+00 -1.582781076431274414e+00
2.120000000000000000e+03 4.305874633789062500e+01 -1.541626071929931641e+01 -8.206892013549804688e-01 7.998917579650878906e+00 2.153468370437622070e+00 -1.866206169128417969e+00
2.121000000000000000e+03 3.611417770385742188e+01 1.011909580230712891e+01 1.711281418800354004e+00 6.492927551269531250e+00 2.461262702941894531e+00 -3.310974538326263428e-01
2.122000000000000000e+03 4.661354064941406250e+01 4.072024154663085938e+01 -1.020668864250183105e+00 2.919831991195678711e+00 5.697489380836486816e-01 1.280455738306045532e-01
2.123000000000000000e+03 4.980510330200195312e+01 3.586808395385742188e+01 -5.648297071456909180e-01 1.948797225952148438e+00 4.151902794837951660e-01 4.563595652580261230e-01
2.124000000000000000e+03 9.676382064819335938e+00 -3.534032058715820312e+01 -8.863502144813537598e-01 1.002984523773193359e+00 3.499031066894531250e-02 2.361230552196502686e-01
2.125000000000000000e+03 1.037568187713623047e+01 -3.362098312377929688e+01 -1.297374367713928223e+00 7.375749945640563965e-01 -1.679397970438003540e-01 2.813966274261474609e-01
2.126000000000000000e+03 7.189312744140625000e+01 3.175543785095214844e+01 -6.965724825859069824e-01 6.156775474548339844e+00 1.638060808181762695e+00 4.217224419116973877e-01
2.127000000000000000e+03 4.410847854614257812e+01 -1.566223526000976562e+01 -7.938280701637268066e-01 7.837007045745849609e+00 2.112953662872314453e+00 -1.174688696861267090e+00
2.128000000000000000e+03 4.892446517944335938e+01 -1.547683620452880859e+01 -1.273840188980102539e+00 5.135018348693847656e+00 1.158353447914123535e+00 -2.252096086740493774e-01
2.129000000000000000e+03 4.909864044189453125e+01 -1.831995391845703125e+01 -2.479572035372257233e-02 5.153332233428955078e+00 1.538560867309570312e+00 -8.199511170387268066e-01
2.130000000000000000e+03 5.937976455688476562e+01 -2.032810211181640625e+01 -1.105435639619827271e-01 1.281710147857666016e+00 3.513499796390533447e-01 1.977056503295898438e+00
2.131000000000000000e+03 7.354512786865234375e+01 2.999719047546386719e+01 -3.593549132347106934e-01 7.497065067291259766e+00 2.141313076019287109e+00 7.091982364654541016e-01
2.132000000000000000e+03 2.292884254455566406e+01 -5.275121212005615234e+00 -8.020665049552917480e-01 4.040251255035400391e+00 9.714554548263549805e-01 1.427922248840332031e+00
2.133000000000000000e+03 2.266377639770507812e+01 -6.502897739410400391e+00 -5.596230030059814453e-01 5.487226009368896484e+00 1.478280901908874512e+00 2.107786178588867188e+00
2.134000000000000000e+03 2.278976440429687500e+01 -6.796733379364013672e+00 -2.323239892721176147e-01 6.028116703033447266e+00 1.738737940788269043e+00 2.607322692871093750e+00
2.135000000000000000e+03 1.889670944213867188e+01 -1.030937194824218750e+01 5.710545539855957031e+00 -2.557964086532592773e+00 9.457743763923645020e-01 4.500454425811767578e+00
2.136000000000000000e+03 2.168476867675781250e+01 -5.067515850067138672e+00 -1.098236680030822754e+00 2.393628120422363281e+00 3.886174261569976807e-01 5.043171644210815430e-01
2.137000000000000000e+03 2.430301475524902344e+01 -7.223102569580078125e+00 3.160037755966186523e+00 3.767453670501708984e+00 2.078247308731079102e+00 3.896343946456909180e+00
2.138000000000000000e+03 2.232603073120117188e+01 -3.882797956466674805e+00 -1.018351793289184570e+00 2.689773082733154297e+00 5.014263987541198730e-01 6.389770507812500000e-01
2.139000000000000000e+03 1.767344093322753906e+01 -9.663193702697753906e+00 4.140851497650146484e+00 -1.567857623100280762e+00 7.718982100486755371e-01 3.099172592163085938e+00
2.140000000000000000e+03 1.594742488861083984e+01 -8.131465911865234375e+00 1.320016980171203613e+00 -2.100713849067687988e-01 3.329836726188659668e-01 1.541243314743041992e+00
2.141000000000000000e+03 1.523652076721191406e+01 -8.576593399047851562e+00 1.399608373641967773e+00 2.410634607076644897e-01 4.922015368938446045e-01 1.705336451530456543e+00
2.142000000000000000e+03 1.791894340515136719e+01 -8.522253036499023438e+00 3.239374160766601562e+00 -1.673397302627563477e+00 4.697930514812469482e-01 1.669900536537170410e+00
2.143000000000000000e+03 1.513946914672851562e+01 -7.651797294616699219e+00 6.929231882095336914e-01 1.583053618669509888e-01 2.553685605525970459e-01 1.301358580589294434e+00
2.144000000000000000e+03 2.517979812622070312e+01 -8.046826362609863281e+00 4.996327400207519531e+00 1.755442380905151367e+00 2.025531053543090820e+00 2.839145898818969727e+00
2.145000000000000000e+03 1.441680717468261719e+01 -7.871484756469726562e+00 5.317267775535583496e-01 6.001165509223937988e-01 3.395529985427856445e-01 1.184597849845886230e+00
2.146000000000000000e+03 2.200150489807128906e+01 -3.715467453002929688e+00 -1.045878052711486816e+00 2.374912977218627930e+00 3.987104594707489014e-01 5.036590099334716797e-01
2.147000000000000000e+03 2.123032760620117188e+01 -2.806956768035888672e+00 -1.012695193290710449e+00 1.461638927459716797e+00 1.346831321716308594e-01 3.347280323505401611e-01
2.148000000000000000e+03 9.928114891052246094e+00 -5.282083511352539062e+00 -9.459636211395263672e-01 9.387924671173095703e-01 -2.151357941329479218e-03 -2.654134035110473633e-01
2.149000000000000000e+03 1.094058799743652344e+01 -7.611788749694824219e+00 -2.485119402408599854e-01 1.578504085540771484e+00 3.989976346492767334e-01 9.651803225278854370e-02
2.150000000000000000e+03 8.684627532958984375e+00 -5.170737266540527344e+00 -8.676167726516723633e-01 8.172922730445861816e-01 -1.509734708815813065e-02 -5.212692022323608398e-01
2.151000000000000000e+03 1.058315658569335938e+01 -1.060520744323730469e+01 8.747043013572692871e-01 2.780507564544677734e+00 1.096563577651977539e+00 4.774107038974761963e-01
2.152000000000000000e+03 2.499219131469726562e+01 -7.550333499908447266e+00 3.997121572494506836e+00 2.612112522125244141e+00 1.982770323753356934e+00 3.448976993560791016e+00
2.153000000000000000e+03 2.475602722167968750e+01 -9.039771080017089844e+00 6.582032203674316406e+00 9.796318411827087402e-01 2.268499135971069336e+00 1.736770510673522949e+00
2.154000000000000000e+03 1.420011043548583984e+01 -7.046607017517089844e+00 3.364736214280128479e-03 5.351344943046569824e-01 1.615497618913650513e-01 9.429262280464172363e-01
2.155000000000000000e+03 1.415381336212158203e+01 -9.123882293701171875e+00 1.186448574066162109e+00 1.152329325675964355e+00 7.016333937644958496e-01 1.644336700439453125e+00
2.156000000000000000e+03 1.219188022613525391e+01 -5.929507255554199219e+00 -7.893363833427429199e-01 9.421824812889099121e-01 4.585383459925651550e-02 2.982310056686401367e-01
2.157000000000000000e+03 2.156930541992187500e+01 -1.556452631950378418e+00 -8.143118023872375488e-01 1.659999370574951172e+00 2.537062764167785645e-01 2.645976245403289795e-01
2.158000000000000000e+03 7.372910022735595703e+00 -8.049730300903320312e+00 -3.005541265010833740e-01 1.093745827674865723e+00 2.379575073719024658e-01 -9.233971238136291504e-01
2.159000000000000000e+03 4.816907405853271484e+00 7.233816623687744141e+00 -1.415081601589918137e-02 -4.856583774089813232e-01 -1.499427556991577148e-01 4.776837527751922607e-01
2.160000000000000000e+03 4.103316307067871094e+00 6.299987792968750000e+00 -5.093516409397125244e-02 -4.214417934417724609e-01 -1.417130976915359497e-01 4.222955703735351562e-01
2.161000000000000000e+03 7.195374965667724609e+00 5.499150276184082031e+00 -1.323035359382629395e-01 -4.173681735992431641e-01 -1.649015098810195923e-01 6.256454586982727051e-01
2.162000000000000000e+03 7.069944858551025391e+00 4.692872047424316406e+00 -2.268463820219039917e-01 -3.663049340248107910e-01 -1.779453903436660767e-01 6.202483773231506348e-01
2.163000000000000000e+03 7.591614246368408203e+00 4.888202667236328125e+00 -2.123264670372009277e-01 -3.980181515216827393e-01 -1.831033825874328613e-01 6.411193013191223145e-01
2.164000000000000000e+03 1.930350303649902344e+01 -1.065264892578125000e+01 5.472689628601074219e+00 -1.873460292816162109e+00 1.079768776893615723e+00 5.352854728698730469e+00
2.165000000000000000e+03 2.581036376953125000e+01 -1.006659126281738281e+01 4.123239040374755859e+00 3.991298973560333252e-01 1.356710672378540039e+00 -3.580062389373779297e-01
2.166000000000000000e+03 2.815569496154785156e+01 -1.127013683319091797e+01 1.080285191535949707e+00 5.291808247566223145e-01 4.828397929668426514e-01 -1.055046200752258301e+00
2.167000000000000000e+03 6.092679023742675781e+00 -6.425106525421142578e+00 -4.490588605403900146e-01 3.947958946228027344e-01 -1.627889648079872131e-02 -1.012598395347595215e+00
2.168000000000000000e+03 9.314885139465332031e+00 -5.203568935394287109e+00 -9.122716784477233887e-01 8.801567554473876953e-01 -9.634464979171752930e-03 -3.795525431632995605e-01
2.169000000000000000e+03 7.766714572906494141e+00 -7.008915424346923828e+00 -5.091513991355895996e-01 1.016942620277404785e+00 1.523373574018478394e-01 -8.090178370475769043e-01
2.170000000000000000e+03 5.904086112976074219e+00 -5.454997539520263672e+00 -5.406301021575927734e-01 2.650965452194213867e-01 -8.266007155179977417e-02 -9.310936927795410156e-01
2.171000000000000000e+03 5.301331996917724609e+00 -6.574163913726806641e+00 -3.785875439643859863e-01 1.284848004579544067e-01 -7.503082603216171265e-02 -1.072827458381652832e+00
2.172000000000000000e+03 2.282159233093261719e+01 -1.295459461212158203e+01 -5.479269504547119141e+00 1.847886592149734497e-01 -1.588344216346740723e+00 6.742312312126159668e-01
2.173000000000000000e+03 1.775761795043945312e+01 3.091480493545532227e+00 -1.428766548633575439e-01 1.655693799257278442e-01 6.807819008827209473e-03 2.203253507614135742e-01
2.174000000000000000e+03 2.110419464111328125e+01 -1.529477715492248535e+00 -8.566790223121643066e-01 1.364331364631652832e+00 1.522956937551498413e-01 2.445021867752075195e-01
2.175000000000000000e+03 2.011653709411621094e+01 -3.760333657264709473e-01 -6.816818714141845703e-01 8.129331469535827637e-01 3.937539458274841309e-02 2.050540596246719360e-01
2.176000000000000000e+03 1.746547317504882812e+01 2.389971256256103516e+00 -2.927256822586059570e-01 7.670427672564983368e-03 -8.551657944917678833e-02 2.892132997512817383e-01
2.177000000000000000e+03 8.165986061096191406e+00 -6.014549255371093750e+00 -6.855000257492065430e-01 8.957814574241638184e-01 6.308443099260330200e-02 -6.895167827606201172e-01
2.178000000000000000e+03 8.241631507873535156e+00 6.085915088653564453e+00 -5.385753512382507324e-02 -4.723038971424102783e-01 -1.578484326601028442e-01 6.518946290016174316e-01
2.179000000000000000e+03 1.983465385437011719e+01 1.168139219284057617e+00 -4.289598762989044189e-01 7.437057495117187500e-01 9.442375600337982178e-02 1.400693506002426147e-01
2.180000000000000000e+03 1.808881568908691406e+01 2.056191205978393555e+00 -3.392460942268371582e-01 1.683422178030014038e-01 -5.127116665244102478e-02 2.387537360191345215e-01
2.181000000000000000e+03 1.440084457397460938e+01 3.247786283493041992e+00 -3.113431036472320557e-01 -5.020559430122375488e-01 -2.440197020769119263e-01 5.384515523910522461e-01
2.182000000000000000e+03 2.096476364135742188e+01 -8.483276963233947754e-01 -7.342337965965270996e-01 1.276442527770996094e+00 1.626626253128051758e-01 1.993444561958312988e-01
2.183000000000000000e+03 1.915724182128906250e+01 1.773314833641052246e+00 -3.282020390033721924e-01 5.337465405464172363e-01 6.166335195302963257e-02 1.673301309347152710e-01
2.184000000000000000e+03 1.864460182189941406e+01 1.799549221992492676e+00 -3.614178895950317383e-01 3.156125545501708984e-01 -1.374160125851631165e-02 2.115845531225204468e-01
2.185000000000000000e+03 1.309088516235351562e+01 4.406637191772460938e+00 -1.281199753284454346e-01 -5.185514688491821289e-01 -1.940014362335205078e-01 5.807984471321105957e-01
2.186000000000000000e+03 1.670837020874023438e+01 -9.120902061462402344e+00 2.773241281509399414e+00 -8.436393737792968750e-01 5.788806080818176270e-01 2.329476356506347656e+00
2.187000000000000000e+03 1.719890403747558594e+01 -1.053838157653808594e+01 3.499636173248291016e+00 -6.584582328796386719e-01 8.523533940315246582e-01 3.875998735427856445e+00
2.188000000000000000e+03 1.612741088867187500e+01 3.209013938903808594e+00 -2.077567577362060547e-01 -2.379687726497650146e-01 -1.337176561355590820e-01 3.748805820941925049e-01
2.189000000000000000e+03 1.467095947265625000e+01 4.028397560119628906e+00 -1.248156651854515076e-01 -4.057264328002929688e-01 -1.591626256704330444e-01 4.787651300430297852e-01
2.190000000000000000e+03 1.046747303009033203e+01 -6.118498802185058594e+00 -7.640081048011779785e-01 1.141490340232849121e+00 1.132446601986885071e-01 -1.704239398241043091e-01
2.191000000000000000e+03 3.697386932373046875e+01 3.615712404251098633e+00 6.993282437324523926e-01 6.197764396667480469e+00 2.069127798080444336e+00 -2.938624322414398193e-01
2.192000000000000000e+03 3.177640533447265625e+01 -1.184908485412597656e+01 2.981493473052978516e-01 1.391552329063415527e+00 5.069105029106140137e-01 -1.402264833450317383e+00
2.193000000000000000e+03 2.981776428222656250e+01 -1.248094463348388672e+01 -1.232869699597358704e-01 8.330648541450500488e-01 2.129333764314651489e-01 -1.151686072349548340e+00
2.194000000000000000e+03 1.112048816680908203e+01 4.833684921264648438e+00 -1.330877691507339478e-01 -5.545220971107482910e-01 -2.062829732894897461e-01 6.688659191131591797e-01
2.195000000000000000e+03 3.291308593750000000e+01 -1.334481430053710938e+01 -1.923708170652389526e-01 1.445760369300842285e+00 3.760168552398681641e-01 -1.555346131324768066e+00
2.196000000000000000e+03 8.086627006530761719e+00 7.047440528869628906e+00 2.478370070457458496e-02 -4.832504093647003174e-01 -1.375400125980377197e-01 6.238814592361450195e-01
2.197000000000000000e+03 4.384820175170898438e+01 -5.627576828002929688e+00 -3.511693477630615234e-01 5.526810169219970703e+00 1.552692294120788574e+00 -1.438782930374145508e+00
2.198000000000000000e+03 7.070296478271484375e+01 -1.567407226562500000e+01 -1.763202548027038574e-01 4.705132007598876953e+00 1.358643531799316406e+00 -5.768117904663085938e-01
2.199000000000000000e+03 4.971599578857421875e+01 -2.765318870544433594e+01 2.040019035339355469e+00 5.990172863006591797e+00 2.409057617187500000e+00 -2.363779544830322266e+00
2.200000000000000000e+03 4.046347045898437500e+01 -1.017196550965309143e-01 1.265794187784194946e-01 6.147723197937011719e+00 1.882290840148925781e+00 -1.207909107208251953e+00
2.201000000000000000e+03 1.338697814941406250e+01 -1.074234676361083984e+01 1.874192833900451660e+00 2.403765201568603516e+00 1.283387422561645508e+00 1.865235447883605957e+00
2.202000000000000000e+03 1.203411102294921875e+01 -6.505652904510498047e+00 -5.862898230552673340e-01 1.096465706825256348e+00 1.530527621507644653e-01 3.097341060638427734e-01
2.203000000000000000e+03 1.640261268615722656e+01 -1.059729480743408203e+01 2.960080146789550781e+00 1.940510235726833344e-02 8.938455581665039062e-01 3.376045942306518555e+00
2.204000000000000000e+03 1.464412879943847656e+01 -1.027563858032226562e+01 1.940824389457702637e+00 1.385453462600708008e+00 9.978833794593811035e-01 2.362196207046508789e+00
2.205000000000000000e+03 1.309119319915771484e+01 5.307649612426757812e+00 3.260097652673721313e-02 -4.505502581596374512e-01 -1.253847777843475342e-01 5.345470905303955078e-01
2.206000000000000000e+03 1.203337574005126953e+01 6.263113021850585938e+00 9.852223843336105347e-02 -4.672223031520843506e-01 -1.106100231409072876e-01 5.639422535896301270e-01
2.207000000000000000e+03 6.256518554687500000e+01 -1.750317573547363281e+01 -4.395182430744171143e-01 1.758269548416137695e+00 3.956253826618194580e-01 1.747471570968627930e+00
2.208000000000000000e+03 6.522436523437500000e+01 -1.888142395019531250e+01 -4.489040374755859375e-01 1.202054381370544434e+00 2.259451001882553101e-01 1.345777034759521484e+00
2.209000000000000000e+03 3.301825714111328125e+01 -1.484004020690917969e+01 -5.797328948974609375e-01 9.506273269653320312e-01 1.112683340907096863e-01 -1.079558014869689941e+00
2.210000000000000000e+03 3.951102828979492188e+01 -1.100663185119628906e+01 -6.971487402915954590e-01 5.411352157592773438e+00 1.414261102676391602e+00 -2.290918350219726562e+00
2.211000000000000000e+03 4.289712905883789062e+01 -1.417925453186035156e+01 -1.085249900817871094e+00 7.424651145935058594e+00 1.901820302009582520e+00 -1.695457100868225098e+00
2.212000000000000000e+03 3.991967010498046875e+01 8.816097378730773926e-01 2.456509619951248169e-01 6.273119449615478516e+00 1.955631136894226074e+00 -1.043778419494628906e+00
2.213000000000000000e+03 4.092137145996093750e+01 -1.164270043373107910e+00 4.978870600461959839e-02 5.922609806060791016e+00 1.791719555854797363e+00 -1.319743394851684570e+00
2.214000000000000000e+03 4.202267837524414062e+01 -7.121438980102539062e-01 9.317267686128616333e-02 6.050719738006591797e+00 1.843167662620544434e+00 -1.522183418273925781e+00
2.215000000000000000e+03 4.131719207763671875e+01 -2.298954725265502930e+00 -5.845540016889572144e-02 5.781950473785400391e+00 1.717048525810241699e+00 -1.375456333160400391e+00
2.216000000000000000e+03 2.525874328613281250e+01 -1.072284889221191406e+01 3.451094150543212891e+00 3.505026400089263916e-01 1.140478968620300293e+00 -1.005754709243774414e+00
2.217000000000000000e+03 4.640971755981445312e+01 -2.173278236389160156e+01 2.587298393249511719e+00 7.325542449951171875e+00 2.973852157592773438e+00 -1.946747183799743652e+00
2.218000000000000000e+03 5.757595825195312500e+01 -2.183937263488769531e+01 1.012611508369445801e+00 1.247558355331420898e+00 6.780509352684020996e-01 1.348603367805480957e+00
2.219000000000000000e+03 6.709955596923828125e+01 -1.752894020080566406e+01 1.077577471733093262e-03 1.964392662048339844e+00 5.896410942077636719e-01 4.171541929244995117e-01
2.220000000000000000e+03 6.763286590576171875e+01 -1.463358783721923828e+01 5.428242087364196777e-01 3.334574222564697266e+00 1.163219571113586426e+00 4.462009668350219727e-01
2.221000000000000000e+03 7.610304260253906250e+01 -2.777555465698242188e+01 5.958000421524047852e-01 7.428727626800537109e+00 2.407358407974243164e+00 -2.077459245920181274e-01
2.222000000000000000e+03 9.760887145996093750e+00 2.918872070312500000e+01 2.336340956389904022e-02 1.037076562643051147e-01 3.812132030725479126e-02 -1.928949952125549316e-01
2.223000000000000000e+03 1.017829132080078125e+01 3.281471252441406250e+01 -4.474329203367233276e-02 2.353931665420532227e-01 5.719495937228202820e-02 -1.839117705821990967e-01
2.224000000000000000e+03 7.500820159912109375e+01 -1.745035934448242188e+01 -6.317266821861267090e-01 6.988725662231445312e+00 1.907099604606628418e+00 -2.806713283061981201e-01
2.225000000000000000e+03 7.470839691162109375e+01 1.620969200134277344e+01 2.006867714226245880e-02 8.383618354797363281e+00 2.521106004714965820e+00 5.815656185150146484e-01
2.226000000000000000e+03 7.471608734130859375e+01 1.762658119201660156e+01 4.939812049269676208e-02 8.406031608581542969e+00 2.536628723144531250e+00 5.828667879104614258e-01
2.227000000000000000e+03 7.510255432128906250e+01 1.088917922973632812e+01 -1.951605677604675293e-01 8.354966163635253906e+00 2.447941780090332031e+00 7.330085039138793945e-01
2.228000000000000000e+03 7.524501800537109375e+01 -5.111007213592529297e+00 8.162143081426620483e-02 7.160646438598632812e+00 2.172680377960205078e+00 -4.794602990150451660e-01
2.229000000000000000e+03 7.331906127929687500e+01 3.449970722198486328e+00 6.931155920028686523e-01 9.815308570861816406e+00 3.152527093887329102e+00 5.957650542259216309e-01
2.230000000000000000e+03 7.462564086914062500e+01 -3.976246595382690430e+00 2.020771801471710205e-01 7.571681976318359375e+00 2.332127571105957031e+00 -3.466966450214385986e-01
2.231000000000000000e+03 7.434273529052734375e+01 -8.789618015289306641e-01 5.334650874137878418e-01 8.233190536499023438e+00 2.629996538162231445e+00 -5.745398625731468201e-02
2.232000000000000000e+03 7.405953979492187500e+01 -1.107835102081298828e+01 -3.944147005677223206e-02 6.549573421478271484e+00 1.953039526939392090e+00 -5.182104706764221191e-01
2.233000000000000000e+03 7.431085968017578125e+01 -9.641334533691406250e+00 -1.315542962402105331e-02 6.748016834259033203e+00 2.020458459854125977e+00 -4.911897182464599609e-01
2.234000000000000000e+03 7.455648803710937500e+01 -8.273506164550781250e+00 4.785201512277126312e-03 6.901072025299072266e+00 2.071757078170776367e+00 -5.145938992500305176e-01
2.235000000000000000e+03 7.593787384033203125e+01 6.593596935272216797e+00 1.966059952974319458e-01 7.683721542358398438e+00 2.364098310470581055e+00 7.447698116302490234e-01
2.236000000000000000e+03 7.459043121337890625e+01 -1.577019882202148438e+01 -4.280764162540435791e-01 6.692735195159912109e+00 1.879397511482238770e+00 -4.970623850822448730e-01
2.237000000000000000e+03 7.019284820556640625e+01 -1.463218498229980469e+01 1.069572269916534424e-01 4.637443065643310547e+00 1.423320055007934570e+00 -2.769808471202850342e-01
2.238000000000000000e+03 7.585628509521484375e+01 2.071575164794921875e+01 8.752610534429550171e-02 8.374027252197265625e+00 2.538465976715087891e+00 6.186223030090332031e-01
2.239000000000000000e+03 8.075526237487792969e+00 1.900068855285644531e+01 2.140305787324905396e-01 -4.092293381690979004e-01 -5.855962634086608887e-02 8.251927793025970459e-02
2.240000000000000000e+03 6.921982574462890625e+01 -1.898968315124511719e+01 -6.471118927001953125e-01 2.455724477767944336e+00 5.425838232040405273e-01 -9.560632109642028809e-01
2.241000000000000000e+03 5.859553527832031250e+01 -1.948322868347167969e+01 -4.735429286956787109e-01 8.991308212280273438e-01 1.276763528585433960e-01 1.865562081336975098e+00
2.242000000000000000e+03 8.388015747070312500e+00 3.256929016113281250e+01 -1.695740595459938049e-02 -5.374290049076080322e-02 -2.121009305119514465e-02 -1.406565159559249878e-01
2.243000000000000000e+03 6.176995277404785156e+00 3.317960357666015625e+01 -1.784516312181949615e-02 -5.204539895057678223e-01 -1.614897549152374268e-01 -1.256310045719146729e-01
2.244000000000000000e+03 7.421817016601562500e+01 6.815783500671386719e+00 2.864886224269866943e-01 8.930361747741699219e+00 2.765054941177368164e+00 7.752416133880615234e-01
2.245000000000000000e+03 1.050826358795166016e+01 -1.207983207702636719e+01 1.634269952774047852e+00 3.472703933715820312e+00 1.532092213630676270e+00 8.974933028221130371e-01
2.246000000000000000e+03 6.808984375000000000e+01 -1.801669692993164062e+01 -1.676458865404129028e-01 2.023107528686523438e+00 5.566384792327880859e-01 -1.045200675725936890e-01
2.247000000000000000e+03 6.769154548645019531e+00 1.601324844360351562e+01 1.872741729021072388e-01 -6.001123189926147461e-01 -1.238514408469200134e-01 2.279399931430816650e-01
2.248000000000000000e+03 5.334093570709228516e+00 1.477983093261718750e+01 1.401065289974212646e-01 -7.477673292160034180e-01 -1.822982430458068848e-01 2.625785768032073975e-01
2.249000000000000000e+03 6.479684352874755859e+00 1.462324333190917969e+01 1.896339952945709229e-01 -6.236459612846374512e-01 -1.302035748958587646e-01 2.822045385837554932e-01
2.250000000000000000e+03 4.084474563598632812e+00 -2.146737480163574219e+01 9.882138371467590332e-01 8.442813158035278320e-01 5.497485399246215820e-01 1.746621608734130859e+00
2.251000000000000000e+03 5.836957931518554688e+00 -8.738228797912597656e+00 -1.762643605470657349e-01 5.002916455268859863e-01 9.720818698406219482e-02 -1.163405299186706543e+00
2.252000000000000000e+03 4.873997211456298828e+00 -8.987301826477050781e+00 -9.666635096073150635e-02 2.504817396402359009e-02 -2.148545160889625549e-02 -1.214901208877563477e+00
2.253000000000000000e+03 6.307229518890380859e+00 1.339508533477783203e+01 1.764839291572570801e-01 -6.359665393829345703e-01 -1.378447711467742920e-01 3.434541821479797363e-01
2.254000000000000000e+03 5.128959178924560547e+00 1.218134593963623047e+01 1.194799989461898804e-01 -7.065936923027038574e-01 -1.761341094970703125e-01 3.661396205425262451e-01
2.255000000000000000e+03 6.853935718536376953e+00 1.896170997619628906e+01 1.641370803117752075e-01 -5.774317383766174316e-01 -1.239884048700332642e-01 9.642633050680160522e-02
2.256000000000000000e+03 5.630882263183593750e+00 1.898206710815429688e+01 1.188862025737762451e-01 -7.481185197830200195e-01 -1.887696981430053711e-01 9.956701844930648804e-02
2.257000000000000000e+03 3.490573883056640625e+00 -5.668806552886962891e+00 -2.354707270860671997e-01 -4.325595200061798096e-01 -2.004090696573257446e-01 -9.007521271705627441e-01
2.258000000000000000e+03 3.999886703491210938e+01 -1.464614772796630859e+01 -6.205462813377380371e-01 6.252554893493652344e+00 1.689602494239807129e+00 -2.862292051315307617e+00
2.259000000000000000e+03 4.136779403686523438e+01 -1.284345054626464844e+01 -1.051465392112731934e+00 6.502066612243652344e+00 1.635180354118347168e+00 -2.155395746231079102e+00
2.260000000000000000e+03 3.553986358642578125e+01 1.826803016662597656e+01 1.080842971801757812e+00 6.083766937255859375e+00 2.149383068084716797e+00 -4.576493203639984131e-01
2.261000000000000000e+03 8.212189674377441406e+00 2.918464851379394531e+01 3.016412444412708282e-02 -1.572373658418655396e-01 -3.812197595834732056e-02 -1.495228260755538940e-01
2.262000000000000000e+03 7.009478092193603516e+00 2.728354072570800781e+01 4.438522085547447205e-02 -4.115148186683654785e-01 -1.101388856768608093e-01 -1.130865514278411865e-01
2.263000000000000000e+03 7.741360664367675781e+00 6.636365890502929688e+00 -4.173967055976390839e-03 -4.746353924274444580e-01 -1.436428129673004150e-01 6.267409324645996094e-01
2.264000000000000000e+03 5.561880111694335938e+00 6.454040050506591797e+00 -5.383721739053726196e-02 -4.335483908653259277e-01 -1.462156772613525391e-01 5.252817869186401367e-01
2.265000000000000000e+03 6.489768981933593750e+00 8.570528984069824219e+00 8.278224617242813110e-02 -5.317137241363525391e-01 -1.346794366836547852e-01 5.425171852111816406e-01
2.266000000000000000e+03 4.797529602050781250e+01 -2.019406890869140625e+01 1.426856517791748047e+00 6.079971790313720703e+00 2.252048492431640625e+00 -1.399393677711486816e+00
2.267000000000000000e+03 6.214778423309326172e+00 1.220271205902099609e+01 1.701652854681015015e-01 -6.246954202651977539e-01 -1.363590359687805176e-01 3.910722434520721436e-01
2.268000000000000000e+03 6.077969551086425781e+00 -1.263424587249755859e+01 5.918479561805725098e-01 1.285262107849121094e+00 5.631330609321594238e-01 -8.070687055587768555e-01
2.269000000000000000e+03 8.106405258178710938e+00 -1.192510318756103516e+01 7.963169217109680176e-01 2.529599666595458984e+00 9.977749586105346680e-01 -3.088993132114410400e-01
2.270000000000000000e+03 3.765058517456054688e+01 -1.279757595062255859e+01 -2.766315639019012451e-01 4.268859863281250000e+00 1.197668433189392090e+00 -2.633445739746093750e+00
2.271000000000000000e+03 7.475199699401855469e+00 8.844511985778808594e+00 1.235090941190719604e-01 -5.156533718109130859e-01 -1.176432892680168152e-01 5.459296703338623047e-01
2.272000000000000000e+03 5.539955615997314453e+00 -1.351833724975585938e+01 7.502247691154479980e-01 9.520277976989746094e-01 5.106757879257202148e-01 -7.101460099220275879e-01
2.273000000000000000e+03 4.653619384765625000e+01 -1.272992610931396484e+01 -1.254780530929565430e+00 6.048043727874755859e+00 1.437978982925415039e+00 -4.815304279327392578e-01
2.274000000000000000e+03 4.428743362426757812e+01 -1.049857330322265625e+01 -1.096849083900451660e+00 6.117036342620849609e+00 1.506056189537048340e+00 -1.164154171943664551e+00
2.275000000000000000e+03 3.719810485839843750e+01 9.173485755920410156e+00 1.677797436714172363e+00 7.037266254425048828e+00 2.614519119262695312e+00 -3.453986346721649170e-01
2.276000000000000000e+03 4.656838607788085938e+01 -3.088225173950195312e+01 4.294780194759368896e-01 7.171486377716064453e+00 2.280289411544799805e+00 -1.750450372695922852e+00
2.277000000000000000e+03 3.774884796142578125e+01 3.117543697357177734e+00 6.137954592704772949e-01 6.307532310485839844e+00 2.076398372650146484e+00 -4.724745452404022217e-01
2.278000000000000000e+03 3.927083206176757812e+01 1.756375551223754883e+00 3.656512498855590820e-01 6.371193885803222656e+00 2.021053552627563477e+00 -8.687139749526977539e-01
2.279000000000000000e+03 3.793050384521484375e+01 6.623645305633544922e+00 1.234550237655639648e+00 7.021739959716796875e+00 2.476887226104736328e+00 -3.702647387981414795e-01
2.280000000000000000e+03 4.579571914672851562e+01 -1.660657119750976562e+01 -4.393172860145568848e-01 7.403038978576660156e+00 2.089116573333740234e+00 -8.600844740867614746e-01
2.281000000000000000e+03 4.493672561645507812e+01 -1.630549812316894531e+01 -5.125219821929931641e-01 7.698737621307373047e+00 2.155864715576171875e+00 -1.167961716651916504e+00
2.282000000000000000e+03 4.343358993530273438e+01 -1.647783470153808594e+01 -2.967356443405151367e-01 8.648344039916992188e+00 2.505482673645019531e+00 -1.746523141860961914e+00
2.283000000000000000e+03 7.127059173583984375e+01 -1.309676074981689453e+01 8.708712458610534668e-02 5.417289733886718750e+00 1.651313066482543945e+00 -2.611858546733856201e-01
2.284000000000000000e+03 3.503017807006835938e+01 1.193807506561279297e+01 1.635352015495300293e+00 5.961547374725341797e+00 2.279069900512695312e+00 -3.722015619277954102e-01
2.285000000000000000e+03 7.176664733886718750e+01 -9.015849113464355469e+00 1.482678949832916260e-01 6.644042015075683594e+00 2.037693023681640625e+00 1.082035750150680542e-01
2.286000000000000000e+03 4.685006713867187500e+01 -1.661754608154296875e+01 -5.858550667762756348e-01 6.847609043121337891e+00 1.878526210784912109e+00 -6.225330829620361328e-01
2.287000000000000000e+03 7.072021484375000000e+01 -1.153917789459228516e+01 2.349016219377517700e-01 5.643607616424560547e+00 1.763552784919738770e+00 1.079044789075851440e-01
2.288000000000000000e+03 4.976404953002929688e+01 -2.995108604431152344e+01 1.505502700805664062e+00 6.214711189270019531e+00 2.316064119338989258e+00 -1.975870609283447266e+00
2.289000000000000000e+03 1.123115539550781250e+01 -1.005827331542968750e+01 7.788306474685668945e-01 2.502234458923339844e+00 9.843195080757141113e-01 5.700517296791076660e-01
2.290000000000000000e+03 9.856107711791992188e+00 -1.111984348297119141e+01 9.074398875236511230e-01 2.873424053192138672e+00 1.134259104728698730e+00 1.971987634897232056e-01
2.291000000000000000e+03 5.232815170288085938e+01 -2.326925086975097656e+01 1.677682995796203613e+00 3.644374847412109375e+00 1.596617341041564941e+00 -1.177371859550476074e+00
2.292000000000000000e+03 3.756294250488281250e+01 2.148075294494628906e+01 6.580073833465576172e-01 6.342627048492431641e+00 2.100190401077270508e+00 -9.486126899719238281e-02
2.293000000000000000e+03 3.571066665649414062e+01 1.997527313232421875e+01 8.680155277252197266e-01 5.932548522949218750e+00 2.040169239044189453e+00 -4.160665869712829590e-01
2.294000000000000000e+03 3.566616439819335938e+01 -1.345013332366943359e+01 -2.534913644194602966e-02 2.729609251022338867e+00 8.112780451774597168e-01 -2.375076532363891602e+00
2.295000000000000000e+03 3.519535446166992188e+01 -1.238137626647949219e+01 5.045554786920547485e-02 2.707751750946044922e+00 8.274621963500976562e-01 -2.097138166427612305e+00
2.296000000000000000e+03 7.017316436767578125e+01 -1.274659347534179688e+01 2.670750617980957031e-01 5.080600738525390625e+00 1.604302763938903809e+00 4.381315782666206360e-02
2.297000000000000000e+03 7.207057189941406250e+01 -1.359008979797363281e+01 -7.148489356040954590e-02 5.758600234985351562e+00 1.706134557723999023e+00 -4.515560567378997803e-01
2.298000000000000000e+03 3.832361221313476562e+01 2.491693687438964844e+01 2.057654410600662231e-01 5.820660114288330078e+00 1.807927727699279785e+00 1.062283478677272797e-02
2.299000000000000000e+03 4.418957519531250000e+01 -8.675568580627441406e+00 -8.097097873687744141e-01 5.766208648681640625e+00 1.486949563026428223e+00 -1.235122919082641602e+00
2.300000000000000000e+03 7.121223449707031250e+01 -1.410750579833984375e+01 -9.494298137724399567e-03 5.227441310882568359e+00 1.565384149551391602e+00 -3.630512058734893799e-01
2.301000000000000000e+03 7.186750793457031250e+01 -3.865320968627929688e+01 -5.343308299779891968e-02 4.869070529937744141e+00 1.444691181182861328e+00 3.562277853488922119e-01
2.302000000000000000e+03 4.120997619628906250e+01 2.753353881835937500e+01 -5.592164769768714905e-02 5.439541816711425781e+00 1.615086078643798828e+00 4.899288713932037354e-01
2.303000000000000000e+03 5.284884643554687500e+01 -2.136710548400878906e+01 1.130475401878356934e+00 2.674125194549560547e+00 1.141380190849304199e+00 -8.099989295005798340e-01
2.304000000000000000e+03 1.654929351806640625e+01 -4.090896224975585938e+01 -6.150160431861877441e-01 -4.369954168796539307e-01 -3.156034350395202637e-01 1.297241002321243286e-01
2.305000000000000000e+03 3.622016143798828125e+01 2.353001403808593750e+01 3.830941617488861084e-01 5.612880229949951172e+00 1.798792243003845215e+00 -3.323588967323303223e-01
2.306000000000000000e+03 3.951513671875000000e+01 2.281486511230468750e+01 5.217428207397460938e-01 6.560435295104980469e+00 2.124653339385986328e+00 3.786359727382659912e-01
2.307000000000000000e+03 3.241288757324218750e+01 -4.147779083251953125e+01 -9.269889593124389648e-01 -1.911668479442596436e-02 -2.838316857814788818e-01 -5.367916077375411987e-02
2.308000000000000000e+03 4.064951705932617188e+01 3.325400543212890625e+01 -8.810904026031494141e-01 4.577009677886962891e+00 1.108775734901428223e+00 1.415409296751022339e-01
2.309000000000000000e+03 4.416378402709960938e+01 -3.587336349487304688e+01 -1.703656911849975586e+00 5.743846416473388672e+00 1.212056875228881836e+00 1.252869367599487305e-01
2.310000000000000000e+03 4.639363479614257812e+01 -3.721538162231445312e+01 -1.709283709526062012e+00 6.144222736358642578e+00 1.330481767654418945e+00 -1.255412548780441284e-01
2.311000000000000000e+03 3.932426834106445312e+01 -1.338450527191162109e+01 -5.618487596511840820e-01 5.513442993164062500e+00 1.485478401184082031e+00 -2.720666646957397461e+00
2.312000000000000000e+03 5.419242858886718750e+01 -2.044479370117187500e+01 5.836095213890075684e-01 1.468950152397155762e+00 6.157678961753845215e-01 -1.351323872804641724e-01
2.313000000000000000e+03 6.975139617919921875e+00 -3.230775070190429688e+01 -1.336033344268798828e+00 2.250121593475341797e+00 2.742264568805694580e-01 7.953570485115051270e-01
2.314000000000000000e+03 6.568334579467773438e+00 -3.449578094482421875e+01 -7.877207398414611816e-01 2.224405050277709961e+00 4.310052692890167236e-01 5.361340045928955078e-01
2.315000000000000000e+03 2.275787162780761719e+01 -6.305860996246337891e+00 -5.261250138282775879e-01 5.146091938018798828e+00 1.385990142822265625e+00 2.059560537338256836e+00
2.316000000000000000e+03 2.326108360290527344e+01 -7.166153430938720703e+00 1.451737403869628906e+00 5.957455158233642578e+00 2.222757816314697266e+00 4.084912300109863281e+00
2.317000000000000000e+03 1.858610916137695312e+01 -9.422991752624511719e+00 5.453094959259033203e+00 -2.500819921493530273e+00 8.856825828552246094e-01 2.782684564590454102e+00
2.318000000000000000e+03 2.230604934692382812e+01 -4.299379825592041016e+00 -1.049783945083618164e+00 2.888098001480102539e+00 5.514942407608032227e-01 6.905706524848937988e-01
2.319000000000000000e+03 1.812028884887695312e+01 -9.177021026611328125e+00 4.402627944946289062e+00 -1.981734991073608398e+00 7.262679338455200195e-01 2.524533748626708984e+00
2.320000000000000000e+03 2.567855072021484375e+01 -8.598587989807128906e+00 4.766835689544677734e+00 9.151440858840942383e-01 1.704593896865844727e+00 1.630642294883728027e+00
2.321000000000000000e+03 2.556089019775390625e+01 -8.314311981201171875e+00 4.745599746704101562e+00 1.246132254600524902e+00 1.797519683837890625e+00 2.054601907730102539e+00
2.322000000000000000e+03 1.552104949951171875e+01 -1.049100589752197266e+01 2.448629856109619141e+00 7.732993960380554199e-01 9.665787816047668457e-01 2.943231344223022461e+00
2.323000000000000000e+03 2.183232307434082031e+01 -4.407189846038818359e+00 -1.126751065254211426e+00 2.296051025390625000e+00 3.507899343967437744e-01 5.003209114074707031e-01
2.324000000000000000e+03 2.169300079345703125e+01 -2.897394657135009766e+00 -1.012611985206604004e+00 1.895305275917053223e+00 2.648079991340637207e-01 3.641424477100372314e-01
2.325000000000000000e+03 2.183512115478515625e+01 -3.328759193420410156e+00 -1.043950676918029785e+00 2.109954118728637695e+00 3.198010325431823730e-01 4.307442903518676758e-01
2.326000000000000000e+03 9.910423278808593750e+00 -6.013761997222900391e+00 -7.637407183647155762e-01 1.102058053016662598e+00 1.014951840043067932e-01 -2.760763168334960938e-01
2.327000000000000000e+03 8.762306213378906250e+00 -5.941039562225341797e+00 -7.343430519104003906e-01 9.719400405883789062e-01 7.127910107374191284e-02 -5.491720438003540039e-01
2.328000000000000000e+03 1.393771839141845703e+01 -7.628560543060302734e+00 3.037109076976776123e-01 7.542878389358520508e-01 3.173996210098266602e-01 1.054682493209838867e+00
2.329000000000000000e+03 1.493286705017089844e+01 -9.380295753479003906e+00 1.696305871009826660e+00 7.279928922653198242e-01 7.272896170616149902e-01 2.092986822128295898e+00
2.330000000000000000e+03 2.209397315979003906e+01 -2.658179283142089844e+00 -9.584949016571044922e-01 2.163283824920654297e+00 3.614366948604583740e-01 4.226370453834533691e-01
2.331000000000000000e+03 1.267325210571289062e+01 -7.782292842864990234e+00 4.898787289857864380e-02 1.369889378547668457e+00 4.256631731986999512e-01 6.548002362251281738e-01
2.332000000000000000e+03 1.244946765899658203e+01 -6.770684242248535156e+00 -4.333393871784210205e-01 1.130219936370849609e+00 2.090641558170318604e-01 4.579864740371704102e-01
2.333000000000000000e+03 1.829600715637207031e+01 -8.561959266662597656e+00 3.898971796035766602e+00 -2.057268619537353516e+00 5.525109767913818359e-01 1.481349349021911621e+00
2.334000000000000000e+03 1.694582748413085938e+01 -8.337159156799316406e+00 2.261754751205444336e+00 -1.021873235702514648e+00 3.719644248485565186e-01 1.711617350578308105e+00
2.335000000000000000e+03 6.169412136077880859e+00 5.741547107696533203e+00 -1.098185479640960693e-01 -3.988755047321319580e-01 -1.526082158088684082e-01 5.726330876350402832e-01
2.336000000000000000e+03 8.891809463500976562e+00 -6.671290397644042969e+00 -5.951103568077087402e-01 1.171209216117858887e+00 1.728296726942062378e-01 -5.935666561126708984e-01
2.337000000000000000e+03 1.203605079650878906e+01 -7.051292896270751953e+00 -3.481320440769195557e-01 1.272045612335205078e+00 2.771740853786468506e-01 3.522339463233947754e-01
2.338000000000000000e+03 1.381269645690917969e+01 -9.926204681396484375e+00 1.501011848449707031e+00 1.721203684806823730e+00 9.666646122932434082e-01 1.850408434867858887e+00
2.339000000000000000e+03 6.710497379302978516e+00 5.189335346221923828e+00 -1.686904430389404297e-01 -3.778081834316253662e-01 -1.639495790004730225e-01 5.906054377555847168e-01
2.340000000000000000e+03 2.690806770324707031e+01 -1.160268020629882812e+01 9.364876747131347656e-01 4.388539195060729980e-01 4.126024842262268066e-01 -1.274399161338806152e+00
2.341000000000000000e+03 2.157136344909667969e+01 -2.126009941101074219e+00 -9.282120466232299805e-01 1.692248463630676270e+00 2.292108982801437378e-01 3.034681379795074463e-01
2.342000000000000000e+03 1.993885421752929688e+01 3.829907476902008057e-01 -5.690832138061523438e-01 7.609165310859680176e-01 5.755000188946723938e-02 1.739674955606460571e-01
2.343000000000000000e+03 9.290685653686523438e+00 5.858739852905273438e+00 -5.204769596457481384e-02 -4.957311153411865234e-01 -1.643336415290832520e-01 6.700190305709838867e-01
2.344000000000000000e+03 5.852563858032226562e+00 9.363527297973632812e+00 8.924622088670730591e-02 -5.784004330635070801e-01 -1.467462629079818726e-01 4.881804883480072021e-01
2.345000000000000000e+03 6.335640907287597656e+00 -7.412806034088134766e+00 -3.615709543228149414e-01 5.704466104507446289e-01 6.266270577907562256e-02 -1.066596746444702148e+00
2.346000000000000000e+03 6.836690425872802734e+00 -6.266840934753417969e+00 -5.540867447853088379e-01 6.131129860877990723e-01 1.770786382257938385e-02 -9.261029958724975586e-01
2.347000000000000000e+03 8.036062240600585938e+00 -7.910628318786621094e+00 -2.953275442123413086e-01 1.280650258064270020e+00 2.955968081951141357e-01 -7.493936419486999512e-01
2.348000000000000000e+03 9.342547416687011719e+00 -5.943714141845703125e+00 -7.706694006919860840e-01 1.058803081512451172e+00 8.644011616706848145e-02 -4.342832565307617188e-01
2.349000000000000000e+03 1.753252410888671875e+01 4.196163177490234375e+00 3.783028572797775269e-02 1.946138143539428711e-01 6.973323225975036621e-02 2.008044868707656860e-01
2.350000000000000000e+03 2.665380477905273438e+01 -9.644808769226074219e+00 3.529144048690795898e+00 4.362747073173522949e-01 1.189625620841979980e+00 -4.819471761584281921e-02
2.351000000000000000e+03 2.553227233886718750e+01 -9.248154640197753906e+00 5.061129570007324219e+00 5.903729200363159180e-01 1.695450782775878906e+00 8.292379379272460938e-01
2.352000000000000000e+03 1.839348602294921875e+01 2.771704673767089844e+00 -1.727055311203002930e-01 3.445754945278167725e-01 5.156099051237106323e-02 1.818524897098541260e-01
2.353000000000000000e+03 1.713098144531250000e+01 3.504630565643310547e+00 -1.002860292792320251e-01 2.366797067224979401e-02 -2.298541739583015442e-02 2.626853585243225098e-01
2.354000000000000000e+03 1.541609954833984375e+01 3.633235931396484375e+00 -1.643508374691009521e-01 -3.168827593326568604e-01 -1.443700790405273438e-01 4.227225482463836670e-01
2.355000000000000000e+03 1.579076385498046875e+01 -8.640636444091796875e+00 1.754189729690551758e+00 -7.620833069086074829e-02 5.033944249153137207e-01 1.872936367988586426e+00
2.356000000000000000e+03 2.050376701354980469e+01 1.402769565582275391e+00 -3.637661039829254150e-01 1.051703572273254395e+00 2.063812315464019775e-01 1.092840358614921570e-01
2.357000000000000000e+03 3.801802444458007812e+01 -1.136814403533935547e+01 -3.646973967552185059e-01 4.526170730590820312e+00 1.248441934585571289e+00 -2.348905563354492188e+00
2.358000000000000000e+03 1.429321098327636719e+01 -8.423233032226562500e+00 8.818101882934570312e-01 8.266874551773071289e-01 5.125492811203002930e-01 1.430589079856872559e+00
2.359000000000000000e+03 1.577467346191406250e+01 4.410719871520996094e+00 9.835280478000640869e-03 -1.842269748449325562e-01 -5.231750756502151489e-02 3.495707213878631592e-01
2.360000000000000000e+03 7.302135467529296875e+00 1.386337375640869141e+01 2.218232303857803345e-01 -5.443827509880065918e-01 -9.676785767078399658e-02 3.237420320510864258e-01
2.361000000000000000e+03 8.078838348388671875e+00 1.757722091674804688e+01 2.350354641675949097e-01 -4.308082461357116699e-01 -5.873183906078338623e-02 1.401896327733993530e-01
2.362000000000000000e+03 1.499197196960449219e+01 4.911866188049316406e+00 6.237582489848136902e-02 -2.671301662921905518e-01 -6.142630055546760559e-02 3.996535539627075195e-01
2.363000000000000000e+03 1.389923095703125000e+01 4.311632156372070312e+00 -1.032110974192619324e-01 -4.629423022270202637e-01 -1.698460131883621216e-01 5.215395689010620117e-01
2.364000000000000000e+03 2.642601585388183594e+01 -1.111917114257812500e+01 1.931653857231140137e+00 4.269398450851440430e-01 7.075781226158142090e-01 -1.269554018974304199e+00
2.365000000000000000e+03 2.638278198242187500e+01 -1.062209701538085938e+01 2.993616580963134766e+00 3.487738668918609619e-01 1.002717137336730957e+00 -8.181484341621398926e-01
2.366000000000000000e+03 1.255143928527832031e+01 -1.014927196502685547e+01 1.234425902366638184e+00 2.334225893020629883e+00 1.070595502853393555e+00 1.298264145851135254e+00
2.367000000000000000e+03 1.054352092742919922e+01 5.710167884826660156e+00 -3.094736672937870026e-02 -5.183410048484802246e-01 -1.647865176200866699e-01 6.546401381492614746e-01
2.368000000000000000e+03 7.819510936737060547e+00 7.968698501586914062e+00 9.388024359941482544e-02 -5.002785325050354004e-01 -1.219194903969764709e-01 5.895790457725524902e-01
2.369000000000000000e+03 4.201047515869140625e+01 -4.873061656951904297e+00 -3.176409006118774414e-01 5.567282199859619141e+00 1.574892401695251465e+00 -1.459476709365844727e+00
2.370000000000000000e+03 4.166951370239257812e+01 -3.522829771041870117e+00 -1.616108566522598267e-01 5.625196933746337891e+00 1.639075756072998047e+00 -1.440854668617248535e+00
2.371000000000000000e+03 4.261784744262695312e+01 -6.232537269592285156e+00 -4.723699092864990234e-01 5.572298049926757812e+00 1.529978513717651367e+00 -1.464885592460632324e+00
2.372000000000000000e+03 6.470469665527343750e+01 -1.822154426574707031e+01 -2.848277986049652100e-01 1.565900444984436035e+00 3.843217790126800537e-01 1.462939381599426270e+00
2.373000000000000000e+03 6.623513031005859375e+01 -1.675265884399414062e+01 1.932461410760879517e-01 2.183696031570434570e+00 7.130826711654663086e-01 8.123015165328979492e-01
2.374000000000000000e+03 4.523674011230468750e+01 -1.277319431304931641e+01 -1.260733127593994141e+00 6.553374290466308594e+00 1.587792396545410156e+00 -8.228029608726501465e-01
2.375000000000000000e+03 1.343496990203857422e+01 -8.827724456787109375e+00 7.692730426788330078e-01 1.457581043243408203e+00 6.680561900138854980e-01 1.293749690055847168e+00
2.376000000000000000e+03 4.017480468750000000e+01 -2.627124071121215820e+00 -5.121391266584396362e-02 5.628834724426269531e+00 1.673286318778991699e+00 -1.231964468955993652e+00
2.377000000000000000e+03 2.844102859497070312e+01 -1.056872463226318359e+01 1.674555182456970215e+00 6.068782806396484375e-01 6.844300627708435059e-01 -8.130280375480651855e-01
2.378000000000000000e+03 2.872231292724609375e+01 -1.227498245239257812e+01 -1.169981285929679871e-01 6.776043772697448730e-01 1.681818813085556030e-01 -1.125463962554931641e+00
2.379000000000000000e+03 3.898886871337890625e+01 2.987040877342224121e-01 2.250149995088577271e-01 5.990191936492919922e+00 1.864562034606933594e+00 -8.695930838584899902e-01
2.380000000000000000e+03 7.095146942138671875e+01 -1.838658714294433594e+01 -8.887308835983276367e-01 4.659744262695312500e+00 1.131304025650024414e+00 -1.154847383499145508e+00
2.381000000000000000e+03 9.810447692871093750e+00 6.419333457946777344e+00 3.375210985541343689e-02 -4.936892688274383545e-01 -1.379811465740203857e-01 6.436324119567871094e-01
2.382000000000000000e+03 6.698053359985351562e+00 -1.109347629547119141e+01 3.556774854660034180e-01 1.459212899208068848e+00 5.444671511650085449e-01 -8.837981820106506348e-01
2.383000000000000000e+03 9.578581809997558594e+00 -1.258199405670166016e+01 1.524163961410522461e+00 3.515819072723388672e+00 1.511994957923889160e+00 5.400505065917968750e-01
2.384000000000000000e+03 5.051427459716796875e+01 -2.285430717468261719e+01 1.882494688034057617e+00 4.514091968536376953e+00 1.918975949287414551e+00 -1.731860280036926270e+00
2.385000000000000000e+03 7.245655536651611328e+00 2.301558685302734375e+01 1.176519244909286499e-01 -4.452624022960662842e-01 -9.828314185142517090e-02 -4.388597607612609863e-02
2.386000000000000000e+03 8.777338981628417969e+00 2.465826225280761719e+01 1.325719058513641357e-01 -1.890846341848373413e-01 -1.695381663739681244e-02 -1.142741963267326355e-01
2.387000000000000000e+03 7.400386047363281250e+01 -1.251680088043212891e+01 -1.171769276261329651e-01 6.445278644561767578e+00 1.898430466651916504e+00 -5.489050745964050293e-01
2.388000000000000000e+03 7.359764862060546875e+01 -1.362034893035888672e+01 -1.749914884567260742e-01 6.295483589172363281e+00 1.836147665977478027e+00 -5.768344402313232422e-01
2.389000000000000000e+03 7.429813385009765625e+01 -1.678206253051757812e+01 -6.247552633285522461e-01 6.713725090026855469e+00 1.826690912246704102e+00 -4.585205316543579102e-01
2.390000000000000000e+03 6.272512912750244141e+00 -9.891915321350097656e+00 6.445188820362091064e-02 9.467691779136657715e-01 3.033663034439086914e-01 -1.071800827980041504e+00
2.391000000000000000e+03 3.853213882446289062e+01 2.499256134033203125e+00 4.843524694442749023e-01 6.376785278320312500e+00 2.058341264724731445e+00 -6.579644083976745605e-01
2.392000000000000000e+03 4.677079772949218750e+01 -1.417788887023925781e+01 -1.229116916656494141e+00 6.276643753051757812e+00 1.514258027076721191e+00 -4.921996295452117920e-01
2.393000000000000000e+03 4.499365615844726562e+01 -1.152353763580322266e+01 -1.186941623687744141e+00 6.287270069122314453e+00 1.530098557472229004e+00 -9.064075946807861328e-01
2.394000000000000000e+03 3.983331680297851562e+01 -1.564965248107910156e+00 3.376359865069389343e-02 5.785601139068603516e+00 1.745809435844421387e+00 -1.119554519653320312e+00
2.395000000000000000e+03 4.484513473510742188e+01 -1.487120437622070312e+01 -1.025566339492797852e+00 7.370806217193603516e+00 1.903571963310241699e+00 -1.021101236343383789e+00
2.396000000000000000e+03 1.002579689025878906e+01 -8.408329010009765625e+00 -9.880413860082626343e-02 1.778499364852905273e+00 5.039085745811462402e-01 -2.083770036697387695e-01
2.397000000000000000e+03 7.025145721435546875e+01 -1.739222717285156250e+01 -4.664204716682434082e-01 4.017890930175781250e+00 1.065441012382507324e+00 -8.621689677238464355e-01
2.398000000000000000e+03 6.871589660644531250e+01 -1.433788967132568359e+01 4.084030985832214355e-01 3.976302146911621094e+00 1.315411567687988281e+00 1.997600346803665161e-01
2.399000000000000000e+03 7.408932685852050781e+00 7.545558929443359375e+00 5.110898241400718689e-02 -4.924283921718597412e-01 -1.323958337306976318e-01 5.885761380195617676e-01
2.400000000000000000e+03 4.748144531250000000e+01 -2.370297050476074219e+01 2.533581495285034180e+00 6.987198829650878906e+00 2.856234073638916016e+00 -2.265140056610107422e+00
2.401000000000000000e+03 5.113020706176757812e+01 -2.693058967590332031e+01 2.072016239166259766e+00 5.421805858612060547e+00 2.248146533966064453e+00 -2.009767770767211914e+00
2.402000000000000000e+03 4.887083435058593750e+01 -1.942047882080078125e+01 6.091912984848022461e-01 5.122471332550048828e+00 1.719498753547668457e+00 -1.164989590644836426e+00
2.403000000000000000e+03 8.448122978210449219e+00 7.551187515258789062e+00 8.365698903799057007e-02 -4.893127381801605225e-01 -1.216967254877090454e-01 6.058256626129150391e-01
2.404000000000000000e+03 6.177492618560791016e+00 1.109433555603027344e+01 1.348302960395812988e-01 -6.063176989555358887e-01 -1.414462178945541382e-01 4.434036314487457275e-01
2.405000000000000000e+03 1.174947834014892578e+01 3.037902069091796875e+01 -7.964692777022719383e-04 4.705779552459716797e-01 1.409344375133514404e-01 -2.429002672433853149e-01
2.406000000000000000e+03 5.085889816284179688e+01 -2.115990447998046875e+01 1.259275913238525391e+00 3.913226842880249023e+00 1.551750779151916504e+00 -1.314458727836608887e+00
2.407000000000000000e+03 4.253179168701171875e+01 -8.194837570190429688e+00 -7.388113737106323242e-01 5.726576805114746094e+00 1.496329665184020996e+00 -1.491118907928466797e+00
2.408000000000000000e+03 4.343280029296875000e+01 -7.494886398315429688e+00 -6.537120938301086426e-01 5.672592639923095703e+00 1.505664110183715820e+00 -1.386952638626098633e+00
2.409000000000000000e+03 7.096326351165771484e+00 1.168128490447998047e+01 1.944822669029235840e-01 -5.546743273735046387e-01 -1.080576255917549133e-01 4.305119216442108154e-01
2.410000000000000000e+03 3.391297531127929688e+01 1.837985420227050781e+01 1.086098194122314453e+00 5.384374141693115234e+00 1.941141724586486816e+00 -5.822773575782775879e-01
2.411000000000000000e+03 3.541991806030273438e+01 1.662324714660644531e+01 1.290626049041748047e+00 6.134626388549804688e+00 2.227575778961181641e+00 -4.958382844924926758e-01
2.412000000000000000e+03 7.174414062500000000e+01 -1.928244400024414062e+01 -1.357951641082763672e+00 5.938354492187500000e+00 1.374120831489562988e+00 -1.147909402847290039e+00
2.413000000000000000e+03 3.775537109375000000e+01 7.862024307250976562e+00 1.524525046348571777e+00 7.190088748931884766e+00 2.614384174346923828e+00 -3.839256763458251953e-01
2.414000000000000000e+03 3.738745498657226562e+01 4.488356590270996094e+00 8.542932868003845215e-01 6.492617607116699219e+00 2.204073429107666016e+00 -3.387354910373687744e-01
2.415000000000000000e+03 4.820385742187500000e+01 -2.815691566467285156e+01 1.758346199989318848e+00 6.722817897796630859e+00 2.544349193572998047e+00 -2.315667629241943359e+00
2.416000000000000000e+03 3.854538726806640625e+01 -1.235641574859619141e+01 -5.384344458580017090e-01 4.858726024627685547e+00 1.296087503433227539e+00 -2.532630681991577148e+00
2.417000000000000000e+03 4.781441497802734375e+01 -2.670396804809570312e+01 2.127418994903564453e+00 7.004360675811767578e+00 2.739533901214599609e+00 -2.589284181594848633e+00
2.418000000000000000e+03 4.931056594848632812e+01 -2.290288352966308594e+01 2.085406303405761719e+00 5.297865390777587891e+00 2.214981555938720703e+00 -1.879609227180480957e+00
2.419000000000000000e+03 4.147203063964843750e+01 -1.147753620147705078e+01 -9.978000521659851074e-01 6.139437675476074219e+00 1.542491197586059570e+00 -1.934643626213073730e+00
2.420000000000000000e+03 4.830170822143554688e+01 -2.968811225891113281e+01 1.397310495376586914e+00 6.605727672576904297e+00 2.400911331176757812e+00 -2.172552824020385742e+00
2.421000000000000000e+03 5.256180191040039062e+01 -3.234608078002929688e+01 1.505577683448791504e+00 6.226662158966064453e+00 2.319671869277954102e+00 -1.244641661643981934e+00
2.422000000000000000e+03 4.143619155883789062e+01 -1.429380893707275391e+01 -8.302836418151855469e-01 7.076679229736328125e+00 1.873918652534484863e+00 -2.398861169815063477e+00
2.423000000000000000e+03 4.387168502807617188e+01 -1.152193737030029297e+01 -1.213302612304687500e+00 6.489065647125244141e+00 1.582728862762451172e+00 -1.285602092742919922e+00
2.424000000000000000e+03 3.547255706787109375e+01 8.977988243103027344e+00 1.537383437156677246e+00 6.052002429962158203e+00 2.276815652847290039e+00 -2.171308547258377075e-01
2.425000000000000000e+03 4.560949707031250000e+01 -1.763169860839843750e+01 1.871677190065383911e-01 7.700167655944824219e+00 2.366200685501098633e+00 -9.654546380043029785e-01
2.426000000000000000e+03 4.536332321166992188e+01 -1.878232765197753906e+01 9.467882513999938965e-01 8.279691696166992188e+00 2.767944097518920898e+00 -1.206099510192871094e+00
2.427000000000000000e+03 4.880127716064453125e+01 -2.116457939147949219e+01 1.674725294113159180e+00 5.474112033843994141e+00 2.144651174545288086e+00 -1.562554597854614258e+00
2.428000000000000000e+03 5.248325347900390625e+01 -3.402392959594726562e+01 3.978859782218933105e-01 6.284168720245361328e+00 2.004616498947143555e+00 -7.841303944587707520e-01
2.429000000000000000e+03 3.789631271362304688e+01 2.319088172912597656e+01 4.384037256240844727e-01 6.099463939666748047e+00 1.961360335350036621e+00 -4.984137788414955139e-02
2.430000000000000000e+03 7.252458572387695312e+00 2.586122894287109375e+01 7.723196595907211304e-02 -4.051756262779235840e-01 -9.838309884071350098e-02 -1.028900146484375000e-01
2.431000000000000000e+03 5.102260971069335938e+01 -1.926696014404296875e+01 5.898154899477958679e-02 3.493857622146606445e+00 1.065851688385009766e+00 -1.057773470878601074e+00
2.432000000000000000e+03 3.265722274780273438e+01 -1.090746212005615234e+01 5.088577866554260254e-01 1.846103429794311523e+00 7.064883708953857422e-01 -1.437222719192504883e+00
2.433000000000000000e+03 3.248357009887695312e+01 -1.261425971984863281e+01 2.629179693758487701e-02 1.477255344390869141e+00 4.510641396045684814e-01 -1.451404094696044922e+00
2.434000000000000000e+03 3.711957550048828125e+01 2.731016731262207031e+01 -1.609116345643997192e-01 5.271889209747314453e+00 1.533293366432189941e+00 -2.162442058324813843e-01
2.435000000000000000e+03 3.665961837768554688e+01 -1.314812850952148438e+01 -1.412685960531234741e-01 3.484383821487426758e+00 1.002934575080871582e+00 -2.504755735397338867e+00
2.436000000000000000e+03 3.587353897094726562e+01 -1.106272029876708984e+01 1.209790166467428207e-02 3.355220794677734375e+00 1.010195612907409668e+00 -2.061522483825683594e+00
2.437000000000000000e+03 1.237488555908203125e+01 3.252576828002929688e+01 -5.394079908728599548e-02 6.438503861427307129e-01 1.769728809595108032e-01 -2.379174232482910156e-01
2.438000000000000000e+03 8.551206588745117188e+00 2.747089767456054688e+01 5.713821947574615479e-02 -1.472326517105102539e-01 -2.702832967042922974e-02 -1.541335731744766235e-01
2.439000000000000000e+03 4.678596878051757812e+01 -1.549087619781494141e+01 -1.034313440322875977e+00 6.621303558349609375e+00 1.676097035408020020e+00 -5.434752702713012695e-01
2.440000000000000000e+03 3.669239807128906250e+01 7.524220466613769531e+00 1.411821246147155762e+00 6.546802043914794922e+00 2.387586832046508789e+00 -1.928641647100448608e-01
2.441000000000000000e+03 5.178954696655273438e+01 -2.511124038696289062e+01 1.943295240402221680e+00 4.608182907104492188e+00 1.965443372726440430e+00 -1.553867459297180176e+00
2.442000000000000000e+03 5.165419387817382812e+01 -2.217612648010253906e+01 1.563681483268737793e+00 3.690205335617065430e+00 1.576166033744812012e+00 -1.232271790504455566e+00
2.443000000000000000e+03 8.661822319030761719e+00 2.598756217956542969e+01 9.643771499395370483e-02 -1.583593338727951050e-01 -1.857648789882659912e-02 -1.405442655086517334e-01
2.444000000000000000e+03 2.254067039489746094e+01 -4.970765590667724609e+00 -9.897565245628356934e-01 3.424164056777954102e+00 7.303223013877868652e-01 9.672632217407226562e-01
2.445000000000000000e+03 2.301088142395019531e+01 -6.861656665802001953e+00 4.094597697257995605e-01 5.974586963653564453e+00 1.915214061737060547e+00 3.252418041229248047e+00
2.446000000000000000e+03 2.489838981628417969e+01 -6.922298908233642578e+00 2.689326047897338867e+00 3.239432573318481445e+00 1.778627634048461914e+00 3.349762916564941406e+00
2.447000000000000000e+03 2.295692825317382812e+01 -5.894818782806396484e+00 -6.153230071067810059e-01 4.653270244598388672e+00 1.211384177207946777e+00 1.889428853988647461e+00
2.448000000000000000e+03 2.180149650573730469e+01 -1.134658932685852051e+00 -7.466994524002075195e-01 1.759492635726928711e+00 3.038379251956939697e-01 2.523736059665679932e-01
2.449000000000000000e+03 2.535189056396484375e+01 -7.695051670074462891e+00 4.237019062042236328e+00 1.969396829605102539e+00 1.861924767494201660e+00 2.894994020462036133e+00
2.450000000000000000e+03 2.254038429260253906e+01 -2.492120265960693359e+00 -8.654041290283203125e-01 2.451899290084838867e+00 4.759485721588134766e-01 5.084338784217834473e-01
2.451000000000000000e+03 1.370901966094970703e+01 -8.221485137939453125e+00 5.430861115455627441e-01 1.085906863212585449e+00 4.886979162693023682e-01 1.147598028182983398e+00
2.452000000000000000e+03 2.648697662353515625e+01 -1.013945007324218750e+01 3.234287500381469727e+00 3.242791593074798584e-01 1.067569971084594727e+00 -3.326646089553833008e-01
2.453000000000000000e+03 1.181951332092285156e+01 -9.481929779052734375e+00 6.132286787033081055e-01 2.293852567672729492e+00 8.721243739128112793e-01 7.463042736053466797e-01
2.454000000000000000e+03 1.564770603179931641e+01 -9.635518074035644531e+00 2.236093282699584961e+00 2.102751284837722778e-01 7.339105010032653809e-01 2.445431709289550781e+00
2.455000000000000000e+03 8.698776245117187500e+00 6.499560832977294922e+00 6.047010887414216995e-03 -4.858877956867218018e-01 -1.439522355794906616e-01 6.446836590766906738e-01
2.456000000000000000e+03 9.119976997375488281e+00 7.033857345581054688e+00 6.108739972114562988e-02 -4.890148639678955078e-01 -1.283782422542572021e-01 6.286867856979370117e-01
2.457000000000000000e+03 2.155793571472167969e+01 -5.945664644241333008e-01 -6.671001911163330078e-01 1.598132252693176270e+00 2.793096303939819336e-01 2.150766849517822266e-01
2.458000000000000000e+03 2.077091979980468750e+01 -1.249487623572349548e-01 -6.151275634765625000e-01 1.167423605918884277e+00 1.656888127326965332e-01 1.724979132413864136e-01
2.459000000000000000e+03 2.624167060852050781e+01 -8.374306678771972656e+00 4.064105510711669922e+00 1.052103996276855469e+00 1.534862875938415527e+00 1.466203451156616211e+00
2.460000000000000000e+03 7.193645477294921875e+00 -9.354843139648437500e+00 -1.161226350814104080e-02 1.305962800979614258e+00 3.883051872253417969e-01 -9.140071868896484375e-01
2.461000000000000000e+03 1.633985710144042969e+01 6.026851177215576172e+00 2.665448486804962158e-01 7.081717252731323242e-02 1.012086048722267151e-01 2.355940937995910645e-01
2.462000000000000000e+03 1.648080444335937500e+01 3.958926677703857422e+00 -4.948586598038673401e-02 -9.742750227451324463e-02 -4.407401010394096375e-02 3.056225478649139404e-01
2.463000000000000000e+03 2.795797538757324219e+01 -9.827835083007812500e+00 2.440358877182006836e+00 5.740580558776855469e-01 9.043250679969787598e-01 -4.063089489936828613e-01
2.464000000000000000e+03 2.902549743652343750e+01 -1.144392204284667969e+01 7.324517965316772461e-01 6.644279360771179199e-01 4.190639257431030273e-01 -1.130869626998901367e+00
2.465000000000000000e+03 9.281606674194335938e+00 -8.753455162048339844e+00 -5.586921423673629761e-02 1.794719576835632324e+00 5.216551423072814941e-01 -3.804767429828643799e-01
2.466000000000000000e+03 1.057092761993408203e+01 -9.255850791931152344e+00 2.732611000537872314e-01 2.203991651535034180e+00 7.431758046150207520e-01 1.673187315464019775e-01
2.467000000000000000e+03 1.622378349304199219e+01 -9.528207778930664062e+00 2.592799663543701172e+00 -1.761108636856079102e-01 7.250066399574279785e-01 2.641531467437744141e+00
2.468000000000000000e+03 1.971358871459960938e+01 1.965148568153381348e+00 -2.846397459506988525e-01 7.351511716842651367e-01 1.351534277200698853e-01 1.214091703295707703e-01
2.469000000000000000e+03 1.860511970520019531e+01 3.497114658355712891e+00 -4.552326351404190063e-02 4.600681066513061523e-01 1.243634521961212158e-01 1.376916170120239258e-01
2.470000000000000000e+03 2.013771820068359375e+01 3.048207283020019531e+00 -6.904257088899612427e-02 9.496790170669555664e-01 2.641909420490264893e-01 7.615891844034194946e-02
2.471000000000000000e+03 1.221174430847167969e+01 9.226543426513671875e+00 3.729965686798095703e-01 -2.638166546821594238e-01 3.275397792458534241e-02 4.108905196189880371e-01
2.472000000000000000e+03 1.693657302856445312e+01 4.763128757476806641e+00 1.089225858449935913e-01 8.307920396327972412e-02 5.760053545236587524e-02 2.327153086662292480e-01
2.473000000000000000e+03 7.076892375946044922e+00 -7.187968254089355469e+00 -4.173450469970703125e-01 8.311550617218017578e-01 1.241429969668388367e-01 -9.549282193183898926e-01
2.474000000000000000e+03 6.679442882537841797e+00 -8.404198646545410156e+00 -2.301883101463317871e-01 8.573518395423889160e-01 1.881490647792816162e-01 -1.048042297363281250e+00
2.475000000000000000e+03 1.308540534973144531e+01 6.361471176147460938e+00 1.632778346538543701e-01 -3.858235478401184082e-01 -6.676371395587921143e-02 4.896980524063110352e-01
2.476000000000000000e+03 1.947542381286621094e+01 2.766615629196166992e+00 -1.390997618436813354e-01 6.881070733070373535e-01 1.647021770477294922e-01 1.122314780950546265e-01
2.477000000000000000e+03 1.554375648498535156e+01 5.675604820251464844e+00 1.816783398389816284e-01 -1.289589107036590576e-01 1.581582427024841309e-02 3.238899409770965576e-01
2.478000000000000000e+03 2.919939231872558594e+01 -1.067126846313476562e+01 1.275607943534851074e+00 7.817461490631103516e-01 6.172062754631042480e-01 -9.321603178977966309e-01
2.479000000000000000e+03 7.729066848754882812e+00 -1.090711784362792969e+01 4.317039847373962402e-01 1.920088768005371094e+00 7.055377960205078125e-01 -6.520503163337707520e-01
2.480000000000000000e+03 2.938606834411621094e+01 -9.926173210144042969e+00 1.684279441833496094e+00 9.745405316352844238e-01 7.976459860801696777e-01 -6.763558387756347656e-01
2.481000000000000000e+03 1.303880119323730469e+01 -9.469012260437011719e+00 9.747651815414428711e-01 1.935817956924438477e+00 8.731749653816223145e-01 1.276808738708496094e+00
2.482000000000000000e+03 4.163700485229492188e+01 -7.059894561767578125e+00 -5.592291355133056641e-01 5.571137428283691406e+00 1.503572463989257812e+00 -1.517409920692443848e+00
2.483000000000000000e+03 1.994404602050781250e+01 3.886951446533203125e+00 5.262288823723793030e-02 9.070282578468322754e-01 2.878953516483306885e-01 5.728528648614883423e-02
2.484000000000000000e+03 4.685307693481445312e+01 -1.779791259765625000e+01 1.356155425310134888e-01 7.019291400909423828e+00 2.146471977233886719e+00 -8.079637289047241211e-01
2.485000000000000000e+03 1.414612770080566406e+01 6.395505428314208984e+00 2.142585515975952148e-01 -2.664613127708435059e-01 -1.566082984209060669e-02 4.086465239524841309e-01
2.486000000000000000e+03 1.408625411987304688e+01 5.264325618743896484e+00 6.777045130729675293e-02 -3.645220398902893066e-01 -8.902548253536224365e-02 4.603324532508850098e-01
2.487000000000000000e+03 4.062383270263671875e+01 -5.094193935394287109e+00 -2.893296182155609131e-01 5.433055400848388672e+00 1.543117761611938477e+00 -1.421150803565979004e+00
2.488000000000000000e+03 1.150164699554443359e+01 -7.018294334411621094e+00 -4.140593707561492920e-01 1.372971534729003906e+00 2.876736521720886230e-01 2.029093354940414429e-01
2.489000000000000000e+03 9.889656066894531250e+00 -6.749242782592773438e+00 -5.949442982673645020e-01 1.263091683387756348e+00 2.004441916942596436e-01 -3.249628543853759766e-01
2.490000000000000000e+03 3.944452285766601562e+01 -5.863485932350158691e-01 1.367463022470474243e-01 5.878612518310546875e+00 1.804607629776000977e+00 -1.003649234771728516e+00
2.491000000000000000e+03 3.876027679443359375e+01 -1.912917494773864746e+00 7.992944866418838501e-02 5.524442672729492188e+00 1.681311726570129395e+00 -9.587370753288269043e-01
2.492000000000000000e+03 4.417213058471679688e+01 -1.397704315185546875e+01 -1.157484412193298340e+00 7.242820262908935547e+00 1.825600743293762207e+00 -1.262341618537902832e+00
2.493000000000000000e+03 7.224424743652343750e+01 -1.594199562072753906e+01 -4.798946976661682129e-01 5.681024551391601562e+00 1.560338973999023438e+00 -6.924831867218017578e-01
2.494000000000000000e+03 3.843021774291992188e+01 -9.955556988716125488e-01 1.620340049266815186e-01 5.645478248596191406e+00 1.742253661155700684e+00 -8.355270624160766602e-01
2.495000000000000000e+03 5.787992954254150391e+00 7.858097553253173828e+00 3.182439506053924561e-02 -5.194528102874755859e-01 -1.462885290384292603e-01 5.265344977378845215e-01
2.496000000000000000e+03 6.799259948730468750e+01 -1.563381195068359375e+01 3.164890706539154053e-01 3.222186326980590820e+00 1.061602592468261719e+00 1.451072245836257935e-01
2.497000000000000000e+03 6.917654418945312500e+01 -1.795179557800292969e+01 -3.709332942962646484e-01 2.991250276565551758e+00 7.860950827598571777e-01 -6.768477559089660645e-01
2.498000000000000000e+03 4.045334243774414062e+01 -3.792328357696533203e+00 -1.575602442026138306e-01 5.528066158294677734e+00 1.611151814460754395e+00 -1.304736375808715820e+00
2.499000000000000000e+03 7.605648994445800781e+00 9.544627189636230469e+00 1.619590073823928833e-01 -5.175256729125976562e-01 -1.066699996590614319e-01 5.264332294464111328e-01
2.500000000000000000e+03 7.179980278015136719e+00 8.166672706604003906e+00 8.010457456111907959e-02 -5.050244331359863281e-01 -1.274759620428085327e-01 5.696867704391479492e-01
2.501000000000000000e+03 1.107049179077148438e+01 6.559807777404785156e+00 9.112714976072311401e-02 -4.871494472026824951e-01 -1.188066899776458740e-01 6.035962700843811035e-01
2.502000000000000000e+03 1.023293876647949219e+01 9.446702957153320312e+00 2.829800248146057129e-01 -4.071669876575469971e-01 -3.725609183311462402e-02 4.928813576698303223e-01
2.503000000000000000e+03 4.332374954223632812e+01 -9.441662788391113281e+00 -9.407200813293457031e-01 5.956384658813476562e+00 1.504699349403381348e+00 -1.388568758964538574e+00
2.504000000000000000e+03 4.235344696044921875e+01 -1.003067111968994141e+01 -9.822320342063903809e-01 6.010852813720703125e+00 1.508586287498474121e+00 -1.583046317100524902e+00
2.505000000000000000e+03 4.782190322875976562e+01 -1.914123725891113281e+01 8.291354179382324219e-01 6.470353603363037109e+00 2.189846754074096680e+00 -9.447850584983825684e-01
2.506000000000000000e+03 5.107034301757812500e+01 -2.395760917663574219e+01 1.926664233207702637e+00 4.571036815643310547e+00 1.949310421943664551e+00 -1.676613926887512207e+00
2.507000000000000000e+03 4.921965408325195312e+01 -2.632956504821777344e+01 2.232438564300537109e+00 6.036009788513183594e+00 2.480534553527832031e+00 -2.386860370635986328e+00
2.508000000000000000e+03 9.901283264160156250e+00 2.544392013549804688e+01 1.314223855733871460e-01 3.422697260975837708e-02 4.969480633735656738e-02 -1.643651127815246582e-01
2.509000000000000000e+03 1.105270004272460938e+01 2.878030014038085938e+01 4.711313918232917786e-02 3.293662071228027344e-01 1.129437983036041260e-01 -2.337074279785156250e-01
2.510000000000000000e+03 3.486118316650390625e+01 -1.134915351867675781e+01 1.365477293729782104e-01 2.755900859832763672e+00 8.677345514297485352e-01 -1.976111173629760742e+00
2.511000000000000000e+03 3.352809524536132812e+01 -1.231728458404541016e+01 8.258690685033798218e-02 1.947829008102416992e+00 6.091247797012329102e-01 -1.742311358451843262e+00
2.512000000000000000e+03 4.798937988281250000e+01 -3.121151733398437500e+01 5.432763695716857910e-01 6.686498641967773438e+00 2.168932437896728516e+00 -1.666836500167846680e+00
2.513000000000000000e+03 4.895551681518554688e+01 -2.399023246765136719e+01 2.285284042358398438e+00 5.739677429199218750e+00 2.407488346099853516e+00 -2.236818075180053711e+00
2.514000000000000000e+03 3.652645492553710938e+01 5.729959964752197266e+00 1.111731529235839844e+00 6.269337654113769531e+00 2.214320659637451172e+00 -1.743220835924148560e-01
2.515000000000000000e+03 7.503967761993408203e+00 1.054901409149169922e+01 1.954067498445510864e-01 -5.250634551048278809e-01 -9.889701753854751587e-02 4.788689315319061279e-01
2.516000000000000000e+03 8.077737808227539062e+00 1.605428695678710938e+01 2.534847557544708252e-01 -4.533680379390716553e-01 -5.996498465538024902e-02 2.176389247179031372e-01
2.517000000000000000e+03 4.535132217407226562e+01 -1.397894191741943359e+01 -1.201150655746459961e+00 6.905481815338134766e+00 1.711299419403076172e+00 -7.862016558647155762e-01
2.518000000000000000e+03 4.266167831420898438e+01 -1.143295669555664062e+01 -1.162754654884338379e+00 6.407632827758789062e+00 1.573463439941406250e+00 -1.628363370895385742e+00
2.519000000000000000e+03 4.661859512329101562e+01 -2.033852767944335938e+01 2.028714895248413086e+00 7.334416866302490234e+00 2.808939456939697266e+00 -1.465497374534606934e+00
2.520000000000000000e+03 7.909134387969970703e+00 -1.004038619995117188e+01 1.915308684110641479e-01 1.752265095710754395e+00 5.831387639045715332e-01 -6.957952380180358887e-01
2.521000000000000000e+03 8.568862915039062500e+00 -9.336720466613769531e+00 1.152199413627386093e-02 1.768371701240539551e+00 5.339680910110473633e-01 -5.962103605270385742e-01
2.522000000000000000e+03 9.356465339660644531e+00 1.624066162109375000e+01 3.229352235794067383e-01 -2.869814932346343994e-01 1.078611798584461212e-02 1.814010739326477051e-01
2.523000000000000000e+03 6.880084514617919922e+00 2.032619094848632812e+01 1.437594145536422729e-01 -5.614651441574096680e-01 -1.253117322921752930e-01 4.539570957422256470e-02
2.524000000000000000e+03 4.027244186401367188e+01 -8.499302864074707031e+00 -6.230095624923706055e-01 5.411577701568603516e+00 1.436570405960083008e+00 -1.720837950706481934e+00
2.525000000000000000e+03 3.840927886962890625e+01 1.058121442794799805e+00 3.289030194282531738e-01 6.009058952331542969e+00 1.901388525962829590e+00 -6.938465237617492676e-01
2.526000000000000000e+03 3.770494842529296875e+01 1.709451675415039062e+00 4.306381046772003174e-01 5.980778694152832031e+00 1.923425078392028809e+00 -5.176557302474975586e-01
2.527000000000000000e+03 4.665861511230468750e+01 -1.903165054321289062e+01 8.544313907623291016e-01 7.099525451660156250e+00 2.386187076568603516e+00 -1.038381099700927734e+00
2.528000000000000000e+03 4.884674072265625000e+01 -2.510637092590332031e+01 2.262618780136108398e+00 6.171941757202148438e+00 2.530368089675903320e+00 -2.379724025726318359e+00
2.529000000000000000e+03 4.994775009155273438e+01 -2.466249847412109375e+01 2.184277057647705078e+00 5.182201385498046875e+00 2.209943532943725586e+00 -2.047961473464965820e+00
2.530000000000000000e+03 3.626033401489257812e+01 4.742001056671142578e+00 9.419531822204589844e-01 6.073846340179443359e+00 2.104739904403686523e+00 -1.326648294925689697e-01
2.531000000000000000e+03 9.077438354492187500e+00 9.054242134094238281e+00 2.000040560960769653e-01 -4.696002602577209473e-01 -8.087886124849319458e-02 5.418457388877868652e-01
2.532000000000000000e+03 3.470448303222656250e+01 1.055480289459228516e+01 1.624029517173767090e+00 5.803962707519531250e+00 2.228397607803344727e+00 -2.816816568374633789e-01
2.533000000000000000e+03 3.623760986328125000e+01 8.398677825927734375e+00 1.521372318267822266e+00 6.361709594726562500e+00 2.364924430847167969e+00 -2.260336577892303467e-01
2.534000000000000000e+03 3.478632354736328125e+01 2.576076698303222656e+01 7.404557615518569946e-02 5.052924633026123047e+00 1.538091063499450684e+00 -4.864376783370971680e-01
2.535000000000000000e+03 9.361394882202148438e+00 1.483860492706298828e+01 3.276090323925018311e-01 -3.187050223350524902e-01 2.671205438673496246e-03 2.497706860303878784e-01
2.536000000000000000e+03 4.989249420166015625e+01 -2.017210388183593750e+01 8.451210260391235352e-01 4.554382324218750000e+00 1.619850993156433105e+00 -1.267164230346679688e+00
2.537000000000000000e+03 4.046340942382812500e+01 -1.017450237274169922e+01 -7.942419052124023438e-01 5.645129680633544922e+00 1.455266356468200684e+00 -1.956307530403137207e+00
2.538000000000000000e+03 1.001576900482177734e+01 3.079920005798339844e+01 2.124161925166845322e-03 1.903087049722671509e-01 5.772985890507698059e-02 -1.966518610715866089e-01
2.539000000000000000e+03 4.885742187500000000e+01 -3.335085296630859375e+01 9.214886464178562164e-03 6.464205265045166016e+00 1.942026138305664062e+00 -1.112724184989929199e+00
2.540000000000000000e+03 5.166717147827148438e+01 -3.075017356872558594e+01 1.789650321006774902e+00 6.061206340789794922e+00 2.355257034301757812e+00 -1.795419335365295410e+00
2.541000000000000000e+03 5.408605957031250000e+01 -3.090693664550781250e+01 2.494565486907958984e+00 6.246834754943847656e+00 2.622420072555541992e+00 -1.516928553581237793e+00
2.542000000000000000e+03 3.522204208374023438e+01 1.344172859191894531e+01 1.604130983352661133e+00 6.108552455902099609e+00 2.313805103302001953e+00 -4.758721292018890381e-01
2.543000000000000000e+03 3.372773361206054688e+01 1.359781932830810547e+01 1.508375525474548340e+00 5.402950763702392578e+00 2.073397874832153320e+00 -4.471202194690704346e-01
2.544000000000000000e+03 8.932690620422363281e+00 1.173880481719970703e+01 2.794817090034484863e-01 -4.355423152446746826e-01 -4.681817814707756042e-02 4.143626093864440918e-01
2.545000000000000000e+03 7.998757839202880859e+00 1.265449523925781250e+01 2.588335871696472168e-01 -4.875677227973937988e-01 -6.862023472785949707e-02 3.856268823146820068e-01
2.546000000000000000e+03 3.533081817626953125e+01 1.501795482635498047e+01 1.452943563461303711e+00 6.195865154266357422e+00 2.294642686843872070e+00 -4.965867996215820312e-01
2.547000000000000000e+03 3.408687210083007812e+01 2.012564086914062500e+01 8.442031145095825195e-01 5.348857402801513672e+00 1.857918262481689453e+00 -5.789890289306640625e-01
2.548000000000000000e+03 3.381874084472656250e+01 1.671756935119628906e+01 1.265312671661376953e+00 5.437219142913818359e+00 2.010759592056274414e+00 -5.643775463104248047e-01
2.549000000000000000e+03 4.562658309936523438e+01 -1.566538810729980469e+01 -9.468386769294738770e-01 7.139929771423339844e+00 1.857927322387695312e+00 -8.251467943191528320e-01
2.550000000000000000e+03 3.659884262084960938e+01 2.537628555297851562e+01 1.219540536403656006e-01 5.452961444854736328e+00 1.672474622726440430e+00 -2.878244519233703613e-01
2.551000000000000000e+03 4.271638870239257812e+01 -1.284248733520507812e+01 -1.178993225097656250e+00 6.914097309112548828e+00 1.720531344413757324e+00 -1.722850203514099121e+00
2.552000000000000000e+03 3.721332550048828125e+01 -6.728128433227539062e+00 1.330138929188251495e-02 4.489366531372070312e+00 1.350800395011901855e+00 -1.355097174644470215e+00
2.553000000000000000e+03 4.011965179443359375e+01 -1.245946121215820312e+01 -8.301673531532287598e-01 5.915641784667968750e+00 1.525642275810241699e+00 -2.448359489440917969e+00
2.554000000000000000e+03 9.460738182067871094e+00 2.341669654846191406e+01 1.695776879787445068e-01 -1.235196441411972046e-01 1.381741464138031006e-02 -9.601610153913497925e-02
2.555000000000000000e+03 1.105221939086914062e+01 2.651960945129394531e+01 1.080085113644599915e-01 2.437896430492401123e-01 1.055394485592842102e-01 -2.055070996284484863e-01
2.556000000000000000e+03 7.265548706054687500e+01 -1.438343334197998047e+01 -2.306474000215530396e-01 5.938380718231201172e+00 1.712319970130920410e+00 -5.527639389038085938e-01
2.557000000000000000e+03 2.378361129760742188e+01 -6.331032752990722656e+00 7.036618590354919434e-01 4.759706974029541016e+00 1.639010667800903320e+00 3.076578140258789062e+00
2.558000000000000000e+03 2.296614837646484375e+01 -6.385541439056396484e+00 -3.556268215179443359e-01 5.252873897552490234e+00 1.469174146652221680e+00 2.364037752151489258e+00
2.559000000000000000e+03 2.386005020141601562e+01 -6.630440711975097656e+00 1.323242545127868652e+00 4.768048763275146484e+00 1.827387332916259766e+00 3.512018203735351562e+00
2.560000000000000000e+03 2.553938102722167969e+01 -7.957394123077392578e+00 4.473148822784423828e+00 1.506829738616943359e+00 1.793993592262268066e+00 2.463707447052001953e+00
2.561000000000000000e+03 2.232547950744628906e+01 -3.512465953826904297e+00 -9.930694103240966797e-01 2.569558620452880859e+00 4.729467928409576416e-01 6.111453175544738770e-01
2.562000000000000000e+03 2.276871681213378906e+01 -3.805469512939453125e+00 -9.585124254226684570e-01 2.994546651840209961e+00 6.108102798461914062e-01 7.985376715660095215e-01
2.563000000000000000e+03 2.196906089782714844e+01 -1.577285766601562500e+00 -7.938330173492431641e-01 1.924328923225402832e+00 3.391487598419189453e-01 2.997125983238220215e-01
2.564000000000000000e+03 2.228603935241699219e+01 -9.004482626914978027e-01 -6.830225586891174316e-01 2.005020380020141602e+00 3.965993523597717285e-01 2.864437401294708252e-01
2.565000000000000000e+03 2.302577781677246094e+01 -4.633379459381103516e+00 -8.738132715225219727e-01 3.564981460571289062e+00 8.073504567146301270e-01 1.169650912284851074e+00
2.566000000000000000e+03 2.200711441040039062e+01 -2.112476587295532227e+00 -8.760907649993896484e-01 2.014471769332885742e+00 3.415143191814422607e-01 3.537802696228027344e-01
2.567000000000000000e+03 9.833117485046386719e+00 -7.544149398803710938e+00 -3.662733733654022217e-01 1.497379899024963379e+00 3.393319547176361084e-01 -2.892385721206665039e-01
2.568000000000000000e+03 8.740677833557128906e+00 -7.762178897857666016e+00 -3.463284969329833984e-01 1.388872027397155762e+00 3.127630650997161865e-01 -6.098625063896179199e-01
2.569000000000000000e+03 2.818756484985351562e+01 -8.728590011596679688e+00 2.667805671691894531e+00 9.182043075561523438e-01 1.075802922248840332e+00 2.136321365833282471e-01
2.570000000000000000e+03 1.290401268005371094e+01 7.325600624084472656e+00 2.637617886066436768e-01 -3.350270390510559082e-01 -2.137957513332366943e-02 4.561999440193176270e-01
2.571000000000000000e+03 2.139370536804199219e+01 1.056709066033363342e-01 -5.457546114921569824e-01 1.476956009864807129e+00 2.793604135513305664e-01 1.650604307651519775e-01
2.572000000000000000e+03 2.709132194519042969e+01 -8.623477935791015625e+00 3.453317403793334961e+00 8.493990898132324219e-01 1.290814995765686035e+00 7.934010028839111328e-01
2.573000000000000000e+03 2.742474937438964844e+01 -1.101721382141113281e+01 1.689422130584716797e+00 4.398829638957977295e-01 6.387915611267089844e-01 -1.001564621925354004e+00
2.574000000000000000e+03 2.190849685668945312e+01 1.784649491310119629e+00 -2.417148798704147339e-01 1.643885493278503418e+00 4.206511974334716797e-01 1.146877631545066833e-01
2.575000000000000000e+03 2.199345970153808594e+01 3.114053308963775635e-01 -4.853979349136352539e-01 1.765797019004821777e+00 3.841197192668914795e-01 1.941812038421630859e-01
2.576000000000000000e+03 8.777782440185546875e+00 8.218828201293945312e+00 1.408882588148117065e-01 -4.894183576107025146e-01 -1.045590266585350037e-01 5.845275521278381348e-01
2.577000000000000000e+03 1.042456912994384766e+01 -6.829017639160156250e+00 -5.533400774002075195e-01 1.356730341911315918e+00 2.410171031951904297e-01 -1.489968001842498779e-01
2.578000000000000000e+03 1.065937137603759766e+01 -8.126976966857910156e+00 -1.340506821870803833e-01 1.767234921455383301e+00 4.899552464485168457e-01 2.968462184071540833e-02
2.579000000000000000e+03 1.208142375946044922e+01 -7.704879283905029297e+00 -6.791942566633224487e-02 1.482134461402893066e+00 4.242645204067230225e-01 5.159093141555786133e-01
2.580000000000000000e+03 2.865327644348144531e+01 -9.890034675598144531e+00 1.977283477783203125e+00 7.490596175193786621e-01 8.179029226303100586e-01 -5.189448595046997070e-01
2.581000000000000000e+03 1.925057983398437500e+01 3.606740474700927734e+00 -1.289778389036655426e-02 6.544505953788757324e-01 1.924658417701721191e-01 9.713880717754364014e-02
2.582000000000000000e+03 1.807916259765625000e+01 4.769647598266601562e+00 1.388208568096160889e-01 3.837061822414398193e-01 1.567581146955490112e-01 1.399157047271728516e-01
2.583000000000000000e+03 3.773781585693359375e+01 -2.224977970123291016e+00 1.523325443267822266e-01 5.238441944122314453e+00 1.617232322692871094e+00 -8.101118206977844238e-01
2.584000000000000000e+03 3.909806442260742188e+01 -6.198910713195800781e+00 -2.239348292350769043e-01 5.068431377410888672e+00 1.453348994255065918e+00 -1.441720366477966309e+00
2.585000000000000000e+03 1.760714721679687500e+01 5.466318607330322266e+00 2.205711901187896729e-01 3.072353601455688477e-01 1.583419591188430786e-01 1.598037630319595337e-01
2.586000000000000000e+03 1.974654006958007812e+01 4.712199687957763672e+00 1.551903188228607178e-01 8.693490028381347656e-01 3.073617815971374512e-01 4.584582522511482239e-02
2.587000000000000000e+03 2.103041076660156250e+01 2.511969566345214844e+00 -1.567222923040390015e-01 1.296461105346679688e+00 3.419216275215148926e-01 6.881958246231079102e-02
2.588000000000000000e+03 1.905589866638183594e+01 4.429984569549560547e+00 1.134356558322906494e-01 6.446326375007629395e-01 2.274204939603805542e-01 9.066933393478393555e-02
2.589000000000000000e+03 8.313885688781738281e+00 9.418774604797363281e+00 1.798195093870162964e-01 -4.970962107181549072e-01 -9.518300741910934448e-02 5.313896536827087402e-01
2.590000000000000000e+03 1.722582435607910156e+01 6.329363822937011719e+00 3.215189278125762939e-01 2.768068313598632812e-01 1.794977337121963501e-01 1.669593453407287598e-01
2.591000000000000000e+03 4.098897933959960938e+01 -7.935748577117919922e+00 -6.265218853950500488e-01 5.530529022216796875e+00 1.471202135086059570e+00 -1.602883577346801758e+00
2.592000000000000000e+03 3.398316955566406250e+01 -1.042387771606445312e+01 4.023849070072174072e-01 2.552619218826293945e+00 8.865012526512145996e-01 -1.613487243652343750e+00
2.593000000000000000e+03 3.622803878784179688e+01 -1.206986618041992188e+01 -6.655065715312957764e-02 3.420500755310058594e+00 1.006184935569763184e+00 -2.320780515670776367e+00
2.594000000000000000e+03 1.608173751831054688e+01 6.904342174530029297e+00 3.568774461746215820e-01 9.000642597675323486e-02 1.340651661157608032e-01 2.317526638507843018e-01
2.595000000000000000e+03 1.236281681060791016e+01 -8.882287025451660156e+00 4.994823336601257324e-01 1.850801348686218262e+00 7.050850987434387207e-01 8.385658264160156250e-01
2.596000000000000000e+03 9.916906356811523438e+00 -9.710156440734863281e+00 3.389403522014617920e-01 2.278959989547729492e+00 7.853701114654541016e-01 -6.565944105386734009e-02
2.597000000000000000e+03 2.191771316528320312e+01 1.012173771858215332e+00 -3.691791594028472900e-01 1.678957104682922363e+00 3.929333686828613281e-01 1.469453871250152588e-01
2.598000000000000000e+03 2.081428718566894531e+01 3.331444740295410156e+00 -3.734461963176727295e-03 1.210345983505249023e+00 3.619834780693054199e-01 5.827821046113967896e-02
2.599000000000000000e+03 1.025248813629150391e+01 7.153757572174072266e+00 1.147339716553688049e-01 -4.788582623004913330e-01 -1.092372909188270569e-01 6.081419587135314941e-01
2.600000000000000000e+03 1.214170455932617188e+01 7.210565090179443359e+00 2.137956023216247559e-01 -4.055897593498229980e-01 -5.753824487328529358e-02 5.201467275619506836e-01
2.601000000000000000e+03 3.009947586059570312e+01 -9.997535705566406250e+00 1.347303152084350586e+00 1.138938903808593750e+00 7.458726167678833008e-01 -8.432999253273010254e-01
2.602000000000000000e+03 1.516140651702880859e+01 6.530596733093261719e+00 2.719323933124542236e-01 -1.174046918749809265e-01 4.635830596089363098e-02 3.241605162620544434e-01
2.603000000000000000e+03 3.328011703491210938e+01 -9.991476058959960938e+00 6.317051649093627930e-01 2.321271657943725586e+00 8.858929872512817383e-01 -1.458600401878356934e+00
2.604000000000000000e+03 3.369998168945312500e+01 -1.134919738769531250e+01 3.381447792053222656e-01 2.185476779937744141e+00 7.570864558219909668e-01 -1.701671123504638672e+00
2.605000000000000000e+03 3.682883071899414062e+01 -2.552374601364135742e+00 2.418257445096969604e-01 4.952086448669433594e+00 1.558173656463623047e+00 -6.878244876861572266e-01
2.606000000000000000e+03 3.813457107543945312e+01 -1.857902854681015015e-01 2.429165095090866089e-01 5.689737796783447266e+00 1.779796242713928223e+00 -7.315171957015991211e-01
2.607000000000000000e+03 3.738261413574218750e+01 -1.272468805313110352e+00 2.399923205375671387e-01 5.314726352691650391e+00 1.666415572166442871e+00 -6.479551196098327637e-01
2.608000000000000000e+03 6.963040924072265625e+01 -1.634910964965820312e+01 -4.738801717758178711e-02 3.802041053771972656e+00 1.126395940780639648e+00 -4.129352569580078125e-01
2.609000000000000000e+03 4.398485183715820312e+01 -1.279782676696777344e+01 -1.244012236595153809e+00 6.911203384399414062e+00 1.700157284736633301e+00 -1.270676016807556152e+00
2.610000000000000000e+03 4.170852661132812500e+01 -8.851685523986816406e+00 -7.776558399200439453e-01 5.715961933135986328e+00 1.481491923332214355e+00 -1.602529883384704590e+00
2.611000000000000000e+03 4.137377548217773438e+01 -1.029989242553710938e+01 -9.543912410736083984e-01 5.951576232910156250e+00 1.499155402183532715e+00 -1.797378301620483398e+00
2.612000000000000000e+03 3.696551132202148438e+01 2.332995653152465820e+00 5.258351564407348633e-01 5.920464992523193359e+00 1.933890104293823242e+00 -3.438148796558380127e-01
2.613000000000000000e+03 3.191006851196289062e+01 -1.023320579528808594e+01 8.182850480079650879e-01 1.703404784202575684e+00 7.565069794654846191e-01 -1.226385354995727539e+00
2.614000000000000000e+03 8.918952941894531250e+00 1.368730163574218750e+01 3.122974634170532227e-01 -3.873564600944519043e-01 -2.251769974827766418e-02 3.201844096183776855e-01
2.615000000000000000e+03 9.347787857055664062e+00 1.770206260681152344e+01 2.919746935367584229e-01 -2.567979991436004639e-01 1.055300328880548477e-02 1.120354458689689636e-01
2.616000000000000000e+03 9.326440811157226562e+00 1.912866973876953125e+01 2.627878189086914062e-01 -2.246099859476089478e-01 1.145334634929895401e-02 4.755063727498054504e-02
2.617000000000000000e+03 3.930242538452148438e+01 -8.748465538024902344e+00 -4.952878952026367188e-01 5.121089458465576172e+00 1.387740373611450195e+00 -1.845131278038024902e+00
2.618000000000000000e+03 3.693773651123046875e+01 9.289274811744689941e-01 3.958334624767303467e-01 5.636713981628417969e+00 1.809764266014099121e+00 -4.212450683116912842e-01
2.619000000000000000e+03 5.054439163208007812e+01 -2.577688407897949219e+01 2.086931467056274414e+00 5.270720005035400391e+00 2.207295417785644531e+00 -2.065274238586425781e+00
2.620000000000000000e+03 6.974528789520263672e+00 2.166341400146484375e+01 1.304727941751480103e-01 -5.228945016860961914e-01 -1.177265122532844543e-01 -1.305908430367708206e-03
2.621000000000000000e+03 1.228134155273437500e+01 1.522969532012939453e+01 4.656773507595062256e-01 4.071247205138206482e-02 1.519169509410858154e-01 1.244685053825378418e-01
2.622000000000000000e+03 1.063000011444091797e+01 1.631851577758789062e+01 3.750563561916351318e-01 -1.242952942848205566e-01 7.522831112146377563e-02 1.410814076662063599e-01
2.623000000000000000e+03 8.480530738830566406e+00 1.052495574951171875e+01 2.356579750776290894e-01 -4.782603979110717773e-01 -7.278072834014892578e-02 4.762783944606781006e-01
2.624000000000000000e+03 1.016796588897705078e+01 2.214729499816894531e+01 2.196046262979507446e-01 -2.713906206190586090e-02 5.773966759443283081e-02 -7.615401595830917358e-02
2.625000000000000000e+03 3.584111404418945312e+01 7.023889541625976562e+00 1.293177008628845215e+00 5.994270801544189453e+00 2.186234235763549805e+00 -1.383523046970367432e-01
2.626000000000000000e+03 3.529048919677734375e+01 6.088343620300292969e+00 1.138225793838500977e+00 5.786890983581542969e+00 2.077534914016723633e+00 -5.469895526766777039e-02
2.627000000000000000e+03 3.922978591918945312e+01 -1.179272747039794922e+01 -6.100842356681823730e-01 5.207592487335205078e+00 1.379252433776855469e+00 -2.437725067138671875e+00
2.628000000000000000e+03 4.040053176879882812e+01 -1.128721523284912109e+01 -8.760187029838562012e-01 5.805183887481689453e+00 1.478749513626098633e+00 -2.096198558807373047e+00
2.629000000000000000e+03 3.331384658813476562e+01 1.083379268646240234e+01 1.520890951156616211e+00 5.203579425811767578e+00 2.017341136932373047e+00 -2.646771669387817383e-01
2.630000000000000000e+03 1.085676574707031250e+01 2.417297744750976562e+01 1.945550292730331421e-01 1.541820168495178223e-01 1.046211123466491699e-01 -1.569103747606277466e-01
2.631000000000000000e+03 3.696048355102539062e+01 1.651685142517089844e+01 1.242119431495666504e+00 6.994000434875488281e+00 2.470835924148559570e+00 -3.473225831985473633e-01
2.632000000000000000e+03 9.733800888061523438e+00 1.286525249481201172e+01 3.385451436042785645e-01 -3.414885103702545166e-01 -8.830183069221675396e-04 3.366465270519256592e-01
2.633000000000000000e+03 7.873772144317626953e+00 -8.691023826599121094e+00 -1.212007179856300354e-01 1.395921468734741211e+00 3.824162185192108154e-01 -7.593827247619628906e-01
2.634000000000000000e+03 9.233785629272460938e+00 -1.019934844970703125e+01 4.405276775360107422e-01 2.312126159667968750e+00 8.257961869239807129e-01 -1.845316737890243530e-01
2.635000000000000000e+03 4.781721878051757812e+01 -3.514399719238281250e+01 -9.912340641021728516e-01 6.563059329986572266e+00 1.671547532081604004e+00 -6.415656805038452148e-01
2.636000000000000000e+03 3.220584487915039062e+01 1.848471260070800781e+01 1.040705919265747070e+00 4.752220153808593750e+00 1.737877845764160156e+00 -6.487742066383361816e-01
2.637000000000000000e+03 1.162404251098632812e+01 2.271426963806152344e+01 2.454539090394973755e-01 2.107516974210739136e-01 1.368616819381713867e-01 -1.366299390792846680e-01
2.638000000000000000e+03 3.532250595092773438e+01 7.914948463439941406e+00 1.374376893043518066e+00 5.900550842285156250e+00 2.182478189468383789e+00 -1.258433163166046143e-01
2.639000000000000000e+03 3.433709716796875000e+01 9.241075515747070312e+00 1.525530815124511719e+00 5.608307361602783203e+00 2.140151500701904297e+00 -1.528751850128173828e-01
2.640000000000000000e+03 3.611381912231445312e+01 3.802252054214477539e+00 7.809780240058898926e-01 5.877059936523437500e+00 1.997411370277404785e+00 -1.480532735586166382e-01
2.641000000000000000e+03 3.678338241577148438e+01 -1.071146488189697266e+01 -1.069536283612251282e-01 3.884536266326904297e+00 1.133274793624877930e+00 -2.137235403060913086e+00
2.642000000000000000e+03 3.427209472656250000e+01 2.193878173828125000e+01 6.126603484153747559e-01 5.243556499481201172e+00 1.756865024566650391e+00 -5.578759908676147461e-01
2.643000000000000000e+03 7.170220947265625000e+01 -1.504118633270263672e+01 -2.213588356971740723e-01 5.377509593963623047e+00 1.546845197677612305e+00 -5.805661678314208984e-01
2.644000000000000000e+03 4.063038253784179688e+01 3.005538940429687500e+01 -4.571645855903625488e-01 5.010534763336181641e+00 1.366011023521423340e+00 2.490806579589843750e-01
2.645000000000000000e+03 3.593267440795898438e+01 3.018796539306640625e+01 -5.277802944183349609e-01 4.835839271545410156e+00 1.292417645454406738e+00 -3.238767385482788086e-01
2.646000000000000000e+03 1.283138370513916016e+01 3.514543533325195312e+01 -1.326477080583572388e-01 7.567573785781860352e-01 1.872329115867614746e-01 -1.835417747497558594e-01
2.647000000000000000e+03 2.461205863952636719e+01 -6.242545604705810547e+00 1.441173553466796875e+00 3.826785564422607422e+00 1.580387711524963379e+00 3.039387226104736328e+00
2.648000000000000000e+03 2.320792388916015625e+01 -6.206954002380371094e+00 -8.715572208166122437e-02 4.993579387664794922e+00 1.471927165985107422e+00 2.491583824157714844e+00
2.649000000000000000e+03 2.336263084411621094e+01 -4.986923217773437500e+00 -5.985835194587707520e-01 3.968156576156616211e+00 1.010871887207031250e+00 1.611083865165710449e+00
2.650000000000000000e+03 2.355227279663085938e+01 -3.091071367263793945e+00 -7.236928939819335938e-01 3.131970643997192383e+00 7.224833369255065918e-01 9.063905477523803711e-01
2.651000000000000000e+03 2.559281539916992188e+01 -7.328271389007568359e+00 3.545869588851928711e+00 2.180885076522827148e+00 1.718026399612426758e+00 2.841500282287597656e+00
2.652000000000000000e+03 2.479271888732910156e+01 -5.840202331542968750e+00 1.017555475234985352e+00 3.779682159423828125e+00 1.439171314239501953e+00 2.773623704910278320e+00
2.653000000000000000e+03 2.589379882812500000e+01 -8.276187896728515625e+00 4.366923809051513672e+00 1.059301495552062988e+00 1.627867579460144043e+00 1.781617403030395508e+00
2.654000000000000000e+03 2.453292465209960938e+01 -6.740022659301757812e+00 2.146159172058105469e+00 3.792738914489746094e+00 1.781669378280639648e+00 3.491555690765380859e+00
2.655000000000000000e+03 2.595935630798339844e+01 -7.864374160766601562e+00 4.000247001647949219e+00 1.479107975959777832e+00 1.643806576728820801e+00 2.145449161529541016e+00
2.656000000000000000e+03 2.282772445678710938e+01 -6.974213123321533203e-01 -5.941546559333801270e-01 2.253292322158813477e+00 4.977413117885589600e-01 3.380233049392700195e-01
2.657000000000000000e+03 2.240743637084960938e+01 -1.434619665145874023e+00 -7.487618327140808105e-01 2.144078254699707031e+00 4.185948967933654785e-01 3.488917350769042969e-01
2.658000000000000000e+03 2.221969604492187500e+01 -3.124152898788452148e+00 -9.804155826568603516e-01 2.405544519424438477e+00 4.275386631488800049e-01 5.165118575096130371e-01
2.659000000000000000e+03 2.294701194763183594e+01 -1.833979368209838867e+00 -7.172045707702636719e-01 2.517090559005737305e+00 5.399658083915710449e-01 5.103855133056640625e-01
2.660000000000000000e+03 2.304557991027832031e+01 -2.821799278259277344e+00 -8.211573958396911621e-01 2.812216281890869141e+00 5.973176956176757812e-01 6.846191287040710449e-01
2.661000000000000000e+03 2.212544059753417969e+01 -3.314721882343292236e-01 -5.782203674316406250e-01 1.885003566741943359e+00 3.920349776744842529e-01 2.414595484733581543e-01
2.662000000000000000e+03 1.319591999053955078e+01 -7.935331344604492188e+00 2.674898803234100342e-01 1.192138075828552246e+00 4.378883838653564453e-01 9.371519684791564941e-01
2.663000000000000000e+03 1.290068340301513672e+01 -7.095372200012207031e+00 -2.191100716590881348e-01 1.070430397987365723e+00 2.553960978984832764e-01 6.498217582702636719e-01
2.664000000000000000e+03 2.687143898010253906e+01 -9.137627601623535156e+00 3.595030784606933594e+00 5.379769802093505859e-01 1.239902257919311523e+00 4.425890445709228516e-01
2.665000000000000000e+03 2.729586410522460938e+01 -9.740805625915527344e+00 2.876910686492919922e+00 4.480672180652618408e-01 9.974933266639709473e-01 -1.804170012474060059e-01
2.666000000000000000e+03 1.118778133392333984e+01 -8.769026756286621094e+00 1.974457502365112305e-01 1.953003048896789551e+00 6.451346278190612793e-01 2.920872569084167480e-01
2.667000000000000000e+03 1.041582679748535156e+01 -7.516131877899169922e+00 -3.523246943950653076e-01 1.572857379913330078e+00 3.661597967147827148e-01 -1.475740075111389160e-01
2.668000000000000000e+03 2.774676132202148438e+01 -1.041598606109619141e+01 2.034905672073364258e+00 4.730929732322692871e-01 7.523996233940124512e-01 -6.714856028556823730e-01
2.669000000000000000e+03 2.068469810485839844e+01 4.167683601379394531e+00 1.060609742999076843e-01 1.158675312995910645e+00 3.794208765029907227e-01 3.628409653902053833e-02
2.670000000000000000e+03 2.878206253051757812e+01 -9.258008003234863281e+00 2.242821931838989258e+00 8.951064944267272949e-01 9.413785338401794434e-01 -2.550990879535675049e-01
2.671000000000000000e+03 1.875750160217285156e+01 5.191762924194335938e+00 2.050300687551498413e-01 6.099938750267028809e-01 2.445071786642074585e-01 9.046828746795654297e-02
2.672000000000000000e+03 1.846480560302734375e+01 4.156043052673339844e+00 6.538892537355422974e-02 4.643721282482147217e-01 1.589283198118209839e-01 1.272429972887039185e-01
2.673000000000000000e+03 2.269109535217285156e+01 -1.224255934357643127e-01 -5.143836140632629395e-01 2.124830007553100586e+00 4.831339120864868164e-01 2.786342799663543701e-01
2.674000000000000000e+03 2.253142166137695312e+01 1.114426016807556152e+00 -3.167818486690521240e-01 1.948916435241699219e+00 4.896403849124908447e-01 1.893926113843917847e-01
2.675000000000000000e+03 1.842397499084472656e+01 5.957063198089599609e+00 3.100168406963348389e-01 5.662028193473815918e-01 2.628659009933471680e-01 9.274821728467941284e-02
2.676000000000000000e+03 1.138543701171875000e+01 7.513443946838378906e+00 2.104610502719879150e-01 -4.254452586174011230e-01 -6.449525803327560425e-02 5.411733388900756836e-01
2.677000000000000000e+03 1.241623210906982422e+01 7.939409255981445312e+00 2.998761534690856934e-01 -3.211846351623535156e-01 -6.392546463757753372e-03 4.585916399955749512e-01
2.678000000000000000e+03 1.292975139617919922e+01 8.688343048095703125e+00 3.690466880798339844e-01 -2.434988617897033691e-01 3.766434267163276672e-02 4.032724201679229736e-01
2.679000000000000000e+03 2.120813751220703125e+01 1.671685695648193359e+00 -2.847162783145904541e-01 1.362088561058044434e+00 3.232116997241973877e-01 9.578825533390045166e-02
2.680000000000000000e+03 2.164889526367187500e+01 2.923779249191284180e+00 -6.744095683097839355e-02 1.517460584640502930e+00 4.350059032440185547e-01 6.955517828464508057e-02
2.681000000000000000e+03 3.731602096557617188e+01 -9.326761245727539062e+00 -1.314147561788558960e-01 4.265377044677734375e+00 1.240188598632812500e+00 -1.901661396026611328e+00
2.682000000000000000e+03 3.932907485961914062e+01 -5.027214050292968750e+00 -1.641356050968170166e-01 5.205374240875244141e+00 1.512371659278869629e+00 -1.300153851509094238e+00
2.683000000000000000e+03 1.902101325988769531e+01 7.176168441772460938e+00 4.569574296474456787e-01 7.945352792739868164e-01 3.754478096961975098e-01 3.366851061582565308e-02
2.684000000000000000e+03 2.955407714843750000e+01 -9.172917366027832031e+00 1.851718068122863770e+00 1.164462089538574219e+00 9.048540592193603516e-01 -3.850534260272979736e-01
2.685000000000000000e+03 3.375530242919921875e+01 -2.066212415695190430e+00 5.456312894821166992e-01 4.232023715972900391e+00 1.433296561241149902e+00 -6.601691246032714844e-02
2.686000000000000000e+03 3.828162384033203125e+01 -4.862101078033447266e+00 -4.663794487714767456e-02 5.000640869140625000e+00 1.486200928688049316e+00 -1.195558309555053711e+00
2.687000000000000000e+03 3.709895706176757812e+01 -3.498658895492553711e+00 1.748740375041961670e-01 4.866181850433349609e+00 1.512316703796386719e+00 -8.526045083999633789e-01
2.688000000000000000e+03 3.805002212524414062e+01 -3.153146028518676758e+00 6.986187398433685303e-02 5.176421642303466797e+00 1.573885083198547363e+00 -9.689008593559265137e-01
2.689000000000000000e+03 9.855836868286132812e+00 8.547788619995117188e+00 2.120593488216400146e-01 -4.527015984058380127e-01 -7.219268381595611572e-02 5.524442791938781738e-01
2.690000000000000000e+03 3.263971328735351562e+01 -9.390686988830566406e+00 8.357616662979125977e-01 2.130272865295410156e+00 8.898103237152099609e-01 -1.178580880165100098e+00
2.691000000000000000e+03 3.125357437133789062e+01 -9.550727844238281250e+00 1.159038305282592773e+00 1.568736791610717773e+00 8.183325529098510742e-01 -8.874375224113464355e-01
2.692000000000000000e+03 1.142428684234619141e+01 1.445108413696289062e+01 4.362817704677581787e-01 -9.358628839254379272e-02 1.028086394071578979e-01 1.933756768703460693e-01
2.693000000000000000e+03 3.475009155273437500e+01 -1.045548915863037109e+01 2.899315059185028076e-01 2.839456558227539062e+00 9.388164281845092773e-01 -1.761065602302551270e+00
2.694000000000000000e+03 2.204067611694335938e+01 3.515121221542358398e+00 4.842054471373558044e-02 1.665574669837951660e+00 5.141985416412353516e-01 5.373249202966690063e-02
2.695000000000000000e+03 9.857652664184570312e+00 1.103295898437500000e+01 3.173682093620300293e-01 -3.809581398963928223e-01 -1.907697506248950958e-02 4.268730878829956055e-01
2.696000000000000000e+03 1.049575996398925781e+01 1.198113632202148438e+01 3.636233806610107422e-01 -3.029876649379730225e-01 1.819072104990482330e-02 3.588842749595642090e-01
2.697000000000000000e+03 3.877057647705078125e+01 -1.104107284545898438e+01 -5.361064672470092773e-01 4.926469802856445312e+00 1.317108988761901855e+00 -2.275829553604125977e+00
2.698000000000000000e+03 3.556791687011718750e+01 -1.014036750793457031e+01 1.669502258300781250e-01 3.292118310928344727e+00 1.037720561027526855e+00 -1.889237999916076660e+00
2.699000000000000000e+03 1.357782459259033203e+01 8.008417129516601562e+00 3.409008383750915527e-01 -2.281109988689422607e-01 3.383695706725120544e-02 3.842160403728485107e-01
2.700000000000000000e+03 1.426282882690429688e+01 7.465749263763427734e+00 3.366257548332214355e-01 -1.702114194631576538e-01 4.992429912090301514e-02 3.617061376571655273e-01
2.701000000000000000e+03 9.239348411560058594e+00 -7.283327102661132812e+00 -4.434133470058441162e-01 1.406873703002929688e+00 2.890380918979644775e-01 -4.621014595031738281e-01
2.702000000000000000e+03 4.747853469848632812e+01 -3.265245437622070312e+01 -3.393965587019920349e-02 6.718275070190429688e+00 2.005300521850585938e+00 -1.356106042861938477e+00
2.703000000000000000e+03 1.047907161712646484e+01 1.483981990814208984e+01 3.899537324905395508e-01 -1.957567036151885986e-01 5.825911462306976318e-02 2.142444998025894165e-01
2.704000000000000000e+03 9.029392242431640625e+00 2.166723442077636719e+01 1.988839060068130493e-01 -2.055281549692153931e-01 -1.993271289393305779e-03 -3.853867202997207642e-02
2.705000000000000000e+03 3.854947280883789062e+01 -1.007085418701171875e+01 -4.279414415359497070e-01 4.818466186523437500e+00 1.317157506942749023e+00 -2.123086929321289062e+00
2.706000000000000000e+03 3.950206375122070312e+01 -9.958244323730468750e+00 -6.470919251441955566e-01 5.282670974731445312e+00 1.390673637390136719e+00 -2.018234729766845703e+00
2.707000000000000000e+03 4.088858032226562500e+01 -9.389454841613769531e+00 -7.724201679229736328e-01 5.620972156524658203e+00 1.454565644264221191e+00 -1.764673709869384766e+00
2.708000000000000000e+03 3.607146835327148438e+01 1.576708555221557617e+00 5.074981451034545898e-01 5.482590675354003906e+00 1.797026634216308594e+00 -2.365878671407699585e-01
2.709000000000000000e+03 3.202242279052734375e+01 -8.695759773254394531e+00 1.122715353965759277e+00 2.052829742431640625e+00 9.526635408401489258e-01 -8.678069114685058594e-01
2.710000000000000000e+03 3.767263793945312500e+01 4.141665697097778320e-01 3.239626288414001465e-01 5.709007263183593750e+00 1.809890985488891602e+00 -5.826814770698547363e-01
2.711000000000000000e+03 3.394464492797851562e+01 6.446053504943847656e+00 1.135132312774658203e+00 5.294083118438720703e+00 1.928764581680297852e+00 4.614097066223621368e-03
2.712000000000000000e+03 9.400203704833984375e+00 1.002387714385986328e+01 2.648830711841583252e-01 -4.370273351669311523e-01 -5.164327472448348999e-02 4.852164089679718018e-01
2.713000000000000000e+03 1.174642848968505859e+01 8.379208564758300781e+00 2.997515499591827393e-01 -3.559455871582031250e-01 -1.685821264982223511e-02 4.812321960926055908e-01
2.714000000000000000e+03 3.217939376831054688e+01 1.236650753021240234e+01 1.439753413200378418e+00 4.772642612457275391e+00 1.863718748092651367e+00 -3.610632717609405518e-01
2.715000000000000000e+03 3.766025924682617188e+01 -1.035646057128906250e+01 -2.951605021953582764e-01 4.365503787994384766e+00 1.221102952957153320e+00 -2.114989519119262695e+00
2.716000000000000000e+03 3.379426574707031250e+01 1.512188816070556641e+01 1.425044298171997070e+00 5.413817882537841797e+00 2.051658630371093750e+00 -5.335973501205444336e-01
2.717000000000000000e+03 3.303799819946289062e+01 9.496148109436035156e+00 1.441522717475891113e+00 5.088991641998291016e+00 1.959154367446899414e+00 -1.630327105522155762e-01
2.718000000000000000e+03 3.192200469970703125e+01 1.109803009033203125e+01 1.426609158515930176e+00 4.691596508026123047e+00 1.835461735725402832e+00 -2.761870324611663818e-01
2.719000000000000000e+03 8.052725791931152344e+00 2.032513236999511719e+01 1.869167536497116089e-01 -3.909155428409576416e-01 -6.119963899254798889e-02 2.807869389653205872e-02
2.720000000000000000e+03 1.201658058166503906e+01 2.111153411865234375e+01 3.054274618625640869e-01 2.207309156656265259e-01 1.578475087881088257e-01 -1.006165817379951477e-01
2.721000000000000000e+03 3.503394699096679688e+01 4.892338752746582031e+00 9.574298262596130371e-01 5.580126762390136719e+00 1.961266875267028809e+00 -1.206210721284151077e-02
2.722000000000000000e+03 3.536795806884765625e+01 2.517188072204589844e+00 6.149982810020446777e-01 5.434024333953857422e+00 1.814706802368164062e+00 -8.374258875846862793e-02
2.723000000000000000e+03 1.340615272521972656e+01 2.340699195861816406e+01 2.763119637966156006e-01 5.504678487777709961e-01 2.480339407920837402e-01 -2.228132337331771851e-01
2.724000000000000000e+03 1.234139633178710938e+01 2.776590919494628906e+01 8.770281821489334106e-02 5.045067667961120605e-01 1.776628643274307251e-01 -2.531302273273468018e-01
2.725000000000000000e+03 3.091935920715332031e+01 1.495217132568359375e+01 1.295151233673095703e+00 4.356947898864746094e+00 1.695629715919494629e+00 -5.253294110298156738e-01
2.726000000000000000e+03 2.828980636596679688e+01 1.793487739562988281e+01 9.987613558769226074e-01 3.574183464050292969e+00 1.371883392333984375e+00 -6.441802382469177246e-01
2.727000000000000000e+03 2.862515640258789062e+01 1.675228309631347656e+01 1.087792038917541504e+00 3.652413845062255859e+00 1.422061800956726074e+00 -6.044629216194152832e-01
2.728000000000000000e+03 3.284528732299804688e+01 2.601300811767578125e+01 6.300465762615203857e-02 4.643342494964599609e+00 1.411904215812683105e+00 -6.178986430168151855e-01
2.729000000000000000e+03 4.986457824707031250e+01 -2.196330261230468750e+01 1.833566904067993164e+00 4.839331150054931641e+00 2.001869440078735352e+00 -1.641130089759826660e+00
2.730000000000000000e+03 9.240513801574707031e+00 2.046731758117675781e+01 2.242948114871978760e-01 -2.062551677227020264e-01 5.411895457655191422e-03 5.011803470551967621e-03
2.731000000000000000e+03 1.052642917633056641e+01 2.076470184326171875e+01 2.692606747150421143e-01 -6.389883346855640411e-03 7.886123657226562500e-02 -4.879782348871231079e-02
2.732000000000000000e+03 2.523474502563476562e+01 -6.532739639282226562e+00 2.209340095520019531e+00 3.145986318588256836e+00 1.606597900390625000e+00 3.019292354583740234e+00
2.733000000000000000e+03 2.603096961975097656e+01 -7.416065216064453125e+00 3.496939182281494141e+00 1.780599474906921387e+00 1.583261609077453613e+00 2.366028308868408203e+00
2.734000000000000000e+03 2.547846794128417969e+01 -6.804356098175048828e+00 2.694483041763305664e+00 2.728621482849121094e+00 1.626931309700012207e+00 2.936934232711791992e+00
2.735000000000000000e+03 2.503268814086914062e+01 -6.178664684295654297e+00 1.657846927642822266e+00 3.427634477615356445e+00 1.525644421577453613e+00 2.918171405792236328e+00
2.736000000000000000e+03 2.417127799987792969e+01 -6.212181091308593750e+00 9.434522390365600586e-01 4.311501979827880859e+00 1.576486229896545410e+00 3.080302953720092773e+00
2.737000000000000000e+03 2.642427444458007812e+01 -7.893041610717773438e+00 3.600876808166503906e+00 1.293538451194763184e+00 1.468324542045593262e+00 1.742720127105712891e+00
2.738000000000000000e+03 2.312082672119140625e+01 -3.248341083526611328e+00 -8.517785668373107910e-01 2.988467931747436523e+00 6.410068273544311523e-01 8.033678531646728516e-01
2.739000000000000000e+03 2.270921134948730469e+01 -3.392177820205688477e+00 -9.232895970344543457e-01 2.774274349212646484e+00 5.552954077720642090e-01 6.872838735580444336e-01
2.740000000000000000e+03 2.369757461547851562e+01 -5.356860637664794922e+00 -2.681948244571685791e-01 4.206828594207763672e+00 1.181590199470520020e+00 2.047128677368164062e+00
2.741000000000000000e+03 2.356752014160156250e+01 -5.996175765991210938e+00 7.793752104043960571e-02 4.701683998107910156e+00 1.433886408805847168e+00 2.588301181793212891e+00
2.742000000000000000e+03 2.384358596801757812e+01 -4.666750907897949219e+00 -4.366936087608337402e-01 3.816743373870849609e+00 1.014014959335327148e+00 1.673798203468322754e+00
2.743000000000000000e+03 2.341223907470703125e+01 -1.739770889282226562e+00 -6.521660089492797852e-01 2.717145442962646484e+00 6.194938421249389648e-01 5.934593081474304199e-01
2.744000000000000000e+03 2.291489982604980469e+01 -1.272668361663818359e+00 -6.760800480842590332e-01 2.385043382644653320e+00 5.126889944076538086e-01 4.157163500785827637e-01
2.745000000000000000e+03 2.325937652587890625e+01 1.047568544745445251e-01 -4.215514361858367920e-01 2.339216232299804688e+00 5.752994418144226074e-01 3.239068388938903809e-01
2.746000000000000000e+03 2.262630271911621094e+01 -2.965052604675292969e+00 -9.153646826744079590e-01 2.605165243148803711e+00 5.069401860237121582e-01 6.092252731323242188e-01
2.747000000000000000e+03 2.330233573913574219e+01 -4.028073310852050781e+00 -7.967087030410766602e-01 3.419648885726928711e+00 7.868820428848266602e-01 1.114353537559509277e+00
2.748000000000000000e+03 2.348001480102539062e+01 -1.135627150535583496e+00 -5.673218965530395508e-01 2.619209289550781250e+00 6.155661940574645996e-01 5.008217692375183105e-01
2.749000000000000000e+03 2.298295593261718750e+01 -2.351177930831909180e+00 -7.828193902969360352e-01 2.655299901962280273e+00 5.617441534996032715e-01 5.927891135215759277e-01
2.750000000000000000e+03 2.809694862365722656e+01 -9.265336036682128906e+00 2.558015823364257812e+00 7.226935029029846191e-01 9.842128157615661621e-01 -6.813327968120574951e-02
2.751000000000000000e+03 2.772781562805175781e+01 -8.223896980285644531e+00 2.933998346328735352e+00 1.061084270477294922e+00 1.198524713516235352e+00 7.266339063644409180e-01
2.752000000000000000e+03 1.342846202850341797e+01 -7.355699062347412109e+00 2.562504261732101440e-02 9.743989109992980957e-01 3.000071644783020020e-01 8.441614508628845215e-01
2.753000000000000000e+03 2.881099891662597656e+01 -8.690553665161132812e+00 2.274535655975341797e+00 1.075659513473510742e+00 1.005058526992797852e+00 1.442498806864023209e-02
2.754000000000000000e+03 1.176767730712890625e+01 -8.294069290161132812e+00 8.837009221315383911e-02 1.750833630561828613e+00 5.517610907554626465e-01 4.452224373817443848e-01
2.755000000000000000e+03 2.257273674011230469e+01 4.814973175525665283e-01 -4.186039865016937256e-01 2.029197692871093750e+00 4.831781089305877686e-01 2.319944649934768677e-01
2.756000000000000000e+03 2.212767410278320312e+01 2.548498630523681641e+00 -1.177336797118186951e-01 1.685645461082458496e+00 4.703735113143920898e-01 8.104728162288665771e-02
2.757000000000000000e+03 3.902453613281250000e+01 -7.464908123016357422e+00 -3.277831673622131348e-01 5.014019012451171875e+00 1.405870795249938965e+00 -1.588343143463134766e+00
2.758000000000000000e+03 3.827097702026367188e+01 -8.965373039245605469e+00 -3.400682806968688965e-01 4.729825973510742188e+00 1.316927194595336914e+00 -1.873056650161743164e+00
2.759000000000000000e+03 3.642906188964843750e+01 -1.658015251159667969e+00 2.993483841419219971e-01 5.040425300598144531e+00 1.601932048797607422e+00 -5.178242921829223633e-01
2.760000000000000000e+03 3.596558761596679688e+01 -4.541739463806152344e+00 3.147310912609100342e-01 4.384898662567138672e+00 1.409888863563537598e+00 -7.989078164100646973e-01
2.761000000000000000e+03 3.518473815917968750e+01 -9.327416419982910156e+00 3.039303123950958252e-01 3.251149654388427734e+00 1.066524028778076172e+00 -1.599587917327880859e+00
2.762000000000000000e+03 9.501692771911621094e+00 7.726121425628662109e+00 1.356342434883117676e-01 -4.771343767642974854e-01 -1.024500429630279541e-01 5.970150828361511230e-01
2.763000000000000000e+03 1.924837303161621094e+01 6.333309650421142578e+00 3.663919270038604736e-01 8.110951185226440430e-01 3.532461225986480713e-01 4.149965569376945496e-02
2.764000000000000000e+03 3.063795280456542969e+01 -8.182696342468261719e+00 1.557023525238037109e+00 1.725154399871826172e+00 9.846534132957458496e-01 -3.316670358180999756e-01
2.765000000000000000e+03 1.950409698486328125e+01 5.523131370544433594e+00 2.733147144317626953e-01 8.390092849731445312e-01 3.336971998214721680e-01 4.410472139716148376e-02
2.766000000000000000e+03 1.786964988708496094e+01 7.677886962890625000e+00 4.686069190502166748e-01 5.186421275138854980e-01 2.961747050285339355e-01 8.429770916700363159e-02
2.767000000000000000e+03 2.760967445373535156e+01 -8.708950996398925781e+00 3.012284994125366211e+00 8.176637291908264160e-01 1.148984551429748535e+00 4.778042137622833252e-01
2.768000000000000000e+03 2.746117782592773438e+01 -9.222679138183593750e+00 3.062058687210083008e+00 6.259464025497436523e-01 1.106401443481445312e+00 1.167402863502502441e-01
2.769000000000000000e+03 1.696746444702148438e+01 7.272840023040771484e+00 4.067222476005554199e-01 2.948520779609680176e-01 2.104723006486892700e-01 1.622772514820098877e-01
2.770000000000000000e+03 3.340536117553710938e+01 -8.628247261047363281e+00 7.727335095405578613e-01 2.649834632873535156e+00 1.026770472526550293e+00 -1.168072938919067383e+00
2.771000000000000000e+03 3.831521224975585938e+01 -4.029905796051025391e+00 -3.535278374329209328e-03 5.132856845855712891e+00 1.538796424865722656e+00 -1.072397828102111816e+00
2.772000000000000000e+03 3.614543533325195312e+01 -3.660370826721191406e+00 2.919575273990631104e-01 4.590222835540771484e+00 1.464654088020324707e+00 -7.048471570014953613e-01
2.773000000000000000e+03 2.142381858825683594e+01 5.285934925079345703e+00 2.750038802623748779e-01 1.437856554985046387e+00 5.138581395149230957e-01 -2.047630259767174721e-03
2.774000000000000000e+03 8.541472434997558594e+00 -1.068476390838623047e+01 4.766477048397064209e-01 2.288464546203613281e+00 8.295336961746215820e-01 -4.067400395870208740e-01
2.775000000000000000e+03 1.194571113586425781e+01 1.060590457916259766e+01 4.064783155918121338e-01 -2.202687114477157593e-01 5.586287751793861389e-02 3.605904579162597656e-01
2.776000000000000000e+03 3.635129547119140625e+01 8.212029933929443359e-03 3.779048025608062744e-01 5.309271335601806641e+00 1.706152796745300293e+00 -3.880364000797271729e-01
2.777000000000000000e+03 1.062750244140625000e+01 1.368186759948730469e+01 3.778610825538635254e-01 -2.332913130521774292e-01 4.337092861533164978e-02 2.743035554885864258e-01
2.778000000000000000e+03 1.584230422973632812e+01 7.789350509643554688e+00 4.108960926532745361e-01 9.482093900442123413e-02 1.517151147127151489e-01 2.230346202850341797e-01
2.779000000000000000e+03 1.477462577819824219e+01 8.201776504516601562e+00 4.131233692169189453e-01 -2.986208349466323853e-02 1.149783879518508911e-01 2.839525043964385986e-01
2.780000000000000000e+03 1.101114559173583984e+01 8.881394386291503906e+00 2.955752611160278320e-01 -3.809570372104644775e-01 -2.561453357338905334e-02 4.892503619194030762e-01
2.781000000000000000e+03 3.157421302795410156e+01 -7.859220027923583984e+00 1.310875773429870605e+00 2.090077638626098633e+00 1.020285964012145996e+00 -4.987236559391021729e-01
2.782000000000000000e+03 3.044416809082031250e+01 -9.163005828857421875e+00 1.549029707908630371e+00 1.417603611946105957e+00 8.899899721145629883e-01 -5.996569991111755371e-01
2.783000000000000000e+03 1.063766574859619141e+01 1.932330703735351562e+01 3.083389103412628174e-01 -3.322688490152359009e-02 8.253360539674758911e-02 6.564112845808267593e-03
2.784000000000000000e+03 1.063039875030517578e+01 1.784555053710937500e+01 3.547761738300323486e-01 -7.043100148439407349e-02 8.530355244874954224e-02 7.036239653825759888e-02
2.785000000000000000e+03 1.204484176635742188e+01 1.949973678588867188e+01 3.709345757961273193e-01 1.899356842041015625e-01 1.682610809803009033e-01 -4.529842361807823181e-02
2.786000000000000000e+03 3.254180908203125000e+01 6.747598648071289062e+00 1.099733114242553711e+00 4.852222919464111328e+00 1.785586833953857422e+00 4.351087287068367004e-02
2.787000000000000000e+03 3.538932800292968750e+01 6.247847080230712891e-01 4.761372506618499756e-01 5.159453868865966797e+00 1.690677285194396973e+00 -1.691362410783767700e-01
2.788000000000000000e+03 3.576368713378906250e+01 -9.164818525314331055e-01 3.773819208145141602e-01 4.999336242675781250e+00 1.613015532493591309e+00 -3.352270126342773438e-01
2.789000000000000000e+03 3.232999038696289062e+01 1.368923282623291016e+01 1.429507255554199219e+00 4.831071376800537109e+00 1.878173589706420898e+00 -4.624112546443939209e-01
2.790000000000000000e+03 3.143267250061035156e+01 8.460495948791503906e+00 1.214082121849060059e+00 4.489714622497558594e+00 1.711139082908630371e+00 -5.645754188299179077e-02
2.791000000000000000e+03 3.230406951904296875e+01 1.513662433624267578e+01 1.352307200431823730e+00 4.842635631561279297e+00 1.858482956886291504e+00 -5.282100439071655273e-01
2.792000000000000000e+03 3.055802726745605469e+01 1.636712265014648438e+01 1.179657816886901855e+00 4.232619762420654297e+00 1.623683214187622070e+00 -5.933355093002319336e-01
2.793000000000000000e+03 2.969301605224609375e+01 1.762639427185058594e+01 1.050155520439147949e+00 3.976758718490600586e+00 1.508074283599853516e+00 -6.374500989913940430e-01
2.794000000000000000e+03 3.054889297485351562e+01 1.891854476928710938e+01 9.759617447853088379e-01 4.210751533508300781e+00 1.556014060974121094e+00 -6.799288988113403320e-01
2.795000000000000000e+03 1.188525199890136719e+01 1.200997543334960938e+01 4.267104566097259521e-01 -1.621081680059432983e-01 7.938068360090255737e-02 3.026357293128967285e-01
2.796000000000000000e+03 1.126494121551513672e+01 1.280041599273681641e+01 4.048470258712768555e-01 -1.998426616191864014e-01 6.150130927562713623e-02 2.962831258773803711e-01
2.797000000000000000e+03 4.933845901489257812e+01 -3.830937576293945312e+01 -1.500825762748718262e+00 6.311505317687988281e+00 1.443203806877136230e+00 -2.172872424125671387e-01
2.798000000000000000e+03 5.267395401000976562e+01 -4.122917556762695312e+01 -1.537621021270751953e+00 5.942099571228027344e+00 1.321343660354614258e+00 -1.734904646873474121e-01
2.799000000000000000e+03 4.012804794311523438e+01 -7.487346649169921875e+00 -4.825636446475982666e-01 5.313956260681152344e+00 1.449417710304260254e+00 -1.624093770980834961e+00
2.800000000000000000e+03 3.789711761474609375e+01 -5.811556816101074219e+00 -3.457575291395187378e-02 4.786501884460449219e+00 1.425577878952026367e+00 -1.290439963340759277e+00
2.801000000000000000e+03 2.447687530517578125e+01 -5.479875087738037109e+00 4.605003595352172852e-01 3.923622846603393555e+00 1.315236926078796387e+00 2.458063125610351562e+00
2.802000000000000000e+03 2.652102088928222656e+01 -7.409481525421142578e+00 3.264704704284667969e+00 1.639816164970397949e+00 1.471356272697448730e+00 1.950032234191894531e+00
2.803000000000000000e+03 2.350358772277832031e+01 -4.361322402954101562e+00 -6.681719422340393066e-01 3.631038188934326172e+00 8.888598680496215820e-01 1.355654001235961914e+00
2.804000000000000000e+03 2.282695007324218750e+01 -4.234778404235839844e+00 -9.252792000770568848e-01 3.227845430374145508e+00 6.907698512077331543e-01 9.431107640266418457e-01
2.805000000000000000e+03 2.361278152465820312e+01 -3.488066434860229492e+00 -7.119570970535278320e-01 3.300658702850341797e+00 7.766104936599731445e-01 1.056294798851013184e+00
2.806000000000000000e+03 2.417958259582519531e+01 -4.266429901123046875e+00 -3.418752253055572510e-01 3.669046878814697266e+00 9.981514811515808105e-01 1.613299369812011719e+00
2.807000000000000000e+03 2.382155418395996094e+01 -1.732804179191589355e+00 -5.797763466835021973e-01 2.853848218917846680e+00 6.822215914726257324e-01 6.674535870552062988e-01
2.808000000000000000e+03 2.310712623596191406e+01 6.383593678474426270e-01 -3.742437660694122314e-01 2.224847316741943359e+00 5.551810860633850098e-01 2.637358903884887695e-01
2.809000000000000000e+03 2.343332672119140625e+01 -4.869621396064758301e-01 -4.995852708816528320e-01 2.497505664825439453e+00 5.993761420249938965e-01 4.136637151241302490e-01
2.810000000000000000e+03 2.403674697875976562e+01 -1.442439556121826172e-01 -3.778748810291290283e-01 2.674754619598388672e+00 6.890639066696166992e-01 4.594512283802032471e-01
2.811000000000000000e+03 1.553440380096435547e+01 8.666091918945312500e+00 4.695661365985870361e-01 9.800225496292114258e-02 1.702705174684524536e-01 2.140973657369613647e-01
2.812000000000000000e+03 2.731636619567871094e+01 -8.106829643249511719e+00 3.123605728149414062e+00 1.099438786506652832e+00 1.266913414001464844e+00 1.055725812911987305e+00
2.813000000000000000e+03 2.769972419738769531e+01 -7.790796279907226562e+00 2.829790353775024414e+00 1.299061775207519531e+00 1.238655567169189453e+00 1.032831668853759766e+00
2.814000000000000000e+03 2.948512840270996094e+01 -8.557408332824707031e+00 1.997195363044738770e+00 1.294965982437133789e+00 9.876483678817749023e-01 -1.071784347295761108e-01
2.815000000000000000e+03 2.824152755737304688e+01 -8.200977325439453125e+00 2.618732690811157227e+00 1.137455224990844727e+00 1.126856327056884766e+00 5.158798694610595703e-01
2.816000000000000000e+03 2.266903877258300781e+01 2.375404834747314453e+00 -1.133819296956062317e-01 1.921602606773376465e+00 5.424662232398986816e-01 1.291335076093673706e-01
2.817000000000000000e+03 2.256178474426269531e+01 1.763422250747680664e+00 -2.052606791257858276e-01 1.910915017127990723e+00 5.116962790489196777e-01 1.498972177505493164e-01
2.818000000000000000e+03 2.052522468566894531e+01 4.997629165649414062e+00 2.206383049488067627e-01 1.121069550514221191e+00 4.025123417377471924e-01 1.367184147238731384e-02
2.819000000000000000e+03 3.566990661621093750e+01 -6.666804790496826172e+00 3.253841400146484375e-01 3.923745632171630859e+00 1.274738907814025879e+00 -1.120496273040771484e+00
2.820000000000000000e+03 3.642142868041992188e+01 -9.740818023681640625e+00 7.470406126230955124e-04 3.789161443710327148e+00 1.136972546577453613e+00 -1.877369523048400879e+00
2.821000000000000000e+03 3.571655654907226562e+01 -2.199632644653320312e+00 3.642941713333129883e-01 4.720721244812011719e+00 1.525504589080810547e+00 -4.382991790771484375e-01
2.822000000000000000e+03 1.425426578521728516e+01 8.957984924316406250e+00 4.514780938625335693e-01 -5.239346995949745178e-02 1.197253838181495667e-01 2.920328676700592041e-01
2.823000000000000000e+03 1.123108577728271484e+01 1.123695278167724609e+01 3.860689401626586914e-01 -2.668635249137878418e-01 3.576162457466125488e-02 3.698726594448089600e-01
2.824000000000000000e+03 2.029971694946289062e+01 5.811153888702392578e+00 3.176724314689636230e-01 1.086082339286804199e+00 4.211264252662658691e-01 8.453660993836820126e-04
2.825000000000000000e+03 3.470160293579101562e+01 -8.614857673645019531e+00 4.863909184932708740e-01 3.179009199142456055e+00 1.099619984626770020e+00 -1.398575067520141602e+00
2.826000000000000000e+03 2.007120895385742188e+01 6.625743865966796875e+00 4.200595021247863770e-01 1.062333583831787109e+00 4.447179436683654785e-01 -3.001942066475749016e-03
2.827000000000000000e+03 1.992002868652343750e+01 7.471408843994140625e+00 5.008557438850402832e-01 1.050888657569885254e+00 4.655233025550842285e-01 -1.308753713965415955e-02
2.828000000000000000e+03 3.552719879150390625e+01 -5.324104785919189453e+00 3.733441531658172607e-01 4.107482910156250000e+00 1.344248175621032715e+00 -8.402175307273864746e-01
2.829000000000000000e+03 3.690803146362304688e+01 -5.103988170623779297e+00 1.563712656497955322e-01 4.566378116607666016e+00 1.416824817657470703e+00 -1.028019070625305176e+00
2.830000000000000000e+03 3.446144866943359375e+01 -9.798279762268066406e+00 4.369140565395355225e-01 2.862153053283691406e+00 9.897201657295227051e-01 -1.602853536605834961e+00
2.831000000000000000e+03 3.288523864746093750e+01 -7.964096069335937500e+00 9.243592619895935059e-01 2.591008901596069336e+00 1.054610490798950195e+00 -8.559666872024536133e-01
2.832000000000000000e+03 1.881388282775878906e+01 8.077949523925781250e+00 5.221553444862365723e-01 7.873116731643676758e-01 3.928401172161102295e-01 2.261336334049701691e-02
2.833000000000000000e+03 2.254588699340820312e+01 3.208995819091796875e+00 3.031166829168796539e-02 1.846502184867858887e+00 5.630441904067993164e-01 8.886615931987762451e-02
2.834000000000000000e+03 2.112754058837890625e+01 6.114760875701904297e+00 3.849819004535675049e-01 1.345353603363037109e+00 5.191006660461425781e-01 -1.853824593126773834e-02
2.835000000000000000e+03 1.068518352508544922e+01 1.036633300781250000e+01 3.416932225227355957e-01 -3.434668779373168945e-01 -5.320999771356582642e-04 4.264776110649108887e-01
2.836000000000000000e+03 2.814943504333496094e+01 -6.708810329437255859e+00 2.216480016708374023e+00 1.867421746253967285e+00 1.225170493125915527e+00 1.186912894248962402e+00
2.837000000000000000e+03 2.823841857910156250e+01 -7.686174392700195312e+00 2.534483909606933594e+00 1.404126524925231934e+00 1.181583166122436523e+00 8.080310225486755371e-01
2.838000000000000000e+03 1.352966690063476562e+01 9.630290985107421875e+00 4.505058228969573975e-01 -1.068326830863952637e-01 1.031019389629364014e-01 3.093149960041046143e-01
2.839000000000000000e+03 1.391024303436279297e+01 1.645220947265625000e+01 5.193190574645996094e-01 3.300499618053436279e-01 2.548107206821441650e-01 -3.653148422017693520e-03
2.840000000000000000e+03 1.192459964752197266e+01 1.797154617309570312e+01 3.982090353965759277e-01 1.128887087106704712e-01 1.533293128013610840e-01 1.983209140598773956e-02
2.841000000000000000e+03 3.688866424560546875e+01 -8.319592475891113281e+00 4.314579069614410400e-03 4.154285430908203125e+00 1.247579932212829590e+00 -1.626834511756896973e+00
2.842000000000000000e+03 3.242388916015625000e+01 -7.230777740478515625e+00 1.056160807609558105e+00 2.605443716049194336e+00 1.098481297492980957e+00 -5.848341584205627441e-01
2.843000000000000000e+03 3.299361801147460938e+01 1.900226235389709473e+00 6.242247819900512695e-01 4.673818111419677734e+00 1.589412927627563477e+00 1.906014233827590942e-01
2.844000000000000000e+03 3.504026412963867188e+01 3.696194171905517578e+00 8.027660846710205078e-01 5.493793964385986328e+00 1.888968110084533691e+00 -8.115769363939762115e-03
2.845000000000000000e+03 3.526607894897460938e+01 -3.510974884033203125e+00 4.105792939662933350e-01 4.386075019836425781e+00 1.438996195793151855e+00 -4.999468922615051270e-01
2.846000000000000000e+03 3.166994857788085938e+01 9.794885635375976562e+00 1.338572621345520020e+00 4.571196079254150391e+00 1.772930622100830078e+00 -1.552232801914215088e-01
2.847000000000000000e+03 1.188623046875000000e+01 1.650380134582519531e+01 4.333221316337585449e-01 4.404930397868156433e-02 1.432114243507385254e-01 8.435793220996856689e-02
2.848000000000000000e+03 1.298842525482177734e+01 1.418957805633544922e+01 5.115398168563842773e-01 8.408976346254348755e-02 1.786888837814331055e-01 1.342923939228057861e-01
2.849000000000000000e+03 1.210403060913085938e+01 1.353057193756103516e+01 4.619896113872528076e-01 -5.069911107420921326e-02 1.233871504664421082e-01 2.079905122518539429e-01
2.850000000000000000e+03 3.431734085083007812e+01 9.514498710632324219e-01 5.414103269577026367e-01 4.922970294952392578e+00 1.639314174652099609e+00 -4.250686615705490112e-03
2.851000000000000000e+03 3.415486145019531250e+01 -3.621290624141693115e-02 5.057155489921569824e-01 4.730843067169189453e+00 1.570967674255371094e+00 -3.198448568582534790e-02
2.852000000000000000e+03 3.375349807739257812e+01 3.546778917312622070e+00 7.710452079772949219e-01 5.043739318847656250e+00 1.744435429573059082e+00 1.069513037800788879e-01
2.853000000000000000e+03 3.026803588867187500e+01 1.012735843658447266e+01 1.239062190055847168e+00 4.100963592529296875e+00 1.602007746696472168e+00 -1.901268661022186279e-01
2.854000000000000000e+03 1.390958213806152344e+01 1.485936927795410156e+01 5.311831831932067871e-01 2.414147853851318359e-01 2.317793965339660645e-01 6.554902344942092896e-02
2.855000000000000000e+03 1.322676181793212891e+01 1.573598194122314453e+01 4.959040284156799316e-01 1.996195763349533081e-01 2.086570858955383301e-01 5.781920254230499268e-02
2.856000000000000000e+03 2.868580818176269531e+01 9.138428688049316406e+00 1.048331975936889648e+00 3.598964929580688477e+00 1.394189000129699707e+00 -1.139189302921295166e-01
2.857000000000000000e+03 1.229754734039306641e+01 2.511653137207031250e+01 1.892917603254318237e-01 4.245746731758117676e-01 1.841599345207214355e-01 -2.257104068994522095e-01
2.858000000000000000e+03 3.788570022583007812e+01 -7.771896362304687500e+00 -1.494170278310775757e-01 4.625829696655273438e+00 1.342923760414123535e+00 -1.621188998222351074e+00
2.859000000000000000e+03 2.982098007202148438e+01 7.541729927062988281e+00 1.004068255424499512e+00 3.957959890365600586e+00 1.488608479499816895e+00 2.040274441242218018e-02
2.860000000000000000e+03 3.221591949462890625e+01 5.347232818603515625e+00 9.195808768272399902e-01 4.681090831756591797e+00 1.680201530456542969e+00 1.341817229986190796e-01
2.861000000000000000e+03 2.921230125427246094e+01 1.567733669281005859e+01 1.155264139175415039e+00 3.732976913452148438e+00 1.466472387313842773e+00 -5.510991215705871582e-01
2.862000000000000000e+03 2.611643218994140625e+01 -6.993803024291992188e+00 2.960262298583984375e+00 2.169945240020751953e+00 1.539062261581420898e+00 2.461847305297851562e+00
2.863000000000000000e+03 2.614660263061523438e+01 -6.603500366210937500e+00 2.391744375228881836e+00 2.429073095321655273e+00 1.446245193481445312e+00 2.437272548675537109e+00
2.864000000000000000e+03 2.566129302978515625e+01 -6.262693881988525391e+00 1.965418815612792969e+00 2.901052951812744141e+00 1.459941506385803223e+00 2.634070634841918945e+00
2.865000000000000000e+03 2.880401802062988281e+01 -8.143561363220214844e+00 2.338375091552734375e+00 1.283042669296264648e+00 1.086425304412841797e+00 3.250172138214111328e-01
2.866000000000000000e+03 2.347256088256835938e+01 -2.677540540695190430e+00 -7.278317809104919434e-01 2.973188400268554688e+00 6.736069917678833008e-01 7.868397831916809082e-01
2.867000000000000000e+03 2.402476692199707031e+01 -1.198416709899902344e+00 -4.933958649635314941e-01 2.821783781051635742e+00 6.985163688659667969e-01 6.062378883361816406e-01
2.868000000000000000e+03 2.312882232666015625e+01 1.179112195968627930e+00 -2.636184394359588623e-01 2.204778194427490234e+00 5.823479294776916504e-01 2.297531664371490479e-01
2.869000000000000000e+03 2.878870391845703125e+01 -7.588203430175781250e+00 2.251395225524902344e+00 1.505817890167236328e+00 1.127163887023925781e+00 5.739175677299499512e-01
2.870000000000000000e+03 2.936759185791015625e+01 -8.055031776428222656e+00 2.077518701553344727e+00 1.431694030761718750e+00 1.052763819694519043e+00 1.590773165225982666e-01
2.871000000000000000e+03 3.129666519165039062e+01 -6.984680652618408203e+00 1.379265546798706055e+00 2.288562297821044922e+00 1.100348353385925293e+00 -1.459665894508361816e-01
2.872000000000000000e+03 2.819802474975585938e+01 -7.183457851409912109e+00 2.339156389236450195e+00 1.640576124191284180e+00 1.193919658660888672e+00 9.938417077064514160e-01
2.873000000000000000e+03 1.469462871551513672e+01 1.385479545593261719e+01 5.769427418708801270e-01 3.086189031600952148e-01 2.656684815883636475e-01 7.005581259727478027e-02
2.874000000000000000e+03 1.669900512695312500e+01 8.173261642456054688e+00 4.695123732089996338e-01 3.012576997280120850e-01 2.312310189008712769e-01 1.524638682603836060e-01
2.875000000000000000e+03 2.320184326171875000e+01 1.793041706085205078e+00 -1.680507808923721313e-01 2.187903165817260742e+00 6.059557199478149414e-01 2.047230452299118042e-01
2.876000000000000000e+03 2.152385711669921875e+01 4.389301776885986328e+00 1.698904931545257568e-01 1.467708945274353027e+00 4.912798404693603516e-01 1.542174629867076874e-02
2.877000000000000000e+03 1.307800865173339844e+01 1.095709133148193359e+01 4.715523719787597656e-01 -8.520647138357162476e-02 1.159037649631500244e-01 2.857379913330078125e-01
2.878000000000000000e+03 2.380446815490722656e+01 4.268552958965301514e-01 -3.263458907604217529e-01 2.509667396545410156e+00 6.549964547157287598e-01 3.560196757316589355e-01
2.879000000000000000e+03 2.355865097045898438e+01 9.526864886283874512e-01 -2.741639018058776855e-01 2.376618623733520508e+00 6.307364106178283691e-01 2.785453796386718750e-01
2.880000000000000000e+03 1.605354499816894531e+01 9.926177024841308594e+00 5.518798828125000000e-01 2.861978709697723389e-01 2.514233291149139404e-01 1.385472863912582397e-01
2.881000000000000000e+03 3.503818130493164062e+01 -4.164151191711425781e+00 4.674619436264038086e-01 4.135322093963623047e+00 1.380835175514221191e+00 -5.287891030311584473e-01
2.882000000000000000e+03 3.315055084228515625e+01 -6.590085983276367188e+00 8.691068291664123535e-01 3.027235746383666992e+00 1.168902754783630371e+00 -5.955434441566467285e-01
2.883000000000000000e+03 1.244198513031005859e+01 1.134523677825927734e+01 4.432094991207122803e-01 -1.424676030874252319e-01 9.022257477045059204e-02 3.073236644268035889e-01
2.884000000000000000e+03 2.236100959777832031e+01 5.750619888305664062e+00 3.605990707874298096e-01 1.731144785881042480e+00 6.275231242179870605e-01 -1.615203917026519775e-02
2.885000000000000000e+03 3.604872512817382812e+01 -2.824928283691406250e+00 3.028023838996887207e-01 4.759491920471191406e+00 1.518688321113586426e+00 -5.705651640892028809e-01
2.886000000000000000e+03 2.080292892456054688e+01 7.604250907897949219e+00 5.443837642669677734e-01 1.297562241554260254e+00 5.525838136672973633e-01 -4.910900816321372986e-02
2.887000000000000000e+03 1.760023880004882812e+01 8.588394165039062500e+00 5.222464799880981445e-01 5.251430869102478027e-01 3.142168521881103516e-01 7.692581415176391602e-02
2.888000000000000000e+03 3.439105606079101562e+01 -1.239972114562988281e+00 4.780400991439819336e-01 4.575337886810302734e+00 1.516013383865356445e+00 -1.331705898046493530e-01
2.889000000000000000e+03 3.117370986938476562e+01 7.145262241363525391e+00 1.061465144157409668e+00 4.376580715179443359e+00 1.631413817405700684e+00 4.695904254913330078e-02
2.890000000000000000e+03 1.146021747589111328e+01 9.763665199279785156e+00 3.599725067615509033e-01 -3.076432645320892334e-01 1.569877378642559052e-02 4.267053604125976562e-01
2.891000000000000000e+03 1.270004653930664062e+01 1.009255695343017578e+01 4.285010099411010742e-01 -1.695693582296371460e-01 7.767949253320693970e-02 3.483217358589172363e-01
2.892000000000000000e+03 1.681895065307617188e+01 1.042755889892578125e+01 6.062619686126708984e-01 4.880243539810180664e-01 3.282859027385711670e-01 6.828901171684265137e-02
2.893000000000000000e+03 3.250673675537109375e+01 3.099442243576049805e+00 7.095082998275756836e-01 4.654902935028076172e+00 1.609323382377624512e+00 2.052820324897766113e-01
2.894000000000000000e+03 1.268549442291259766e+01 1.264359855651855469e+01 4.787588715553283691e-01 -4.056549817323684692e-02 1.314580142498016357e-01 2.264826148748397827e-01
2.895000000000000000e+03 3.549634933471679688e+01 -8.033192634582519531e+00 3.152912259101867676e-01 3.612005949020385742e+00 1.178189158439636230e+00 -1.376825451850891113e+00
2.896000000000000000e+03 3.493608474731445312e+01 -3.856172859668731689e-01 4.547678232192993164e-01 4.859124183654785156e+00 1.594167709350585938e+00 -1.527376919984817505e-01
2.897000000000000000e+03 3.418056869506835938e+01 -7.952009201049804688e+00 6.070733666419982910e-01 3.106372117996215820e+00 1.114033579826354980e+00 -1.127608656883239746e+00
2.898000000000000000e+03 1.298680019378662109e+01 1.670320320129394531e+01 4.813509583473205566e-01 2.140163183212280273e-01 2.086101770401000977e-01 2.834336459636688232e-02
2.899000000000000000e+03 3.049474334716796875e+01 1.145565986633300781e+01 1.324350595474243164e+00 4.168237686157226562e+00 1.647776484489440918e+00 -2.855297327041625977e-01
2.900000000000000000e+03 2.885984611511230469e+01 1.043942737579345703e+01 1.154507160186767578e+00 3.644020557403564453e+00 1.439558267593383789e+00 -2.018522471189498901e-01
2.901000000000000000e+03 3.341348266601562500e+01 -5.467417836189270020e-02 5.426406860351562500e-01 4.534965515136718750e+00 1.523281812667846680e+00 1.102686822414398193e-01
2.902000000000000000e+03 3.325818634033203125e+01 8.407958149909973145e-01 5.693460106849670410e-01 4.620932579040527344e+00 1.557083606719970703e+00 1.564555466175079346e-01
2.903000000000000000e+03 3.088483619689941406e+01 1.262573242187500000e+01 1.352218985557556152e+00 4.311064720153808594e+00 1.698985099792480469e+00 -3.709582388401031494e-01
2.904000000000000000e+03 2.969558715820312500e+01 1.453343486785888672e+01 1.226640939712524414e+00 3.892600774765014648e+00 1.535772562026977539e+00 -4.886068701744079590e-01
2.905000000000000000e+03 1.447787666320800781e+01 1.760845375061035156e+01 5.235161781311035156e-01 4.783984422683715820e-01 3.005743920803070068e-01 -8.119643479585647583e-02
2.906000000000000000e+03 1.383169937133789062e+01 2.140497589111328125e+01 3.590542972087860107e-01 5.516291260719299316e-01 2.732050120830535889e-01 -1.817766427993774414e-01
2.907000000000000000e+03 1.513159847259521484e+01 9.608104705810546875e+00 5.087831616401672363e-01 1.181734725832939148e-01 1.880869865417480469e-01 2.154672145843505859e-01
2.908000000000000000e+03 3.093218994140625000e+01 2.040094566345214844e+01 8.062288761138916016e-01 4.366900444030761719e+00 1.551938772201538086e+00 -7.013164162635803223e-01
2.909000000000000000e+03 2.402188682556152344e+01 -2.931944131851196289e+00 -5.853507518768310547e-01 3.223905086517333984e+00 7.915662527084350586e-01 1.024429321289062500e+00
2.910000000000000000e+03 2.872982215881347656e+01 -7.042186737060546875e+00 2.149869680404663086e+00 1.745784163475036621e+00 1.168696165084838867e+00 8.019605278968811035e-01
2.911000000000000000e+03 2.699334144592285156e+01 -6.847739219665527344e+00 2.595810174942016602e+00 1.909099221229553223e+00 1.351472854614257812e+00 1.804921150207519531e+00
2.912000000000000000e+03 2.704843711853027344e+01 -7.365271568298339844e+00 2.908768177032470703e+00 1.549699783325195312e+00 1.337540388107299805e+00 1.595845818519592285e+00
2.913000000000000000e+03 2.579375267028808594e+01 -6.608353137969970703e+00 2.439917564392089844e+00 2.646434068679809570e+00 1.525905489921569824e+00 2.677290439605712891e+00
2.914000000000000000e+03 2.383837318420410156e+01 -4.089723110198974609e+00 -5.759189128875732422e-01 3.606348752975463867e+00 9.091289639472961426e-01 1.397586345672607422e+00
2.915000000000000000e+03 2.379234504699707031e+01 -2.130897045135498047e+00 -6.264348030090332031e-01 2.940795898437500000e+00 6.943083405494689941e-01 7.484956383705139160e-01
2.916000000000000000e+03 2.389972877502441406e+01 -2.508290529251098633e+00 -6.011670827865600586e-01 3.059008598327636719e+00 7.373524904251098633e-01 8.587844371795654297e-01
2.917000000000000000e+03 2.496672058105468750e+01 -5.170232295989990234e+00 5.656094551086425781e-01 3.642071485519409180e+00 1.262304306030273438e+00 2.301155090332031250e+00
2.918000000000000000e+03 2.431326103210449219e+01 -2.253502845764160156e+00 -5.008873939514160156e-01 3.109482765197753906e+00 7.825785875320434570e-01 8.932110071182250977e-01
2.919000000000000000e+03 2.457444953918457031e+01 2.830782532691955566e-01 -2.494896054267883301e-01 2.804423809051513672e+00 7.664802670478820801e-01 4.675226509571075439e-01
2.920000000000000000e+03 3.058293342590332031e+01 -7.287293434143066406e+00 1.589509963989257812e+00 2.032467603683471680e+00 1.086593270301818848e+00 -5.305577535182237625e-03
2.921000000000000000e+03 3.398034286499023438e+01 -4.786896228790283203e+00 6.471335887908935547e-01 3.721126317977905273e+00 1.310477972030639648e+00 -4.433147907257080078e-01
2.922000000000000000e+03 2.409618949890136719e+01 1.394993901252746582e+00 -1.688339263200759888e-01 2.499883174896240234e+00 6.993147134780883789e-01 2.827444374561309814e-01
2.923000000000000000e+03 3.361214447021484375e+01 -3.837388753890991211e+00 6.558833122253417969e-01 3.819828987121582031e+00 1.342713713645935059e+00 -2.135456204414367676e-01
2.924000000000000000e+03 2.435267639160156250e+01 8.144004344940185547e-01 -2.089738249778747559e-01 2.671470165252685547e+00 7.387488484382629395e-01 3.809398710727691650e-01
2.925000000000000000e+03 3.438044738769531250e+01 -5.456930160522460938e+00 5.975199341773986816e-01 3.676117420196533203e+00 1.282091140747070312e+00 -6.546903848648071289e-01
2.926000000000000000e+03 2.301268196105957031e+01 3.813795566558837891e+00 1.485071033239364624e-01 2.006255626678466797e+00 6.464288234710693359e-01 8.175721019506454468e-02
2.927000000000000000e+03 2.084621047973632812e+01 6.856907844543457031e+00 4.412950873374938965e-01 1.275701522827148438e+00 5.150989890098571777e-01 -3.350759297609329224e-02
2.928000000000000000e+03 1.982010078430175781e+01 8.408266067504882812e+00 5.802689194679260254e-01 1.057828903198242188e+00 4.914293587207794189e-01 -3.794150426983833313e-02
2.929000000000000000e+03 1.638852691650390625e+01 9.063373565673828125e+00 5.161150097846984863e-01 2.904259562492370605e-01 2.419622838497161865e-01 1.484309732913970947e-01
2.930000000000000000e+03 3.040585899353027344e+01 4.780118942260742188e+00 7.643951177597045898e-01 4.127744197845458984e+00 1.467641830444335938e+00 2.118953019380569458e-01
2.931000000000000000e+03 3.160030364990234375e+01 4.122941970825195312e+00 7.640113234519958496e-01 4.469977378845214844e+00 1.570196628570556641e+00 2.158914506435394287e-01
2.932000000000000000e+03 1.393741512298583984e+01 1.076113319396972656e+01 5.048783421516418457e-01 1.557469926774501801e-02 1.561359018087387085e-01 2.377499192953109741e-01
2.933000000000000000e+03 3.634076690673828125e+01 -5.943794727325439453e+00 2.428627610206604004e-01 4.258504390716552734e+00 1.350410103797912598e+00 -1.084473729133605957e+00
2.934000000000000000e+03 3.499839401245117188e+01 -6.020862102508544922e+00 4.966445863246917725e-01 3.778857469558715820e+00 1.282650589942932129e+00 -8.781923055648803711e-01
2.935000000000000000e+03 1.856503677368164062e+01 9.021349906921386719e+00 5.831079483032226562e-01 7.597905993461608887e-01 4.028695523738861084e-01 6.802130956202745438e-03
2.936000000000000000e+03 3.633019638061523438e+01 -7.424544334411621094e+00 1.886933147907257080e-01 4.030370712280273438e+00 1.265719175338745117e+00 -1.404789209365844727e+00
2.937000000000000000e+03 2.324593544006347656e+01 6.389534950256347656e+00 4.682016968727111816e-01 2.016360282897949219e+00 7.453685998916625977e-01 -2.505824528634548187e-02
2.938000000000000000e+03 2.271105766296386719e+01 7.094522476196289062e+00 5.239609479904174805e-01 1.835078597068786621e+00 7.077118754386901855e-01 -5.637279897928237915e-02
2.939000000000000000e+03 2.088379096984863281e+01 8.545596122741699219e+00 6.075094342231750488e-01 1.336843848228454590e+00 5.833060145378112793e-01 -7.224258035421371460e-02
2.940000000000000000e+03 3.265568542480468750e+01 -3.856276869773864746e-01 5.648368000984191895e-01 4.297458648681640625e+00 1.458688616752624512e+00 2.350592166185379028e-01
2.941000000000000000e+03 2.983325004577636719e+01 -6.723718643188476562e+00 1.744843721389770508e+00 2.040377616882324219e+00 1.135566353797912598e+00 4.219892024993896484e-01
2.942000000000000000e+03 3.198665237426757812e+01 1.466452598571777344e+00 5.855646729469299316e-01 4.380153179168701172e+00 1.489715456962585449e+00 3.051210939884185791e-01
2.943000000000000000e+03 3.005636215209960938e+01 8.811328887939453125e+00 1.136288881301879883e+00 4.022145748138427734e+00 1.547530412673950195e+00 -7.315913587808609009e-02
2.944000000000000000e+03 1.512548923492431641e+01 1.912582206726074219e+01 4.894880950450897217e-01 6.446261405944824219e-01 3.402342796325683594e-01 -1.643065959215164185e-01
2.945000000000000000e+03 1.356557178497314453e+01 1.950690841674804688e+01 4.287346899509429932e-01 4.262688159942626953e-01 2.565010488033294678e-01 -1.135737821459770203e-01
2.946000000000000000e+03 1.520615959167480469e+01 2.468881034851074219e+01 2.536988854408264160e-01 8.999719023704528809e-01 3.461012244224548340e-01 -3.059934973716735840e-01
2.947000000000000000e+03 3.534670257568359375e+01 -2.800090789794921875e+00 4.036115705966949463e-01 4.499680042266845703e+00 1.470987439155578613e+00 -4.693056941032409668e-01
2.948000000000000000e+03 1.399640369415283203e+01 1.200171089172363281e+01 5.339648127555847168e-01 1.065697371959686279e-01 1.921603679656982422e-01 1.780100464820861816e-01
2.949000000000000000e+03 1.671201133728027344e+01 1.586019611358642578e+01 6.326844692230224609e-01 7.414659261703491211e-01 4.122451245784759521e-01 -1.132515296339988708e-01
2.950000000000000000e+03 2.863863945007324219e+01 1.401461410522460938e+01 1.178421497344970703e+00 3.574120044708251953e+00 1.425762414932250977e+00 -4.592866301536560059e-01
2.951000000000000000e+03 2.412450981140136719e+01 8.573520660400390625e+00 7.481616139411926270e-01 2.264791727066040039e+00 9.038860201835632324e-01 -1.077400296926498413e-01
2.952000000000000000e+03 3.150631904602050781e+01 2.396501541137695312e+00 6.097871661186218262e-01 4.305883884429931641e+00 1.474701285362243652e+00 3.099865019321441650e-01
2.953000000000000000e+03 2.901696586608886719e+01 1.175916767120361328e+01 1.228724718093872070e+00 3.717164754867553711e+00 1.483766913414001465e+00 -3.088962137699127197e-01
2.954000000000000000e+03 2.751778411865234375e+01 1.070941066741943359e+01 1.076267004013061523e+00 3.240192651748657227e+00 1.294937849044799805e+00 -2.251344323158264160e-01
2.955000000000000000e+03 1.565502262115478516e+01 1.688642883300781250e+01 5.819888114929199219e-01 6.235885024070739746e-01 3.616731762886047363e-01 -1.099737063050270081e-01
2.956000000000000000e+03 3.080392837524414062e+01 3.208611965179443359e+00 6.251207590103149414e-01 4.187946319580078125e+00 1.443920135498046875e+00 3.016654253005981445e-01
2.957000000000000000e+03 3.084841918945312500e+01 5.900629043579101562e+00 8.932160735130310059e-01 4.264934539794921875e+00 1.547445178031921387e+00 1.306698322296142578e-01
2.958000000000000000e+03 2.398800277709960938e+01 -3.779663324356079102e+00 -5.067639350891113281e-01 3.517693758010864258e+00 9.032789468765258789e-01 1.351756691932678223e+00
2.959000000000000000e+03 2.529865837097167969e+01 -4.539483070373535156e+00 3.814647793769836426e-01 3.482415676116943359e+00 1.159164190292358398e+00 1.956977009773254395e+00
2.960000000000000000e+03 2.772600555419921875e+01 -6.761089324951171875e+00 2.348892688751220703e+00 1.853340029716491699e+00 1.260669827461242676e+00 1.453089952468872070e+00
2.961000000000000000e+03 2.448159599304199219e+01 -1.493937373161315918e+00 -4.176915884017944336e-01 3.025969743728637695e+00 7.824834585189819336e-01 7.487482428550720215e-01
2.962000000000000000e+03 2.439525032043457031e+01 -6.150004863739013672e-01 -3.888984322547912598e-01 2.848113298416137695e+00 7.377644181251525879e-01 5.666651725769042969e-01
2.963000000000000000e+03 2.927205657958984375e+01 -6.887580871582031250e+00 1.916467905044555664e+00 1.866782665252685547e+00 1.134975194931030273e+00 5.978595614433288574e-01
2.964000000000000000e+03 2.419001007080078125e+01 -5.037896156311035156e+00 -4.833158850669860840e-02 3.942934751510620117e+00 1.168380975723266602e+00 2.068709135055541992e+00
2.965000000000000000e+03 2.355692100524902344e+01 3.245037794113159180e+00 6.968384236097335815e-02 2.213895797729492188e+00 6.850739121437072754e-01 1.213925108313560486e-01
2.966000000000000000e+03 2.317798614501953125e+01 2.393644332885742188e+00 -6.175244599580764771e-02 2.119406461715698242e+00 6.172962188720703125e-01 1.605973243713378906e-01
2.967000000000000000e+03 2.509466171264648438e+01 6.001828312873840332e-01 -1.432602852582931519e-01 2.913051605224609375e+00 8.309374451637268066e-01 4.799675643444061279e-01
2.968000000000000000e+03 2.448201751708984375e+01 -2.687407255172729492e+00 -4.330002963542938232e-01 3.254772901535034180e+00 8.465317487716674805e-01 1.071650624275207520e+00
2.969000000000000000e+03 2.411640167236328125e+01 -1.905782461166381836e+00 -5.294176936149597168e-01 2.987607717514038086e+00 7.374569773674011230e-01 7.755600214004516602e-01
2.970000000000000000e+03 2.965245819091796875e+01 -6.082871437072753906e+00 1.599312424659729004e+00 2.276022434234619141e+00 1.162600398063659668e+00 6.406564712524414062e-01
2.971000000000000000e+03 3.201316452026367188e+01 -6.464850425720214844e+00 1.152122497558593750e+00 2.653063774108886719e+00 1.141555786132812500e+00 -2.440511733293533325e-01
2.972000000000000000e+03 2.860852622985839844e+01 -6.512344360351562500e+00 1.990409016609191895e+00 1.970756173133850098e+00 1.188349485397338867e+00 1.002894401550292969e+00
2.973000000000000000e+03 3.040985488891601562e+01 -6.529652118682861328e+00 1.527981996536254883e+00 2.236321926116943359e+00 1.129291176795959473e+00 2.436309009790420532e-01
2.974000000000000000e+03 3.436133193969726562e+01 -6.660003185272216797e+00 6.038344502449035645e-01 3.433927059173583984e+00 1.211328506469726562e+00 -8.858405351638793945e-01
2.975000000000000000e+03 3.493750762939453125e+01 -7.319606304168701172e+00 4.861313700675964355e-01 3.513343811035156250e+00 1.199842572212219238e+00 -1.153035044670104980e+00
2.976000000000000000e+03 3.447898101806640625e+01 -3.496371507644653320e+00 5.276389122009277344e-01 4.113051891326904297e+00 1.392207145690917969e+00 -3.477700650691986084e-01
2.977000000000000000e+03 1.727036476135253906e+01 9.507845878601074219e+00 5.760614275932312012e-01 5.261289477348327637e-01 3.306571245193481445e-01 6.956048309803009033e-02
2.978000000000000000e+03 2.298385238647460938e+01 2.856262445449829102e+00 -3.177973628044128418e-02 2.014441013336181641e+00 5.947983860969543457e-01 1.055492311716079712e-01
2.979000000000000000e+03 2.292676353454589844e+01 5.033322811126708984e+00 2.919442355632781982e-01 1.913813710212707520e+00 6.617273688316345215e-01 1.859461329877376556e-02
2.980000000000000000e+03 2.193455123901367188e+01 6.538963794708251953e+00 4.437906146049499512e-01 1.604665398597717285e+00 6.145368218421936035e-01 -3.570034727454185486e-02
2.981000000000000000e+03 2.737914466857910156e+01 9.446897506713867188e+00 9.864531755447387695e-01 3.191677808761596680e+00 1.253439307212829590e+00 -1.347971707582473755e-01
2.982000000000000000e+03 3.473107528686523438e+01 -4.830352306365966797e+00 5.324398279190063477e-01 3.934636592864990234e+00 1.340122938156127930e+00 -6.001299619674682617e-01
2.983000000000000000e+03 3.380255126953125000e+01 -5.990778923034667969e+00 7.176693677902221680e-01 3.401314496994018555e+00 1.235695123672485352e+00 -6.455729603767395020e-01
2.984000000000000000e+03 3.267066192626953125e+01 -5.845332622528076172e+00 9.426366090774536133e-01 3.073072195053100586e+00 1.204712629318237305e+00 -3.129795193672180176e-01
2.985000000000000000e+03 1.966585350036621094e+01 9.482981681823730469e+00 6.397300958633422852e-01 1.062218308448791504e+00 5.105845332145690918e-01 -5.843897536396980286e-02
2.986000000000000000e+03 1.770317268371582031e+01 1.103539276123046875e+01 6.699363589286804199e-01 6.904226541519165039e-01 4.081076979637145996e-01 -1.095743663609027863e-02
2.987000000000000000e+03 3.146463394165039062e+01 1.315585076808929443e-01 5.519489049911499023e-01 4.114071369171142578e+00 1.399806022644042969e+00 3.980893194675445557e-01
2.988000000000000000e+03 3.310458374023437500e+01 -1.259457826614379883e+00 5.625404119491577148e-01 4.243018150329589844e+00 1.441667675971984863e+00 1.098026037216186523e-01
2.989000000000000000e+03 3.295104980468750000e+01 -2.790418863296508789e+00 6.461560726165771484e-01 3.899997949600219727e+00 1.363846182823181152e+00 4.957594349980354309e-02
2.990000000000000000e+03 3.018791770935058594e+01 -5.853001117706298828e+00 1.455530762672424316e+00 2.452418088912963867e+00 1.172384619712829590e+00 4.939153790473937988e-01
2.991000000000000000e+03 1.991122817993164062e+01 1.655191993713378906e+01 7.218822836875915527e-01 1.427769422531127930e+00 6.448954939842224121e-01 -3.006101250648498535e-01
2.992000000000000000e+03 1.874242019653320312e+01 2.193770027160644531e+01 4.560679793357849121e-01 1.464651465415954590e+00 5.762158036231994629e-01 -4.050686061382293701e-01
2.993000000000000000e+03 1.308482933044433594e+01 1.179716014862060547e+01 4.871271252632141113e-01 -3.579485416412353516e-02 1.353996843099594116e-01 2.431672215461730957e-01
2.994000000000000000e+03 1.365309906005859375e+01 1.316054153442382812e+01 5.295448303222656250e-01 1.235865205526351929e-01 1.959394067525863647e-01 1.469902992248535156e-01
2.995000000000000000e+03 2.189209556579589844e+01 8.570221900939941406e+00 6.404235959053039551e-01 1.605027794837951660e+00 6.736354231834411621e-01 -1.016264930367469788e-01
2.996000000000000000e+03 2.847275543212890625e+01 7.892604351043701172e+00 9.376523494720458984e-01 3.549969673156738281e+00 1.346286654472351074e+00 -1.535715721547603607e-02
2.997000000000000000e+03 2.994881820678710938e+01 -5.231822967529296875e+00 1.321047306060791016e+00 2.644526243209838867e+00 1.189672112464904785e+00 6.670617461204528809e-01
2.998000000000000000e+03 2.363101387023925781e+01 1.020735073089599609e+01 8.129234910011291504e-01 2.120354175567626953e+00 8.799833059310913086e-01 -1.832229942083358765e-01
2.999000000000000000e+03 1.571173381805419922e+01 1.479355716705322266e+01 6.131091713905334473e-01 5.361013412475585938e-01 3.447631597518920898e-01 -3.096713311970233917e-02
3.000000000000000000e+03 2.989027976989746094e+01 3.796482086181640625e+00 6.294232606887817383e-01 3.980957031250000000e+00 1.383114099502563477e+00 2.873880267143249512e-01
3.001000000000000000e+03 2.827469444274902344e+01 6.715310573577880859e+00 8.171042799949645996e-01 3.515068531036376953e+00 1.299651861190795898e+00 5.940610915422439575e-02
3.002000000000000000e+03 1.495662212371826172e+01 1.073210620880126953e+01 5.472074747085571289e-01 1.489952057600021362e-01 2.088607996702194214e-01 1.836605817079544067e-01
3.003000000000000000e+03 1.602319717407226562e+01 1.084489822387695312e+01 6.038164496421813965e-01 3.676056563854217529e-01 2.914266288280487061e-01 1.058311983942985535e-01
3.004000000000000000e+03 2.955159950256347656e+01 6.355888843536376953e+00 8.635299801826477051e-01 3.881026506423950195e+00 1.423366904258728027e+00 1.035090908408164978e-01
3.005000000000000000e+03 2.479376029968261719e+01 1.821274518966674805e+00 -2.214458025991916656e-02 2.718988895416259766e+00 8.090532422065734863e-01 3.205441832542419434e-01
3.006000000000000000e+03 2.902482986450195312e+01 1.299589061737060547e+01 1.220180153846740723e+00 3.714473485946655273e+00 1.480396151542663574e+00 -3.702142238616943359e-01
3.007000000000000000e+03 2.736144065856933594e+01 1.611428260803222656e+01 1.058678150177001953e+00 3.275596380233764648e+00 1.300282359123229980e+00 -5.378186702728271484e-01
3.008000000000000000e+03 2.799984741210937500e+01 1.499000549316406250e+01 1.121834397315979004e+00 3.445926904678344727e+00 1.370328426361083984e+00 -5.114051699638366699e-01
3.009000000000000000e+03 2.794530296325683594e+01 1.946586036682128906e+01 8.222311139106750488e-01 3.487122774124145508e+00 1.292806148529052734e+00 -6.733232736587524414e-01
3.010000000000000000e+03 2.609264945983886719e+01 -5.999948024749755859e+00 1.819815516471862793e+00 2.800153255462646484e+00 1.385990619659423828e+00 2.393686056137084961e+00
3.011000000000000000e+03 2.544708061218261719e+01 -5.911412239074707031e+00 1.545523166656494141e+00 3.232127904891967773e+00 1.433295369148254395e+00 2.663027524948120117e+00
3.012000000000000000e+03 2.507594108581542969e+01 -2.802955865859985352e+00 -2.409884929656982422e-01 3.323521375656127930e+00 9.247598648071289062e-01 1.191398262977600098e+00
3.013000000000000000e+03 2.587979125976562500e+01 -5.647932529449462891e+00 1.390209078788757324e+00 3.061777353286743164e+00 1.335595965385437012e+00 2.370609760284423828e+00
3.014000000000000000e+03 2.669974517822265625e+01 -6.070991039276123047e+00 1.948714137077331543e+00 2.517946958541870117e+00 1.339998364448547363e+00 2.111222028732299805e+00
3.015000000000000000e+03 2.648280334472656250e+01 -2.078263759613037109e+00 8.068162202835083008e-02 3.324118137359619141e+00 1.021439909934997559e+00 1.106706738471984863e+00
3.016000000000000000e+03 2.685073280334472656e+01 -6.435152530670166016e+00 2.257786273956298828e+00 2.233008384704589844e+00 1.347238421440124512e+00 1.991365075111389160e+00
3.017000000000000000e+03 3.100775146484375000e+01 -6.237788677215576172e+00 1.353932738304138184e+00 2.478390693664550781e+00 1.149697065353393555e+00 1.272237747907638550e-01
3.018000000000000000e+03 2.523618316650390625e+01 1.917263865470886230e-01 -1.646047532558441162e-01 2.987178802490234375e+00 8.467722535133361816e-01 5.480273365974426270e-01
3.019000000000000000e+03 2.484412956237792969e+01 -1.417093873023986816e-01 -2.542352974414825439e-01 2.923637628555297852e+00 8.008207082748413086e-01 5.585249066352844238e-01
3.020000000000000000e+03 2.923243522644042969e+01 5.248386859893798828e+00 7.176640629768371582e-01 3.804172039031982422e+00 1.356550812721252441e+00 1.750150024890899658e-01
3.021000000000000000e+03 2.562437629699707031e+01 3.000140786170959473e-01 -8.814500272274017334e-02 3.065367221832275391e+00 8.931666612625122070e-01 5.639637708663940430e-01
3.022000000000000000e+03 2.739115905761718750e+01 -6.576621055603027344e+00 2.338236093521118164e+00 1.980267167091369629e+00 1.295550942420959473e+00 1.611512899398803711e+00
3.023000000000000000e+03 3.330450439453125000e+01 -5.249423980712890625e+00 7.829734683036804199e-01 3.415639877319335938e+00 1.259584069252014160e+00 -3.548397421836853027e-01
3.024000000000000000e+03 2.377409172058105469e+01 2.591163873672485352e+00 2.624135464429855347e-03 2.329614877700805664e+00 6.996716856956481934e-01 1.835988461971282959e-01
3.025000000000000000e+03 2.358296775817871094e+01 4.415411472320556641e+00 2.445171773433685303e-01 2.153388023376464844e+00 7.193715572357177734e-01 6.489348411560058594e-02
3.026000000000000000e+03 3.230779647827148438e+01 -1.759911298751831055e+00 6.199368834495544434e-01 3.971410989761352539e+00 1.377404332160949707e+00 2.642427384853363037e-01
3.027000000000000000e+03 3.212714004516601562e+01 -3.468524217605590820e+00 7.954205870628356934e-01 3.528783798217773438e+00 1.297261238098144531e+00 1.851766556501388550e-01
3.028000000000000000e+03 1.819866371154785156e+01 9.979839324951171875e+00 6.331232190132141113e-01 7.335709333419799805e-01 4.100082218647003174e-01 -1.842092489823698997e-03
3.029000000000000000e+03 2.496021652221679688e+01 1.148655891418457031e+00 -1.090441644191741943e-01 2.830991983413696289e+00 8.165842890739440918e-01 4.048564732074737549e-01
3.030000000000000000e+03 2.808186149597167969e+01 5.592476367950439453e+00 6.725077629089355469e-01 3.466246366500854492e+00 1.241626262664794922e+00 1.403535306453704834e-01
3.031000000000000000e+03 2.375835418701171875e+01 5.686946392059326172e+00 4.145585894584655762e-01 2.172711849212646484e+00 7.761811017990112305e-01 9.004226885735988617e-03
3.032000000000000000e+03 2.272680473327636719e+01 8.346953392028808594e+00 6.638077497482299805e-01 1.862472414970397949e+00 7.578840851783752441e-01 -1.041742861270904541e-01
3.033000000000000000e+03 2.088719558715820312e+01 9.711122512817382812e+00 6.887733936309814453e-01 1.375642180442810059e+00 6.193246841430664062e-01 -1.092870235443115234e-01
3.034000000000000000e+03 1.501276111602783203e+01 1.195277976989746094e+01 5.604160428047180176e-01 2.363239675760269165e-01 2.390220016241073608e-01 1.309366077184677124e-01
3.035000000000000000e+03 3.160816383361816406e+01 -5.776972770690917969e+00 1.183087110519409180e+00 2.744615554809570312e+00 1.178310751914978027e+00 3.407650813460350037e-02
3.036000000000000000e+03 3.215132141113281250e+01 -5.111433029174804688e+00 9.784265756607055664e-01 3.110806226730346680e+00 1.226769804954528809e+00 -4.336202051490545273e-03
3.037000000000000000e+03 3.277257919311523438e+01 -4.406392574310302734e+00 8.165307641029357910e-01 3.458244085311889648e+00 1.282432436943054199e+00 -8.030954748392105103e-02
3.038000000000000000e+03 2.709243774414062500e+01 8.204656600952148438e+00 8.699295520782470703e-01 3.133987188339233398e+00 1.201175093650817871e+00 -6.649565696716308594e-02
3.039000000000000000e+03 2.696023941040039062e+01 6.959141254425048828e+00 7.410050034523010254e-01 3.119814157485961914e+00 1.158245801925659180e+00 1.620642654597759247e-02
3.040000000000000000e+03 3.122647285461425781e+01 -5.255038738250732422e+00 1.152553200721740723e+00 2.849347352981567383e+00 1.200570106506347656e+00 2.323998659849166870e-01
3.041000000000000000e+03 3.065696525573730469e+01 1.793747663497924805e+00 5.314747691154479980e-01 4.077641487121582031e+00 1.382734775543212891e+00 3.856086432933807373e-01
3.042000000000000000e+03 3.014816665649414062e+01 2.495321035385131836e+00 5.378828048706054688e-01 4.009143352508544922e+00 1.364107847213745117e+00 3.718809783458709717e-01
3.043000000000000000e+03 1.879711914062500000e+01 1.139249897003173828e+01 6.863896846771240234e-01 9.262680411338806152e-01 4.837973117828369141e-01 -6.442692875862121582e-02
3.044000000000000000e+03 1.553362083435058594e+01 1.291984367370605469e+01 6.040024757385253906e-01 3.856840729713439941e-01 2.969059646129608154e-01 5.173555016517639160e-02
3.045000000000000000e+03 2.345562934875488281e+01 7.766753196716308594e+00 6.333451271057128906e-01 2.076529502868652344e+00 8.129623532295227051e-01 -7.624980062246322632e-02
3.046000000000000000e+03 3.101408958435058594e+01 -1.140274763107299805e+00 5.895739197731018066e-01 3.840960741043090820e+00 1.329160332679748535e+00 4.897771179676055908e-01
3.047000000000000000e+03 2.779489707946777344e+01 -3.994866371154785156e+00 8.561350703239440918e-01 3.047605037689208984e+00 1.171122074127197266e+00 1.377564430236816406e+00
3.048000000000000000e+03 2.757335662841796875e+01 1.203835105895996094e+01 1.111021757125854492e+00 3.245888471603393555e+00 1.307073116302490234e+00 -3.135419189929962158e-01
3.049000000000000000e+03 2.477795410156250000e+01 4.363714218139648438e+00 3.117020130157470703e-01 2.565063238143920898e+00 8.630295991897583008e-01 1.266852319240570068e-01
3.050000000000000000e+03 2.787443351745605469e+01 1.323999786376953125e+01 1.135468363761901855e+00 3.341471433639526367e+00 1.343081951141357422e+00 -4.078284800052642822e-01
3.051000000000000000e+03 1.819540023803710938e+01 2.841598510742187500e+01 3.833156451582908630e-02 1.622273921966552734e+00 4.981816709041595459e-01 -4.064494073390960693e-01
3.052000000000000000e+03 2.680137252807617188e+01 1.737824630737304688e+01 9.680981636047363281e-01 3.126752376556396484e+00 1.228455185890197754e+00 -5.895745754241943359e-01
3.053000000000000000e+03 2.327808952331542969e+01 1.701196670532226562e+01 8.382546305656433105e-01 2.219491481781005859e+00 9.173237681388854980e-01 -4.734365642070770264e-01
3.054000000000000000e+03 2.872418975830078125e+01 2.369889259338378906e+01 3.985721170902252197e-01 3.703357219696044922e+00 1.230578780174255371e+00 -7.266166210174560547e-01
3.055000000000000000e+03 2.546265602111816406e+01 -4.923281192779541016e+00 6.266324520111083984e-01 3.427389621734619141e+00 1.216206669807434082e+00 2.135241270065307617e+00
3.056000000000000000e+03 2.473319244384765625e+01 -3.078523159027099609e+00 -3.277420699596405029e-01 3.362738132476806641e+00 9.104987978935241699e-01 1.243635773658752441e+00
3.057000000000000000e+03 2.797049522399902344e+01 -6.337813854217529297e+00 2.009388923645019531e+00 2.126179695129394531e+00 1.240670561790466309e+00 1.384854793548583984e+00
3.058000000000000000e+03 2.838592720031738281e+01 -6.013961315155029297e+00 1.824667572975158691e+00 2.224646091461181641e+00 1.214794039726257324e+00 1.237923026084899902e+00
3.059000000000000000e+03 2.491412162780761719e+01 -2.401221275329589844e+00 -3.003772795200347900e-01 3.269209146499633789e+00 8.906496167182922363e-01 1.074496865272521973e+00
3.060000000000000000e+03 2.520687294006347656e+01 -4.484482109546661377e-01 -2.338697612285614014e-01 3.051928997039794922e+00 8.454177379608154297e-01 6.457316279411315918e-01
3.061000000000000000e+03 2.487673568725585938e+01 -9.652764201164245605e-01 -3.257753849029541016e-01 3.044328689575195312e+00 8.155660033226013184e-01 7.091674804687500000e-01
3.062000000000000000e+03 2.519690704345703125e+01 -4.120804309844970703e+00 1.163427457213401794e-01 3.510605335235595703e+00 1.088084459304809570e+00 1.762447953224182129e+00
3.063000000000000000e+03 2.905792236328125000e+01 9.337867498397827148e-01 3.838343620300292969e-01 3.707509279251098633e+00 1.227403044700622559e+00 5.433680415153503418e-01
3.064000000000000000e+03 2.911865043640136719e+01 -6.302092075347900391e+00 1.812062859535217285e+00 2.114288330078125000e+00 1.177905321121215820e+00 8.376277685165405273e-01
3.065000000000000000e+03 3.072001647949218750e+01 -5.589319229125976562e+00 1.299132466316223145e+00 2.634277343750000000e+00 1.180022954940795898e+00 3.445570766925811768e-01
3.066000000000000000e+03 1.606464958190917969e+01 1.193598747253417969e+01 6.160413026809692383e-01 4.231383204460144043e-01 3.117538988590240479e-01 5.765325203537940979e-02
3.067000000000000000e+03 2.631281852722167969e+01 1.330274701118469238e+00 7.584930211305618286e-02 3.157945632934570312e+00 9.701384305953979492e-01 4.817850589752197266e-01
3.068000000000000000e+03 3.085517692565917969e+01 -4.142055511474609375e+00 1.012900471687316895e+00 3.084736824035644531e+00 1.229291200637817383e+00 5.080722570419311523e-01
3.069000000000000000e+03 2.612313461303710938e+01 -3.835993528366088867e+00 3.792737126350402832e-01 3.319790840148925781e+00 1.109719276428222656e+00 1.630529522895812988e+00
3.070000000000000000e+03 2.426401138305664062e+01 5.001927852630615234e+00 3.471798896789550781e-01 2.345239639282226562e+00 8.077258467674255371e-01 5.647135153412818909e-02
3.071000000000000000e+03 2.564864730834960938e+01 7.421206831932067871e-01 -6.662129610776901245e-02 3.037203788757324219e+00 8.911747336387634277e-01 5.104821920394897461e-01
3.072000000000000000e+03 1.726908874511718750e+01 1.235319614410400391e+01 6.571068763732910156e-01 6.763991713523864746e-01 4.000518023967742920e-01 -1.949363388121128082e-02
3.073000000000000000e+03 3.023937606811523438e+01 5.558118224143981934e-01 4.817743301391601562e-01 3.901932001113891602e+00 1.315111875534057617e+00 5.030176043510437012e-01
3.074000000000000000e+03 2.544496536254882812e+01 -1.190701842308044434e+00 -2.026321142911911011e-01 3.171023607254028320e+00 8.905174732208251953e-01 8.198962807655334473e-01
3.075000000000000000e+03 1.664033126831054688e+01 1.368551921844482422e+01 6.433896422386169434e-01 6.283035278320312500e-01 3.815079331398010254e-01 -3.071254864335060120e-02
3.076000000000000000e+03 2.412993049621582031e+01 7.057564258575439453e+00 5.800340771675109863e-01 2.275639772415161133e+00 8.567021489143371582e-01 -3.829656913876533508e-02
3.077000000000000000e+03 2.656077957153320312e+01 2.732464313507080078e+00 2.513320446014404297e-01 3.164747953414916992e+00 1.024824023246765137e+00 3.432348370552062988e-01
3.078000000000000000e+03 3.135251998901367188e+01 -2.822020292282104492e+00 7.496142983436584473e-01 3.583473682403564453e+00 1.299926400184631348e+00 4.287700951099395752e-01
3.079000000000000000e+03 2.985872268676757812e+01 1.325826644897460938e+00 4.483798742294311523e-01 3.867566347122192383e+00 1.294783830642700195e+00 4.741896390914916992e-01
3.080000000000000000e+03 3.108832168579101562e+01 9.900369048118591309e-01 5.327968597412109375e-01 4.097905158996582031e+00 1.389210581779479980e+00 4.094164073467254639e-01
3.081000000000000000e+03 2.207813644409179688e+01 9.576399803161621094e+00 7.148103713989257812e-01 1.686784982681274414e+00 7.204785943031311035e-01 -1.401462405920028687e-01
3.082000000000000000e+03 2.671178627014160156e+01 3.505525827407836914e+00 3.289026319980621338e-01 3.161644458770751953e+00 1.047164082527160645e+00 2.648524045944213867e-01
3.083000000000000000e+03 1.987621879577636719e+01 1.131045627593994141e+01 7.245095968246459961e-01 1.201614499092102051e+00 5.778372287750244141e-01 -1.230493336915969849e-01
3.084000000000000000e+03 2.887368011474609375e+01 4.202548980712890625e+00 5.934875607490539551e-01 3.711287021636962891e+00 1.291432380676269531e+00 2.625919580459594727e-01
3.085000000000000000e+03 2.626196479797363281e+01 1.087476253509521484e+01 9.978386759757995605e-01 2.880519151687622070e+00 1.163507342338562012e+00 -2.390217483043670654e-01
3.086000000000000000e+03 1.770994949340820312e+01 1.467832469940185547e+01 6.896408796310424805e-01 8.898254036903381348e-01 4.738398790359497070e-01 -1.291983276605606079e-01
3.087000000000000000e+03 2.505220603942871094e+01 5.503375053405761719e+00 4.649465978145599365e-01 2.600860357284545898e+00 9.197421073913574219e-01 6.472249329090118408e-02
3.088000000000000000e+03 2.620219421386718750e+01 1.213561248779296875e+01 1.030443906784057617e+00 2.879632711410522461e+00 1.173022985458374023e+00 -3.130965232849121094e-01
3.089000000000000000e+03 1.580888843536376953e+01 2.105909919738769531e+01 4.239373803138732910e-01 8.566926717758178711e-01 3.841890096664428711e-01 -2.532513737678527832e-01
3.090000000000000000e+03 2.611659812927246094e+01 1.534125518798828125e+01 1.018637418746948242e+00 2.897296667098999023e+00 1.174780249595642090e+00 -4.817039668560028076e-01
3.091000000000000000e+03 2.315312767028808594e+01 9.190964698791503906e+00 7.305293679237365723e-01 1.982018351554870605e+00 8.137643337249755859e-01 -1.464529335498809814e-01
3.092000000000000000e+03 2.952621459960937500e+01 2.009783172607421875e+01 8.252477645874023438e-01 3.886260986328125000e+00 1.413452625274658203e+00 -7.150433659553527832e-01
3.093000000000000000e+03 2.729900360107421875e+01 2.121816062927246094e+01 6.641346216201782227e-01 3.327510356903076172e+00 1.197493553161621094e+00 -6.992545723915100098e-01
3.094000000000000000e+03 2.866493225097656250e+01 -5.240322589874267578e+00 1.455845832824707031e+00 2.558917999267578125e+00 1.204429149627685547e+00 1.166309714317321777e+00
3.095000000000000000e+03 2.566502189636230469e+01 -5.290139675140380859e+00 1.034255266189575195e+00 3.279381513595581055e+00 1.294090986251831055e+00 2.302955150604248047e+00
3.096000000000000000e+03 2.367151260375976562e+01 -3.839516878128051758e+00 -6.370483636856079102e-01 3.437170505523681641e+00 8.400366902351379395e-01 1.222849607467651367e+00
3.097000000000000000e+03 2.446299362182617188e+01 -3.463699579238891602e+00 -3.686500489711761475e-01 3.419599056243896484e+00 9.152846932411193848e-01 1.328522562980651855e+00
3.098000000000000000e+03 2.722740364074707031e+01 -6.247647285461425781e+00 2.096345663070678711e+00 2.255893230438232422e+00 1.305671691894531250e+00 1.814245462417602539e+00
3.099000000000000000e+03 2.793048477172851562e+01 -5.050662517547607422e+00 1.368647813796997070e+00 2.683132410049438477e+00 1.215534090995788574e+00 1.466371774673461914e+00
3.100000000000000000e+03 2.547929763793945312e+01 -5.304759740829467773e-02 -1.490166336297988892e-01 3.068865776062011719e+00 8.759546875953674316e-01 6.178842186927795410e-01
3.101000000000000000e+03 2.604763984680175781e+01 1.920633167028427124e-01 -3.812645375728607178e-02 3.159173965454101562e+00 9.363142848014831543e-01 6.129378676414489746e-01
3.102000000000000000e+03 2.632595062255859375e+01 -5.388391494750976562e+00 1.351162433624267578e+00 2.943543434143066406e+00 1.288411736488342285e+00 2.131813764572143555e+00
3.103000000000000000e+03 2.853492355346679688e+01 3.184725046157836914e+00 4.662428796291351318e-01 3.636323928833007812e+00 1.230769991874694824e+00 3.464392125606536865e-01
3.104000000000000000e+03 2.678512382507324219e+01 -5.137715339660644531e+00 1.247714877128601074e+00 2.876853466033935547e+00 1.237370491027832031e+00 1.887799978256225586e+00
3.105000000000000000e+03 2.686483001708984375e+01 5.981150865554809570e-01 8.082052320241928101e-02 3.298512697219848633e+00 1.013800024986267090e+00 5.971084237098693848e-01
3.106000000000000000e+03 2.967358779907226562e+01 -2.103421211242675781e+00 6.209766864776611328e-01 3.468252658843994141e+00 1.226768851280212402e+00 7.762867808341979980e-01
3.107000000000000000e+03 2.529431915283203125e+01 -1.758643984794616699e+00 -2.378990501165390015e-01 3.212451219558715820e+00 8.923656940460205078e-01 9.305506348609924316e-01
3.108000000000000000e+03 2.512690925598144531e+01 -3.194960832595825195e+00 -1.942545622587203979e-01 3.408393144607543945e+00 9.642416238784790039e-01 1.353157520294189453e+00
3.109000000000000000e+03 2.440250778198242188e+01 2.443698406219482422e+00 4.783942829817533493e-03 2.557475566864013672e+00 7.686778903007507324e-01 2.274099141359329224e-01
3.110000000000000000e+03 2.558896446228027344e+01 2.042300462722778320e+00 7.167819887399673462e-02 2.928097009658813477e+00 8.999325633049011230e-01 3.516812920570373535e-01
3.111000000000000000e+03 2.942801094055175781e+01 -5.489559173583984375e+00 1.477599978446960449e+00 2.492954492568969727e+00 1.191166400909423828e+00 8.466863036155700684e-01
3.112000000000000000e+03 2.968986320495605469e+01 -4.666901111602783203e+00 1.202171087265014648e+00 2.814857959747314453e+00 1.205108761787414551e+00 8.271613717079162598e-01
3.113000000000000000e+03 2.890633392333984375e+01 -5.748602390289306641e+00 1.611355304718017578e+00 2.356252908706665039e+00 1.190282464027404785e+00 1.014313459396362305e+00
3.114000000000000000e+03 2.419125175476074219e+01 3.757715225219726562e+00 1.820038855075836182e-01 2.387325048446655273e+00 7.707986831665039062e-01 1.317941844463348389e-01
3.115000000000000000e+03 2.466471672058105469e+01 6.278165817260742188e+00 5.200752019882202148e-01 2.439416646957397461e+00 8.878475427627563477e-01 4.812002647668123245e-03
3.116000000000000000e+03 2.562985229492187500e+01 1.325135231018066406e+00 -9.204266592860221863e-03 2.990003347396850586e+00 8.942397236824035645e-01 4.327861070632934570e-01
3.117000000000000000e+03 3.073037147521972656e+01 -2.306258916854858398e+00 6.923732757568359375e-01 3.572129964828491211e+00 1.279350996017456055e+00 5.816431045532226562e-01
3.118000000000000000e+03 2.972059249877929688e+01 -5.450580120086669922e-01 4.857814908027648926e-01 3.705064296722412109e+00 1.257253766059875488e+00 6.329000592231750488e-01
3.119000000000000000e+03 1.863084220886230469e+01 1.260549068450927734e+01 7.095152139663696289e-01 9.542185664176940918e-01 4.991201460361480713e-01 -1.037561148405075073e-01
3.120000000000000000e+03 2.579967308044433594e+01 8.733469963073730469e+00 8.373755216598510742e-01 2.774628400802612305e+00 1.083601117134094238e+00 -1.065972000360488892e-01
3.121000000000000000e+03 2.939867591857910156e+01 1.868312656879425049e-01 4.173385202884674072e-01 3.712334156036376953e+00 1.238901734352111816e+00 5.942348241806030273e-01
3.122000000000000000e+03 3.059168052673339844e+01 -2.770767509937286377e-01 5.184156298637390137e-01 3.868274688720703125e+00 1.316007137298583984e+00 5.249646902084350586e-01
3.123000000000000000e+03 2.109747314453125000e+01 1.103813362121582031e+01 7.627943754196166992e-01 1.480264067649841309e+00 6.729175448417663574e-01 -1.570568084716796875e-01
3.124000000000000000e+03 2.470985603332519531e+01 9.495612144470214844e+00 8.210812807083129883e-01 2.423791646957397461e+00 9.734618663787841797e-01 -1.559558212757110596e-01
3.125000000000000000e+03 2.491110992431640625e+01 1.446700286865234375e+01 9.830439090728759766e-01 2.569551467895507812e+00 1.065778613090515137e+00 -4.110559523105621338e-01
3.126000000000000000e+03 3.100149726867675781e+01 -4.752254962921142578e+00 1.100087285041809082e+00 2.954065084457397461e+00 1.216245770454406738e+00 4.168337285518646240e-01
3.127000000000000000e+03 3.020492935180664062e+01 -3.324028968811035156e+00 8.614440560340881348e-01 3.280333042144775391e+00 1.242533087730407715e+00 6.909468770027160645e-01
3.128000000000000000e+03 2.488378715515136719e+01 3.156706094741821289e+00 1.348528563976287842e-01 2.657386064529418945e+00 8.376716971397399902e-01 2.100448608398437500e-01
3.129000000000000000e+03 2.571750068664550781e+01 2.829468965530395508e+00 1.710218042135238647e-01 2.912014722824096680e+00 9.249109625816345215e-01 2.763380408287048340e-01
3.130000000000000000e+03 2.622593116760253906e+01 9.789721488952636719e+00 9.459784030914306641e-01 2.895666837692260742e+00 1.152493596076965332e+00 -1.746669560670852661e-01
3.131000000000000000e+03 2.406449127197265625e+01 1.568518924713134766e+01 9.147748351097106934e-01 2.386698722839355469e+00 9.904420971870422363e-01 -4.452869594097137451e-01
3.132000000000000000e+03 2.069422912597656250e+01 1.533615684509277344e+01 7.934087514877319336e-01 1.549415469169616699e+00 7.028473019599914551e-01 -3.024128377437591553e-01
3.133000000000000000e+03 2.001073455810546875e+01 1.253546810150146484e+01 7.744000554084777832e-01 1.283782362937927246e+00 6.174547076225280762e-01 -1.741615831851959229e-01
3.134000000000000000e+03 2.469269180297851562e+01 1.795605659484863281e+01 8.444256186485290527e-01 2.611203908920288086e+00 1.036688923835754395e+00 -5.577508807182312012e-01
3.135000000000000000e+03 1.662545013427734375e+01 1.830813217163085938e+01 5.685815811157226562e-01 8.795039653778076172e-01 4.344256818294525146e-01 -2.027107626199722290e-01
3.136000000000000000e+03 2.698146629333496094e+01 5.809497833251953125e+00 6.213613748550415039e-01 3.154840946197509766e+00 1.132860660552978516e+00 9.473334997892379761e-02
3.137000000000000000e+03 2.781745529174804688e+01 4.508914947509765625e+00 5.332500934600830078e-01 3.414799690246582031e+00 1.184414982795715332e+00 2.144982367753982544e-01
3.138000000000000000e+03 1.880228996276855469e+01 1.384419155120849609e+01 7.237340807914733887e-01 1.044822335243225098e+00 5.305669307708740234e-01 -1.533623486757278442e-01
3.139000000000000000e+03 2.582445526123046875e+01 1.335233879089355469e+01 1.020353794097900391e+00 2.795280456542968750e+00 1.144690275192260742e+00 -3.759780228137969971e-01
3.140000000000000000e+03 2.389256095886230469e+01 1.941472244262695312e+01 7.332856059074401855e-01 2.457897663116455078e+00 9.573549628257751465e-01 -5.671601891517639160e-01
3.141000000000000000e+03 2.552860260009765625e+01 2.040974807739257812e+01 6.942252516746520996e-01 2.895346641540527344e+00 1.076871514320373535e+00 -6.529794931411743164e-01
3.142000000000000000e+03 2.022038841247558594e+01 2.373800659179687500e+01 3.670922517776489258e-01 1.825546741485595703e+00 6.577917337417602539e-01 -5.047982335090637207e-01
3.143000000000000000e+03 2.172006416320800781e+01 2.239440727233886719e+01 4.740747213363647461e-01 2.057603359222412109e+00 7.595034241676330566e-01 -5.379243493080139160e-01
3.144000000000000000e+03 3.085280227661132812e+01 2.208158493041992188e+01 5.976772308349609375e-01 4.285198211669921875e+00 1.464862704277038574e+00 -7.157819867134094238e-01
3.145000000000000000e+03 3.267796707153320312e+01 2.397596740722656250e+01 3.418124318122863770e-01 4.698408126831054688e+00 1.512066245079040527e+00 -6.499754786491394043e-01
3.146000000000000000e+03 2.697109794616699219e+01 -5.500279426574707031e+00 1.563438057899475098e+00 2.675488471984863281e+00 1.271677970886230469e+00 1.896939516067504883e+00
3.147000000000000000e+03 2.814306449890136719e+01 -5.521141529083251953e+00 1.583698272705078125e+00 2.463129997253417969e+00 1.214048504829406738e+00 1.368310213088989258e+00
3.148000000000000000e+03 2.578183555603027344e+01 -4.344487667083740234e+00 4.733287394046783447e-01 3.357021093368530273e+00 1.149104952812194824e+00 1.854451417922973633e+00
3.149000000000000000e+03 2.550410270690917969e+01 -2.636049032211303711e+00 -1.402920782566070557e-01 3.328917980194091797e+00 9.565877914428710938e-01 1.203282833099365234e+00
3.150000000000000000e+03 2.682271957397460938e+01 -4.141086578369140625e+00 7.360287308692932129e-01 3.143042087554931641e+00 1.163721203804016113e+00 1.633272528648376465e+00
3.151000000000000000e+03 2.604294967651367188e+01 -1.214082121849060059e+00 -8.403719216585159302e-02 3.265400886535644531e+00 9.544090628623962402e-01 8.764169812202453613e-01
3.152000000000000000e+03 2.563202476501464844e+01 -3.532367706298828125e+00 1.027308553457260132e-01 3.394964694976806641e+00 1.049308657646179199e+00 1.531299710273742676e+00
3.153000000000000000e+03 2.612733078002929688e+01 -2.928508520126342773e+00 1.189734637737274170e-01 3.338793039321899414e+00 1.037329912185668945e+00 1.336095213890075684e+00
3.154000000000000000e+03 2.652776336669921875e+01 -3.867513179779052734e+00 5.461081862449645996e-01 3.233155250549316406e+00 1.133779048919677734e+00 1.603164315223693848e+00
3.155000000000000000e+03 2.761172485351562500e+01 -5.719073772430419922e+00 1.745195984840393066e+00 2.424114227294921875e+00 1.250793099403381348e+00 1.601025700569152832e+00
3.156000000000000000e+03 2.810889053344726562e+01 1.310404062271118164e+00 2.897288501262664795e-01 3.527123928070068359e+00 1.145055890083312988e+00 5.193068385124206543e-01
3.157000000000000000e+03 2.917279052734375000e+01 -4.957648754119873047e+00 1.308204054832458496e+00 2.674899578094482422e+00 1.194931030273437500e+00 9.754770994186401367e-01
3.158000000000000000e+03 2.938598060607910156e+01 -4.170115947723388672e+00 1.067675590515136719e+00 2.942958116531372070e+00 1.203190088272094727e+00 9.218932390213012695e-01
3.159000000000000000e+03 3.005508804321289062e+01 -2.671419143676757812e+00 7.259069681167602539e-01 3.405761480331420898e+00 1.239500522613525391e+00 7.176803350448608398e-01
3.160000000000000000e+03 2.580949783325195312e+01 4.430343627929687500e+00 3.935774862766265869e-01 2.874038934707641602e+00 9.802849888801574707e-01 1.645022928714752197e-01
3.161000000000000000e+03 2.571403694152832031e+01 6.803794384002685547e+00 6.539165973663330078e-01 2.771863937377929688e+00 1.027734160423278809e+00 2.372800838202238083e-03
3.162000000000000000e+03 2.599439239501953125e+01 -2.424463748931884766e+00 1.415260229259729385e-02 3.330540180206298828e+00 1.003407835960388184e+00 1.184880614280700684e+00
3.163000000000000000e+03 3.028549385070800781e+01 -1.620196938514709473e+00 5.950657129287719727e-01 3.627156257629394531e+00 1.266666650772094727e+00 6.389611363410949707e-01
3.164000000000000000e+03 2.506558609008789062e+01 7.789888858795166016e+00 7.077981233596801758e-01 2.574862480163574219e+00 9.847981333732604980e-01 -6.513635814189910889e-02
3.165000000000000000e+03 2.241862106323242188e+01 1.075070667266845703e+01 7.972889542579650879e-01 1.798328399658203125e+00 7.786852121353149414e-01 -1.937338113784790039e-01
3.166000000000000000e+03 2.757609748840332031e+01 3.483883857727050781e+00 3.993166685104370117e-01 3.374594926834106445e+00 1.132173538208007812e+00 2.977643609046936035e-01
3.167000000000000000e+03 2.596216773986816406e+01 5.801024436950683594e+00 5.524642467498779297e-01 2.878118515014648438e+00 1.029174804687500000e+00 7.970036566257476807e-02
3.168000000000000000e+03 2.536989212036132812e+01 4.849246501922607422e+00 3.980478346347808838e-01 2.730142593383789062e+00 9.384570717811584473e-01 1.171167418360710144e-01
3.169000000000000000e+03 1.873797035217285156e+01 1.572950935363769531e+01 7.295807003974914551e-01 1.163781166076660156e+00 5.680085420608520508e-01 -2.301313579082489014e-01
3.170000000000000000e+03 2.684225082397460938e+01 4.811451911926269531e+00 4.889264106750488281e-01 3.141977310180664062e+00 1.089271187782287598e+00 1.675422638654708862e-01
3.171000000000000000e+03 2.603533363342285156e+01 5.015626907348632812e+00 4.596979022026062012e-01 2.914804458618164062e+00 1.012350797653198242e+00 1.217924878001213074e-01
3.172000000000000000e+03 1.956040382385253906e+01 1.470503616333007812e+01 7.587419748306274414e-01 1.262458205223083496e+00 6.063600778579711914e-01 -2.296521365642547607e-01
3.173000000000000000e+03 1.761584663391113281e+01 2.007067298889160156e+01 5.303452014923095703e-01 1.159943819046020508e+00 5.070866942405700684e-01 -3.116147518157958984e-01
3.174000000000000000e+03 2.945920562744140625e+01 2.087373256683349609e+00 4.539628326892852783e-01 3.814933538436889648e+00 1.280668854713439941e+00 4.230391681194305420e-01
3.175000000000000000e+03 2.735482406616210938e+01 2.617095470428466797e+00 3.124757409095764160e-01 3.355620622634887695e+00 1.100428938865661621e+00 3.740915358066558838e-01
3.176000000000000000e+03 2.374800491333007812e+01 1.343202781677246094e+01 9.219610095024108887e-01 2.206621885299682617e+00 9.385749101638793945e-01 -3.306825459003448486e-01
3.177000000000000000e+03 2.291098403930664062e+01 1.212009239196777344e+01 8.594486117362976074e-01 1.959081888198852539e+00 8.455591797828674316e-01 -2.528715431690216064e-01
3.178000000000000000e+03 1.916240882873535156e+01 1.932295989990234375e+01 6.028792858123779297e-01 1.410709261894226074e+00 6.040765643119812012e-01 -3.633095026016235352e-01
3.179000000000000000e+03 1.848038673400878906e+01 2.504717826843261719e+01 2.582085430622100830e-01 1.561422586441040039e+00 5.458893775939941406e-01 -4.344799518585205078e-01
3.180000000000000000e+03 2.358170318603515625e+01 2.406086158752441406e+01 3.506799638271331787e-01 2.546472311019897461e+00 8.691456317901611328e-01 -6.300809383392333984e-01
3.181000000000000000e+03 2.292039489746093750e+01 2.092621231079101562e+01 5.982587337493896484e-01 2.286343812942504883e+00 8.653807640075683594e-01 -5.628097653388977051e-01
3.182000000000000000e+03 2.840891647338867188e+01 -4.776650428771972656e+00 1.248232245445251465e+00 2.743534564971923828e+00 1.197530031204223633e+00 1.263074278831481934e+00
3.183000000000000000e+03 2.888696670532226562e+01 -4.478009700775146484e+00 1.162230610847473145e+00 2.840082883834838867e+00 1.200693964958190918e+00 1.092581152915954590e+00
3.184000000000000000e+03 2.534615898132324219e+01 -2.217334270477294922e+00 -1.992303580045700073e-01 3.266483306884765625e+00 9.201758503913879395e-01 1.061503410339355469e+00
3.185000000000000000e+03 2.612708663940429688e+01 -5.039584159851074219e+00 9.949054121971130371e-01 3.134396791458129883e+00 1.238790631294250488e+00 2.070639371871948242e+00
3.186000000000000000e+03 2.744645118713378906e+01 -5.284136295318603516e+00 1.430134415626525879e+00 2.661999940872192383e+00 1.227640271186828613e+00 1.656205534934997559e+00
3.187000000000000000e+03 2.639171600341796875e+01 -4.448711872100830078e+00 7.414170503616333008e-01 3.177573442459106445e+00 1.175697207450866699e+00 1.816419005393981934e+00
3.188000000000000000e+03 2.639962196350097656e+01 2.011864185333251953e+00 1.660178750753402710e-01 3.151514291763305664e+00 9.952596426010131836e-01 4.026914238929748535e-01
3.189000000000000000e+03 2.728405761718750000e+01 -2.029288291931152344e+00 2.618366777896881104e-01 3.350794553756713867e+00 1.083789348602294922e+00 1.049895286560058594e+00
3.190000000000000000e+03 2.642869567871093750e+01 4.099462032318115234e+00 3.880347907543182373e-01 3.062261104583740234e+00 1.035088777542114258e+00 2.063656598329544067e-01
3.191000000000000000e+03 2.535861968994140625e+01 3.864741086959838867e+00 2.825778424739837646e-01 2.777161121368408203e+00 9.179217219352722168e-01 1.882168352603912354e-01
3.192000000000000000e+03 2.600228118896484375e+01 3.542251110076904297e+00 2.572261095046997070e-01 2.944386005401611328e+00 9.604836106300354004e-01 2.255908101797103882e-01
3.193000000000000000e+03 2.970239830017089844e+01 -1.217105746269226074e+00 5.216850042343139648e-01 3.625531673431396484e+00 1.244164943695068359e+00 6.866115331649780273e-01
3.194000000000000000e+03 3.024641036987304688e+01 -4.340597152709960938e+00 1.080545663833618164e+00 2.964564085006713867e+00 1.213532924652099609e+00 6.510834097862243652e-01
3.195000000000000000e+03 2.959437561035156250e+01 -3.420600175857543945e+00 8.549740910530090332e-01 3.187702178955078125e+00 1.212802886962890625e+00 8.779904842376708984e-01
3.196000000000000000e+03 2.711185455322265625e+01 1.912807822227478027e+00 2.285136133432388306e-01 3.324499607086181641e+00 1.065903902053833008e+00 4.434880614280700684e-01
3.197000000000000000e+03 2.813592147827148438e+01 2.325370788574218750e+00 3.531886935234069824e-01 3.540752172470092773e+00 1.168182253837585449e+00 4.197088181972503662e-01
3.198000000000000000e+03 2.614027786254882812e+01 -1.673044919967651367e+00 -1.907325349748134613e-02 3.293701171875000000e+00 9.823883771896362305e-01 9.970075488090515137e-01
3.199000000000000000e+03 1.998673057556152344e+01 1.370729732513427734e+01 7.712576389312744141e-01 1.309076189994812012e+00 6.241001486778259277e-01 -2.118690907955169678e-01
3.200000000000000000e+03 2.772352409362792969e+01 1.720139265060424805e+00 2.675050199031829834e-01 3.451520204544067383e+00 1.115707516670227051e+00 4.651414453983306885e-01
3.201000000000000000e+03 2.427233314514160156e+01 1.132746601104736328e+01 9.005917906761169434e-01 2.337203502655029297e+00 9.713385701179504395e-01 -2.539594173431396484e-01
3.202000000000000000e+03 2.273942375183105469e+01 1.469087886810302734e+01 8.799965381622314453e-01 1.996834754943847656e+00 8.630493879318237305e-01 -3.524655997753143311e-01
3.203000000000000000e+03 2.114673995971679688e+01 1.738004684448242188e+01 7.450796365737915039e-01 1.742311477661132812e+00 7.462173104286193848e-01 -3.944814503192901611e-01
3.204000000000000000e+03 2.244522285461425781e+01 1.836335182189941406e+01 7.546154856681823730e-01 2.076622247695922852e+00 8.493713140487670898e-01 -4.831829071044921875e-01
3.205000000000000000e+03 1.911197471618652344e+01 1.784222221374511719e+01 6.602137088775634766e-01 1.323541402816772461e+00 5.951265096664428711e-01 -3.043872714042663574e-01
3.206000000000000000e+03 2.146636772155761719e+01 1.968091392517089844e+01 6.560359597206115723e-01 1.900714039802551270e+00 7.670249938964843750e-01 -4.723719954490661621e-01
3.207000000000000000e+03 1.782401084899902344e+01 1.705708122253417969e+01 6.495769023895263672e-01 1.047804594039916992e+00 5.092144608497619629e-01 -2.348669022321701050e-01
3.208000000000000000e+03 1.375061798095703125e+01 2.640108680725097656e+01 1.412991583347320557e-01 6.891273856163024902e-01 2.491279691457748413e-01 -2.751821875572204590e-01
3.209000000000000000e+03 2.559678268432617188e+01 -3.078922748565673828e+00 -2.711302228271961212e-02 3.386199951171875000e+00 1.007726073265075684e+00 1.375153541564941406e+00
3.210000000000000000e+03 2.658682632446289062e+01 -4.782579898834228516e+00 1.010400056838989258e+00 3.043249845504760742e+00 1.216094970703125000e+00 1.871875643730163574e+00
3.211000000000000000e+03 2.769691085815429688e+01 -4.643352985382080078e+00 1.124079823493957520e+00 2.859368324279785156e+00 1.195034503936767578e+00 1.505191445350646973e+00
3.212000000000000000e+03 2.734029197692871094e+01 -2.950857162475585938e+00 4.538637995719909668e-01 3.278117656707763672e+00 1.119594454765319824e+00 1.255194425582885742e+00
3.213000000000000000e+03 2.666984558105468750e+01 -3.423778295516967773e+00 4.360896646976470947e-01 3.259167432785034180e+00 1.108577132225036621e+00 1.474449992179870605e+00
3.214000000000000000e+03 2.812621879577636719e+01 -4.357028961181640625e+00 1.066184163093566895e+00 2.910044908523559570e+00 1.192868709564208984e+00 1.334407091140747070e+00
3.215000000000000000e+03 2.703189277648925781e+01 -4.519610881805419922e+00 9.634181857109069824e-01 3.001659631729125977e+00 1.189523339271545410e+00 1.667902112007141113e+00
3.216000000000000000e+03 2.698085021972656250e+01 -1.617453694343566895e+00 1.662215739488601685e-01 3.350544691085815430e+00 1.055029869079589844e+00 9.822126626968383789e-01
3.217000000000000000e+03 2.678901481628417969e+01 -7.149125337600708008e-01 6.354855000972747803e-02 3.330774545669555664e+00 1.018296957015991211e+00 8.199226260185241699e-01
3.218000000000000000e+03 2.856460380554199219e+01 -4.031606674194335938e+00 9.874756336212158203e-01 2.977907419204711914e+00 1.189614892005920410e+00 1.168130159378051758e+00
3.219000000000000000e+03 2.613286018371582031e+01 -3.425788402557373047e+00 2.695440649986267090e-01 3.336518526077270508e+00 1.081818819046020508e+00 1.509166836738586426e+00
3.220000000000000000e+03 2.695670318603515625e+01 1.260624408721923828e+00 1.466939002275466919e-01 3.302400112152099609e+00 1.034728169441223145e+00 5.061320662498474121e-01
3.221000000000000000e+03 2.896282005310058594e+01 -7.454514503479003906e-01 4.003062546253204346e-01 3.570722579956054688e+00 1.191308617591857910e+00 7.415428757667541504e-01
3.222000000000000000e+03 2.623712539672851562e+01 6.839345693588256836e-01 8.353729732334613800e-03 3.175838470458984375e+00 9.552576541900634766e-01 5.517513155937194824e-01
3.223000000000000000e+03 2.132546615600585938e+01 1.399225234985351562e+01 8.238918185234069824e-01 1.650956273078918457e+00 7.424544095993041992e-01 -2.703801989555358887e-01
3.224000000000000000e+03 2.144316864013671875e+01 1.250661659240722656e+01 8.244846463203430176e-01 1.628335475921630859e+00 7.358460426330566406e-01 -2.299301922321319580e-01
3.225000000000000000e+03 2.820511627197265625e+01 3.940119966864585876e-02 2.879029214382171631e-01 3.532071113586425781e+00 1.145992159843444824e+00 6.777079701423645020e-01
3.226000000000000000e+03 2.029993629455566406e+01 1.854476356506347656e+01 6.851429939270019531e-01 1.635348081588745117e+00 6.961473226547241211e-01 -4.023274779319763184e-01
3.227000000000000000e+03 2.494580650329589844e+01 1.247443389892578125e+01 9.622835516929626465e-01 2.509229183197021484e+00 1.041453838348388672e+00 -3.113068342208862305e-01
3.228000000000000000e+03 2.466219139099121094e+01 2.214796638488769531e+01 5.403252243995666504e-01 2.738190174102783203e+00 9.835546612739562988e-01 -6.502507925033569336e-01
3.229000000000000000e+03 2.818090438842773438e+01 -3.611661911010742188e+00 8.140897750854492188e-01 3.105297088623046875e+00 1.175816059112548828e+00 1.229141831398010254e+00
3.230000000000000000e+03 2.935008811950683594e+01 -2.934731006622314453e+00 7.567557096481323242e-01 3.261973857879638672e+00 1.205618858337402344e+00 9.099279642105102539e-01
3.231000000000000000e+03 2.688801002502441406e+01 -2.393027782440185547e+00 2.264549285173416138e-01 3.327770471572875977e+00 1.066267609596252441e+00 1.183196783065795898e+00
3.232000000000000000e+03 2.656982040405273438e+01 -1.288706541061401367e+00 6.065378710627555847e-02 3.323473215103149414e+00 1.015238165855407715e+00 9.206866621971130371e-01
3.233000000000000000e+03 2.671839141845703125e+01 -2.896422386169433594e+00 2.931300997734069824e-01 3.305394649505615234e+00 1.079557418823242188e+00 1.297940015792846680e+00
3.234000000000000000e+03 2.872081375122070312e+01 -1.977879047393798828e+00 5.184776186943054199e-01 3.416748523712158203e+00 1.180567860603332520e+00 9.189012646675109863e-01
3.235000000000000000e+03 2.753659057617187500e+01 6.072514653205871582e-01 1.814515441656112671e-01 3.417662620544433594e+00 1.079734325408935547e+00 6.027287840843200684e-01
3.236000000000000000e+03 2.906028938293457031e+01 -3.707581520080566406e+00 9.219014048576354980e-01 3.081202745437622070e+00 1.200931191444396973e+00 1.014200448989868164e+00
3.237000000000000000e+03 2.785617637634277344e+01 -1.760953426361083984e+00 3.362624049186706543e-01 3.393224716186523438e+00 1.118846178054809570e+00 9.821654558181762695e-01
3.238000000000000000e+03 2.826731109619140625e+01 6.812168359756469727e-01 2.856884598731994629e-01 3.550393342971801758e+00 1.150824546813964844e+00 5.973384976387023926e-01
3.239000000000000000e+03 2.755097007751464844e+01 1.190884828567504883e+00 2.075403034687042236e-01 3.416180610656738281e+00 1.087116241455078125e+00 5.329473614692687988e-01
3.240000000000000000e+03 2.990801429748535156e+01 -3.837567329406738281e+00 9.711779952049255371e-01 3.102549076080322266e+00 1.222118139266967773e+00 7.650781273841857910e-01
3.241000000000000000e+03 2.531367683410644531e+01 1.044768714904785156e+01 9.304950237274169922e-01 2.610326766967773438e+00 1.062246561050415039e+00 -2.146920859813690186e-01
3.242000000000000000e+03 2.567508888244628906e+01 2.784730720520019531e+01 -1.331748208031058311e-03 3.069214582443237305e+00 9.203648567199707031e-01 -6.349636316299438477e-01
3.243000000000000000e+03 2.024543952941894531e+01 2.084974861145019531e+01 5.468053817749023438e-01 1.698842525482177734e+00 6.736943721771240234e-01 -4.582366049289703369e-01
3.244000000000000000e+03 2.732333564758300781e+01 -3.898595094680786133e+00 7.381132841110229492e-01 3.113461732864379883e+00 1.155472517013549805e+00 1.475091218948364258e+00
3.245000000000000000e+03 2.837042045593261719e+01 -2.785513162612915039e+00 6.240351200103759766e-01 3.267108917236328125e+00 1.167343139648437500e+00 1.089497804641723633e+00
3.246000000000000000e+03 2.829853820800781250e+01 -1.000071167945861816e+00 3.266992866992950439e-01 3.486686468124389648e+00 1.144015669822692871e+00 8.184103965759277344e-01
3.247000000000000000e+03 2.747887611389160156e+01 -6.638476252555847168e-01 1.884699463844299316e-01 3.413805484771728516e+00 1.080682635307312012e+00 8.100791573524475098e-01
3.248000000000000000e+03 2.726904678344726562e+01 -3.435167074203491211e+00 6.023560166358947754e-01 3.196852445602416992e+00 1.139762520790100098e+00 1.391432762145996094e+00
3.249000000000000000e+03 2.682659149169921875e+01 -6.789046525955200195e-02 6.503918021917343140e-02 3.316926240921020508e+00 1.014589667320251465e+00 6.843004822731018066e-01
3.250000000000000000e+03 2.750060081481933594e+01 -2.017763257026672363e-02 1.661802977323532104e-01 3.414868354797363281e+00 1.074314594268798828e+00 6.987941861152648926e-01
3.251000000000000000e+03 2.929857444763183594e+01 -1.671901106834411621e+00 5.356002449989318848e-01 3.508324623107910156e+00 1.213177442550659180e+00 7.890030741691589355e-01
3.252000000000000000e+03 2.908552360534667969e+01 -1.252234578132629395e+00 4.580018222332000732e-01 3.559740781784057617e+00 1.205322742462158203e+00 7.805437445640563965e-01
3.253000000000000000e+03 2.815433883666992188e+01 -5.061434507369995117e-01 2.742629945278167725e-01 3.487909078598022461e+00 1.128651618957519531e+00 7.673110365867614746e-01
3.254000000000000000e+03 2.760844039916992188e+01 -1.249398708343505859e+00 2.312805354595184326e-01 3.399707317352294922e+00 1.089296340942382812e+00 8.966749310493469238e-01
3.255000000000000000e+03 2.848307418823242188e+01 -1.494990468025207520e+00 4.035321772098541260e-01 3.452907800674438477e+00 1.156931996345520020e+00 8.767545819282531738e-01
3.256000000000000000e+03 2.807891845703125000e+01 -2.279847383499145508e+00 4.662452042102813721e-01 3.337378025054931641e+00 1.141086935997009277e+00 1.050927400588989258e+00
3.257000000000000000e+03 2.781306648254394531e+01 -3.184843778610229492e+00 6.315569877624511719e-01 3.202365398406982422e+00 1.150176763534545898e+00 1.244867324829101562e+00
3.258000000000000000e+03 2.873162841796875000e+01 -3.248257875442504883e+00 7.664067149162292480e-01 3.184275388717651367e+00 1.185204625129699707e+00 1.061063647270202637e+00
3.259000000000000000e+03 2.626649856567382812e+01 -1.592124253511428833e-01 -3.796188533306121826e-02 3.222281932830810547e+00 9.552959799766540527e-01 6.832668781280517578e-01
3.260000000000000000e+03 2.743688583374023438e+01 -2.464725255966186523e+00 3.942500352859497070e-01 3.317174196243286133e+00 1.113427281379699707e+00 1.165883302688598633e+00
3.261000000000000000e+03 3.258296966552734375e+01 2.207782554626464844e+01 5.962250828742980957e-01 4.775080204010009766e+00 1.611391663551330566e+00 -6.577192544937133789e-01
3.262000000000000000e+03 1.993873596191406250e+01 2.692785072326660156e+01 1.323596984148025513e-01 1.905743479728698730e+00 6.114309430122375488e-01 -5.017117261886596680e-01
3.263000000000000000e+03 8.026204109191894531e+00 -4.139614486694335938e+01 -1.475864648818969727e-01 1.540182709693908691e+00 4.177788496017456055e-01 5.708359554409980774e-02
3.264000000000000000e+03 3.448807525634765625e+01 2.380317115783691406e+01 3.506769537925720215e-01 5.167663574218750000e+00 1.655502200126647949e+00 -5.279988646507263184e-01
3.265000000000000000e+03 1.962558937072753906e+01 3.005741310119628906e+01 -5.646145343780517578e-02 1.942045450210571289e+00 5.656751990318298340e-01 -4.668965339660644531e-01
3.266000000000000000e+03 1.513227844238281250e+01 2.811740112304687500e+01 8.563318103551864624e-02 9.954338669776916504e-01 3.243201076984405518e-01 -3.367308974266052246e-01
3.267000000000000000e+03 9.848526000976562500e+00 3.529694747924804688e+01 -6.829340755939483643e-02 2.012311518192291260e-01 3.988132253289222717e-02 -1.454253941774368286e-01
3.268000000000000000e+03 5.295949935913085938e+01 -3.859864807128906250e+01 -1.259181499481201172e+00 5.976497173309326172e+00 1.415194749832153320e+00 -5.566591024398803711e-01
3.269000000000000000e+03 7.807693004608154297e+00 -3.351490783691406250e+01 -1.131009459495544434e+00 1.763231515884399414e+00 1.896666437387466431e-01 5.311248302459716797e-01
3.270000000000000000e+03 7.353466987609863281e+00 -3.675701904296875000e+01 -5.343523621559143066e-01 1.764887690544128418e+00 3.691605925559997559e-01 2.430617809295654297e-01
3.271000000000000000e+03 7.304570007324218750e+01 -3.608794403076171875e+01 -4.778524935245513916e-01 5.787469863891601562e+00 1.592885255813598633e+00 2.326247245073318481e-01
3.272000000000000000e+03 2.917430305480957031e+01 -3.657430267333984375e+01 -1.471035838127136230e+00 -6.590959429740905762e-02 -4.610836505889892578e-01 -9.723874181509017944e-02
3.273000000000000000e+03 2.836987686157226562e+01 -3.891453552246093750e+01 -1.192401647567749023e+00 -2.473160326480865479e-01 -4.319153130054473877e-01 -8.439939469099044800e-02
3.274000000000000000e+03 3.799560165405273438e+01 -3.691878509521484375e+01 -1.332394838333129883e+00 1.390067338943481445e+00 1.730176620185375214e-02 6.281446218490600586e-01
3.275000000000000000e+03 4.138145446777343750e+01 -4.113282394409179688e+01 -1.649361610412597656e+00 3.758272409439086914e+00 6.326732635498046875e-01 1.495390981435775757e-01
3.276000000000000000e+03 9.200269699096679688e+00 3.813762283325195312e+01 -1.017147898674011230e-01 9.522393345832824707e-02 -1.947257085703313351e-03 -8.521519601345062256e-02
3.277000000000000000e+03 3.075678253173828125e+01 2.397085762023925781e+01 3.467174470424652100e-01 4.235823154449462891e+00 1.374762177467346191e+00 -7.197092771530151367e-01
3.278000000000000000e+03 3.073157119750976562e+01 2.605399894714355469e+01 9.754045307636260986e-02 4.177618980407714844e+00 1.282547831535339355e+00 -6.981681585311889648e-01
3.279000000000000000e+03 4.280841827392578125e+01 3.451093292236328125e+01 -9.201038479804992676e-01 4.208009719848632812e+00 9.863718152046203613e-01 3.250072002410888672e-01
3.280000000000000000e+03 4.801358413696289062e+01 3.691895675659179688e+01 -8.076151013374328613e-01 2.722202301025390625e+00 5.743761658668518066e-01 4.126846790313720703e-01
3.281000000000000000e+03 3.369497299194335938e+01 3.081104087829589844e+01 -5.390107631683349609e-01 4.522863388061523438e+00 1.195155739784240723e+00 -4.587254822254180908e-01
3.282000000000000000e+03 3.456894302368164062e+01 3.368532180786132812e+01 -8.560394048690795898e-01 4.490417003631591797e+00 1.090313315391540527e+00 -3.127205073833465576e-01
3.283000000000000000e+03 2.546082496643066406e+01 -3.587191772460937500e+01 -1.475149989128112793e+00 -1.446928977966308594e-01 -4.859528541564941406e-01 9.208355844020843506e-02
3.284000000000000000e+03 7.812731170654296875e+01 -4.166793060302734375e+01 1.913506984710693359e-01 7.842370033264160156e+00 2.410116195678710938e+00 5.369759351015090942e-02
3.285000000000000000e+03 2.192760086059570312e+01 2.567808723449707031e+01 2.263098359107971191e-01 2.269176244735717773e+00 7.486458420753479004e-01 -5.771150588989257812e-01
3.286000000000000000e+03 3.893014526367187500e+01 3.541287612915039062e+01 -1.095910668373107910e+00 4.512010097503662109e+00 1.024829864501953125e+00 -4.096341505646705627e-02
3.287000000000000000e+03 4.199940109252929688e+01 3.141014480590820312e+01 -5.974464416503906250e-01 4.657179355621337891e+00 1.217919826507568359e+00 3.874966204166412354e-01
3.288000000000000000e+03 4.457511901855468750e+01 -3.963348770141601562e+01 -1.864355802536010742e+00 5.268822669982910156e+00 1.021340012550354004e+00 1.548130810260772705e-01
3.289000000000000000e+03 9.251621246337890625e+00 -3.726664352416992188e+01 -5.923269987106323242e-01 1.081127047538757324e+00 1.466400027275085449e-01 1.772360652685165405e-01
3.290000000000000000e+03 2.337738037109375000e+01 -4.102013778686523438e+01 -9.992539286613464355e-01 -4.275399148464202881e-01 -4.280381500720977783e-01 4.282424971461296082e-02
3.291000000000000000e+03 8.185403823852539062e+00 4.106369400024414062e+01 -9.176710247993469238e-02 -8.788088709115982056e-02 -5.389439687132835388e-02 -1.850000955164432526e-02
3.292000000000000000e+03 1.175837135314941406e+01 -3.928922653198242188e+01 -3.996123075485229492e-01 3.596943616867065430e-01 -1.197538152337074280e-02 1.164699494838714600e-01
3.293000000000000000e+03 2.777550125122070312e+01 -4.134107971191406250e+01 -1.080150961875915527e+00 -3.218621611595153809e-01 -4.206039309501647949e-01 -1.179614104330539703e-02
3.294000000000000000e+03 2.487600326538085938e+01 -3.825976943969726562e+01 -1.266917586326599121e+00 -2.769534885883331299e-01 -4.631613492965698242e-01 1.298949122428894043e-01
3.295000000000000000e+03 3.190291976928710938e+01 3.737455749511718750e+01 -1.012402772903442383e+00 4.098529815673828125e+00 9.258380532264709473e-01 -2.348524183034896851e-01
3.296000000000000000e+03 3.595776367187500000e+01 3.696557998657226562e+01 -1.148367524147033691e+00 4.440729141235351562e+00 9.877085089683532715e-01 -1.538461744785308838e-01
3.297000000000000000e+03 1.709807014465332031e+01 3.745926666259765625e+01 -3.049167096614837646e-01 1.612812161445617676e+00 3.923686444759368896e-01 -1.853678077459335327e-01
3.298000000000000000e+03 3.315731048583984375e+01 2.826445960998535156e+01 -2.234419733285903931e-01 4.578236103057861328e+00 1.306438207626342773e+00 -5.645582675933837891e-01
3.299000000000000000e+03 1.832899856567382812e+01 3.229242706298828125e+01 -1.557968407869338989e-01 1.751703739166259766e+00 4.787720739841461182e-01 -3.650874197483062744e-01
3.300000000000000000e+03 1.461792945861816406e+01 3.161306762695312500e+01 -5.182509869337081909e-02 9.985059499740600586e-01 2.840042412281036377e-01 -3.030282258987426758e-01
3.301000000000000000e+03 2.836517906188964844e+01 3.388654327392578125e+01 -6.148733496665954590e-01 3.646817445755004883e+00 9.095832705497741699e-01 -4.879871904850006104e-01
3.302000000000000000e+03 2.346144866943359375e+01 3.063944816589355469e+01 -1.938147544860839844e-01 2.675425291061401367e+00 7.444831728935241699e-01 -5.086462497711181641e-01
3.303000000000000000e+03 2.459244918823242188e+01 3.557560348510742188e+01 -5.542880892753601074e-01 3.017870664596557617e+00 7.390747666358947754e-01 -3.374353647232055664e-01
3.304000000000000000e+03 2.134550476074218750e+01 3.077170181274414062e+01 -1.096232905983924866e-01 2.243850231170654297e+00 6.402680873870849609e-01 -5.063384175300598145e-01
3.305000000000000000e+03 3.706174087524414062e+01 3.270570755004882812e+01 -8.311439156532287598e-01 4.726025581359863281e+00 1.168464422225952148e+00 -1.974083036184310913e-01
3.306000000000000000e+03 2.772621917724609375e+01 3.706758117675781250e+01 -7.654170393943786621e-01 3.510108232498168945e+00 8.234073519706726074e-01 -3.063051700592041016e-01
3.307000000000000000e+03 1.129271984100341797e+01 -3.741993331909179688e+01 -6.101237535476684570e-01 4.709668457508087158e-01 -4.174707457423210144e-02 1.733240783214569092e-01
3.308000000000000000e+03 3.151407623291015625e+01 3.408637619018554688e+01 -7.720152139663696289e-01 4.097219944000244141e+00 9.975613951683044434e-01 -4.160957038402557373e-01
3.309000000000000000e+03 3.085253524780273438e+01 2.839502334594726562e+01 -1.895252913236618042e-01 4.159305572509765625e+00 1.190934062004089355e+00 -6.440024971961975098e-01
3.310000000000000000e+03 2.834941673278808594e+01 2.821348762512207031e+01 -1.022817194461822510e-01 3.668869018554687500e+00 1.069976210594177246e+00 -6.710264682769775391e-01
3.311000000000000000e+03 2.107609176635742188e+01 2.875750160217285156e+01 1.139931380748748779e-02 2.152976274490356445e+00 6.493126153945922852e-01 -5.192634463310241699e-01
3.312000000000000000e+03 2.583383560180664062e+01 3.061948966979980469e+01 -2.845201492309570312e-01 3.168841361999511719e+00 8.652963638305664062e-01 -5.517978668212890625e-01
3.313000000000000000e+03 3.113470077514648438e+01 3.107065200805664062e+01 -4.768393337726593018e-01 4.137203216552734375e+00 1.098109126091003418e+00 -5.587710738182067871e-01
3.314000000000000000e+03 1.654251861572265625e+01 3.013702583312988281e+01 -2.339729852974414825e-02 1.298594355583190918e+00 3.825591206550598145e-01 -3.426685631275177002e-01
3.315000000000000000e+03 1.807172012329101562e+01 -7.824611663818359375e+00 2.112434387207031250e+00 -1.479317665100097656e+00 1.899350285530090332e-01 1.027757763862609863e+00
3.316000000000000000e+03 1.923069953918457031e+01 -8.357702255249023438e+00 4.224357128143310547e+00 -2.070696592330932617e+00 6.460981965065002441e-01 4.999013841152191162e-01
3.317000000000000000e+03 1.937159919738769531e+01 -8.462677955627441406e+00 4.747505664825439453e+00 -2.090521574020385742e+00 7.970952987670898438e-01 4.131446480751037598e-01
3.318000000000000000e+03 1.918148040771484375e+01 -9.061614990234375000e+00 6.168201923370361328e+00 -2.584620475769042969e+00 1.075074434280395508e+00 1.815308928489685059e+00
3.319000000000000000e+03 1.943516159057617188e+01 -9.168179512023925781e+00 7.109639644622802734e+00 -2.664687395095825195e+00 1.333485722541809082e+00 2.071868419647216797e+00
3.320000000000000000e+03 1.959090995788574219e+01 -9.314117431640625000e+00 8.047561645507812500e+00 -2.781778812408447266e+00 1.579734802246093750e+00 2.413683414459228516e+00
3.321000000000000000e+03 1.991105842590332031e+01 -9.667888641357421875e+00 9.532117843627929688e+00 -2.438029527664184570e+00 2.128226280212402344e+00 3.775466203689575195e+00
3.322000000000000000e+03 2.011394500732421875e+01 -1.006787872314453125e+01 9.180899620056152344e+00 -1.443538188934326172e+00 2.321208238601684570e+00 5.512974739074707031e+00
3.323000000000000000e+03 2.187047958374023438e+01 -5.649437427520751953e+00 -1.084227204322814941e+00 3.060238122940063477e+00 5.928032994270324707e-01 6.052387952804565430e-01
3.324000000000000000e+03 2.211014175415039062e+01 -6.210046291351318359e+00 -1.009174466133117676e+00 4.073540210723876953e+00 9.193096756935119629e-01 9.403968453407287598e-01
3.325000000000000000e+03 2.200478172302246094e+01 -6.046980857849121094e+00 -1.036042809486389160e+00 3.652467012405395508e+00 7.849272489547729492e-01 7.403905987739562988e-01
3.326000000000000000e+03 2.247058868408203125e+01 -6.673293590545654297e+00 -6.904385089874267578e-01 5.569551467895507812e+00 1.463733911514282227e+00 1.829186558723449707e+00
3.327000000000000000e+03 2.257640647888183594e+01 -6.837852478027343750e+00 -4.662355184555053711e-01 6.014012336730957031e+00 1.664332985877990723e+00 2.306955814361572266e+00
3.328000000000000000e+03 2.286422157287597656e+01 -7.106782913208007812e+00 4.268864095211029053e-01 6.635384082794189453e+00 2.118681192398071289e+00 3.405497550964355469e+00
3.329000000000000000e+03 2.278030395507812500e+01 -7.474474906921386719e+00 1.121596574783325195e+00 7.575580120086669922e+00 2.609153032302856445e+00 4.235675334930419922e+00
3.330000000000000000e+03 2.302832031250000000e+01 -7.278132438659667969e+00 1.405938386917114258e+00 6.561297893524169922e+00 2.390170812606811523e+00 4.149075508117675781e+00
3.331000000000000000e+03 2.303313827514648438e+01 -7.830523967742919922e+00 3.520021438598632812e+00 7.345465183258056641e+00 3.259645938873291016e+00 5.931491851806640625e+00
3.332000000000000000e+03 2.325878715515136719e+01 -8.182855606079101562e+00 6.883268356323242188e+00 5.398693084716796875e+00 3.684588432312011719e+00 5.707135200500488281e+00
3.333000000000000000e+03 5.600741958618164062e+01 -3.442076110839843750e+01 4.620230793952941895e-01 6.152098655700683594e+00 1.984236478805541992e+00 -1.870413661003112793e+00
3.334000000000000000e+03 4.273723220825195312e+01 -2.173584365844726562e+01 5.075139045715332031e+00 1.506142520904541016e+01 6.040969371795654297e+00 -4.763768196105957031e+00
3.335000000000000000e+03 6.750236511230468750e+01 4.124689483642578125e+01 2.734639942646026611e-01 1.975236773490905762e+00 6.746101975440979004e-01 -6.644805520772933960e-02
3.336000000000000000e+03 3.945419311523437500e+01 -3.868856430053710938e+01 -1.361404657363891602e+00 2.507074356079101562e+00 3.437009155750274658e-01 5.630177855491638184e-01
3.337000000000000000e+03 1.889541244506835938e+01 -8.860798835754394531e+00 5.121966838836669922e+00 -2.325527906417846680e+00 8.389316797256469727e-01 1.510254502296447754e+00
3.338000000000000000e+03 1.934700012207031250e+01 -8.775506019592285156e+00 5.742637157440185547e+00 -2.353375196456909180e+00 1.016778588294982910e+00 1.013126254081726074e+00
3.339000000000000000e+03 1.918544578552246094e+01 -8.607546806335449219e+00 4.898125648498535156e+00 -2.259655952453613281e+00 7.915408611297607422e-01 8.100912570953369141e-01
3.340000000000000000e+03 1.936784553527832031e+01 -9.451690673828125000e+00 7.506164073944091797e+00 -2.821818351745605469e+00 1.405303597450256348e+00 2.920827865600585938e+00
3.341000000000000000e+03 1.972800254821777344e+01 -9.504163742065429688e+00 8.645953178405761719e+00 -2.606174945831298828e+00 1.811933517456054688e+00 3.110229015350341797e+00
3.342000000000000000e+03 2.011855506896972656e+01 -9.746256828308105469e+00 9.708825111389160156e+00 -2.092212915420532227e+00 2.284983634948730469e+00 4.149125576019287109e+00
3.343000000000000000e+03 2.401191139221191406e+01 -7.698353290557861328e+00 4.358561515808105469e+00 4.025348663330078125e+00 2.515172958374023438e+00 4.475208759307861328e+00
3.344000000000000000e+03 4.370763397216796875e+01 -2.780527114868164062e+01 1.345056891441345215e+00 1.006961917877197266e+01 3.424402713775634766e+00 -4.304496943950653076e-01
3.345000000000000000e+03 2.212926101684570312e+01 -4.719933986663818359e+00 -1.112520456314086914e+00 2.866693973541259766e+00 5.262520313262939453e-01 6.847633123397827148e-01
3.346000000000000000e+03 5.413666534423828125e+01 -3.370660018920898438e+01 7.600554227828979492e-01 6.781612873077392578e+00 2.262500524520874023e+00 -9.432776570320129395e-01
3.347000000000000000e+03 7.266689300537109375e+01 -2.746478652954101562e+01 1.452644228935241699e+00 1.056209850311279297e+01 3.604422807693481445e+00 7.246196866035461426e-01
3.348000000000000000e+03 7.336753082275390625e+01 -2.800780296325683594e+01 1.202094197273254395e+00 9.139938354492187500e+00 3.102609872817993164e+00 -1.582477539777755737e-01
3.349000000000000000e+03 4.039046478271484375e+01 -3.446987533569335938e+01 -1.924217104911804199e+00 3.168949127197265625e+00 3.734196126461029053e-01 1.167438387870788574e+00
3.350000000000000000e+03 4.482696914672851562e+01 -3.416903686523437500e+01 -1.459374904632568359e+00 6.465792179107666016e+00 1.501925230026245117e+00 -3.560956716537475586e-01
3.351000000000000000e+03 2.572658538818359375e+01 3.326005935668945312e+01 -4.855846762657165527e-01 3.246876716613769531e+00 8.283876180648803711e-01 -4.583129584789276123e-01
3.352000000000000000e+03 2.346296882629394531e+01 -1.258651542663574219e+01 -3.782333612442016602e+00 5.694219470024108887e-01 -9.638735055923461914e-01 -2.339681982994079590e-01
3.353000000000000000e+03 2.307544326782226562e+01 -1.205136203765869141e+01 -8.762500882148742676e-01 1.841317057609558105e+00 2.895200848579406738e-01 -1.284827888011932373e-01
3.354000000000000000e+03 2.217451858520507812e+01 -5.793305397033691406e+00 -1.074331164360046387e+00 3.691314697265625000e+00 7.850950956344604492e-01 8.380703926086425781e-01
3.355000000000000000e+03 2.219450950622558594e+01 -5.594375610351562500e+00 -1.060285091400146484e+00 3.539018392562866211e+00 7.436199784278869629e-01 8.646833896636962891e-01
3.356000000000000000e+03 6.871151733398437500e+01 -3.588342285156250000e+01 -2.506555914878845215e-01 2.799306154251098633e+00 7.645951509475708008e-01 9.306238889694213867e-01
3.357000000000000000e+03 3.299152851104736328e+00 -3.819657564163208008e+00 -2.762468159198760986e-01 -2.695224285125732422e-01 -1.637307703495025635e-01 -6.400822997093200684e-01
3.358000000000000000e+03 1.918027305603027344e+01 -9.958595275878906250e+00 6.875818729400634766e+00 -2.617714166641235352e+00 1.277431368827819824e+00 4.038876056671142578e+00
3.359000000000000000e+03 2.532451057434082031e+01 -1.170520305633544922e+01 9.012939929962158203e-01 7.306202054023742676e-01 4.895742535591125488e-01 -1.586487054824829102e+00
3.360000000000000000e+03 2.141849517822265625e+01 -3.553752660751342773e+00 -1.082596182823181152e+00 1.718538880348205566e+00 1.907828152179718018e-01 3.734705746173858643e-01
3.361000000000000000e+03 1.759263992309570312e+01 -8.562895774841308594e+00 2.852250814437866211e+00 -1.418552041053771973e+00 4.301096498966217041e-01 1.813631296157836914e+00
3.362000000000000000e+03 2.348885726928710938e+01 -7.426849365234375000e+00 2.694515943527221680e+00 5.706803321838378906e+00 2.520395755767822266e+00 4.872939109802246094e+00
3.363000000000000000e+03 2.110153675079345703e+00 3.703966903686523438e+01 -1.890441752038896084e-03 -1.131221055984497070e+00 -3.399334549903869629e-01 -5.491482466459274292e-02
3.364000000000000000e+03 5.058886718750000000e+01 -3.389460372924804688e+01 2.007066160440444946e-01 6.380468368530273438e+00 1.974352478981018066e+00 -1.058990716934204102e+00
3.365000000000000000e+03 1.773307991027832031e+01 -8.192940711975097656e+00 2.702395200729370117e+00 -1.485062837600708008e+00 3.651997148990631104e-01 1.475284337997436523e+00
3.366000000000000000e+03 1.776912498474121094e+01 -8.898778915405273438e+00 3.491737365722656250e+00 -1.623775005340576172e+00 5.603886842727661133e-01 2.071288824081420898e+00
3.367000000000000000e+03 2.370788335800170898e+00 3.613361597061157227e+00 -8.123368769884109497e-02 -1.480314731597900391e-01 -6.877955049276351929e-02 1.689544469118118286e-01
3.368000000000000000e+03 1.953317642211914062e+01 -1.030388259887695312e+01 6.874557971954345703e+00 -1.969805955886840820e+00 1.471425652503967285e+00 5.109291553497314453e+00
3.369000000000000000e+03 7.419278717041015625e+01 -3.519063949584960938e+01 -5.459282398223876953e-01 6.712243556976318359e+00 1.849894642829895020e+00 -1.150013878941535950e-01
3.370000000000000000e+03 2.094705009460449219e+01 -2.865175008773803711e+00 -1.043199777603149414e+00 1.237354636192321777e+00 5.824647471308708191e-02 3.342177867889404297e-01
3.371000000000000000e+03 2.013545608520507812e+01 -2.797938585281372070e+00 -1.089474678039550781e+00 5.653689503669738770e-01 -1.572317183017730713e-01 3.749900460243225098e-01
3.372000000000000000e+03 2.077520561218261719e+01 -2.203045606613159180e+00 -9.754769802093505859e-01 1.135859131813049316e+00 4.811465740203857422e-02 2.904877960681915283e-01
3.373000000000000000e+03 2.380787658691406250e+01 -6.926232337951660156e+00 1.774270415306091309e+00 4.805671691894531250e+00 1.973982691764831543e+00 3.795001745223999023e+00
3.374000000000000000e+03 7.262907409667968750e+01 -1.845238685607910156e+01 -1.117115139961242676e+00 6.284068584442138672e+00 1.550086140632629395e+00 -7.054419517517089844e-01
3.375000000000000000e+03 7.191664886474609375e+01 -1.757763099670410156e+01 -8.425686359405517578e-01 5.608063220977783203e+00 1.429648399353027344e+00 -8.892010450363159180e-01
3.376000000000000000e+03 7.444129943847656250e+01 3.698900222778320312e+01 -3.639383241534233093e-02 8.119722366333007812e+00 2.424998760223388672e+00 1.954006701707839966e-01
3.377000000000000000e+03 7.348265838623046875e+01 3.587844848632812500e+01 -3.957414627075195312e-01 7.156569957733154297e+00 2.028248548507690430e+00 1.846376657485961914e-01
3.378000000000000000e+03 7.370534515380859375e+01 -3.397807312011718750e+01 -5.194426178932189941e-01 6.663383007049560547e+00 1.843182206153869629e+00 -1.202502846717834473e-01
3.379000000000000000e+03 3.917494583129882812e+01 -3.584697723388671875e+01 -1.496555566787719727e+00 2.239161014556884766e+00 2.227816432714462280e-01 8.903753161430358887e-01
3.380000000000000000e+03 9.718344688415527344e+00 -2.895484161376953125e+01 -1.878520607948303223e+00 1.239531874656677246e+00 -1.916965991258621216e-01 5.683261752128601074e-01
3.381000000000000000e+03 2.384646797180175781e+01 -3.261125183105468750e+01 -1.728550553321838379e+00 1.889544539153575897e-02 -5.128965377807617188e-01 1.389812380075454712e-01
3.382000000000000000e+03 2.543091773986816406e+01 -3.385381317138671875e+01 -1.661877036094665527e+00 -1.334669534116983414e-02 -5.025671124458312988e-01 1.165028735995292664e-01
3.383000000000000000e+03 4.644445037841796875e+01 -3.381995773315429688e+01 -9.736856818199157715e-01 6.776094436645507812e+00 1.740722537040710449e+00 -7.627204656600952148e-01
3.384000000000000000e+03 5.708308792114257812e+01 -2.089697456359863281e+01 7.014226317405700684e-01 7.340747117996215820e-01 4.306492209434509277e-01 1.165415525436401367e+00
3.385000000000000000e+03 2.185900497436523438e+01 -3.427335739135742188e+01 -1.640404701232910156e+00 -1.404530107975006104e-01 -5.342572927474975586e-01 2.906120717525482178e-01
3.386000000000000000e+03 6.167980194091796875e+01 -1.838466072082519531e+01 -6.270419955253601074e-01 1.639138221740722656e+00 3.036288917064666748e-01 1.937204957008361816e+00
3.387000000000000000e+03 2.374295616149902344e+01 -7.483481407165527344e+00 3.603579998016357422e+00 4.612364292144775391e+00 2.464783191680908203e+00 4.586006164550781250e+00
3.388000000000000000e+03 2.352594757080078125e+01 -7.175875186920166016e+00 2.121852397918701172e+00 5.393214702606201172e+00 2.254520177841186523e+00 4.195798873901367188e+00
3.389000000000000000e+03 6.998622894287109375e+01 -3.551107788085937500e+01 -5.465019941329956055e-01 4.088456153869628906e+00 1.062586188316345215e+00 1.030658006668090820e+00
3.390000000000000000e+03 6.981848144531250000e+01 -3.430207061767578125e+01 -5.661955475807189941e-01 4.018471240997314453e+00 1.035682797431945801e+00 1.152070164680480957e+00
3.391000000000000000e+03 7.616422271728515625e+01 -2.120981979370117188e+01 -4.335645735263824463e-01 7.574316978454589844e+00 2.142225742340087891e+00 6.959724426269531250e-01
3.392000000000000000e+03 2.479536819458007812e+01 -8.008533477783203125e+00 5.290902614593505859e+00 2.153635501861572266e+00 2.233361482620239258e+00 3.353691101074218750e+00
3.393000000000000000e+03 5.102220153808593750e+01 -3.207656097412109375e+01 1.135602712631225586e+00 6.103810787200927734e+00 2.171823978424072266e+00 -1.316400885581970215e+00
3.394000000000000000e+03 6.967744445800781250e+01 -3.679130172729492188e+01 -1.700004935264587402e-01 3.506086826324462891e+00 1.000825881958007812e+00 8.833257555961608887e-01
3.395000000000000000e+03 7.282789611816406250e+01 -1.681933975219726562e+01 -6.730977296829223633e-01 6.050969600677490234e+00 1.613361477851867676e+00 -6.913896799087524414e-01
3.396000000000000000e+03 1.718652725219726562e+01 -8.756568908691406250e+00 2.768125534057617188e+00 -1.146905064582824707e+00 4.863661825656890869e-01 1.973571896553039551e+00
3.397000000000000000e+03 1.647150421142578125e+01 -8.737593650817871094e+00 2.206876993179321289e+00 -5.755183100700378418e-01 4.894076287746429443e-01 1.998745679855346680e+00
3.398000000000000000e+03 1.740214347839355469e+01 -9.207053184509277344e+00 3.476186752319335938e+00 -1.378032207489013672e+00 6.294463276863098145e-01 2.400910854339599609e+00
3.399000000000000000e+03 1.712001800537109375e+01 -9.924055099487304688e+00 3.532246828079223633e+00 -9.468629956245422363e-01 7.756151556968688965e-01 3.276632785797119141e+00
3.400000000000000000e+03 5.258140563964843750e+00 -1.892444610595703125e+01 1.614988684654235840e+00 2.203691959381103516e+00 1.145604133605957031e+00 1.086592793464660645e+00
3.401000000000000000e+03 2.523083114624023438e+01 -7.144722461700439453e+00 3.172879934310913086e+00 2.718288660049438477e+00 1.767350554466247559e+00 3.150288343429565430e+00
3.402000000000000000e+03 2.380233764648437500e+01 -7.195338249206542969e+00 2.582943201065063477e+00 4.826920032501220703e+00 2.222959041595458984e+00 4.226608276367187500e+00
3.403000000000000000e+03 4.940925121307373047e+00 3.638701248168945312e+01 -1.262395735830068588e-02 -6.366913318634033203e-01 -1.947945803403854370e-01 -3.119732625782489777e-02
3.404000000000000000e+03 2.013752937316894531e+01 -1.972456574440002441e+00 -9.826491475105285645e-01 6.748151779174804688e-01 -9.235019236803054810e-02 3.075063824653625488e-01
3.405000000000000000e+03 2.147580528259277344e+01 -2.582668304443359375e+00 -9.819018244743347168e-01 1.655961036682128906e+00 2.022177726030349731e-01 3.183617889881134033e-01
3.406000000000000000e+03 2.119099235534667969e+01 -2.505376100540161133e+00 -9.916371703147888184e-01 1.413819193840026855e+00 1.266545951366424561e-01 3.084566593170166016e-01
3.407000000000000000e+03 3.791811704635620117e+00 3.612581634521484375e+01 3.505568951368331909e-02 -9.049428105354309082e-01 -2.609661221504211426e-01 -4.990562796592712402e-02
3.408000000000000000e+03 6.866345977783203125e+01 -1.709150695800781250e+01 -2.979415096342563629e-02 3.023793458938598633e+00 8.981997370719909668e-01 -2.173015326261520386e-01
3.409000000000000000e+03 2.268933677673339844e+01 -5.727176666259765625e+00 -7.872146964073181152e-01 4.243320941925048828e+00 1.036831855773925781e+00 1.486122488975524902e+00
3.410000000000000000e+03 5.852888107299804688e+01 -2.113723182678222656e+01 4.616392850875854492e-01 1.020529627799987793e+00 4.446506500244140625e-01 1.736577868461608887e+00
3.411000000000000000e+03 2.319788551330566406e+01 -3.650825738906860352e+00 -8.320860862731933594e-01 3.175682783126831055e+00 7.030789852142333984e-01 9.313727617263793945e-01
3.412000000000000000e+03 2.236826515197753906e+01 -5.824189186096191406e+00 -9.449328184127807617e-01 3.962705373764038086e+00 9.053317904472351074e-01 1.089744806289672852e+00
3.413000000000000000e+03 2.233651351928710938e+01 -6.081371784210205078e+00 -9.020314812660217285e-01 4.292241573333740234e+00 1.017063021659851074e+00 1.172874569892883301e+00
3.414000000000000000e+03 7.578701019287109375e+01 -2.014088821411132812e+01 -5.961295366287231445e-01 7.534731388092041016e+00 2.081580638885498047e+00 3.557232022285461426e-01
3.415000000000000000e+03 2.416607475280761719e+01 -6.651412010192871094e+00 1.772241115570068359e+00 4.291299343109130859e+00 1.819062113761901855e+00 3.534553766250610352e+00
3.416000000000000000e+03 2.354916381835937500e+01 -6.897727489471435547e+00 1.350990295410156250e+00 5.301871776580810547e+00 1.995858550071716309e+00 3.752832889556884766e+00
3.417000000000000000e+03 2.284666061401367188e+01 -6.584753990173339844e+00 -2.819980978965759277e-01 5.665576457977294922e+00 1.615073442459106445e+00 2.451847791671752930e+00
3.418000000000000000e+03 4.861311340332031250e+01 -1.726046180725097656e+01 -6.191267371177673340e-01 5.529553413391113281e+00 1.473128080368041992e+00 -5.890842676162719727e-01
3.419000000000000000e+03 2.331020355224609375e+01 -6.549860000610351562e+00 3.552222847938537598e-01 5.347211360931396484e+00 1.710730075836181641e+00 3.069211721420288086e+00
3.420000000000000000e+03 2.305187034606933594e+01 -6.600151062011718750e+00 7.561441510915756226e-02 5.499629974365234375e+00 1.672573328018188477e+00 2.795237779617309570e+00
3.421000000000000000e+03 3.288376235961914062e+01 -1.576836872100830078e+01 -9.385314583778381348e-01 6.525245904922485352e-01 -8.580206334590911865e-02 -7.009935379028320312e-01
3.422000000000000000e+03 1.154328727722167969e+01 -6.378047943115234375e+00 -6.673370003700256348e-01 1.150501608848571777e+00 1.449493765830993652e-01 1.471632868051528931e-01
3.423000000000000000e+03 6.401824951171875000e+01 -1.763639259338378906e+01 -2.844693362712860107e-01 1.718905687332153320e+00 4.303309023380279541e-01 1.556839108467102051e+00
3.424000000000000000e+03 2.254463386535644531e+01 -6.379827976226806641e+00 -7.583480477333068848e-01 5.032025814056396484e+00 1.282103419303894043e+00 1.652954936027526855e+00
3.425000000000000000e+03 2.270012283325195312e+01 -6.098956584930419922e+00 -6.837452650070190430e-01 4.816634654998779297e+00 1.239866852760314941e+00 1.761627435684204102e+00
3.426000000000000000e+03 2.253620719909667969e+01 -5.933856487274169922e+00 -8.358078598976135254e-01 4.369022369384765625e+00 1.059964418411254883e+00 1.426277756690979004e+00
3.427000000000000000e+03 1.695736694335937500e+01 -9.499862670898437500e+00 3.254129409790039062e+00 -9.991241693496704102e-01 6.765015721321105957e-01 2.653634548187255859e+00
3.428000000000000000e+03 7.321377563476562500e+01 -1.524849033355712891e+01 -3.977169990539550781e-01 6.122050285339355469e+00 1.717299938201904297e+00 -6.262246370315551758e-01
3.429000000000000000e+03 1.307544803619384766e+01 3.697263240814208984e+00 -2.822962701320648193e-01 -5.691241025924682617e-01 -2.554261088371276855e-01 6.147195696830749512e-01
3.430000000000000000e+03 5.220227718353271484e+00 3.527474975585937500e+01 -3.367931349202990532e-03 -5.967831015586853027e-01 -1.800453066825866699e-01 -9.141390770673751831e-02
3.431000000000000000e+03 2.261185836791992188e+01 -5.491751194000244141e+00 -9.005768895149230957e-01 3.986128091812133789e+00 9.256653189659118652e-01 1.268713235855102539e+00
3.432000000000000000e+03 2.711246109008789062e+01 -1.025447463989257812e+01 2.677563905715942383e+00 3.675875961780548096e-01 9.135454893112182617e-01 -6.088840961456298828e-01
3.433000000000000000e+03 7.441579437255859375e+01 6.667743921279907227e-01 6.349813342094421387e-01 8.406050682067871094e+00 2.712309598922729492e+00 1.577180624008178711e-01
3.434000000000000000e+03 7.325910186767578125e+01 4.718431949615478516e+00 5.387502908706665039e-01 9.897326469421386719e+00 3.130823135375976562e+00 6.506696939468383789e-01
3.435000000000000000e+03 2.635346794128417969e+01 -9.005013465881347656e+00 4.150536537170410156e+00 6.718654632568359375e-01 1.446720480918884277e+00 7.972518205642700195e-01
3.436000000000000000e+03 2.595181465148925781e+01 -8.819709777832031250e+00 4.522070884704589844e+00 6.913317441940307617e-01 1.564020752906799316e+00 1.186101794242858887e+00
3.437000000000000000e+03 6.646696472167968750e+01 -1.513780975341796875e+01 5.810986161231994629e-01 2.773024559020996094e+00 1.006236910820007324e+00 7.577295303344726562e-01
3.438000000000000000e+03 7.472133636474609375e+01 1.480152034759521484e+01 -6.134282052516937256e-02 8.416194915771484375e+00 2.506455659866333008e+00 5.421252250671386719e-01
3.439000000000000000e+03 1.140726757049560547e+01 -3.587582397460937500e+01 -8.659995198249816895e-01 3.501400053501129150e-01 -1.547578573226928711e-01 2.010511010885238647e-01
3.440000000000000000e+03 6.909825897216796875e+01 -1.530441856384277344e+01 1.883709132671356201e-01 3.799013614654541016e+00 1.196215391159057617e+00 -5.129158496856689453e-02
3.441000000000000000e+03 2.359269332885742188e+01 -6.577636718750000000e+00 7.711582183837890625e-01 5.041325569152832031e+00 1.743745088577270508e+00 3.255249738693237305e+00
3.442000000000000000e+03 2.399959182739257812e+01 -5.765580177307128906e+00 3.692027032375335693e-01 4.280194282531738281e+00 1.394819021224975586e+00 2.574538707733154297e+00
3.443000000000000000e+03 2.575403404235839844e+01 -6.953907489776611328e+00 2.912916660308837891e+00 2.363574981689453125e+00 1.582947492599487305e+00 2.690834283828735352e+00
3.444000000000000000e+03 1.657648277282714844e+01 -9.904883384704589844e+00 2.986485481262207031e+00 -4.271425306797027588e-01 7.678028941154479980e-01 3.024119138717651367e+00
3.445000000000000000e+03 3.474888229370117188e+01 -1.373260021209716797e+01 -1.763742789626121521e-02 2.068539142608642578e+00 6.152704954147338867e-01 -1.983509659767150879e+00
3.446000000000000000e+03 3.389073562622070312e+01 -1.394045066833496094e+01 -1.874553710222244263e-01 1.570512413978576660e+00 4.149171411991119385e-01 -1.666965961456298828e+00
3.447000000000000000e+03 3.239301681518554688e+01 -1.385525226593017578e+01 -4.504328668117523193e-01 1.137966632843017578e+00 2.062601149082183838e-01 -1.197861671447753906e+00
3.448000000000000000e+03 2.247293472290039062e+01 -1.971866488456726074e+00 -8.017602562904357910e-01 2.289513826370239258e+00 4.463260769844055176e-01 4.184614121913909912e-01
3.449000000000000000e+03 1.096593570709228516e+01 -6.926653861999511719e+00 -4.973737895488739014e-01 1.375830292701721191e+00 2.635369300842285156e-01 2.550901379436254501e-03
3.450000000000000000e+03 7.490646362304687500e+01 9.801604270935058594e+00 -1.215264573693275452e-01 8.428261756896972656e+00 2.492020606994628906e+00 8.060153722763061523e-01
3.451000000000000000e+03 2.327380752563476562e+01 -5.624133586883544922e+00 -4.088113903999328613e-01 4.430561065673828125e+00 1.206524848937988281e+00 1.964947104454040527e+00
3.452000000000000000e+03 2.474854469299316406e+01 -4.748146533966064453e+00 1.377021074295043945e-01 3.687359333038330078e+00 1.147518396377563477e+00 2.016739368438720703e+00
3.453000000000000000e+03 2.404707527160644531e+01 -3.381927490234375000e+00 -5.225084424018859863e-01 3.353642702102661133e+00 8.493403196334838867e-01 1.178875803947448730e+00
3.454000000000000000e+03 3.775536727905273438e+01 5.500992298126220703e+00 1.039330124855041504e+00 6.834283828735351562e+00 2.362084150314331055e+00 -3.397349417209625244e-01
3.455000000000000000e+03 3.678252792358398438e+01 6.652417182922363281e+00 1.224196553230285645e+00 6.529386997222900391e+00 2.326075077056884766e+00 -1.881454139947891235e-01
3.456000000000000000e+03 7.472499084472656250e+01 1.905620574951171875e+01 8.526515960693359375e-02 8.380309104919433594e+00 2.539672136306762695e+00 6.166280508041381836e-01
3.457000000000000000e+03 2.689845275878906250e+01 -7.951774597167968750e+00 3.362686872482299805e+00 1.225063443183898926e+00 1.376325130462646484e+00 1.359077930450439453e+00
3.458000000000000000e+03 7.367249298095703125e+01 2.844383621215820312e+01 -1.610651165246963501e-01 7.641264438629150391e+00 2.244059801101684570e+00 8.116441369056701660e-01
3.459000000000000000e+03 7.456816864013671875e+01 2.998007774353027344e+01 -2.043113559484481812e-01 8.167244911193847656e+00 2.388880014419555664e+00 7.319490313529968262e-01
3.460000000000000000e+03 7.464566040039062500e+01 2.435567474365234375e+01 1.578509062528610229e-01 8.244966506958007812e+00 2.520845413208007812e+00 7.384658455848693848e-01
3.461000000000000000e+03 3.004330444335937500e+01 -1.148118019104003906e+01 5.301564335823059082e-01 9.520931243896484375e-01 4.446748793125152588e-01 -1.155302524566650391e+00
3.462000000000000000e+03 2.996708488464355469e+01 -1.068240737915039062e+01 1.134790301322937012e+00 9.922179579734802246e-01 6.381024718284606934e-01 -1.011277794837951660e+00
3.463000000000000000e+03 3.107580757141113281e+01 -1.106258678436279297e+01 6.632487177848815918e-01 1.265046954154968262e+00 5.784887075424194336e-01 -1.179435610771179199e+00
3.464000000000000000e+03 2.466815185546875000e+01 -4.277079582214355469e+00 -7.962316274642944336e-02 3.622208833694458008e+00 1.062775731086730957e+00 1.754450917243957520e+00
3.465000000000000000e+03 2.466939926147460938e+01 -3.802026748657226562e+00 -2.429598122835159302e-01 3.488792896270751953e+00 9.737499356269836426e-01 1.490793466567993164e+00
3.466000000000000000e+03 3.064320182800292969e+01 -1.034170532226562500e+01 1.092913031578063965e+00 1.232026576995849609e+00 6.974818706512451172e-01 -1.015876531600952148e+00
3.467000000000000000e+03 2.653471755981445312e+01 -6.966149330139160156e+00 2.796949148178100586e+00 1.944274067878723145e+00 1.422366976737976074e+00 2.108701467514038086e+00
3.468000000000000000e+03 2.648561286926269531e+01 -6.585786342620849609e+00 2.429711103439331055e+00 2.270339727401733398e+00 1.410015225410461426e+00 2.201246023178100586e+00
3.469000000000000000e+03 2.340914344787597656e+01 -2.235253572463989258e+00 -6.924052834510803223e-01 2.824154853820800781e+00 6.395248770713806152e-01 6.755139827728271484e-01
3.470000000000000000e+03 1.149262905120849609e+01 -7.683523178100585938e+00 -1.938891857862472534e-01 1.587361097335815430e+00 4.180415868759155273e-01 2.239525616168975830e-01
3.471000000000000000e+03 1.892513084411621094e+01 2.378654479980468750e+00 -2.194962352514266968e-01 4.793219268321990967e-01 7.794771343469619751e-02 1.501577347517013550e-01
3.472000000000000000e+03 1.062429237365722656e+01 8.002775192260742188e+00 2.129283994436264038e-01 -4.441302120685577393e-01 -6.936053931713104248e-02 5.548499822616577148e-01
3.473000000000000000e+03 1.805500411987304688e+01 3.728440761566162109e+00 -2.682666108012199402e-02 2.860372960567474365e-01 7.776318490505218506e-02 1.730854660272598267e-01
3.474000000000000000e+03 2.664034652709960938e+01 -8.498241424560546875e+00 3.748827219009399414e+00 8.535282611846923828e-01 1.380706667900085449e+00 1.135924696922302246e+00
3.475000000000000000e+03 2.128404808044433594e+01 8.485515713691711426e-01 -4.267733097076416016e-01 1.412371277809143066e+00 2.956793904304504395e-01 1.347951591014862061e-01
3.476000000000000000e+03 2.312919998168945312e+01 2.802460479736328125e+01 4.388866201043128967e-02 2.546655416488647461e+00 7.771632671356201172e-01 -5.905464291572570801e-01
3.477000000000000000e+03 4.988018035888671875e+00 5.787807941436767578e+00 -9.384426474571228027e-02 -3.857555985450744629e-01 -1.438799500465393066e-01 4.930859804153442383e-01
3.478000000000000000e+03 2.512996482849121094e+01 -3.653931617736816406e+00 -6.233871728181838989e-02 3.471524477005004883e+00 1.022755742073059082e+00 1.532868504524230957e+00
3.479000000000000000e+03 2.567956542968750000e+01 -3.962275981903076172e+00 2.874103486537933350e-01 3.390088319778442383e+00 1.103249549865722656e+00 1.700713872909545898e+00
3.480000000000000000e+03 2.593972778320312500e+01 -4.694367885589599609e+00 7.529049515724182129e-01 3.265391826629638672e+00 1.205489039421081543e+00 1.987653374671936035e+00
3.481000000000000000e+03 2.430501937866210938e+01 -3.848380327224731445e+00 -3.837815523147583008e-01 3.518404960632324219e+00 9.403870701789855957e-01 1.436933755874633789e+00
3.482000000000000000e+03 3.434892654418945312e+01 -1.279667568206787109e+01 4.589960351586341858e-02 2.219320297241210938e+00 6.795659661293029785e-01 -1.949606299400329590e+00
3.483000000000000000e+03 4.044689559936523438e+01 -6.385825634002685547e+00 -4.026375710964202881e-01 5.371507167816162109e+00 1.490660786628723145e+00 -1.501489996910095215e+00
3.484000000000000000e+03 2.521184730529785156e+01 -5.549705028533935547e+00 9.726093411445617676e-01 3.502494573593139648e+00 1.342531085014343262e+00 2.506324052810668945e+00
3.485000000000000000e+03 2.632433700561523438e+01 -6.293030261993408203e+00 2.118450880050659180e+00 2.540326595306396484e+00 1.397633194923400879e+00 2.301070213317871094e+00
3.486000000000000000e+03 3.634262847900390625e+01 3.002928733825683594e+00 6.568720340728759766e-01 5.840881347656250000e+00 1.949326038360595703e+00 -2.320314347743988037e-01
3.487000000000000000e+03 1.286034870147705078e+01 -8.396590232849121094e+00 3.715446293354034424e-01 1.540091276168823242e+00 5.734907388687133789e-01 8.887966275215148926e-01
3.488000000000000000e+03 5.658670902252197266e+00 5.291732311248779297e+00 -1.459250748157501221e-01 -3.560967743396759033e-01 -1.506065577268600464e-01 5.282933712005615234e-01
3.489000000000000000e+03 6.330850601196289062e+00 6.951345920562744141e+00 -9.554278105497360229e-03 -4.714930057525634766e-01 -1.443141847848892212e-01 5.702117085456848145e-01
3.490000000000000000e+03 1.003838253021240234e+01 2.781391716003417969e+01 6.623238325119018555e-02 1.134976223111152649e-01 5.391900241374969482e-02 -1.918452531099319458e-01
3.491000000000000000e+03 2.763020324707031250e+01 -7.291380882263183594e+00 2.662199974060058594e+00 1.578363537788391113e+00 1.272168993949890137e+00 1.281625747680664062e+00
3.492000000000000000e+03 2.620650482177734375e+01 -4.153872489929199219e+00 5.880058407783508301e-01 3.255794525146484375e+00 1.153140187263488770e+00 1.754290819168090820e+00
3.493000000000000000e+03 7.122455596923828125e+00 7.023660182952880859e+00 5.249755457043647766e-03 -4.796273708343505859e-01 -1.423132866621017456e-01 5.960958003997802734e-01
3.494000000000000000e+03 7.311021804809570312e+00 6.360444068908691406e+00 -4.594946280121803284e-02 -4.590799808502197266e-01 -1.515088379383087158e-01 6.167891025543212891e-01
3.495000000000000000e+03 6.739909648895263672e+00 6.132930278778076172e+00 -8.035291731357574463e-02 -4.311336278915405273e-01 -1.534459739923477173e-01 5.962235927581787109e-01
3.496000000000000000e+03 3.414275741577148438e+01 7.868419170379638672e+00 1.314116835594177246e+00 5.466732025146484375e+00 2.034254550933837891e+00 -7.753606140613555908e-02
3.497000000000000000e+03 2.990382957458496094e+01 -8.103435516357421875e+00 1.878085970878601074e+00 1.505152344703674316e+00 1.014971494674682617e+00 -9.149854630231857300e-02
3.498000000000000000e+03 3.599987030029296875e+01 -8.837610244750976562e+00 1.915827244520187378e-01 3.686441183090209961e+00 1.163407206535339355e+00 -1.663825988769531250e+00
3.499000000000000000e+03 1.622637557983398438e+01 5.199120044708251953e+00 1.389074623584747314e-01 -2.292932197451591492e-02 3.479344025254249573e-02 2.777527272701263428e-01
3.500000000000000000e+03 2.712391090393066406e+01 -5.872355937957763672e+00 1.813675045967102051e+00 2.459146499633789062e+00 1.281846523284912109e+00 1.868502020835876465e+00
3.501000000000000000e+03 2.651954269409179688e+01 -5.732645511627197266e+00 1.623208165168762207e+00 2.734500408172607422e+00 1.307312607765197754e+00 2.120861053466796875e+00
3.502000000000000000e+03 2.476278686523437500e+01 -1.923415422439575195e+00 -3.531356155872344971e-01 3.156130790710449219e+00 8.408985733985900879e-01 8.976445794105529785e-01
3.503000000000000000e+03 2.761620712280273438e+01 -6.169089794158935547e+00 1.959359288215637207e+00 2.199696063995361328e+00 1.247716546058654785e+00 1.555788516998291016e+00
3.504000000000000000e+03 2.147108840942382812e+01 3.562400579452514648e+00 2.586352266371250153e-02 1.438078761100769043e+00 4.391826987266540527e-01 3.740805387496948242e-02
3.505000000000000000e+03 3.365686416625976562e+01 -7.291223526000976562e+00 7.588145732879638672e-01 3.051997184753417969e+00 1.143243551254272461e+00 -8.987694978713989258e-01
3.506000000000000000e+03 3.394873428344726562e+01 -9.238749504089355469e+00 5.541751384735107422e-01 2.762781858444213867e+00 9.950870871543884277e-01 -1.375615358352661133e+00
3.507000000000000000e+03 2.384540176391601562e+01 1.971837520599365234e+00 -1.138881295919418335e-01 2.404855966567993164e+00 6.872903108596801758e-01 2.299574464559555054e-01
3.508000000000000000e+03 2.724505424499511719e+01 -4.893909454345703125e+00 1.226689100265502930e+00 2.841974735260009766e+00 1.220599174499511719e+00 1.696960687637329102e+00
3.509000000000000000e+03 2.619374847412109375e+01 -6.854799985885620117e-01 -6.437982618808746338e-02 3.248341560363769531e+00 9.551885128021240234e-01 7.802457809448242188e-01
3.510000000000000000e+03 2.195759582519531250e+01 1.609754371643066406e+01 8.073761463165283203e-01 1.864623188972473145e+00 8.015998005867004395e-01 -3.767146766185760498e-01
3.511000000000000000e+03 3.751531600952148438e+01 -4.363996982574462891e+00 9.794809669256210327e-02 4.841824054718017578e+00 1.481931567192077637e+00 -1.023915052413940430e+00
3.512000000000000000e+03 6.992639541625976562e+00 9.271031379699707031e+00 1.346097588539123535e-01 -5.307816863059997559e-01 -1.188515797257423401e-01 5.298698544502258301e-01
3.513000000000000000e+03 3.727117919921875000e+01 -3.444393277168273926e-01 2.931848168373107910e-01 5.463150024414062500e+00 1.726900458335876465e+00 -5.577460527420043945e-01
3.514000000000000000e+03 2.234585189819335938e+01 4.269061088562011719e+00 1.730282902717590332e-01 1.748646855354309082e+00 5.765025615692138672e-01 3.372526541352272034e-02
3.515000000000000000e+03 3.110027694702148438e+01 1.370606708526611328e+01 1.353797078132629395e+00 4.420210838317871094e+00 1.732202291488647461e+00 -4.405372142791748047e-01
3.516000000000000000e+03 3.008892440795898438e+01 1.337509727478027344e+01 1.289481639862060547e+00 4.035854339599609375e+00 1.597600698471069336e+00 -4.249197840690612793e-01
3.517000000000000000e+03 2.572348403930664062e+01 -1.977808833122253418e+00 -1.194090098142623901e-01 3.276043415069580078e+00 9.469903707504272461e-01 1.022853016853332520e+00
3.518000000000000000e+03 2.745889282226562500e+01 -4.285739421844482422e+00 9.729056358337402344e-01 2.984691143035888672e+00 1.187278985977172852e+00 1.539667010307312012e+00
3.519000000000000000e+03 8.413764953613281250e+00 2.258733367919921875e+01 1.557319164276123047e-01 -2.837963104248046875e-01 -3.841932117938995361e-02 -5.881632491946220398e-02
3.520000000000000000e+03 3.509627151489257812e+01 -1.718067288398742676e+00 4.264320135116577148e-01 4.643400192260742188e+00 1.520949602127075195e+00 -2.828634083271026611e-01
3.521000000000000000e+03 8.052495956420898438e+00 2.152747535705566406e+01 1.579018384218215942e-01 -3.779312968254089355e-01 -6.600883603096008301e-02 -5.985314957797527313e-03
3.522000000000000000e+03 2.566869926452636719e+01 -6.311881542205810547e-01 -1.681319028139114380e-01 3.150835990905761719e+00 8.948112130165100098e-01 7.178774476051330566e-01
3.523000000000000000e+03 3.233153915405273438e+01 5.278264880180358887e-01 5.603891015052795410e-01 4.353190422058105469e+00 1.474073886871337891e+00 2.865418493747711182e-01
3.524000000000000000e+03 2.583964347839355469e+01 -1.855341345071792603e-01 -1.250279396772384644e-01 3.143280744552612305e+00 9.054757952690124512e-01 6.575534939765930176e-01
3.525000000000000000e+03 3.376500320434570312e+01 -7.205071449279785156e-01 5.204890370368957520e-01 4.496151447296142578e+00 1.504992127418518066e+00 6.710575893521308899e-03
3.526000000000000000e+03 2.691505050659179688e+01 1.414136409759521484e+01 1.081478476524353027e+00 3.086715936660766602e+00 1.250458359718322754e+00 -4.290837049484252930e-01
3.527000000000000000e+03 1.922712135314941406e+01 1.045796775817871094e+01 6.922943592071533203e-01 1.004474759101867676e+00 5.090307593345642090e-01 -5.885562673211097717e-02
3.528000000000000000e+03 2.902899742126464844e+01 -2.449747800827026367e+00 6.228910088539123535e-01 3.355336189270019531e+00 1.193468093872070312e+00 9.113381505012512207e-01
3.529000000000000000e+03 3.185617637634277344e+01 -7.683788537979125977e-01 5.639020204544067383e-01 4.072779655456542969e+00 1.391004562377929688e+00 3.615471720695495605e-01
3.530000000000000000e+03 2.944231605529785156e+01 2.902285814285278320e+00 5.001180171966552734e-01 3.839066982269287109e+00 1.301755547523498535e+00 3.618982434272766113e-01
3.531000000000000000e+03 3.456984329223632812e+01 -2.564260482788085938e+00 5.013216137886047363e-01 4.309090614318847656e+00 1.443123579025268555e+00 -2.686771154403686523e-01
3.532000000000000000e+03 3.047379493713378906e+01 -4.973559379577636719e+00 1.209509134292602539e+00 2.805611848831176758e+00 1.204536318778991699e+00 5.316523313522338867e-01
3.533000000000000000e+03 2.213193130493164062e+01 7.773680686950683594e+00 5.827763676643371582e-01 1.656129240989685059e+00 6.716716885566711426e-01 -7.000822573900222778e-02
3.534000000000000000e+03 3.145364379882812500e+01 -2.023743867874145508e+00 6.575980186462402344e-01 3.752788782119750977e+00 1.323116064071655273e+00 4.086385965347290039e-01
3.535000000000000000e+03 3.156561470031738281e+01 -4.708495140075683594e+00 1.010204434394836426e+00 3.110156774520874023e+00 1.236108422279357910e+00 2.213800251483917236e-01
3.536000000000000000e+03 2.872023200988769531e+01 -2.080332338809967041e-01 3.527764081954956055e-01 3.586548328399658203e+00 1.181797385215759277e+00 6.870864629745483398e-01
3.537000000000000000e+03 3.147348594665527344e+01 -3.986207246780395508e+00 9.166001677513122559e-01 3.263318777084350586e+00 1.253975629806518555e+00 3.001018762588500977e-01
3.538000000000000000e+03 2.872250556945800781e+01 1.722968578338623047e+00 3.665259778499603271e-01 3.664506196975708008e+00 1.209309577941894531e+00 4.704771637916564941e-01
3.539000000000000000e+03 3.091343116760253906e+01 -3.490928173065185547e+00 8.640484809875488281e-01 3.316775083541870117e+00 1.254247069358825684e+00 4.978719055652618408e-01
3.540000000000000000e+03 1.114702796936035156e+01 -1.674520134925842285e+00 -1.528400897979736328e+00 8.178243041038513184e-02 -4.339855313301086426e-01 3.466104567050933838e-01
3.541000000000000000e+03 1.155607700347900391e+01 -1.043098807334899902e+00 -1.636801004409790039e+00 -1.904679238796234131e-01 -5.481806993484497070e-01 5.801946520805358887e-01
3.542000000000000000e+03 1.007052421569824219e+01 -1.379528045654296875e+00 -1.436934947967529297e+00 1.806362569332122803e-01 -3.768896162509918213e-01 2.071869075298309326e-01
3.543000000000000000e+03 1.091052532196044922e+01 -7.195191383361816406e-01 -1.455921769142150879e+00 -1.327957659959793091e-01 -4.766152501106262207e-01 4.813478291034698486e-01
3.544000000000000000e+03 1.189208316802978516e+01 -2.005299091339111328e+00 -1.641496539115905762e+00 8.937543258070945740e-03 -4.897677004337310791e-01 5.248704552650451660e-01
3.545000000000000000e+03 1.224500656127929688e+01 -1.350578069686889648e+00 -1.687116861343383789e+00 -2.171662002801895142e-01 -5.712849497795104980e-01 6.771686077117919922e-01
3.546000000000000000e+03 1.012131404876708984e+01 -8.739756941795349121e-01 -1.385804772377014160e+00 1.123801618814468384e-01 -3.820273876190185547e-01 2.411210685968399048e-01
3.547000000000000000e+03 1.027311420440673828e+01 -4.096257984638214111e-01 -1.128158807754516602e+00 -1.680403575301170349e-02 -3.434888422489166260e-01 2.911723256111145020e-01
3.548000000000000000e+03 1.058933448791503906e+01 -1.247088074684143066e+00 -1.450341701507568359e+00 1.143505796790122986e-01 -4.007973372936248779e-01 2.601184248924255371e-01
3.549000000000000000e+03 8.909210205078125000e+00 -3.212539851665496826e-01 -1.332843661308288574e+00 1.448279991745948792e-02 -3.955082595348358154e-01 6.480220705270767212e-03
3.550000000000000000e+03 9.317807197570800781e+00 -1.205478549003601074e+00 -1.314930915832519531e+00 2.133967429399490356e-01 -3.304602801799774170e-01 9.032311290502548218e-02
3.551000000000000000e+03 9.460213661193847656e+00 -6.912539601325988770e-01 -1.317763686180114746e+00 1.270839720964431763e-01 -3.572039008140563965e-01 1.844783127307891846e-01
3.552000000000000000e+03 8.266005516052246094e+00 -6.800254583358764648e-01 -1.314327836036682129e+00 3.640835359692573547e-02 -3.833758533000946045e-01 -2.020929194986820221e-02
3.553000000000000000e+03 7.622209548950195312e+00 -4.054784178733825684e-01 -1.309943675994873047e+00 1.123142335563898087e-02 -3.896136879920959473e-01 -5.614043772220611572e-02
3.554000000000000000e+03 6.825774669647216797e+00 -3.814763724803924561e-01 -1.191339492797851562e+00 7.488865870982408524e-03 -3.551551997661590576e-01 -8.009482920169830322e-02
3.555000000000000000e+03 6.001619815826416016e+00 -3.739211261272430420e-01 -1.013673663139343262e+00 2.951125381514430046e-03 -3.032167851924896240e-01 -9.732054173946380615e-02
3.556000000000000000e+03 5.174842834472656250e+00 -3.715220093727111816e-01 -7.960233092308044434e-01 -4.022331442683935165e-03 -2.400136888027191162e-01 -1.014583110809326172e-01
3.557000000000000000e+03 4.347759723663330078e+00 -3.725122809410095215e-01 -5.705590844154357910e-01 -2.816518535837531090e-03 -1.720126867294311523e-01 -9.470004588365554810e-02
3.558000000000000000e+03 3.520621299743652344e+00 -3.760701715946197510e-01 -3.609420955181121826e-01 -1.067417021840810776e-02 -1.114848777651786804e-01 -8.451053500175476074e-02
3.559000000000000000e+03 2.694509983062744141e+00 -3.805325925350189209e-01 -1.824312359094619751e-01 -1.255139801651239395e-02 -5.849479138851165771e-02 -6.050425767898559570e-02
3.560000000000000000e+03 1.143715500831604004e+00 -3.599454164505004883e-01 -3.617670619860291481e-03 -1.173138432204723358e-02 -4.604716319590806961e-03 -6.793892011046409607e-03
3.561000000000000000e+03 4.021799862384796143e-01 -5.506002306938171387e-01 1.804528292268514633e-03 5.710710771381855011e-03 2.254571765661239624e-03 3.265154547989368439e-03
3.562000000000000000e+03 7.210693359375000000e-01 -1.099945425987243652e+00 -2.790626324713230133e-02 -2.154500968754291534e-02 -1.483538188040256500e-02 -2.116522751748561859e-02
3.563000000000000000e+03 8.506304740905761719e+00 -1.218084216117858887e+00 -1.253112554550170898e+00 1.095118969678878784e-01 -3.430801928043365479e-01 -2.105202153325080872e-02
3.564000000000000000e+03 7.803927898406982422e+00 -1.221213579177856445e+00 -1.173478126525878906e+00 1.035351380705833435e-01 -3.209829032421112061e-01 -1.488535553216934204e-01
3.565000000000000000e+03 7.101232528686523438e+00 -1.145478367805480957e+00 -1.072622060775756836e+00 5.746351554989814758e-02 -3.045475482940673828e-01 -1.953950226306915283e-01
3.566000000000000000e+03 6.317089557647705078e+00 -1.121476411819458008e+00 -9.559504985809326172e-01 3.266986832022666931e-02 -2.769841849803924561e-01 -2.468664497137069702e-01
3.567000000000000000e+03 5.505225658416748047e+00 -1.113921165466308594e+00 -7.921637296676635742e-01 1.443690620362758636e-03 -2.372159957885742188e-01 -2.733176946640014648e-01
3.568000000000000000e+03 4.690740108489990234e+00 -1.111521959304809570e+00 -6.256862878799438477e-01 -9.367513470351696014e-03 -1.905161440372467041e-01 -2.749838531017303467e-01
3.569000000000000000e+03 3.875948190689086914e+00 -1.112512230873107910e+00 -4.571842551231384277e-01 -3.144318237900733948e-02 -1.465882211923599243e-01 -2.599236965179443359e-01
3.570000000000000000e+03 3.061101198196411133e+00 -1.116070151329040527e+00 -2.989923954010009766e-01 -5.006828531622886658e-02 -1.047182008624076843e-01 -2.190616726875305176e-01
3.571000000000000000e+03 2.247281074523925781e+00 -1.120532631874084473e+00 -1.679524779319763184e-01 -6.625951826572418213e-02 -7.026360183954238892e-02 -1.556598991155624390e-01
3.572000000000000000e+03 1.882497906684875488e+00 -3.807797729969024658e-01 -6.134120002388954163e-02 -1.137031707912683487e-02 -2.181345596909523010e-02 -3.245557472109794617e-02
3.573000000000000000e+03 9.580569267272949219e+00 -2.457754313945770264e-01 -1.109474658966064453e+00 3.526769205927848816e-02 -3.222620785236358643e-01 9.921067208051681519e-02
3.574000000000000000e+03 1.447560310363769531e+00 -1.120779752731323242e+00 -7.543236017227172852e-02 -5.736574903130531311e-02 -3.983943164348602295e-02 -7.536822557449340820e-02
3.575000000000000000e+03 2.170277023315429688e+01 -8.819096565246582031e+00 2.461219215393066406e+01 1.287250041961669922e+01 1.124540805816650391e+01 -1.598675155639648438e+01
3.576000000000000000e+03 2.169019508361816406e+01 -8.833958625793457031e+00 3.802902984619140625e+01 6.395466327667236328e+00 1.332734870910644531e+01 -1.250253677368164062e+01
3.577000000000000000e+03 2.168075561523437500e+01 -8.850984573364257812e+00 4.607533264160156250e+01 5.070455551147460938e+00 1.534373664855957031e+01 -7.717645645141601562e+00
3.578000000000000000e+03 2.167481040954589844e+01 -8.869523048400878906e+00 5.153773498535156250e+01 5.113975048065185547e+00 1.699551200866699219e+01 -1.674052357673645020e+00
3.579000000000000000e+03 2.167258834838867188e+01 -8.888864517211914062e+00 5.437903594970703125e+01 7.614366054534912109e+00 1.859802055358886719e+01 4.534853935241699219e+00
3.580000000000000000e+03 2.167417335510253906e+01 -8.908268928527832031e+00 5.430104446411132812e+01 1.117348957061767578e+01 1.964236068725585938e+01 1.038026142120361328e+01
3.581000000000000000e+03 2.167950630187988281e+01 -8.926992416381835938e+00 5.227102279663085938e+01 1.673230552673339844e+01 2.070099830627441406e+01 1.493231868743896484e+01
3.582000000000000000e+03 2.168838310241699219e+01 -8.944319725036621094e+00 4.824705123901367188e+01 2.263180160522460938e+01 2.126365661621093750e+01 1.792363357543945312e+01
3.583000000000000000e+03 2.170046234130859375e+01 -8.959587097167968750e+00 4.357642745971679688e+01 2.870942306518554688e+01 2.168575477600097656e+01 1.883196449279785156e+01
3.584000000000000000e+03 2.171528244018554688e+01 -8.972211837768554688e+00 3.885271072387695312e+01 3.394899368286132812e+01 2.184051132202148438e+01 1.787433815002441406e+01
3.585000000000000000e+03 2.173227691650390625e+01 -8.981708526611328125e+00 3.509764099121093750e+01 3.838214492797851562e+01 2.204393577575683594e+01 1.515465545654296875e+01
3.586000000000000000e+03 2.175079536437988281e+01 -8.987714767456054688e+00 3.180257987976074219e+01 4.047336959838867188e+01 2.168278503417968750e+01 1.181306648254394531e+01
3.587000000000000000e+03 2.177013015747070312e+01 -8.990001678466796875e+00 3.131208992004394531e+01 4.162036514282226562e+01 2.187973594665527344e+01 7.773640632629394531e+00
3.588000000000000000e+03 2.178953933715820312e+01 -8.988479614257812500e+00 3.112066841125488281e+01 4.069097518920898438e+01 2.154349327087402344e+01 4.059149265289306641e+00
3.589000000000000000e+03 2.180828094482421875e+01 -8.983208656311035156e+00 3.292604827880859375e+01 3.870411300659179688e+01 2.148904800415039062e+01 9.002354145050048828e-01
3.590000000000000000e+03 2.182563781738281250e+01 -8.974390983581542969e+00 3.527542877197265625e+01 3.606389236450195312e+01 2.140179634094238281e+01 -9.858110547065734863e-01
3.591000000000000000e+03 2.184094429016113281e+01 -8.962361335754394531e+00 3.910889434814453125e+01 3.257355499267578125e+01 2.150473403930664062e+01 -1.799820542335510254e+00
3.592000000000000000e+03 2.185361671447753906e+01 -8.947583198547363281e+00 4.225442886352539062e+01 2.909925842285156250e+01 2.140610504150390625e+01 -1.350716352462768555e+00
3.593000000000000000e+03 2.186317062377929688e+01 -8.930619239807128906e+00 4.549605941772460938e+01 2.606359672546386719e+01 2.146789550781250000e+01 6.038318872451782227e-01
3.594000000000000000e+03 2.186923789978027344e+01 -8.912120819091796875e+00 4.824017715454101562e+01 2.422332000732421875e+01 2.173904991149902344e+01 4.025617122650146484e+00
3.595000000000000000e+03 2.187158966064453125e+01 -8.892794609069824219e+00 4.897011947631835938e+01 2.245912170410156250e+01 2.142877197265625000e+01 8.182034492492675781e+00
3.596000000000000000e+03 2.187013244628906250e+01 -8.873380661010742188e+00 4.833565139770507812e+01 2.323299026489257812e+01 2.147059249877929688e+01 1.278245258331298828e+01
3.597000000000000000e+03 2.186492347717285156e+01 -8.854620933532714844e+00 4.542334365844726562e+01 2.514419937133789062e+01 2.117026329040527344e+01 1.724405097961425781e+01
3.598000000000000000e+03 2.185616111755371094e+01 -8.837235450744628906e+00 4.037381744384765625e+01 2.815746688842773438e+01 2.055938529968261719e+01 2.080070495605468750e+01
3.599000000000000000e+03 2.184418296813964844e+01 -8.821888923645019531e+00 3.400727462768554688e+01 3.204280471801757812e+01 1.981502342224121094e+01 2.267114830017089844e+01
3.600000000000000000e+03 2.182944679260253906e+01 -8.809166908264160156e+00 2.655769157409667969e+01 3.594721603393554688e+01 1.875147247314453125e+01 2.264845085144042969e+01
3.601000000000000000e+03 2.181251525878906250e+01 -8.799557685852050781e+00 1.887346076965332031e+01 3.884981536865234375e+01 1.731698226928710938e+01 2.073731994628906250e+01
3.602000000000000000e+03 2.179403495788574219e+01 -8.793428421020507812e+00 1.202740478515625000e+01 4.043946456909179688e+01 1.574006175994873047e+01 1.706580352783203125e+01
3.603000000000000000e+03 2.177471733093261719e+01 -8.791014671325683594e+00 6.057801246643066406e+00 3.987611007690429688e+01 1.378017330169677734e+01 1.233500862121582031e+01
3.604000000000000000e+03 2.175529861450195312e+01 -8.792407989501953125e+00 1.927621245384216309e+00 3.721704483032226562e+01 1.174340057373046875e+01 6.722574710845947266e+00
3.605000000000000000e+03 2.173652267456054688e+01 -8.797554016113281250e+00 -4.731698334217071533e-01 3.222620391845703125e+01 9.525910377502441406e+00 1.283789753913879395e+00
3.606000000000000000e+03 2.171910858154296875e+01 -8.806258201599121094e+00 2.433577299118041992e+00 2.229813194274902344e+01 7.419513225555419922e+00 -5.705836772918701172e+00
