# el_label, x, y, sXX, sYY, sZZ, sXY
1.000000000000000000e+00 4.308300018310546875e+01 -2.160139083862304688e+01 -2.890940606594085693e-01 -3.280644893646240234e+00 -1.070921659469604492e+00 -1.197139501571655273e+00
2.000000000000000000e+00 4.290515518188476562e+01 -2.169076728820800781e+01 5.272804498672485352e-01 1.432860016822814941e+00 5.880421400070190430e-01 6.155219674110412598e-01
3.000000000000000000e+00 4.272730636596679688e+01 -2.178014564514160156e+01 -3.465955555438995361e-01 -3.429786562919616699e-01 -2.068722546100616455e-01 9.731660038232803345e-02
4.000000000000000000e+00 4.254945755004882812e+01 -2.186952209472656250e+01 -6.368451714515686035e-01 2.742470502853393555e-01 -1.087794378399848938e-01 -1.673408299684524536e-01
5.000000000000000000e+00 4.311416625976562500e+01 -2.165071105957031250e+01 7.237483024597167969e+00 9.546878933906555176e-01 2.457651376724243164e+00 5.411139011383056641e+00
6.000000000000000000e+00 4.295709991455078125e+01 -2.177297019958496094e+01 2.567313671112060547e+00 1.722113251686096191e+00 1.286828160285949707e+00 2.168133735656738281e+00
7.000000000000000000e+00 4.280002975463867188e+01 -2.189522743225097656e+01 1.901019334793090820e+00 2.331180572509765625e+00 1.269659996032714844e+00 2.313434600830078125e+00
8.000000000000000000e+00 4.264295578002929688e+01 -2.201748657226562500e+01 1.494855880737304688e+00 1.263055801391601562e+00 8.273735046386718750e-01 1.530233979225158691e+00
9.000000000000000000e+00 4.315433120727539062e+01 -2.169302940368652344e+01 7.233721733093261719e+00 8.582353591918945312e+00 4.744822502136230469e+00 9.448601722717285156e+00
1.000000000000000000e+01 4.302403640747070312e+01 -2.184350013732910156e+01 4.375753879547119141e+00 5.207111358642578125e+00 2.874859571456909180e+00 5.569517612457275391e+00
1.100000000000000000e+01 4.289374160766601562e+01 -2.199397087097167969e+01 2.853326320648193359e+00 4.533774375915527344e+00 2.216130256652832031e+00 3.821308851242065430e+00
1.200000000000000000e+01 4.276344680786132812e+01 -2.214444160461425781e+01 2.116660594940185547e+00 4.224010467529296875e+00 1.902201294898986816e+00 3.330897331237792969e+00
1.300000000000000000e+01 4.320195770263671875e+01 -2.172672843933105469e+01 5.785250663757324219e+00 1.622911453247070312e+01 6.604309558868408203e+00 1.108172988891601562e+01
1.400000000000000000e+01 4.310341262817382812e+01 -2.189966583251953125e+01 3.749437332153320312e+00 1.048360633850097656e+01 4.269913196563720703e+00 7.204405307769775391e+00
1.500000000000000000e+01 4.300487136840820312e+01 -2.207260322570800781e+01 2.720251798629760742e+00 8.407642364501953125e+00 3.338368415832519531e+00 5.498574256896972656e+00
1.600000000000000000e+01 4.290632629394531250e+01 -2.224554061889648438e+01 2.074327468872070312e+00 7.188449382781982422e+00 2.778833150863647461e+00 4.352496623992919922e+00
1.700000000000000000e+01 4.325522994995117188e+01 -2.175052261352539062e+01 3.683901548385620117e+00 2.361401557922363281e+01 8.189374923706054688e+00 1.010961914062500000e+01
1.800000000000000000e+01 4.319219589233398438e+01 -2.193932151794433594e+01 2.412156581878662109e+00 1.593122673034667969e+01 5.503015041351318359e+00 7.398113250732421875e+00
1.900000000000000000e+01 4.312916564941406250e+01 -2.212812232971191406e+01 1.845795512199401855e+00 1.281149291992187500e+01 4.397186279296875000e+00 5.717741966247558594e+00
2.000000000000000000e+01 4.306613922119140625e+01 -2.231692314147949219e+01 1.120272517204284668e+00 1.107856178283691406e+01 3.659650087356567383e+00 4.742680072784423828e+00
2.100000000000000000e+01 4.331210708618164062e+01 -2.176350212097167969e+01 1.928464889526367188e+00 2.941991615295410156e+01 9.404514312744140625e+00 7.390865325927734375e+00
2.200000000000000000e+01 4.328699874877929688e+01 -2.196095466613769531e+01 1.424329280853271484e+00 2.091198348999023438e+01 6.700893878936767578e+00 5.839826583862304688e+00
2.300000000000000000e+01 4.326189041137695312e+01 -2.215840721130371094e+01 5.957920551300048828e-01 1.700299835205078125e+01 5.279637336730957031e+00 4.849607467651367188e+00
2.400000000000000000e+01 4.323678207397460938e+01 -2.235586166381835938e+01 4.332823157310485840e-01 1.481863307952880859e+01 4.575574874877929688e+00 4.022903442382812500e+00
2.500000000000000000e+01 4.337042617797851562e+01 -2.176517295837402344e+01 1.933801054954528809e+00 3.349782180786132812e+01 1.062948608398437500e+01 3.340815782546997070e+00
2.600000000000000000e+01 4.338419723510742188e+01 -2.196373939514160156e+01 6.757736802101135254e-01 2.457244682312011719e+01 7.574466228485107422e+00 3.285964727401733398e+00
2.700000000000000000e+01 4.339796829223632812e+01 -2.216230392456054688e+01 3.720389008522033691e-01 2.040673637390136719e+01 6.233632564544677734e+00 2.851986646652221680e+00
2.800000000000000000e+01 4.341173934936523438e+01 -2.236087036132812500e+01 -3.457962572574615479e-01 1.784304046630859375e+01 5.249173164367675781e+00 2.459475994110107422e+00
2.900000000000000000e+01 4.342795944213867188e+01 -2.175546836853027344e+01 2.898953199386596680e+00 3.520201873779296875e+01 1.143029212951660156e+01 -9.997953176498413086e-01
3.000000000000000000e+01 4.348008346557617188e+01 -2.194756507873535156e+01 1.608541965484619141e+00 2.691162681579589844e+01 8.556050300598144531e+00 1.814597845077514648e-01
3.100000000000000000e+01 4.353220748901367188e+01 -2.213966178894042969e+01 4.103908538818359375e-01 2.251206016540527344e+01 6.876735210418701172e+00 2.529096901416778564e-01
3.200000000000000000e+01 4.358433151245117188e+01 -2.233175849914550781e+01 2.490194886922836304e-01 1.982441711425781250e+01 6.022031307220458984e+00 3.196870684623718262e-01
3.300000000000000000e+01 4.348250579833984375e+01 -2.173476219177246094e+01 6.018476963043212891e+00 3.525486373901367188e+01 1.238200187683105469e+01 -4.745710372924804688e+00
3.400000000000000000e+01 4.357099151611328125e+01 -2.191305351257324219e+01 2.974739313125610352e+00 2.749386787414550781e+01 9.140582084655761719e+00 -2.955359935760498047e+00
3.500000000000000000e+01 4.365947723388671875e+01 -2.209134483337402344e+01 2.081553936004638672e+00 2.347686958312988281e+01 7.667527198791503906e+00 -2.271081924438476562e+00
3.600000000000000000e+01 4.374796676635742188e+01 -2.226963806152343750e+01 1.045980334281921387e+00 2.064905548095703125e+01 6.508510589599609375e+00 -2.146749734878540039e+00
3.700000000000000000e+01 4.353198242187500000e+01 -2.170384216308593750e+01 9.428693771362304688e+00 3.349698638916015625e+01 1.287770366668701172e+01 -7.539156913757324219e+00
3.800000000000000000e+01 4.365345001220703125e+01 -2.186152267456054688e+01 5.934241294860839844e+00 2.709895706176757812e+01 9.909958839416503906e+00 -5.282494544982910156e+00
3.900000000000000000e+01 4.377492523193359375e+01 -2.201920127868652344e+01 3.940365552902221680e+00 2.301579856872558594e+01 8.086849212646484375e+00 -4.585552692413330078e+00
4.000000000000000000e+01 4.389639663696289062e+01 -2.217687988281250000e+01 3.177771568298339844e+00 2.072096633911132812e+01 7.169621467590332031e+00 -3.960401058197021484e+00
4.100000000000000000e+01 4.357450103759765625e+01 -2.166389083862304688e+01 1.373705387115478516e+01 3.146928215026855469e+01 1.356190109252929688e+01 -8.676303863525390625e+00
4.200000000000000000e+01 4.372431564331054688e+01 -2.179493713378906250e+01 8.879581451416015625e+00 2.538985824584960938e+01 1.028083133697509766e+01 -6.891377925872802734e+00
4.300000000000000000e+01 4.387413406372070312e+01 -2.192598152160644531e+01 6.858911514282226562e+00 2.209410858154296875e+01 8.685906410217285156e+00 -5.802703857421875000e+00
4.400000000000000000e+01 4.402395248413085938e+01 -2.205702781677246094e+01 5.293256282806396484e+00 1.956894111633300781e+01 7.458659172058105469e+00 -5.304117202758789062e+00
4.500000000000000000e+01 4.360843658447265625e+01 -2.161643409729003906e+01 1.737368392944335938e+01 2.886125373840332031e+01 1.387048149108886719e+01 -8.604088783264160156e+00
4.600000000000000000e+01 4.378087997436523438e+01 -2.171584129333496094e+01 1.220800685882568359e+01 2.376810455322265625e+01 1.079283332824707031e+01 -7.142691135406494141e+00
4.700000000000000000e+01 4.395331954956054688e+01 -2.181524848937988281e+01 9.541008949279785156e+00 2.034196090698242188e+01 8.964891433715820312e+00 -6.283268928527832031e+00
4.800000000000000000e+01 4.412576293945312500e+01 -2.191465568542480469e+01 7.962204933166503906e+00 1.834214210510253906e+01 7.891304016113281250e+00 -5.555032730102539062e+00
4.900000000000000000e+01 4.363249588012695312e+01 -2.156328392028808594e+01 2.039571762084960938e+01 2.712666130065917969e+01 1.425671291351318359e+01 -7.339157104492187500e+00
5.000000000000000000e+01 4.382098007202148438e+01 -2.162725639343261719e+01 1.490127658843994141e+01 2.188875579833984375e+01 1.103700923919677734e+01 -6.419230937957763672e+00
5.100000000000000000e+01 4.400946044921875000e+01 -2.169122886657714844e+01 1.200729560852050781e+01 1.900164413452148438e+01 9.302681922912597656e+00 -5.677469253540039062e+00
5.200000000000000000e+01 4.419794464111328125e+01 -2.175520133972167969e+01 1.018652057647705078e+01 1.688900756835937500e+01 8.122657775878906250e+00 -5.203660011291503906e+00
5.300000000000000000e+01 4.364575958251953125e+01 -2.150646781921386719e+01 2.219819450378417969e+01 2.589005470275878906e+01 1.442647457122802734e+01 -5.396387577056884766e+00
5.400000000000000000e+01 4.384308624267578125e+01 -2.153256225585937500e+01 1.683675193786621094e+01 2.081413078308105469e+01 1.129526424407958984e+01 -4.875599861145019531e+00
5.500000000000000000e+01 4.404041290283203125e+01 -2.155865859985351562e+01 1.369004726409912109e+01 1.788738441467285156e+01 9.473229408264160156e+00 -4.362226486206054688e+00
5.600000000000000000e+01 4.423773574829101562e+01 -2.158475494384765625e+01 1.158686733245849609e+01 1.605738830566406250e+01 8.293276786804199219e+00 -4.030451297760009766e+00
5.700000000000000000e+01 4.364772033691406250e+01 -2.144815635681152344e+01 2.288592720031738281e+01 2.576054382324218750e+01 1.459394073486328125e+01 -3.211799621582031250e+00
5.800000000000000000e+01 4.384635543823242188e+01 -2.143537902832031250e+01 1.757078170776367188e+01 2.036062431335449219e+01 1.137942218780517578e+01 -2.935150146484375000e+00
5.900000000000000000e+01 4.404498672485351562e+01 -2.142260169982910156e+01 1.444526004791259766e+01 1.762874603271484375e+01 9.622201919555664062e+00 -2.663896560668945312e+00
6.000000000000000000e+01 4.424361801147460938e+01 -2.140982437133789062e+01 1.227455902099609375e+01 1.566420650482177734e+01 8.381629943847656250e+00 -2.429174423217773438e+00
6.100000000000000000e+01 4.363830566406250000e+01 -2.139057922363281250e+01 2.232641792297363281e+01 2.627778053283691406e+01 1.458125972747802734e+01 -1.178446173667907715e+00
6.200000000000000000e+01 4.383066177368164062e+01 -2.133941650390625000e+01 1.721982574462890625e+01 2.098802566528320312e+01 1.146235561370849609e+01 -1.071151494979858398e+00
6.300000000000000000e+01 4.402301406860351562e+01 -2.128825187683105469e+01 1.408155727386474609e+01 1.793139076232910156e+01 9.603884696960449219e+00 -1.002519011497497559e+00
6.400000000000000000e+01 4.421537017822265625e+01 -2.123708915710449219e+01 1.214463710784912109e+01 1.612266921997070312e+01 8.480191230773925781e+00 -9.820637106895446777e-01
6.500000000000000000e+01 4.361787033081054688e+01 -2.133592987060546875e+01 2.086326217651367188e+01 2.772677612304687500e+01 1.457701206207275391e+01 3.167912065982818604e-01
6.600000000000000000e+01 4.379660415649414062e+01 -2.124833679199218750e+01 1.575113868713378906e+01 2.213994789123535156e+01 1.136732578277587891e+01 3.191792964935302734e-01
6.700000000000000000e+01 4.397533798217773438e+01 -2.116074180603027344e+01 1.289765357971191406e+01 1.909108161926269531e+01 9.596620559692382812e+00 1.648799628019332886e-01
6.800000000000000000e+01 4.415406799316406250e+01 -2.107314491271972656e+01 1.087522506713867188e+01 1.699154090881347656e+01 8.360030174255371094e+00 5.965429171919822693e-02
6.900000000000000000e+01 4.358720016479492188e+01 -2.128630065917968750e+01 1.853773498535156250e+01 2.946807670593261719e+01 1.440174293518066406e+01 1.050883412361145020e+00
7.000000000000000000e+01 4.374548339843750000e+01 -2.116561889648437500e+01 1.366270828247070312e+01 2.389537620544433594e+01 1.126742553710937500e+01 8.372430205345153809e-01
7.100000000000000000e+01 4.390377044677734375e+01 -2.104493713378906250e+01 1.096654224395751953e+01 2.047457504272460938e+01 9.432334899902343750e+00 5.837212800979614258e-01
7.200000000000000000e+01 4.406205368041992188e+01 -2.092425537109375000e+01 9.106149673461914062e+00 1.831601524353027344e+01 8.226649284362792969e+00 4.965163171291351318e-01
7.300000000000000000e+01 4.354746246337890625e+01 -2.124358177185058594e+01 1.583719444274902344e+01 3.151334190368652344e+01 1.420516014099121094e+01 7.386834025382995605e-01
7.400000000000000000e+01 4.367925643920898438e+01 -2.109442138671875000e+01 1.122551918029785156e+01 2.549304771423339844e+01 1.101556968688964844e+01 3.434552252292633057e-01
7.500000000000000000e+01 4.381104660034179688e+01 -2.094526290893554688e+01 8.839032173156738281e+00 2.198915481567382812e+01 9.248456001281738281e+00 1.120634302496910095e-01
7.600000000000000000e+01 4.394284057617187500e+01 -2.079610061645507812e+01 7.242083072662353516e+00 1.945963287353515625e+01 8.010515213012695312e+00 7.880885154008865356e-02
7.700000000000000000e+01 4.350017547607421875e+01 -2.120940780639648438e+01 1.305439186096191406e+01 3.310237503051757812e+01 1.384702968597412109e+01 -6.600198149681091309e-01
7.800000000000000000e+01 4.360044479370117188e+01 -2.103746604919433594e+01 9.017181396484375000e+00 2.678336334228515625e+01 1.074016380310058594e+01 -1.192079901695251465e+00
7.900000000000000000e+01 4.370071029663085938e+01 -2.086552238464355469e+01 6.910795211791992188e+00 2.287365341186523438e+01 8.935335159301757812e+00 -1.196935057640075684e+00
8.000000000000000000e+01 4.380097961425781250e+01 -2.069357872009277344e+01 5.571819305419921875e+00 2.038444900512695312e+01 7.786880493164062500e+00 -1.197293758392333984e+00
8.100000000000000000e+01 4.344714355468750000e+01 -2.118508148193359375e+01 1.082059192657470703e+01 3.407883453369140625e+01 1.346982860565185547e+01 -3.219813823699951172e+00
8.200000000000000000e+01 4.351205825805664062e+01 -2.099692344665527344e+01 7.348977088928222656e+00 2.697779083251953125e+01 1.029802989959716797e+01 -3.427025318145751953e+00
8.300000000000000000e+01 4.357697296142578125e+01 -2.080876350402832031e+01 5.622577190399169922e+00 2.309210586547851562e+01 8.614404678344726562e+00 -3.250970602035522461e+00
8.400000000000000000e+01 4.364188766479492188e+01 -2.062060165405273438e+01 4.397941112518310547e+00 2.040929222106933594e+01 7.442170143127441406e+00 -2.947711944580078125e+00
8.500000000000000000e+01 4.339039611816406250e+01 -2.117153549194335938e+01 9.346719741821289062e+00 3.359473800659179688e+01 1.288243675231933594e+01 -6.449534416198730469e+00
8.600000000000000000e+01 4.341748046875000000e+01 -2.097434234619140625e+01 6.764480113983154297e+00 2.610426521301269531e+01 9.860623359680175781e+00 -6.172858715057373047e+00
8.700000000000000000e+01 4.344456100463867188e+01 -2.077715110778808594e+01 5.007134437561035156e+00 2.206206512451171875e+01 8.120759963989257812e+00 -5.465754032135009766e+00
8.800000000000000000e+01 4.347164535522460938e+01 -2.057995986938476562e+01 4.076297760009765625e+00 1.957350158691406250e+01 7.094939708709716797e+00 -5.052144050598144531e+00
8.900000000000000000e+01 4.333209609985351562e+01 -2.116928291320800781e+01 9.396529197692871094e+00 3.160150146484375000e+01 1.229940891265869141e+01 -1.004381370544433594e+01
9.000000000000000000e+01 4.332031250000000000e+01 -2.097058868408203125e+01 6.951849937438964844e+00 2.376580429077148438e+01 9.215296745300292969e+00 -8.694107055664062500e+00
9.100000000000000000e+01 4.330852890014648438e+01 -2.077189445495605469e+01 5.511260509490966797e+00 1.997847175598144531e+01 7.646919727325439453e+00 -7.646321296691894531e+00
9.200000000000000000e+01 4.329674530029296875e+01 -2.057320022583007812e+01 4.277562618255615234e+00 1.754767608642578125e+01 6.547571659088134766e+00 -6.838788509368896484e+00
9.300000000000000000e+01 4.327447128295898438e+01 -2.117840957641601562e+01 1.047241115570068359e+01 2.775052070617675781e+01 1.146687889099121094e+01 -1.310748004913330078e+01
9.400000000000000000e+01 4.322426986694335938e+01 -2.098580169677734375e+01 8.320397377014160156e+00 2.031163406372070312e+01 8.589609146118164062e+00 -1.068031597137451172e+01
9.500000000000000000e+01 4.317407226562500000e+01 -2.079319381713867188e+01 6.460285663604736328e+00 1.679725456237792969e+01 6.977262020111083984e+00 -9.139560699462890625e+00
9.600000000000000000e+01 4.312387084960937500e+01 -2.060058403015136719e+01 5.381979465484619141e+00 1.469075965881347656e+01 6.021821498870849609e+00 -8.160936355590820312e+00
9.700000000000000000e+01 4.321972274780273438e+01 -2.119857025146484375e+01 1.294136619567871094e+01 2.251144790649414062e+01 1.063584423065185547e+01 -1.505678462982177734e+01
9.800000000000000000e+01 4.313302230834960938e+01 -2.101940345764160156e+01 9.866402626037597656e+00 1.591312408447265625e+01 7.733858108520507812e+00 -1.156260967254638672e+01
9.900000000000000000e+01 4.304632186889648438e+01 -2.084023475646972656e+01 8.115577697753906250e+00 1.300139617919921875e+01 6.335092544555664062e+00 -9.761373519897460938e+00
1.000000000000000000e+02 4.295962524414062500e+01 -2.066106605529785156e+01 6.541299819946289062e+00 1.128303527832031250e+01 5.347300529479980469e+00 -8.544178962707519531e+00
1.010000000000000000e+02 4.316994094848632812e+01 -2.122899436950683594e+01 1.544707775115966797e+01 1.632911872863769531e+01 9.532858848571777344e+00 -1.530380058288574219e+01
1.020000000000000000e+02 4.305005264282226562e+01 -2.107010841369628906e+01 1.175846576690673828e+01 1.120781803131103516e+01 6.889884948730468750e+00 -1.116126823425292969e+01
1.030000000000000000e+02 4.293016433715820312e+01 -2.091122245788574219e+01 9.307636260986328125e+00 8.989388465881347656e+00 5.489107608795166016e+00 -9.244392395019531250e+00
1.040000000000000000e+02 4.281027221679687500e+01 -2.075233650207519531e+01 7.951047420501708984e+00 7.813416957855224609e+00 4.729339122772216797e+00 -7.992310523986816406e+00
1.050000000000000000e+02 4.312702560424804688e+01 -2.126851844787597656e+01 1.782354354858398438e+01 1.017685794830322266e+01 8.400120735168457031e+00 -1.361476802825927734e+01
1.060000000000000000e+02 4.297852325439453125e+01 -2.113598060607910156e+01 1.266686153411865234e+01 6.680356502532958984e+00 5.804165363311767578e+00 -9.507472991943359375e+00
1.070000000000000000e+02 4.283002471923828125e+01 -2.100344467163085938e+01 1.021302318572998047e+01 5.345935821533203125e+00 4.667687892913818359e+00 -7.629821300506591797e+00
1.080000000000000000e+02 4.268152236938476562e+01 -2.087090873718261719e+01 8.370325088500976562e+00 4.708582878112792969e+00 3.923672437667846680e+00 -6.564630031585693359e+00
1.090000000000000000e+02 4.309261322021484375e+01 -2.131563377380371094e+01 1.841638374328613281e+01 4.795578002929687500e+00 6.963588714599609375e+00 -1.036226558685302734e+01
1.100000000000000000e+02 4.292117309570312500e+01 -2.121450614929199219e+01 1.270851325988769531e+01 2.984521389007568359e+00 4.707910537719726562e+00 -6.775745391845703125e+00
1.110000000000000000e+02 4.274973297119140625e+01 -2.111338043212890625e+01 9.678874969482421875e+00 2.484129667282104492e+00 3.648901224136352539e+00 -5.311657905578613281e+00
1.120000000000000000e+02 4.257829284667968750e+01 -2.101225471496582031e+01 8.071522712707519531e+00 2.339360952377319336e+00 3.123265027999877930e+00 -4.487469196319580078e+00
1.130000000000000000e+02 4.306802368164062500e+01 -2.136854171752929688e+01 1.714576530456542969e+01 9.241749048233032227e-01 5.420981884002685547e+00 -5.945780754089355469e+00
1.140000000000000000e+02 4.288018798828125000e+01 -2.130268669128417969e+01 1.064447116851806641e+01 5.196484923362731934e-01 3.349236011505126953e+00 -3.699821472167968750e+00
1.150000000000000000e+02 4.269235610961914062e+01 -2.123683166503906250e+01 8.171316146850585938e+00 7.688895463943481445e-01 2.682061910629272461e+00 -2.785473108291625977e+00
1.160000000000000000e+02 4.250452423095703125e+01 -2.117097663879394531e+01 6.392364501953125000e+00 8.106009960174560547e-01 2.160889625549316406e+00 -2.357518434524536133e+00
1.170000000000000000e+02 4.305419158935546875e+01 -2.142522048950195312e+01 1.261481952667236328e+01 -1.186513543128967285e+00 3.428491830825805664e+00 -1.764571547508239746e+00
1.180000000000000000e+02 4.285713577270507812e+01 -2.139715385437011719e+01 7.180917263031005859e+00 -4.823857247829437256e-01 2.009559392929077148e+00 -7.869419455528259277e-01
1.190000000000000000e+02 4.266008377075195312e+01 -2.136908531188964844e+01 4.828820705413818359e+00 2.376757860183715820e-01 1.519948959350585938e+00 -9.509802460670471191e-01
1.200000000000000000e+02 4.246302795410156250e+01 -2.134101867675781250e+01 4.329703330993652344e+00 1.605750322341918945e-01 1.347083449363708496e+00 -9.290925860404968262e-01
1.210000000000000000e+02 4.305164718627929688e+01 -2.148350906372070312e+01 5.218644618988037109e+00 -1.520471453666687012e+00 1.109451889991760254e+00 1.943718433380126953e+00
1.220000000000000000e+02 4.285289764404296875e+01 -2.149430084228515625e+01 1.322168827056884766e+00 -4.086641222238540649e-02 3.843907117843627930e-01 3.516083583235740662e-02
1.230000000000000000e+02 4.265414810180664062e+01 -2.150509071350097656e+01 2.104927778244018555e+00 1.051689237356185913e-01 6.630290150642395020e-01 -3.620814383029937744e-01
1.240000000000000000e+02 4.245539474487304688e+01 -2.151588058471679688e+01 1.103021144866943359e+00 -7.610572129487991333e-02 3.080746233463287354e-01 -2.083734236657619476e-02
1.250000000000000000e+02 4.306048965454101562e+01 -2.154117774963378906e+01 -7.353777408599853516e+00 -9.286496043205261230e-01 -2.484728097915649414e+00 4.194127619266510010e-01
1.260000000000000000e+02 4.286763000488281250e+01 -2.159041595458984375e+01 -1.333832383155822754e+00 2.192013263702392578e-01 -3.343893289566040039e-01 -1.064490914344787598e+00
1.270000000000000000e+02 4.267477416992187500e+01 -2.163965225219726562e+01 -1.983735680580139160e+00 -3.835324943065643311e-01 -7.101804614067077637e-01 -3.758018314838409424e-01
1.280000000000000000e+02 4.248191452026367188e+01 -2.168889045715332031e+01 -1.524531245231628418e+00 8.198764920234680176e-02 -4.327630698680877686e-01 -4.889176785945892334e-01
1.290000000000000000e+02 4.181353378295898438e+01 -2.216672897338867188e+01 -2.015498578548431396e-01 -1.745867729187011719e-01 -1.128409877419471741e-01 -2.512345910072326660e-01
1.300000000000000000e+02 4.440139389038085938e+01 -2.183881950378417969e+01 8.535302162170410156e+00 1.547490596771240234e+01 7.203062534332275391e+00 -4.749328613281250000e+00
1.310000000000000000e+02 4.442858886718750000e+01 -2.067223167419433594e+01 6.810889244079589844e+00 1.499422168731689453e+01 6.541533470153808594e+00 1.790546476840972900e-01
1.320000000000000000e+02 4.089572525024414062e+01 -2.086826896667480469e+01 6.045926213264465332e-01 1.681265085935592651e-01 2.318157404661178589e-01 -7.217049002647399902e-01
1.330000000000000000e+02 4.428482055664062500e+01 -2.233654403686523438e+01 3.561377286911010742e+00 1.685193061828613281e+01 6.123992443084716797e+00 -4.357640743255615234e+00
1.340000000000000000e+02 4.237189102172851562e+01 -2.277858352661132812e+01 7.175193428993225098e-01 3.542605161666870117e+00 1.278037309646606445e+00 1.719542384147644043e+00
1.350000000000000000e+02 4.290195465087890625e+01 -2.299517059326171875e+01 -1.134661734104156494e-01 8.911079406738281250e+00 2.639283895492553711e+00 2.703828811645507812e+00
1.360000000000000000e+02 4.283479309082031250e+01 -2.315975761413574219e+01 -3.595046699047088623e-01 8.290469169616699219e+00 2.379289150238037109e+00 2.629155158996582031e+00
1.370000000000000000e+02 4.344065856933593750e+01 -2.258679389953613281e+01 -2.834901213645935059e-01 1.598024749755859375e+01 4.709027290344238281e+00 2.049767494201660156e+00
1.380000000000000000e+02 4.400736999511718750e+01 -2.236452102661132812e+01 2.079340219497680664e+00 1.866172790527343750e+01 6.222320556640625000e+00 -3.534332752227783203e+00
1.390000000000000000e+02 4.434625625610351562e+01 -2.044462013244628906e+01 5.093847274780273438e+00 1.541596412658691406e+01 6.152943611145019531e+00 -7.009855005890130997e-03
1.400000000000000000e+02 4.419926452636718750e+01 -2.033758354187011719e+01 4.374293327331542969e+00 1.611293792724609375e+01 6.146169662475585938e+00 -3.908047676086425781e-01
1.410000000000000000e+02 4.268664550781250000e+01 -2.056221008300781250e+01 6.410098075866699219e+00 7.015932083129882812e+00 4.027809143066406250e+00 -7.061217308044433594e+00
1.420000000000000000e+02 4.145881271362304688e+01 -2.069561386108398438e+01 3.058712482452392578e+00 8.129190802574157715e-01 1.161489486694335938e+00 -2.058980703353881836e+00
1.430000000000000000e+02 4.233224105834960938e+01 -2.110181617736816406e+01 5.714458465576171875e+00 9.321330785751342773e-01 1.993977427482604980e+00 -2.281206607818603516e+00
1.440000000000000000e+02 4.117383575439453125e+01 -2.140547561645507812e+01 -1.562295556068420410e-01 -6.964859366416931152e-01 -2.558146417140960693e-01 4.544728696346282959e-01
1.450000000000000000e+02 4.095931243896484375e+01 -2.101698684692382812e+01 6.214989423751831055e-01 -1.941283792257308960e-01 1.282111704349517822e-01 -2.258289009332656860e-01
1.460000000000000000e+02 4.071954345703125000e+01 -2.093050003051757812e+01 -7.589717954397201538e-02 7.402209192514419556e-02 -5.625266348943114281e-04 -1.279533058404922485e-01
1.470000000000000000e+02 4.113711929321289062e+01 -2.098989105224609375e+01 1.055702209472656250e+00 5.802767723798751831e-02 3.341189622879028320e-01 -6.998283267021179199e-01
1.480000000000000000e+02 4.158983612060546875e+01 -2.151943016052246094e+01 1.367691159248352051e-01 2.151731401681900024e-01 1.055826768279075623e-01 1.803286820650100708e-01
1.490000000000000000e+02 4.169486618041992188e+01 -2.171975135803222656e+01 -2.429846227169036865e-01 3.151852190494537354e-01 2.166017331182956696e-02 3.290001749992370605e-01
1.500000000000000000e+02 4.156074142456054688e+01 -2.201509094238281250e+01 -2.408440262079238892e-01 -3.837817162275314331e-02 -8.376666158437728882e-02 9.581265598535537720e-02
1.510000000000000000e+02 4.192717361450195312e+01 -2.188155555725097656e+01 -8.908563852310180664e-01 1.279156953096389771e-01 -2.288822084665298462e-01 -2.163503468036651611e-01
1.520000000000000000e+02 4.227386474609375000e+01 -2.173158264160156250e+01 -1.324214339256286621e+00 -1.286880224943161011e-01 -4.358707070350646973e-01 -2.339885085821151733e-01
1.530000000000000000e+02 4.441817855834960938e+01 -2.116737174987792969e+01 1.039138412475585938e+01 1.458125305175781250e+01 7.491791248321533203e+00 -9.029014110565185547e-01
1.540000000000000000e+02 4.431403732299804688e+01 -2.097428703308105469e+01 9.446636199951171875e+00 1.562897014617919922e+01 7.522681713104248047e+00 4.384730011224746704e-02
1.550000000000000000e+02 4.411575317382812500e+01 -2.059846496582031250e+01 5.923479557037353516e+00 1.758793258666992188e+01 7.053423881530761719e+00 -8.725470304489135742e-02
1.560000000000000000e+02 4.352598571777343750e+01 -2.037027549743652344e+01 3.130361557006835938e+00 1.763392448425292969e+01 6.229285717010498047e+00 -4.455735683441162109e+00
1.570000000000000000e+02 4.345444488525390625e+01 -2.007508659362792969e+01 2.239239215850830078e+00 1.528749084472656250e+01 5.258018970489501953e+00 -4.720046520233154297e+00
1.580000000000000000e+02 4.278594207763671875e+01 -2.021766662597656250e+01 4.450345516204833984e+00 9.486228942871093750e+00 4.180972099304199219e+00 -6.886341094970703125e+00
1.590000000000000000e+02 4.258319091796875000e+01 -2.030946540832519531e+01 5.280527591705322266e+00 7.073110103607177734e+00 3.706091403961181641e+00 -6.563755035400390625e+00
1.600000000000000000e+02 4.253264617919921875e+01 -2.072228431701660156e+01 7.126203536987304688e+00 4.397978305816650391e+00 3.457254648208618164e+00 -5.945329666137695312e+00
1.610000000000000000e+02 4.236910629272460938e+01 -2.195860290527343750e+01 -7.028758525848388672e-01 -1.543457210063934326e-01 -2.571664750576019287e-01 -2.550739049911499023e-01
1.620000000000000000e+02 4.265082168579101562e+01 -2.267583656311035156e+01 1.008803486824035645e+00 5.677023410797119141e+00 2.005748033523559570e+00 2.814787864685058594e+00
1.630000000000000000e+02 4.322115325927734375e+01 -2.257464218139648438e+01 -1.397640407085418701e-01 1.350907135009765625e+01 4.010792255401611328e+00 3.357753992080688477e+00
1.640000000000000000e+02 4.383181381225585938e+01 -2.246669578552246094e+01 7.352181673049926758e-01 1.886769104003906250e+01 5.880872726440429688e+00 -1.685714244842529297e+00
1.650000000000000000e+02 4.443967819213867188e+01 -2.161711120605468750e+01 1.008209228515625000e+01 1.448695182800292969e+01 7.370713233947753906e+00 -3.760758876800537109e+00
1.660000000000000000e+02 4.208309555053710938e+01 -2.248659515380859375e+01 5.716423392295837402e-01 5.612494349479675293e-01 3.398675322532653809e-01 2.487619668245315552e-01
1.670000000000000000e+02 4.163250732421875000e+01 -2.223208236694335938e+01 -3.599730506539344788e-02 -1.472094506025314331e-01 -5.496202781796455383e-02 -7.203623652458190918e-02
1.680000000000000000e+02 4.245606231689453125e+01 -2.329515838623046875e+01 -7.316482067108154297e-02 5.578742504119873047e+00 1.651673316955566406e+00 1.916445732116699219e+00
1.690000000000000000e+02 4.226683807373046875e+01 -2.337351799011230469e+01 1.353756636381149292e-01 4.268595218658447266e+00 1.321191191673278809e+00 1.759032011032104492e+00
1.700000000000000000e+02 4.186875915527343750e+01 -2.352672004699707031e+01 -1.667151153087615967e-01 2.443273544311523438e+00 6.829675436019897461e-01 2.526126503944396973e-01
1.710000000000000000e+02 4.184360885620117188e+01 -2.334276390075683594e+01 -9.145818767137825489e-04 1.627644181251525879e+00 4.880189001560211182e-01 4.137200117111206055e-01
1.720000000000000000e+02 4.204276275634765625e+01 -2.326784324645996094e+01 -3.196564689278602600e-02 2.762364149093627930e+00 8.191195726394653320e-01 1.032341122627258301e+00
1.730000000000000000e+02 4.223612213134765625e+01 -2.151064109802246094e+01 1.147158622741699219e+00 1.660160124301910400e-01 3.939523994922637939e-01 -5.603059381246566772e-02
1.740000000000000000e+02 4.226836776733398438e+01 -2.129813957214355469e+01 3.513672351837158203e+00 3.221249282360076904e-01 1.150739192962646484e+00 -6.814332008361816406e-01
1.750000000000000000e+02 4.199811172485351562e+01 -2.210163879394531250e+01 -4.729425907135009766e-01 -1.332091093063354492e-01 -1.818455010652542114e-01 -3.355537652969360352e-01
1.760000000000000000e+02 4.455888366699218750e+01 -2.069625854492187500e+01 6.881464004516601562e+00 1.434370326995849609e+01 6.367550373077392578e+00 1.791069358587265015e-01
1.770000000000000000e+02 4.372877502441406250e+01 -2.042825508117675781e+01 3.658747673034667969e+00 1.860873031616210938e+01 6.680243492126464844e+00 -2.596518754959106445e+00
1.780000000000000000e+02 4.352841186523437500e+01 -2.284541130065917969e+01 -7.923134565353393555e-01 1.474484825134277344e+01 4.185760498046875000e+00 1.310032129287719727e+00
1.790000000000000000e+02 4.214382934570312500e+01 -2.075523757934570312e+01 5.495018959045410156e+00 2.042460918426513672e+00 2.261244058609008789e+00 -3.572414636611938477e+00
1.800000000000000000e+02 4.426163482666015625e+01 -2.252529144287109375e+01 2.153696060180664062e+00 1.686668968200683594e+01 5.706115722656250000e+00 -3.707421064376831055e+00
1.810000000000000000e+02 4.415958023071289062e+01 -2.221290588378906250e+01 4.146814346313476562e+00 1.817340087890625000e+01 6.696064472198486328e+00 -4.608439445495605469e+00
1.820000000000000000e+02 4.308779144287109375e+01 -2.039612960815429688e+01 4.340744972229003906e+00 1.331713771820068359e+01 5.297364711761474609e+00 -7.342822551727294922e+00
1.830000000000000000e+02 4.461555099487304688e+01 -2.161309432983398438e+01 9.245797157287597656e+00 1.360156059265136719e+01 6.854207515716552734e+00 -3.426072835922241211e+00
1.840000000000000000e+02 4.471456909179687500e+01 -2.176353454589843750e+01 8.279086112976074219e+00 1.330970096588134766e+01 6.476636409759521484e+00 -3.890360593795776367e+00
1.850000000000000000e+02 4.440213775634765625e+01 -2.083050727844238281e+01 8.127409934997558594e+00 1.516620922088623047e+01 6.988085269927978516e+00 2.004619389772415161e-01
1.860000000000000000e+02 4.305583572387695312e+01 -2.288725090026855469e+01 -2.351992875337600708e-01 1.038847160339355469e+01 3.045981645584106445e+00 2.955434322357177734e+00
1.870000000000000000e+02 4.364457702636718750e+01 -2.253986549377441406e+01 -3.725903630256652832e-01 1.787075424194335938e+01 5.249449253082275391e+00 2.980661578476428986e-02
1.880000000000000000e+02 4.299869537353515625e+01 -2.252922630310058594e+01 9.029466509819030762e-01 9.657266616821289062e+00 3.168063879013061523e+00 3.990433454513549805e+00
1.890000000000000000e+02 4.220098876953125000e+01 -2.300977897644042969e+01 2.394025921821594238e-01 3.255066394805908203e+00 1.048340678215026855e+00 1.391568422317504883e+00
1.900000000000000000e+02 4.261036300659179688e+01 -2.232486724853515625e+01 1.695669770240783691e+00 3.206226348876953125e+00 1.470568776130676270e+00 2.426723957061767578e+00
1.910000000000000000e+02 4.143369674682617188e+01 -2.137829971313476562e+01 5.494682192802429199e-01 9.369343752041459084e-04 1.651215404272079468e-01 2.186740189790725708e-02
1.920000000000000000e+02 4.207304382324218750e+01 -2.121505928039550781e+01 3.352570772171020508e+00 5.658928155899047852e-01 1.175539016723632812e+00 -9.264355301856994629e-01
1.930000000000000000e+02 4.238129043579101562e+01 -2.037181472778320312e+01 5.433783054351806641e+00 5.050851821899414062e+00 3.145390510559082031e+00 -5.772218704223632812e+00
1.940000000000000000e+02 4.311967468261718750e+01 -2.006191825866699219e+01 2.796061992645263672e+00 1.308704280853271484e+01 4.764931678771972656e+00 -5.879993438720703125e+00
1.950000000000000000e+02 4.296098327636718750e+01 -2.012249946594238281e+01 3.713508605957031250e+00 1.138710308074951172e+01 4.530183315277099609e+00 -6.710254669189453125e+00
1.960000000000000000e+02 4.439468383789062500e+01 -2.243134307861328125e+01 3.335230827331542969e+00 1.599741172790527344e+01 5.799792766571044922e+00 -4.042942047119140625e+00
1.970000000000000000e+02 4.476359176635742188e+01 -2.160350036621093750e+01 8.576756477355957031e+00 1.263171005249023438e+01 6.362540245056152344e+00 -3.024426698684692383e+00
1.980000000000000000e+02 4.441311645507812500e+01 -2.217759704589843750e+01 5.427283763885498047e+00 1.610624694824218750e+01 6.460059642791748047e+00 -4.716949462890625000e+00
1.990000000000000000e+02 4.383161544799804688e+01 -2.019879722595214844e+01 2.825949668884277344e+00 1.704901695251464844e+01 5.962489604949951172e+00 -2.352922439575195312e+00
2.000000000000000000e+02 4.362978744506835938e+01 -2.013477897644042969e+01 2.487783908843994141e+00 1.637148284912109375e+01 5.657780170440673828e+00 -3.616572380065917969e+00
2.010000000000000000e+02 4.402595520019531250e+01 -2.026329421997070312e+01 3.601879596710205078e+00 1.680705833435058594e+01 6.122681140899658203e+00 -1.308765172958374023e+00
2.020000000000000000e+02 4.462188720703125000e+01 -2.140679550170898438e+01 9.803937911987304688e+00 1.324852275848388672e+01 6.915738105773925781e+00 -2.347202539443969727e+00
2.030000000000000000e+02 4.465392303466796875e+01 -2.107957267761230469e+01 8.846825599670410156e+00 1.333368873596191406e+01 6.654154300689697266e+00 -8.559699058532714844e-01
2.040000000000000000e+02 4.444647216796875000e+01 -2.139085960388183594e+01 1.072897243499755859e+01 1.423018932342529297e+01 7.487748622894287109e+00 -2.278595209121704102e+00
2.050000000000000000e+02 4.463004684448242188e+01 -2.194401359558105469e+01 7.191282749176025391e+00 1.410490512847900391e+01 6.388856410980224609e+00 -4.391787052154541016e+00
2.060000000000000000e+02 4.457566452026367188e+01 -2.214101600646972656e+01 5.973175525665283203e+00 1.486887550354003906e+01 6.252615451812744141e+00 -4.748311519622802734e+00
2.070000000000000000e+02 4.329360580444335938e+01 -2.004658699035644531e+01 2.426814556121826172e+00 1.386624145507812500e+01 4.887917041778564453e+00 -5.494575500488281250e+00
2.080000000000000000e+02 4.331014633178710938e+01 -2.036744689941406250e+01 3.448938846588134766e+00 1.622240638732910156e+01 5.901403903961181641e+00 -6.071540832519531250e+00
2.090000000000000000e+02 4.447319412231445312e+01 -2.056146812438964844e+01 5.896511077880859375e+00 1.471805477142333984e+01 6.184369564056396484e+00 2.861172854900360107e-01
2.100000000000000000e+02 4.129047393798828125e+01 -2.153576850891113281e+01 -3.305112421512603760e-01 -6.047395467758178711e-01 -2.805752456188201904e-01 5.394027829170227051e-01
2.110000000000000000e+02 4.373011398315429688e+01 -2.277963066101074219e+01 -2.772122025489807129e-01 1.649871826171875000e+01 4.866451740264892578e+00 -5.372729152441024780e-02
2.120000000000000000e+02 4.391799926757812500e+01 -2.270331192016601562e+01 9.222369641065597534e-02 1.711252021789550781e+01 5.161423206329345703e+00 -1.503123879432678223e+00
2.130000000000000000e+02 4.333906173706054688e+01 -2.293362236022949219e+01 -8.107004761695861816e-01 1.329388427734375000e+01 3.744955062866210938e+00 2.365285873413085938e+00
2.140000000000000000e+02 4.316791915893554688e+01 -2.303236770629882812e+01 -6.515354514122009277e-01 1.111481475830078125e+01 3.138983726501464844e+00 2.492776632308959961e+00
2.150000000000000000e+02 4.236711120605468750e+01 -2.062135887145996094e+01 6.196739196777343750e+00 3.856141090393066406e+00 3.015864133834838867e+00 -5.220432758331298828e+00
2.160000000000000000e+02 4.218680572509765625e+01 -2.040953826904296875e+01 5.174893856048583984e+00 3.566263198852539062e+00 2.622347116470336914e+00 -4.767174243927001953e+00
2.170000000000000000e+02 4.132969284057617188e+01 -2.094898986816406250e+01 1.792253136634826660e+00 2.630404829978942871e-01 6.165880560874938965e-01 -1.077188730239868164e+00
2.180000000000000000e+02 4.126884078979492188e+01 -2.075373649597167969e+01 2.268043279647827148e+00 4.366275668144226074e-01 8.114013075828552246e-01 -1.511622905731201172e+00
2.190000000000000000e+02 4.241835021972656250e+01 -2.310857009887695312e+01 2.730477750301361084e-01 4.821808338165283203e+00 1.528456807136535645e+00 1.982576489448547363e+00
2.200000000000000000e+02 4.081666946411132812e+01 -2.105154609680175781e+01 1.977366954088211060e-01 6.404880899935960770e-03 6.124247238039970398e-02 -7.038226723670959473e-02
2.210000000000000000e+02 4.198213958740234375e+01 -2.289742088317871094e+01 1.654647886753082275e-01 1.308351874351501465e+00 4.421449899673461914e-01 6.855391860008239746e-01
2.220000000000000000e+02 4.149143600463867188e+01 -2.183934402465820312e+01 -2.867093086242675781e-01 -1.765089333057403564e-01 -1.389654725790023804e-01 3.355534970760345459e-01
2.230000000000000000e+02 4.192100143432617188e+01 -2.168344306945800781e+01 -3.756877183914184570e-01 4.401996731758117676e-01 1.935358345508575439e-02 2.695871293544769287e-01
2.240000000000000000e+02 4.205387878417968750e+01 -2.229984283447265625e+01 3.292423486709594727e-01 1.846312880516052246e-01 1.541620939970016479e-01 -5.238867923617362976e-02
2.250000000000000000e+02 4.194432830810546875e+01 -2.272155189514160156e+01 2.656808197498321533e-01 6.908230781555175781e-01 2.869511544704437256e-01 3.444539308547973633e-01
2.260000000000000000e+02 4.168313217163085938e+01 -2.241692924499511719e+01 5.095128715038299561e-02 -4.592933654785156250e-01 -1.225026175379753113e-01 -6.994419544935226440e-02
2.270000000000000000e+02 4.172465515136718750e+01 -2.260243034362792969e+01 7.616364210844039917e-02 -6.813779473304748535e-01 -1.815642863512039185e-01 6.972890347242355347e-02
2.280000000000000000e+02 4.242108917236328125e+01 -2.091440582275390625e+01 6.748448371887207031e+00 2.065265655517578125e+00 2.644114255905151367e+00 -3.990112781524658203e+00
2.290000000000000000e+02 4.205488967895507812e+01 -2.063885116577148438e+01 5.030327796936035156e+00 2.214789152145385742e+00 2.173535108566284180e+00 -3.669219493865966797e+00
2.300000000000000000e+02 4.173298645019531250e+01 -2.086177062988281250e+01 3.419339895248413086e+00 8.973922729492187500e-01 1.295019626617431641e+00 -1.882945060729980469e+00
2.310000000000000000e+02 4.140081024169921875e+01 -2.167757987976074219e+01 -3.800608217716217041e-01 -4.328832030296325684e-01 -2.438832074403762817e-01 4.476428925991058350e-01
2.320000000000000000e+02 4.246612167358398438e+01 -2.215656280517578125e+01 1.047177672386169434e+00 1.322339415550231934e+00 7.108551263809204102e-01 1.183101534843444824e+00
2.330000000000000000e+02 4.174667358398437500e+01 -2.193641662597656250e+01 -6.374024152755737305e-01 1.036001145839691162e-01 -1.601406931877136230e-01 4.309856891632080078e-02
2.340000000000000000e+02 4.260179519653320312e+01 -2.300189208984375000e+01 1.767850518226623535e-01 6.074141502380371094e+00 1.875277996063232422e+00 2.405737638473510742e+00
2.350000000000000000e+02 4.245883178710937500e+01 -2.255689239501953125e+01 1.099685549736022949e+00 3.341836690902709961e+00 1.332456707954406738e+00 1.988282084465026855e+00
2.360000000000000000e+02 4.279460144042968750e+01 -2.245269584655761719e+01 1.294983506202697754e+00 6.729725837707519531e+00 2.407412767410278320e+00 3.635498523712158203e+00
2.370000000000000000e+02 4.186375808715820312e+01 -2.235714912414550781e+01 1.595087349414825439e-01 -1.918765902519226074e-01 -9.710353799164295197e-03 -2.583670914173126221e-01
2.380000000000000000e+02 4.174445724487304688e+01 -2.129983901977539062e+01 1.575691819190979004e+00 4.800663888454437256e-01 6.167274713516235352e-01 -3.618885576725006104e-01
2.390000000000000000e+02 4.093054580688476562e+01 -2.115335083007812500e+01 1.540057640522718430e-02 -2.545432448387145996e-01 -7.174280285835266113e-02 5.072342231869697571e-02
2.400000000000000000e+02 4.105766296386718750e+01 -2.126840591430664062e+01 -3.171027079224586487e-02 -5.426110625267028809e-01 -1.722963899374008179e-01 1.995485872030258179e-01
2.410000000000000000e+02 4.107959747314453125e+01 -2.081157875061035156e+01 1.589552760124206543e+00 2.797081470489501953e-01 5.607782602310180664e-01 -1.143933415412902832e+00
2.420000000000000000e+02 4.207715225219726562e+01 -2.344832611083984375e+01 -2.386378198862075806e-01 3.913550376892089844e+00 1.102473735809326172e+00 1.285061001777648926e+00
2.430000000000000000e+02 4.181893157958984375e+01 -2.315593719482421875e+01 -1.246653124690055847e-02 6.707075834274291992e-01 1.974723041057586670e-01 3.461419939994812012e-01
2.440000000000000000e+02 4.179172897338867188e+01 -2.296996498107910156e+01 -3.806699067354202271e-02 -5.576959624886512756e-02 -2.815097570419311523e-02 3.073033094406127930e-01
2.450000000000000000e+02 4.176031875610351562e+01 -2.278654861450195312e+01 4.550283402204513550e-02 -5.386207699775695801e-01 -1.479353755712509155e-01 2.423716932535171509e-01
2.460000000000000000e+02 4.153414154052734375e+01 -2.093049049377441406e+01 2.507157564163208008e+00 5.617969036102294922e-01 9.206863045692443848e-01 -1.362833499908447266e+00
2.470000000000000000e+02 4.119500350952148438e+01 -2.115997695922851562e+01 7.420973181724548340e-01 -2.144719362258911133e-01 1.582876145839691162e-01 -3.269051313400268555e-01
2.480000000000000000e+02 4.153503036499023438e+01 -2.117453765869140625e+01 1.607813596725463867e+00 3.081220090389251709e-01 5.747807025909423828e-01 -6.953486800193786621e-01
2.490000000000000000e+02 4.129392623901367188e+01 -2.127938079833984375e+01 5.684995651245117188e-01 -2.106073349714279175e-01 1.073676720261573792e-01 -1.587574481964111328e-01
2.500000000000000000e+02 4.208843231201171875e+01 -2.180622673034667969e+01 -1.070019841194152832e+00 -1.460555940866470337e-01 -3.648226559162139893e-01 -2.909945249557495117e-01
2.510000000000000000e+02 4.226001358032226562e+01 -2.225357055664062500e+01 7.250007987022399902e-01 7.869063019752502441e-01 4.535721242427825928e-01 5.015009045600891113e-01
2.520000000000000000e+02 4.218452453613281250e+01 -2.203610038757324219e+01 -6.567353606224060059e-01 -5.275206267833709717e-02 -2.128462195396423340e-01 -3.068685531616210938e-01
2.530000000000000000e+02 4.264937210083007812e+01 -2.320943641662597656e+01 8.277066797018051147e-02 6.905303955078125000e+00 2.096422433853149414e+00 2.533823966979980469e+00
2.540000000000000000e+02 4.300138092041015625e+01 -2.311481666564941406e+01 -4.428824484348297119e-01 9.896723747253417969e+00 2.836152315139770508e+00 2.541123151779174805e+00
2.550000000000000000e+02 4.317531585693359375e+01 -2.277039909362792969e+01 -1.796699762344360352e-01 1.205704307556152344e+01 3.563211917877197266e+00 3.022454023361206055e+00
2.560000000000000000e+02 4.409752655029296875e+01 -2.260670852661132812e+01 1.293489575386047363e+00 1.718146324157714844e+01 5.542485713958740234e+00 -2.664807081222534180e+00
2.570000000000000000e+02 4.450641632080078125e+01 -2.229705047607421875e+01 4.136467456817626953e+00 1.527425670623779297e+01 5.823217391967773438e+00 -4.393188476562500000e+00
2.580000000000000000e+02 4.429497146606445312e+01 -2.203361511230468750e+01 6.526255607604980469e+00 1.658690261840820312e+01 6.933947563171386719e+00 -5.192956924438476562e+00
2.590000000000000000e+02 4.476981353759765625e+01 -2.142843627929687500e+01 8.763586997985839844e+00 1.260585975646972656e+01 6.410834312438964844e+00 -2.477055311203002930e+00
2.600000000000000000e+02 4.473108291625976562e+01 -2.126540374755859375e+01 9.339261054992675781e+00 1.275909614562988281e+01 6.629507064819335938e+00 -1.579085707664489746e+00
2.610000000000000000e+02 4.460196304321289062e+01 -2.087081336975097656e+01 8.221875190734863281e+00 1.389346694946289062e+01 6.634602546691894531e+00 -1.019347012042999268e-01
2.620000000000000000e+02 4.424583435058593750e+01 -2.071270370483398438e+01 7.228737831115722656e+00 1.656690025329589844e+01 7.138690948486328125e+00 2.579938769340515137e-01
2.630000000000000000e+02 4.402418518066406250e+01 -2.046061134338378906e+01 4.506974220275878906e+00 1.768260383605957031e+01 6.656873226165771484e+00 -8.296241760253906250e-01
2.640000000000000000e+02 4.390132141113281250e+01 -2.053932762145996094e+01 4.641856193542480469e+00 1.871077156066894531e+01 7.005788803100585938e+00 -1.117302775382995605e+00
2.650000000000000000e+02 4.330632019042968750e+01 -2.019148826599121094e+01 2.893904209136962891e+00 1.507977867126464844e+01 5.392105102539062500e+00 -5.717628002166748047e+00
2.660000000000000000e+02 4.310351943969726562e+01 -2.021090507507324219e+01 3.516197443008422852e+00 1.312375831604003906e+01 4.991986751556396484e+00 -6.662681579589843750e+00
2.670000000000000000e+02 4.287870407104492188e+01 -2.045473098754882812e+01 5.460061550140380859e+00 1.041916179656982422e+01 4.763766765594482422e+00 -7.650787353515625000e+00
2.680000000000000000e+02 4.200471496582031250e+01 -2.046957778930664062e+01 4.879173755645751953e+00 2.506790876388549805e+00 2.215789318084716797e+00 -4.017663955688476562e+00
2.690000000000000000e+02 4.182572174072265625e+01 -2.054720306396484375e+01 4.265918731689453125e+00 1.862996697425842285e+00 1.838674664497375488e+00 -3.248865604400634766e+00
2.700000000000000000e+02 4.220042419433593750e+01 -2.059884834289550781e+01 5.621766567230224609e+00 2.949516534805297852e+00 2.571384906768798828e+00 -4.475337505340576172e+00
2.710000000000000000e+02 4.164451599121093750e+01 -2.062725257873535156e+01 3.608494281768798828e+00 1.271274447441101074e+00 1.463930606842041016e+00 -2.592700958251953125e+00
2.720000000000000000e+02 4.198348617553710938e+01 -2.144750022888183594e+01 1.279608130455017090e+00 3.304720520973205566e-01 4.830240607261657715e-01 2.782508172094821930e-02
2.730000000000000000e+02 4.202423477172851562e+01 -2.090299797058105469e+01 4.712172031402587891e+00 1.249076128005981445e+00 1.788374423980712891e+00 -2.441344499588012695e+00
2.740000000000000000e+02 4.227774810791015625e+01 -2.083075332641601562e+01 6.242632389068603516e+00 2.075238704681396484e+00 2.495361328125000000e+00 -3.822168350219726562e+00
2.750000000000000000e+02 4.404395294189453125e+01 -2.067929267883300781e+01 6.449269771575927734e+00 1.830084800720214844e+01 7.425034999847412109e+00 2.513166144490242004e-02
2.760000000000000000e+02 4.417915725708007812e+01 -2.081878852844238281e+01 8.010414123535156250e+00 1.711002349853515625e+01 7.536130905151367188e+00 4.051014780998229980e-01
2.770000000000000000e+02 4.226353073120117188e+01 -2.248329162597656250e+01 9.720163345336914062e-01 1.671126246452331543e+00 7.929427623748779297e-01 1.019833207130432129e+00
2.780000000000000000e+02 4.223284530639648438e+01 -2.319146156311035156e+01 -8.615276962518692017e-02 4.019848346710205078e+00 1.180108666419982910e+00 1.531113028526306152e+00
2.790000000000000000e+02 4.201222991943359375e+01 -2.308244132995605469e+01 -9.344562888145446777e-03 2.104153871536254883e+00 6.284427642822265625e-01 9.437133669853210449e-01
2.800000000000000000e+02 4.237162780761718750e+01 -2.294896697998046875e+01 1.911427378654479980e-01 4.281216144561767578e+00 1.341707706451416016e+00 1.769031286239624023e+00
2.810000000000000000e+02 4.213407135009765625e+01 -2.264368629455566406e+01 7.654673457145690918e-01 1.674713253974914551e+00 7.320541739463806152e-01 9.384468793869018555e-01
2.820000000000000000e+02 4.190381622314453125e+01 -2.254374885559082031e+01 3.636793494224548340e-01 1.725495457649230957e-01 1.608686596155166626e-01 2.579217962920665741e-02
2.830000000000000000e+02 4.416331481933593750e+01 -2.049124336242675781e+01 5.118019104003906250e+00 1.667555809020996094e+01 6.538073062896728516e+00 -2.975460290908813477e-01
2.840000000000000000e+02 4.429587554931640625e+01 -2.058195686340332031e+01 6.038325309753417969e+00 1.601996803283691406e+01 6.617488384246826172e+00 1.962578743696212769e-01
2.850000000000000000e+02 4.135092163085937500e+01 -2.113278388977050781e+01 1.242068529129028320e+00 1.788864582777023315e-01 4.262864887714385986e-01 -6.635302305221557617e-01
2.860000000000000000e+02 4.190493392944335938e+01 -2.074080848693847656e+01 4.408777236938476562e+00 1.440922260284423828e+00 1.754909873008728027e+00 -2.822803020477294922e+00
2.870000000000000000e+02 4.297903442382812500e+01 -2.273718833923339844e+01 2.077989727258682251e-01 9.774353981018066406e+00 2.994645833969116211e+00 3.390838384628295898e+00
2.880000000000000000e+02 4.278623199462890625e+01 -2.284656524658203125e+01 4.465602338314056396e-01 7.705169677734375000e+00 2.445518970489501953e+00 3.207652330398559570e+00
2.890000000000000000e+02 4.218307495117187500e+01 -2.281365585327148438e+01 3.946454524993896484e-01 2.573910236358642578e+00 8.905667066574096680e-01 1.167333722114562988e+00
2.900000000000000000e+02 4.217491912841796875e+01 -2.101838684082031250e+01 4.931525230407714844e+00 1.019563198089599609e+00 1.785326600074768066e+00 -2.217755079269409180e+00
2.910000000000000000e+02 4.187877655029296875e+01 -2.107374954223632812e+01 3.198767662048339844e+00 6.371136903762817383e-01 1.150764465332031250e+00 -1.277201652526855469e+00
2.920000000000000000e+02 4.250945281982421875e+01 -2.285061264038085938e+01 5.984184145927429199e-01 4.933117389678955078e+00 1.659460783004760742e+00 2.362725496292114258e+00
2.930000000000000000e+02 4.207883834838867188e+01 -2.453729057312011719e+01 -1.334645003080368042e-01 5.806477546691894531e+00 1.701903939247131348e+00 5.776299834251403809e-01
2.940000000000000000e+02 4.379530715942382812e+01 -2.310197257995605469e+01 -9.435862302780151367e-01 1.459697914123535156e+01 4.096017837524414062e+00 -1.954051107168197632e-02
2.950000000000000000e+02 4.250710678100585938e+01 -2.856186294555664062e+01 1.386516451835632324e+00 1.009218120574951172e+01 3.443609237670898438e+00 1.671490430831909180e+00
2.960000000000000000e+02 4.306727218627929688e+01 -3.463679122924804688e+01 -3.597793579101562500e-01 4.985402107238769531e+00 1.387686848640441895e+00 7.363445162773132324e-01
2.970000000000000000e+02 4.135885238647460938e+01 -3.295723724365234375e+01 -9.757614135742187500e-02 5.006625175476074219e+00 1.472714662551879883e+00 1.688991308212280273e+00
2.980000000000000000e+02 3.480004882812500000e+01 -3.291788101196289062e+01 -1.047502636909484863e+00 -8.608550578355789185e-02 -3.400764465332031250e-01 7.460260391235351562e-02
2.990000000000000000e+02 3.441917037963867188e+01 -3.419707870483398438e+01 -3.868506252765655518e-01 -3.725283965468406677e-02 -1.272310465574264526e-01 -2.840586751699447632e-02
3.000000000000000000e+02 3.347173309326171875e+01 -3.267382049560546875e+01 -8.980005979537963867e-01 3.145138174295425415e-02 -2.599647641181945801e-01 1.209890395402908325e-01
3.010000000000000000e+02 3.327326202392578125e+01 -3.392317199707031250e+01 -4.851391613483428955e-01 1.532368175685405731e-02 -1.409446448087692261e-01 -1.821062900125980377e-02
3.020000000000000000e+02 3.081576156616210938e+01 -3.230716323852539062e+01 -5.255094170570373535e-01 6.926619261503219604e-02 -1.368729770183563232e-01 2.487609721720218658e-02
3.030000000000000000e+02 2.515225601196289062e+01 -3.159064292907714844e+01 -2.038309872150421143e-01 1.223193015903234482e-02 -5.747971683740615845e-02 -9.746418334543704987e-03
3.040000000000000000e+02 1.970748329162597656e+01 -3.143143653869628906e+01 -7.808450609445571899e-02 6.499726790934801102e-03 -2.147543430328369141e-02 -9.284354746341705322e-03
3.050000000000000000e+02 1.687717819213867188e+01 -3.126905059814453125e+01 -3.734193369746208191e-02 1.951205544173717499e-03 -1.061721798032522202e-02 -4.128579981625080109e-03
3.060000000000000000e+02 1.546200275421142578e+01 -3.097623443603515625e+01 -1.944186538457870483e-02 -3.695018356665968895e-03 -6.941065192222595215e-03 -2.344924258068203926e-03
3.070000000000000000e+02 1.358260440826416016e+01 -3.191048622131347656e+01 -9.062816388905048370e-03 -5.394537933170795441e-03 -4.337206017225980759e-03 -7.003739476203918457e-03
3.080000000000000000e+02 8.675188064575195312e+00 -3.657988739013671875e+01 -5.055407062172889709e-03 -6.851184181869029999e-03 -3.571977373212575912e-03 -1.237074495293200016e-03
3.090000000000000000e+02 1.549088764190673828e+01 -3.618209075927734375e+01 -1.498791761696338654e-02 -1.995555683970451355e-02 -1.048304233700037003e-02 -2.921123988926410675e-02
3.100000000000000000e+02 2.320760536193847656e+01 -3.700016403198242188e+01 8.756358176469802856e-03 -4.351477697491645813e-02 -1.042752619832754135e-02 -1.011343970894813538e-01
3.110000000000000000e+02 2.588521766662597656e+01 -3.914556884765625000e+01 1.239168643951416016e-01 -6.211876124143600464e-02 1.853943057358264923e-02 -1.013386845588684082e-01
3.120000000000000000e+02 3.652269363403320312e+01 -3.699072647094726562e+01 1.446991562843322754e-01 9.889346957206726074e-01 3.400901556015014648e-01 4.059750437736511230e-01
3.130000000000000000e+02 4.133029937744140625e+01 -3.798310089111328125e+01 -4.652167260646820068e-01 3.771899938583374023e+00 9.920049905776977539e-01 7.257804274559020996e-01
3.140000000000000000e+02 5.738393402099609375e+01 -3.550234603881835938e+01 1.110363472253084183e-02 3.359677314758300781e+00 1.011234283447265625e+00 -1.536656260490417480e+00
3.150000000000000000e+02 6.250154495239257812e+01 -3.743686676025390625e+01 5.695718526840209961e-01 3.357221782207489014e-01 2.715882062911987305e-01 -2.213153839111328125e-01
3.160000000000000000e+02 6.806232452392578125e+01 -3.724728393554687500e+01 2.254527509212493896e-01 2.348709344863891602e+00 7.722486257553100586e-01 8.421860933303833008e-01
3.170000000000000000e+02 7.869304656982421875e+01 -4.013271331787109375e+01 -1.329443305730819702e-01 7.217761516571044922e+00 2.125445127487182617e+00 1.073424816131591797e-01
3.180000000000000000e+02 7.765365600585937500e+01 -3.704471588134765625e+01 -1.108555346727371216e-01 7.033435344696044922e+00 2.076773881912231445e+00 -1.291675567626953125e-01
3.190000000000000000e+02 7.929907989501953125e+01 -3.330446243286132812e+01 5.922406911849975586e-03 6.741714477539062500e+00 2.024291038513183594e+00 -2.011476904153823853e-01
3.200000000000000000e+02 7.790010833740234375e+01 -3.003118705749511719e+01 1.420723050832748413e-01 6.454689025878906250e+00 1.979028344154357910e+00 -3.530176579952239990e-01
3.210000000000000000e+02 7.936884307861328125e+01 -2.628040695190429688e+01 5.209198221564292908e-02 5.742057323455810547e+00 1.738244771957397461e+00 1.021787747740745544e-01
3.220000000000000000e+02 7.169904327392578125e+01 -2.397154617309570312e+01 1.028595089912414551e+00 1.026912689208984375e+01 3.389316558837890625e+00 -1.344500422477722168e+00
3.230000000000000000e+02 7.198798370361328125e+01 -2.609988784790039062e+01 5.254708528518676758e-01 1.199484062194824219e+01 3.756093502044677734e+00 1.405370533466339111e-01
3.240000000000000000e+02 7.149575805664062500e+01 -2.851863098144531250e+01 1.472242116928100586e+00 1.187607669830322266e+01 4.004495620727539062e+00 2.637997865676879883e+00
3.250000000000000000e+02 7.012641143798828125e+01 -3.162347984313964844e+01 1.203263878822326660e+00 4.814106941223144531e+00 1.805211186408996582e+00 2.058541536331176758e+00
3.260000000000000000e+02 6.913631439208984375e+01 -3.246560668945312500e+01 7.749665379524230957e-01 2.472422122955322266e+00 9.742165803909301758e-01 1.464093685150146484e+00
3.270000000000000000e+02 6.538602447509765625e+01 -3.444535827636718750e+01 -9.203673601150512695e-01 9.080126136541366577e-02 -2.488698214292526245e-01 -3.914172202348709106e-02
3.280000000000000000e+02 6.384729003906250000e+01 -3.608153533935546875e+01 1.092789974063634872e-02 9.181705117225646973e-02 3.082348406314849854e-02 2.020525746047496796e-02
3.290000000000000000e+02 6.140685272216796875e+01 -3.527454757690429688e+01 -5.588268041610717773e-01 1.838029623031616211e-01 -1.125071570277214050e-01 -3.859958052635192871e-01
3.300000000000000000e+02 5.974469375610351562e+01 -3.511179733276367188e+01 -1.203751005232334137e-02 5.304867029190063477e-01 1.555347591638565063e-01 -7.048027515411376953e-01
3.310000000000000000e+02 5.834799194335937500e+01 -3.433992004394531250e+01 9.688717126846313477e-01 1.813905835151672363e+00 8.348332643508911133e-01 -1.374688863754272461e+00
3.320000000000000000e+02 5.624727249145507812e+01 -3.340368270874023438e+01 1.190420746803283691e+00 5.151480674743652344e+00 1.902570366859436035e+00 -2.120410680770874023e+00
3.330000000000000000e+02 5.389181900024414062e+01 -3.066297149658203125e+01 1.770160317420959473e+00 5.747237682342529297e+00 2.255219459533691406e+00 -7.635929584503173828e-01
3.340000000000000000e+02 5.571331787109375000e+01 -3.039171600341796875e+01 8.760533928871154785e-01 8.649789810180664062e+00 2.857753038406372070e+00 -5.354062914848327637e-01
3.350000000000000000e+02 5.476789474487304688e+01 -2.912079620361328125e+01 1.590938687324523926e+00 6.338519573211669922e+00 2.378837585449218750e+00 -6.175865530967712402e-01
3.360000000000000000e+02 5.560093688964843750e+01 -2.791506004333496094e+01 1.579207897186279297e+00 5.567709922790527344e+00 2.144075393676757812e+00 9.847130179405212402e-01
3.370000000000000000e+02 5.745034790039062500e+01 -2.642317962646484375e+01 2.492353200912475586e+00 2.957140684127807617e+00 1.634848237037658691e+00 2.432917833328247070e+00
3.380000000000000000e+02 5.945087432861328125e+01 -2.470061302185058594e+01 3.630304574966430664e+00 2.247758865356445312e+00 1.763419032096862793e+00 2.709799051284790039e+00
3.390000000000000000e+02 5.841839981079101562e+01 -2.551928901672363281e+01 3.057386875152587891e+00 2.489827156066894531e+00 1.664164185523986816e+00 2.596573114395141602e+00
3.400000000000000000e+02 6.052567291259765625e+01 -2.392877960205078125e+01 3.621924400329589844e+00 1.850794672966003418e+00 1.641815781593322754e+00 2.557247400283813477e+00
3.410000000000000000e+02 6.300304794311523438e+01 -2.267727851867675781e+01 9.331843256950378418e-01 7.309229969978332520e-01 4.992322027683258057e-01 1.220265030860900879e+00
3.420000000000000000e+02 6.436572265625000000e+01 -2.242368125915527344e+01 -3.619774878025054932e-01 4.910411238670349121e-01 3.871909528970718384e-02 5.117791295051574707e-01
3.430000000000000000e+02 1.103462409973144531e+01 -3.009897804260253906e+01 -2.148965839296579361e-03 -6.808431353420019150e-03 -2.687219064682722092e-03 -3.552022157236933708e-03
3.440000000000000000e+02 1.743926644325256348e+00 -2.612660789489746094e+01 5.576837807893753052e-03 -3.054963890463113785e-04 1.581402495503425598e-03 9.308661683462560177e-04
3.450000000000000000e+02 7.027603983879089355e-01 -3.041026496887207031e+01 4.196587484329938889e-03 8.697900339029729366e-04 1.519913203082978725e-03 1.539272925583645701e-04
3.460000000000000000e+02 7.405843734741210938e-01 -3.183368682861328125e+01 -3.828733926638960838e-03 1.025166478939354420e-03 -8.410701993852853775e-04 2.705092811083886772e-05
3.470000000000000000e+02 6.363117694854736328e-01 -3.739007949829101562e+01 -8.220790885388851166e-03 -5.248518427833914757e-04 -2.623692620545625687e-03 -9.249123977497220039e-04
3.480000000000000000e+02 2.445927381515502930e+00 -3.783232498168945312e+01 -3.449668642133474350e-03 -3.494302043691277504e-03 -2.083191182464361191e-03 -3.416528692469000816e-03
3.490000000000000000e+02 1.060921764373779297e+01 -2.811048316955566406e+01 2.893594501074403524e-04 -4.952446557581424713e-03 -1.398926018737256527e-03 -3.567640436813235283e-03
3.500000000000000000e+02 8.606241226196289062e+00 -2.529541778564453125e+01 -9.530522860586643219e-03 -6.145759252831339836e-04 -3.043529577553272247e-03 1.558328513056039810e-03
3.510000000000000000e+02 8.635389328002929688e+00 -2.254312133789062500e+01 -6.507585290819406509e-03 -2.072544011753052473e-04 -2.014451893046498299e-03 8.938234532251954079e-04
3.520000000000000000e+02 8.873297691345214844e+00 -2.116634750366210938e+01 6.145648658275604248e-03 1.763065483828540891e-05 1.848983811214566231e-03 -9.154326398856937885e-04
3.530000000000000000e+02 7.864787101745605469e+00 -2.104035186767578125e+01 -4.811491351574659348e-03 -2.758391201496124268e-04 -1.526199048385024071e-03 6.061867461539804935e-04
3.540000000000000000e+02 8.172125816345214844e+00 -1.973279953002929688e+01 4.968674853444099426e-03 5.973945008008740842e-05 1.508524292148649693e-03 -3.754601930268108845e-04
3.550000000000000000e+02 1.161578845977783203e+01 -1.571838569641113281e+01 4.944669781252741814e-04 1.537585747428238392e-03 6.096158176660537720e-04 -1.426688861101865768e-03
3.560000000000000000e+02 1.394857120513916016e+01 -1.417799663543701172e+01 3.941883915103971958e-04 1.385491457767784595e-03 5.339039489626884460e-04 -5.543235456570982933e-04
3.570000000000000000e+02 1.678479957580566406e+01 -1.334543132781982422e+01 3.821302743745036423e-05 1.215358264744281769e-03 3.760714025702327490e-04 -3.941251998185180128e-05
3.580000000000000000e+02 1.970422554016113281e+01 -1.327900600433349609e+01 -5.139395580044947565e-05 1.001113792881369591e-03 2.849159354809671640e-04 -2.302242864971049130e-05
3.590000000000000000e+02 1.825249099731445312e+01 -1.318276405334472656e+01 -6.806727469665929675e-05 -9.911938104778528214e-04 -3.177783219143748283e-04 5.667327422997914255e-05
3.600000000000000000e+02 2.092133712768554688e+01 -1.265184307098388672e+01 4.426363739185035229e-05 -4.177454102318733931e-04 -1.120445303968153894e-04 2.267636773467529565e-05
3.610000000000000000e+02 2.220232391357421875e+01 -1.316472053527832031e+01 2.106455649482086301e-04 1.756732090143486857e-04 1.158956292783841491e-04 1.970637822523713112e-04
3.620000000000000000e+02 1.776007080078125000e+01 -7.040205001831054688e+00 -4.201500560157001019e-04 -2.292658027727156878e-04 -1.948247518157586455e-04 -1.103351532947272062e-04
3.630000000000000000e+02 1.627276420593261719e+01 -6.508655548095703125e+00 4.698781413026154041e-04 2.235870197182521224e-04 2.080395497614517808e-04 3.352243220433592796e-05
3.640000000000000000e+02 1.344667625427246094e+01 -3.637537479400634766e+00 -5.028338637202978134e-04 -4.289101343601942062e-04 -2.795231994241476059e-04 -3.815259260591119528e-04
3.650000000000000000e+02 1.073830032348632812e+01 -2.352879047393798828e+00 -4.638055397663265467e-04 -5.690986872650682926e-04 -3.098712768405675888e-04 -1.396928710164502263e-04
3.660000000000000000e+02 1.245868301391601562e+01 -3.900996923446655273e+00 -6.079461309127509594e-04 -4.555203486233949661e-04 -3.190399438608437777e-04 -4.479850176721811295e-04
3.670000000000000000e+02 9.972591400146484375e+00 -2.060929536819458008e+00 3.379517875146120787e-04 6.588250980712473392e-04 2.990330685861408710e-04 8.569366764277219772e-05
3.680000000000000000e+02 3.529539108276367188e+00 -2.062204837799072266e+00 5.743075744248926640e-04 1.039961643982678652e-04 2.034911303780972958e-04 5.979850539006292820e-04
3.690000000000000000e+02 5.635765194892883301e-01 -1.066488933563232422e+01 2.659355523064732552e-03 -2.169965227949433029e-05 7.912967703305184841e-04 1.666947646299377084e-04
3.700000000000000000e+02 1.688653707504272461e+00 -1.062604045867919922e+01 -2.589709358289837837e-03 2.718109135457780212e-05 -7.687584729865193367e-04 -1.584623387316241860e-04
3.710000000000000000e+02 6.441209316253662109e-01 -1.770302772521972656e+01 -2.329487120732665062e-03 -1.223247381858527660e-04 -7.355435518547892570e-04 -8.180851727956905961e-05
3.720000000000000000e+02 9.288831710815429688e+00 -1.984972000122070312e+01 -6.127062253654003143e-03 -1.855156733654439449e-04 -1.893773325718939304e-03 9.169515105895698071e-04
3.730000000000000000e+02 1.947342038154602051e+00 -1.758503150939941406e+01 2.881393535062670708e-03 3.051361709367483854e-04 9.559589088894426823e-04 -1.053361702361144125e-04
3.740000000000000000e+02 6.066060662269592285e-01 -2.338880348205566406e+01 -3.890575841069221497e-03 -1.009399056783877313e-04 -1.197454752400517464e-03 -4.416400915943086147e-04
3.750000000000000000e+02 7.399990081787109375e+01 -2.593536758422851562e+01 9.881318807601928711e-01 8.443377494812011719e+00 2.829452753067016602e+00 6.831058263778686523e-01
3.760000000000000000e+02 7.947930908203125000e+01 -2.220381927490234375e+01 -2.461500465869903564e-02 7.247477531433105469e+00 2.166858673095703125e+00 2.173401713371276855e-01
3.770000000000000000e+02 6.688034057617187500e+01 -1.053548908233642578e+01 1.313673973083496094e+00 5.002580642700195312e+00 1.894876360893249512e+00 1.980022788047790527e+00
3.780000000000000000e+02 6.580310821533203125e+01 -1.003771686553955078e+01 1.507276415824890137e+00 4.753178119659423828e+00 1.878136396408081055e+00 2.511251449584960938e+00
3.790000000000000000e+02 6.503183746337890625e+01 -1.126295852661132812e+01 1.932065963745117188e+00 4.113018512725830078e+00 1.813525319099426270e+00 2.538465738296508789e+00
3.800000000000000000e+02 6.281959152221679688e+01 -1.970773506164550781e+01 -9.298542737960815430e-01 2.001182794570922852e+00 3.213985264301300049e-01 2.325538396835327148e+00
3.810000000000000000e+02 6.937775421142578125e+01 -1.982759475708007812e+01 -1.472588539123535156e+00 2.179600477218627930e+00 2.121035605669021606e-01 -1.091252923011779785e+00
3.820000000000000000e+02 7.004199981689453125e+01 -2.071159362792968750e+01 -2.601235389709472656e+00 3.004111528396606445e+00 1.208628639578819275e-01 -1.291935205459594727e+00
3.830000000000000000e+02 7.057710266113281250e+01 -2.173310279846191406e+01 -1.768259048461914062e+00 3.695851325988769531e+00 5.782776474952697754e-01 -8.031368851661682129e-01
3.840000000000000000e+02 7.223905944824218750e+01 -2.208963775634765625e+01 -1.786261439323425293e+00 8.038903236389160156e+00 1.875792384147644043e+00 1.127985641360282898e-01
3.850000000000000000e+02 7.811763000488281250e+01 -1.661665725708007812e+01 -1.243403181433677673e-01 7.580382823944091797e+00 2.236812591552734375e+00 -1.810383647680282593e-01
3.860000000000000000e+02 7.936049652099609375e+01 -1.248440361022949219e+01 -6.467374041676521301e-03 7.184520244598388672e+00 2.153415918350219727e+00 -1.795387715101242065e-01
3.870000000000000000e+02 6.716342926025390625e+01 -7.533352851867675781e+00 1.235205173492431641e+00 6.389800071716308594e+00 2.287501573562622070e+00 2.662668228149414062e+00
3.880000000000000000e+02 6.776409149169921875e+01 -6.246041774749755859e+00 1.190004706382751465e+00 7.334948539733886719e+00 2.557485818862915039e+00 2.793687343597412109e+00
3.890000000000000000e+02 7.810369110107421875e+01 -9.597558021545410156e+00 -5.232534022070467472e-04 6.469347953796386719e+00 1.940647363662719727e+00 -4.877747297286987305e-01
3.900000000000000000e+02 7.935572052001953125e+01 -5.505301475524902344e+00 7.567534688860177994e-03 5.161024570465087891e+00 1.550577640533447266e+00 -1.825479269027709961e-01
3.910000000000000000e+02 7.017642974853515625e+01 1.892803788185119629e+00 6.189429759979248047e-01 1.559905147552490234e+01 4.865398406982421875e+00 1.317469477653503418e+00
3.920000000000000000e+02 6.928254699707031250e+01 -2.272366285324096680e+00 9.616952538490295410e-01 1.132691669464111328e+01 3.686583518981933594e+00 2.990921020507812500e+00
3.930000000000000000e+02 6.967906188964843750e+01 -9.098377823829650879e-01 9.127408266067504883e-01 1.290461444854736328e+01 4.145206451416015625e+00 2.868499517440795898e+00
3.940000000000000000e+02 7.804946136474609375e+01 -2.517925739288330078e+00 8.640023320913314819e-02 5.455581665039062500e+00 1.662594556808471680e+00 -3.293236494064331055e-01
3.950000000000000000e+02 7.938857269287109375e+01 2.851084232330322266e+00 1.425262261182069778e-02 4.095144271850585938e+00 1.232819080352783203e+00 9.876868128776550293e-02
3.960000000000000000e+02 7.019379425048828125e+01 7.521234989166259766e+00 3.853401243686676025e-01 1.314007854461669922e+01 4.057625770568847656e+00 -6.919788718223571777e-01
3.970000000000000000e+02 7.148563385009765625e+01 6.125143527984619141e+00 4.917263090610504150e-01 1.189141178131103516e+01 3.714941501617431641e+00 2.183425873517990112e-01
3.980000000000000000e+02 7.809461212158203125e+01 4.341145992279052734e+00 1.107222586870193481e-01 5.580534934997558594e+00 1.707377195358276367e+00 3.720186352729797363e-01
3.990000000000000000e+02 7.940263366699218750e+01 8.412488937377929688e+00 -8.588244207203388214e-03 5.526090145111083984e+00 1.655250549316406250e+00 2.251295447349548340e-01
4.000000000000000000e+02 6.994329833984375000e+01 1.583976364135742188e+01 1.421338133513927460e-02 9.743996620178222656e+00 2.927463054656982422e+00 2.583678960800170898e-01
4.010000000000000000e+02 6.985496520996093750e+01 1.029197216033935547e+01 -2.187525480985641479e-01 9.108408927917480469e+00 2.666896820068359375e+00 -5.230926275253295898e-01
4.020000000000000000e+02 7.002889251708984375e+01 8.912658691406250000e+00 5.316389352083206177e-02 1.100002670288085938e+01 3.315957307815551758e+00 -9.230071306228637695e-01
4.030000000000000000e+02 7.833663940429687500e+01 1.123259735107421875e+01 -2.893295511603355408e-02 6.978540897369384766e+00 2.084882497787475586e+00 5.025370121002197266e-01
4.040000000000000000e+02 7.941110992431640625e+01 1.671746063232421875e+01 8.448808453977108002e-03 7.904565334320068359e+00 2.373904228210449219e+00 1.734419465065002441e-01
4.050000000000000000e+02 6.982368469238281250e+01 2.424711036682128906e+01 1.402737200260162354e-01 7.820651531219482422e+00 2.388277530670166016e+00 -2.050481140613555908e-01
4.060000000000000000e+02 6.994859313964843750e+01 1.724114990234375000e+01 1.685851998627185822e-02 9.291040420532226562e+00 2.792369604110717773e+00 2.240382134914398193e-01
4.070000000000000000e+02 7.823732757568359375e+01 1.809350395202636719e+01 2.099247090518474579e-02 8.312474250793457031e+00 2.500039815902709961e+00 4.236184060573577881e-01
4.080000000000000000e+02 7.933547210693359375e+01 2.372995376586914062e+01 6.998730823397636414e-03 9.734348297119140625e+00 2.922404289245605469e+00 2.507618367671966553e-01
4.090000000000000000e+02 6.899472045898437500e+01 2.841840744018554688e+01 1.521804183721542358e-01 3.980471134185791016e+00 1.239795446395874023e+00 -7.107015848159790039e-01
4.100000000000000000e+02 6.965742492675781250e+01 2.564867401123046875e+01 1.821787059307098389e-01 7.036827564239501953e+00 2.165701866149902344e+00 -5.474480986595153809e-01
4.110000000000000000e+02 7.688486480712890625e+01 2.228322982788085938e+01 8.092775940895080566e-02 8.869532585144042969e+00 2.685138225555419922e+00 7.147223353385925293e-01
4.120000000000000000e+02 7.932158660888671875e+01 2.941164779663085938e+01 -3.096650820225477219e-03 1.149724769592285156e+01 3.448245286941528320e+00 2.412517368793487549e-01
4.130000000000000000e+02 6.682492065429687500e+01 3.216447830200195312e+01 -1.273253321647644043e+00 -4.054568707942962646e-01 -5.036130547523498535e-01 8.952441811561584473e-01
4.140000000000000000e+02 6.584973907470703125e+01 3.329992294311523438e+01 -1.680842757225036621e+00 -8.575819730758666992e-01 -7.615274190902709961e-01 1.258055210113525391e+00
4.150000000000000000e+02 6.769889068603515625e+01 3.098834037780761719e+01 -7.764205336570739746e-01 4.030987620353698730e-01 -1.119965314865112305e-01 3.656462728977203369e-01
4.160000000000000000e+02 7.939974212646484375e+01 3.222776031494140625e+01 -1.221637427806854248e-02 1.219695663452148438e+01 3.655421972274780273e+00 1.475680619478225708e-01
4.170000000000000000e+02 7.904310607910156250e+01 3.731542968750000000e+01 -5.748846754431724548e-02 1.214615058898925781e+01 3.626598596572875977e+00 -1.547017842531204224e-01
4.180000000000000000e+02 7.027871704101562500e+01 3.606021118164062500e+01 -4.372812509536743164e-01 4.366908073425292969e+00 1.178887963294982910e+00 -1.442118734121322632e-01
4.190000000000000000e+02 6.345573425292968750e+01 3.504622268676757812e+01 -2.340239763259887695e+00 -8.065558075904846191e-01 -9.440386891365051270e-01 1.133124351501464844e+00
4.200000000000000000e+02 6.055458831787109375e+01 3.661149978637695312e+01 -1.540957331657409668e+00 -5.801703929901123047e-01 -6.363383531570434570e-01 4.963226616382598877e-01
4.210000000000000000e+02 6.228242874145507812e+01 3.580935668945312500e+01 -1.641095161437988281e+00 -3.239682018756866455e-01 -5.895190238952636719e-01 8.841638565063476562e-01
4.220000000000000000e+02 5.720064163208007812e+01 3.605033111572265625e+01 -1.284453868865966797e+00 -4.528853297233581543e-02 -3.989227414131164551e-01 -1.587513834238052368e-01
4.230000000000000000e+02 5.866986465454101562e+01 3.652127075195312500e+01 -1.461937665939331055e+00 -3.165901601314544678e-01 -5.335583686828613281e-01 1.712429076433181763e-01
4.240000000000000000e+02 4.938820648193359375e+01 3.572125244140625000e+01 -6.380877494812011719e-01 1.768528819084167480e+00 3.391323089599609375e-01 3.899878263473510742e-01
4.250000000000000000e+02 4.904608154296875000e+01 3.025478935241699219e+01 5.989565253257751465e-01 1.713079452514648438e+00 6.936107873916625977e-01 1.051745057106018066e+00
4.260000000000000000e+02 5.104561996459960938e+01 3.235002517700195312e+01 1.488860100507736206e-01 7.742595076560974121e-01 2.769436538219451904e-01 5.160704255104064941e-01
4.270000000000000000e+02 4.879219436645507812e+01 3.232578277587890625e+01 -9.271536767482757568e-02 1.941639661788940430e+00 5.546773076057434082e-01 6.899335384368896484e-01
4.280000000000000000e+02 5.460674667358398438e+01 3.471155548095703125e+01 -5.745404362678527832e-01 1.561567839235067368e-02 -1.676774173974990845e-01 -2.676966488361358643e-01
4.290000000000000000e+02 5.342177581787109375e+01 3.413994216918945312e+01 -4.280617237091064453e-01 2.232845276594161987e-01 -6.143316254019737244e-02 2.079859375953674316e-02
4.300000000000000000e+02 4.014062118530273438e+01 3.745892715454101562e+01 -1.141785979270935059e+00 3.621198177337646484e+00 7.438236474990844727e-01 -3.252733126282691956e-02
4.310000000000000000e+02 4.360641860961914062e+01 3.845336532592773438e+01 -1.135172963142395020e+00 3.224562883377075195e+00 6.268169879913330078e-01 1.247176378965377808e-01
4.320000000000000000e+02 4.515093231201171875e+01 3.133236885070800781e+01 -2.741569876670837402e-01 3.340997219085693359e+00 9.200521111488342285e-01 6.477195024490356445e-01
4.330000000000000000e+02 4.514239501953125000e+01 2.432573509216308594e+01 1.088575601577758789e+00 5.079683303833007812e+00 1.850477576255798340e+00 2.197382688522338867e+00
4.340000000000000000e+02 4.579406738281250000e+01 2.559292221069335938e+01 1.020879507064819336e+00 4.264342308044433594e+00 1.585566520690917969e+00 2.016625404357910156e+00
4.350000000000000000e+02 4.726201248168945312e+01 2.804281044006347656e+01 9.935749769210815430e-01 2.975059270858764648e+00 1.190590262413024902e+00 1.625488519668579102e+00
4.360000000000000000e+02 3.724737167358398438e+01 3.577402114868164062e+01 -1.018971443176269531e+00 3.768764972686767578e+00 8.249380588531494141e-01 -1.792186349630355835e-01
4.370000000000000000e+02 3.662115478515625000e+01 2.827067565917968750e+01 -2.748032212257385254e-01 4.263414382934570312e+00 1.196583390235900879e+00 -3.910080492496490479e-01
4.380000000000000000e+02 4.054490661621093750e+01 2.456673049926757812e+01 2.828972637653350830e-01 5.400848388671875000e+00 1.705123662948608398e+00 3.897229731082916260e-01
4.390000000000000000e+02 3.927312088012695312e+01 1.568099212646484375e+01 1.054793715476989746e+00 7.850290298461914062e+00 2.671525239944458008e+00 -3.827229142189025879e-01
4.400000000000000000e+02 4.006775665283203125e+01 9.769483566284179688e+00 2.021959781646728516e+00 8.913014411926269531e+00 3.280492305755615234e+00 -1.317501425743103027e+00
4.410000000000000000e+02 4.002267456054687500e+01 3.653683185577392578e+00 6.522251367568969727e-01 6.736981868743896484e+00 2.216762065887451172e+00 -1.309981584548950195e+00
4.420000000000000000e+02 3.922010803222656250e+01 -2.077049016952514648e+00 -4.273773133754730225e-01 5.258649349212646484e+00 1.449381589889526367e+00 -1.044199228286743164e+00
4.430000000000000000e+02 3.566905975341796875e+01 -1.516916847229003906e+01 -6.761566996574401855e-01 1.075104713439941406e+00 1.196844056248664856e-01 -7.224022746086120605e-01
4.440000000000000000e+02 3.539902496337890625e+01 -1.801639175415039062e+01 -1.998860120773315430e+00 5.109526962041854858e-02 -5.843294262886047363e-01 -3.645450808107852936e-03
4.450000000000000000e+02 3.670986938476562500e+01 -1.717893600463867188e+01 -7.079553008079528809e-01 4.751045405864715576e-01 -6.985522806644439697e-02 -7.589360475540161133e-01
4.460000000000000000e+02 3.799503707885742188e+01 -1.827138710021972656e+01 -9.402477182447910309e-03 7.655642628669738770e-01 2.268485277891159058e-01 -8.025932312011718750e-01
4.470000000000000000e+02 4.395379257202148438e+01 -1.984553718566894531e+01 1.931248784065246582e+00 1.490925788879394531e+01 5.052152156829833984e+00 -2.224143505096435547e+00
4.480000000000000000e+02 4.478553771972656250e+01 -2.058345031738281250e+01 6.150892257690429688e+00 1.317971801757812500e+01 5.799182891845703125e+00 2.034390717744827271e-01
4.490000000000000000e+02 5.193905639648437500e+01 -1.292395877838134766e+01 -1.259717583656311035e+00 6.279468536376953125e-01 -1.895312070846557617e-01 9.177820682525634766e-01
4.500000000000000000e+02 5.273432922363281250e+01 -1.416710758209228516e+01 -2.665253877639770508e+00 -1.103480935096740723e+00 -1.130620360374450684e+00 1.946063160896301270e+00
4.510000000000000000e+02 5.233289718627929688e+01 -1.696338653564453125e+01 -2.424233913421630859e+00 1.612683176994323730e+00 -2.434652447700500488e-01 8.963759988546371460e-02
4.520000000000000000e+02 5.200228118896484375e+01 -1.516365528106689453e+01 -3.146922111511230469e+00 1.450382590293884277e+00 -5.089618563652038574e-01 1.337412476539611816e+00
4.530000000000000000e+02 3.148699569702148438e+01 4.049547576904296875e+01 -9.685510396957397461e-01 3.232971191406250000e+00 6.793259978294372559e-01 -9.316718578338623047e-02
4.540000000000000000e+02 3.135018157958984375e+01 2.855527687072753906e+01 -1.424261480569839478e-01 3.340823650360107422e+00 9.595192670822143555e-01 -6.705498099327087402e-01
4.550000000000000000e+02 3.153709602355957031e+01 2.221432495117187500e+01 6.576337814331054688e-01 3.466166496276855469e+00 1.237140059471130371e+00 -8.696480989456176758e-01
4.560000000000000000e+02 3.361275863647460938e+01 2.091020584106445312e+01 7.933517098426818848e-01 4.182191848754882812e+00 1.492663145065307617e+00 -8.283929824829101562e-01
4.570000000000000000e+02 3.364070510864257812e+01 1.174409389495849609e+01 1.742998957633972168e+00 4.262564182281494141e+00 1.801668882369995117e+00 -7.734574079513549805e-01
4.580000000000000000e+02 2.861355972290039062e+01 1.238308787345886230e+00 3.781372681260108948e-02 1.629002928733825684e+00 5.000450015068054199e-01 2.903487719595432281e-02
4.590000000000000000e+02 2.875925636291503906e+01 -5.614375114440917969e+00 -9.992236495018005371e-01 1.090733647346496582e+00 2.745300717651844025e-02 4.276186823844909668e-01
4.600000000000000000e+02 2.542288780212402344e+01 -1.155035972595214844e+01 -9.799166917800903320e-01 -9.492578506469726562e-01 -5.787523984909057617e-01 1.118797183036804199e+00
4.610000000000000000e+02 2.752053070068359375e+01 -1.644865989685058594e+01 -1.002856254577636719e+00 -2.362898141145706177e-01 -3.717438280582427979e-01 5.339119434356689453e-01
4.620000000000000000e+02 2.926494407653808594e+01 -1.689569282531738281e+01 -1.235273241996765137e+00 -1.918206810951232910e-01 -4.281281828880310059e-01 5.554450750350952148e-01
4.630000000000000000e+02 3.154968643188476562e+01 -1.771083450317382812e+01 -1.496824383735656738e+00 -4.845962859690189362e-03 -4.505010843276977539e-01 3.375486135482788086e-01
4.640000000000000000e+02 2.238898468017578125e+01 4.110332107543945312e+01 -4.768424332141876221e-01 1.797924757003784180e+00 3.963246941566467285e-01 -6.334418803453445435e-02
4.650000000000000000e+02 2.443797111511230469e+01 2.137090682983398438e+01 7.443876266479492188e-01 1.576760888099670410e+00 6.963445544242858887e-01 -6.196620464324951172e-01
4.660000000000000000e+02 2.451753044128417969e+01 1.869719696044921875e+01 9.844174385070800781e-01 1.487671852111816406e+00 7.416267991065979004e-01 -5.948581099510192871e-01
4.670000000000000000e+02 2.273342895507812500e+01 7.170381069183349609e+00 7.473626136779785156e-01 1.840693950653076172e-01 2.794296145439147949e-01 1.023581773042678833e-01
4.680000000000000000e+02 2.164998054504394531e+01 -6.372392773628234863e-01 -8.797976374626159668e-01 -7.988460659980773926e-01 -5.035930871963500977e-01 7.651735544204711914e-01
4.690000000000000000e+02 1.927553176879882812e+01 -3.314962148666381836e+00 -2.082989454269409180e+00 -1.837174177169799805e+00 -1.176049113273620605e+00 1.716514945030212402e+00
4.700000000000000000e+02 1.985795402526855469e+01 -3.874422550201416016e+00 -2.056969404220581055e+00 -1.868030428886413574e+00 -1.177499890327453613e+00 1.733076333999633789e+00
4.710000000000000000e+02 2.206778144836425781e+01 -6.231187820434570312e+00 -1.785045862197875977e+00 -1.801268935203552246e+00 -1.075894474983215332e+00 1.630831718444824219e+00
4.720000000000000000e+02 2.363246726989746094e+01 -7.084386348724365234e+00 -1.551792383193969727e+00 -1.246141076087951660e+00 -8.393800854682922363e-01 1.331190228462219238e+00
4.730000000000000000e+02 2.390347480773925781e+01 -8.856962203979492188e+00 -1.383301615715026855e+00 -1.493974685668945312e+00 -8.631828427314758301e-01 1.398431897163391113e+00
4.740000000000000000e+02 1.797052001953125000e+01 3.841128158569335938e+01 -2.556409239768981934e-01 9.777019619941711426e-01 2.166182994842529297e-01 -1.456859707832336426e-01
4.750000000000000000e+02 2.209606933593750000e+01 3.819825363159179688e+01 -4.179656207561492920e-01 1.729970335960388184e+00 3.936013877391815186e-01 -1.907818019390106201e-01
4.760000000000000000e+02 1.517744159698486328e+01 3.284295654296875000e+01 -2.323317341506481171e-02 3.898952603340148926e-01 1.099986284971237183e-01 -2.288559824228286743e-01
4.770000000000000000e+02 1.727361679077148438e+01 2.755897331237792969e+01 2.281804978847503662e-01 5.801346898078918457e-01 2.424945682287216187e-01 -3.181120157241821289e-01
4.780000000000000000e+02 1.397922039031982422e+01 1.531401157379150391e+01 6.150264143943786621e-01 -5.329327583312988281e-01 2.462808042764663696e-02 2.986834347248077393e-01
4.790000000000000000e+02 1.591328525543212891e+01 6.875674724578857422e+00 3.052114546298980713e-01 -9.204656481742858887e-01 -1.845762580633163452e-01 6.844538450241088867e-01
4.800000000000000000e+02 1.083362960815429688e+01 1.804776430130004883e+00 -1.174744725227355957e+00 -7.722164988517761230e-01 -5.840883851051330566e-01 9.755069017410278320e-01
4.810000000000000000e+02 1.394828224182128906e+01 3.248799741268157959e-01 -1.791535854339599609e+00 -1.137936472892761230e+00 -8.788416981697082520e-01 1.324205040931701660e+00
4.820000000000000000e+02 1.503428936004638672e+01 5.654687881469726562e-01 -1.495271682739257812e+00 -1.291519284248352051e+00 -8.360372781753540039e-01 1.295096516609191895e+00
4.830000000000000000e+02 1.574986553192138672e+01 1.449274420738220215e-01 -1.561581611633300781e+00 -1.373401045799255371e+00 -8.804947733879089355e-01 1.342939376831054688e+00
4.840000000000000000e+02 1.737969779968261719e+01 -1.806048989295959473e+00 -2.090388774871826172e+00 -1.649916052818298340e+00 -1.122091412544250488e+00 1.657622456550598145e+00
4.850000000000000000e+02 1.300951576232910156e+01 4.110493850708007812e+01 -1.402883827686309814e-01 1.154912784695625305e-01 -7.439130451530218124e-03 -3.059235215187072754e-02
4.860000000000000000e+02 5.265900135040283203e+00 3.996121215820312500e+01 -5.239655077457427979e-02 -1.259823203086853027e+00 -3.936659395694732666e-01 7.493145298212766647e-03
4.870000000000000000e+02 7.729599952697753906e+00 3.155812072753906250e+01 2.564850822091102600e-02 -8.918213844299316406e-01 -2.598518431186676025e-01 -8.362251520156860352e-02
4.880000000000000000e+02 8.956549644470214844e+00 2.316958808898925781e+01 2.215487360954284668e-01 -7.976818680763244629e-01 -1.728399395942687988e-01 6.825991719961166382e-02
4.890000000000000000e+02 7.532847404479980469e+00 1.426202201843261719e+01 2.373727113008499146e-01 -9.750526547431945801e-01 -2.213039845228195190e-01 5.002916455268859863e-01
4.900000000000000000e+02 8.646283149719238281e+00 8.091104507446289062e+00 4.820244014263153076e-02 -8.380017280578613281e-01 -2.369397878646850586e-01 8.110648393630981445e-01
4.910000000000000000e+02 6.215979576110839844e+00 1.859879493713378906e+00 -4.801663160324096680e-01 -9.861724823713302612e-02 -1.736350655555725098e-01 3.387983143329620361e-01
4.920000000000000000e+02 1.164673519134521484e+01 1.396796703338623047e+00 -1.402566194534301758e+00 -8.588930964469909668e-01 -6.784377694129943848e-01 1.031314849853515625e+00
4.930000000000000000e+02 2.045073986053466797e+00 4.161519622802734375e+01 -5.884562060236930847e-02 -1.736717462539672852e+00 -5.386689305305480957e-01 -1.664690859615802765e-02
4.940000000000000000e+02 4.519606590270996094e+00 3.729108047485351562e+01 2.074155397713184357e-02 -1.454640984535217285e+00 -4.301698207855224609e-01 1.276936265639960766e-03
4.950000000000000000e+02 2.141262292861938477e+00 3.571532440185546875e+01 1.780560798943042755e-02 -1.760480880737304688e+00 -5.228025913238525391e-01 -6.623126566410064697e-02
4.960000000000000000e+02 1.977392435073852539e+00 2.881108093261718750e+01 2.711777342483401299e-03 -1.846530914306640625e+00 -5.531457066535949707e-01 -1.428230479359626770e-02
4.970000000000000000e+02 2.000398159027099609e+00 2.320596885681152344e+01 1.617382280528545380e-02 -1.816470384597778320e+00 -5.400889515876770020e-01 3.844288364052772522e-02
4.980000000000000000e+02 1.834905982017517090e+00 1.755570030212402344e+01 2.282767742872238159e-02 -1.612910270690917969e+00 -4.770247936248779297e-01 1.326207071542739868e-01
4.990000000000000000e+02 5.153917670249938965e-01 6.448125839233398438e+00 -3.013617824763059616e-03 -3.550949692726135254e-01 -1.074325814843177795e-01 7.120003551244735718e-02
5.000000000000000000e+02 1.612409114837646484e+00 9.184134483337402344e+00 3.677044063806533813e-03 -7.766203880310058594e-01 -2.318829894065856934e-01 2.367353141307830811e-01
5.010000000000000000e+02 4.736089706420898438e+00 2.568247795104980469e+00 -2.915192246437072754e-01 -1.352941840887069702e-01 -1.280440241098403931e-01 2.960757315158843994e-01
5.020000000000000000e+02 4.064512252807617188e+01 -1.941136550903320312e+01 2.088420152664184570e+00 1.939796924591064453e+00 1.208465099334716797e+00 -2.529510974884033203e+00
5.030000000000000000e+02 4.098495483398437500e+01 -2.045295524597167969e+01 2.499212741851806641e+00 7.107726931571960449e-01 9.629956483840942383e-01 -1.638654828071594238e+00
5.040000000000000000e+02 6.562036895751953125e+01 -2.196328735351562500e+01 -1.585219502449035645e+00 3.592506349086761475e-01 -3.677906394004821777e-01 5.140959098935127258e-02
5.050000000000000000e+02 6.414319610595703125e+01 -2.095699691772460938e+01 -7.867578864097595215e-01 1.282567262649536133e+00 1.487427949905395508e-01 1.610122203826904297e+00
5.060000000000000000e+02 5.949992370605468750e+01 -1.580045700073242188e+01 -1.008226871490478516e+00 5.330137014389038086e-01 -1.425639390945434570e-01 4.639274477958679199e-01
5.070000000000000000e+02 5.676361465454101562e+01 -1.672100448608398438e+01 -6.947476863861083984e+00 -8.393103480339050293e-01 -2.336036205291748047e+00 1.373701572418212891e+00
5.080000000000000000e+02 5.695039749145507812e+01 -1.810845375061035156e+01 -1.944572091102600098e+00 -7.541716694831848145e-01 -8.096231222152709961e-01 2.025359869003295898e+00
5.090000000000000000e+02 5.707106399536132812e+01 -2.335806274414062500e+01 2.146728038787841797e+00 1.728339195251464844e+00 1.162520170211791992e+00 1.447819232940673828e+00
5.100000000000000000e+02 5.035643386840820312e+01 -8.810896873474121094e+00 -8.569751866161823273e-03 4.386467456817626953e+00 1.313369393348693848e+00 -9.203425645828247070e-01
5.110000000000000000e+02 4.586094665527343750e+01 -2.635667324066162109e+00 1.614206880331039429e-01 5.712719917297363281e+00 1.762242197990417480e+00 -1.911406040191650391e+00
5.120000000000000000e+02 3.980398559570312500e+01 -5.370580673217773438e+00 -8.707551956176757812e-01 4.964846611022949219e+00 1.228227496147155762e+00 -1.077150225639343262e+00
5.130000000000000000e+02 4.835926437377929688e+01 -6.198973178863525391e+00 8.664987981319427490e-02 5.235645294189453125e+00 1.596688508987426758e+00 -1.297224879264831543e+00
5.140000000000000000e+02 4.878527450561523438e+01 -3.417078256607055664e+00 5.425572395324707031e-01 5.441583633422851562e+00 1.795242309570312500e+00 -1.864181637763977051e+00
5.150000000000000000e+02 4.411955642700195312e+01 3.683332443237304688e+00 1.178042888641357422e+00 7.210996150970458984e+00 2.516711711883544922e+00 -3.022186279296875000e+00
5.160000000000000000e+02 4.458227157592773438e+01 5.263379573822021484e+00 2.060697555541992188e+00 7.664738178253173828e+00 2.917630910873413086e+00 -3.908993482589721680e+00
5.170000000000000000e+02 4.392301177978515625e+01 6.488559722900390625e+00 2.201754808425903320e+00 9.144339561462402344e+00 3.403828382492065430e+00 -4.148312091827392578e+00
5.180000000000000000e+02 4.276538848876953125e+01 9.070009231567382812e+00 1.819211721420288086e+00 1.268825054168701172e+01 4.352238655090332031e+00 -3.807113647460937500e+00
5.190000000000000000e+02 4.234471511840820312e+01 1.045873069763183594e+01 1.245216965675354004e+00 1.410809040069580078e+01 4.605992317199707031e+00 -2.274012804031372070e+00
5.200000000000000000e+02 3.731082534790039062e+01 1.475025463104248047e+01 1.461594104766845703e+00 6.438420772552490234e+00 2.370004415512084961e+00 -8.272194862365722656e-01
5.210000000000000000e+02 4.706658935546875000e+01 -2.377210617065429688e+00 4.145910441875457764e-01 5.551822185516357422e+00 1.789924025535583496e+00 -2.055186510086059570e+00
5.220000000000000000e+02 4.119095611572265625e+01 1.021204853057861328e+01 1.995831847190856934e+00 1.059083271026611328e+01 3.775999307632446289e+00 -1.630570769309997559e+00
5.230000000000000000e+02 4.247097778320312500e+01 1.629383468627929688e+01 5.828948616981506348e-01 1.036884593963623047e+01 3.285522222518920898e+00 1.281818389892578125e+00
5.240000000000000000e+02 4.233260726928710938e+01 2.086821937561035156e+01 6.656640172004699707e-01 7.084672927856445312e+00 2.325101137161254883e+00 1.402430534362792969e+00
5.250000000000000000e+02 4.454725265502929688e+01 2.303823852539062500e+01 1.061079382896423340e+00 6.080146312713623047e+00 2.142367601394653320e+00 2.292920351028442383e+00
5.260000000000000000e+02 5.185508346557617188e+01 -2.716932487487792969e+01 2.087857484817504883e+00 5.046637535095214844e+00 2.140348434448242188e+00 -1.284438014030456543e+00
5.270000000000000000e+02 4.376200103759765625e+01 -3.212573623657226562e+01 9.912583231925964355e-02 6.042212486267089844e+00 1.842401504516601562e+00 2.418528646230697632e-01
5.280000000000000000e+02 4.728149032592773438e+01 -3.200046157836914062e+01 6.078314185142517090e-01 6.242670536041259766e+00 2.055150508880615234e+00 -5.890730023384094238e-01
5.290000000000000000e+02 5.138230895996093750e+01 -2.941604614257812500e+01 1.795377731323242188e+00 5.534636974334716797e+00 2.199004411697387695e+00 -1.202011108398437500e+00
5.300000000000000000e+02 4.759166717529296875e+01 -3.734566116333007812e+01 -7.472113370895385742e-01 5.729394435882568359e+00 1.494654893875122070e+00 -6.658235192298889160e-02
5.310000000000000000e+02 6.827280426025390625e+01 -2.135679626464843750e+01 -4.775946617126464844e+00 -2.888587415218353271e-01 -1.519441604614257812e+00 1.559745669364929199e-01
5.320000000000000000e+02 2.080371856689453125e+01 -3.657249832153320312e+01 1.575653441250324249e-02 -3.139442950487136841e-02 -4.691368434578180313e-03 -6.013927236199378967e-02
5.330000000000000000e+02 2.653689956665039062e+01 -3.178006172180175781e+01 -2.677388489246368408e-01 -1.903594471514225006e-02 -8.603243529796600342e-02 -2.485068701207637787e-02
5.340000000000000000e+02 3.216656494140625000e+01 -3.391063690185546875e+01 -4.283105731010437012e-01 1.556387841701507568e-01 -8.180153369903564453e-02 -1.394278556108474731e-01
5.350000000000000000e+02 4.153980255126953125e+01 -3.454726791381835938e+01 -5.435452461242675781e-01 4.571003913879394531e+00 1.208237648010253906e+00 1.036689996719360352e+00
5.360000000000000000e+02 3.841613388061523438e+01 -3.817753982543945312e+01 -4.151562228798866272e-02 1.996547698974609375e+00 5.865096449851989746e-01 6.188124418258666992e-01
5.370000000000000000e+02 5.728647613525390625e+01 -4.147367477416992188e+01 8.682578057050704956e-02 3.003375530242919922e+00 9.270604252815246582e-01 -2.916265726089477539e-01
5.380000000000000000e+02 7.100680541992187500e+01 -3.560368728637695312e+01 -3.373430371284484863e-01 4.616567134857177734e+00 1.283767223358154297e+00 7.335582375526428223e-01
5.390000000000000000e+02 6.997210693359375000e+01 -3.404726791381835938e+01 -2.121059894561767578e-01 4.220293045043945312e+00 1.202456116676330566e+00 1.324400782585144043e+00
5.400000000000000000e+02 7.184056854248046875e+01 -3.475160598754882812e+01 -3.683660030364990234e-01 5.451479911804199219e+00 1.524934172630310059e+00 6.484724879264831543e-01
5.410000000000000000e+02 1.200729846954345703e+01 -1.384242439270019531e+01 6.293278420343995094e-04 1.266439561732113361e-03 5.687302327714860439e-04 -7.579651428386569023e-04
5.420000000000000000e+02 1.210216140747070312e+01 -1.215544033050537109e+01 1.082213944755494595e-03 1.369905774481594563e-03 7.356359274126589298e-04 3.777185338549315929e-05
5.430000000000000000e+02 3.744897842407226562e+01 2.565708351135253906e+01 6.915660947561264038e-02 4.720458984375000000e+00 1.436884641647338867e+00 -3.077322840690612793e-01
5.440000000000000000e+02 2.818443870544433594e+01 3.374586868286132812e+01 -4.712592661380767822e-01 2.722801208496093750e+00 6.754625439643859863e-01 -4.664737880229949951e-01
5.450000000000000000e+02 2.326930046081542969e+01 2.841877365112304688e+01 1.157090291380882263e-01 1.723880290985107422e+00 5.518767833709716797e-01 -5.656253099441528320e-01
5.460000000000000000e+02 7.632479667663574219e+00 3.439989852905273438e+01 -1.394454110413789749e-02 -8.809387683868408203e-01 -2.684650123119354248e-01 -7.758830487728118896e-02
5.470000000000000000e+02 7.636785507202148438e+00 2.456201553344726562e+01 1.366659253835678101e-01 -9.763875603675842285e-01 -2.519164979457855225e-01 4.013514518737792969e-02
5.480000000000000000e+02 1.488958072662353516e+01 2.802169609069824219e+01 1.773252040147781372e-01 2.013008594512939453e-01 1.135878190398216248e-01 -2.229022085666656494e-01
5.490000000000000000e+02 2.269558525085449219e+01 2.255059623718261719e+01 6.272676587104797363e-01 1.302101969718933105e+00 5.788108706474304199e-01 -5.490026473999023438e-01
5.500000000000000000e+02 2.089641571044921875e+00 3.157598304748535156e+01 4.138329066336154938e-03 -1.797759532928466797e+00 -5.380863547325134277e-01 -2.343725226819515228e-02
5.510000000000000000e+02 7.048457336425781250e+01 3.038920593261718750e+01 -8.076794743537902832e-01 5.031707286834716797e+00 1.267208337783813477e+00 3.237349092960357666e-01
5.520000000000000000e+02 6.896047115325927734e+00 1.815410423278808594e+01 2.079531103372573853e-01 -1.064401388168334961e+00 -2.569344937801361084e-01 2.917838394641876221e-01
5.530000000000000000e+02 1.363910388946533203e+01 1.825669288635253906e+01 5.558143258094787598e-01 -4.014392197132110596e-01 4.631254076957702637e-02 1.422563046216964722e-01
5.540000000000000000e+02 2.335990142822265625e+01 1.985160064697265625e+01 8.768793940544128418e-01 1.297047853469848633e+00 6.521781682968139648e-01 -5.567649006843566895e-01
5.550000000000000000e+02 4.316294860839843750e+01 1.904254150390625000e+01 6.312189698219299316e-01 8.251039505004882812e+00 2.664677381515502930e+00 1.963210701942443848e+00
5.560000000000000000e+02 3.780385589599609375e+01 1.623360061645507812e+01 1.221692323684692383e+00 6.675864219665527344e+00 2.369266986846923828e+00 -6.448587179183959961e-01
5.570000000000000000e+02 6.257530212402343750e+00 1.067158794403076172e+01 1.072569191455841064e-01 -8.976078629493713379e-01 -2.371052950620651245e-01 6.261668205261230469e-01
5.580000000000000000e+02 1.450329685211181641e+01 8.033398628234863281e+00 3.578644096851348877e-01 -9.154689311981201172e-01 -1.672813594341278076e-01 7.105853557586669922e-01
5.590000000000000000e+02 2.050649642944335938e+01 9.604581832885742188e+00 8.544614315032958984e-01 -7.555314153432846069e-02 2.336724847555160522e-01 1.468015611171722412e-01
5.600000000000000000e+02 3.170423316955566406e+01 7.992412567138671875e+00 1.339342355728149414e+00 3.212529182434082031e+00 1.365561485290527344e+00 -4.308907985687255859e-01
5.610000000000000000e+02 1.793274044990539551e+00 1.615419960021972656e+01 1.878834143280982971e-02 -1.517557382583618164e+00 -4.496307373046875000e-01 1.571341007947921753e-01
5.620000000000000000e+02 2.099312591552734375e+01 -4.123730212450027466e-02 -8.025598526000976562e-01 -8.925046920776367188e-01 -5.085193514823913574e-01 7.786813378334045410e-01
5.630000000000000000e+02 4.007829666137695312e+01 6.645980358123779297e+00 1.400470256805419922e+00 7.889983177185058594e+00 2.787136077880859375e+00 -1.371711969375610352e+00
5.640000000000000000e+02 2.695678901672363281e+01 -5.164583206176757812e+00 -1.104821443557739258e+00 4.771926403045654297e-01 -1.882886439561843872e-01 6.093306541442871094e-01
5.650000000000000000e+02 4.534102249145507812e+01 -1.443860888481140137e+00 2.846996784210205078e-01 5.852652072906494141e+00 1.841205477714538574e+00 -2.049014568328857422e+00
5.660000000000000000e+02 2.727047157287597656e+01 -1.201237106323242188e+01 -9.703685641288757324e-01 -2.463487982749938965e-01 -3.650152087211608887e-01 9.970622658729553223e-01
5.670000000000000000e+02 3.671726989746093750e+01 -1.524628067016601562e+01 -5.804048776626586914e-01 1.536121010780334473e+00 2.867148518562316895e-01 -1.152268528938293457e+00
5.680000000000000000e+02 4.613470840454101562e+01 -8.666239738464355469e+00 -1.087211132049560547e+00 5.627553939819335938e+00 1.362102866172790527e+00 -7.481255531311035156e-01
5.690000000000000000e+02 4.607052993774414062e+01 -7.563505172729492188e+00 -8.176251053810119629e-01 5.542543411254882812e+00 1.417475461959838867e+00 -9.327746033668518066e-01
5.700000000000000000e+02 6.690396881103515625e+01 -2.152889823913574219e+01 -3.838557004928588867e+00 -8.822224289178848267e-02 -1.178033828735351562e+00 -2.148840278387069702e-01
5.710000000000000000e+02 3.850330734252929688e+01 -3.360168457031250000e+01 4.529092460870742798e-02 1.208134055137634277e+00 3.760274946689605713e-01 9.432547688484191895e-01
5.720000000000000000e+02 3.733103179931640625e+01 -3.308083724975585938e+01 -4.087324738502502441e-01 2.600171864032745361e-01 -4.461458697915077209e-02 2.929157316684722900e-01
5.730000000000000000e+02 3.215385437011718750e+01 -3.244892120361328125e+01 -6.858942508697509766e-01 -3.321823105216026306e-02 -2.157337516546249390e-01 6.608723104000091553e-02
5.740000000000000000e+02 2.729266166687011719e+01 -3.538571929931640625e+01 -9.322574734687805176e-02 7.641572039574384689e-03 -2.567525394260883331e-02 -1.208975911140441895e-01
5.750000000000000000e+02 2.381138992309570312e+01 -3.141618537902832031e+01 -1.596706658601760864e-01 -8.705916814506053925e-03 -5.051297321915626526e-02 -1.561889890581369400e-02
5.760000000000000000e+02 2.347041702270507812e+01 -3.287952423095703125e+01 -1.204496696591377258e-01 1.084895059466362000e-02 -3.288021683692932129e-02 -5.363370478153228760e-02
5.770000000000000000e+02 2.110507202148437500e+01 -3.141212844848632812e+01 -1.003741323947906494e-01 -1.372926868498325348e-02 -3.423101827502250671e-02 -1.717766188085079193e-02
5.780000000000000000e+02 2.247207641601562500e+01 -3.136227416992187500e+01 -1.255372017621994019e-01 1.209280360490083694e-02 -3.403332084417343140e-02 -1.549845468252897263e-02
5.790000000000000000e+02 1.829264831542968750e+01 -3.140572929382324219e+01 -5.835523456335067749e-02 -6.471425760537385941e-03 -1.944799907505512238e-02 -1.057757157832384109e-02
5.800000000000000000e+02 1.407180786132812500e+01 -3.053988647460937500e+01 -9.016335010528564453e-03 3.398726927116513252e-03 -1.685282331891357899e-03 6.055132835172116756e-04
5.810000000000000000e+02 1.276981353759765625e+01 -2.990356063842773438e+01 -3.021339653059840202e-03 -2.879724139347672462e-03 -1.770319067873060703e-03 -1.917075132951140404e-03
5.820000000000000000e+02 9.610648155212402344e+00 -2.725094032287597656e+01 2.120522549375891685e-03 3.309781895950436592e-03 1.629091333597898483e-03 2.896507736295461655e-03
5.830000000000000000e+02 8.545782089233398438e+00 -2.394330978393554688e+01 7.151883561164140701e-03 -2.536251122364774346e-05 2.137956442311406136e-03 -9.237403282895684242e-04
5.840000000000000000e+02 9.776070594787597656e+00 -1.860025596618652344e+01 5.918948445469141006e-03 8.651372627355158329e-05 1.801638631150126457e-03 -9.602329228073358536e-04
5.850000000000000000e+02 1.018515872955322266e+01 -1.615197563171386719e+01 3.922529984265565872e-03 -6.696152850054204464e-04 9.758744272403419018e-04 8.336935425177216530e-04
5.860000000000000000e+02 1.274067592620849609e+01 -1.496744728088378906e+01 -3.367858880665153265e-04 -2.009216696023941040e-03 -7.038007606752216816e-04 7.833820418454706669e-04
5.870000000000000000e+02 1.532075500488281250e+01 -1.361438846588134766e+01 2.210435923188924789e-04 -1.217211480252444744e-03 -2.988503547385334969e-04 4.360476741567254066e-04
5.880000000000000000e+02 1.803951072692871094e+01 -8.566873550415039062e+00 7.170466706156730652e-04 1.046308098011650145e-04 2.465032448526471853e-04 7.481656939489766955e-05
5.890000000000000000e+02 2.146220397949218750e+01 -1.207524490356445312e+01 6.600426277145743370e-04 7.536792691098526120e-05 2.206231729360297322e-04 1.725993497529998422e-04
5.900000000000000000e+02 2.250968170166015625e+01 -1.429004383087158203e+01 1.077123670256696641e-04 3.547400410752743483e-04 1.387357187923043966e-04 -2.505368684069253504e-05
5.910000000000000000e+02 2.236099624633789062e+01 -1.373503208160400391e+01 -1.210766713484190404e-04 -8.679035818204283714e-05 -6.236010813154280186e-05 -4.308730422053486109e-05
5.920000000000000000e+02 2.040352249145507812e+01 -1.033694267272949219e+01 -4.685922758653759956e-04 -2.461052499711513519e-04 -2.144092577509582043e-04 2.606804082461167127e-05
5.930000000000000000e+02 2.110758972167968750e+01 -1.145145225524902344e+01 -5.709945689886808395e-04 -3.033874236280098557e-05 -1.803999912226572633e-04 -6.666514673270285130e-05
5.940000000000000000e+02 2.081302833557128906e+01 -1.087121868133544922e+01 6.430615321733057499e-04 -2.071446579066105187e-05 1.867041282821446657e-04 7.075674511725082994e-05
5.950000000000000000e+02 1.998803901672363281e+01 -9.762382507324218750e+00 3.377858374733477831e-04 3.512952534947544336e-04 2.067243331111967564e-04 1.155651916633360088e-04
5.960000000000000000e+02 1.868717765808105469e+01 -8.065386772155761719e+00 -5.003937985748052597e-04 -1.427579991286620498e-04 -1.929455320350825787e-04 -1.319752336712554097e-04
5.970000000000000000e+02 1.679135131835937500e+01 -6.048934459686279297e+00 -4.026240785606205463e-04 -2.614925906527787447e-04 -1.992350007640197873e-04 -1.320130686508491635e-04
5.980000000000000000e+02 1.727996826171875000e+01 -6.540764808654785156e+00 4.045827954541891813e-04 2.286813687533140182e-04 1.899792550830170512e-04 1.248015178134664893e-04
5.990000000000000000e+02 1.422773265838623047e+01 -4.837682723999023438e+00 4.839430039282888174e-04 5.618069553747773170e-04 3.137250023428350687e-04 2.042406413238495588e-04
6.000000000000000000e+02 1.518610954284667969e+01 -4.747465610504150391e+00 4.648692556656897068e-04 4.279316053725779057e-04 2.678402524907141924e-04 2.075606753351166844e-04
6.010000000000000000e+02 1.463214969635009766e+01 -4.344420433044433594e+00 -4.693980736192315817e-04 -4.698311968240886927e-04 -2.817687927745282650e-04 -2.484973811078816652e-04
6.020000000000000000e+02 1.219872951507568359e+01 -2.990495920181274414e+00 -6.224152748472988605e-04 -3.791949711740016937e-04 -3.004830796271562576e-04 -3.581331111490726471e-04
6.030000000000000000e+02 1.282757854461669922e+01 -3.311728715896606445e+00 5.568906199187040329e-04 3.908414219040423632e-04 2.843195979949086905e-04 3.948632220271974802e-04
6.040000000000000000e+02 1.384202003479003906e+01 -5.315483093261718750e+00 -4.633693315554410219e-04 -6.551592960022389889e-04 -3.355585795361548662e-04 -8.057584636844694614e-05
6.050000000000000000e+02 9.013676643371582031e+00 -2.659465789794921875e+00 4.011308774352073669e-04 5.688093951903283596e-04 2.909820759668946266e-04 6.548270175699144602e-05
6.060000000000000000e+02 8.409113883972167969e+00 -1.884307980537414551e+00 2.583036548458039761e-04 7.048925617709755898e-04 2.889588649850338697e-04 1.690180361038073897e-04
6.070000000000000000e+02 6.824752330780029297e+00 -1.871837377548217773e+00 5.316729657351970673e-04 6.698378711007535458e-04 3.604532394092530012e-04 -7.889156404417008162e-05
6.080000000000000000e+02 7.613433361053466797e+00 -1.885242223739624023e+00 -4.524748073890805244e-04 -7.150236051529645920e-04 -3.502495237626135349e-04 -1.384530623909085989e-04
6.090000000000000000e+02 5.220983028411865234e+00 -1.936229467391967773e+00 3.287487970737856813e-06 5.405156989581882954e-04 1.631409686524420977e-04 2.423742262180894613e-04
6.100000000000000000e+02 2.694997072219848633e+00 -2.063715457916259766e+00 -1.045030658133327961e-03 6.008482159813866019e-05 -2.954837400466203690e-04 -2.336702600587159395e-04
6.110000000000000000e+02 3.365000247955322266e+00 -3.222660779953002930e+00 -4.564259143080562353e-04 -3.093664709012955427e-04 -2.297377213835716248e-04 -7.260954589582979679e-04
6.120000000000000000e+02 4.382697105407714844e+00 -2.005211830139160156e+00 -1.458636252209544182e-04 -3.370738704688847065e-04 -1.448812399758026004e-04 -4.815700813196599483e-04
6.130000000000000000e+02 1.515499353408813477e+00 -2.859878540039062500e+00 -4.913049051538109779e-04 -3.674160107038915157e-04 -2.576162805780768394e-04 2.748814004007726908e-04
6.140000000000000000e+02 4.249081611633300781e-01 -2.144944906234741211e+00 8.730283589102327824e-04 3.687454154714941978e-04 3.725321148522198200e-04 4.261917783878743649e-04
6.150000000000000000e+02 2.030626058578491211e+00 -4.161993789672851562e+01 3.763033077120780945e-03 -2.234916202723979950e-03 4.584350972436368465e-04 -1.162502099759876728e-03
6.160000000000000000e+02 9.167298078536987305e-01 -3.865299606323242188e+01 5.698036868125200272e-03 6.107636145316064358e-04 1.892640138976275921e-03 1.338963047601282597e-03
6.170000000000000000e+02 8.133013248443603516e-01 -3.473170089721679688e+01 -4.856130108237266541e-03 4.867763782385736704e-04 -1.310806022956967354e-03 -9.827425237745046616e-04
6.180000000000000000e+02 7.732061147689819336e-01 -3.326260757446289062e+01 3.692453959956765175e-03 1.237940858118236065e-03 1.479118480347096920e-03 1.883208024082705379e-04
6.190000000000000000e+02 6.533280611038208008e-01 -2.899793624877929688e+01 -4.756559617817401886e-03 6.708233850076794624e-04 -1.225720858201384544e-03 8.261406946985516697e-06
6.200000000000000000e+02 6.043553352355957031e-01 -2.759626007080078125e+01 5.154069047421216965e-03 3.557376039680093527e-04 1.652942039072513580e-03 3.158932959195226431e-04
6.210000000000000000e+02 5.926166772842407227e-01 -2.480166244506835938e+01 4.654093645513057709e-03 7.050333078950643539e-05 1.417379127815365791e-03 5.277526797726750374e-04
6.220000000000000000e+02 5.850400924682617188e-01 -2.620053482055664062e+01 -5.158001556992530823e-03 2.658721059560775757e-04 -1.467638881877064705e-03 -3.071933751925826073e-04
6.230000000000000000e+02 6.228988766670227051e-01 -2.196733665466308594e+01 3.243566490709781647e-03 2.847102041414473206e-05 9.816113160923123360e-04 3.962569753639400005e-04
6.240000000000000000e+02 6.400628089904785156e-01 -2.054370117187500000e+01 -2.726081525906920433e-03 -1.356776192551478744e-04 -8.585277246311306953e-04 -3.265033301431685686e-04
6.250000000000000000e+02 1.912477970123291016e+00 -2.048158454895019531e+01 3.245777916163206100e-03 2.495591470506042242e-04 1.048601116053760052e-03 5.079088732600212097e-04
6.260000000000000000e+02 6.216692328453063965e-01 -1.628794288635253906e+01 2.467927522957324982e-03 3.105483074250514619e-06 7.413099519908428192e-04 1.470569804951082915e-05
6.270000000000000000e+02 5.969108343124389648e-01 -1.487718486785888672e+01 -2.679878845810890198e-03 -1.362555485684424639e-05 -8.080513216555118561e-04 -3.715297498274594545e-05
6.280000000000000000e+02 5.771142840385437012e-01 -1.347150135040283203e+01 2.819584216922521591e-03 -4.084916508872993290e-05 8.336204919032752514e-04 9.607640095055103302e-05
6.290000000000000000e+02 1.738032221794128418e+00 -1.337427425384521484e+01 -2.836564555764198303e-03 5.562981823459267616e-05 -8.342804503627121449e-04 -1.938465538842137903e-05
6.300000000000000000e+02 5.780957937240600586e-01 -9.256319999694824219e+00 -2.369055058807134628e-03 1.865578451543115079e-05 -7.051198044791817665e-04 -2.216338325524702668e-04
6.310000000000000000e+02 6.173048615455627441e-01 -7.832273960113525391e+00 1.958675915375351906e-03 -9.587271051714196801e-06 5.847266293130815029e-04 2.658632583916187286e-04
6.320000000000000000e+02 4.341578960418701172e+00 -3.015623569488525391e+00 2.449739258736371994e-05 3.294862690381705761e-04 1.061950970324687660e-04 4.681320860981941223e-04
6.330000000000000000e+02 4.505341053009033203e+00 -3.982627153396606445e+00 7.702027687628287822e-06 1.645864540478214622e-04 5.168654388398863375e-05 -5.424012197181582451e-04
6.340000000000000000e+02 7.092677307128906250e+01 -3.877139663696289062e+01 2.690104767680168152e-02 4.153313159942626953e+00 1.254064202308654785e+00 4.522717893123626709e-01
6.350000000000000000e+02 5.018258285522460938e+01 -3.845384597778320312e+01 -7.323858141899108887e-01 5.577785968780517578e+00 1.453620076179504395e+00 -1.090739741921424866e-01
6.360000000000000000e+02 3.320262908935546875e+01 -4.069046401977539062e+01 3.283115029335021973e-01 4.633798599243164062e-01 2.375074028968811035e-01 5.681746173650026321e-03
6.370000000000000000e+02 1.372544002532958984e+01 -3.767340850830078125e+01 1.548459287732839584e-02 -2.046311646699905396e-02 -1.493557007052004337e-03 -1.635729335248470306e-02
6.380000000000000000e+02 7.568682098388671875e+01 4.064304351806640625e+01 6.492387503385543823e-02 9.712028503417968750e+00 2.933085918426513672e+00 3.542062938213348389e-01
6.390000000000000000e+02 7.800753021240234375e+01 4.173960876464843750e+01 5.264155268669128418e-01 1.132554149627685547e+01 3.555587053298950195e+00 -1.480165272951126099e-01
6.400000000000000000e+02 7.864155578613281250e+01 3.875448226928710938e+01 -6.779925525188446045e-02 1.185278224945068359e+01 3.535495042800903320e+00 -2.371125668287277222e-01
6.410000000000000000e+02 7.667076873779296875e+01 3.788516998291015625e+01 -2.454171031713485718e-01 1.024820137023925781e+01 3.000835418701171875e+00 1.741029471158981323e-01
6.420000000000000000e+02 7.951255035400390625e+01 3.468381500244140625e+01 2.039936743676662445e-02 1.251787567138671875e+01 3.761482477188110352e+00 3.484461829066276550e-02
6.430000000000000000e+02 7.817344665527343750e+01 3.271562194824218750e+01 -1.034856289625167847e-01 1.115758800506591797e+01 3.316230773925781250e+00 2.849146127700805664e-01
6.440000000000000000e+02 7.953890228271484375e+01 3.352061080932617188e+01 -4.792582988739013672e-02 1.241827011108398438e+01 3.711103200912475586e+00 8.239264786243438721e-02
6.450000000000000000e+02 7.934000396728515625e+01 3.082371902465820312e+01 -3.571590408682823181e-02 1.188257217407226562e+01 3.554057121276855469e+00 2.068865448236465454e-01
6.460000000000000000e+02 7.796495819091796875e+01 2.825065231323242188e+01 -3.831129521131515503e-02 1.029380035400390625e+01 3.076646804809570312e+00 6.037442684173583984e-01
6.470000000000000000e+02 7.931013488769531250e+01 2.657611846923828125e+01 1.846826868131756783e-03 1.061959743499755859e+01 3.186433076858520508e+00 2.735120654106140137e-01
6.480000000000000000e+02 7.667541503906250000e+01 2.536885643005371094e+01 4.030843079090118408e-02 9.181434631347656250e+00 2.766523122787475586e+00 8.239959478378295898e-01
6.490000000000000000e+02 7.931721496582031250e+01 2.515214729309082031e+01 8.370417170226573944e-03 1.017007732391357422e+01 3.053534269332885742e+00 2.641066312789916992e-01
6.500000000000000000e+02 7.938365173339843750e+01 2.090761184692382812e+01 2.924107015132904053e-03 8.932033538818359375e+00 2.680487394332885742e+00 2.090834677219390869e-01
6.510000000000000000e+02 7.940080261230468750e+01 1.950736045837402344e+01 1.451804395765066147e-02 8.569156646728515625e+00 2.575102567672729492e+00 1.903962045907974243e-01
6.520000000000000000e+02 7.822016906738281250e+01 1.948758697509765625e+01 1.579285971820354462e-02 8.574868202209472656e+00 2.577198266983032227e+00 4.463145136833190918e-01
6.530000000000000000e+02 7.940843200683593750e+01 1.811097145080566406e+01 -2.871362026780843735e-03 8.229610443115234375e+00 2.468021869659423828e+00 1.786367297172546387e-01
6.540000000000000000e+02 7.942565917968750000e+01 1.394052219390869141e+01 -5.286740488372743130e-04 7.248284339904785156e+00 2.174326658248901367e+00 1.771553903818130493e-01
6.550000000000000000e+02 7.943797302246093750e+01 1.255757141113281250e+01 -5.511556286364793777e-03 6.878847599029541016e+00 2.062000751495361328e+00 1.866730302572250366e-01
6.560000000000000000e+02 7.944145202636718750e+01 1.117721366882324219e+01 -8.313712663948535919e-03 6.459329605102539062e+00 1.935304760932922363e+00 2.058600336313247681e-01
6.570000000000000000e+02 7.937792968750000000e+01 7.026108264923095703e+00 1.742135360836982727e-02 5.069413185119628906e+00 1.526050448417663574e+00 2.145065665245056152e-01
6.580000000000000000e+02 7.936634063720703125e+01 5.633738517761230469e+00 1.108759641647338867e-02 4.666942119598388672e+00 1.403409004211425781e+00 1.847098469734191895e-01
6.590000000000000000e+02 7.937103271484375000e+01 4.240543365478515625e+00 2.660202048718929291e-02 4.338886260986328125e+00 1.309646487236022949e+00 1.430746018886566162e-01
6.600000000000000000e+02 7.939734649658203125e+01 8.573825657367706299e-02 3.252238780260086060e-02 4.008056640625000000e+00 1.212173700332641602e+00 -5.000912770628929138e-02
6.610000000000000000e+02 7.937124633789062500e+01 -1.299129962921142578e+00 1.178197842091321945e-02 4.190546035766601562e+00 1.260698318481445312e+00 -9.679047763347625732e-02
6.620000000000000000e+02 7.804631042480468750e+01 -3.960616588592529297e+00 5.090868473052978516e-02 5.623175144195556641e+00 1.702225089073181152e+00 -4.124634563922882080e-01
6.630000000000000000e+02 7.934967803955078125e+01 -4.102415561676025391e+00 6.728229112923145294e-03 4.785800457000732422e+00 1.437758564949035645e+00 -1.666738241910934448e-01
6.640000000000000000e+02 7.936862182617187500e+01 -8.302978515625000000e+00 5.965044721961021423e-03 5.969511508941650391e+00 1.792642951011657715e+00 -1.908016651868820190e-01
6.650000000000000000e+02 7.809100341796875000e+01 -1.098549270629882812e+01 -1.063368562608957291e-02 6.717367172241210938e+00 2.012020111083984375e+00 -4.853556156158447266e-01
6.660000000000000000e+02 7.936342620849609375e+01 -1.109070587158203125e+01 1.425283608114114031e-05 6.791783332824707031e+00 2.037539243698120117e+00 -1.878456175327301025e-01
6.670000000000000000e+02 7.936317443847656250e+01 -1.527899932861328125e+01 -2.743575349450111389e-02 7.842929840087890625e+00 2.344648122787475586e+00 -1.190509721636772156e-01
6.680000000000000000e+02 7.821002960205078125e+01 -1.801363945007324219e+01 -1.398070305585861206e-01 7.663749217987060547e+00 2.257182598114013672e+00 -8.937328122556209564e-03
6.690000000000000000e+02 7.940747070312500000e+01 -1.806868171691894531e+01 -3.643682226538658142e-02 8.123888969421386719e+00 2.426235675811767578e+00 -4.938985221087932587e-03
6.700000000000000000e+02 7.947579193115234375e+01 -2.357334327697753906e+01 1.300419447943568230e-03 6.623965740203857422e+00 1.987579822540283203e+00 2.448757588863372803e-01
6.710000000000000000e+02 7.684593200683593750e+01 -2.716951560974121094e+01 5.777707099914550781e-01 6.867220401763916016e+00 2.233497381210327148e+00 2.022395730018615723e-01
6.720000000000000000e+02 7.942998504638671875e+01 -2.493612861633300781e+01 2.768397703766822815e-02 6.061461925506591797e+00 1.826743841171264648e+00 2.009315192699432373e-01
6.730000000000000000e+02 7.933617401123046875e+01 -2.904063415527343750e+01 7.254617661237716675e-02 5.755522727966308594e+00 1.748420715332031250e+00 -1.003261655569076538e-01
6.740000000000000000e+02 7.777521514892578125e+01 -3.156636047363281250e+01 5.154871940612792969e-02 6.663834571838378906e+00 2.014615058898925781e+00 -4.818063080310821533e-01
6.750000000000000000e+02 7.926721191406250000e+01 -3.187639617919921875e+01 8.896101266145706177e-03 6.379222393035888672e+00 1.916435599327087402e+00 -1.874277144670486450e-01
6.760000000000000000e+02 7.924591827392578125e+01 -3.606452941894531250e+01 -7.389806676656007767e-03 7.260768890380859375e+00 2.176013708114624023e+00 -8.873842656612396240e-02
6.770000000000000000e+02 7.917875671386718750e+01 -3.743912506103515625e+01 -6.737607717514038086e-02 7.322004795074462891e+00 2.176388502120971680e+00 -7.684972602874040604e-03
6.780000000000000000e+02 7.902549743652343750e+01 -3.879395675659179688e+01 2.765486203134059906e-02 7.315058708190917969e+00 2.202814102172851562e+00 2.560402499511837959e-03
6.790000000000000000e+02 6.390556335449218750e+00 3.738121795654296875e+01 -3.995370585471391678e-03 -1.010671138763427734e+00 -3.043999373912811279e-01 -1.981423050165176392e-02
6.800000000000000000e+02 2.705538368225097656e+01 4.089723968505859375e+01 -7.182457447052001953e-01 2.589040279388427734e+00 5.612383484840393066e-01 -7.713984698057174683e-02
6.810000000000000000e+02 6.946504974365234375e+01 3.838136672973632812e+01 -9.157723188400268555e-02 3.443363428115844727e+00 1.005535840988159180e+00 -1.282636821269989014e-01
6.820000000000000000e+02 3.848161697387695312e-01 2.178440332412719727e+00 -3.138742409646511078e-03 1.434272434562444687e-02 3.361194394528865814e-03 2.815591171383857727e-03
6.830000000000000000e+02 2.735407590866088867e+00 2.684822082519531250e+00 -1.187878251075744629e-01 -1.059372648596763611e-01 -6.741752475500106812e-02 1.372746080160140991e-01
6.840000000000000000e+02 1.559576630592346191e+00 6.474357128143310547e+00 -1.711346581578254700e-02 -4.232972860336303711e-01 -1.321232169866561890e-01 2.053361386060714722e-01
6.850000000000000000e+02 5.327495336532592773e-01 9.246490478515625000e+00 -1.046808785758912563e-03 -7.827763557434082031e-01 -2.351469546556472778e-01 8.254242688417434692e-02
6.860000000000000000e+02 5.649662613868713379e-01 1.205368709564208984e+01 6.351554184220731258e-04 -1.202798843383789062e+00 -3.606490790843963623e-01 7.701055705547332764e-02
6.870000000000000000e+02 1.701637029647827148e+00 1.195506000518798828e+01 1.556644868105649948e-02 -1.115565299987792969e+00 -3.299996554851531982e-01 2.229446917772293091e-01
6.880000000000000000e+02 5.982702970504760742e-01 1.628042030334472656e+01 5.641698837280273438e-03 -1.694561600685119629e+00 -5.066759586334228516e-01 5.294262990355491638e-02
6.890000000000000000e+02 6.114404797554016113e-01 1.769135093688964844e+01 2.937340177595615387e-03 -1.811757206916809082e+00 -5.426459312438964844e-01 4.335012659430503845e-02
6.900000000000000000e+02 6.525654196739196777e-01 2.193091964721679688e+01 3.952870145440101624e-03 -2.026667356491088867e+00 -6.068143248558044434e-01 1.754517294466495514e-02
6.910000000000000000e+02 6.616693139076232910e-01 2.334341621398925781e+01 2.715006237849593163e-03 -2.060646772384643555e+00 -6.173795461654663086e-01 1.052741706371307373e-02
6.920000000000000000e+02 6.658039689064025879e-01 2.475622177124023438e+01 3.042036900296807289e-03 -2.079960584640502930e+00 -6.230755448341369629e-01 4.429462365806102753e-03
6.930000000000000000e+02 6.615206003189086914e-01 2.898019981384277344e+01 3.126603842247277498e-04 -2.077008485794067383e+00 -6.230087876319885254e-01 -6.026680581271648407e-03
6.940000000000000000e+02 6.726747155189514160e-01 3.038689422607421875e+01 8.066333830356597900e-04 -2.065332412719726562e+00 -6.193577647209167480e-01 -7.248918525874614716e-03
6.950000000000000000e+02 2.003563642501831055e+00 3.019086074829101562e+01 2.613277640193700790e-03 -1.829123020172119141e+00 -5.479528903961181641e-01 -1.804509013891220093e-02
6.960000000000000000e+02 6.960499286651611328e-01 3.179412078857421875e+01 5.030254251323640347e-04 -2.051143884658813477e+00 -6.151922345161437988e-01 -8.610677905380725861e-03
6.970000000000000000e+02 7.201877236366271973e-01 3.598367309570312500e+01 -1.167195383459329605e-03 -1.954204559326171875e+00 -5.866115093231201172e-01 -2.118526399135589600e-02
6.980000000000000000e+02 2.488462448120117188e+00 3.799456787109375000e+01 1.599378511309623718e-02 -1.689216017723083496e+00 -5.019666552543640137e-01 -7.783238589763641357e-02
6.990000000000000000e+02 9.366548657417297363e-01 3.869686508178710938e+01 -6.852254271507263184e-03 -1.823347449302673340e+00 -5.490599274635314941e-01 -3.970219939947128296e-02
7.000000000000000000e+02 1.335166573524475098e+00 4.004042434692382812e+01 1.588717289268970490e-02 -1.760081410408020020e+00 -5.232582688331604004e-01 -5.239218845963478088e-02
7.010000000000000000e+02 9.987149238586425781e+00 2.003400564193725586e+00 -1.036738991737365723e+00 -6.399351954460144043e-01 -5.030022263526916504e-01 8.858963847160339355e-01
7.020000000000000000e+02 9.177626609802246094e+00 1.957111954689025879e+00 -9.426923990249633789e-01 -4.746993780136108398e-01 -4.252175390720367432e-01 8.095971941947937012e-01
7.030000000000000000e+02 8.420936584472656250e+00 1.918976902961730957e+00 -9.107742309570312500e-01 -2.906467616558074951e-01 -3.604263067245483398e-01 6.903017759323120117e-01
7.040000000000000000e+02 7.573311328887939453e+00 2.663351774215698242e+00 -6.492227315902709961e-01 -2.946312427520751953e-01 -2.831561863422393799e-01 6.539692282676696777e-01
7.050000000000000000e+02 6.945985794067382812e+00 1.872146368026733398e+00 -6.122860908508300781e-01 -1.438806951045989990e-01 -2.268500328063964844e-01 4.347141683101654053e-01
7.060000000000000000e+02 4.767445564270019531e+00 1.848407506942749023e+00 -2.785742282867431641e-01 -7.201391458511352539e-02 -1.051764413714408875e-01 2.146377116441726685e-01
7.070000000000000000e+02 4.051746845245361328e+00 1.850487828254699707e+00 -2.037846595048904419e-01 -7.052534818649291992e-02 -8.229300379753112793e-02 1.666305065155029297e-01
7.080000000000000000e+02 3.335550308227539062e+00 1.864981412887573242e+00 -1.434314548969268799e-01 -6.198434531688690186e-02 -6.162473931908607483e-02 1.205868870019912720e-01
7.090000000000000000e+02 1.884141802787780762e+00 1.986479759216308594e+00 -5.049235746264457703e-02 -5.839950591325759888e-02 -3.266755864024162292e-02 4.621833935379981995e-02
7.100000000000000000e+02 1.142869353294372559e+00 2.092716693878173828e+00 -1.885377056896686554e-02 -3.447125479578971863e-02 -1.599750667810440063e-02 1.443273108452558517e-02
7.110000000000000000e+02 1.320291042327880859e+01 6.934240460395812988e-01 -1.677979707717895508e+00 -1.037134051322937012e+00 -8.145341277122497559e-01 1.245455384254455566e+00
7.120000000000000000e+02 1.541874408721923828e+01 1.203221797943115234e+00 -1.158845067024230957e+00 -1.300293564796447754e+00 -7.377415895462036133e-01 1.190655231475830078e+00
7.130000000000000000e+02 1.605367469787597656e+01 -8.801955580711364746e-01 -1.998090982437133789e+00 -1.464863061904907227e+00 -1.038886189460754395e+00 1.542171001434326172e+00
7.140000000000000000e+02 1.802360343933105469e+01 -2.291999340057373047e+00 -2.099897384643554688e+00 -1.735096216201782227e+00 -1.150498032569885254e+00 1.688382148742675781e+00
7.150000000000000000e+02 2.100490951538085938e+01 -5.009412288665771484e+00 -1.926631689071655273e+00 -1.872775673866271973e+00 -1.139822244644165039e+00 1.697098016738891602e+00
7.160000000000000000e+02 2.155286026000976562e+01 -5.607735633850097656e+00 -1.863297224044799805e+00 -1.845692634582519531e+00 -1.112697005271911621e+00 1.662593007087707520e+00
7.170000000000000000e+02 2.256443786621093750e+01 -6.863587379455566406e+00 -1.690761327743530273e+00 -1.758676528930664062e+00 -1.034831404685974121e+00 1.582410454750061035e+00
7.180000000000000000e+02 2.304504776000976562e+01 -7.509237766265869141e+00 -1.582717418670654297e+00 -1.679796218872070312e+00 -9.787540435791015625e-01 1.524117469787597656e+00
7.190000000000000000e+02 2.349062538146972656e+01 -8.176586151123046875e+00 -1.490261435508728027e+00 -1.591657519340515137e+00 -9.245756268501281738e-01 1.456790804862976074e+00
7.200000000000000000e+02 2.431078338623046875e+01 -9.533404350280761719e+00 -1.277459383010864258e+00 -1.392914533615112305e+00 -8.011121749877929688e-01 1.327244758605957031e+00
7.210000000000000000e+02 2.471599960327148438e+01 -1.020868587493896484e+01 -1.163324832916259766e+00 -1.246827363967895508e+00 -7.230456471443176270e-01 1.252845048904418945e+00
7.220000000000000000e+02 2.575240898132324219e+01 -1.221898365020751953e+01 -8.870429992675781250e-01 -8.317489624023437500e-01 -5.156375765800476074e-01 1.077942728996276855e+00
7.230000000000000000e+02 2.633747100830078125e+01 -1.180150604248046875e+01 -9.749349355697631836e-01 -5.649061203002929688e-01 -4.619523286819458008e-01 1.061434268951416016e+00
7.240000000000000000e+02 2.641223716735839844e+01 -1.356127548217773438e+01 -7.120887637138366699e-01 -5.753385424613952637e-01 -3.862281739711761475e-01 9.182480573654174805e-01
7.250000000000000000e+02 2.674939155578613281e+01 -1.424025726318359375e+01 -6.662217378616333008e-01 -4.333736300468444824e-01 -3.298786282539367676e-01 8.692508935928344727e-01
7.260000000000000000e+02 2.737601089477539062e+01 -1.563596820831298828e+01 -7.345823049545288086e-01 -3.027294576168060303e-01 -3.111935257911682129e-01 6.835498809814453125e-01
7.270000000000000000e+02 3.035033035278320312e+01 -1.737448120117187500e+01 -1.344959020614624023e+00 -7.992395013570785522e-02 -4.274649024009704590e-01 4.774189293384552002e-01
7.280000000000000000e+02 3.671839904785156250e+01 -1.808398818969726562e+01 -1.529441356658935547e+00 4.147092625498771667e-02 -4.463911354541778564e-01 -1.348666101694107056e-01
7.290000000000000000e+02 4.071580505371093750e+01 -2.046652221679687500e+01 2.011488437652587891e+00 7.015708684921264648e-01 8.139178156852722168e-01 -1.305939316749572754e+00
7.300000000000000000e+02 4.310591506958007812e+01 -1.981167411804199219e+01 2.269159078598022461e+00 1.212956714630126953e+01 4.319617748260498047e+00 -5.508652210235595703e+00
7.310000000000000000e+02 4.254871749877929688e+01 -1.965540695190429688e+01 2.901177644729614258e+00 7.983587741851806641e+00 3.265429735183715820e+00 -5.737392425537109375e+00
7.320000000000000000e+02 4.120872497558593750e+01 -2.043461227416992188e+01 2.975669622421264648e+00 9.738000035285949707e-01 1.184840917587280273e+00 -2.067902088165283203e+00
7.330000000000000000e+02 4.424908447265625000e+01 -2.294409370422363281e+01 3.807609379291534424e-01 1.520689964294433594e+01 4.676298141479492188e+00 -2.183706760406494141e+00
7.340000000000000000e+02 4.446576690673828125e+01 -2.282863426208496094e+01 1.468214273452758789e+00 1.510893917083740234e+01 4.973145961761474609e+00 -3.121211767196655273e+00
7.350000000000000000e+02 4.474767684936523438e+01 -2.245107841491699219e+01 3.814546108245849609e+00 1.412757873535156250e+01 5.382637500762939453e+00 -4.150104522705078125e+00
7.360000000000000000e+02 4.528866958618164062e+01 -2.137605476379394531e+01 7.154733180999755859e+00 1.096924114227294922e+01 5.437191963195800781e+00 -2.026254415512084961e+00
7.370000000000000000e+02 4.451106643676757812e+01 -2.024298477172851562e+01 4.224201202392578125e+00 1.440641689300537109e+01 5.589185237884521484e+00 -1.196684967726469040e-02
7.380000000000000000e+02 4.435218429565429688e+01 -2.008366394042968750e+01 3.299106359481811523e+00 1.481352233886718750e+01 5.433788776397705078e+00 -4.644587934017181396e-01
7.390000000000000000e+02 4.332498168945312500e+01 -1.978235816955566406e+01 1.944398283958435059e+00 1.338997364044189453e+01 4.600311756134033203e+00 -4.918773651123046875e+00
7.400000000000000000e+02 4.235278701782226562e+01 -2.356928825378417969e+01 -1.018563657999038696e-02 4.917405128479003906e+00 1.472165822982788086e+00 1.473957419395446777e+00
7.410000000000000000e+02 4.251423263549804688e+01 -2.350650215148925781e+01 -2.035105526447296143e-01 6.416654586791992188e+00 1.863943219184875488e+00 1.960401177406311035e+00
7.420000000000000000e+02 4.311468505859375000e+01 -2.329585075378417969e+01 -5.526318550109863281e-01 1.033634662628173828e+01 2.935114622116088867e+00 2.274446010589599609e+00
7.430000000000000000e+02 7.248964691162109375e+01 -2.871948432922363281e+01 1.406387925148010254e+00 9.161754608154296875e+00 3.170442819595336914e+00 8.611957430839538574e-01
7.440000000000000000e+02 7.115661621093750000e+01 -2.971658515930175781e+01 1.297141909599304199e+00 8.316007614135742188e+00 2.883944749832153320e+00 2.905521631240844727e+00
7.450000000000000000e+02 6.675995635986328125e+01 -3.395660018920898438e+01 -4.752368330955505371e-01 4.915178120136260986e-01 4.884297028183937073e-03 2.296476811170578003e-01
7.460000000000000000e+02 6.404116058349609375e+01 -3.463122940063476562e+01 -1.114116072654724121e+00 3.395649790763854980e-02 -3.240478634834289551e-01 -1.665595471858978271e-01
7.470000000000000000e+02 6.395296859741210938e+01 3.669533920288085938e+01 -8.220877647399902344e-01 -5.737779736518859863e-01 -4.187597036361694336e-01 5.392906665802001953e-01
7.480000000000000000e+02 6.472576141357421875e+01 3.432877731323242188e+01 -2.199422121047973633e+00 -1.059967517852783203e+00 -9.778169393539428711e-01 1.341390967369079590e+00
7.490000000000000000e+02 6.844800567626953125e+01 2.975069046020507812e+01 -1.839370876550674438e-01 2.049291133880615234e+00 5.596061944961547852e-01 -2.582614421844482422e-01
7.500000000000000000e+02 6.938242340087890625e+01 2.704036140441894531e+01 2.080872654914855957e-01 5.662071228027343750e+00 1.761047601699829102e+00 -7.592318654060363770e-01
7.510000000000000000e+02 6.990639495849609375e+01 2.284388160705566406e+01 7.567653805017471313e-02 8.137417793273925781e+00 2.463928222656250000e+00 5.600427463650703430e-02
7.520000000000000000e+02 6.995777893066406250e+01 1.864018249511718750e+01 7.451714947819709778e-03 8.901978492736816406e+00 2.672829151153564453e+00 1.976522505283355713e-01
7.530000000000000000e+02 6.993389892578125000e+01 1.443529224395751953e+01 2.320153266191482544e-01 1.031539249420166016e+01 3.164222478866577148e+00 5.411713123321533203e-01
7.540000000000000000e+02 6.984905242919921875e+01 1.304402732849121094e+01 5.725717544555664062e-02 9.344874382019042969e+00 2.820639371871948242e+00 6.961607336997985840e-01
7.550000000000000000e+02 7.146749877929687500e+01 4.703157424926757812e+00 2.714960277080535889e-01 1.254845619201660156e+01 3.845985651016235352e+00 4.919850826263427734e-01
7.560000000000000000e+02 6.999286651611328125e+01 4.786263108253479004e-01 8.291862607002258301e-01 1.476854228973388672e+01 4.679318428039550781e+00 2.364649534225463867e+00
7.570000000000000000e+02 6.882989501953125000e+01 -3.618361473083496094e+00 1.078717112541198730e+00 9.973516464233398438e+00 3.315670013427734375e+00 2.986431121826171875e+00
7.580000000000000000e+02 6.832575988769531250e+01 -4.945163249969482422e+00 1.190739870071411133e+00 8.678265571594238281e+00 2.960701704025268555e+00 2.953455924987792969e+00
7.590000000000000000e+02 6.948677825927734375e+01 -8.395227432250976562e+00 5.926674604415893555e-01 6.810177326202392578e+00 2.220853567123413086e+00 1.249298214912414551e+00
7.600000000000000000e+02 6.412066650390625000e+01 -1.240860176086425781e+01 2.215920209884643555e+00 3.291437864303588867e+00 1.652207374572753906e+00 2.497396945953369141e+00
7.610000000000000000e+02 6.193214797973632812e+01 -1.431185150146484375e+01 1.617638349533081055e+00 1.600601673126220703e+00 9.654719829559326172e-01 1.707994699478149414e+00
7.620000000000000000e+02 5.816874313354492188e+01 -1.640235519409179688e+01 -3.800695896148681641e+00 1.604875177145004272e-01 -1.092062473297119141e+00 2.074842005968093872e-01
7.630000000000000000e+02 5.084263229370117188e+01 -1.021572589874267578e+01 -1.154453586786985397e-02 3.682797193527221680e+00 1.101375818252563477e+00 -5.448163747787475586e-01
7.640000000000000000e+02 5.002787017822265625e+01 -7.396657943725585938e+00 2.435406595468521118e-01 4.879650115966796875e+00 1.536957144737243652e+00 -1.282372117042541504e+00
7.650000000000000000e+02 4.964366531372070312e+01 -6.051755428314208984e+00 3.849330544471740723e-01 5.259184837341308594e+00 1.693235397338867188e+00 -1.534890413284301758e+00
7.660000000000000000e+02 4.755027770996093750e+01 -3.627134323120117188e+00 3.393168449401855469e-01 5.452928066253662109e+00 1.737673401832580566e+00 -1.820473432540893555e+00
7.670000000000000000e+02 4.776795959472656250e+01 -8.581483960151672363e-01 8.407301306724548340e-01 5.382042884826660156e+00 1.866831898689270020e+00 -2.314931392669677734e+00
7.680000000000000000e+02 4.717353820800781250e+01 3.827661275863647461e-01 1.161795377731323242e+00 5.714286327362060547e+00 2.062824487686157227e+00 -2.624110698699951172e+00
7.690000000000000000e+02 4.655509567260742188e+01 1.617860555648803711e+00 1.300548791885375977e+00 6.007456779479980469e+00 2.192401647567749023e+00 -2.859372615814208984e+00
7.700000000000000000e+02 4.592289352416992188e+01 2.846188783645629883e+00 1.460398674011230469e+00 6.194316387176513672e+00 2.296414613723754883e+00 -3.112236261367797852e+00
7.710000000000000000e+02 4.331902694702148438e+01 7.756693363189697266e+00 1.859513759613037109e+00 1.039042282104492188e+01 3.674981117248535156e+00 -4.188422203063964844e+00
7.720000000000000000e+02 4.212491607666015625e+01 1.192223644256591797e+01 5.977349877357482910e-01 1.308930110931396484e+01 4.106110572814941406e+00 -6.190723776817321777e-01
7.730000000000000000e+02 4.225955963134765625e+01 1.486176776885986328e+01 3.019177615642547607e-01 1.070465373992919922e+01 3.301971435546875000e+00 7.157372236251831055e-01
7.740000000000000000e+02 4.278587341308593750e+01 1.768441200256347656e+01 5.517213940620422363e-01 9.240385055541992188e+00 2.937631845474243164e+00 1.795951485633850098e+00
7.750000000000000000e+02 4.402780532836914062e+01 2.172338485717773438e+01 9.082887172698974609e-01 6.920103549957275391e+00 2.348517656326293945e+00 2.214773416519165039e+00
7.760000000000000000e+02 4.649034500122070312e+01 2.684346199035644531e+01 1.038795709609985352e+00 3.662549018859863281e+00 1.410403370857238770e+00 1.833418130874633789e+00
7.770000000000000000e+02 4.812565994262695312e+01 2.916837692260742188e+01 8.290894627571105957e-01 2.244717359542846680e+00 9.221420884132385254e-01 1.327974081039428711e+00
7.780000000000000000e+02 5.001897811889648438e+01 3.131389236450195312e+01 4.897958934307098389e-01 1.266046762466430664e+00 5.267527699470520020e-01 7.346550226211547852e-01
7.790000000000000000e+02 5.573465347290039062e+01 3.556054306030273438e+01 -1.024824380874633789e+00 -1.893844008445739746e-01 -3.642626404762268066e-01 -1.673548221588134766e-01
7.800000000000000000e+02 4.415973663330078125e+01 -1.995730018615722656e+01 2.412289381027221680e+00 1.498224067687988281e+01 5.218358993530273438e+00 -1.249926090240478516e+00
7.810000000000000000e+02 4.402629852294921875e+01 -2.305627632141113281e+01 -3.359335958957672119e-01 1.513377380371093750e+01 4.439352035522460938e+00 -1.000803112983703613e+00
7.820000000000000000e+02 4.502098846435546875e+01 -2.037956809997558594e+01 5.161294460296630859e+00 1.234566974639892578e+01 5.252089500427246094e+00 1.090650036931037903e-01
7.830000000000000000e+02 4.498804473876953125e+01 -2.161230087280273438e+01 7.827096939086914062e+00 1.197489356994628906e+01 5.940597057342529297e+00 -2.945424556732177734e+00
7.840000000000000000e+02 4.489328384399414062e+01 -2.077399635314941406e+01 6.830617427825927734e+00 1.248494052886962891e+01 5.794667243957519531e+00 -2.427252084016799927e-01
7.850000000000000000e+02 4.495218276977539062e+01 -2.204343605041503906e+01 6.044028759002685547e+00 1.268570995330810547e+01 5.618921756744384766e+00 -3.995783329010009766e+00
7.860000000000000000e+02 4.487319183349609375e+01 -2.225522041320800781e+01 5.115502357482910156e+00 1.328838825225830078e+01 5.521167278289794922e+00 -4.267868041992187500e+00
7.870000000000000000e+02 4.499398040771484375e+01 -2.140261268615722656e+01 8.099957466125488281e+00 1.181106662750244141e+01 5.973307132720947266e+00 -2.281621456146240234e+00
7.880000000000000000e+02 4.463302230834960938e+01 -2.265749549865722656e+01 2.567811727523803711e+00 1.460326194763183594e+01 5.151322364807128906e+00 -3.755817174911499023e+00
7.890000000000000000e+02 4.373367691040039062e+01 -1.982190132141113281e+01 1.639679193496704102e+00 1.482218647003173828e+01 4.938559532165527344e+00 -3.100280523300170898e+00
7.900000000000000000e+02 4.343103408813476562e+01 -2.312901115417480469e+01 -1.041888356208801270e+00 1.295491886138916016e+01 3.573909282684326172e+00 1.603570461273193359e+00
7.910000000000000000e+02 4.359576034545898438e+01 -2.308903884887695312e+01 -9.897313117980957031e-01 1.400275039672851562e+01 3.903905630111694336e+00 1.031006455421447754e+00
7.920000000000000000e+02 4.159283065795898438e+01 -2.038861656188964844e+01 3.768930196762084961e+00 1.645534515380859375e+00 1.624339461326599121e+00 -3.005697965621948242e+00
7.930000000000000000e+02 4.215524291992187500e+01 -1.983927345275878906e+01 3.658299207687377930e+00 5.416991233825683594e+00 2.722587108612060547e+00 -5.310265064239501953e+00
7.940000000000000000e+02 4.193560028076171875e+01 -2.021574592590332031e+01 4.392527580261230469e+00 3.123612403869628906e+00 2.254842042922973633e+00 -4.326678276062011719e+00
7.950000000000000000e+02 4.163553237915039062e+01 -2.014320182800292969e+01 3.873563289642333984e+00 2.326478481292724609e+00 1.860012531280517578e+00 -3.571825265884399414e+00
7.960000000000000000e+02 4.341418075561523438e+01 -2.363371467590332031e+01 -9.662595391273498535e-01 1.157601928710937500e+01 3.182928085327148438e+00 1.544740438461303711e+00
7.970000000000000000e+02 4.239528274536132812e+01 -2.713447189331054688e+01 8.078552037477493286e-02 9.450751304626464844e+00 2.859461069107055664e+00 5.724489092826843262e-01
7.980000000000000000e+02 4.250411224365234375e+01 -1.998818969726562500e+01 3.891002416610717773e+00 7.036506175994873047e+00 3.278252601623535156e+00 -5.960521221160888672e+00
7.990000000000000000e+02 4.270151901245117188e+01 -1.991437149047851562e+01 3.352912187576293945e+00 8.960086822509765625e+00 3.693899631500244141e+00 -6.154426574707031250e+00
8.000000000000000000e+02 3.892918395996093750e+01 -1.847150230407714844e+01 8.021181225776672363e-01 1.559773564338684082e+00 7.085675001144409180e-01 -1.418844938278198242e+00
8.010000000000000000e+02 4.141020584106445312e+01 -2.041208076477050781e+01 3.373257637023925781e+00 1.305872201919555664e+00 1.403738975524902344e+00 -2.549097061157226562e+00
8.020000000000000000e+02 4.428759765625000000e+01 -2.760010147094726562e+01 1.062024474143981934e+00 8.549103736877441406e+00 2.883338451385498047e+00 8.398398756980895996e-01
8.030000000000000000e+02 4.293895721435546875e+01 -2.340491294860839844e+01 -4.687700867652893066e-01 9.138912200927734375e+00 2.601042747497558594e+00 2.429040193557739258e+00
8.040000000000000000e+02 4.208896636962890625e+01 -2.382645797729492188e+01 3.401501849293708801e-02 4.268742084503173828e+00 1.290827155113220215e+00 1.076404690742492676e+00
8.050000000000000000e+02 4.179319381713867188e+01 -1.995815086364746094e+01 3.792411565780639648e+00 3.425179719924926758e+00 2.165277481079101562e+00 -4.260167598724365234e+00
8.060000000000000000e+02 4.058752059936523438e+01 -1.986191749572753906e+01 2.197566509246826172e+00 1.348139047622680664e+00 1.063711643218994141e+00 -2.022094726562500000e+00
8.070000000000000000e+02 4.122679519653320312e+01 -2.001550674438476562e+01 3.080227375030517578e+00 1.868684768676757812e+00 1.484673619270324707e+00 -2.859574794769287109e+00
8.080000000000000000e+02 1.627680587768554688e+01 -5.589536190032958984e+00 4.484781820792704821e-04 3.014940011780709028e-04 2.249916578875854611e-04 1.420300977770239115e-04
8.090000000000000000e+02 1.573544883728027344e+01 -5.162595748901367188e+00 -4.548870201688259840e-04 -3.660800575744360685e-04 -2.462901175022125244e-04 -1.697468978818506002e-04
8.100000000000000000e+02 1.405396842956542969e+01 -3.974380493164062500e+00 4.796095890924334526e-04 4.623658314812928438e-04 2.825926349032670259e-04 3.208320995327085257e-04
8.110000000000000000e+02 1.578855037689208984e+01 -6.044289112091064453e+00 -4.904915113002061844e-04 -3.102082700934261084e-04 -2.402099344180896878e-04 -3.464330438873730600e-05
8.120000000000000000e+02 1.528225898742675781e+01 -5.613240718841552734e+00 4.853688005823642015e-04 3.923319454770535231e-04 2.633102121762931347e-04 6.982893683016300201e-05
8.130000000000000000e+02 1.823323249816894531e+01 -7.541441440582275391e+00 4.779700248036533594e-04 2.038216916844248772e-04 2.045375149464234710e-04 8.183981117326766253e-05
8.140000000000000000e+02 1.721076393127441406e+01 -1.090312576293945312e+01 -6.571193225681781769e-04 -8.037335937842726707e-04 -4.382558690849691629e-04 -1.193591597257182002e-04
8.150000000000000000e+02 1.367540359497070312e+01 -4.488974571228027344e+00 -4.878825275227427483e-04 -5.534260417334735394e-04 -3.123925707768648863e-04 -3.127134987153112888e-04
8.160000000000000000e+02 1.150144100189208984e+01 -2.669178247451782227e+00 5.362009396776556969e-04 4.306778719183057547e-04 2.900636463891714811e-04 2.439301897538825870e-04
8.170000000000000000e+02 1.308522605895996094e+01 -4.176716327667236328e+00 5.160259315744042397e-04 5.180500447750091553e-04 3.102227929048240185e-04 4.132823960389941931e-04
8.180000000000000000e+02 1.933710670471191406e+01 -1.033130455017089844e+01 -3.984009090345352888e-04 -5.427200230769813061e-04 -2.823362883646041155e-04 -2.579836291261017323e-04
8.190000000000000000e+02 1.912461280822753906e+01 -8.620844841003417969e+00 4.528852878138422966e-04 1.609219907550141215e-04 1.841421908466145396e-04 1.926564873429015279e-04
8.200000000000000000e+02 1.955907440185546875e+01 -9.189661979675292969e+00 -3.847846528515219688e-04 -2.374578180024400353e-04 -1.866727398009970784e-04 -2.094000519718974829e-04
8.210000000000000000e+02 1.786145210266113281e+01 -1.116613483428955078e+01 -1.473514421377331018e-04 6.537588196806609631e-04 1.519222132628783584e-04 3.348785394337028265e-04
8.220000000000000000e+02 2.039630699157714844e+01 -1.144683742523193359e+01 -5.076740053482353687e-04 -5.154181053512729704e-05 -1.677647524047642946e-04 -1.944365794770419598e-05
8.230000000000000000e+02 2.161368560791015625e+01 -1.301107501983642578e+01 -1.740517036523669958e-04 6.103124405854032375e-08 -5.219720333116129041e-05 -2.795843756757676601e-04
8.240000000000000000e+02 1.979186248779296875e+01 -1.094690227508544922e+01 4.645329900085926056e-04 6.260855589061975479e-04 3.271855530329048634e-04 -9.449090430280193686e-05
8.250000000000000000e+02 2.153808403015136719e+01 -1.351495361328125000e+01 -1.364109921269118786e-04 4.154604976065456867e-04 8.371484727831557393e-05 4.959821671945974231e-05
8.260000000000000000e+02 8.848965644836425781e+00 3.729035854339599609e+00 -5.352535247802734375e-01 -6.082528233528137207e-01 -3.430519104003906250e-01 8.922341465950012207e-01
8.270000000000000000e+02 8.308866500854492188e+00 2.742913961410522461e+00 -6.825160980224609375e-01 -4.136546850204467773e-01 -3.288512229919433594e-01 7.590262889862060547e-01
8.280000000000000000e+02 1.569191098213195801e+00 7.820957660675048828e+00 -9.337876923382282257e-03 -5.971705317497253418e-01 -1.819525212049484253e-01 2.295136451721191406e-01
8.290000000000000000e+02 5.489024639129638672e+00 1.852139234542846680e+00 -3.730036616325378418e-01 -9.119132906198501587e-02 -1.392584890127182007e-01 2.787670195102691650e-01
8.300000000000000000e+02 9.071327209472656250e+00 2.859216928482055664e+00 -7.449242472648620605e-01 -5.403993725776672363e-01 -3.855970799922943115e-01 8.564558625221252441e-01
8.310000000000000000e+02 7.680205821990966797e+00 1.891033053398132324e+00 -7.470564246177673340e-01 -1.764381825923919678e-01 -2.770483791828155518e-01 5.232493281364440918e-01
8.320000000000000000e+02 6.850236892700195312e+00 2.613589763641357422e+00 -5.448928475379943848e-01 -2.175715565681457520e-01 -2.287393063306808472e-01 5.285311341285705566e-01
8.330000000000000000e+02 8.131310462951660156e+00 3.541932344436645508e+00 -5.537371635437011719e-01 -4.782926440238952637e-01 -3.096089363098144531e-01 7.956246733665466309e-01
8.340000000000000000e+02 1.865103006362915039e+00 4.119942188262939453e+00 -5.195507034659385681e-02 -1.974250525236129761e-01 -7.481403648853302002e-02 1.533210575580596924e-01
8.350000000000000000e+02 4.702423095703125000e+00 3.342025756835937500e+00 -2.608519494533538818e-01 -2.100334912538528442e-01 -1.412656307220458984e-01 3.551303744316101074e-01
8.360000000000000000e+02 1.335246801376342773e+00 3.274130344390869141e+00 -3.681587800383567810e-02 -1.094399169087409973e-01 -4.387674108147621155e-02 7.664762437343597412e-02
8.370000000000000000e+02 2.614257574081420898e+00 1.907112956047058105e+00 -9.301745146512985229e-02 -6.271366029977798462e-02 -4.671933501958847046e-02 8.292416483163833618e-02
8.380000000000000000e+02 2.608080863952636719e+01 -1.288861846923828125e+01 -7.819206714630126953e-01 -7.225391268730163574e-01 -4.513379335403442383e-01 1.009475827217102051e+00
8.390000000000000000e+02 2.668156433105468750e+01 -1.246065235137939453e+01 -9.020549058914184570e-01 -4.693271219730377197e-01 -4.114145934581756592e-01 1.017858266830444336e+00
8.400000000000000000e+02 2.709096908569335938e+01 -1.493211460113525391e+01 -6.727116107940673828e-01 -3.836048543453216553e-01 -3.168949484825134277e-01 7.703425884246826172e-01
8.410000000000000000e+02 2.598943901062011719e+01 -1.114442157745361328e+01 -1.061473727226257324e+00 -6.701760888099670410e-01 -5.194949507713317871e-01 1.105112433433532715e+00
8.420000000000000000e+02 2.508774757385253906e+01 -1.088140964508056641e+01 -1.070079565048217773e+00 -1.108355164527893066e+00 -6.535304188728332520e-01 1.174476265907287598e+00
8.430000000000000000e+02 2.786639022827148438e+01 -1.154177761077880859e+01 -1.011442780494689941e+00 -2.694699354469776154e-02 -3.115169405937194824e-01 9.375774860382080078e-01
8.440000000000000000e+02 2.703249359130859375e+01 -1.312612342834472656e+01 -8.344255685806274414e-01 -3.807469606399536133e-01 -3.645517528057098389e-01 9.803064465522766113e-01
8.450000000000000000e+02 2.563026618957519531e+01 -1.048654079437255859e+01 -1.143756508827209473e+00 -7.742341756820678711e-01 -5.753971934318542480e-01 1.141370177268981934e+00
8.460000000000000000e+02 3.092734146118164062e+01 -1.637411117553710938e+01 -1.224306225776672363e+00 6.196250393986701965e-02 -3.487030863761901855e-01 4.682300090789794922e-01
8.470000000000000000e+02 2.779694938659667969e+01 -1.450576210021972656e+01 -7.806092500686645508e-01 -2.636965811252593994e-01 -3.132917582988739014e-01 8.318301439285278320e-01
8.480000000000000000e+02 2.525191116333007812e+01 -9.821814537048339844e+00 -1.232792139053344727e+00 -8.993244767189025879e-01 -6.396349668502807617e-01 1.184319138526916504e+00
8.490000000000000000e+02 2.446539306640625000e+01 -8.475211143493652344e+00 -1.401812672615051270e+00 -1.101673603057861328e+00 -7.510458827018737793e-01 1.264586687088012695e+00
8.500000000000000000e+02 2.406072235107421875e+01 -7.784867763519287109e+00 -1.476970911026000977e+00 -1.173156380653381348e+00 -7.950382232666015625e-01 1.299984693527221680e+00
8.510000000000000000e+02 2.316879272460937500e+01 -6.393026351928710938e+00 -1.614590167999267578e+00 -1.318490266799926758e+00 -8.799241185188293457e-01 1.355386734008789062e+00
8.520000000000000000e+02 2.149806976318359375e+01 -4.518398761749267578e+00 -1.763093352317810059e+00 -1.554200530052185059e+00 -9.951881766319274902e-01 1.443011045455932617e+00
8.530000000000000000e+02 2.264928817749023438e+01 -5.739243984222412109e+00 -1.664398550987243652e+00 -1.401434779167175293e+00 -9.197499752044677734e-01 1.379209280014038086e+00
8.540000000000000000e+02 2.381440353393554688e+01 -5.890916824340820312e+00 -1.504784584045410156e+00 -9.008716940879821777e-01 -7.216968536376953125e-01 1.141451597213745117e+00
8.550000000000000000e+02 1.686542510986328125e+01 3.031096756458282471e-01 -1.296370744705200195e+00 -1.400505065917968750e+00 -8.090627789497375488e-01 1.230470061302185059e+00
8.560000000000000000e+02 1.242685890197753906e+01 1.039410710334777832e+00 -1.593972802162170410e+00 -9.267285466194152832e-01 -7.562103867530822754e-01 1.143452048301696777e+00
8.570000000000000000e+02 1.465761375427246094e+01 -6.925649195909500122e-02 -1.875267863273620605e+00 -1.249700427055358887e+00 -9.374905228614807129e-01 1.418416738510131836e+00
8.580000000000000000e+02 1.535810470581054688e+01 -4.702550172805786133e-01 -1.946030855178833008e+00 -1.362416505813598633e+00 -9.925341606140136719e-01 1.482376456260681152e+00
8.590000000000000000e+02 2.043255043029785156e+01 -4.438591957092285156e+00 -2.006130695343017578e+00 -1.888329505920410156e+00 -1.168338060379028320e+00 1.725837945938110352e+00
8.600000000000000000e+02 1.866284751892089844e+01 -2.786460161209106445e+00 -2.093489885330200195e+00 -1.792537093162536621e+00 -1.165808081626892090e+00 1.704426407814025879e+00
8.610000000000000000e+02 2.033213424682617188e+01 -3.366529941558837891e+00 -1.804202079772949219e+00 -1.624816656112670898e+00 -1.028705596923828125e+00 1.468847155570983887e+00
8.620000000000000000e+02 2.080260276794433594e+01 -2.850481271743774414e+00 -1.574622869491577148e+00 -1.384982824325561523e+00 -8.878816962242126465e-01 1.252370715141296387e+00
8.630000000000000000e+02 2.208020973205566406e+01 -5.119453430175781250e+00 -1.706550002098083496e+00 -1.477010846138000488e+00 -9.550682306289672852e-01 1.413742899894714355e+00
8.640000000000000000e+02 1.846325302124023438e+01 -1.745762705802917480e+00 -1.766600012779235840e+00 -1.599717020988464355e+00 -1.009895086288452148e+00 1.454841494560241699e+00
8.650000000000000000e+02 1.781029701232910156e+01 -1.245430111885070801e+00 -1.730501294136047363e+00 -1.562666535377502441e+00 -9.879503250122070312e-01 1.435011982917785645e+00
8.660000000000000000e+02 1.672849655151367188e+01 -1.326247096061706543e+00 -2.051913499832153320e+00 -1.555138349533081055e+00 -1.082115530967712402e+00 1.596681952476501465e+00
8.670000000000000000e+02 1.972973442077636719e+01 -2.806226491928100586e+00 -1.805160164833068848e+00 -1.631673693656921387e+00 -1.031050205230712891e+00 1.470879554748535156e+00
8.680000000000000000e+02 1.149533939361572266e+01 -4.309829235076904297e+00 -7.983256946317851543e-04 -3.825660678558051586e-04 -3.542675403878092766e-04 -3.885879705194383860e-04
8.690000000000000000e+02 6.035192012786865234e+00 -1.880071640014648438e+00 -1.552637259010225534e-04 -6.429948261938989162e-04 -2.394775656284764409e-04 -1.253414393431739882e-05
8.700000000000000000e+02 7.482884883880615234e+00 -2.693562746047973633e+00 5.178998690098524094e-04 4.342910251580178738e-04 2.856572682503610849e-04 2.239253954030573368e-04
8.710000000000000000e+02 6.721010684967041016e+00 -2.626875877380371094e+00 -9.143180795945227146e-04 -7.159574306569993496e-04 -4.890826530754566193e-04 2.174068795284256339e-04
8.720000000000000000e+02 8.282839775085449219e+00 -2.631351470947265625e+00 -2.472218184266239405e-04 -5.962834111414849758e-04 -2.530515776015818119e-04 -5.983253140584565699e-05
8.730000000000000000e+02 6.687971115112304688e+00 -3.863338708877563477e+00 -3.006135229952633381e-04 -3.225072287023067474e-04 -1.869362313300371170e-04 6.973197450861334801e-04
8.740000000000000000e+02 1.715330123901367188e+00 -9.246967315673828125e+00 2.531012054532766342e-03 -7.628196908626705408e-05 7.364190532825887203e-04 1.553746551508083940e-04
8.750000000000000000e+02 1.941387891769409180e+00 -1.968961000442504883e+00 6.180216441862285137e-04 3.415974788367748260e-04 2.878857485484331846e-04 -3.243444371037185192e-04
8.760000000000000000e+02 6.780800223350524902e-01 -6.381168365478515625e+00 -1.561851357109844685e-03 -4.337272184784524143e-05 -4.815672291442751884e-04 -2.700834884308278561e-04
8.770000000000000000e+02 1.221851468086242676e+00 -1.988550186157226562e+00 2.504535950720310211e-04 -6.566027877852320671e-04 -1.218447505380026996e-04 -1.166233196272514760e-04
8.780000000000000000e+02 7.178351879119873047e-01 -4.880325794219970703e+00 1.293023582547903061e-03 3.161861968692392111e-05 3.973926359321922064e-04 2.647344081196933985e-04
8.790000000000000000e+02 5.846346020698547363e-01 -3.451262235641479492e+00 -1.186899025924503803e-03 3.101259062532335520e-05 -3.467659407760947943e-04 -4.885212401859462261e-04
8.800000000000000000e+02 1.203279304504394531e+01 2.122881412506103516e+00 -1.083700656890869141e+00 -9.670637249946594238e-01 -6.152293086051940918e-01 1.070216536521911621e+00
8.810000000000000000e+02 1.354828453063964844e+01 1.359507918357849121e+00 -1.332800626754760742e+00 -1.111718177795410156e+00 -7.333556413650512695e-01 1.182882905006408691e+00
8.820000000000000000e+02 1.430143737792968750e+01 9.710396528244018555e-01 -1.410617232322692871e+00 -1.208991050720214844e+00 -7.858824729919433594e-01 1.249371886253356934e+00
8.830000000000000000e+02 1.204145717620849609e+01 -5.081713676452636719e+00 -5.550647620111703873e-04 -3.374079824425280094e-04 -2.677418233361095190e-04 -4.937230842188000679e-04
8.840000000000000000e+02 1.109690952301025391e+01 -3.361979722976684570e+00 -7.418591412715613842e-04 -3.461660235188901424e-04 -3.264075494371354580e-04 -1.370413956465199590e-04
8.850000000000000000e+02 5.593470001220703125e+01 -3.230008316040039062e+01 2.068227767944335938e+00 7.010839462280273438e+00 2.723720312118530273e+00 -2.087981700897216797e+00
8.860000000000000000e+02 6.949896240234375000e+01 -2.173311424255371094e+01 -2.533432722091674805e+00 9.958764314651489258e-01 -4.612669050693511963e-01 -1.730316579341888428e-01
8.870000000000000000e+02 6.544530487060546875e+01 -2.067740249633789062e+01 -1.754823923110961914e+00 1.056357979774475098e+00 -2.095397859811782837e-01 1.243528485298156738e+00
8.880000000000000000e+02 6.167376327514648438e+01 -2.312649726867675781e+01 2.389687776565551758e+00 1.324499726295471191e+00 1.114256262779235840e+00 1.964878797531127930e+00
8.890000000000000000e+02 5.985205078125000000e+01 -2.316279029846191406e+01 2.380506992340087891e+00 1.826415061950683594e+00 1.262076616287231445e+00 2.032877922058105469e+00
8.900000000000000000e+02 5.588865661621093750e+01 -2.923229980468750000e+01 7.492495775222778320e-01 7.174012184143066406e+00 2.376978397369384766e+00 1.088166594505310059e+00
8.910000000000000000e+02 5.659511947631835938e+01 -2.735223960876464844e+01 1.795988321304321289e+00 4.574515342712402344e+00 1.911151051521301270e+00 2.081521749496459961e+00
8.920000000000000000e+02 7.107833099365234375e+01 -2.287517738342285156e+01 -4.616221413016319275e-02 5.735010147094726562e+00 1.706654310226440430e+00 -1.602028012275695801e+00
8.930000000000000000e+02 3.956998443603515625e+01 -1.856877517700195312e+01 1.273439049720764160e+00 2.049105405807495117e+00 9.967632889747619629e-01 -1.984160900115966797e+00
8.940000000000000000e+02 7.828002166748046875e+01 -2.459853935241699219e+01 1.572640240192413330e-01 6.673817634582519531e+00 2.049324512481689453e+00 5.686862468719482422e-01
8.950000000000000000e+02 7.248661041259765625e+01 -2.980541229248046875e+01 7.627930045127868652e-01 8.697879791259765625e+00 2.838201761245727539e+00 3.904369473457336426e-01
8.960000000000000000e+02 3.280532836914062500e+01 -1.789447021484375000e+01 -1.708543539047241211e+00 4.647643119096755981e-02 -4.986201226711273193e-01 2.004996091127395630e-01
8.970000000000000000e+02 5.889891052246093750e+01 -2.377644348144531250e+01 2.801974773406982422e+00 1.751018762588500977e+00 1.365898132324218750e+00 2.073034286499023438e+00
8.980000000000000000e+02 7.176584625244140625e+01 -2.728839683532714844e+01 5.959905982017517090e-01 1.273522186279296875e+01 3.999363899230957031e+00 1.239913344383239746e+00
8.990000000000000000e+02 7.282684326171875000e+01 -2.778650093078613281e+01 1.563004732131958008e+00 9.606852531433105469e+00 3.350957155227661133e+00 8.145554065704345703e-01
9.000000000000000000e+02 6.802259063720703125e+01 -3.327204132080078125e+01 1.495705395936965942e-01 1.294735908508300781e+00 4.332919418811798096e-01 7.729338407516479492e-01
9.010000000000000000e+02 7.101920318603515625e+01 -3.331966400146484375e+01 -4.625997543334960938e-01 5.513739109039306641e+00 1.515341758728027344e+00 9.123293757438659668e-01
9.020000000000000000e+02 5.582232284545898438e+01 -2.603521156311035156e+01 2.189294099807739258e+00 3.596481084823608398e+00 1.735732555389404297e+00 9.394252896308898926e-01
9.030000000000000000e+02 7.166320800781250000e+01 -2.099595451354980469e+01 -2.118493080139160156e+00 6.426143646240234375e+00 1.292295217514038086e+00 -1.165344357490539551e+00
9.040000000000000000e+02 5.457316589355468750e+01 -2.992106628417968750e+01 1.869794845581054688e+00 6.115447044372558594e+00 2.395572423934936523e+00 -8.325840830802917480e-01
9.050000000000000000e+02 5.498124313354492188e+01 -3.144406127929687500e+01 1.927700757980346680e+00 7.413753032684326172e+00 2.802436113357543945e+00 -1.268653631210327148e+00
9.060000000000000000e+02 3.424579620361328125e+01 -1.701185607910156250e+01 -1.365505456924438477e+00 1.667449027299880981e-01 -3.596281707286834717e-01 7.098633795976638794e-02
9.070000000000000000e+02 2.857332611083984375e+01 -1.613671684265136719e+01 -1.047756552696228027e+00 -2.522689700126647949e-01 -3.900076448917388916e-01 6.074861288070678711e-01
9.080000000000000000e+02 3.409202194213867188e+01 -1.797043991088867188e+01 -1.961807131767272949e+00 1.521948073059320450e-02 -5.839763283729553223e-01 9.099888056516647339e-02
9.090000000000000000e+02 5.677879333496093750e+01 -2.528573799133300781e+01 2.459894418716430664e+00 2.832167863845825195e+00 1.587618708610534668e+00 1.723711371421813965e+00
9.100000000000000000e+02 6.878689575195312500e+01 -3.485572052001953125e+01 -9.899786859750747681e-02 2.706187725067138672e+00 7.821570038795471191e-01 1.216295599937438965e+00
9.110000000000000000e+02 6.732609558105468750e+01 -3.558213043212890625e+01 2.470000274479389191e-02 1.672297120094299316e+00 5.090991258621215820e-01 8.804219961166381836e-01
9.120000000000000000e+02 3.546953964233398438e+01 -1.710405731201171875e+01 -1.221322298049926758e+00 1.783696860074996948e-01 -3.128857910633087158e-01 -1.877007335424423218e-01
9.130000000000000000e+02 3.194741821289062500e+01 -1.668812370300292969e+01 -1.313549041748046875e+00 1.223159506916999817e-01 -3.573699295520782471e-01 3.776586353778839111e-01
9.140000000000000000e+02 6.282736968994140625e+01 -3.486102294921875000e+01 -1.000881075859069824e+00 -3.578526154160499573e-02 -3.109999001026153564e-01 -1.996416300535202026e-01
9.150000000000000000e+02 6.001877975463867188e+01 -3.865815734863281250e+01 5.827900171279907227e-01 1.447072029113769531e+00 6.089586019515991211e-01 -7.139893174171447754e-01
9.160000000000000000e+02 6.464316558837890625e+01 -3.979775238037109375e+01 9.969489574432373047e-01 9.234306812286376953e-01 5.761138796806335449e-01 7.725393772125244141e-02
9.170000000000000000e+02 5.654141616821289062e+01 -3.448271942138671875e+01 3.055254518985748291e-01 4.492792129516601562e+00 1.439495325088500977e+00 -1.413472771644592285e+00
9.180000000000000000e+02 5.736248397827148438e+01 -3.349886322021484375e+01 1.729309320449829102e+00 3.178527593612670898e+00 1.472351074218750000e+00 -2.320156335830688477e+00
9.190000000000000000e+02 7.266045379638671875e+01 -2.501937484741210938e+01 1.124932646751403809e+00 1.028608989715576172e+01 3.423306703567504883e+00 -9.055859595537185669e-02
9.200000000000000000e+02 5.781060791015625000e+01 -2.441485786437988281e+01 2.832799673080444336e+00 1.947685837745666504e+00 1.434145689010620117e+00 1.892691612243652344e+00
9.210000000000000000e+02 5.675492477416992188e+01 -2.160185050964355469e+01 1.167018413543701172e+00 9.864253401756286621e-01 6.460331082344055176e-01 1.363904714584350586e+00
9.220000000000000000e+02 6.154592132568359375e+01 -1.610516929626464844e+01 -4.807840883731842041e-01 1.899784207344055176e+00 4.257000386714935303e-01 1.659848690032958984e+00
9.230000000000000000e+02 7.210193634033203125e+01 -3.279193878173828125e+01 -2.527385354042053223e-01 6.219289302825927734e+00 1.789965152740478516e+00 5.032084584236145020e-01
9.240000000000000000e+02 7.134889984130859375e+01 -3.117001914978027344e+01 7.925735712051391602e-01 6.728690147399902344e+00 2.256379127502441406e+00 1.724160790443420410e+00
9.250000000000000000e+02 5.713682174682617188e+01 4.075132751464843750e+01 -3.375431299209594727e-01 -3.568359911441802979e-01 -2.083137482404708862e-01 1.467174887657165527e-01
9.260000000000000000e+02 8.415580749511718750e+00 -2.672363471984863281e+01 7.591692730784416199e-03 4.543203613138757646e-05 2.291137352585792542e-03 -3.631057217717170715e-03
9.270000000000000000e+02 5.473763656616210938e+01 -1.608442306518554688e+01 -7.166323661804199219e+00 -2.609054088592529297e+00 -2.932613372802734375e+00 3.219348907470703125e+00
9.280000000000000000e+02 4.163524246215820312e+01 -3.071148490905761719e+01 1.843304276466369629e+00 6.448106288909912109e+00 2.487423181533813477e+00 2.478490352630615234e+00
9.290000000000000000e+02 4.058927917480468750e+01 -3.146984481811523438e+01 1.395737648010253906e+00 2.704695463180541992e+00 1.230129957199096680e+00 2.008369922637939453e+00
9.300000000000000000e+02 4.289813995361328125e+01 -3.025908470153808594e+01 1.505162119865417480e+00 8.055263519287109375e+00 2.868127822875976562e+00 1.253627419471740723e+00
9.310000000000000000e+02 4.403787231445312500e+01 -2.870528030395507812e+01 1.346440076828002930e+00 7.594334602355957031e+00 2.682232379913330078e+00 6.062691211700439453e-01
9.320000000000000000e+02 9.680718421936035156e+00 -1.485289287567138672e+01 -2.334381919354200363e-03 6.413544178940355778e-04 -5.079082329757511616e-04 -1.381752430461347103e-03
9.330000000000000000e+02 5.896951675415039062e+01 -1.744586372375488281e+01 -2.799419164657592773e+00 9.855162501335144043e-01 -5.441708564758300781e-01 2.066563367843627930e+00
9.340000000000000000e+02 3.609322738647460938e+01 -3.307938766479492188e+01 -9.179433584213256836e-01 4.877068847417831421e-02 -2.607517838478088379e-01 7.152479887008666992e-02
9.350000000000000000e+02 3.948443984985351562e+01 -3.221186447143554688e+01 5.393742918968200684e-01 1.462833762168884277e+00 6.006624102592468262e-01 1.074756145477294922e+00
9.360000000000000000e+02 5.678290557861328125e+01 3.798161315917968750e+01 -8.977321386337280273e-01 -1.898668855428695679e-01 -3.262796998023986816e-01 3.230907618999481201e-01
9.370000000000000000e+02 5.441339874267578125e+01 3.729105758666992188e+01 -6.416655182838439941e-01 3.032623529434204102e-01 -1.015209481120109558e-01 1.382169574499130249e-01
9.380000000000000000e+02 1.163599014282226562e+01 -2.904199600219726562e+01 5.338871851563453674e-04 5.757562816143035889e-03 1.887434977106750011e-03 8.696244331076741219e-04
9.390000000000000000e+02 1.215882682800292969e+01 -3.114256286621093750e+01 -5.619722418487071991e-03 6.854217965155839920e-03 3.703486290760338306e-04 1.106322451960295439e-04
9.400000000000000000e+02 5.040496444702148438e+01 -1.206093215942382812e+01 -1.210068106651306152e+00 3.341138839721679688e+00 6.393212080001831055e-01 6.577391028404235840e-01
9.410000000000000000e+02 6.074882888793945312e+01 -1.511427974700927734e+01 6.027349233627319336e-01 1.087844967842102051e+00 5.071739554405212402e-01 1.026302218437194824e+00
9.420000000000000000e+02 4.043637084960937500e+01 -3.357307815551757812e+01 1.672895252704620361e-01 3.004726886749267578e+00 9.516049027442932129e-01 1.829707264900207520e+00
9.430000000000000000e+02 4.212112426757812500e+01 1.340075778961181641e+01 3.173569142818450928e-01 1.153718852996826172e+01 3.556363582611083984e+00 2.150725871324539185e-01
9.440000000000000000e+02 4.065690231323242188e+01 1.182224178314208984e+01 1.565067648887634277e+00 9.987273216247558594e+00 3.465702295303344727e+00 -1.251155734062194824e+00
9.450000000000000000e+02 1.340724372863769531e+01 -3.345944976806640625e+01 -2.048402465879917145e-02 -5.517366225831210613e-04 -6.310728844255208969e-03 -1.139761786907911301e-02
9.460000000000000000e+02 1.663624000549316406e+01 -3.272496414184570312e+01 -3.272624686360359192e-02 -8.036455139517784119e-03 -1.222881022840738297e-02 -2.056729421019554138e-02
9.470000000000000000e+02 6.705650329589843750e+01 3.440683364868164062e+01 -1.176432847976684570e+00 1.080293297767639160e+00 -2.884184196591377258e-02 2.855148613452911377e-01
9.480000000000000000e+02 3.545013809204101562e+01 -3.470537567138671875e+01 -4.097891971468925476e-02 8.976684510707855225e-02 1.463637780398130417e-02 1.709395796060562134e-01
9.490000000000000000e+02 4.003924560546875000e+01 1.876216697692871094e+01 7.400724887847900391e-01 7.271887302398681641e+00 2.403587818145751953e+00 2.885795533657073975e-01
9.500000000000000000e+02 4.108525848388671875e+01 1.673529624938964844e+01 7.688578963279724121e-01 8.667290687561035156e+00 2.830844640731811523e+00 5.231519341468811035e-01
9.510000000000000000e+02 7.026172637939453125e+01 6.116885185241699219e+00 2.244774550199508667e-01 1.384812831878662109e+01 4.221781730651855469e+00 -6.437288224697113037e-02
9.520000000000000000e+02 7.407854461669921875e+01 7.675404548645019531e+00 1.349812448024749756e-01 9.180929183959960938e+00 2.794773101806640625e+00 1.008912324905395508e+00
9.530000000000000000e+02 7.619371891021728516e+00 -2.241367530822753906e+01 4.919880069792270660e-03 6.181499920785427094e-04 1.661408925428986549e-03 -1.102711772546172142e-03
9.540000000000000000e+02 1.000726318359375000e+01 -2.926347160339355469e+01 -1.007134094834327698e-03 4.508495796471834183e-03 1.050408580340445042e-03 2.994335955008864403e-03
9.550000000000000000e+02 1.692602539062500000e+01 -8.546001434326171875e+00 9.020324214361608028e-04 -5.742230769101297483e-06 2.688870590645819902e-04 -1.564718986628577113e-04
9.560000000000000000e+02 7.929625701904296875e+01 -3.469148635864257812e+01 -5.505092814564704895e-02 7.068602561950683594e+00 2.104065418243408203e+00 -1.376884877681732178e-01
9.570000000000000000e+02 7.699132537841796875e+01 -2.828566169738769531e+01 3.175933659076690674e-01 6.739482879638671875e+00 2.117122888565063477e+00 -1.361150890588760376e-01
9.580000000000000000e+02 7.934369659423828125e+01 -2.763906860351562500e+01 2.913391776382923126e-02 5.633207321166992188e+00 1.698702335357666016e+00 2.377060428261756897e-02
9.590000000000000000e+02 7.928726196289062500e+01 3.593574905395507812e+01 -6.368884444236755371e-02 1.239674663543701172e+01 3.699917316436767578e+00 -5.359424650669097900e-02
9.600000000000000000e+02 7.946495056152343750e+01 -2.083118629455566406e+01 -2.498123422265052795e-02 7.733879089355468750e+00 2.312669277191162109e+00 1.521188467741012573e-01
9.610000000000000000e+02 7.541808319091796875e+01 -2.254820442199707031e+01 -3.254478573799133301e-01 7.569616317749023438e+00 2.173250436782836914e+00 9.056458473205566406e-01
9.620000000000000000e+02 7.803102874755859375e+01 -2.585503005981445312e+01 2.113794982433319092e-01 6.504037380218505859e+00 2.014625072479248047e+00 4.051012694835662842e-01
9.630000000000000000e+02 7.929399108886718750e+01 -3.045220375061035156e+01 1.183708757162094116e-02 6.046143054962158203e+00 1.817394018173217773e+00 -1.692287474870681763e-01
9.640000000000000000e+02 7.795027923583984375e+01 -3.310276794433593750e+01 -6.386889517307281494e-02 6.803821086883544922e+00 2.021985769271850586e+00 -4.166393280029296875e-01
9.650000000000000000e+02 7.687411499023437500e+01 -3.355203628540039062e+01 -1.166208684444427490e-01 6.798942565917968750e+00 2.004696607589721680e+00 -4.604596495628356934e-01
9.660000000000000000e+02 7.597547149658203125e+01 -3.788066864013671875e+01 -2.240215688943862915e-01 6.731165409088134766e+00 1.952143073081970215e+00 -1.348994374275207520e-01
9.670000000000000000e+02 7.736790466308593750e+01 -3.823793792724609375e+01 -1.347337365150451660e-01 6.947144985198974609e+00 2.043723344802856445e+00 1.624394580721855164e-02
9.680000000000000000e+02 7.657396697998046875e+01 -3.918870925903320312e+01 -1.285439431667327881e-01 6.887287616729736328e+00 2.027623176574707031e+00 -4.380701482295989990e-02
9.690000000000000000e+02 7.798334503173828125e+01 -4.165003585815429688e+01 1.514294892549514771e-01 7.157337665557861328e+00 2.192630290985107422e+00 4.259220138192176819e-02
9.700000000000000000e+02 7.827934265136718750e+01 1.393327808380126953e+01 -2.003398165106773376e-02 7.546997547149658203e+00 2.258089065551757812e+00 4.243309199810028076e-01
9.710000000000000000e+02 7.941574096679687500e+01 1.532712650299072266e+01 -4.156047478318214417e-03 7.582776069641113281e+00 2.273586034774780273e+00 1.701430082321166992e-01
9.720000000000000000e+02 7.816850280761718750e+01 2.089390563964843750e+01 3.771637752652168274e-02 8.835538864135742188e+00 2.661976575851440430e+00 4.829541444778442383e-01
9.730000000000000000e+02 7.936010742187500000e+01 2.231422233581542969e+01 1.589513756334781647e-02 9.320410728454589844e+00 2.800891637802124023e+00 2.275410443544387817e-01
9.740000000000000000e+02 7.803199768066406250e+01 3.118018722534179688e+01 -8.998738974332809448e-02 1.082280635833740234e+01 3.219845533370971680e+00 4.188411235809326172e-01
9.750000000000000000e+02 7.931290435791015625e+01 2.799675559997558594e+01 -1.350627280771732330e-02 1.107048034667968750e+01 3.317092180252075195e+00 2.619715929031372070e-01
9.760000000000000000e+02 7.797566986083984375e+01 2.527620887756347656e+01 1.787945814430713654e-02 9.682674407958984375e+00 2.910166025161743164e+00 6.215338110923767090e-01
9.770000000000000000e+02 7.803110504150390625e+01 2.378904724121093750e+01 3.414565697312355042e-02 9.390750885009765625e+00 2.827468872070312500e+00 5.777915716171264648e-01
9.780000000000000000e+02 7.707717895507812500e+01 1.526247882843017578e+01 -1.780667342245578766e-02 8.053374290466308594e+00 2.410670280456542969e+00 5.901662111282348633e-01
9.790000000000000000e+02 7.824775695800781250e+01 1.531117630004882812e+01 -5.266429507173597813e-04 7.809737682342529297e+00 2.342763185501098633e+00 4.181536436080932617e-01
9.800000000000000000e+02 7.823580932617187500e+01 1.670129966735839844e+01 2.665116917341947556e-04 8.063545227050781250e+00 2.419143676757812500e+00 4.109997451305389404e-01
9.810000000000000000e+02 7.832063293457031250e+01 1.257434749603271484e+01 -3.224481269717216492e-02 7.270888328552246094e+00 2.171592950820922852e+00 4.622361958026885986e-01
9.820000000000000000e+02 7.820200347900390625e+01 8.537789344787597656e+00 6.842521950602531433e-03 6.398087501525878906e+00 1.921478986740112305e+00 5.825805664062500000e-01
9.830000000000000000e+02 7.942849731445312500e+01 9.795452117919921875e+00 2.254322636872529984e-03 5.999321937561035156e+00 1.800472974777221680e+00 2.149222344160079956e-01
9.840000000000000000e+02 7.944393920898437500e+01 -1.945160102844238281e+01 -3.221954405307769775e-02 8.029773712158203125e+00 2.399266242980957031e+00 7.822509109973907471e-02
9.850000000000000000e+02 7.844893646240234375e+01 -2.334727668762207031e+01 -3.280116245150566101e-02 6.937090396881103516e+00 2.071286678314208984e+00 6.366378664970397949e-01
9.860000000000000000e+02 7.935969543457031250e+01 -1.388008975982666016e+01 -9.782082401216030121e-03 7.545267581939697266e+00 2.260645627975463867e+00 -1.617110669612884521e-01
9.870000000000000000e+02 7.936425018310546875e+01 -6.905049800872802734e+00 -2.742930082604289055e-03 5.560047149658203125e+00 1.667191267013549805e+00 -1.862000226974487305e-01
9.880000000000000000e+02 7.819120788574218750e+01 2.682792246341705322e-01 1.412377357482910156e-01 5.197757244110107422e+00 1.601698398590087891e+00 -6.585987657308578491e-02
9.890000000000000000e+02 7.940482330322265625e+01 1.466191887855529785e+00 3.920158371329307556e-02 3.965391635894775391e+00 1.201377987861633301e+00 3.445775434374809265e-02
9.900000000000000000e+02 7.681291198730468750e+01 7.340872287750244141e+00 7.746408879756927490e-02 7.150244712829589844e+00 2.168312549591064453e+00 8.387356400489807129e-01
9.910000000000000000e+02 7.798667907714843750e+01 2.971292114257812500e+01 -6.996461004018783569e-02 1.058266067504882812e+01 3.153808832168579102e+00 5.179913043975830078e-01
9.920000000000000000e+02 7.844638061523437500e+01 4.023827362060546875e+01 -1.928408890962600708e-01 1.156682300567626953e+01 3.412194728851318359e+00 -3.662296235561370850e-01
9.930000000000000000e+02 7.626670074462890625e+01 3.582694625854492188e+01 -2.899258732795715332e-01 9.647568702697753906e+00 2.807292699813842773e+00 2.047932446002960205e-01
9.940000000000000000e+02 7.829368591308593750e+01 9.890829086303710938e+00 -1.469048671424388885e-02 6.679822921752929688e+00 1.999539732933044434e+00 5.575023293495178223e-01
9.950000000000000000e+02 7.272296142578125000e+01 4.634836673736572266e+00 6.089745163917541504e-01 1.082258224487304688e+01 3.429467201232910156e+00 7.412209510803222656e-01
9.960000000000000000e+02 7.815889739990234375e+01 2.949755430221557617e+00 8.976986259222030640e-02 5.368382453918457031e+00 1.637445807456970215e+00 2.361049205064773560e-01
9.970000000000000000e+02 7.699191284179687500e+01 5.139469504356384277e-01 2.925196886062622070e-01 6.326005935668945312e+00 1.985557675361633301e+00 -1.562730967998504639e-02
9.980000000000000000e+02 7.809601593017578125e+01 -1.088882923126220703e+00 8.693218231201171875e-02 5.296122074127197266e+00 1.614916324615478516e+00 -2.120673060417175293e-01
9.990000000000000000e+02 7.935285186767578125e+01 -2.697548866271972656e+00 2.319669350981712341e-02 4.454824447631835938e+00 1.343406319618225098e+00 -1.371095031499862671e-01
1.000000000000000000e+03 7.811116790771484375e+01 -8.203254699707031250e+00 4.072681535035371780e-03 6.228531360626220703e+00 1.869781136512756348e+00 -4.864613413810729980e-01
1.001000000000000000e+03 7.806857299804687500e+01 -5.386856555938720703e+00 1.718488708138465881e-02 5.797072887420654297e+00 1.744277358055114746e+00 -4.468527138233184814e-01
1.002000000000000000e+03 7.936711120605468750e+01 -9.698312759399414062e+00 -3.853254253044724464e-03 6.385125160217285156e+00 1.914381504058837891e+00 -1.915967464447021484e-01
1.003000000000000000e+03 7.808938598632812500e+01 -1.519469547271728516e+01 -9.627901762723922729e-02 7.406151294708251953e+00 2.192961692810058594e+00 -3.318075239658355713e-01
1.004000000000000000e+03 7.808356475830078125e+01 -1.237951087951660156e+01 -2.173565886914730072e-02 6.959483146667480469e+00 2.081324100494384766e+00 -4.667780697345733643e-01
1.005000000000000000e+03 7.937701416015625000e+01 -1.667818832397460938e+01 -1.848724856972694397e-02 8.041897773742675781e+00 2.407023191452026367e+00 -6.928877532482147217e-02
1.006000000000000000e+03 7.699420166015625000e+01 -2.133576583862304688e+01 -2.909903824329376221e-01 7.400690078735351562e+00 2.132910013198852539e+00 6.528707742691040039e-01
1.007000000000000000e+03 7.833594512939453125e+01 -1.936913490295410156e+01 -1.581087261438369751e-01 7.687693119049072266e+00 2.258875370025634766e+00 1.779509782791137695e-01
1.008000000000000000e+03 1.023553562164306641e+01 -1.741420745849609375e+01 -6.164278369396924973e-03 -3.807224857155233622e-04 -1.963500399142503738e-03 3.562278579920530319e-04
1.009000000000000000e+03 8.452165603637695312e+00 -1.850811958312988281e+01 -5.421810783445835114e-03 -1.199898979393765330e-04 -1.662540249526500702e-03 1.992625620914623141e-04
1.010000000000000000e+03 2.467574882507324219e+01 -3.327118682861328125e+01 -1.582927852869033813e-01 -7.463601417839527130e-03 -4.972691461443901062e-02 -8.015859127044677734e-02
1.011000000000000000e+03 2.611065101623535156e+01 -3.355818557739257812e+01 -1.718663126230239868e-01 1.074689906090497971e-02 -4.833582416176795959e-02 -7.490623742341995239e-02
1.012000000000000000e+03 3.655110168457031250e+01 -3.509376525878906250e+01 1.537245362997055054e-01 6.138384938240051270e-01 2.302689105272293091e-01 5.478177666664123535e-01
1.013000000000000000e+03 8.606979370117187500e+00 -1.737204170227050781e+01 5.591629073023796082e-03 7.385191856883466244e-04 1.899044495075941086e-03 -1.314487017225474119e-04
1.014000000000000000e+03 7.115616607666015625e+01 1.311906051635742188e+01 -1.755378395318984985e-01 9.330488204956054688e+00 2.746484994888305664e+00 7.737796008586883545e-02
1.015000000000000000e+03 2.941536521911621094e+01 -3.215885162353515625e+01 -4.267955124378204346e-01 -1.385388150811195374e-02 -1.321948170661926270e-01 -1.874441280961036682e-02
1.016000000000000000e+03 3.086238479614257812e+01 -3.427693939208984375e+01 -2.769451439380645752e-01 2.920135855674743652e-03 -8.220750093460083008e-02 -1.541970968246459961e-01
1.017000000000000000e+03 1.778168797492980957e+00 -2.476750946044921875e+01 -4.425576888024806976e-03 -8.897756197256967425e-05 -1.354366308078169823e-03 -7.345867925323545933e-04
1.018000000000000000e+03 7.446962833404541016e+00 -2.380154609680175781e+01 -5.476347170770168304e-03 -7.630796171724796295e-04 -1.871828106231987476e-03 1.867223880253732204e-03
1.019000000000000000e+03 4.217553329467773438e+01 -2.578029632568359375e+01 4.984793439507484436e-02 7.957049846649169922e+00 2.402069330215454102e+00 3.688999116420745850e-01
1.020000000000000000e+03 4.273440933227539062e+01 -2.414480972290039062e+01 -7.690706849098205566e-01 8.135266304016113281e+00 2.209858655929565430e+00 1.659113049507141113e+00
1.021000000000000000e+03 2.797100067138671875e+01 -3.196745300292968750e+01 -3.427754640579223633e-01 2.213887497782707214e-02 -9.619097411632537842e-02 -1.797335967421531677e-02
1.022000000000000000e+03 8.976560592651367188e+00 -2.865797805786132812e+01 9.436530526727437973e-04 -1.639174646697938442e-03 -2.086564927594736218e-04 -5.681593902409076691e-03
1.023000000000000000e+03 2.765213012695312500e+01 -3.379955673217773438e+01 -1.875579208135604858e-01 -2.056891098618507385e-02 -6.243804842233657837e-02 -1.138477995991706848e-01
1.024000000000000000e+03 1.513852596282958984e+01 -3.234451675415039062e+01 -2.232763729989528656e-02 2.733666682615876198e-03 -5.878190975636243820e-03 -1.228360645473003387e-02
1.025000000000000000e+03 2.102811622619628906e+01 -3.293986511230468750e+01 -8.294472843408584595e-02 -6.702675018459558487e-04 -2.508449926972389221e-02 -3.415741398930549622e-02
1.026000000000000000e+03 1.958635711669921875e+01 -3.294235229492187500e+01 -6.141123175621032715e-02 -9.777828119695186615e-03 -2.135671675205230713e-02 -3.741651773452758789e-02
1.027000000000000000e+03 5.146224594116210938e+01 -1.625716781616210938e+01 -3.021979808807373047e+00 2.885105133056640625e+00 -4.106241092085838318e-02 4.562345445156097412e-01
1.028000000000000000e+03 5.373996734619140625e+01 -1.520204067230224609e+01 -4.226378440856933594e+00 -2.428623199462890625e+00 -1.996500492095947266e+00 3.267127513885498047e+00
1.029000000000000000e+03 5.213674926757812500e+01 3.344832611083984375e+01 -1.857278198003768921e-01 5.237939953804016113e-01 1.014198511838912964e-01 2.086849808692932129e-01
1.030000000000000000e+03 6.576058197021484375e+01 3.575974655151367188e+01 -9.133098721504211426e-01 2.153547257184982300e-01 -2.093865424394607544e-01 2.837725579738616943e-01
1.031000000000000000e+03 7.085984802246093750e+01 2.440183639526367188e+01 2.477594465017318726e-01 7.573776721954345703e+00 2.346460819244384766e+00 1.659961044788360596e-01
1.032000000000000000e+03 7.062405395507812500e+01 2.581826591491699219e+01 2.317533940076828003e-01 6.942796230316162109e+00 2.152364730834960938e+00 7.879434525966644287e-02
1.033000000000000000e+03 6.977608489990234375e+01 1.166813755035400391e+01 -4.497134387493133545e-01 8.315448760986328125e+00 2.359720706939697266e+00 1.701237708330154419e-01
1.034000000000000000e+03 4.596750640869140625e+01 6.355126947164535522e-02 7.262935042381286621e-01 5.931720733642578125e+00 1.997404336929321289e+00 -2.381962776184082031e+00
1.035000000000000000e+03 6.651208496093750000e+01 -8.798272132873535156e+00 1.366611480712890625e+00 5.542438507080078125e+00 2.072715044021606445e+00 2.558394193649291992e+00
1.036000000000000000e+03 6.991777038574218750e+01 2.867049407958984375e+01 -2.028551846742630005e-01 4.901600837707519531e+00 1.409623742103576660e+00 1.970848813652992249e-02
1.037000000000000000e+03 6.306287002563476562e+01 -1.341567802429199219e+01 2.233917951583862305e+00 2.386253833770751953e+00 1.386051535606384277e+00 2.153577089309692383e+00
1.038000000000000000e+03 6.511426544189453125e+01 -1.316900348663330078e+01 1.530058145523071289e+00 3.343537807464599609e+00 1.462078809738159180e+00 1.716701507568359375e+00
1.039000000000000000e+03 4.077203369140625000e+01 1.520184135437011719e+01 7.811554670333862305e-01 9.283520698547363281e+00 3.019402980804443359e+00 1.915504187345504761e-01
1.040000000000000000e+03 4.583223724365234375e+01 2.895595169067382812e+01 3.091751635074615479e-01 3.443171024322509766e+00 1.125703811645507812e+00 1.084818720817565918e+00
1.041000000000000000e+03 4.329150390625000000e+01 2.356424522399902344e+01 7.276502847671508789e-01 5.818512916564941406e+00 1.963848948478698730e+00 1.446944952011108398e+00
1.042000000000000000e+03 4.670702362060546875e+01 3.016889190673828125e+01 1.327440142631530762e-01 2.980724096298217773e+00 9.340404868125915527e-01 9.996474385261535645e-01
1.043000000000000000e+03 4.383567810058593750e+01 2.491478347778320312e+01 6.096972823143005371e-01 5.224733829498291016e+00 1.750329375267028809e+00 1.441631078720092773e+00
1.044000000000000000e+03 6.879010772705078125e+01 3.153944396972656250e+01 -1.083210349082946777e+00 2.711588382720947266e+00 4.885134100914001465e-01 1.745835542678833008e-01
1.045000000000000000e+03 6.802335357666015625e+01 3.297200393676757812e+01 -1.201077342033386230e+00 1.762439131736755371e+00 1.684085428714752197e-01 1.969611495733261108e-01
1.046000000000000000e+03 4.858528137207031250e+01 -1.020462226867675781e+01 -9.581431150436401367e-01 4.906570434570312500e+00 1.184528112411499023e+00 -1.326077878475189209e-01
1.047000000000000000e+03 4.357496643066406250e+01 2.038776206970214844e+01 7.169764637947082520e-01 7.546732425689697266e+00 2.479112625122070312e+00 2.093087196350097656e+00
1.048000000000000000e+03 4.922885894775390625e+01 -4.727162837982177734e+00 4.799738228321075439e-01 5.429049968719482422e+00 1.772707104682922363e+00 -1.702526807785034180e+00
1.049000000000000000e+03 6.188595199584960938e+01 -1.814643669128417969e+01 -1.263705492019653320e+00 2.148015022277832031e+00 2.652928829193115234e-01 2.311221599578857422e+00
1.050000000000000000e+03 7.117224884033203125e+01 1.173926544189453125e+01 -6.177001595497131348e-01 9.861534118652343750e+00 2.773149967193603516e+00 2.122492194175720215e-01
1.051000000000000000e+03 5.301045608520507812e+01 -1.606059455871582031e+01 -4.244097709655761719e+00 1.531570851802825928e-01 -1.227282166481018066e+00 1.205920219421386719e+00
1.052000000000000000e+03 6.272848129272460938e+01 -1.517614078521728516e+01 6.604990959167480469e-01 2.223090648651123047e+00 8.650769591331481934e-01 1.654565095901489258e+00
1.053000000000000000e+03 4.051085281372070312e+01 1.354391384124755859e+01 9.629120826721191406e-01 9.676569938659667969e+00 3.191844701766967773e+00 -6.017197966575622559e-01
1.054000000000000000e+03 7.047103881835937500e+01 -2.519809246063232422e+00 6.876924037933349609e-01 1.067090606689453125e+01 3.407579421997070312e+00 1.743278980255126953e+00
1.055000000000000000e+03 7.023839569091796875e+01 3.309905052185058594e+00 1.518513411283493042e-01 1.463954067230224609e+01 4.437417507171630859e+00 4.685947597026824951e-01
1.056000000000000000e+03 4.177358627319335938e+01 5.764254570007324219e+00 1.208814263343811035e+00 8.450064659118652344e+00 2.897663593292236328e+00 -2.233191251754760742e+00
1.057000000000000000e+03 4.798359298706054688e+01 -4.901350021362304688e+00 2.230080217123031616e-01 5.365522384643554688e+00 1.676559090614318848e+00 -1.580224394798278809e+00
1.058000000000000000e+03 4.830267715454101562e+01 -2.125411987304687500e+00 6.695071458816528320e-01 5.383253574371337891e+00 1.815828204154968262e+00 -2.052217006683349609e+00
1.059000000000000000e+03 7.031048583984375000e+01 2.723795318603515625e+01 5.413242802023887634e-02 6.054590702056884766e+00 1.832616925239562988e+00 -1.846252754330635071e-02
1.060000000000000000e+03 7.000757598876953125e+01 -3.909265279769897461e+00 7.234590649604797363e-01 9.637477874755859375e+00 3.108281135559082031e+00 1.886990189552307129e+00
1.061000000000000000e+03 4.536690521240234375e+01 1.273865103721618652e+00 9.378951787948608398e-01 6.166965484619140625e+00 2.131458044052124023e+00 -2.644693613052368164e+00
1.062000000000000000e+03 4.525992584228515625e+01 4.057446479797363281e+00 1.769753336906433105e+00 6.700570106506347656e+00 2.541096925735473633e+00 -3.475427389144897461e+00
1.063000000000000000e+03 4.508888626098632812e+01 2.763875961303710938e+01 4.659326672554016113e-01 3.932507514953613281e+00 1.319532036781311035e+00 1.251876592636108398e+00
1.064000000000000000e+03 6.025591659545898438e+01 -1.683257865905761719e+01 -1.649773955345153809e+00 1.674619555473327637e+00 7.453654427081346512e-03 1.553274035453796387e+00
1.065000000000000000e+03 4.653718948364257812e+01 -1.149486541748046875e+00 5.534781217575073242e-01 5.776708126068115234e+00 1.899055838584899902e+00 -2.239808559417724609e+00
1.066000000000000000e+03 6.894303894042968750e+01 -6.626031875610351562e+00 7.561849951744079590e-01 7.688059806823730469e+00 2.533273458480834961e+00 1.952014207839965820e+00
1.067000000000000000e+03 4.727618026733398438e+01 -9.893164634704589844e+00 -1.238265514373779297e+00 5.515557289123535156e+00 1.283187508583068848e+00 -3.651480078697204590e-01
1.068000000000000000e+03 6.832110595703125000e+01 -7.959494113922119141e+00 9.104126691818237305e-01 6.644424438476562500e+00 2.266451120376586914e+00 1.963831901550292969e+00
1.069000000000000000e+03 7.025654602050781250e+01 4.713453292846679688e+00 3.823253139853477478e-02 1.379895401000976562e+01 4.151155948638916016e+00 2.407871037721633911e-01
1.070000000000000000e+03 7.132395172119140625e+01 8.970829963684082031e+00 -7.467177510261535645e-02 1.063889122009277344e+01 3.169265747070312500e+00 4.948036074638366699e-01
1.071000000000000000e+03 7.122401428222656250e+01 1.036143398284912109e+01 -6.523294448852539062e-01 1.007299613952636719e+01 2.826200008392333984e+00 4.338038861751556396e-01
1.072000000000000000e+03 4.188583374023437500e+01 1.952486991882324219e+01 5.807343125343322754e-01 7.716305732727050781e+00 2.489111900329589844e+00 1.217440247535705566e+00
1.073000000000000000e+03 6.732269287109375000e+01 -1.219391536712646484e+01 1.107484936714172363e+00 4.318550109863281250e+00 1.627810478210449219e+00 1.314287543296813965e+00
1.074000000000000000e+03 4.970448684692382812e+01 -1.093572425842285156e+01 -8.715889453887939453e-01 4.211939334869384766e+00 1.002105116844177246e+00 8.996896445751190186e-02
1.075000000000000000e+03 5.142275238037109375e+01 -1.155141544342041016e+01 -2.827960848808288574e-01 2.445352792739868164e+00 6.487669944763183594e-01 -9.578363597393035889e-02
1.076000000000000000e+03 4.980359268188476562e+01 3.341885375976562500e+01 -2.321141362190246582e-01 1.496341109275817871e+00 3.792680799961090088e-01 4.901066422462463379e-01
1.077000000000000000e+03 6.950200653076171875e+01 -5.280241966247558594e+00 7.444816231727600098e-01 8.609827995300292969e+00 2.806293010711669922e+00 1.892628550529479980e+00
1.078000000000000000e+03 4.443251800537109375e+01 2.627500915527343750e+01 5.673325657844543457e-01 4.571426868438720703e+00 1.541627764701843262e+00 1.392803907394409180e+00
1.079000000000000000e+03 4.173660659790039062e+01 8.762042999267578125e+00 1.734182953834533691e+00 1.078041553497314453e+01 3.754379510879516602e+00 -2.168752193450927734e+00
1.080000000000000000e+03 4.229903793334960938e+01 7.414970397949218750e+00 1.587450861930847168e+00 1.003023815155029297e+01 3.485306739807128906e+00 -2.928830862045288086e+00
1.081000000000000000e+03 4.349095153808593750e+01 4.894879817962646484e+00 1.392414450645446777e+00 8.028752326965332031e+00 2.826349973678588867e+00 -3.038918495178222656e+00
1.082000000000000000e+03 4.288157653808593750e+01 6.132791996002197266e+00 1.571174383163452148e+00 8.747304916381835938e+00 3.095543861389160156e+00 -3.078267335891723633e+00
1.083000000000000000e+03 4.771753692626953125e+01 3.127792549133300781e+01 1.016652062535285950e-01 2.422827243804931641e+00 7.573477625846862793e-01 8.586141467094421387e-01
1.084000000000000000e+03 6.994068145751953125e+01 2.144112205505371094e+01 1.356085576117038727e-02 8.261928558349609375e+00 2.482646942138671875e+00 1.575615704059600830e-01
1.085000000000000000e+03 7.102060699462890625e+01 2.298343849182128906e+01 1.829125285148620605e-01 7.985993385314941406e+00 2.450671672821044922e+00 2.420796155929565430e-01
1.086000000000000000e+03 4.359227371215820312e+01 2.114885568618774414e+00 6.827529072761535645e-01 6.744246006011962891e+00 2.228099822998046875e+00 -2.440789461135864258e+00
1.087000000000000000e+03 6.995793151855468750e+01 2.003931236267089844e+01 8.478773757815361023e-03 8.563982009887695312e+00 2.571738243103027344e+00 1.807496547698974609e-01
1.088000000000000000e+03 7.112350463867187500e+01 2.156231117248535156e+01 7.369080185890197754e-02 8.331315040588378906e+00 2.521501779556274414e+00 3.449468314647674561e-01
1.089000000000000000e+03 7.590405273437500000e+01 1.516906547546386719e+01 -2.938638627529144287e-02 8.312106132507324219e+00 2.484816074371337891e+00 7.045492529869079590e-01
1.090000000000000000e+03 7.117496490478515625e+01 1.872246170043945312e+01 3.516416251659393311e-02 8.813350677490234375e+00 2.654554367065429688e+00 4.712075889110565186e-01
1.091000000000000000e+03 1.320310831069946289e+00 -4.002847671508789062e+01 -5.683420225977897644e-03 -9.449151111766695976e-04 -1.988500589504837990e-03 -2.069842303171753883e-03
1.092000000000000000e+03 7.559427618980407715e-01 3.736198806762695312e+01 1.491614244878292084e-02 -1.892933130264282227e+00 -5.634050965309143066e-01 -3.844779729843139648e-02
1.093000000000000000e+03 7.248736023902893066e-01 3.458775711059570312e+01 1.973340054973959923e-03 -1.994546175003051758e+00 -5.977718234062194824e-01 -2.107715047895908356e-02
1.094000000000000000e+03 7.192681431770324707e-01 3.319280242919921875e+01 5.030849017202854156e-03 -2.028744459152221680e+00 -6.071140766143798828e-01 -1.475569233298301697e-02
1.095000000000000000e+03 6.612237095832824707e-01 2.757641220092773438e+01 1.465173671022057533e-03 -2.084971904754638672e+00 -6.250519752502441406e-01 -4.227482713758945465e-03
1.096000000000000000e+03 6.649689078330993652e-01 2.616893959045410156e+01 1.908037927933037281e-03 -2.087251186370849609e+00 -6.256029605865478516e-01 -7.222041022032499313e-04
1.097000000000000000e+03 6.780712008476257324e-01 -3.613793182373046875e+01 7.945296354591846466e-03 5.929153758188476786e-06 2.385367639362812042e-03 5.685436772182583809e-04
1.098000000000000000e+03 2.303258657455444336e+00 -3.312616729736328125e+01 -5.421564448624849319e-03 -5.366120021790266037e-04 -1.787452958524227142e-03 -5.085663287900388241e-04
1.099000000000000000e+03 3.367195129394531250e+00 2.594834327697753906e+01 2.998591586947441101e-02 -1.619503617286682129e+00 -4.768553078174591064e-01 1.094833295792341232e-02
1.100000000000000000e+03 3.391254425048828125e+00 2.451783370971679688e+01 3.611981868743896484e-02 -1.604972720146179199e+00 -4.706558883190155029e-01 3.717894479632377625e-02
1.101000000000000000e+03 2.206597805023193359e+00 3.433579635620117188e+01 1.567298360168933868e-02 -1.778585672378540039e+00 -5.288738012313842773e-01 -3.612341359257698059e-02
1.102000000000000000e+03 2.193877696990966797e+00 3.295156860351562500e+01 8.303736336529254913e-03 -1.777082800865173340e+00 -5.306337475776672363e-01 -2.630750462412834167e-02
1.103000000000000000e+03 3.477338790893554688e+00 3.890164566040039062e+01 -1.307413447648286819e-02 -1.645261526107788086e+00 -4.975006878376007080e-01 -4.384344071149826050e-02
1.104000000000000000e+03 2.102557659149169922e+00 -3.023458099365234375e+01 -4.994607064872980118e-03 1.835306466091424227e-04 -1.443322980776429176e-03 5.531741771847009659e-04
1.105000000000000000e+03 2.721448659896850586e+00 -3.588990020751953125e+01 -2.845097333192825317e-03 -5.411461461335420609e-03 -2.476967638358473778e-03 -2.675552386790513992e-03
1.106000000000000000e+03 3.046585321426391602e+00 -2.192730331420898438e+01 3.736164188012480736e-03 5.140091525390744209e-04 1.275051967240869999e-03 5.390030564740300179e-04
1.107000000000000000e+03 6.404320597648620605e-01 2.051872062683105469e+01 3.299395088106393814e-03 -1.975743651390075684e+00 -5.917332768440246582e-01 2.544870227575302124e-02
1.108000000000000000e+03 6.265462040901184082e-01 1.910525512695312500e+01 4.889502190053462982e-03 -1.904818654060363770e+00 -5.699787735939025879e-01 3.434402123093605042e-02
1.109000000000000000e+03 5.871285796165466309e-01 1.487141418457031250e+01 1.766354893334209919e-03 -1.553017973899841309e+00 -4.653754830360412598e-01 6.196921691298484802e-02
1.110000000000000000e+03 5.767015814781188965e-01 1.346210861206054688e+01 5.120434798300266266e-03 -1.388420701026916504e+00 -4.149900674819946289e-01 6.976120173931121826e-02
1.111000000000000000e+03 5.187930464744567871e-01 7.848053932189941406e+00 -1.888052793219685555e-03 -5.627024769783020020e-01 -1.693771630525588989e-01 7.825050503015518188e-02
1.112000000000000000e+03 3.418171167373657227e+00 -3.900256729125976562e+01 3.038347698748111725e-03 -1.442036242224276066e-03 4.788934602402150631e-04 1.671873033046722412e-03
1.113000000000000000e+03 3.929069519042968750e+00 -3.570796203613281250e+01 1.197802834212779999e-03 1.940189278684556484e-03 9.413976222276687622e-04 -2.581222681328654289e-03
1.114000000000000000e+03 2.401389837265014648e+00 -3.457596969604492188e+01 4.089889116585254669e-03 2.694671507924795151e-03 2.035368233919143677e-03 1.771998591721057892e-03
1.115000000000000000e+03 2.206837892532348633e+00 -3.168685340881347656e+01 4.840886220335960388e-03 4.110240261070430279e-04 1.575573114678263664e-03 1.328076177742332220e-04
1.116000000000000000e+03 1.793155431747436523e+00 -2.745623779296875000e+01 -5.933621898293495178e-03 7.540432270616292953e-04 -1.553873531520366669e-03 4.966939377482049167e-05
1.117000000000000000e+03 2.977364540100097656e+00 -2.334786224365234375e+01 -3.976630512624979019e-03 -4.960251972079277039e-04 -1.341796712949872017e-03 -8.734426228329539299e-04
1.118000000000000000e+03 6.510626077651977539e-01 -1.912167167663574219e+01 2.403383376076817513e-03 7.936605106806382537e-05 7.448248215951025486e-04 2.058058162219822407e-04
1.119000000000000000e+03 3.159033536911010742e+00 -2.048490333557128906e+01 -3.614271292462944984e-03 -4.572571488097310066e-04 -1.221458544023334980e-03 -2.392202877672389150e-04
1.120000000000000000e+03 1.871532797813415527e+00 -1.616102027893066406e+01 -2.996629104018211365e-03 -2.900559593399520963e-05 -9.076904389075934887e-04 1.842624769778922200e-04
1.121000000000000000e+03 2.913268804550170898e+00 -1.326846122741699219e+01 2.822057576850056648e-03 -1.332627871306613088e-04 8.066384471021592617e-04 9.903288446366786957e-05
1.122000000000000000e+03 5.652432441711425781e-01 -1.206866550445556641e+01 -2.810211153700947762e-03 -2.663221494003664702e-05 -8.510529878549277782e-04 -1.420563057763502002e-04
1.123000000000000000e+03 1.701011300086975098e+00 -1.199954986572265625e+01 2.694442868232727051e-03 -5.947843601461499929e-05 7.904893136583268642e-04 8.639941370347514749e-05
1.124000000000000000e+03 2.013743638992309570e+00 -6.327254772186279297e+00 2.174342516809701920e-03 2.830098310369066894e-05 6.607930408790707588e-04 2.186726924264803529e-04
1.125000000000000000e+03 3.411229133605957031e+00 -4.471107482910156250e+00 1.492362789576873183e-04 5.039383540861308575e-05 5.988903285469859838e-05 5.627319333143532276e-04
1.126000000000000000e+03 5.383718609809875488e-01 5.010035037994384766e+00 -5.865320563316345215e-03 -1.764155924320220947e-01 -5.468427389860153198e-02 5.874783545732498169e-02
1.127000000000000000e+03 6.618027210235595703e+00 4.067348003387451172e+00 -3.693405985832214355e-01 -3.932274580001831055e-01 -2.287704199552536011e-01 6.420447826385498047e-01
1.128000000000000000e+03 1.662411570549011230e+00 1.056314849853515625e+01 7.724855560809373856e-03 -9.506464004516601562e-01 -2.828764617443084717e-01 2.360012978315353394e-01
1.129000000000000000e+03 5.499802231788635254e-01 1.064836597442626953e+01 2.598783466964960098e-03 -9.991541504859924316e-01 -2.989666163921356201e-01 8.060854673385620117e-02
1.130000000000000000e+03 1.731765627861022949e+00 1.335439968109130859e+01 1.552404556423425674e-02 -1.267303824424743652e+00 -3.755339384078979492e-01 2.051692605018615723e-01
1.131000000000000000e+03 1.931092143058776855e+00 2.038234138488769531e+01 2.068391814827919006e-02 -1.745562314987182617e+00 -5.174635052680969238e-01 8.194670826196670532e-02
1.132000000000000000e+03 1.883391737937927246e+00 1.896830940246582031e+01 2.005895972251892090e-02 -1.688545227050781250e+00 -5.005458593368530273e-01 1.058734506368637085e-01
1.133000000000000000e+03 2.011188030242919922e+00 2.462328147888183594e+01 1.392707508057355881e-02 -1.836570382118225098e+00 -5.467929840087890625e-01 1.964098401367664337e-02
1.134000000000000000e+03 1.995912551879882812e+01 -1.226148700714111328e+01 4.244344017934054136e-04 4.632341442629694939e-04 2.663005725480616093e-04 1.938391505973413587e-04
1.135000000000000000e+03 1.308351135253906250e+01 -1.305901527404785156e+01 -1.388238044455647469e-03 -1.538203563541173935e-03 -8.779324707575142384e-04 6.893260870128870010e-04
1.136000000000000000e+03 5.689453125000000000e+01 -3.942461013793945312e+01 -5.401187390089035034e-02 3.354636430740356445e+00 9.901873469352722168e-01 -7.402650117874145508e-01
1.137000000000000000e+03 1.090922927856445312e+01 -1.444098567962646484e+01 3.351460036356002092e-04 -3.382033319212496281e-04 -9.172027262138726655e-07 1.406309660524129868e-03
1.138000000000000000e+03 4.497182464599609375e+01 -2.182315826416015625e+01 7.247166633605957031e+00 1.220995903015136719e+01 5.837137699127197266e+00 -3.660408973693847656e+00
1.139000000000000000e+03 4.143966293334960938e+01 -2.008088874816894531e+01 3.599189519882202148e+00 2.140457868576049805e+00 1.721894264221191406e+00 -3.307134866714477539e+00
1.140000000000000000e+03 4.289933395385742188e+01 -1.985291862487792969e+01 2.839179277420043945e+00 1.043924713134765625e+01 3.983527898788452148e+00 -6.149075508117675781e+00
1.141000000000000000e+03 4.394520568847656250e+01 -2.371241760253906250e+01 -9.443683624267578125e-01 1.303313636779785156e+01 3.626630306243896484e+00 6.937678158283233643e-02
1.142000000000000000e+03 4.419615173339843750e+01 -2.345111846923828125e+01 -5.805934071540832520e-01 1.372134780883789062e+01 3.942226171493530273e+00 -8.389485478401184082e-01
1.143000000000000000e+03 4.298902130126953125e+01 -1.953821563720703125e+01 1.903213024139404297e+00 1.069109916687011719e+01 3.778293848037719727e+00 -5.429542064666748047e+00
1.144000000000000000e+03 4.456880569458007812e+01 -1.976354217529296875e+01 2.333924055099487305e+00 1.363154411315917969e+01 4.789640426635742188e+00 -5.142479538917541504e-01
1.145000000000000000e+03 4.494620132446289062e+01 -2.098818397521972656e+01 7.545073032379150391e+00 1.203611278533935547e+01 5.874355792999267578e+00 -7.944536805152893066e-01
1.146000000000000000e+03 4.554731369018554688e+01 -2.075310707092285156e+01 5.763685703277587891e+00 1.034784412384033203e+01 4.833458900451660156e+00 -6.236358284950256348e-01
1.147000000000000000e+03 4.463920593261718750e+01 -2.042019462585449219e+01 5.220169544219970703e+00 1.393177127838134766e+01 5.745582103729248047e+00 2.214191555976867676e-01
1.148000000000000000e+03 4.498305130004882812e+01 -2.119420623779296875e+01 8.091232299804687500e+00 1.186993789672851562e+01 5.988350868225097656e+00 -1.423939704895019531e+00
1.149000000000000000e+03 4.198595046997070312e+01 -1.936022377014160156e+01 2.651643991470336914e+00 5.511774539947509766e+00 2.449025630950927734e+00 -4.827849864959716797e+00
1.150000000000000000e+03 4.369148635864257812e+01 -2.343237304687500000e+01 -9.426842927932739258e-01 1.308025836944580078e+01 3.641272306442260742e+00 6.064930558204650879e-01
1.151000000000000000e+03 4.271529006958007812e+01 -2.347000885009765625e+01 -5.103369355201721191e-01 7.655111312866210938e+00 2.143432378768920898e+00 2.147212028503417969e+00
1.152000000000000000e+03 4.331479263305664062e+01 -2.337486839294433594e+01 -1.136734724044799805e+00 1.161754322052001953e+01 3.144242525100708008e+00 1.597126364707946777e+00
1.153000000000000000e+03 4.095767211914062500e+01 -1.992815017700195312e+01 2.730183601379394531e+00 1.593337178230285645e+00 1.297056198120117188e+00 -2.499120950698852539e+00
1.154000000000000000e+03 1.632961845397949219e+01 -9.587343215942382812e+00 -1.118488798965699971e-04 -6.345014553517103195e-04 -2.239051100332289934e-04 -8.866286952979862690e-04
1.155000000000000000e+03 1.654320144653320312e+01 -7.975428104400634766e+00 -5.674398271366953850e-04 -8.196147246053442359e-05 -1.948203862411901355e-04 1.852904533734545112e-04
1.156000000000000000e+03 1.394567584991455078e+01 -6.129517555236816406e+00 -6.713560433126986027e-04 -4.371343238744884729e-04 -3.325471188873052597e-04 -5.609658182947896421e-05
1.157000000000000000e+03 1.866443634033203125e+01 -1.084837436676025391e+01 7.244411390274763107e-04 2.259303728351369500e-04 2.851114550139755011e-04 4.443791694939136505e-04
1.158000000000000000e+03 1.673209762573242188e+01 -7.006319522857666016e+00 -4.580876266118139029e-04 -1.822604681365191936e-04 -1.921044313348829746e-04 -3.187845868524163961e-05
1.159000000000000000e+03 1.892226600646972656e+01 -9.711133003234863281e+00 5.506799789145588875e-04 2.152002853108569980e-04 2.297640749020501971e-04 3.552910930011421442e-04
1.160000000000000000e+03 1.483815479278564453e+01 -6.041884422302246094e+00 -4.625477304216474295e-04 -4.970299778506159782e-04 -2.878733212128281593e-04 4.055697718285955489e-05
1.161000000000000000e+03 1.475976657867431641e+01 -5.211825370788574219e+00 -4.800006863661110401e-04 -4.847501404583454132e-04 -2.894252538681030273e-04 -1.179793107439763844e-04
1.162000000000000000e+03 1.434405899047851562e+01 -5.666722774505615234e+00 5.303981015458703041e-04 5.182741442695260048e-04 3.146016970276832581e-04 4.215908847982063890e-05
1.163000000000000000e+03 1.759612083435058594e+01 -8.042859077453613281e+00 -6.435404065996408463e-04 -1.790757960407063365e-04 -2.467848535161465406e-04 -2.759715789579786360e-05
1.164000000000000000e+03 1.179738998413085938e+01 -3.639191865921020508e+00 7.094725733622908592e-04 3.768123278860002756e-04 3.258854558225721121e-04 3.589857369661331177e-04
1.165000000000000000e+03 1.279885768890380859e+01 -4.693584918975830078e+00 -4.802698676940053701e-04 -6.461976445280015469e-04 -3.379402623977512121e-04 -4.793506232090294361e-04
1.166000000000000000e+03 1.849064254760742188e+01 -9.118750572204589844e+00 -7.008849061094224453e-04 -3.642788215074688196e-05 -2.211938408436253667e-04 -2.346289693377912045e-04
1.167000000000000000e+03 1.740995979309082031e+01 -9.073287010192871094e+00 -1.111660036258399487e-03 8.883247573976404965e-06 -3.308330487925559282e-04 -2.566073089838027954e-04
1.168000000000000000e+03 1.641963958740234375e+01 -1.124095630645751953e+01 1.197366800624877214e-04 -1.294300745939835906e-04 -2.908019496317137964e-06 -5.238327430561184883e-04
1.169000000000000000e+03 9.481529235839843750e+00 -4.950760841369628906e+00 4.695752577390521765e-04 -2.259509928990155458e-04 7.308727799681946635e-05 6.149372784420847893e-04
1.170000000000000000e+03 1.002780246734619141e+01 -3.764940738677978516e+00 -7.770403753966093063e-04 -6.038800347596406937e-04 -4.142761172261089087e-04 1.845252336352132261e-05
1.171000000000000000e+03 5.429123401641845703e+00 2.569708347320556641e+00 -3.626451790332794189e-01 -1.494143605232238770e-01 -1.536178588867187500e-01 3.558653295040130615e-01
1.172000000000000000e+03 2.918460130691528320e+00 3.375434160232543945e+00 -1.131852120161056519e-01 -1.711422353982925415e-01 -8.529823273420333862e-02 1.848764121532440186e-01
1.173000000000000000e+03 2.650817632675170898e+00 4.321855545043945312e+00 -9.154462814331054688e-02 -2.607698142528533936e-01 -1.056943386793136597e-01 2.435774654150009155e-01
1.174000000000000000e+03 3.399396657943725586e+00 2.589613676071166992e+00 -1.633276641368865967e-01 -1.186798736453056335e-01 -8.460225909948348999e-02 1.812863647937774658e-01
1.175000000000000000e+03 4.063533306121826172e+00 2.571937084197998047e+00 -2.208803445100784302e-01 -1.223685145378112793e-01 -1.029746606945991516e-01 2.346331179141998291e-01
1.176000000000000000e+03 5.371953964233398438e+00 3.309245824813842773e+00 -3.355698287487030029e-01 -2.395379692316055298e-01 -1.725323498249053955e-01 4.466339051723480225e-01
1.177000000000000000e+03 6.052342414855957031e+00 3.315532445907592773e+00 -4.026497900485992432e-01 -2.557278275489807129e-01 -1.975132822990417480e-01 5.133690834045410156e-01
1.178000000000000000e+03 6.737061500549316406e+00 3.347506761550903320e+00 -4.712371230125427246e-01 -3.103058338165283203e-01 -2.344628870487213135e-01 6.089932322502136230e-01
1.179000000000000000e+03 6.136575222015380859e+00 2.584150552749633789e+00 -4.566964507102966309e-01 -1.858250349760055542e-01 -1.927564442157745361e-01 4.489556550979614258e-01
1.180000000000000000e+03 7.430985927581787109e+00 3.417108535766601562e+00 -5.049571990966796875e-01 -3.883237540721893311e-01 -2.679842710494995117e-01 6.996904015541076660e-01
1.181000000000000000e+03 2.056132555007934570e+00 2.901181459426879883e+00 -7.770599424839019775e-02 -1.126315668225288391e-01 -5.710126832127571106e-02 1.111114323139190674e-01
1.182000000000000000e+03 9.898339271545410156e+00 3.017312288284301758e+00 -7.325804233551025391e-01 -7.118697166442871094e-01 -4.333350360393524170e-01 9.561876654624938965e-01
1.183000000000000000e+03 2.618764686584472656e+01 -1.006895160675048828e+01 -1.188752889633178711e+00 -4.765276908874511719e-01 -4.995841681957244873e-01 1.078310370445251465e+00
1.184000000000000000e+03 2.740324592590332031e+01 -1.380519580841064453e+01 -7.738763093948364258e-01 -3.295522928237915039e-01 -3.310285806655883789e-01 9.111983776092529297e-01
1.185000000000000000e+03 2.691858863830566406e+01 -1.136334133148193359e+01 -1.041850447654724121e+00 -3.134395778179168701e-01 -4.065870046615600586e-01 1.027794599533081055e+00
1.186000000000000000e+03 2.655828475952148438e+01 -1.071632766723632812e+01 -1.109589457511901855e+00 -3.867344558238983154e-01 -4.488971829414367676e-01 1.052714943885803223e+00
1.187000000000000000e+03 2.762659454345703125e+01 -1.266649055480957031e+01 -9.029977917671203613e-01 -2.003754377365112305e-01 -3.310119509696960449e-01 9.585143923759460449e-01
1.188000000000000000e+03 2.486035919189453125e+01 -9.151396751403808594e+00 -1.316971302032470703e+00 -9.990550279617309570e-01 -6.948078870773315430e-01 1.228495240211486816e+00
1.189000000000000000e+03 2.947905540466308594e+01 -1.531625270843505859e+01 -9.705385565757751465e-01 -8.204851299524307251e-02 -3.157761394977569580e-01 6.410617828369140625e-01
1.190000000000000000e+03 3.080852317810058594e+01 -1.505190086364746094e+01 -1.002155900001525879e+00 1.744703203439712524e-01 -2.483056634664535522e-01 5.344164967536926270e-01
1.191000000000000000e+03 2.504294204711914062e+01 -8.084730148315429688e+00 -1.388707041740417480e+00 -7.295897603034973145e-01 -6.354890465736389160e-01 1.142574787139892578e+00
1.192000000000000000e+03 2.542565155029296875e+01 -8.755800247192382812e+00 -1.329808354377746582e+00 -6.566033363342285156e-01 -5.959234833717346191e-01 1.123004198074340820e+00
1.193000000000000000e+03 2.456088256835937500e+01 -5.491864681243896484e+00 -1.386167049407958984e+00 -5.152018070220947266e-01 -5.704106688499450684e-01 9.669041037559509277e-01
1.194000000000000000e+03 2.323405075073242188e+01 -5.192824840545654297e+00 -1.530037403106689453e+00 -1.002296090126037598e+00 -7.597000598907470703e-01 1.160760402679443359e+00
1.195000000000000000e+03 1.645286369323730469e+01 -2.944549918174743652e-01 -1.630681633949279785e+00 -1.443842053413391113e+00 -9.223571419715881348e-01 1.376044034957885742e+00
1.196000000000000000e+03 1.392051315307617188e+01 2.038522005081176758e+00 -9.932546615600585938e-01 -1.172786235809326172e+00 -6.498122811317443848e-01 1.124760389328002930e+00
1.197000000000000000e+03 1.714121246337890625e+01 -7.592490911483764648e-01 -1.685255765914916992e+00 -1.510441422462463379e+00 -9.587091803550720215e-01 1.414038538932800293e+00
1.198000000000000000e+03 1.655930519104003906e+01 1.388676524162292480e+00 -9.364234805107116699e-01 -1.310315012931823730e+00 -6.740215420722961426e-01 1.092269062995910645e+00
1.199000000000000000e+03 1.278700351715087891e+01 1.734513044357299805e+00 -1.210020065307617188e+00 -1.040711998939514160e+00 -6.752196550369262695e-01 1.117048263549804688e+00
1.200000000000000000e+03 1.910452651977539062e+01 -2.264077186584472656e+00 -1.792562484741210938e+00 -1.625864863395690918e+00 -1.025528192520141602e+00 1.463633775711059570e+00
1.201000000000000000e+03 2.091717720031738281e+01 -3.936583995819091797e+00 -1.790439367294311523e+00 -1.594170212745666504e+00 -1.015382885932922363e+00 1.463001847267150879e+00
1.202000000000000000e+03 2.139096641540527344e+01 -3.427078247070312500e+00 -1.587720990180969238e+00 -1.337051868438720703e+00 -8.774318695068359375e-01 1.247113466262817383e+00
1.203000000000000000e+03 2.197296524047851562e+01 -4.009086132049560547e+00 -1.590427041053771973e+00 -1.262234449386596680e+00 -8.557984828948974609e-01 1.233505725860595703e+00
1.204000000000000000e+03 1.891173934936523438e+01 -1.193302273750305176e+00 -1.468488931655883789e+00 -1.459751605987548828e+00 -8.784721493721008301e-01 1.253919243812561035e+00
1.205000000000000000e+03 1.824785423278808594e+01 -6.773477196693420410e-01 -1.417698264122009277e+00 -1.452465534210205078e+00 -8.610491156578063965e-01 1.251368045806884766e+00
1.206000000000000000e+03 1.756556892395019531e+01 -1.777030378580093384e-01 -1.361814737319946289e+00 -1.432288169860839844e+00 -8.382308483123779297e-01 1.239389657974243164e+00
1.207000000000000000e+03 1.135097694396972656e+01 -4.990990161895751953e+00 8.091804920695722103e-04 1.416911400156095624e-04 2.852614852599799633e-04 4.008424584753811359e-04
1.208000000000000000e+03 6.026502132415771484e+00 -2.601385354995727539e+00 -1.774873380782082677e-04 6.499509909190237522e-04 1.417391031282022595e-04 1.153715274995192885e-04
1.209000000000000000e+03 7.565695285797119141e+00 -3.521595478057861328e+00 -6.216027031769044697e-06 1.313002576353028417e-04 3.752526754396967590e-05 -5.861253011971712112e-04
1.210000000000000000e+03 5.237050056457519531e+00 -2.791695356369018555e+00 9.807768219616264105e-05 -3.691414603963494301e-04 -8.131913637043908238e-05 -3.980050096288323402e-04
1.211000000000000000e+03 6.275541305541992188e+00 -3.206755161285400391e+00 8.076432859525084496e-04 1.964598050108179450e-04 3.012309316545724869e-04 -6.783300195820629597e-04
1.212000000000000000e+03 8.287803649902343750e+00 -3.315766334533691406e+00 -3.054829358006827533e-05 2.777432382572442293e-05 -8.321908353536855429e-07 5.614855763269588351e-05
1.213000000000000000e+03 3.990749120712280273e+00 -8.155077934265136719e+00 -1.843166188336908817e-03 -4.450705309864133596e-04 -6.864710012450814247e-04 2.023993147304281592e-04
1.214000000000000000e+03 2.328171014785766602e+00 -3.276867151260375977e+00 1.592359738424420357e-03 8.054912905208766460e-05 5.018726806156337261e-04 2.674870193004608154e-04
1.215000000000000000e+03 2.123746633529663086e+00 -4.733139038085937500e+00 -1.770168775692582130e-03 5.793476884718984365e-05 -5.136702093295753002e-04 -2.119582495652139187e-04
1.216000000000000000e+03 1.245108509063720703e+01 2.811753034591674805e+00 -7.992677688598632812e-01 -1.038251280784606934e+00 -5.512557029724121094e-01 1.052872419357299805e+00
1.217000000000000000e+03 1.180177307128906250e+01 3.187124013900756836e+00 -6.868544220924377441e-01 -9.838196039199829102e-01 -5.012022256851196289e-01 1.044481635093688965e+00
1.218000000000000000e+03 1.127419662475585938e+01 2.598298788070678711e+00 -8.978632688522338867e-01 -8.870227932929992676e-01 -5.354657769203186035e-01 1.014759540557861328e+00
1.219000000000000000e+03 9.720867156982421875e+00 -2.807748794555664062e+00 -5.212807445786893368e-04 -5.822745151817798615e-04 -3.310665779281407595e-04 -4.686275860876776278e-05
1.220000000000000000e+03 2.465537261962890625e+01 -7.391238212585449219e+00 -1.444755673408508301e+00 -8.038695454597473145e-01 -6.745875477790832520e-01 1.149815559387207031e+00
1.221000000000000000e+03 2.425250816345214844e+01 -6.662765979766845703e+00 -1.478700518608093262e+00 -8.452901840209960938e-01 -6.971971988677978516e-01 1.149993658065795898e+00
1.222000000000000000e+03 2.257507133483886719e+01 -4.597185611724853516e+00 -1.572659850120544434e+00 -1.162136554718017578e+00 -8.204389810562133789e-01 1.207908749580383301e+00
1.223000000000000000e+03 2.019227981567382812e+01 -2.282098770141601562e+00 -1.548518896102905273e+00 -1.426404118537902832e+00 -8.924769163131713867e-01 1.253595829010009766e+00
1.224000000000000000e+03 1.955999946594238281e+01 -1.727940797805786133e+00 -1.512511849403381348e+00 -1.449513435363769531e+00 -8.886075615882873535e-01 1.256029963493347168e+00
1.225000000000000000e+03 1.467335605621337891e+01 1.628138184547424316e+00 -1.088184833526611328e+00 -1.234100461006164551e+00 -6.966855525970458984e-01 1.158679842948913574e+00
1.226000000000000000e+03 1.139492702484130859e+01 3.738739013671875000e+00 -5.509161353111267090e-01 -9.484865069389343262e-01 -4.498207867145538330e-01 1.018039464950561523e+00
1.227000000000000000e+03 9.479375839233398438e+00 -3.469406366348266602e+00 9.469649521633982658e-04 -9.621279559723916464e-07 2.838008513208478689e-04 2.510771446395665407e-04
1.228000000000000000e+03 1.040219402313232422e+01 -3.062656641006469727e+00 6.198373739607632160e-04 5.288598476909101009e-04 3.446091723162680864e-04 -2.007619332289323211e-05
1.229000000000000000e+03 4.006720733642578125e+01 -1.966877174377441406e+01 1.680860638618469238e+00 1.289491176605224609e+00 8.911055326461791992e-01 -1.690346717834472656e+00
1.230000000000000000e+03 1.128459262847900391e+01 -1.282576751708984375e+01 -8.486899896524846554e-04 -3.466036869212985039e-04 -3.585880913306027651e-04 8.980359416455030441e-04
1.231000000000000000e+03 8.555624008178710938e+00 -1.626064682006835938e+01 -4.351965617388486862e-03 3.183237859047949314e-04 -1.210092566907405853e-03 1.471862633479759097e-04
1.232000000000000000e+03 7.241941833496093750e+01 1.323676204681396484e+01 -2.195663750171661377e-01 9.265627861022949219e+00 2.713818311691284180e+00 4.940016865730285645e-01
1.233000000000000000e+03 3.010023880004882812e+01 -1.590933322906494141e+01 -1.074617028236389160e+00 -6.505673751235008240e-03 -3.243367969989776611e-01 5.620955228805541992e-01
1.234000000000000000e+03 3.306570053100585938e+01 -1.688582420349121094e+01 -1.395204901695251465e+00 1.350758671760559082e-01 -3.780387043952941895e-01 2.678144872188568115e-01
1.235000000000000000e+03 3.230947494506835938e+01 -1.570528030395507812e+01 -1.104330539703369141e+00 2.525666654109954834e-01 -2.555291354656219482e-01 3.422423005104064941e-01
1.236000000000000000e+03 4.295992660522460938e+01 -2.571664237976074219e+01 -3.889411687850952148e-01 8.954886436462402344e+00 2.569783687591552734e+00 8.810329437255859375e-01
1.237000000000000000e+03 2.962163734436035156e+01 -1.394842815399169922e+01 -8.990777730941772461e-01 9.490811079740524292e-02 -2.412508875131607056e-01 7.008892893791198730e-01
1.238000000000000000e+03 2.264877128601074219e+01 -3.411038589477539062e+01 -8.870001137256622314e-02 -1.380415633320808411e-02 -3.075124882161617279e-02 -7.085057348012924194e-02
1.239000000000000000e+03 2.567198562622070312e+01 -3.530104446411132812e+01 -6.208494678139686584e-02 -3.135626018047332764e-02 -2.803236246109008789e-02 -1.382110267877578735e-01
1.240000000000000000e+03 2.077583885192871094e+01 -1.339495182037353516e+01 -2.719255571719259024e-04 -1.290770247578620911e-03 -4.688087210524827242e-04 -4.058949343743734062e-05
1.241000000000000000e+03 2.813919830322265625e+01 -3.836056518554687500e+01 1.108012646436691284e-01 -2.799783647060394287e-02 2.484102919697761536e-02 -9.807726740837097168e-02
1.242000000000000000e+03 3.174417304992675781e+01 -3.637584304809570312e+01 6.251748651266098022e-02 1.382112205028533936e-01 6.021860986948013306e-02 -1.614991873502731323e-01
1.243000000000000000e+03 4.468225097656250000e+01 -2.900442361831665039e+00 -8.352912217378616333e-02 5.738323211669921875e+00 1.696438193321228027e+00 -1.741737842559814453e+00
1.244000000000000000e+03 6.070330429077148438e+01 -2.219384384155273438e+01 1.111014962196350098e+00 1.842325091361999512e+00 8.860020041465759277e-01 2.213881969451904297e+00
1.245000000000000000e+03 4.478617477416992188e+01 -2.594358325004577637e-01 4.375729560852050781e-01 6.065734863281250000e+00 1.950992345809936523e+00 -2.227161169052124023e+00
1.246000000000000000e+03 4.474934387207031250e+01 2.480380535125732422e+00 1.049776673316955566e+00 6.629034996032714844e+00 2.303643465042114258e+00 -2.863339662551879883e+00
1.247000000000000000e+03 4.882989120483398438e+01 -8.905907630920410156e+00 -4.584576785564422607e-01 4.867866992950439453e+00 1.322822690010070801e+00 -5.910488367080688477e-01
1.248000000000000000e+03 4.805560302734375000e+01 -1.129747486114501953e+01 -1.652002334594726562e+00 5.326133251190185547e+00 1.102239251136779785e+00 1.649857014417648315e-01
1.249000000000000000e+03 2.927225875854492188e+01 -3.421140670776367188e+01 -2.153850048780441284e-01 4.604021087288856506e-02 -5.080344155430793762e-02 -1.191523149609565735e-01
1.250000000000000000e+03 2.999380493164062500e+01 -3.748783493041992188e+01 1.653794795274734497e-01 2.390029281377792358e-02 5.678393319249153137e-02 -1.461612880229949951e-01
1.251000000000000000e+03 3.931268692016601562e+01 -1.788079643249511719e+01 5.311390161514282227e-01 2.230473518371582031e+00 8.284837603569030762e-01 -1.877583026885986328e+00
1.252000000000000000e+03 4.807211458683013916e-01 3.565019369125366211e+00 -1.386856660246849060e-02 -5.590064451098442078e-02 -2.093076333403587341e-02 3.441243991255760193e-02
1.253000000000000000e+03 7.727140808105468750e+01 1.127198982238769531e+01 -7.723696529865264893e-02 7.492325305938720703e+00 2.224526405334472656e+00 7.029412388801574707e-01
1.254000000000000000e+03 4.865831756591796875e+01 -7.523948192596435547e+00 -1.587755233049392700e-01 5.075255870819091797e+00 1.474944114685058594e+00 -9.865654706954956055e-01
1.255000000000000000e+03 4.741181564331054688e+01 -8.759480476379394531e+00 -8.799074292182922363e-01 5.371268272399902344e+00 1.347408175468444824e+00 -5.757902264595031738e-01
1.256000000000000000e+03 4.300295639038085938e+01 2.689439773559570312e+01 1.931903958320617676e-01 4.679329395294189453e+00 1.461755990982055664e+00 8.266134262084960938e-01
1.257000000000000000e+03 4.297359848022460938e+01 3.312234163284301758e+00 8.115493655204772949e-01 7.293604850769042969e+00 2.431546211242675781e+00 -2.422322034835815430e+00
1.258000000000000000e+03 6.677685546875000000e+01 -2.038647460937500000e+01 -1.962626814842224121e+00 2.891401946544647217e-01 -5.020459890365600586e-01 1.151162743568420410e+00
1.259000000000000000e+03 6.389591979980468750e+01 -1.422798919677734375e+01 1.178134322166442871e+00 2.647561311721801758e+00 1.147708654403686523e+00 1.780890464782714844e+00
1.260000000000000000e+03 4.675406265258789062e+01 -5.067400932312011719e+00 -6.105437874794006348e-02 5.441166400909423828e+00 1.614033699035644531e+00 -1.475230574607849121e+00
1.261000000000000000e+03 3.442193222045898438e+01 -1.602840995788574219e+01 -9.911003112792968750e-01 3.995798230171203613e-01 -1.774561554193496704e-01 -8.108069002628326416e-02
1.262000000000000000e+03 3.332817840576171875e+01 -1.588200092315673828e+01 -1.060537457466125488e+00 3.372882902622222900e-01 -2.169747501611709595e-01 1.565987616777420044e-01
1.263000000000000000e+03 7.277243804931640625e+01 6.103377342224121094e+00 4.070085883140563965e-01 1.048838806152343750e+01 3.268619060516357422e+00 7.537314295768737793e-01
1.264000000000000000e+03 7.338024902343750000e+01 -2.688850402832031250e+01 1.437133669853210449e+00 9.053781509399414062e+00 3.147274732589721680e+00 4.860443174839019775e-01
1.265000000000000000e+03 7.665850830078125000e+01 -2.933900070190429688e+01 3.378259837627410889e-01 6.857887268066406250e+00 2.158714056015014648e+00 -2.856429219245910645e-01
1.266000000000000000e+03 7.057250022888183594e+00 -3.113051605224609375e+01 -3.763688029721379280e-03 -1.338997273705899715e-03 -1.530805602669715881e-03 5.105720367282629013e-03
1.267000000000000000e+03 1.116408824920654297e+01 -3.219093322753906250e+01 -1.522642839699983597e-02 -3.450449788942933083e-03 -5.603063385933637619e-03 -5.984880030155181885e-03
1.268000000000000000e+03 4.709633636474609375e+01 -6.309121608734130859e+00 -2.583836019039154053e-01 5.368640899658203125e+00 1.533077120780944824e+00 -1.202444911003112793e+00
1.269000000000000000e+03 7.539688873291015625e+01 2.542849349975585938e+01 4.756538569927215576e-02 8.658465385437011719e+00 2.611809253692626953e+00 9.320490956306457520e-01
1.270000000000000000e+03 7.140306854248046875e+01 3.290237665176391602e+00 5.546448230743408203e-01 1.272979164123535156e+01 3.985331058502197266e+00 9.769064188003540039e-01
1.271000000000000000e+03 7.774736022949218750e+01 -3.569686508178710938e+01 -1.834640800952911377e-01 6.949525833129882812e+00 2.029818534851074219e+00 -2.281562536954879761e-01
1.272000000000000000e+03 7.320301818847656250e+01 -3.807189178466796875e+01 -1.897459626197814941e-01 5.336828708648681641e+00 1.544124841690063477e+00 1.788413375616073608e-01
1.273000000000000000e+03 7.272798919677734375e+01 -3.103523445129394531e+01 1.578805148601531982e-01 7.870471954345703125e+00 2.408505678176879883e+00 5.182307958602905273e-01
1.274000000000000000e+03 7.708947753906250000e+01 1.806446456909179688e+01 2.232298627495765686e-02 8.389466285705566406e+00 2.523536682128906250e+00 5.928119421005249023e-01
1.275000000000000000e+03 7.799376678466796875e+01 3.519011306762695312e+01 -1.383518725633621216e-01 1.118101215362548828e+01 3.312798023223876953e+00 1.052658855915069580e-01
1.276000000000000000e+03 7.680918121337890625e+01 3.464228439331054688e+01 -2.126558572053909302e-01 1.021258926391601562e+01 2.999979972839355469e+00 2.449126690626144409e-01
1.277000000000000000e+03 7.715558624267578125e+01 -2.409828758239746094e+01 1.295591592788696289e-01 7.049597263336181641e+00 2.153746843338012695e+00 8.743034601211547852e-01
1.278000000000000000e+03 7.807053375244140625e+01 -2.863657569885253906e+01 1.906446069478988647e-01 6.342971801757812500e+00 1.960085034370422363e+00 -1.552470326423645020e-01
1.279000000000000000e+03 7.430516815185546875e+01 -2.858230590820312500e+01 1.070708155632019043e+00 7.741415500640869141e+00 2.643637180328369141e+00 5.751538276672363281e-02
1.280000000000000000e+03 7.843598175048828125e+01 -2.204988479614257812e+01 -8.578551560640335083e-02 7.284316539764404297e+00 2.159559249877929688e+00 5.366431474685668945e-01
1.281000000000000000e+03 7.459885406494140625e+01 -2.328263664245605469e+01 -1.913433820009231567e-01 7.826486587524414062e+00 2.290543079376220703e+00 1.099239587783813477e+00
1.282000000000000000e+03 7.799977111816406250e+01 -2.721535873413085938e+01 2.740073800086975098e-01 6.402614116668701172e+00 2.002986431121826172e+00 1.352695375680923462e-01
1.283000000000000000e+03 7.792081451416015625e+01 -3.438910675048828125e+01 -8.266223222017288208e-02 6.897386550903320312e+00 2.044417142868041992e+00 -3.550000488758087158e-01
1.284000000000000000e+03 7.667748260498046875e+01 -2.515026092529296875e+01 5.009828805923461914e-01 7.121114730834960938e+00 2.286629438400268555e+00 6.951000094413757324e-01
1.285000000000000000e+03 7.437593841552734375e+01 -3.198228645324707031e+01 -5.341930314898490906e-02 7.228044033050537109e+00 2.152387380599975586e+00 -2.551172375679016113e-01
1.286000000000000000e+03 7.583691406250000000e+01 -3.434821319580078125e+01 -3.240990042686462402e-01 6.853148937225341797e+00 1.958714962005615234e+00 -3.591019809246063232e-01
1.287000000000000000e+03 7.810180664062500000e+01 2.232533454895019531e+01 2.700409851968288422e-02 9.108787536621093750e+00 2.740737438201904297e+00 5.368437767028808594e-01
1.288000000000000000e+03 7.707449340820312500e+01 1.942969131469726562e+01 5.434554070234298706e-02 8.557391166687011719e+00 2.583520889282226562e+00 6.247372627258300781e-01
1.289000000000000000e+03 7.677565765380859375e+01 2.379889297485351562e+01 5.589298903942108154e-02 9.023050308227539062e+00 2.723683118820190430e+00 7.927509546279907227e-01
1.290000000000000000e+03 7.698075103759765625e+01 2.082533645629882812e+01 4.758144542574882507e-02 8.728101730346679688e+00 2.632704973220825195e+00 6.659326553344726562e-01
1.291000000000000000e+03 7.721457672119140625e+01 1.254538917541503906e+01 -7.501814514398574829e-02 7.669617652893066406e+00 2.278379917144775391e+00 6.383957862854003906e-01
1.292000000000000000e+03 7.713416290283203125e+01 1.387780570983886719e+01 -4.284455627202987671e-02 7.865625858306884766e+00 2.346834421157836914e+00 6.171263456344604492e-01
1.293000000000000000e+03 7.213818359375000000e+01 2.317064285278320312e+01 1.937126070261001587e-01 8.018206596374511719e+00 2.463575839996337891e+00 5.094991922378540039e-01
1.294000000000000000e+03 7.795597076416015625e+01 2.677021598815917969e+01 -4.141894634813070297e-03 9.986525535583496094e+00 2.994715213775634766e+00 6.223337650299072266e-01
1.295000000000000000e+03 7.598133850097656250e+01 1.375502490997314453e+01 -8.280868083238601685e-02 8.207530975341796875e+00 2.437416791915893555e+00 7.196483016014099121e-01
1.296000000000000000e+03 7.838178253173828125e+01 -2.071180534362792969e+01 -1.418000161647796631e-01 7.528109073638916016e+00 2.215892791748046875e+00 4.038468599319458008e-01
1.297000000000000000e+03 7.751264190673828125e+01 -2.311624717712402344e+01 -1.370042469352483749e-02 7.171331882476806641e+00 2.147289276123046875e+00 7.927231788635253906e-01
1.298000000000000000e+03 7.666528320312500000e+01 2.850257682800292969e+01 -1.026418805122375488e-01 9.534097671508789062e+00 2.829436779022216797e+00 7.727670073509216309e-01
1.299000000000000000e+03 7.697514343261718750e+01 -1.806932449340820312e+01 -3.618647754192352295e-01 7.384348869323730469e+00 2.106745243072509766e+00 -5.484624579548835754e-02
1.300000000000000000e+03 7.738307189941406250e+01 -2.054229545593261719e+01 -3.111299276351928711e-01 7.479769229888916016e+00 2.150591850280761719e+00 4.638586938381195068e-01
1.301000000000000000e+03 7.555725860595703125e+01 -9.450899124145507812e+00 1.479030400514602661e-02 6.668265819549560547e+00 2.004916906356811523e+00 -6.615406870841979980e-01
1.302000000000000000e+03 7.681344604492187500e+01 -1.370208358764648438e+01 -1.068779826164245605e-01 6.918129920959472656e+00 2.043375730514526367e+00 -5.868653655052185059e-01
1.303000000000000000e+03 7.427867126464843750e+01 -5.694091796875000000e+00 1.557654887437820435e-01 7.380541801452636719e+00 2.260892152786254883e+00 -4.196595847606658936e-01
1.304000000000000000e+03 7.685067749023437500e+01 -6.740730762481689453e+00 4.347960278391838074e-02 6.434395313262939453e+00 1.943362474441528320e+00 -6.005539298057556152e-01
1.305000000000000000e+03 7.807785034179687500e+01 5.752246379852294922e+00 8.969665318727493286e-02 5.847662925720214844e+00 1.781207919120788574e+00 5.094351768493652344e-01
1.306000000000000000e+03 7.675061798095703125e+01 5.867012977600097656e+00 2.040833681821823120e-01 7.016753196716308594e+00 2.166250944137573242e+00 7.410057783126831055e-01
1.307000000000000000e+03 7.743920135498046875e+01 3.658521652221679688e+01 -2.333999276161193848e-01 1.080988407135009766e+01 3.172945261001586914e+00 4.583740979433059692e-02
1.308000000000000000e+03 7.421269989013671875e+01 2.898713111877441406e+01 -2.814621627330780029e-01 8.104862213134765625e+00 2.347019910812377930e+00 8.327695727348327637e-01
1.309000000000000000e+03 7.811614227294921875e+01 7.159521102905273438e+00 3.863428905606269836e-02 6.135368347167968750e+00 1.852200865745544434e+00 5.766917467117309570e-01
1.310000000000000000e+03 7.546089172363281250e+01 7.594531536102294922e+00 8.768306672573089600e-02 8.226861000061035156e+00 2.494363307952880859e+00 9.654253125190734863e-01
1.311000000000000000e+03 7.674626159667968750e+01 -2.356111288070678711e+00 2.204925864934921265e-01 6.421618461608886719e+00 1.992633223533630371e+00 -3.783290088176727295e-01
1.312000000000000000e+03 7.683902740478515625e+01 -9.518632888793945312e+00 4.815530497580766678e-03 6.569118499755859375e+00 1.972180247306823730e+00 -6.422426700592041016e-01
1.313000000000000000e+03 7.681209564208984375e+01 -1.660955619812011719e+01 -3.043827116489410400e-01 7.212431430816650391e+00 2.072414636611938477e+00 -3.087274432182312012e-01
1.314000000000000000e+03 7.396764373779296875e+01 3.380831909179687500e+01 -5.545752048492431641e-01 7.624796867370605469e+00 2.121066570281982422e+00 2.888744175434112549e-01
1.315000000000000000e+03 7.672297668457031250e+01 3.152298736572265625e+01 -2.149936258792877197e-01 9.926239013671875000e+00 2.913373470306396484e+00 5.265476703643798828e-01
1.316000000000000000e+03 7.705635833740234375e+01 1.667312240600585938e+01 1.186481025069952011e-02 8.223379135131835938e+00 2.470573186874389648e+00 5.935175418853759766e-01
1.317000000000000000e+03 7.719483184814453125e+01 1.002334880828857422e+01 -4.481022804975509644e-02 7.349943161010742188e+00 2.191539764404296875e+00 7.698410749435424805e-01
1.318000000000000000e+03 7.808296966552734375e+01 -1.378116512298583984e+01 -5.210649967193603516e-02 7.192939758300781250e+00 2.142249822616577148e+00 -4.184478819370269775e-01
1.319000000000000000e+03 7.682134246826171875e+01 -1.512773132324218750e+01 -1.964649856090545654e-01 7.065575599670410156e+00 2.060733318328857422e+00 -4.879774451255798340e-01
1.320000000000000000e+03 7.809825897216796875e+01 -6.799623012542724609e+00 2.074176445603370667e-02 5.991108417510986328e+00 1.803555011749267578e+00 -4.722030162811279297e-01
1.321000000000000000e+03 7.686740875244140625e+01 -8.136203765869140625e+00 1.694163493812084198e-02 6.482048034667968750e+00 1.949696898460388184e+00 -6.220318078994750977e-01
1.322000000000000000e+03 7.822531890869140625e+01 1.591499924659729004e+00 1.342081725597381592e-01 5.226696491241455078e+00 1.608271479606628418e+00 9.216768294572830200e-02
1.323000000000000000e+03 7.676425933837890625e+01 -8.073434829711914062e-01 2.607746422290802002e-01 6.436430931091308594e+00 2.009161710739135742e+00 -1.595886498689651489e-01
1.324000000000000000e+03 7.865394592285156250e+01 3.402161026000976562e+01 -5.220609530806541443e-02 1.167362117767333984e+01 3.486424684524536133e+00 1.650992631912231445e-01
1.325000000000000000e+03 7.615064239501953125e+01 1.325392723083496094e+00 3.937833607196807861e-01 7.045268058776855469e+00 2.231715440750122070e+00 1.662373244762420654e-01
1.326000000000000000e+03 7.677986907958984375e+01 4.383714675903320312e+00 2.556581199169158936e-01 6.780134201049804688e+00 2.110737562179565430e+00 5.890727043151855469e-01
1.327000000000000000e+03 7.691534423828125000e+01 2.947312593460083008e+00 2.764481902122497559e-01 6.475932121276855469e+00 2.025714159011840820e+00 3.514888882637023926e-01
1.328000000000000000e+03 7.677931213378906250e+01 -5.319071292877197266e+00 6.984413415193557739e-02 6.401244163513183594e+00 1.941326498985290527e+00 -5.490460395812988281e-01
1.329000000000000000e+03 7.673651123046875000e+01 -3.860736608505249023e+00 9.597722440958023071e-02 6.410983085632324219e+00 1.952088117599487305e+00 -4.845417439937591553e-01
1.330000000000000000e+03 7.681325531005859375e+01 -1.090179634094238281e+01 -1.390179246664047241e-02 6.668096542358398438e+00 1.996258378028869629e+00 -6.497972011566162109e-01
1.331000000000000000e+03 7.680642700195312500e+01 -1.229687690734863281e+01 -4.860568791627883911e-02 6.788187026977539062e+00 2.021874427795410156e+00 -6.340923905372619629e-01
1.332000000000000000e+03 7.112866973876953125e+01 1.592181873321533203e+01 1.265335828065872192e-01 9.346150398254394531e+00 2.841805219650268555e+00 6.017354726791381836e-01
1.333000000000000000e+03 7.131483459472656250e+01 1.841302037239074707e+00 9.978987574577331543e-01 1.254301548004150391e+01 4.062274456024169922e+00 1.109090805053710938e+00
1.334000000000000000e+03 7.116799163818359375e+01 3.594045042991638184e-01 1.062449336051940918e+00 1.226785945892333984e+01 3.999092817306518555e+00 1.136640667915344238e+00
1.335000000000000000e+03 7.118083953857421875e+01 2.013711929321289062e+01 3.590270876884460449e-02 8.552168846130371094e+00 2.576421499252319336e+00 4.300929903984069824e-01
1.336000000000000000e+03 7.113610076904296875e+01 1.732038879394531250e+01 3.232079744338989258e-02 9.060869216918945312e+00 2.727957010269165039e+00 4.854316413402557373e-01
1.337000000000000000e+03 7.228996276855468750e+01 2.172446632385253906e+01 1.501919627189636230e-01 8.287440299987792969e+00 2.531289577484130859e+00 5.497743487358093262e-01
1.338000000000000000e+03 7.425845336914062500e+01 1.774728584289550781e+01 6.125156953930854797e-02 8.580436706542968750e+00 2.592506408691406250e+00 7.254585027694702148e-01
1.339000000000000000e+03 7.242612457275390625e+01 2.024213790893554688e+01 7.271670550107955933e-02 8.549259185791015625e+00 2.586592674255371094e+00 6.106352210044860840e-01
1.340000000000000000e+03 6.763602447509765625e+01 -9.271288871765136719e+00 1.044426083564758301e+00 5.781270027160644531e+00 2.047708988189697266e+00 1.977991461753845215e+00
1.341000000000000000e+03 7.013671112060546875e+01 -7.017306327819824219e+00 5.308135747909545898e-01 7.610990524291992188e+00 2.442541122436523438e+00 1.154703855514526367e+00
1.342000000000000000e+03 4.419935226440429688e+01 9.256541132926940918e-01 5.480078458786010742e-01 6.377712249755859375e+00 2.077715873718261719e+00 -2.334822416305541992e+00
1.343000000000000000e+03 4.306074905395507812e+01 5.681478381156921387e-01 2.928048670291900635e-01 6.348864555358886719e+00 1.992500782012939453e+00 -2.029108285903930664e+00
1.344000000000000000e+03 4.341371154785156250e+01 -2.680848884582519531e+01 2.508809268474578857e-01 9.476530075073242188e+00 2.918223381042480469e+00 1.144327044486999512e+00
1.345000000000000000e+03 6.934313201904296875e+01 3.360802078247070312e+01 -1.014230012893676758e+00 3.551004648208618164e+00 7.610324025154113770e-01 3.216888383030891418e-02
1.346000000000000000e+03 2.111077499389648438e+01 -3.463404464721679688e+01 -4.761556163430213928e-02 -1.545051671564579010e-02 -1.891982369124889374e-02 -7.225051522254943848e-02
1.347000000000000000e+03 4.376235485076904297e+00 -1.576014709472656250e+01 -2.912638476118445396e-03 -1.303014578297734261e-04 -9.128819219768047333e-04 -2.422068937448784709e-04
1.348000000000000000e+03 1.811708068847656250e+01 -3.289419555664062500e+01 -4.235663637518882751e-02 -2.535828854888677597e-03 -1.346773933619260788e-02 -2.393562719225883484e-02
1.349000000000000000e+03 4.793175697326660156e+00 3.579571914672851562e+01 2.574176527559757233e-02 -1.310678601264953613e+00 -3.854810595512390137e-01 -1.163034327328205109e-02
1.350000000000000000e+03 1.986478686332702637e+00 2.743369865417480469e+01 7.386193145066499710e-03 -1.852909922599792480e+00 -5.536571145057678223e-01 -7.959372363984584808e-03
1.351000000000000000e+03 3.276590347290039062e+00 2.999511909484863281e+01 5.765415728092193604e-03 -1.616728425025939941e+00 -4.832888841629028320e-01 -3.132784366607666016e-02
1.352000000000000000e+03 7.127166271209716797e+00 2.924126434326171875e+01 5.236611142754554749e-02 -1.005456209182739258e+00 -2.859270274639129639e-01 -5.375564843416213989e-02
1.353000000000000000e+03 3.447718620300292969e+00 3.130547332763671875e+01 1.005562115460634232e-02 -1.568170309066772461e+00 -4.674344062805175781e-01 -4.011106491088867188e-02
1.354000000000000000e+03 2.004114627838134766e+00 2.603772544860839844e+01 1.120794564485549927e-02 -1.848381638526916504e+00 -5.511521100997924805e-01 4.182025790214538574e-03
1.355000000000000000e+03 3.319039821624755859e+00 2.733829689025878906e+01 1.887494325637817383e-02 -1.629474878311157227e+00 -4.831799566745758057e-01 -7.370031438767910004e-03
1.356000000000000000e+03 3.270575523376464844e+00 2.868066406250000000e+01 1.200487371534109116e-02 -1.633613467216491699e+00 -4.864825904369354248e-01 -2.175264619290828705e-02
1.357000000000000000e+03 2.120257854461669922e+00 3.698135375976562500e+01 -1.637819805182516575e-03 -1.748545527458190918e+00 -5.250549912452697754e-01 -5.263909325003623962e-02
1.358000000000000000e+03 3.790640354156494141e+00 3.417371749877929688e+01 1.948550716042518616e-02 -1.477816820144653320e+00 -4.374994039535522461e-01 -3.980688378214836121e-02
1.359000000000000000e+03 4.545143127441406250e+00 2.865395927429199219e+01 2.444904297590255737e-02 -1.431263208389282227e+00 -4.220442473888397217e-01 -2.531395107507705688e-02
1.360000000000000000e+03 3.918168783187866211e+00 -3.439193725585937500e+01 -3.613523207604885101e-03 -4.255336709320545197e-03 -2.360657788813114166e-03 1.863209035946056247e-05
1.361000000000000000e+03 3.492718219757080078e+00 -3.000858879089355469e+01 6.545968819409608841e-03 -8.424805710092186928e-04 1.711046556010842323e-03 4.910514689981937408e-04
1.362000000000000000e+03 1.955864787101745605e+00 -2.881595420837402344e+01 5.643500946462154388e-03 1.802672159101348370e-05 1.698458334431052208e-03 -4.439618714968673885e-05
1.363000000000000000e+03 7.063159942626953125e+00 -2.648223304748535156e+01 -3.644587937742471695e-03 -1.064940937794744968e-03 -1.412858604453504086e-03 1.674104481935501099e-03
1.364000000000000000e+03 1.971714735031127930e+00 2.179239845275878906e+01 1.765348948538303375e-02 -1.787514925003051758e+00 -5.309584140777587891e-01 5.860735476016998291e-02
1.365000000000000000e+03 3.379051685333251953e+00 2.307547950744628906e+01 4.105170071125030518e-02 -1.588430047035217285e+00 -4.642134904861450195e-01 6.531964987516403198e-02
1.366000000000000000e+03 2.850232601165771484e+00 -1.193214416503906250e+01 -2.591037889942526817e-03 6.102108818595297635e-05 -7.590050227008759975e-04 -1.358035515295341611e-04
1.367000000000000000e+03 1.808281540870666504e+00 -7.834341526031494141e+00 -2.445600228384137154e-03 9.739053348312154412e-05 -7.044628728181123734e-04 -1.923115778481587768e-04
1.368000000000000000e+03 1.963375449180603027e+00 -1.903021049499511719e+01 -2.905203262344002724e-03 -4.548820434138178825e-04 -1.008025603368878365e-03 -2.531667414586991072e-04
1.369000000000000000e+03 3.327497720718383789e+00 2.164938735961914062e+01 4.682463780045509338e-02 -1.567683696746826172e+00 -4.562577009201049805e-01 9.785101562738418579e-02
1.370000000000000000e+03 2.846343755722045898e+00 1.186741161346435547e+01 3.253594413399696350e-02 -1.049833297729492188e+00 -3.051891922950744629e-01 3.474505245685577393e-01
1.371000000000000000e+03 3.055402517318725586e+00 1.741681480407714844e+01 5.037839338183403015e-02 -1.444470047950744629e+00 -4.182274937629699707e-01 2.077408134937286377e-01
1.372000000000000000e+03 4.160629272460937500e+00 1.590997791290283203e+01 8.750263601541519165e-02 -1.251868367195129395e+00 -3.493097126483917236e-01 3.156663775444030762e-01
1.373000000000000000e+03 1.852697014808654785e+00 -2.192371368408203125e+01 -3.624495351687073708e-03 -1.906195102492347360e-04 -1.144534442573785782e-03 -6.147891399450600147e-04
1.374000000000000000e+03 3.300854444503784180e+00 -1.744558334350585938e+01 -3.412263235077261925e-03 -4.557029751595109701e-04 -1.160389860160648823e-03 9.803334978641942143e-05
1.375000000000000000e+03 1.795756101608276367e+00 -1.475805664062500000e+01 2.969213062897324562e-03 -1.180492545245215297e-04 8.553491206839680672e-04 -7.972381717991083860e-05
1.376000000000000000e+03 6.197232246398925781e+00 -5.018208503723144531e+00 -6.895209080539643764e-04 -2.073461364489048719e-04 -2.690601104404777288e-04 9.022133890539407730e-04
1.377000000000000000e+03 2.692952632904052734e+00 5.296534538269042969e+00 -8.030723035335540771e-02 -3.505574762821197510e-01 -1.292594075202941895e-01 2.920384705066680908e-01
1.378000000000000000e+03 2.631165266036987305e+00 7.786593437194824219e+00 -1.490186713635921478e-02 -6.239303946495056152e-01 -1.916496902704238892e-01 3.585767745971679688e-01
1.379000000000000000e+03 1.759708166122436523e+00 1.475617694854736328e+01 2.094678021967411041e-02 -1.402820944786071777e+00 -4.145622551441192627e-01 1.821477264165878296e-01
1.380000000000000000e+03 2.982125043869018555e+00 1.603117179870605469e+01 5.151981115341186523e-02 -1.372691512107849121e+00 -3.963515162467956543e-01 2.455459833145141602e-01
1.381000000000000000e+03 2.715006113052368164e+00 9.109758377075195312e+00 4.690738394856452942e-03 -7.749701738357543945e-01 -2.310838252305984497e-01 3.699901700019836426e-01
1.382000000000000000e+03 2.922014951705932617e+00 -7.964182376861572266e+00 2.414209302514791489e-03 1.347732613794505596e-04 7.646947633475065231e-04 -3.051511594094336033e-04
1.383000000000000000e+03 1.808612227439880371e+00 -2.335563087463378906e+01 4.010805860161781311e-03 1.973590260604396462e-04 1.262449426576495171e-03 7.428156677633523941e-04
1.384000000000000000e+03 3.267697334289550781e+00 -2.851577568054199219e+01 -5.801395047456026077e-03 -3.535436117090284824e-04 -1.846481580287218094e-03 -5.246139480732381344e-04
1.385000000000000000e+03 1.695937395095825195e+00 -3.670522689819335938e+01 8.603075402788817883e-04 4.627877380698919296e-03 1.646455493755638599e-03 4.822408664040267467e-05
1.386000000000000000e+03 4.645259857177734375e+00 -3.755796432495117188e+01 -1.775610377080738544e-03 -1.578414463438093662e-03 -1.006207428872585297e-03 -3.969628363847732544e-03
1.387000000000000000e+03 2.815819740295410156e+00 -1.060324096679687500e+01 2.471815561875700951e-03 -1.385493851557839662e-05 7.373881526291370392e-04 7.040471973596140742e-05
1.388000000000000000e+03 2.826588392257690430e+00 -9.285490036010742188e+00 -2.436367794871330261e-03 -4.669632471632212400e-05 -7.449192344211041927e-04 3.156204547849483788e-05
1.389000000000000000e+03 3.124221801757812500e+00 -1.599600219726562500e+01 3.319783369079232216e-03 -3.141815977869555354e-05 9.865096071735024452e-04 3.646669210866093636e-05
1.390000000000000000e+03 3.812333822250366211e+00 -3.296406936645507812e+01 4.354304634034633636e-03 9.714966290630400181e-04 1.597740338183939457e-03 -1.031283289194107056e-03
1.391000000000000000e+03 3.839683294296264648e+00 -2.665999984741210938e+01 -4.104007966816425323e-04 -2.177721587941050529e-03 -7.764367037452757359e-04 -1.268338761292397976e-03
1.392000000000000000e+03 4.096210002899169922e+00 -2.467320060729980469e+01 -2.264387672767043114e-03 -2.668077591806650162e-03 -1.479739556089043617e-03 -2.090243855491280556e-03
1.393000000000000000e+03 2.985840797424316406e+00 -2.479272651672363281e+01 4.687432665377855301e-03 2.958305994980037212e-04 1.494979020208120346e-03 1.265619648620486259e-03
1.394000000000000000e+03 7.214912891387939453e+00 -1.850125885009765625e+01 4.953107796609401703e-03 2.022500848397612572e-04 1.546607352793216705e-03 1.845777442213147879e-04
1.395000000000000000e+03 3.002280473709106445e+00 -1.461692523956298828e+01 -3.041931195184588432e-03 1.055776010616682470e-04 -8.809060673229396343e-04 -8.080765110207721591e-05
1.396000000000000000e+03 2.799823284149169922e+00 1.047568798065185547e+01 2.348328195512294769e-02 -9.145959615707397461e-01 -2.673338055610656738e-01 3.641223013401031494e-01
1.397000000000000000e+03 2.882686376571655273e+00 1.326191139221191406e+01 4.457888752222061157e-02 -1.175697922706604004e+00 -3.393357098102569580e-01 3.163748085498809814e-01
1.398000000000000000e+03 6.879084014892578125e+01 -9.799252510070800781e+00 8.189741373062133789e-01 5.874907970428466797e+00 2.008164644241333008e+00 1.299569249153137207e+00
1.399000000000000000e+03 7.548564910888671875e+01 -2.263468503952026367e+00 3.139296472072601318e-01 7.310674190521240234e+00 2.287381172180175781e+00 -2.958014905452728271e-01
1.400000000000000000e+03 7.088036346435546875e+01 -1.101639032363891602e+00 7.872237563133239746e-01 1.169687080383300781e+01 3.745228290557861328e+00 1.453372001647949219e+00
1.401000000000000000e+03 4.195781326293945312e+01 2.407049369812011719e+01 4.529879987239837646e-01 5.638007640838623047e+00 1.827298641204833984e+00 8.809698820114135742e-01
1.402000000000000000e+03 4.146151733398437500e+01 1.816770362854003906e+01 6.448800563812255859e-01 8.329895019531250000e+00 2.692432403564453125e+00 8.251293897628784180e-01
1.403000000000000000e+03 4.279458236694335938e+01 2.221735191345214844e+01 7.323170304298400879e-01 6.424870014190673828e+00 2.147156238555908203e+00 1.471868991851806641e+00
1.404000000000000000e+03 4.055027770996093750e+01 2.008152770996093750e+01 6.239452958106994629e-01 6.991860866546630859e+00 2.284741878509521484e+00 5.225473046302795410e-01
1.405000000000000000e+03 5.573104381561279297e+00 -2.076408386230468750e+01 -2.857113722711801529e-03 -1.128124189563095570e-03 -1.195571385324001312e-03 2.410558954579755664e-04
1.406000000000000000e+03 4.356924819946289062e+01 2.840121841430664062e+01 2.415716089308261871e-02 4.201517581939697266e+00 1.267702341079711914e+00 7.455367445945739746e-01
1.407000000000000000e+03 4.335165405273437500e+01 3.275370788574218750e+01 -7.059772014617919922e-01 3.614543676376342773e+00 8.725699782371520996e-01 3.031241893768310547e-01
1.408000000000000000e+03 4.105307388305664062e+01 2.137578773498535156e+01 5.689623355865478516e-01 6.521824359893798828e+00 2.127236127853393555e+00 7.582132220268249512e-01
1.409000000000000000e+03 2.895352935791015625e+01 -1.465809249877929688e+01 -8.878293037414550781e-01 -1.240022182464599609e-01 -3.035494387149810791e-01 7.324813008308410645e-01
1.410000000000000000e+03 2.819244766235351562e+01 -1.525425338745117188e+01 -8.073825836181640625e-01 -2.485921531915664673e-01 -3.167924284934997559e-01 7.355496883392333984e-01
1.411000000000000000e+03 7.901190280914306641e+00 -2.821086311340332031e+01 -3.730777883902192116e-03 4.812307015527039766e-04 -9.748641750775277615e-04 5.394414067268371582e-03
1.412000000000000000e+03 5.893975734710693359e+00 -3.054004287719726562e+01 -1.788460882380604744e-03 -1.067747361958026886e-03 -8.568624616600573063e-04 -2.233013976365327835e-03
1.413000000000000000e+03 5.085532760620117188e+01 -1.333373928070068359e+01 -2.250017404556274414e+00 2.886745214462280273e+00 1.910183429718017578e-01 1.063190221786499023e+00
1.414000000000000000e+03 5.169666290283203125e+01 -1.779957771301269531e+01 -1.625140547752380371e+00 2.575530767440795898e+00 2.851170599460601807e-01 -4.833877086639404297e-02
1.415000000000000000e+03 7.069822692871093750e+01 -5.626138687133789062e+00 4.527322053909301758e-01 8.416412353515625000e+00 2.660743474960327148e+00 1.093471884727478027e+00
1.416000000000000000e+03 6.941738891601562500e+01 3.010935974121093750e+01 -7.311565876007080078e-01 3.736559867858886719e+00 9.016209840774536133e-01 1.028508916497230530e-01
1.417000000000000000e+03 7.143360900878906250e+01 7.557604789733886719e+00 4.013972282409667969e-01 1.115664672851562500e+01 3.467413187026977539e+00 4.000276923179626465e-01
1.418000000000000000e+03 7.470401000976562500e+01 9.884785652160644531e+00 -1.487309783697128296e-01 8.766628265380859375e+00 2.585369348526000977e+00 9.886194467544555664e-01
1.419000000000000000e+03 7.503465270996093750e+01 -3.314575958251953125e+01 -2.015825212001800537e-01 6.872207164764404297e+00 2.001187324523925781e+00 -3.645914494991302490e-01
1.420000000000000000e+03 7.464814758300781250e+01 2.067563819885253906e+01 9.838847815990447998e-02 8.543018341064453125e+00 2.592422008514404297e+00 7.840650081634521484e-01
1.421000000000000000e+03 4.246123886108398438e+01 2.545636367797851562e+01 3.552355766296386719e-01 5.164591312408447266e+00 1.655948042869567871e+00 8.683652281761169434e-01
1.422000000000000000e+03 4.104084014892578125e+01 2.595607376098632812e+01 1.273271739482879639e-01 5.056739330291748047e+00 1.555220007896423340e+00 4.190715849399566650e-01
1.423000000000000000e+03 4.122927093505859375e+01 7.043642044067382812e+00 1.476485371589660645e+00 8.909898757934570312e+00 3.115915298461914062e+00 -1.866921901702880859e+00
1.424000000000000000e+03 4.235863876342773438e+01 4.525276660919189453e+00 1.031546115875244141e+00 7.752907752990722656e+00 2.635336160659790039e+00 -2.367471933364868164e+00
1.425000000000000000e+03 7.066400146484375000e+01 -8.825677871704101562e+00 4.542286098003387451e-01 6.734009265899658203e+00 2.156471252441406250e+00 6.149842739105224609e-01
1.426000000000000000e+03 6.154903030395507812e+01 -1.947361755371093750e+01 -9.340470433235168457e-01 1.958734512329101562e+00 3.074062466621398926e-01 2.537142515182495117e+00
1.427000000000000000e+03 1.636554336547851562e+01 -3.442456817626953125e+01 -1.332179456949234009e-02 -8.885418064892292023e-03 -6.662163883447647095e-03 -2.449529431760311127e-02
1.428000000000000000e+03 4.767201614379882812e+01 3.336272430419921875e+01 -4.210412204265594482e-01 2.414362907409667969e+00 5.979964733123779297e-01 5.767584443092346191e-01
1.429000000000000000e+03 5.077998733520507812e+01 3.461984252929687500e+01 -4.847388267517089844e-01 1.149852633476257324e+00 1.995341479778289795e-01 4.413355886936187744e-01
1.430000000000000000e+03 5.486826324462890625e+01 -2.664452362060546875e+01 1.990878105163574219e+00 4.131374359130859375e+00 1.836675763130187988e+00 3.686404824256896973e-01
1.431000000000000000e+03 5.518122482299804688e+01 -2.491685104370117188e+01 2.299644231796264648e+00 2.920407295227050781e+00 1.566015481948852539e+00 5.782552361488342285e-01
1.432000000000000000e+03 4.149777603149414062e+01 2.271612167358398438e+01 5.596190690994262695e-01 6.091393947601318359e+00 1.995303869247436523e+00 8.418906331062316895e-01
1.433000000000000000e+03 6.611502075195312500e+01 -1.187786197662353516e+01 1.470354437828063965e+00 4.040026187896728516e+00 1.653114199638366699e+00 1.817489743232727051e+00
1.434000000000000000e+03 6.795128631591796875e+01 -1.102167034149169922e+01 1.013369441032409668e+00 5.077096462249755859e+00 1.827139735221862793e+00 1.363594889640808105e+00
1.435000000000000000e+03 7.159979343414306641e+00 -1.638957405090332031e+01 4.415816161781549454e-03 -1.337011053692549467e-04 1.284634578041732311e-03 -5.315319285728037357e-04
1.436000000000000000e+03 6.513491821289062500e+01 -1.807571601867675781e+01 -5.395315885543823242e-01 1.932119727134704590e+00 4.177764356136322021e-01 1.719291567802429199e+00
1.437000000000000000e+03 5.448942947387695312e+01 -3.316040802001953125e+01 7.791712284088134766e-01 5.854935169219970703e+00 1.990231871604919434e+00 -3.455985188484191895e-01
1.438000000000000000e+03 5.613828277587890625e+01 -2.422431564331054688e+01 2.454821109771728516e+00 2.228611946105957031e+00 1.405029892921447754e+00 9.401172399520874023e-01
1.439000000000000000e+03 3.885787963867187500e+01 1.400446414947509766e+01 1.399100303649902344e+00 7.823880672454833984e+00 2.766894340515136719e+00 -7.654559612274169922e-01
1.440000000000000000e+03 3.808958053588867188e+01 1.251506996154785156e+01 1.754384875297546387e+00 7.261833667755126953e+00 2.704865694046020508e+00 -9.848248958587646484e-01
1.441000000000000000e+03 6.815955352783203125e+01 -2.018023109436035156e+01 -1.574137926101684570e+00 3.943350911140441895e-01 -3.539408445358276367e-01 -1.243393868207931519e-01
1.442000000000000000e+03 7.191681671142578125e+01 2.460511016845703125e+01 2.460091263055801392e-01 7.624584197998046875e+00 2.361177921295166016e+00 4.909497797489166260e-01
1.443000000000000000e+03 7.161755371093750000e+01 2.601729965209960938e+01 1.499490737915039062e-01 7.152611255645751953e+00 2.190768003463745117e+00 4.798794984817504883e-01
1.444000000000000000e+03 6.739199829101562500e+01 -1.349265575408935547e+01 8.813159465789794922e-01 3.999708414077758789e+00 1.464307308197021484e+00 9.615771770477294922e-01
1.445000000000000000e+03 3.928457641601562500e+01 1.125498199462890625e+01 1.880553126335144043e+00 8.210556983947753906e+00 3.027333021163940430e+00 -1.134500980377197266e+00
1.446000000000000000e+03 7.272705078125000000e+01 7.589320659637451172e+00 2.494880557060241699e-01 1.020250988006591797e+01 3.135599374771118164e+00 8.151466250419616699e-01
1.447000000000000000e+03 1.405989646911621094e+01 -3.490034103393554688e+01 1.528539345599710941e-03 -7.894994691014289856e-03 -1.909936661832034588e-03 -1.291050482541322708e-02
1.448000000000000000e+03 7.286549377441406250e+01 -3.423926544189453125e+01 -4.646431803703308105e-01 6.113821506500244141e+00 1.694753527641296387e+00 3.603796064853668213e-01
1.449000000000000000e+03 5.247485351562500000e+01 -2.854830932617187500e+01 1.908875584602355957e+00 5.162617206573486328e+00 2.121447801589965820e+00 -1.031023502349853516e+00
1.450000000000000000e+03 5.288194274902343750e+01 -3.147935295104980469e+01 1.746928572654724121e+00 5.740664005279541016e+00 2.246277809143066406e+00 -8.383607268333435059e-01
1.451000000000000000e+03 1.879789352416992188e+01 -3.588489532470703125e+01 -2.023737318813800812e-02 -3.098517283797264099e-02 -1.536676473915576935e-02 -5.022015050053596497e-02
1.452000000000000000e+03 5.794511032104492188e+01 -2.048842811584472656e+01 1.353209614753723145e-01 7.889414429664611816e-01 2.772787213325500488e-01 2.018590450286865234e+00
1.453000000000000000e+03 6.665956115722656250e+01 -1.910676002502441406e+01 -7.658144831657409668e-01 1.090833067893981934e+00 9.750556945800781250e-02 1.027444005012512207e+00
1.454000000000000000e+03 6.164434051513671875e+01 4.039902496337890625e+01 1.699988730251789093e-02 -5.484263896942138672e-01 -1.594279557466506958e-01 1.295620203018188477e-01
1.455000000000000000e+03 7.594059753417968750e+01 -3.009812164306640625e+01 3.766264617443084717e-01 7.033714771270751953e+00 2.223102331161499023e+00 -4.525571763515472412e-01
1.456000000000000000e+03 7.235469818115234375e+01 1.464296627044677734e+01 -3.468689043074846268e-03 9.046306610107421875e+00 2.712851285934448242e+00 4.649766087532043457e-01
1.457000000000000000e+03 7.114530181884765625e+01 1.451850986480712891e+01 2.479868531227111816e-01 9.145056724548339844e+00 2.817913055419921875e+00 4.916515052318572998e-01
1.458000000000000000e+03 4.195844650268554688e+01 2.900510597229003906e+01 -2.600155770778656006e-01 4.341956138610839844e+00 1.224582076072692871e+00 3.739572465419769287e-01
1.459000000000000000e+03 3.772452545166015625e+01 -3.547895050048828125e+01 -1.943024061620235443e-02 1.481478929519653320e+00 4.386146068572998047e-01 7.637512683868408203e-01
1.460000000000000000e+03 7.597039031982421875e+01 -2.605111503601074219e+01 6.442763209342956543e-01 7.224421024322509766e+00 2.360609054565429688e+00 5.841710567474365234e-01
1.461000000000000000e+03 4.060472488403320312e+01 -3.586464309692382812e+01 -3.485597670078277588e-01 3.407331943511962891e+00 9.176316261291503906e-01 1.066428422927856445e+00
1.462000000000000000e+03 7.375572967529296875e+01 -1.969828033447265625e+01 -1.317792296409606934e+00 6.937374591827392578e+00 1.685874700546264648e+00 -2.367657124996185303e-01
1.463000000000000000e+03 7.127484893798828125e+01 2.743355560302734375e+01 -2.174588665366172791e-02 6.497622489929199219e+00 1.942763090133666992e+00 4.516133666038513184e-01
1.464000000000000000e+03 7.398777008056640625e+01 3.210063552856445312e+01 -5.378541946411132812e-01 7.796858787536621094e+00 2.177701234817504883e+00 4.582995176315307617e-01
1.465000000000000000e+03 4.250441741943359375e+01 -3.259527587890625000e+01 -4.954268634319305420e-01 5.966752529144287109e+00 1.641397714614868164e+00 7.876739501953125000e-01
1.466000000000000000e+03 5.329651641845703125e+01 3.567890548706054688e+01 -6.638016104698181152e-01 5.318133234977722168e-01 -3.959649428725242615e-02 7.002004981040954590e-02
1.467000000000000000e+03 5.119242095947265625e+01 3.623018646240234375e+01 -5.965727567672729492e-01 1.181712508201599121e+00 1.755419224500656128e-01 3.788977861404418945e-01
1.468000000000000000e+03 5.164349365234375000e+01 3.844571685791015625e+01 -7.117599844932556152e-01 1.048979759216308594e+00 1.011659204959869385e-01 2.368228435516357422e-01
1.469000000000000000e+03 3.423557662963867188e+01 -3.551371765136718750e+01 5.875919759273529053e-02 1.376464068889617920e-01 5.892167985439300537e-02 1.171615719795227051e-01
1.470000000000000000e+03 1.802509689331054688e+01 -1.207910728454589844e+01 2.787377743516117334e-04 4.216802190057933331e-04 2.101254067383706570e-04 -1.157158039859496057e-04
1.471000000000000000e+03 1.910650825500488281e+01 -1.163630676269531250e+01 -6.035151309333741665e-04 -9.042117744684219360e-04 -4.523180541582405567e-04 -1.656914973864331841e-04
1.472000000000000000e+03 4.068789672851562500e+01 8.375150680541992188e+00 1.819167375564575195e+00 9.123149871826171875e+00 3.282695293426513672e+00 -1.598245501518249512e+00
1.473000000000000000e+03 3.789847183227539062e+01 -1.722493934631347656e+01 -3.253336846828460693e-01 1.383696556091308594e+00 3.175088763236999512e-01 -1.490070700645446777e+00
1.474000000000000000e+03 3.776351547241210938e+01 -1.622763442993164062e+01 -4.502721726894378662e-01 1.768156528472900391e+00 3.953652977943420410e-01 -1.561854481697082520e+00
1.475000000000000000e+03 4.975329589843750000e+01 -1.348484992980957031e+01 -2.291294097900390625e+00 4.506748676300048828e+00 6.646363139152526855e-01 7.793570756912231445e-01
1.476000000000000000e+03 5.089503479003906250e+01 -1.464376354217529297e+01 -2.776997327804565430e+00 3.046467542648315430e+00 8.084106445312500000e-02 9.398871064186096191e-01
1.477000000000000000e+03 1.662553024291992188e+01 -1.226147079467773438e+01 -9.155407315120100975e-05 -9.258034697268158197e-05 -5.524032530956901610e-05 6.720717647112905979e-05
1.478000000000000000e+03 5.688021469116210938e+01 -1.937737846374511719e+01 -7.916049361228942871e-01 -2.767751738429069519e-02 -2.457847297191619873e-01 1.820541739463806152e+00
1.479000000000000000e+03 5.793764877319335938e+01 -1.943887901306152344e+01 -6.258448958396911621e-01 2.503017187118530273e-01 -1.126629635691642761e-01 2.204864501953125000e+00
1.480000000000000000e+03 5.471723175048828125e+01 -1.785180091857910156e+01 -2.540863275527954102e+00 -1.360195994377136230e+00 -1.170317769050598145e+00 7.664845585823059082e-01
1.481000000000000000e+03 5.389905929565429688e+01 -1.696046447753906250e+01 -3.393505811691284180e+00 -4.905438125133514404e-01 -1.165214896202087402e+00 5.846119523048400879e-01
1.482000000000000000e+03 1.035622406005859375e+01 -3.099854850769042969e+01 1.388613949529826641e-03 4.515786189585924149e-03 1.771320006810128689e-03 2.742316341027617455e-03
1.483000000000000000e+03 8.317502021789550781e+00 -1.510008525848388672e+01 3.278615185990929604e-03 -7.156542269513010979e-04 7.688883342780172825e-04 4.547764547169208527e-04
1.484000000000000000e+03 1.517663764953613281e+01 -1.238163852691650391e+01 -9.497324936091899872e-04 -3.635549510363489389e-04 -3.939862363040447235e-04 -2.569931384641677141e-04
1.485000000000000000e+03 1.382904243469238281e+01 -1.204209709167480469e+01 1.611019601114094257e-03 1.314312918111681938e-03 8.775997557677328587e-04 -5.695517174899578094e-04
1.486000000000000000e+03 2.901612997055053711e+00 -2.725474548339843750e+01 6.335627753287553787e-03 -5.893923225812613964e-04 1.723870635032653809e-03 8.056911756284534931e-04
1.487000000000000000e+03 7.296755313873291016e+00 -2.514845466613769531e+01 5.737598985433578491e-03 1.766827306710183620e-03 2.251327969133853912e-03 -2.588451141491532326e-03
1.488000000000000000e+03 5.656997299194335938e+01 -3.765969467163085938e+01 -1.840741038322448730e-01 3.712558984756469727e+00 1.058545470237731934e+00 -1.095912694931030273e+00
1.489000000000000000e+03 6.274391174316406250e+01 -2.111573600769042969e+01 -2.835048735141754150e-01 1.696146726608276367e+00 4.237925410270690918e-01 2.143609285354614258e+00
1.490000000000000000e+03 6.533379364013671875e+01 -1.937878227233886719e+01 -9.660866856575012207e-01 1.358592510223388672e+00 1.177517473697662354e-01 1.843108892440795898e+00
1.491000000000000000e+03 7.326855468750000000e+01 -2.135258102416992188e+01 -1.345577716827392578e+00 7.287628173828125000e+00 1.782615184783935547e+00 1.854883879423141479e-01
1.492000000000000000e+03 7.369884490966796875e+01 -2.409444427490234375e+01 7.026287913322448730e-01 7.961933612823486328e+00 2.599368572235107422e+00 7.639600634574890137e-01
1.493000000000000000e+03 6.719329071044921875e+01 3.726652526855468750e+01 -1.391994953155517578e-01 1.627439379692077637e+00 4.464719593524932861e-01 -2.860774099826812744e-02
1.494000000000000000e+03 6.509624481201171875e+01 3.922548675537109375e+01 9.250137209892272949e-02 2.673465907573699951e-01 1.079543903470039368e-01 1.255162507295608521e-01
1.495000000000000000e+03 6.848328399658203125e+01 3.538365554809570312e+01 -7.635242342948913574e-01 2.639796733856201172e+00 5.628817677497863770e-01 -1.531155258417129517e-01
1.496000000000000000e+03 4.931269168853759766e+00 -4.039093780517578125e+01 -3.548090811818838120e-03 -1.991349970921874046e-03 -1.661832211539149284e-03 -2.969474066048860550e-03
1.497000000000000000e+03 6.230541706085205078e+00 -3.832445526123046875e+01 1.590525615029036999e-03 -7.579170167446136475e-03 -1.796593307517468929e-03 2.625597873702645302e-03
1.498000000000000000e+03 4.557751464843750000e+01 -2.983903884887695312e+01 9.716442227363586426e-01 7.044606208801269531e+00 2.404875040054321289e+00 -2.037249505519866943e-01
1.499000000000000000e+03 4.434226226806640625e+01 -3.010181427001953125e+01 1.117549419403076172e+00 7.147865295410156250e+00 2.479624509811401367e+00 5.687813088297843933e-02
1.500000000000000000e+03 5.571944808959960938e+01 -1.949339103698730469e+01 -3.384471833705902100e-01 -5.341560840606689453e-01 -2.617809772491455078e-01 1.215049505233764648e+00
1.501000000000000000e+03 5.356272888183593750e+01 -3.424074554443359375e+01 5.436167120933532715e-01 5.307251453399658203e+00 1.755260467529296875e+00 -5.791620612144470215e-01
1.502000000000000000e+03 5.489321517944335938e+01 -3.404161071777343750e+01 2.849175333976745605e-01 6.126501083374023438e+00 1.923425555229187012e+00 -6.184114217758178711e-01
1.503000000000000000e+03 5.448856735229492188e+01 -3.738119506835937500e+01 -4.066364467144012451e-01 4.830205917358398438e+00 1.327070832252502441e+00 -7.080489993095397949e-01
1.504000000000000000e+03 5.347729873657226562e+01 -3.920236968994140625e+01 -6.279854178428649902e-01 4.920594692230224609e+00 1.287782788276672363e+00 -3.911788463592529297e-01
1.505000000000000000e+03 6.557960510253906250e+01 -3.622943115234375000e+01 1.953120380640029907e-01 6.298183798789978027e-01 2.475391179323196411e-01 3.437204957008361816e-01
1.506000000000000000e+03 4.015438461303710938e+01 -1.864267539978027344e+01 1.544423341751098633e+00 2.372337818145751953e+00 1.175028324127197266e+00 -2.348422050476074219e+00
1.507000000000000000e+03 4.297377777099609375e+01 -1.895533370971679688e+01 8.694986701011657715e-01 9.906353950500488281e+00 3.232755661010742188e+00 -4.556168079376220703e+00
1.508000000000000000e+03 4.524855422973632812e+01 -2.358305740356445312e+01 9.638044834136962891e-01 1.190564155578613281e+01 3.860833883285522461e+00 -2.556603431701660156e+00
1.509000000000000000e+03 4.528032684326171875e+01 -2.091100502014160156e+01 6.637116909027099609e+00 1.108963680267333984e+01 5.318026065826416016e+00 -8.503898978233337402e-01
1.510000000000000000e+03 4.352840423583984375e+01 -1.908505249023437500e+01 4.209609329700469971e-01 1.162903404235839844e+01 3.614998579025268555e+00 -3.529403209686279297e+00
1.511000000000000000e+03 4.575709533691406250e+01 -2.046279335021972656e+01 4.726840972900390625e+00 9.959026336669921875e+00 4.405760288238525391e+00 -3.742803037166595459e-01
1.512000000000000000e+03 4.478442764282226562e+01 -2.005774307250976562e+01 3.705712795257568359e+00 1.324388122558593750e+01 5.084878444671630859e+00 2.350976504385471344e-02
1.513000000000000000e+03 4.507990264892578125e+01 -2.262744331359863281e+01 3.473106861114501953e+00 1.290423107147216797e+01 4.913201332092285156e+00 -3.889751672744750977e+00
1.514000000000000000e+03 4.532307815551757812e+01 -2.205200004577636719e+01 5.781792163848876953e+00 1.138116550445556641e+01 5.148887157440185547e+00 -3.535442352294921875e+00
1.515000000000000000e+03 4.443856048583984375e+01 -2.332888031005859375e+01 2.270909547805786133e-01 1.404243278503417969e+01 4.280857086181640625e+00 -1.922896862030029297e+00
1.516000000000000000e+03 4.502392578125000000e+01 -2.287645149230957031e+01 2.324878692626953125e+00 1.313612556457519531e+01 4.638301372528076172e+00 -3.552655458450317383e+00
1.517000000000000000e+03 4.322440719604492188e+01 -1.923580932617187500e+01 9.512858986854553223e-01 1.122734928131103516e+01 3.653590440750122070e+00 -4.456345081329345703e+00
1.518000000000000000e+03 4.438523101806640625e+01 -1.959570503234863281e+01 1.717376112937927246e+00 1.374713516235351562e+01 4.639353275299072266e+00 -1.016458749771118164e+00
1.519000000000000000e+03 4.099124145507812500e+01 -1.945570564270019531e+01 2.408576250076293945e+00 2.475913286209106445e+00 1.465346932411193848e+00 -3.026485919952392578e+00
1.520000000000000000e+03 4.273385620117187500e+01 -1.930881118774414062e+01 1.718964934349060059e+00 9.225028038024902344e+00 3.283197879791259766e+00 -5.166819095611572266e+00
1.521000000000000000e+03 4.228208541870117188e+01 -1.948605155944824219e+01 2.751948833465576172e+00 6.617728710174560547e+00 2.810903310775756836e+00 -5.236617088317871094e+00
1.522000000000000000e+03 4.322265625000000000e+01 -2.416952705383300781e+01 -7.724629044532775879e-01 1.007734394073486328e+01 2.791464328765869141e+00 1.597696900367736816e+00
1.523000000000000000e+03 4.239202880859375000e+01 -2.393011665344238281e+01 -4.825551509857177734e-01 5.808496475219726562e+00 1.597782373428344727e+00 1.007113337516784668e+00
1.524000000000000000e+03 1.530994606018066406e+01 -6.460736751556396484e+00 5.017821677029132843e-04 3.539049066603183746e-04 2.567061164882034063e-04 -1.441469794372096658e-04
1.525000000000000000e+03 1.530059719085693359e+01 -1.126505184173583984e+01 1.215963973663747311e-03 3.332902906549861655e-06 3.657890483736991882e-04 4.947378765791654587e-04
1.526000000000000000e+03 1.334340000152587891e+01 -4.971884250640869141e+00 3.997916355729103088e-04 7.353264372795820236e-04 3.405354218557476997e-04 2.728676190599799156e-04
1.527000000000000000e+03 1.483588695526123047e+01 -6.852134227752685547e+00 -5.109883495606482029e-04 -4.489881976041942835e-04 -2.879929670598357916e-04 4.367788205854594707e-04
1.528000000000000000e+03 1.218573951721191406e+01 -4.490410804748535156e+00 6.349673494696617126e-04 5.097317625768482685e-04 3.434097161516547203e-04 4.978348151780664921e-04
1.529000000000000000e+03 1.343501377105712891e+01 -5.799526691436767578e+00 4.248488985467702150e-04 7.287716143764555454e-04 3.460861626081168652e-04 -7.537843339378014207e-05
1.530000000000000000e+03 1.260731029510498047e+01 -5.171403408050537109e+00 3.745380090549588203e-04 5.710006225854158401e-04 2.836615894921123981e-04 5.020890384912490845e-04
1.531000000000000000e+03 1.069738769531250000e+01 -4.106173515319824219e+00 9.838034166023135185e-04 3.090895188506692648e-04 3.878678835462778807e-04 1.763148902682587504e-04
1.532000000000000000e+03 1.693103981018066406e+01 -1.025238132476806641e+01 2.181572053814306855e-04 -2.169732033507898450e-04 3.551979546045913594e-07 -2.635094569995999336e-04
1.533000000000000000e+03 1.262995815277099609e+01 -5.637592315673828125e+00 7.637419912498444319e-05 1.282596931559965014e-04 6.139017204986885190e-05 -3.279064840171486139e-04
1.534000000000000000e+03 1.716823768615722656e+01 -7.522997379302978516e+00 5.238583544269204140e-04 1.643088908167555928e-04 2.064501750282943249e-04 1.967733805940952152e-05
1.535000000000000000e+03 1.584729290008544922e+01 -8.371706008911132812e+00 1.923832460306584835e-04 2.652236071298830211e-05 6.567168020410463214e-05 -5.407044664025306702e-04
1.536000000000000000e+03 1.385583877563476562e+01 -6.647202491760253906e+00 6.362984422594308853e-04 -6.437810952775180340e-04 -2.244785264338133857e-06 5.413846156443469226e-05
1.537000000000000000e+03 1.617431259155273438e+01 -7.430503368377685547e+00 4.740365839097648859e-04 8.864435221767053008e-05 1.688042830210179090e-04 -1.342068717349320650e-04
1.538000000000000000e+03 1.831337738037109375e+01 -1.017238140106201172e+01 -7.482172222808003426e-04 3.636481415014714003e-05 -2.135557151632383466e-04 -2.237102016806602478e-04
1.539000000000000000e+03 1.772939109802246094e+01 -1.051785182952880859e+01 2.155866968678310513e-04 3.346529556438326836e-04 1.650719059398397803e-04 -2.993171510752290487e-04
1.540000000000000000e+03 9.212625503540039062e+00 4.876974582672119141e+00 -3.365648686885833740e-01 -7.343425750732421875e-01 -3.212722539901733398e-01 9.223253726959228516e-01
1.541000000000000000e+03 8.540048599243164062e+00 4.546012401580810547e+00 -3.846601843833923340e-01 -6.345181465148925781e-01 -3.057534992694854736e-01 8.668692111968994141e-01
1.542000000000000000e+03 5.339074611663818359e+00 4.038675308227539062e+00 -2.995707988739013672e-01 -3.032885789871215820e-01 -1.808578073978424072e-01 5.020039081573486328e-01
1.543000000000000000e+03 7.892528057098388672e+00 4.305977344512939453e+00 -4.057959616184234619e-01 -5.438025593757629395e-01 -2.848795652389526367e-01 8.147366642951965332e-01
1.544000000000000000e+03 5.969376564025878906e+00 4.059112071990966797e+00 -3.420354127883911133e-01 -3.390266299247741699e-01 -2.043186128139495850e-01 5.689119100570678711e-01
1.545000000000000000e+03 3.807671546936035156e+00 5.383948326110839844e+00 -1.301158368587493896e-01 -4.009776115417480469e-01 -1.593280285596847534e-01 4.133599400520324707e-01
1.546000000000000000e+03 4.050543785095214844e+00 3.354763031005859375e+00 -2.225618809461593628e-01 -1.854990869760513306e-01 -1.224182918667793274e-01 3.033456504344940186e-01
1.547000000000000000e+03 5.147439956665039062e+00 4.731533527374267578e+00 -2.401843518018722534e-01 -3.772408962249755859e-01 -1.852275729179382324e-01 5.262926816940307617e-01
1.548000000000000000e+03 3.449774503707885742e+00 3.294026136398315430e+00 -1.660556048154830933e-01 -1.864857077598571777e-01 -1.057623922824859619e-01 2.502971291542053223e-01
1.549000000000000000e+03 1.608110547065734863e+00 5.137845993041992188e+00 -3.319576755166053772e-02 -2.777863442897796631e-01 -9.329463541507720947e-02 1.669671088457107544e-01
1.550000000000000000e+03 2.879845619201660156e+01 -1.174005126953125000e+01 -9.718439579010009766e-01 2.236235290765762329e-01 -2.244661301374435425e-01 8.201692700386047363e-01
1.551000000000000000e+03 2.820475196838378906e+01 -1.218770694732666016e+01 -9.550582766532897949e-01 2.602023305371403694e-03 -2.857368588447570801e-01 9.083310365676879883e-01
1.552000000000000000e+03 2.801896476745605469e+01 -1.332912254333496094e+01 -8.656222820281982422e-01 -1.528777331113815308e-01 -3.055500090122222900e-01 9.037584662437438965e-01
1.553000000000000000e+03 2.957966423034667969e+01 -1.274715328216552734e+01 -9.169650077819824219e-01 2.412535846233367920e-01 -2.027134299278259277e-01 7.334079146385192871e-01
1.554000000000000000e+03 2.846499252319335938e+01 -1.399201107025146484e+01 -8.380574584007263184e-01 -1.237380355596542358e-01 -2.885386347770690918e-01 8.375869989395141602e-01
1.555000000000000000e+03 3.256877517700195312e+01 -1.473181724548339844e+01 -9.082360863685607910e-01 4.938849508762359619e-01 -1.243053451180458069e-01 2.315500378608703613e-01
1.556000000000000000e+03 1.614992141723632812e+01 7.627611756324768066e-01 -1.233756422996520996e+00 -1.352833032608032227e+00 -7.759768366813659668e-01 1.209633588790893555e+00
1.557000000000000000e+03 1.622762107849121094e+01 2.502666950225830078e+00 -6.084574460983276367e-01 -1.232427000999450684e+00 -5.522653460502624512e-01 9.878203868865966797e-01
1.558000000000000000e+03 2.527383232116699219e+01 -7.002357959747314453e+00 -1.383273243904113770e+00 -4.480915069580078125e-01 -5.494093894958496094e-01 1.014469981193542480e+00
1.559000000000000000e+03 8.876102447509765625e+00 -3.314616680145263672e+00 -9.352641645818948746e-04 3.197263868059962988e-05 -2.709874534048140049e-04 3.274511545896530151e-04
1.560000000000000000e+03 1.050721359252929688e+01 -4.894042491912841797e+00 -1.011277199722826481e-03 1.415558799635618925e-04 -2.609163930173963308e-04 -2.768775157164782286e-04
1.561000000000000000e+03 2.440076637268066406e+01 -4.690532684326171875e+00 -1.332919478416442871e+00 -4.590951502323150635e-01 -5.376043915748596191e-01 8.983895778656005859e-01
1.562000000000000000e+03 1.728756904602050781e+01 9.116150140762329102e-01 -1.007194995880126953e+00 -1.328448414802551270e+00 -7.006930112838745117e-01 1.090378284454345703e+00
1.563000000000000000e+03 2.234420585632324219e+01 -2.381872415542602539e+00 -1.201577901840209961e+00 -8.454592227935791016e-01 -6.141111254692077637e-01 8.979566097259521484e-01
1.564000000000000000e+03 2.127824783325195312e+01 -2.325428009033203125e+00 -1.355814337730407715e+00 -1.158579945564270020e+00 -7.543182373046875000e-01 1.064252018928527832e+00
1.565000000000000000e+03 2.186242103576660156e+01 -2.908108234405517578e+00 -1.392387986183166504e+00 -1.086959719657897949e+00 -7.438043355941772461e-01 1.061556816101074219e+00
1.566000000000000000e+03 1.937021064758300781e+01 -6.296039223670959473e-01 -1.198013067245483398e+00 -1.305318355560302734e+00 -7.509993910789489746e-01 1.081302285194396973e+00
1.567000000000000000e+03 2.563768005371093750e+01 -7.687285423278808594e+00 -1.358880043029785156e+00 -3.964396119117736816e-01 -5.265958905220031738e-01 1.017727375030517578e+00
1.568000000000000000e+03 2.580822944641113281e+01 -9.416413307189941406e+00 -1.258995652198791504e+00 -5.614646077156066895e-01 -5.461381077766418457e-01 1.102085351943969727e+00
1.569000000000000000e+03 4.003686141967773438e+01 -1.758165931701660156e+01 4.543721675872802734e-01 3.275220870971679688e+00 1.118877887725830078e+00 -2.544067621231079102e+00
1.570000000000000000e+03 8.392464637756347656e+00 -5.163703918457031250e+00 -3.067817015107721090e-04 2.387217391515150666e-04 -2.041798870777711272e-05 -7.455138838849961758e-04
1.571000000000000000e+03 5.443527221679687500e+00 -3.583291292190551758e+00 -1.473752781748771667e-04 -1.963551621884107590e-04 -1.031191277434118092e-04 6.761508411727845669e-04
1.572000000000000000e+03 7.981055259704589844e+00 -4.311865806579589844e+00 -4.770042432937771082e-04 -2.512865758035331964e-04 -2.184872428188100457e-04 1.036398229189217091e-03
1.573000000000000000e+03 4.886005401611328125e+00 -4.814718723297119141e+00 -6.586547824554145336e-04 -4.172640910837799311e-04 -3.227756533306092024e-04 1.082643866539001465e-03
1.574000000000000000e+03 4.194982528686523438e+00 -7.058017730712890625e+00 1.901094336062669754e-03 4.326940979808568954e-04 7.001365302130579948e-04 -1.172773045254871249e-04
1.575000000000000000e+03 3.202652692794799805e+00 -6.604496479034423828e+00 -2.092926995828747749e-03 -4.988699220120906830e-04 -7.775390404276549816e-04 4.929935676045715809e-04
1.576000000000000000e+03 2.750946807861328125e+01 -1.090085506439208984e+01 -1.068911790847778320e+00 -5.926936119794845581e-02 -3.384543359279632568e-01 9.573066830635070801e-01
1.577000000000000000e+03 2.713640213012695312e+01 -1.026410579681396484e+01 -1.139141321182250977e+00 -1.151732057332992554e-01 -3.762943744659423828e-01 9.770286083221435547e-01
1.578000000000000000e+03 1.282345581054687500e+01 3.564477443695068359e+00 -5.314105153083801270e-01 -1.080972671508789062e+00 -4.837149679660797119e-01 1.035979151725769043e+00
1.579000000000000000e+03 1.317234516143798828e+01 2.432279825210571289e+00 -9.043403863906860352e-01 -1.100273251533508301e+00 -6.013841032981872559e-01 1.089873194694519043e+00
1.580000000000000000e+03 2.675720977783203125e+01 -9.630886077880859375e+00 -1.201014161109924316e+00 -1.809642314910888672e-01 -4.145935177803039551e-01 9.937916994094848633e-01
1.581000000000000000e+03 1.070492362976074219e+01 3.353793144226074219e+00 -6.595788598060607910e-01 -8.491027951240539551e-01 -4.526045024394989014e-01 9.987640976905822754e-01
1.582000000000000000e+03 2.491302108764648438e+01 -6.275332927703857422e+00 -1.407240271568298340e+00 -5.020214319229125977e-01 -5.727785229682922363e-01 9.978699088096618652e-01
1.583000000000000000e+03 9.372505187988281250e+00 -4.122659683227539062e+00 -1.049606828019022942e-03 2.945552696473896503e-04 -2.265154616907238960e-04 -6.383397267200052738e-04
1.584000000000000000e+03 2.365586090087890625e+01 -4.530959606170654297e+00 -1.399711132049560547e+00 -7.222427129745483398e-01 -6.365861892700195312e-01 9.956158995628356934e-01
1.585000000000000000e+03 2.300430297851562500e+01 -4.036349296569824219e+00 -1.428131818771362305e+00 -9.042942523956298828e-01 -6.997278332710266113e-01 1.040361166000366211e+00
1.586000000000000000e+03 1.771777153015136719e+01 1.530883312225341797e+00 -7.435269355773925781e-01 -1.240566968917846680e+00 -5.952281355857849121e-01 9.683462977409362793e-01
1.587000000000000000e+03 1.869453620910644531e+01 -9.855552017688751221e-02 -1.137551546096801758e+00 -1.328144431114196777e+00 -7.397087812423706055e-01 1.085175514221191406e+00
1.588000000000000000e+03 1.799956893920898438e+01 4.156560599803924561e-01 -1.070526361465454102e+00 -1.336001157760620117e+00 -7.219582200050354004e-01 1.091344237327575684e+00
1.589000000000000000e+03 1.581613731384277344e+01 1.848667740821838379e+00 -8.708269000053405762e-01 -1.276093006134033203e+00 -6.440759897232055664e-01 1.084641814231872559e+00
1.590000000000000000e+03 1.506472682952880859e+01 2.295593023300170898e+00 -7.913278937339782715e-01 -1.237820744514465332e+00 -6.087445616722106934e-01 1.076307892799377441e+00
1.591000000000000000e+03 2.066505813598632812e+01 -1.746247291564941406e+00 -1.310689926147460938e+00 -1.217551589012145996e+00 -7.584724426269531250e-01 1.069019079208374023e+00
1.592000000000000000e+03 2.002716255187988281e+01 -1.178955435752868652e+00 -1.257155299186706543e+00 -1.269801855087280273e+00 -7.580871582031250000e-01 1.074068307876586914e+00
1.593000000000000000e+03 1.431336498260498047e+01 2.730715036392211914e+00 -7.141375541687011719e-01 -1.188241600990295410e+00 -5.707137584686279297e-01 1.062141895294189453e+00
1.594000000000000000e+03 4.412631607055664062e+01 -2.623698997497558594e+01 6.656618416309356689e-02 9.329769134521484375e+00 2.818900823593139648e+00 6.224416494369506836e-01
1.595000000000000000e+03 1.037631988525390625e+01 4.363569259643554688e+00 -4.106457829475402832e-01 -8.427943587303161621e-01 -3.760320544242858887e-01 9.792409539222717285e-01
1.596000000000000000e+03 9.593646049499511719e+00 3.993914604187011719e+00 -4.833673238754272461e-01 -7.273184061050415039e-01 -3.632057309150695801e-01 9.383346438407897949e-01
1.597000000000000000e+03 3.142554473876953125e+01 -1.549026489257812500e+01 -1.052382707595825195e+00 1.983646899461746216e-01 -2.562054097652435303e-01 4.455195665359497070e-01
1.598000000000000000e+03 2.909088134765625000e+01 -1.231035137176513672e+01 -9.261239171028137207e-01 1.876977533102035522e-01 -2.215278446674346924e-01 7.871788144111633301e-01
1.599000000000000000e+03 6.798484039306640625e+01 -1.891558074951171875e+01 -6.952182650566101074e-01 1.631206631660461426e+00 2.807965278625488281e-01 1.419367492198944092e-01
1.600000000000000000e+03 5.950382614135742188e+01 -2.169263839721679688e+01 8.066137433052062988e-01 1.561035394668579102e+00 7.102947235107421875e-01 2.188668489456176758e+00
1.601000000000000000e+03 4.480819702148437500e+01 -2.679889297485351562e+01 3.229492902755737305e-01 9.066457748413085938e+00 2.816822052001953125e+00 2.241595536470413208e-01
1.602000000000000000e+03 3.025152587890625000e+01 -1.447585678100585938e+01 -9.487435221672058105e-01 1.575761437416076660e-01 -2.373502105474472046e-01 6.070638298988342285e-01
1.603000000000000000e+03 1.270383167266845703e+01 -1.132569503784179688e+01 -9.614853770472109318e-04 -1.863974262960255146e-03 -8.476378861814737320e-04 1.331599632976576686e-04
1.604000000000000000e+03 8.002487182617187500e+00 -1.392364215850830078e+01 -2.440687501803040504e-03 4.270708013791590929e-04 -6.040849839337170124e-04 -6.877881241962313652e-04
1.605000000000000000e+03 6.550762939453125000e+01 -1.602356910705566406e+01 1.535017788410186768e-01 2.590830087661743164e+00 8.232995867729187012e-01 1.365447402000427246e+00
1.606000000000000000e+03 4.303058624267578125e+01 -2.051820993423461914e+00 -1.762385666370391846e-01 5.859982967376708984e+00 1.705123305320739746e+00 -1.655605316162109375e+00
1.607000000000000000e+03 4.555066680908203125e+01 -5.235842704772949219e+00 -3.588477373123168945e-01 5.538326740264892578e+00 1.553843736648559570e+00 -1.400936007499694824e+00
1.608000000000000000e+03 4.422129440307617188e+01 2.992954826354980469e+01 -1.827275454998016357e-01 3.746222257614135742e+00 1.069048404693603516e+00 6.870687007904052734e-01
1.609000000000000000e+03 3.460498809814453125e+01 -1.503539657592773438e+01 -7.532042264938354492e-01 7.764166593551635742e-01 6.963745225220918655e-03 -3.056222200393676758e-01
1.610000000000000000e+03 4.514781188964843750e+01 -4.063495159149169922e+00 -2.043635398149490356e-01 5.630467414855957031e+00 1.627831220626831055e+00 -1.593646287918090820e+00
1.611000000000000000e+03 4.633697128295898438e+01 -3.841919898986816406e+00 4.946748539805412292e-02 5.545736789703369141e+00 1.678561329841613770e+00 -1.724214196205139160e+00
1.612000000000000000e+03 3.555866241455078125e+01 -1.614484786987304688e+01 -7.588394880294799805e-01 5.761007666587829590e-01 -5.482161790132522583e-02 -5.076510906219482422e-01
1.613000000000000000e+03 3.356464385986328125e+01 -1.487128353118896484e+01 -8.761584758758544922e-01 5.974569320678710938e-01 -8.361046761274337769e-02 2.024083584547042847e-02
1.614000000000000000e+03 4.399122238159179688e+01 -4.295979976654052734e+00 -4.324107766151428223e-01 5.628795146942138672e+00 1.558915376663208008e+00 -1.472392797470092773e+00
1.615000000000000000e+03 1.031244468688964844e+01 -1.331254386901855469e+01 -4.419434408191591501e-04 2.004529233090579510e-04 -7.244715379783883691e-05 -1.538683311082422733e-03
1.616000000000000000e+03 4.363142395019531250e+01 -5.897385478019714355e-01 1.570674926042556763e-01 6.112007141113281250e+00 1.880722403526306152e+00 -1.952223181724548340e+00
1.617000000000000000e+03 4.535772323608398438e+01 -2.791953277587890625e+01 9.971910119056701660e-01 7.755437850952148438e+00 2.625788688659667969e+00 -2.184692323207855225e-01
1.618000000000000000e+03 7.247383880615234375e+01 1.182068729400634766e+01 -4.239396750926971436e-01 9.473241806030273438e+00 2.714790582656860352e+00 4.866971969604492188e-01
1.619000000000000000e+03 4.856659317016601562e+01 3.434301376342773438e+01 -5.673962831497192383e-01 2.064541816711425781e+00 4.491436779499053955e-01 4.804520308971405029e-01
1.620000000000000000e+03 7.258692169189453125e+01 3.228919744491577148e+00 7.000257372856140137e-01 1.097250461578369141e+01 3.501759052276611328e+00 8.051289319992065430e-01
1.621000000000000000e+03 4.951219940185546875e+01 -1.249768543243408203e+01 -1.999103188514709473e+00 4.532605171203613281e+00 7.600506544113159180e-01 7.198903560638427734e-01
1.622000000000000000e+03 7.069527435302734375e+01 -1.642769241333007812e+01 -3.365440368652343750e-01 4.544941902160644531e+00 1.262519359588623047e+00 -6.796175837516784668e-01
1.623000000000000000e+03 7.543112945556640625e+01 -7.247254252433776855e-01 4.781726002693176270e-01 7.484416961669921875e+00 2.388776779174804688e+00 -1.032041311264038086e-01
1.624000000000000000e+03 7.711308288574218750e+01 1.649694323539733887e+00 2.382472008466720581e-01 6.242479801177978516e+00 1.944218158721923828e+00 1.425355821847915649e-01
1.625000000000000000e+03 7.405751800537109375e+01 4.436707496643066406e+00 5.888680815696716309e-01 9.305790901184082031e+00 2.968397617340087891e+00 7.987549304962158203e-01
1.626000000000000000e+03 7.543156433105468750e+01 4.339201927185058594e+00 4.426825344562530518e-01 8.023303985595703125e+00 2.539796113967895508e+00 7.125716805458068848e-01
1.627000000000000000e+03 7.377539062500000000e+01 3.048409700393676758e+00 7.053869366645812988e-01 9.539743423461914062e+00 3.073539257049560547e+00 6.960507035255432129e-01
1.628000000000000000e+03 7.248022460937500000e+01 1.797689914703369141e+00 9.414533972740173340e-01 1.082306289672851562e+01 3.529355049133300781e+00 7.941134572029113770e-01
1.629000000000000000e+03 7.698766326904296875e+01 8.733201980590820312e+00 -2.304760739207267761e-03 7.262975215911865234e+00 2.178201198577880859e+00 8.353304862976074219e-01
1.630000000000000000e+03 7.409476470947265625e+01 6.047033786773681641e+00 3.657505214214324951e-01 9.229754447937011719e+00 2.878651380538940430e+00 9.002107381820678711e-01
1.631000000000000000e+03 7.618685913085937500e+01 1.024652576446533203e+01 -9.691460430622100830e-02 7.932797908782958984e+00 2.350764989852905273e+00 8.883514404296875000e-01
1.632000000000000000e+03 7.564555358886718750e+01 -8.094638824462890625e+00 5.350768193602561951e-02 6.709827423095703125e+00 2.029000520706176758e+00 -6.328196525573730469e-01
1.633000000000000000e+03 7.236022186279296875e+01 -4.536763191223144531e+00 3.055220246315002441e-01 8.606118202209472656e+00 2.673491954803466797e+00 3.357255756855010986e-01
1.634000000000000000e+03 7.627934265136718750e+01 1.125621604919433594e+01 -1.277841925621032715e-01 7.935794830322265625e+00 2.342403173446655273e+00 7.984645366668701172e-01
1.635000000000000000e+03 7.250283813476562500e+01 1.041519737243652344e+01 -4.419429600238800049e-01 9.853023529052734375e+00 2.823324203491210938e+00 7.108133435249328613e-01
1.636000000000000000e+03 7.546622467041015625e+01 -5.339111328125000000e+00 1.235974505543708801e-01 7.014032363891601562e+00 2.141288995742797852e+00 -5.092757940292358398e-01
1.637000000000000000e+03 7.405378723144531250e+01 -3.593160390853881836e+00 3.375539481639862061e-01 7.955559730529785156e+00 2.487934112548828125e+00 -2.032155692577362061e-01
1.638000000000000000e+03 7.349005889892578125e+01 1.852917098999023438e+01 7.387048006057739258e-02 8.653420448303222656e+00 2.618187427520751953e+00 7.508779764175415039e-01
1.639000000000000000e+03 7.344497680664062500e+01 1.617514419555664062e+01 4.146571084856987000e-02 8.751222610473632812e+00 2.637806415557861328e+00 6.621215939521789551e-01
1.640000000000000000e+03 7.419842529296875000e+01 1.953116798400878906e+01 8.258648961782455444e-02 8.569212913513183594e+00 2.595539808273315430e+00 7.369632720947265625e-01
1.641000000000000000e+03 7.506670379638671875e+01 1.865139579772949219e+01 6.830446422100067139e-02 8.547772407531738281e+00 2.584822893142700195e+00 7.690316438674926758e-01
1.642000000000000000e+03 7.555883026123046875e+01 -1.504964256286621094e+01 -2.906940579414367676e-01 6.757113933563232422e+00 1.939925909042358398e+00 -6.106202602386474609e-01
1.643000000000000000e+03 7.005973815917968750e+01 -1.022439479827880859e+01 5.476536750793457031e-01 6.020582199096679688e+00 1.970470786094665527e+00 6.663383841514587402e-01
1.644000000000000000e+03 7.551567840576171875e+01 -1.224547290802001953e+01 -5.319158732891082764e-02 6.608559131622314453e+00 1.966610312461853027e+00 -6.993548870086669922e-01
1.645000000000000000e+03 7.678663635253906250e+01 -2.263847160339355469e+01 -1.592326015233993530e-01 7.316761970520019531e+00 2.147258758544921875e+00 8.847467303276062012e-01
1.646000000000000000e+03 7.550544738769531250e+01 -1.645511054992675781e+01 -4.736200869083404541e-01 6.885810852050781250e+00 1.923657298088073730e+00 -4.518005847930908203e-01
1.647000000000000000e+03 7.612753295898437500e+01 -2.769157409667968750e+01 7.225524187088012695e-01 7.053690910339355469e+00 2.332872867584228516e+00 1.136638149619102478e-01
1.648000000000000000e+03 7.387546539306640625e+01 -2.233534812927246094e+01 -8.110491037368774414e-01 7.899686813354492188e+00 2.126591205596923828e+00 6.232793331146240234e-01
1.649000000000000000e+03 7.726039123535156250e+01 -1.938252067565917969e+01 -3.394377231597900391e-01 7.457800388336181641e+00 2.135508775711059570e+00 2.429702579975128174e-01
1.650000000000000000e+03 7.479467010498046875e+01 -2.164349937438964844e+01 -8.058621883392333984e-01 7.525262832641601562e+00 2.015820264816284180e+00 7.283962965011596680e-01
1.651000000000000000e+03 7.479565429687500000e+01 -1.912856864929199219e+01 -9.789705872535705566e-01 7.143156528472900391e+00 1.849255800247192383e+00 -8.887206017971038818e-02
1.652000000000000000e+03 7.307049560546875000e+01 -1.630951499938964844e+01 -6.099445819854736328e-01 5.927035808563232422e+00 1.595127344131469727e+00 -8.013831377029418945e-01
1.653000000000000000e+03 7.518415069580078125e+01 -2.682476043701171875e+01 1.080637216567993164e+00 7.671987533569335938e+00 2.625787496566772461e+00 3.843949437141418457e-01
1.654000000000000000e+03 7.476485443115234375e+01 -2.505441665649414062e+01 9.254849553108215332e-01 8.038484573364257812e+00 2.689190864562988281e+00 7.452629208564758301e-01
1.655000000000000000e+03 7.551634979248046875e+01 -2.421437072753906250e+01 4.172351956367492676e-01 7.451005458831787109e+00 2.360472202301025391e+00 1.038941860198974609e+00
1.656000000000000000e+03 7.424860382080078125e+01 3.564389801025390625e+01 -3.816517889499664307e-01 7.877628326416015625e+00 2.248792886734008789e+00 8.912994712591171265e-02
1.657000000000000000e+03 7.082130432128906250e+01 3.400747680664062500e+01 -9.218381643295288086e-01 5.089862346649169922e+00 1.250407218933105469e+00 -1.791534759104251862e-02
1.658000000000000000e+03 7.684145355224609375e+01 3.311428070068359375e+01 -2.033533751964569092e-01 1.015704536437988281e+01 2.986107587814331055e+00 3.589493632316589355e-01
1.659000000000000000e+03 7.326748657226562500e+01 2.339311981201171875e+01 2.080078423023223877e-01 8.130881309509277344e+00 2.501666784286499023e+00 7.212747335433959961e-01
1.660000000000000000e+03 7.364343261718750000e+01 2.660080337524414062e+01 -1.206886721774935722e-03 7.920112133026123047e+00 2.375671625137329102e+00 8.879932165145874023e-01
1.661000000000000000e+03 4.697620010375976562e+01 -1.094144535064697266e+01 -1.686424136161804199e+00 5.807474613189697266e+00 1.236315131187438965e+00 -1.598060727119445801e-01
1.662000000000000000e+03 7.664571380615234375e+01 2.695548248291015625e+01 -2.524330466985702515e-02 9.352663993835449219e+00 2.798226356506347656e+00 8.407713174819946289e-01
1.663000000000000000e+03 7.441567993164062500e+01 2.361033058166503906e+01 1.422244459390640259e-01 8.408411026000976562e+00 2.565190553665161133e+00 8.471302986145019531e-01
1.664000000000000000e+03 7.325462341308593750e+01 -3.238237380981445312e+01 -5.983541905879974365e-02 6.904912948608398438e+00 2.053523302078247070e+00 1.890909969806671143e-01
1.665000000000000000e+03 7.468235778808593750e+01 -3.497819900512695312e+01 -3.802378475666046143e-01 6.499704360961914062e+00 1.835839867591857910e+00 -1.741987019777297974e-01
1.666000000000000000e+03 7.641852569580078125e+01 -3.559783172607421875e+01 -2.065742611885070801e-01 6.749517440795898438e+00 1.962882995605468750e+00 -2.875168919563293457e-01
1.667000000000000000e+03 7.668260192871093750e+01 3.000981712341308594e+01 -1.695872247219085693e-01 9.707596778869628906e+00 2.861402750015258789e+00 6.838098764419555664e-01
1.668000000000000000e+03 7.536112976074218750e+01 2.714890480041503906e+01 -4.989663511514663696e-02 8.702263832092285156e+00 2.595710039138793945e+00 9.177987575531005859e-01
1.669000000000000000e+03 7.603728485107421875e+01 -3.248336029052734375e+01 -1.057331562042236328e-01 6.973118782043457031e+00 2.060215711593627930e+00 -5.214576125144958496e-01
1.670000000000000000e+03 7.538510894775390625e+01 -3.156097221374511719e+01 1.407862603664398193e-01 7.118638515472412109e+00 2.177827358245849609e+00 -5.018349885940551758e-01
1.671000000000000000e+03 7.389562225341796875e+01 -3.080624961853027344e+01 4.045856297016143799e-01 7.533664226531982422e+00 2.381474971771240234e+00 -2.086228430271148682e-01
1.672000000000000000e+03 7.643666839599609375e+01 -3.138741111755371094e+01 9.203371405601501465e-02 6.880581855773925781e+00 2.091784715652465820e+00 -4.785111546516418457e-01
1.673000000000000000e+03 7.162417602539062500e+01 3.056408500671386719e+01 -7.932915091514587402e-01 6.096093654632568359e+00 1.590840697288513184e+00 4.774202704429626465e-01
1.674000000000000000e+03 7.538765716552734375e+01 3.028388214111328125e+01 -2.981554567813873291e-01 8.865639686584472656e+00 2.570245265960693359e+00 7.193866968154907227e-01
1.675000000000000000e+03 6.594717407226562500e+01 -1.415001964569091797e+01 9.212676286697387695e-01 3.231854915618896484e+00 1.245936751365661621e+00 1.292892098426818848e+00
1.676000000000000000e+03 7.243920135498046875e+01 2.503613829612731934e-01 9.714322686195373535e-01 1.046257877349853516e+01 3.430203437805175781e+00 6.628617644309997559e-01
1.677000000000000000e+03 7.229147338867187500e+01 1.602114105224609375e+01 1.516018211841583252e-01 8.878209114074707031e+00 2.708943128585815430e+00 6.328058838844299316e-01
1.678000000000000000e+03 7.355171966552734375e+01 1.480701065063476562e+01 -2.647232078015804291e-02 8.808619499206542969e+00 2.634644031524658203e+00 6.653752923011779785e-01
1.679000000000000000e+03 7.239179992675781250e+01 1.876934242248535156e+01 6.166568025946617126e-02 8.686512947082519531e+00 2.624453544616699219e+00 6.364221572875976562e-01
1.680000000000000000e+03 7.227223968505859375e+01 1.737721061706542969e+01 6.507710367441177368e-02 8.895052909851074219e+00 2.688039064407348633e+00 6.754310727119445801e-01
1.681000000000000000e+03 4.639348983764648438e+01 3.248735046386718750e+01 -4.155430197715759277e-01 2.923988103866577148e+00 7.525335550308227539e-01 6.477302312850952148e-01
1.682000000000000000e+03 4.733268737792968750e+01 -7.551312923431396484e+00 -4.979915320873260498e-01 5.304984092712402344e+00 1.442097783088684082e+00 -8.889849185943603516e-01
1.683000000000000000e+03 4.605959701538085938e+01 -9.709512710571289062e+00 -1.428092479705810547e+00 5.802999496459960938e+00 1.312472105026245117e+00 -5.698699355125427246e-01
1.684000000000000000e+03 4.223336219787597656e+00 -1.445685958862304688e+01 2.888948190957307816e-03 -1.116707935580052435e-04 8.331832359544932842e-04 1.944339601323008537e-04
1.685000000000000000e+03 4.743512153625488281e+00 2.149239730834960938e+01 8.679526299238204956e-02 -1.363292098045349121e+00 -3.829490542411804199e-01 1.286386698484420776e-01
1.686000000000000000e+03 6.748955249786376953e+00 -2.091380119323730469e+01 3.601680276915431023e-03 8.379877544939517975e-04 1.331900362856686115e-03 -3.472191747277975082e-04
1.687000000000000000e+03 3.316004276275634766e+00 -1.897565078735351562e+01 3.385106567293405533e-03 7.407543016597628593e-04 1.237758318893611431e-03 1.133149344241246581e-04
1.688000000000000000e+03 5.180772304534912109e+00 -1.807432365417480469e+01 6.154707079986110330e-05 4.142062389291822910e-04 1.427259994670748711e-04 -1.018195995129644871e-03
1.689000000000000000e+03 5.774140357971191406e+00 -2.623057937622070312e+01 4.430158529430627823e-03 -1.961860689334571362e-04 1.270191743969917297e-03 -1.484607346355915070e-03
1.690000000000000000e+03 5.381663322448730469e+00 -2.210226440429687500e+01 2.805836033076047897e-03 1.479963073506951332e-03 1.285739708691835403e-03 -3.494487027637660503e-04
1.691000000000000000e+03 7.268776416778564453e+00 -1.743613624572753906e+01 -5.063226912170648575e-03 -2.878610102925449610e-04 -1.605326309800148010e-03 3.940642636734992266e-04
1.692000000000000000e+03 5.820838928222656250e+00 -1.951219558715820312e+01 3.125238930806517601e-03 8.632987155579030514e-04 1.196561264805495739e-03 2.851397439371794462e-04
1.693000000000000000e+03 6.106055736541748047e+00 -1.846023750305175781e+01 -4.351388197392225266e-03 2.076839009532704949e-04 -1.243111328221857548e-03 -3.129027318209409714e-04
1.694000000000000000e+03 2.874659776687622070e+00 -2.611319541931152344e+01 -6.194722838699817657e-03 1.608651247806847095e-03 -1.375821419060230255e-03 -1.347506913589313626e-04
1.695000000000000000e+03 5.222172737121582031e+00 -2.342679595947265625e+01 -2.242893446236848831e-03 -2.073704963549971581e-03 -1.294979476369917393e-03 2.117235708283260465e-04
1.696000000000000000e+03 5.075236320495605469e+00 -2.465989875793457031e+01 1.514367642812430859e-03 2.396002644672989845e-03 1.173111144453287125e-03 -1.102289068512618542e-03
1.697000000000000000e+03 4.437455177307128906e+00 -2.787319755554199219e+01 2.490079030394554138e-03 2.930321963503956795e-03 1.626120298169553280e-03 2.609904156997799873e-03
1.698000000000000000e+03 3.244631052017211914e+00 2.023724937438964844e+01 4.995719343423843384e-02 -1.541166782379150391e+00 -4.473628997802734375e-01 1.312010437250137329e-01
1.699000000000000000e+03 4.815579891204833984e+00 2.295806312561035156e+01 7.793260365724563599e-02 -1.370995402336120605e+00 -3.879188597202301025e-01 8.938700705766677856e-02
1.700000000000000000e+03 4.757790088653564453e+00 2.592676544189453125e+01 5.121666193008422852e-02 -1.394027829170227051e+00 -4.028433263301849365e-01 1.765575632452964783e-02
1.701000000000000000e+03 4.427958965301513672e+00 2.984044265747070312e+01 1.739821769297122955e-02 -1.441773533821105957e+00 -4.273126125335693359e-01 -4.033301398158073425e-02
1.702000000000000000e+03 4.268667221069335938e+00 1.726669120788574219e+01 9.458769857883453369e-02 -1.302849531173706055e+00 -3.624785542488098145e-01 2.703327834606170654e-01
1.703000000000000000e+03 4.413200378417968750e+00 1.865286064147949219e+01 9.438783675432205200e-02 -1.334798574447631836e+00 -3.721232414245605469e-01 2.223836481571197510e-01
1.704000000000000000e+03 3.146626710891723633e+00 1.882282447814941406e+01 5.490096658468246460e-02 -1.500861048698425293e+00 -4.337880313396453857e-01 1.709127128124237061e-01
1.705000000000000000e+03 4.586634159088134766e+00 2.006475067138671875e+01 9.798194468021392822e-02 -1.352687120437622070e+00 -3.764115273952484131e-01 1.767818033695220947e-01
1.706000000000000000e+03 2.924988746643066406e+00 1.465152072906494141e+01 4.520405456423759460e-02 -1.282574534416198730e+00 -3.712111413478851318e-01 2.809578180313110352e-01
1.707000000000000000e+03 4.018331050872802734e+00 1.319648838043212891e+01 7.450624555349349976e-02 -1.104310750961303711e+00 -3.089413642883300781e-01 4.035030007362365723e-01
1.708000000000000000e+03 4.078221321105957031e+00 1.455968952178955078e+01 8.525027334690093994e-02 -1.186288475990295410e+00 -3.303114473819732666e-01 3.612534105777740479e-01
1.709000000000000000e+03 4.669703006744384766e+00 2.733417129516601562e+01 3.942708298563957214e-02 -1.413530707359313965e+00 -4.122310578823089600e-01 -6.342915818095207214e-03
1.710000000000000000e+03 4.806079864501953125e+00 2.445560646057128906e+01 6.918707489967346191e-02 -1.381693840026855469e+00 -3.937520384788513184e-01 4.733543843030929565e-02
1.711000000000000000e+03 3.956301212310791016e+00 -1.058580875396728516e+01 -2.157788723707199097e-03 -1.246568281203508377e-04 -6.847336771897971630e-04 -1.592700573382899165e-04
1.712000000000000000e+03 3.939871549606323242e+00 -9.342708587646484375e+00 2.007686067372560501e-03 2.692379639483988285e-04 6.830772035755217075e-04 -4.560264642350375652e-05
1.713000000000000000e+03 4.106343746185302734e+00 -1.315947914123535156e+01 -2.645011991262435913e-03 1.366657816106453538e-04 -7.525038672611117363e-04 -2.536115352995693684e-04
1.714000000000000000e+03 5.099711418151855469e+00 1.182955741882324219e+01 9.514652937650680542e-02 -9.759971499443054199e-01 -2.642551660537719727e-01 5.176577568054199219e-01
1.715000000000000000e+03 6.093607902526855469e+00 3.555134201049804688e+01 -5.156179890036582947e-03 -1.081687450408935547e+00 -3.260530829429626465e-01 -5.919962748885154724e-02
1.716000000000000000e+03 5.312794685363769531e+00 3.197618675231933594e+01 9.269812144339084625e-03 -1.268568396568298340e+00 -3.777895867824554443e-01 -5.938353389501571655e-02
1.717000000000000000e+03 3.628695011138916016e+00 -3.152069854736328125e+01 -7.211216725409030914e-03 -1.888158003566786647e-04 -2.220009686425328255e-03 1.132347504608333111e-03
1.718000000000000000e+03 4.015599250793457031e+00 -1.186610507965087891e+01 2.387209329754114151e-03 -3.362404095241799951e-05 7.060755742713809013e-04 2.243535127490758896e-04
1.719000000000000000e+03 3.981043338775634766e+00 1.181499290466308594e+01 6.607355177402496338e-02 -1.008914470672607422e+00 -2.828522622585296631e-01 4.456609785556793213e-01
1.720000000000000000e+03 4.678583621978759766e+00 -6.165727615356445312e+00 -2.229166449978947639e-03 1.772774994606152177e-04 -6.155666778795421124e-04 5.241124890744686127e-04
1.721000000000000000e+03 5.232793807983398438e+00 3.447629928588867188e+01 -4.986827727407217026e-03 -1.248856902122497559e+00 -3.761531412601470947e-01 -5.654713511466979980e-02
1.722000000000000000e+03 3.512445449829101562e+00 3.564318847656250000e+01 3.052072785794734955e-02 -1.566105365753173828e+00 -4.606753885746002197e-01 -2.780318818986415863e-02
1.723000000000000000e+03 3.780491352081298828e+00 3.268276214599609375e+01 5.446414463222026825e-03 -1.497942090034484863e+00 -4.477486908435821533e-01 -4.345878958702087402e-02
1.724000000000000000e+03 4.647179126739501953e+00 3.087579154968261719e+01 1.100340951234102249e-02 -1.395121574401855469e+00 -4.152354598045349121e-01 -4.919551312923431396e-02
1.725000000000000000e+03 5.403100013732910156e+00 -3.442058181762695312e+01 2.797796158120036125e-03 3.038901777472347021e-04 9.305058629252016544e-04 -4.878802224993705750e-03
1.726000000000000000e+03 4.794666290283203125e+00 -3.000474166870117188e+01 -6.820661015808582306e-03 1.646794960834085941e-03 -1.552159897983074188e-03 1.608984428457915783e-03
1.727000000000000000e+03 4.987347126007080078e+00 -3.132357597351074219e+01 8.714093826711177826e-03 -1.685088849626481533e-03 2.108701504766941071e-03 -1.587769947946071625e-03
1.728000000000000000e+03 3.829459428787231445e+00 8.996430397033691406e+00 1.197042502462863922e-02 -7.704035639762878418e-01 -2.275299429893493652e-01 4.817265272140502930e-01
1.729000000000000000e+03 3.915776491165161133e+00 -5.504642486572265625e+00 1.452615135349333286e-03 2.770420687738806009e-04 5.188971408642828465e-04 -1.045369426719844341e-03
1.730000000000000000e+03 3.484172582626342773e+00 -3.682103347778320312e+01 9.130491525866091251e-04 1.428114192094653845e-04 3.167581744492053986e-04 1.710906391963362694e-03
1.731000000000000000e+03 5.245493412017822266e+00 -3.600563812255859375e+01 -1.288456493057310581e-03 -5.762644112110137939e-03 -2.115330193191766739e-03 2.091828268021345139e-03
1.732000000000000000e+03 3.669442749023437500e+01 -1.621734809875488281e+01 -5.992394685745239258e-01 1.061201214790344238e+00 1.385885477066040039e-01 -1.065601825714111328e+00
1.733000000000000000e+03 3.773194503784179688e+01 -1.432580852508544922e+01 -6.912300586700439453e-01 2.555133581161499023e+00 5.591710805892944336e-01 -1.553851962089538574e+00
1.734000000000000000e+03 7.270945739746093750e+01 -2.029257202148437500e+01 -1.742037415504455566e+00 6.859975814819335938e+00 1.535381436347961426e+00 -3.548434078693389893e-01
1.735000000000000000e+03 6.997748565673828125e+01 3.195158195495605469e+01 -1.119019746780395508e+00 4.308832645416259766e+00 9.569438695907592773e-01 1.381068527698516846e-01
1.736000000000000000e+03 1.561478900909423828e+01 -7.773678302764892578e+00 -2.553786907810717821e-04 -8.296158193843439221e-05 -1.015020825434476137e-04 4.607135779224336147e-04
1.737000000000000000e+03 4.057600784301757812e+01 5.367721557617187500e+00 1.084241747856140137e+00 7.663095951080322266e+00 2.624201297760009766e+00 -1.520087838172912598e+00
1.738000000000000000e+03 4.246440505981445312e+01 1.736321091651916504e+00 4.083850383758544922e-01 6.701657772064208984e+00 2.133012771606445312e+00 -2.001717567443847656e+00
1.739000000000000000e+03 5.502212142944335938e+01 -2.119737052917480469e+01 1.160170316696166992e+00 7.164122462272644043e-01 5.629747509956359863e-01 5.590363144874572754e-01
1.740000000000000000e+03 7.278376007080078125e+01 -1.085121822357177734e+01 1.235508024692535400e-01 6.400498390197753906e+00 1.957214832305908203e+00 -3.493495881557464600e-01
1.741000000000000000e+03 7.118512725830078125e+01 -4.216040611267089844e+00 4.957070946693420410e-01 9.150418281555175781e+00 2.893837690353393555e+00 9.832777976989746094e-01
1.742000000000000000e+03 7.165097045898437500e+01 -2.806925773620605469e+00 5.443897247314453125e-01 9.825403213500976562e+00 3.110937833786010742e+00 8.484594821929931641e-01
1.743000000000000000e+03 7.350205993652343750e+01 -7.341113567352294922e+00 1.308414638042449951e-01 7.287714958190917969e+00 2.225566864013671875e+00 -2.383199334144592285e-01
1.744000000000000000e+03 7.140155029296875000e+01 -1.062390518188476562e+01 2.852192521095275879e-01 6.240405559539794922e+00 1.957687377929687500e+00 4.060265049338340759e-02
1.745000000000000000e+03 6.738715171813964844e+00 -2.784768867492675781e+01 4.625692497938871384e-03 -6.224743556231260300e-04 1.200965372845530510e-03 -2.733869012445211411e-03
1.746000000000000000e+03 6.119856357574462891e+00 -2.492224884033203125e+01 -3.237227676436305046e-03 -1.571216038428246975e-03 -1.442533102817833424e-03 1.754838507622480392e-03
1.747000000000000000e+03 4.764363479614257812e+01 -1.230191612243652344e+01 -2.111275434494018555e+00 5.912482738494873047e+00 1.140362262725830078e+00 2.216934561729431152e-01
1.748000000000000000e+03 4.897042465209960938e+01 -1.177270030975341797e+01 -1.633422493934631348e+00 4.846190929412841797e+00 9.638305306434631348e-01 4.903703331947326660e-01
1.749000000000000000e+03 3.622398757934570312e+01 1.918966674804687500e+01 9.349108934402465820e-01 5.410959243774414062e+00 1.903761029243469238e+00 -6.568694114685058594e-01
1.750000000000000000e+03 3.962826156616210938e+01 1.728517532348632812e+01 8.546034693717956543e-01 7.611984252929687500e+00 2.539976358413696289e+00 2.149942331016063690e-02
1.751000000000000000e+03 7.137425231933593750e+01 -7.446994781494140625e+00 3.006804883480072021e-01 7.464922428131103516e+00 2.329680919647216797e+00 4.849967360496520996e-01
1.752000000000000000e+03 5.873712062835693359e+00 -1.662124824523925781e+01 -3.502391511574387550e-03 -7.542141975136473775e-05 -1.073343912139534950e-03 5.822992534376680851e-04
1.753000000000000000e+03 6.972984313964843750e+01 -1.149846172332763672e+01 5.644084811210632324e-01 5.468829631805419922e+00 1.809971451759338379e+00 5.319181084632873535e-01
1.754000000000000000e+03 3.919472503662109375e+01 2.081314468383789062e+01 6.209714412689208984e-01 6.143680572509765625e+00 2.029395580291748047e+00 7.558631151914596558e-02
1.755000000000000000e+03 3.809966278076171875e+01 1.787349128723144531e+01 9.537985324859619141e-01 6.480771064758300781e+00 2.230370759963989258e+00 -4.172751903533935547e-01
1.756000000000000000e+03 5.314525222778320312e+01 -1.781067848205566406e+01 -2.087609291076660156e+00 5.173425674438476562e-01 -4.710800051689147949e-01 1.640222668647766113e-01
1.757000000000000000e+03 5.395157241821289062e+01 -1.875684547424316406e+01 -1.158626198768615723e+00 6.334043294191360474e-02 -3.285857439041137695e-01 8.122161030769348145e-03
1.758000000000000000e+03 4.107214927673339844e+00 -2.334919548034667969e+01 3.339397488161921501e-03 1.352562336251139641e-03 1.407588017173111439e-03 9.277260978706181049e-04
1.759000000000000000e+03 5.553796005249023438e+01 -2.331954383850097656e+01 2.123276472091674805e+00 1.948809027671813965e+00 1.221625685691833496e+00 6.438652276992797852e-01
1.760000000000000000e+03 7.356968688964843750e+01 -2.969807624816894531e+01 7.068250775337219238e-01 7.945896625518798828e+00 2.595816612243652344e+00 1.173380017280578613e-01
1.761000000000000000e+03 7.420503997802734375e+01 2.753320884704589844e+01 -1.206102818250656128e-01 8.116708755493164062e+00 2.398829698562622070e+00 9.373022317886352539e-01
1.762000000000000000e+03 7.503881072998046875e+01 3.858583450317382812e+01 -1.925109177827835083e-01 8.683817863464355469e+00 2.547392129898071289e+00 9.921558201313018799e-02
1.763000000000000000e+03 5.892429351806640625e+01 -2.273436164855957031e+01 1.769696116447448730e+00 1.691182136535644531e+00 1.038263440132141113e+00 1.896708250045776367e+00
1.764000000000000000e+03 5.846567153930664062e+01 -2.126639747619628906e+01 5.718957781791687012e-01 1.129478216171264648e+00 5.104122161865234375e-01 2.153212547302246094e+00
1.765000000000000000e+03 5.308263778686523438e+01 -2.973808670043945312e+01 1.883375287055969238e+00 5.646120548248291016e+00 2.258848667144775391e+00 -9.443317055702209473e-01
1.766000000000000000e+03 6.253396606445312500e+01 -1.698724365234375000e+01 -6.762332916259765625e-01 2.245103359222412109e+00 4.706609845161437988e-01 1.973159670829772949e+00
1.767000000000000000e+03 6.070495605468750000e+01 -1.793854713439941406e+01 -1.485562324523925781e+00 1.885114669799804688e+00 1.198657155036926270e-01 2.416522264480590820e+00
1.768000000000000000e+03 7.262847137451171875e+01 2.625353622436523438e+01 1.205891892313957214e-01 7.478355407714843750e+00 2.279683351516723633e+00 7.333790063858032227e-01
1.769000000000000000e+03 7.090728759765625000e+01 2.888838958740234375e+01 -4.440836608409881592e-01 5.792080879211425781e+00 1.604399204254150391e+00 4.180380403995513916e-01
1.770000000000000000e+03 3.709029388427734375e+01 1.129930496215820312e+01 1.914077162742614746e+00 6.300197124481201172e+00 2.464282274246215820e+00 -9.556357860565185547e-01
1.771000000000000000e+03 3.674737548828125000e+01 1.810052680969238281e+01 1.049402594566345215e+00 5.741918087005615234e+00 2.037396192550659180e+00 -6.225788593292236328e-01
1.772000000000000000e+03 6.876107788085937500e+01 -1.301854896545410156e+01 5.995591282844543457e-01 4.583517551422119141e+00 1.554922938346862793e+00 5.385965108871459961e-01
1.773000000000000000e+03 7.125334930419921875e+01 3.219855499267578125e+01 -9.236056804656982422e-01 5.577993869781494141e+00 1.396316409111022949e+00 2.126388549804687500e-01
1.774000000000000000e+03 7.459190368652343750e+01 -2.767181396484375000e+01 1.190784454345703125e+00 7.852787017822265625e+00 2.713071346282958984e+00 3.117733597755432129e-01
1.775000000000000000e+03 7.448266601562500000e+01 -2.951264953613281250e+01 7.349686026573181152e-01 7.674026489257812500e+00 2.522698640823364258e+00 -2.341043949127197266e-01
1.776000000000000000e+03 6.452294158935546875e+01 -1.694260787963867188e+01 -2.648382782936096191e-01 2.376624822616577148e+00 6.335359811782836914e-01 1.704340219497680664e+00
1.777000000000000000e+03 7.394481658935546875e+01 -3.370467376708984375e+01 -4.065353274345397949e-01 6.614044189453125000e+00 1.862252593040466309e+00 -9.741470962762832642e-02
1.778000000000000000e+03 5.427334213256835938e+01 -2.274700355529785156e+01 1.935798645019531250e+00 1.816678285598754883e+00 1.125743031501770020e+00 -6.092197820544242859e-02
1.779000000000000000e+03 1.736451721191406250e+01 -3.759017562866210938e+01 2.570255100727081299e-02 -3.210688754916191101e-02 -1.921301358379423618e-03 -2.793817967176437378e-02
1.780000000000000000e+03 1.799123764038085938e+01 -3.453854751586914062e+01 -1.392219960689544678e-02 -2.080528624355792999e-02 -1.041824556887149811e-02 -3.573085740208625793e-02
1.781000000000000000e+03 5.886843490600585938e+01 -1.962563133239746094e+01 -7.649444937705993652e-01 1.000579953193664551e+00 7.069061696529388428e-02 2.542642354965209961e+00
1.782000000000000000e+03 5.989144134521484375e+01 -2.061081504821777344e+01 -2.395366132259368896e-01 1.685275435447692871e+00 4.337216615676879883e-01 2.488916873931884766e+00
1.783000000000000000e+03 6.982267761230468750e+01 -3.661318206787109375e+01 -1.373625844717025757e-01 3.724038600921630859e+00 1.076002836227416992e+00 9.581340551376342773e-01
1.784000000000000000e+03 7.359722900390625000e+01 -3.565976333618164062e+01 -3.792711198329925537e-01 5.903733730316162109e+00 1.657338738441467285e+00 7.088448852300643921e-02
1.785000000000000000e+03 1.261008262634277344e+01 -3.574385452270507812e+01 -1.732362806797027588e-02 -6.626663729548454285e-03 -7.185087539255619049e-03 -1.495009195059537888e-02
1.786000000000000000e+03 7.305134582519531250e+01 2.910195541381835938e+01 -4.076045155525207520e-01 7.320880413055419922e+00 2.073982715606689453e+00 7.911919355392456055e-01
1.787000000000000000e+03 6.524317741394042969e+00 -2.225543022155761719e+01 -3.465930698439478874e-03 -1.224121893756091595e-03 -1.407015835866332054e-03 8.676466532051563263e-04
1.788000000000000000e+03 6.823003387451171875e+01 4.105403900146484375e+01 2.490053623914718628e-01 2.288091182708740234e+00 7.611289620399475098e-01 -2.899849414825439453e-02
1.789000000000000000e+03 9.538055419921875000e+00 -3.032955360412597656e+01 1.545743580209091306e-04 -4.140757024288177490e-03 -1.195854856632649899e-03 -6.364663597196340561e-03
1.790000000000000000e+03 9.822386741638183594e+00 -3.273674774169921875e+01 2.758496906608343124e-03 -7.370735402218997478e-04 6.064270273782312870e-04 -6.475438829511404037e-03
1.791000000000000000e+03 6.968062877655029297e+00 -1.528091716766357422e+01 -3.252513008192181587e-03 3.860119904857128859e-04 -8.599503198638558388e-04 4.951401206199079752e-05
1.792000000000000000e+03 4.620275497436523438e+00 -1.707166290283203125e+01 2.475148998200893402e-03 5.686056101694703102e-04 9.131263941526412964e-04 2.007531584240496159e-04
1.793000000000000000e+03 5.056475830078125000e+01 -1.578800964355468750e+01 -2.662830591201782227e+00 3.837141513824462891e+00 3.522932827472686768e-01 6.850686073303222656e-01
1.794000000000000000e+03 5.109066772460937500e+01 -1.852886009216308594e+01 -5.409312844276428223e-01 3.305408477783203125e+00 8.293431401252746582e-01 -5.018692016601562500e-01
1.795000000000000000e+03 3.818833923339843750e+01 1.030416774749755859e+01 1.966059088706970215e+00 7.026573657989501953e+00 2.697789907455444336e+00 -9.884200692176818848e-01
1.796000000000000000e+03 6.406936645507812500e+01 -1.964738845825195312e+01 -1.057575345039367676e+00 1.866612076759338379e+00 2.427109926939010620e-01 2.097216606140136719e+00
1.797000000000000000e+03 6.397107696533203125e+01 -1.851950836181640625e+01 -8.179621696472167969e-01 2.028964281082153320e+00 3.633006215095520020e-01 2.192811727523803711e+00
1.798000000000000000e+03 5.365919113159179688e+01 -2.437888908386230469e+01 2.244740009307861328e+00 3.028125762939453125e+00 1.581859707832336426e+00 -4.008158445358276367e-01
1.799000000000000000e+03 5.391282272338867188e+01 -2.729235649108886719e+01 1.956464648246765137e+00 4.914640903472900391e+00 2.061331748962402344e+00 -3.714572489261627197e-01
1.800000000000000000e+03 5.234309768676757812e+01 4.108709716796875000e+01 -7.146185040473937988e-01 8.967289328575134277e-01 5.463313683867454529e-02 8.525402843952178955e-02
1.801000000000000000e+03 7.542696380615234375e+01 3.339887237548828125e+01 -3.925777077674865723e-01 8.958419799804687500e+00 2.569752693176269531e+00 3.847970068454742432e-01
1.802000000000000000e+03 6.160553359985351562e+01 -4.115060424804687500e+01 9.348753094673156738e-01 1.157297372817993164e+00 6.276518106460571289e-01 -1.131191551685333252e-01
1.803000000000000000e+03 6.938277244567871094e+00 -3.454565048217773438e+01 -5.223531741648912430e-03 -4.836103878915309906e-03 -3.017890732735395432e-03 2.552926307544112206e-03
1.804000000000000000e+03 1.188817787170410156e+01 -3.385271072387695312e+01 1.163924462161958218e-03 -2.624137327075004578e-03 -4.380638129077851772e-04 -5.850017536431550980e-03
1.805000000000000000e+03 5.975055694580078125e+01 -1.828490066528320312e+01 -1.429394483566284180e+00 1.459205627441406250e+00 8.943348191678524017e-03 2.444234848022460938e+00
1.806000000000000000e+03 4.505968856811523438e+01 -3.157658195495605469e+01 6.266502141952514648e-01 6.700245380401611328e+00 2.198068618774414062e+00 -1.832503229379653931e-01
1.807000000000000000e+03 3.846776580810546875e+01 1.954998397827148438e+01 7.546861767768859863e-01 6.288840770721435547e+00 2.113058090209960938e+00 -1.952536106109619141e-01
1.808000000000000000e+03 4.228800582885742188e+01 3.090632057189941406e+01 -4.970848262310028076e-01 3.981874227523803711e+00 1.045436859130859375e+00 2.905639111995697021e-01
1.809000000000000000e+03 6.125053405761718750e+01 -2.089661788940429688e+01 -1.265132427215576172e-01 1.864782094955444336e+00 5.214806795120239258e-01 2.363404273986816406e+00
1.810000000000000000e+03 4.548436737060546875e+01 -2.230442619323730469e+01 4.667331695556640625e+00 1.121953773498535156e+01 4.766060829162597656e+00 -3.640196323394775391e+00
1.811000000000000000e+03 4.472303771972656250e+01 -2.325878524780273438e+01 7.711544036865234375e-01 1.367498397827148438e+01 4.333841323852539062e+00 -2.698054552078247070e+00
1.812000000000000000e+03 4.479656600952148438e+01 -1.980443572998046875e+01 2.777345180511474609e+00 1.298371028900146484e+01 4.728316783905029297e+00 -1.336982250213623047e-01
1.813000000000000000e+03 4.388050079345703125e+01 -1.918552780151367188e+01 5.470269918441772461e-01 1.263312435150146484e+01 3.954045295715332031e+00 -2.612714290618896484e+00
1.814000000000000000e+03 4.527861404418945312e+01 -2.182015037536621094e+01 6.497023582458496094e+00 1.133960533142089844e+01 5.350988864898681641e+00 -3.247534275054931641e+00
1.815000000000000000e+03 4.168517684936523438e+01 -1.970307159423828125e+01 3.210121870040893555e+00 3.713378906250000000e+00 2.077050209045410156e+00 -4.170244693756103516e+00
1.816000000000000000e+03 4.141361236572265625e+01 -1.977866363525390625e+01 3.069884777069091797e+00 2.755778789520263672e+00 1.747699022293090820e+00 -3.558947563171386719e+00
1.817000000000000000e+03 4.096630096435546875e+01 -1.904410552978515625e+01 2.085785388946533203e+00 3.097039461135864258e+00 1.554847478866577148e+00 -3.315542697906494141e+00
1.818000000000000000e+03 4.309743118286132812e+01 -2.374641799926757812e+01 -1.033065199851989746e+00 9.817755699157714844e+00 2.635406970977783203e+00 1.767120838165283203e+00
1.819000000000000000e+03 4.391928863525390625e+01 -2.442880821228027344e+01 -8.595712184906005859e-01 1.143122863769531250e+01 3.171497106552124023e+00 5.306565165519714355e-01
1.820000000000000000e+03 4.030438995361328125e+01 -1.918757057189941406e+01 1.835542678833007812e+00 1.953283309936523438e+00 1.136647820472717285e+00 -2.226867198944091797e+00
1.821000000000000000e+03 4.063803482055664062e+01 -1.906423377990722656e+01 1.947121024131774902e+00 2.573253154754638672e+00 1.356112241744995117e+00 -2.788312435150146484e+00
1.822000000000000000e+03 1.303660869598388672e+01 -5.396520614624023438e+00 -3.339961986057460308e-04 -7.895646849647164345e-04 -3.370682534296065569e-04 -2.334929595235735178e-04
1.823000000000000000e+03 1.205645656585693359e+01 -5.695847988128662109e+00 3.519569581840187311e-04 -7.133181497920304537e-05 8.418754441663622856e-05 5.385772674344480038e-04
1.824000000000000000e+03 1.288780498504638672e+01 -6.165542125701904297e+00 -1.589917374076321721e-04 -4.476183094084262848e-04 -1.819830067688599229e-04 2.950104826595634222e-04
1.825000000000000000e+03 1.399765300750732422e+01 -7.175353050231933594e+00 -4.989706212654709816e-04 6.171154091134667397e-04 3.544343780959025025e-05 -1.153480989160016179e-04
1.826000000000000000e+03 1.488876914978027344e+01 -9.250122070312500000e+00 -1.641926821321249008e-03 8.057972445385530591e-05 -4.684041196014732122e-04 -5.894812784390524030e-05
1.827000000000000000e+03 1.576431083679199219e+01 -6.920404911041259766e+00 -4.982847603969275951e-04 -1.916985929710790515e-04 -2.069950132863596082e-04 1.573216140968725085e-04
1.828000000000000000e+03 1.528764724731445312e+01 -7.274250984191894531e+00 4.569748707581311464e-04 2.560333232395350933e-04 2.139024581992998719e-04 -4.417419258970767260e-04
1.829000000000000000e+03 1.060295963287353516e+01 -5.678576469421386719e+00 8.474333444610238075e-04 -3.998890169896185398e-04 1.342632895102724433e-04 7.609404856339097023e-04
1.830000000000000000e+03 1.440837192535400391e+01 -6.445659160614013672e+00 1.740558218443766236e-04 8.031291072256863117e-04 2.931554627139121294e-04 -8.800501382211223245e-05
1.831000000000000000e+03 5.888499259948730469e+00 4.829421997070312500e+00 -2.553734183311462402e-01 -4.301933348178863525e-01 -2.056700289249420166e-01 6.000416278839111328e-01
1.832000000000000000e+03 3.260558366775512695e+00 3.952721118927001953e+00 -1.337795406579971313e-01 -2.508901059627532959e-01 -1.154008954763412476e-01 2.770295739173889160e-01
1.833000000000000000e+03 4.723901748657226562e+00 4.176641464233398438e+00 -2.298039048910140991e-01 -3.193932771682739258e-01 -1.647591590881347656e-01 4.472499787807464600e-01
1.834000000000000000e+03 4.916675567626953125e+00 5.652410507202148438e+00 -1.582349538803100586e-01 -4.748739302158355713e-01 -1.899326741695404053e-01 5.461857318878173828e-01
1.835000000000000000e+03 7.714537620544433594e+00 5.928962707519531250e+00 -1.885959059000015259e-01 -6.711305379867553711e-01 -2.579179406166076660e-01 8.194594979286193848e-01
1.836000000000000000e+03 6.529944896697998047e+00 4.750354766845703125e+00 -2.945614755153656006e-01 -4.709992408752441406e-01 -2.296682149171829224e-01 6.752457618713378906e-01
1.837000000000000000e+03 3.975282287597656250e+01 -1.684573554992675781e+01 -9.229215793311595917e-03 3.413290023803710938e+00 1.021218180656433105e+00 -2.470932960510253906e+00
1.838000000000000000e+03 4.072450637817382812e+01 -1.841251373291015625e+01 1.564726948738098145e+00 3.394064903259277344e+00 1.487637519836425781e+00 -3.086107730865478516e+00
1.839000000000000000e+03 8.153551101684570312e+00 5.290330410003662109e+00 -2.697514593601226807e-01 -6.566725373268127441e-01 -2.779272198677062988e-01 8.504186868667602539e-01
1.840000000000000000e+03 2.917138481140136719e+01 -1.045165729522705078e+01 -1.028341174125671387e+00 5.090693831443786621e-01 -1.557815223932266235e-01 7.111592292785644531e-01
1.841000000000000000e+03 7.258670806884765625e+00 4.140981674194335938e+00 -4.112793207168579102e-01 -4.572556018829345703e-01 -2.605604827404022217e-01 7.308196425437927246e-01
1.842000000000000000e+03 3.957837343215942383e+00 4.273345470428466797e+00 -1.733315438032150269e-01 -2.914423942565917969e-01 -1.394321769475936890e-01 3.654217123985290527e-01
1.843000000000000000e+03 2.858990859985351562e+01 -1.281785869598388672e+01 -9.080158472061157227e-01 3.195328265428543091e-02 -2.628187537193298340e-01 8.613159060478210449e-01
1.844000000000000000e+03 3.160050201416015625e+01 -1.202948474884033203e+01 -8.513367176055908203e-01 8.713521957397460938e-01 6.004640366882085800e-03 3.157162964344024658e-01
1.845000000000000000e+03 2.906904029846191406e+01 -1.340044116973876953e+01 -8.925046920776367188e-01 4.232508316636085510e-02 -2.550538778305053711e-01 7.832996845245361328e-01
1.846000000000000000e+03 3.117135810852050781e+01 -1.270660495758056641e+01 -8.851367235183715820e-01 6.129460334777832031e-01 -8.165720850229263306e-02 4.408535659313201904e-01
1.847000000000000000e+03 9.321067810058593750e+00 -6.265693664550781250e+00 -1.158455736003816128e-03 -4.149498709011822939e-04 -4.720216675195842981e-04 2.379125799052417278e-04
1.848000000000000000e+03 1.665336227416992188e+01 3.165301561355590820e+00 -3.817937672138214111e-01 -1.163944363594055176e+00 -4.637214243412017822e-01 8.911601901054382324e-01
1.849000000000000000e+03 4.274222183227539062e+01 -2.476405906677246094e+01 -2.432001233100891113e-01 8.337871551513671875e+00 2.428401231765747070e+00 1.306136250495910645e+00
1.850000000000000000e+03 2.695903587341308594e+01 -8.555096626281738281e+00 -1.240256071090698242e+00 3.854251652956008911e-02 -3.605140447616577148e-01 9.028714895248413086e-01
1.851000000000000000e+03 7.419278144836425781e+00 -5.402645587921142578e+00 -7.999529771041125059e-05 -1.721521693980321288e-04 -7.564423867734149098e-05 8.013361948542296886e-04
1.852000000000000000e+03 5.793045520782470703e+00 -4.308960914611816406e+00 3.199900966137647629e-04 4.380940517876297235e-04 2.274252474308013916e-04 -9.329804452136158943e-04
1.853000000000000000e+03 2.242743110656738281e+01 -3.483556985855102539e+00 -1.417201399803161621e+00 -1.005014300346374512e+00 -7.266647219657897949e-01 1.057963252067565918e+00
1.854000000000000000e+03 2.176618194580078125e+01 -1.790766835212707520e+00 -1.149769425392150879e+00 -9.302744865417480469e-01 -6.240131855010986328e-01 9.010286331176757812e-01
1.855000000000000000e+03 2.591481208801269531e+01 -6.618703365325927734e+00 -1.320112228393554688e+00 -1.202747672796249390e-01 -4.321161210536956787e-01 8.832044601440429688e-01
1.856000000000000000e+03 2.637848091125488281e+01 -8.994011878967285156e+00 -1.262974143028259277e+00 -2.589899897575378418e-01 -4.565892517566680908e-01 1.007344245910644531e+00
1.857000000000000000e+03 7.069725990295410156e+00 -4.637349605560302734e+00 3.129185352008789778e-04 2.941420825663954020e-04 1.821181940613314509e-04 -8.987504988908767700e-04
1.858000000000000000e+03 5.901207447052001953e+00 -6.153238296508789062e+00 -1.647198572754859924e-03 3.088260127697139978e-04 -4.015117592643946409e-04 3.392315993551164865e-04
1.859000000000000000e+03 5.390326499938964844e+00 -5.511886596679687500e+00 1.464790781028568745e-03 -7.138394721550866961e-05 4.180220421403646469e-04 -9.854692034423351288e-04
1.860000000000000000e+03 8.631793022155761719e+00 -3.886461734771728516e+00 1.503209117799997330e-03 2.164528123103082180e-04 5.158985732123255730e-04 -6.575569859705865383e-04
1.861000000000000000e+03 4.434487915039062500e+01 -2.469180297851562500e+01 -4.608395993709564209e-01 1.119033622741699219e+01 3.218849182128906250e+00 7.230359315872192383e-02
1.862000000000000000e+03 1.356717967987060547e+01 3.152498722076416016e+00 -6.214529871940612793e-01 -1.139520287513732910e+00 -5.282920002937316895e-01 1.045622110366821289e+00
1.863000000000000000e+03 3.172195243835449219e+01 -1.372539997100830078e+01 -8.779235482215881348e-01 5.442135930061340332e-01 -1.001129895448684692e-01 3.713232278823852539e-01
1.864000000000000000e+03 2.533393287658691406e+01 -5.187610149383544922e+00 -1.265504717826843262e+00 -1.400378346443176270e-01 -4.216627776622772217e-01 8.078436255455017090e-01
1.865000000000000000e+03 1.914770317077636719e+01 4.928763806819915771e-01 -8.808985948562622070e-01 -1.190700650215148926e+00 -6.214797496795654297e-01 9.418362975120544434e-01
1.866000000000000000e+03 2.439921951293945312e+01 -4.002823352813720703e+00 -1.233313679695129395e+00 -3.424873948097229004e-01 -4.727403223514556885e-01 8.129405975341796875e-01
1.867000000000000000e+03 2.288253021240234375e+01 -2.953833341598510742e+00 -1.241583943367004395e+00 -7.578145861625671387e-01 -5.998196005821228027e-01 8.977398276329040527e-01
1.868000000000000000e+03 1.983776092529296875e+01 -5.358072742819786072e-02 -9.527696371078491211e-01 -1.143835663795471191e+00 -6.289815902709960938e-01 9.278161525726318359e-01
1.869000000000000000e+03 1.844042205810546875e+01 1.020898222923278809e+00 -8.146198391914367676e-01 -1.222427129745483398e+00 -6.111140847206115723e-01 9.538980126380920410e-01
1.870000000000000000e+03 2.811819076538085938e+01 -1.040827846527099609e+01 -1.085370540618896484e+00 2.063356637954711914e-01 -2.637104392051696777e-01 8.617694973945617676e-01
1.871000000000000000e+03 2.772225189208984375e+01 -9.784994125366210938e+00 -1.141843676567077637e+00 1.564664095640182495e-01 -2.956131696701049805e-01 8.813326358795166016e-01
1.872000000000000000e+03 3.771366119384765625e+01 -1.526800251007080078e+01 -5.718853473663330078e-01 2.171209096908569336e+00 4.797970950603485107e-01 -1.608325362205505371e+00
1.873000000000000000e+03 1.325934886932373047e+01 4.340464591979980469e+00 -3.245416581630706787e-01 -1.094795584678649902e+00 -4.258011579513549805e-01 9.937826991081237793e-01
1.874000000000000000e+03 4.587231826782226562e+01 -1.888835906982421875e+01 9.419746994972229004e-01 9.930324554443359375e+00 3.261689662933349609e+00 -1.136637572199106216e-02
1.875000000000000000e+03 2.560313224792480469e+01 -5.913929939270019531e+00 -1.308467388153076172e+00 -1.395544409751892090e-01 -4.344065487384796143e-01 8.540558218955993652e-01
1.876000000000000000e+03 1.399090290069580078e+01 3.881761789321899414e+00 -3.953506052494049072e-01 -1.141653180122375488e+00 -4.611011445522308350e-01 9.963261485099792480e-01
1.877000000000000000e+03 2.389050483703613281e+01 -3.894563436508178711e+00 -1.268302440643310547e+00 -5.067500472068786621e-01 -5.325157046318054199e-01 8.669068217277526855e-01
1.878000000000000000e+03 2.339410400390625000e+01 -3.478731155395507812e+00 -1.267647981643676758e+00 -6.512961983680725098e-01 -5.756832361221313477e-01 8.861362934112548828e-01
1.879000000000000000e+03 9.925834655761718750e+00 5.327901840209960938e+00 -2.460154592990875244e-01 -8.319847583770751953e-01 -3.234000802040100098e-01 9.467734694480895996e-01
1.880000000000000000e+03 2.050621604919433594e+01 -6.177453994750976562e-01 -1.021064758300781250e+00 -1.081626415252685547e+00 -6.308073401451110840e-01 9.168176651000976562e-01
1.881000000000000000e+03 4.528696441650390625e+01 -2.881384658813476562e+01 9.780555367469787598e-01 7.616030693054199219e+00 2.578225851058959961e+00 -2.026154398918151855e-01
1.882000000000000000e+03 1.547446823120117188e+01 2.970754146575927734e+00 -5.409777164459228516e-01 -1.208388686180114746e+00 -5.248098969459533691e-01 9.915714263916015625e-01
1.883000000000000000e+03 1.472819519042968750e+01 3.430487632751464844e+00 -4.651726186275482178e-01 -1.179537057876586914e+00 -4.934129118919372559e-01 9.943814873695373535e-01
1.884000000000000000e+03 4.870425415039062500e+01 -1.357787609100341797e+01 -2.352759361267089844e+00 5.583874225616455078e+00 9.693344235420227051e-01 5.686100721359252930e-01
1.885000000000000000e+03 3.161745643615722656e+01 -1.466466045379638672e+01 -9.697336554527282715e-01 3.537302315235137939e-01 -1.848010271787643433e-01 4.234863817691802979e-01
1.886000000000000000e+03 7.259485626220703125e+01 9.022615432739257812e+00 -1.492171138525009155e-01 9.956865310668945312e+00 2.942294359207153320e+00 8.804254531860351562e-01
1.887000000000000000e+03 7.370455169677734375e+01 1.044338321685791016e+01 -2.744094133377075195e-01 9.226517677307128906e+00 2.685632705688476562e+00 8.485489487648010254e-01
1.888000000000000000e+03 3.379276657104492188e+01 -1.382955741882324219e+01 -7.529439926147460938e-01 9.611321091651916504e-01 6.245644390583038330e-02 -1.436667442321777344e-01
1.889000000000000000e+03 4.362437820434570312e+01 -2.399848747253417969e+01 -1.048731565475463867e+00 1.130030727386474609e+01 3.075472831726074219e+00 8.745654821395874023e-01
1.890000000000000000e+03 4.370376968383789062e+01 -2.546712303161621094e+01 -3.995633423328399658e-01 1.008501338958740234e+01 2.905634880065917969e+00 9.880489706993103027e-01
1.891000000000000000e+03 4.624921035766601562e+01 -2.874543952941894531e+01 1.072674632072448730e+00 7.163002490997314453e+00 2.470703125000000000e+00 -5.100605487823486328e-01
1.892000000000000000e+03 1.203434562683105469e+01 4.562114238739013672e+00 -3.330879211425781250e-01 -1.026357769966125488e+00 -4.078337252140045166e-01 1.008424043655395508e+00
1.893000000000000000e+03 1.208275508880615234e+01 3.823424339294433594e+00 -4.967527091503143311e-01 -1.017402052879333496e+00 -4.542464315891265869e-01 1.020682573318481445e+00
1.894000000000000000e+03 7.618453216552734375e+01 -2.338890838623046875e+01 -1.906819641590118408e-02 7.439817905426025391e+00 2.226224899291992188e+00 9.995243549346923828e-01
1.895000000000000000e+03 1.278026199340820312e+01 -7.762899398803710938e+00 8.613181853434070945e-05 7.147543947212398052e-04 2.402658719802275300e-04 -2.543984737712889910e-04
1.896000000000000000e+03 1.127029895782470703e+01 -1.142325592041015625e+01 -9.931483073160052299e-04 -1.537402742542326450e-03 -7.591653265990316868e-04 -2.559785207267850637e-04
1.897000000000000000e+03 4.658811569213867188e+01 -2.942509651184082031e+01 1.048199772834777832e+00 6.850200653076171875e+00 2.369519948959350586e+00 -6.853193044662475586e-01
1.898000000000000000e+03 8.734541893005371094e+00 5.665498733520507812e+00 -2.144162952899932861e-01 -7.363712787628173828e-01 -2.852362692356109619e-01 8.865512609481811523e-01
1.899000000000000000e+03 4.417365264892578125e+01 -1.743847608566284180e+00 4.674011468887329102e-02 5.901598453521728516e+00 1.784501671791076660e+00 -1.883984804153442383e+00
1.900000000000000000e+03 4.287408065795898438e+01 -4.542332649230957031e+00 -6.003393530845642090e-01 5.563458442687988281e+00 1.488935708999633789e+00 -1.375306963920593262e+00
1.901000000000000000e+03 5.569940185546875000e+01 -1.821876335144042969e+01 -2.157158613204956055e+00 -1.367472290992736816e+00 -1.057389259338378906e+00 1.082772612571716309e+00
1.902000000000000000e+03 5.524736022949218750e+01 -2.236751174926757812e+01 1.749759674072265625e+00 1.457388520240783691e+00 9.621444344520568848e-01 4.847323596477508545e-01
1.903000000000000000e+03 1.168003082275390625e+01 -1.065154170989990234e+01 1.201420323923230171e-03 1.503223786130547523e-03 8.113932562991976738e-04 4.274093662388622761e-04
1.904000000000000000e+03 3.416448593139648438e+01 -1.293906211853027344e+01 -7.761332392692565918e-01 1.347361683845520020e+00 1.713685244321823120e-01 -2.890456020832061768e-01
1.905000000000000000e+03 3.580598831176757812e+01 -1.420670604705810547e+01 -6.558607220649719238e-01 1.516988992691040039e+00 2.583384811878204346e-01 -8.229187726974487305e-01
1.906000000000000000e+03 2.624587774276733398e+00 6.512554645538330078e+00 -4.928534850478172302e-02 -4.772442877292633057e-01 -1.579588800668716431e-01 3.334900438785552979e-01
1.907000000000000000e+03 3.891210174560546875e+01 -1.709413909912109375e+01 -1.297960281372070312e-01 2.343732833862304688e+00 6.641809940338134766e-01 -1.976144433021545410e+00
1.908000000000000000e+03 4.039945220947265625e+01 -1.811119842529296875e+01 9.450143575668334961e-01 3.240608215332031250e+00 1.255686759948730469e+00 -2.661157608032226562e+00
1.909000000000000000e+03 1.626390457153320312e+01 -1.035963535308837891e+01 1.849725231295451522e-04 4.641642444767057896e-04 1.947410346474498510e-04 6.395614473149180412e-04
1.910000000000000000e+03 3.662128448486328125e+01 1.341177082061767578e+01 1.675422549247741699e+00 6.031116485595703125e+00 2.311961650848388672e+00 -8.962535262107849121e-01
1.911000000000000000e+03 4.134998321533203125e+01 -3.767443180084228516e+00 -5.889664888381958008e-01 5.446536064147949219e+00 1.457270860671997070e+00 -1.292716145515441895e+00
1.912000000000000000e+03 4.183714294433593750e+01 2.919988393783569336e+00 5.938355326652526855e-01 6.983095645904541016e+00 2.273079395294189453e+00 -1.926487088203430176e+00
1.913000000000000000e+03 4.137651824951171875e+01 1.334607005119323730e+00 2.467490434646606445e-01 6.413619995117187500e+00 1.998110771179199219e+00 -1.655129075050354004e+00
1.914000000000000000e+03 4.468546295166015625e+01 -6.522254467010498047e+00 -7.862913608551025391e-01 5.582559108734130859e+00 1.438880443572998047e+00 -1.175591349601745605e+00
1.915000000000000000e+03 4.586975860595703125e+01 -6.410593509674072266e+00 -5.366791486740112305e-01 5.498834609985351562e+00 1.488646626472473145e+00 -1.168427824974060059e+00
1.916000000000000000e+03 6.660875701904296875e+01 -1.640392684936523438e+01 5.253372341394424438e-02 2.633493900299072266e+00 8.058083057403564453e-01 9.693949818611145020e-01
1.917000000000000000e+03 7.331378173828125000e+01 1.740897941589355469e+01 9.570056200027465820e-02 8.671365737915039062e+00 2.630119800567626953e+00 7.168540954589843750e-01
1.918000000000000000e+03 6.990758514404296875e+01 -1.250586128234863281e+01 4.691922068595886230e-01 5.108055114746093750e+00 1.673174262046813965e+00 1.984234452247619629e-01
1.919000000000000000e+03 6.650371551513671875e+01 -1.525305080413818359e+01 5.001779198646545410e-01 3.094550609588623047e+00 1.078418612480163574e+00 9.547379612922668457e-01
1.920000000000000000e+03 4.491458511352539062e+01 -9.601562500000000000e+00 -1.504893660545349121e+00 5.899322509765625000e+00 1.318328619003295898e+00 -8.325814008712768555e-01
1.921000000000000000e+03 3.871839141845703125e+01 -1.615984535217285156e+01 -3.879714012145996094e-01 2.594394445419311523e+00 6.619269251823425293e-01 -2.038998126983642578e+00
1.922000000000000000e+03 3.863980484008789062e+01 -1.524916267395019531e+01 -6.077035069465637207e-01 2.910454511642456055e+00 6.908252835273742676e-01 -1.960294723510742188e+00
1.923000000000000000e+03 8.808341979980468750e+00 -1.254751014709472656e+01 -1.287848339416086674e-03 -3.461798041826114058e-05 -3.967398952227085829e-04 -1.011595828458666801e-03
1.924000000000000000e+03 9.214797019958496094e+00 -1.366817569732666016e+01 1.721254433505237103e-03 -2.444777928758412600e-04 4.430330009199678898e-04 1.211978611536324024e-03
1.925000000000000000e+03 5.912452697753906250e+01 -1.890011596679687500e+01 -1.419093251228332520e+00 1.207787513732910156e+00 -6.339169293642044067e-02 2.442012548446655273e+00
1.926000000000000000e+03 7.321987152099609375e+01 2.775646018981933594e+01 -1.619885563850402832e-01 7.516463756561279297e+00 2.206342458724975586e+00 8.535693287849426270e-01
1.927000000000000000e+03 7.537236022949218750e+01 3.182985687255859375e+01 -3.574025332927703857e-01 8.872531890869140625e+00 2.554538965225219727e+00 5.843409895896911621e-01
1.928000000000000000e+03 4.249706268310546875e+01 -9.280215501785278320e-01 -3.473760932683944702e-02 6.013021945953369141e+00 1.793485403060913086e+00 -1.716240763664245605e+00
1.929000000000000000e+03 7.571372985839843750e+01 2.220104789733886719e+01 9.870202094316482544e-02 8.673449516296386719e+00 2.631645441055297852e+00 8.099343776702880859e-01
1.930000000000000000e+03 7.358908843994140625e+01 2.053102111816406250e+01 1.199672743678092957e-01 8.499654769897460938e+00 2.585886478424072266e+00 7.280923128128051758e-01
1.931000000000000000e+03 4.194785690307617188e+01 1.995582431554794312e-01 7.887960970401763916e-02 6.238493442535400391e+00 1.895211935043334961e+00 -1.693143963813781738e+00
1.932000000000000000e+03 4.119047164916992188e+01 4.126162528991699219e+00 7.703709602355957031e-01 7.394001483917236328e+00 2.449311733245849609e+00 -1.775423645973205566e+00
1.933000000000000000e+03 7.541534423828125000e+01 2.875276374816894531e+01 -2.004882246255874634e-01 8.805989265441894531e+00 2.581650257110595703e+00 8.740853667259216309e-01
1.934000000000000000e+03 7.567640686035156250e+01 2.750112295150756836e+00 4.985460042953491211e-01 7.695304393768310547e+00 2.458155155181884766e+00 4.848906993865966797e-01
1.935000000000000000e+03 7.557694244384765625e+01 2.375018119812011719e+01 1.201416850090026855e-01 8.672172546386718750e+00 2.637694358825683594e+00 8.555639982223510742e-01
1.936000000000000000e+03 7.578457641601562500e+01 2.068067550659179688e+01 9.499917179346084595e-02 8.598907470703125000e+00 2.608171939849853516e+00 7.577254176139831543e-01
1.937000000000000000e+03 7.568157196044921875e+01 -2.104647254943847656e+01 -6.575959920883178711e-01 7.505236148834228516e+00 2.054291963577270508e+00 5.701003670692443848e-01
1.938000000000000000e+03 7.523730468750000000e+01 -2.010218238830566406e+01 -8.723255991935729980e-01 7.293426036834716797e+00 1.926330208778381348e+00 2.673859298229217529e-01
1.939000000000000000e+03 7.430210113525390625e+01 -1.499943828582763672e+01 -3.430362939834594727e-01 6.368886947631835938e+00 1.807755112648010254e+00 -7.038642764091491699e-01
1.940000000000000000e+03 7.554227447509765625e+01 -1.364848709106445312e+01 -1.527232527732849121e-01 6.661684513092041016e+00 1.952688336372375488e+00 -6.831170916557312012e-01
1.941000000000000000e+03 7.610430908203125000e+01 1.241954231262207031e+01 -1.224104389548301697e-01 8.078730583190917969e+00 2.386896133422851562e+00 7.697288990020751953e-01
1.942000000000000000e+03 7.583514404296875000e+01 1.666154289245605469e+01 4.964101593941450119e-03 8.401390075683593750e+00 2.521906137466430664e+00 6.872575283050537109e-01
1.943000000000000000e+03 7.574908447265625000e+01 9.089414596557617188e+00 -4.330381006002426147e-02 8.080835342407226562e+00 2.411259651184082031e+00 9.578911066055297852e-01
1.944000000000000000e+03 7.453948211669921875e+01 -6.881029605865478516e+00 8.226566016674041748e-02 7.184082508087158203e+00 2.179904460906982422e+00 -4.768575131893157959e-01
1.945000000000000000e+03 7.565051269531250000e+01 -6.756920337677001953e+00 7.628855854272842407e-02 6.798878669738769531e+00 2.062550306320190430e+00 -5.698502659797668457e-01
1.946000000000000000e+03 7.539467620849609375e+01 1.088250064849853516e+01 -1.756170690059661865e-01 8.388187408447265625e+00 2.463770866394042969e+00 8.886291980743408203e-01
1.947000000000000000e+03 7.382330322265625000e+01 9.142794609069824219e+00 -1.250025480985641479e-01 9.288272857666015625e+00 2.748980998992919922e+00 9.547774791717529297e-01
1.948000000000000000e+03 7.460650634765625000e+01 2.218636274337768555e+00 6.946519613265991211e-01 8.540392875671386719e+00 2.770513534545898438e+00 4.818707704544067383e-01
1.949000000000000000e+03 7.379042053222656250e+01 3.884246051311492920e-01 7.669420242309570312e-01 9.133143424987792969e+00 2.970025777816772461e+00 3.110964000225067139e-01
1.950000000000000000e+03 7.539557647705078125e+01 -3.813531398773193359e+00 1.982457935810089111e-01 7.165133953094482422e+00 2.209013938903808594e+00 -4.069966375827789307e-01
1.951000000000000000e+03 7.353842163085937500e+01 -4.880863189697265625e+00 2.539061605930328369e-01 7.930686473846435547e+00 2.455377817153930664e+00 -1.118846163153648376e-01
1.952000000000000000e+03 7.596608734130859375e+01 1.930980873107910156e+01 5.353569984436035156e-02 8.551280021667480469e+00 2.581444740295410156e+00 7.187635898590087891e-01
1.953000000000000000e+03 7.596544647216796875e+01 1.806859207153320312e+01 5.914134532213211060e-02 8.457462310791015625e+00 2.554981231689453125e+00 7.020043134689331055e-01
1.954000000000000000e+03 7.551354217529296875e+01 -1.084310913085937500e+01 -5.229111993685364723e-04 6.628101825714111328e+00 1.988273620605468750e+00 -6.778548955917358398e-01
1.955000000000000000e+03 7.417929840087890625e+01 -1.081886291503906250e+01 3.941546007990837097e-02 6.534742355346679688e+00 1.972247362136840820e+00 -6.005802750587463379e-01
1.956000000000000000e+03 7.419641876220703125e+01 -1.224404716491699219e+01 -2.730937488377094269e-02 6.426624774932861328e+00 1.919794678688049316e+00 -6.478788852691650391e-01
1.957000000000000000e+03 7.582901763916015625e+01 -1.848598670959472656e+01 -6.233048439025878906e-01 7.159935474395751953e+00 1.960989117622375488e+00 -7.514450699090957642e-02
1.958000000000000000e+03 7.021208953857421875e+01 -1.901074409484863281e+01 -1.313396215438842773e+00 3.737866878509521484e+00 7.273411750793457031e-01 -1.126151323318481445e+00
1.959000000000000000e+03 7.360617828369140625e+01 1.814233660697937012e+00 8.644832968711853027e-01 9.631157875061035156e+00 3.148692369461059570e+00 5.938141942024230957e-01
1.960000000000000000e+03 7.416013336181640625e+01 2.522937583923339844e+01 1.138647124171257019e-01 8.193900108337402344e+00 2.492329359054565430e+00 8.833241462707519531e-01
1.961000000000000000e+03 7.473277282714843750e+01 1.500429821014404297e+01 -5.611155554652214050e-02 8.552288055419921875e+00 2.548852920532226562e+00 6.822589039802551270e-01
1.962000000000000000e+03 7.482095336914062500e+01 1.356580543518066406e+01 -1.424401253461837769e-01 8.615026473999023438e+00 2.541775941848754883e+00 7.517368197441101074e-01
1.963000000000000000e+03 7.327782440185546875e+01 -1.805218338966369629e+00 5.910857319831848145e-01 9.053989410400390625e+00 2.893522500991821289e+00 1.999621242284774780e-01
1.964000000000000000e+03 7.214865112304687500e+01 -1.324352025985717773e+00 7.751796841621398926e-01 1.019373512268066406e+01 3.290674448013305664e+00 6.196056604385375977e-01
1.965000000000000000e+03 7.421669769287109375e+01 -9.334215164184570312e+00 7.900559902191162109e-02 6.724129676818847656e+00 2.040940523147583008e+00 -5.187645554542541504e-01
1.966000000000000000e+03 7.308508300781250000e+01 -1.505088043212890625e+01 -3.457420170307159424e-01 5.894552707672119141e+00 1.664643287658691406e+00 -7.250363826751708984e-01
1.967000000000000000e+03 7.513404846191406250e+01 -1.760064315795898438e+01 -6.619952321052551270e-01 6.974408626556396484e+00 1.893724083900451660e+00 -3.356957137584686279e-01
1.968000000000000000e+03 7.494389343261718750e+01 -3.049676513671875000e+01 3.255299329757690430e-01 7.362009048461914062e+00 2.306261539459228516e+00 -3.067615628242492676e-01
1.969000000000000000e+03 7.560938262939453125e+01 3.483861541748046875e+01 -2.534319758415222168e-01 9.087247848510742188e+00 2.650144815444946289e+00 2.221664786338806152e-01
1.970000000000000000e+03 7.240984344482421875e+01 3.407911682128906250e+01 -6.864702701568603516e-01 6.399376392364501953e+00 1.713871836662292480e+00 4.816570505499839783e-02
1.971000000000000000e+03 7.104624176025390625e+01 -1.985271263122558594e+01 -1.629058003425598145e+00 4.596739768981933594e+00 8.903045058250427246e-01 -1.223614335060119629e+00
1.972000000000000000e+03 7.425516510009765625e+01 -2.069229698181152344e+01 -1.195295095443725586e+00 7.459933757781982422e+00 1.879391670227050781e+00 2.411753237247467041e-01
1.973000000000000000e+03 3.645140075683593750e+01 1.672381591796875000e+01 1.266403794288635254e+00 5.729151248931884766e+00 2.098666429519653320e+00 -7.549559473991394043e-01
1.974000000000000000e+03 3.590542984008789062e+01 1.544322586059570312e+01 1.454324722290039062e+00 5.519596099853515625e+00 2.092176198959350586e+00 -8.344669342041015625e-01
1.975000000000000000e+03 4.586686325073242188e+01 -1.069940567016601562e+01 -1.741465568542480469e+00 6.062684535980224609e+00 1.296365618705749512e+00 -5.283286571502685547e-01
1.976000000000000000e+03 5.783128356933593750e+01 -2.225395774841308594e+01 1.596836686134338379e+00 1.268585562705993652e+00 8.596266508102416992e-01 1.681559085845947266e+00
1.977000000000000000e+03 5.883049774169921875e+01 -2.047022438049316406e+01 2.318896986253093928e-05 9.864245653152465820e-01 2.959343194961547852e-01 2.340525627136230469e+00
1.978000000000000000e+03 5.543895721435546875e+00 -2.754942321777343750e+01 -3.505246713757514954e-03 -1.679061795584857464e-03 -1.555292517878115177e-03 1.909994985908269882e-03
1.979000000000000000e+03 7.638225555419921875e+01 -3.672544479370117188e+01 -3.129816949367523193e-01 6.672299861907958984e+00 1.907795429229736328e+00 -1.687180846929550171e-01
1.980000000000000000e+03 5.814452171325683594e+00 2.883561706542968750e+01 4.014761373400688171e-02 -1.218614101409912109e+00 -3.535399436950683594e-01 -3.213015198707580566e-02
1.981000000000000000e+03 5.188889980316162109e+00 -1.179980754852294922e+01 -2.218825276941061020e-03 4.558390355668962002e-05 -6.519723683595657349e-04 -4.150530730839818716e-04
1.982000000000000000e+03 6.229407787322998047e+00 2.446681213378906250e+01 1.028971076011657715e-01 -1.170471787452697754e+00 -3.202724158763885498e-01 5.484364926815032959e-02
1.983000000000000000e+03 5.654036998748779297e+00 -1.549488353729248047e+01 2.933225594460964203e-03 2.905002838815562427e-05 8.886826690286397934e-04 -4.823346171178855002e-05
1.984000000000000000e+03 6.123251438140869141e+00 -1.757481193542480469e+01 4.770474042743444443e-03 -5.515141529031097889e-04 1.265687984414398670e-03 -2.192754327552393079e-04
1.985000000000000000e+03 4.628381252288818359e+00 -2.571504592895507812e+01 5.040673568146303296e-05 8.989362977445125580e-04 2.848029253073036671e-04 2.068362198770046234e-03
1.986000000000000000e+03 5.671364784240722656e+00 1.843671798706054688e+01 1.483713388442993164e-01 -1.192594528198242188e+00 -3.132669627666473389e-01 2.636859118938446045e-01
1.987000000000000000e+03 5.471675872802734375e+00 1.709274482727050781e+01 1.425406634807586670e-01 -1.179747939109802246e+00 -3.111621737480163574e-01 3.187755644321441650e-01
1.988000000000000000e+03 6.167426109313964844e+00 2.598869323730468750e+01 8.158376067876815796e-02 -1.183801531791687012e+00 -3.306653499603271484e-01 1.541119627654552460e-02
1.989000000000000000e+03 5.223932266235351562e+00 1.447712993621826172e+01 1.257122308015823364e-01 -1.106645226478576660e+00 -2.942799031734466553e-01 4.199844896793365479e-01
1.990000000000000000e+03 6.741358280181884766e+00 -1.411246585845947266e+01 2.685755258426070213e-03 -3.263230319134891033e-04 7.078297203406691551e-04 3.260771045461297035e-04
1.991000000000000000e+03 6.452624320983886719e+00 3.071150398254394531e+01 2.728728018701076508e-02 -1.090325832366943359e+00 -3.189115822315216064e-01 -6.101321056485176086e-02
1.992000000000000000e+03 6.395334243774414062e+00 3.312793350219726562e+01 1.242709718644618988e-02 -1.084837436676025391e+00 -3.217231035232543945e-01 -7.422262430191040039e-02
1.993000000000000000e+03 6.250631809234619141e+00 2.128989601135253906e+01 1.458914726972579956e-01 -1.155786395072937012e+00 -3.029684722423553467e-01 1.551563292741775513e-01
1.994000000000000000e+03 5.340844154357910156e+00 -3.278609466552734375e+01 -7.050033658742904663e-03 -2.559353131800889969e-03 -2.882815897464752197e-03 1.854520291090011597e-03
1.995000000000000000e+03 8.337366104125976562e+00 -3.137682533264160156e+01 2.066454151645302773e-03 -8.271455881185829639e-04 3.717925865203142166e-04 -6.882032379508018494e-03
1.996000000000000000e+03 4.487305450439453125e+01 -7.595221996307373047e+00 -9.931893348693847656e-01 5.629748344421386719e+00 1.390967726707458496e+00 -1.030529975891113281e+00
1.997000000000000000e+03 3.967040061950683594e+00 1.038964080810546875e+01 3.698015213012695312e-02 -8.880040049552917480e-01 -2.553071677684783936e-01 4.790872633457183838e-01
1.998000000000000000e+03 5.138683795928955078e+00 1.047662448883056641e+01 7.009260356426239014e-02 -8.884698748588562012e-01 -2.455131858587265015e-01 5.655264854431152344e-01
1.999000000000000000e+03 5.472535610198974609e+00 -1.428565788269042969e+01 -2.706702100113034248e-03 1.979811349883675575e-04 -7.526163244619965553e-04 -2.486935700289905071e-04
2.000000000000000000e+03 6.521148681640625000e+00 -1.292551136016845703e+01 -2.364379353821277618e-03 2.501528360880911350e-04 -6.342679262161254883e-04 -4.768216458614915609e-04
2.001000000000000000e+03 4.797402381896972656e+00 8.659803390502929688e+00 -2.191563136875629425e-03 -7.462198734283447266e-01 -2.245234251022338867e-01 5.665031671524047852e-01
2.002000000000000000e+03 3.653275251388549805e+00 7.727492809295654297e+00 -3.071467764675617218e-02 -6.425378918647766113e-01 -2.019757777452468872e-01 4.663765132427215576e-01
2.003000000000000000e+03 5.420384407043457031e+00 9.335856437683105469e+00 3.841760009527206421e-02 -8.158441781997680664e-01 -2.332279682159423828e-01 6.067143082618713379e-01
2.004000000000000000e+03 5.057996273040771484e+00 -7.344815254211425781e+00 -1.782279694452881813e-03 -2.919678518082946539e-04 -6.222742376849055290e-04 -1.011902713798917830e-04
2.005000000000000000e+03 4.274718475341796875e+01 -8.655918121337890625e+00 -1.364504218101501465e+00 5.569578170776367188e+00 1.261522173881530762e+00 -1.146269440650939941e+00
2.006000000000000000e+03 5.049206256866455078e+00 -8.276089668273925781e+00 1.354141393676400185e-03 5.143832531757652760e-04 5.605573533102869987e-04 9.424387098988518119e-05
2.007000000000000000e+03 7.317006683349609375e+01 -6.093543529510498047e+00 2.237015962600708008e-01 7.710353851318359375e+00 2.380216598510742188e+00 -4.515216872096061707e-02
2.008000000000000000e+03 5.062113571166992188e+01 -2.872903633117675781e+01 1.747133970260620117e+00 5.599999427795410156e+00 2.204139947891235352e+00 -1.327012538909912109e+00
2.009000000000000000e+03 4.663208389282226562e+01 -1.189624595642089844e+01 -2.076214790344238281e+00 6.241748332977294922e+00 1.249660015106201172e+00 -1.885131001472473145e-01
2.010000000000000000e+03 1.462398719787597656e+01 -7.887900352478027344e+00 1.219284138642251492e-03 -6.363489228533580899e-05 3.466947528067976236e-04 -9.675664477981626987e-04
2.011000000000000000e+03 6.359700012207031250e+01 -1.603632164001464844e+01 -1.773661747574806213e-02 2.437068462371826172e+00 7.257995605468750000e-01 1.721267819404602051e+00
2.012000000000000000e+03 6.297373962402343750e+01 -1.854667091369628906e+01 -9.718971252441406250e-01 2.176024675369262695e+00 3.612382411956787109e-01 2.297394037246704102e+00
2.013000000000000000e+03 7.248755645751953125e+01 -8.171133995056152344e+00 2.303076535463333130e-01 7.158196449279785156e+00 2.216551065444946289e+00 -8.368573151528835297e-03
2.014000000000000000e+03 5.817575073242187500e+01 -1.835748863220214844e+01 -2.073436260223388672e+00 2.920254170894622803e-01 -5.344232916831970215e-01 2.485775232315063477e+00
2.015000000000000000e+03 5.603237533569335938e+01 -2.075557899475097656e+01 8.661811947822570801e-01 5.235329270362854004e-01 4.169142544269561768e-01 1.025854110717773438e+00
2.016000000000000000e+03 7.564241027832031250e+01 -2.844265365600585938e+01 6.945206522941589355e-01 7.268230915069580078e+00 2.388825416564941406e+00 -1.469363123178482056e-01
2.017000000000000000e+03 6.854073333740234375e+01 -1.186001300811767578e+01 7.838428020477294922e-01 4.981603145599365234e+00 1.729633808135986328e+00 8.765609264373779297e-01
2.018000000000000000e+03 3.923473358154296875e+01 4.909992694854736328e+00 9.666593670845031738e-01 6.768270969390869141e+00 2.320479154586791992e+00 -1.083177447319030762e+00
2.019000000000000000e+03 3.963602447509765625e+01 7.929295539855957031e+00 1.722988605499267578e+00 7.891806602478027344e+00 2.884438514709472656e+00 -1.176927685737609863e+00
2.020000000000000000e+03 7.194246673583984375e+01 -5.989117145538330078e+00 3.108963668346405029e-01 8.012234687805175781e+00 2.496939420700073242e+00 3.770309090614318848e-01
2.021000000000000000e+03 7.343511199951171875e+01 2.193306732177734375e+01 1.356226652860641479e-01 8.380599021911621094e+00 2.554866552352905273e+00 7.141651511192321777e-01
2.022000000000000000e+03 7.281889343261718750e+01 -1.233512878417968750e+01 5.343021452426910400e-02 6.103964805603027344e+00 1.847218513488769531e+00 -4.699071347713470459e-01
2.023000000000000000e+03 7.238231658935546875e+01 3.622299957275390625e+01 -4.483161568641662598e-01 6.295898437500000000e+00 1.754274725914001465e+00 -4.361602663993835449e-02
2.024000000000000000e+03 7.364070129394531250e+01 1.337945938110351562e+01 -1.976698189973831177e-01 8.909919738769531250e+00 2.613674879074096680e+00 6.056147813796997070e-01
2.025000000000000000e+03 7.375447082519531250e+01 1.187986373901367188e+01 -3.105584681034088135e-01 9.138578414916992188e+00 2.648406028747558594e+00 7.632231712341308594e-01
2.026000000000000000e+03 7.234508514404296875e+01 3.867977523803710938e+01 -6.513676792383193970e-02 6.121217250823974609e+00 1.816824078559875488e+00 -4.309057071805000305e-02
2.027000000000000000e+03 7.287755584716796875e+01 -2.311029243469238281e+01 -4.086460769176483154e-01 7.797904491424560547e+00 2.216777563095092773e+00 9.806997776031494141e-01
2.028000000000000000e+03 6.837458038330078125e+01 -3.904549789428710938e+01 4.760398864746093750e-01 2.571722030639648438e+00 9.143286347389221191e-01 6.015501022338867188e-01
2.029000000000000000e+03 7.233816528320312500e+01 -3.617855834960937500e+01 -4.346210062503814697e-01 5.325892448425292969e+00 1.467381477355957031e+00 4.418956041336059570e-01
2.030000000000000000e+03 8.542965888977050781e+00 -2.999157142639160156e+01 -4.244802519679069519e-03 9.446910116821527481e-04 -9.900333825498819351e-04 6.533966399729251862e-03
2.031000000000000000e+03 7.300545501708984375e+01 2.486388397216796875e+01 1.515357196331024170e-01 7.852975368499755859e+00 2.401353359222412109e+00 7.377392053604125977e-01
2.032000000000000000e+03 5.618425750732421875e+01 -2.256154441833496094e+01 1.827391862869262695e+00 1.281148791313171387e+00 9.325622320175170898e-01 9.643110036849975586e-01
2.033000000000000000e+03 6.917347717285156250e+01 -1.415922737121582031e+01 4.157505035400390625e-01 4.312857151031494141e+00 1.418582320213317871e+00 1.481917053461074829e-01
2.034000000000000000e+03 5.418154907226562500e+01 -2.554344749450683594e+01 2.275034189224243164e+00 3.620285987854003906e+00 1.768596053123474121e+00 -1.016568467020988464e-01
2.035000000000000000e+03 4.585355377197265625e+01 -2.298332405090332031e+01 2.854662895202636719e+00 1.052353382110595703e+01 4.013459205627441406e+00 -3.318169832229614258e+00
2.036000000000000000e+03 6.470326995849609375e+01 -1.510301017761230469e+01 6.358662247657775879e-01 2.727732658386230469e+00 1.009079575538635254e+00 1.529919624328613281e+00
2.037000000000000000e+03 7.225776672363281250e+01 2.761272048950195312e+01 -1.560414731502532959e-01 7.048795223236083984e+00 2.067826271057128906e+00 7.216308116912841797e-01
2.038000000000000000e+03 7.283428192138671875e+01 3.060659790039062500e+01 -6.019541025161743164e-01 7.037523269653320312e+00 1.930670738220214844e+00 5.872144699096679688e-01
2.039000000000000000e+03 7.409892272949218750e+01 3.050211906433105469e+01 -4.689244925975799561e-01 7.962212085723876953e+00 2.247986316680908203e+00 7.201632261276245117e-01
2.040000000000000000e+03 5.464866638183593750e+01 -2.384633064270019531e+01 2.288612604141235352e+00 2.430165529251098633e+00 1.415633440017700195e+00 1.321067810058593750e-01
2.041000000000000000e+03 3.909653472900390625e+01 2.854405593872070312e+01 -2.952682077884674072e-01 4.431664943695068359e+00 1.240918993949890137e+00 -7.672604918479919434e-02
2.042000000000000000e+03 4.019510269165039062e+01 2.780951690673828125e+01 -1.750247478485107422e-01 4.640751838684082031e+00 1.339718103408813477e+00 1.348448544740676880e-01
2.043000000000000000e+03 4.522264480590820312e+01 3.404505920410156250e+01 -7.143222689628601074e-01 3.052760124206542969e+00 7.015314102172851562e-01 3.952889740467071533e-01
2.044000000000000000e+03 7.281523132324218750e+01 -3.174702644348144531e+00 4.691424071788787842e-01 8.994248390197753906e+00 2.839017152786254883e+00 2.247405499219894409e-01
2.045000000000000000e+03 3.621095657348632812e+01 1.012712574005126953e+01 1.861441016197204590e+00 5.626695156097412109e+00 2.246440887451171875e+00 -8.289819955825805664e-01
2.046000000000000000e+03 4.753856658935546875e+01 4.125529098510742188e+01 -1.022598624229431152e+00 2.313650846481323242e+00 3.873156607151031494e-01 6.870429962873458862e-02
2.047000000000000000e+03 4.728700256347656250e+01 3.644911956787109375e+01 -8.460542559623718262e-01 2.389879226684570312e+00 4.631475210189819336e-01 3.670270144939422607e-01
2.048000000000000000e+03 4.556880187988281250e+01 -2.138940620422363281e+01 6.401051998138427734e+00 1.029760074615478516e+01 5.009595870971679688e+00 -2.015919446945190430e+00
2.049000000000000000e+03 4.573678970336914062e+01 -2.181571578979492188e+01 5.675458431243896484e+00 1.013486862182617188e+01 4.743098258972167969e+00 -2.834191560745239258e+00
2.050000000000000000e+03 4.154808425903320312e+01 -1.846665954589843750e+01 1.330351233482360840e+00 5.030998229980468750e+00 1.908404827117919922e+00 -3.850353002548217773e+00
2.051000000000000000e+03 4.314970016479492188e+01 -1.803693199157714844e+01 -3.413667678833007812e-01 9.347963333129882812e+00 2.701978921890258789e+00 -3.460487842559814453e+00
2.052000000000000000e+03 4.650392913818359375e+01 -2.049378585815429688e+01 3.936504602432250977e+00 8.570150375366210938e+00 3.751996278762817383e+00 -6.921936869621276855e-01
2.053000000000000000e+03 4.582629013061523438e+01 -2.145796585083007812e+01 5.810873508453369141e+00 9.659747123718261719e+00 4.641186237335205078e+00 -2.053396224975585938e+00
2.054000000000000000e+03 4.560232162475585938e+01 -2.196187400817871094e+01 5.560563087463378906e+00 1.050090026855468750e+01 4.818439006805419922e+00 -3.165999174118041992e+00
2.055000000000000000e+03 4.535189056396484375e+01 -2.012739372253417969e+01 4.009101867675781250e+00 1.120011329650878906e+01 4.562764644622802734e+00 3.135170042514801025e-02
2.056000000000000000e+03 4.580994796752929688e+01 -2.091479682922363281e+01 5.544119834899902344e+00 9.766684532165527344e+00 4.593241214752197266e+00 -1.034853696823120117e+00
2.057000000000000000e+03 4.591101455688476562e+01 -2.126955986022949219e+01 5.611418724060058594e+00 9.431010246276855469e+00 4.512728691101074219e+00 -1.751235246658325195e+00
2.058000000000000000e+03 4.524620437622070312e+01 -1.988672065734863281e+01 3.190966844558715820e+00 1.154888153076171875e+01 4.421954631805419922e+00 5.163844209164381027e-03
2.059000000000000000e+03 5.018721771240234375e+01 -1.673394966125488281e+01 -2.106258630752563477e+00 4.449595928192138672e+00 7.030012011528015137e-01 1.706172525882720947e-01
2.060000000000000000e+03 4.468280410766601562e+01 -2.579057121276855469e+01 -4.282310605049133301e-02 9.938005447387695312e+00 2.968554735183715820e+00 5.819674581289291382e-02
2.061000000000000000e+03 4.481574249267578125e+01 -1.952926635742187500e+01 1.837563276290893555e+00 1.257475376129150391e+01 4.323695182800292969e+00 -4.168583750724792480e-01
2.062000000000000000e+03 4.451810455322265625e+01 -1.904713630676269531e+01 5.284501314163208008e-01 1.220432281494140625e+01 3.819831848144531250e+00 -1.267119288444519043e+00
2.063000000000000000e+03 4.268286514282226562e+01 -1.862675476074218750e+01 7.236574292182922363e-01 8.429112434387207031e+00 2.745831012725830078e+00 -4.361117839813232422e+00
2.064000000000000000e+03 4.089879608154296875e+01 -1.869404792785644531e+01 1.767623901367187500e+00 3.376593589782714844e+00 1.543265223503112793e+00 -3.276231050491333008e+00
2.065000000000000000e+03 4.242152023315429688e+01 -1.903063201904296875e+01 1.563273549079895020e+00 7.569392204284667969e+00 2.739799737930297852e+00 -4.825532913208007812e+00
2.066000000000000000e+03 4.341749954223632812e+01 -2.472638893127441406e+01 -7.775695323944091797e-01 1.001541328430175781e+01 2.771353006362915039e+00 1.004023432731628418e+00
2.067000000000000000e+03 4.120658111572265625e+01 -1.859106826782226562e+01 1.677665114402770996e+00 4.016150474548339844e+00 1.708144664764404297e+00 -3.569012880325317383e+00
2.068000000000000000e+03 4.129846191406250000e+01 -1.898779678344726562e+01 2.039573907852172852e+00 3.816441059112548828e+00 1.756804466247558594e+00 -3.702471256256103516e+00
2.069000000000000000e+03 1.059892940521240234e+01 -1.016249752044677734e+01 -1.887801568955183029e-03 -9.406556491740047932e-04 -8.485371363349258900e-04 -9.435175452381372452e-04
2.070000000000000000e+03 1.316443347930908203e+01 -1.045303535461425781e+01 1.342184375971555710e-03 1.077268971130251884e-03 7.258359692059457302e-04 -2.346510736970230937e-04
2.071000000000000000e+03 2.197469139099121094e+01 1.178358316421508789e+00 -4.018283486366271973e-01 -5.063679218292236328e-01 -2.724588811397552490e-01 5.452975034713745117e-01
2.072000000000000000e+03 1.221277618408203125e+01 -6.346775531768798828e+00 -1.475619646953418851e-04 2.412406611256301403e-04 2.810361002048011869e-05 -4.683123843278735876e-04
2.073000000000000000e+03 8.483375549316406250e+00 -1.149897575378417969e+01 1.227753120474517345e-03 1.717357808956876397e-04 4.198466776870191097e-04 6.585284718312323093e-04
2.074000000000000000e+03 4.681877613067626953e+00 6.689461231231689453e+00 -9.547014534473419189e-02 -5.691772103309631348e-01 -1.993941962718963623e-01 5.542809367179870605e-01
2.075000000000000000e+03 7.181798934936523438e+00 5.679234027862548828e+00 -2.094557583332061768e-01 -6.095125675201416016e-01 -2.456904947757720947e-01 7.727482914924621582e-01
2.076000000000000000e+03 2.998396682739257812e+01 -1.203614330291748047e+01 -9.253269433975219727e-01 4.758965373039245605e-01 -1.348291188478469849e-01 6.417427062988281250e-01
2.077000000000000000e+03 1.422259140014648438e+01 -7.593669891357421875e+00 -5.750339478254318237e-04 -4.126103885937482119e-04 -2.962932921946048737e-04 1.077239750884473324e-03
2.078000000000000000e+03 7.058378696441650391e+00 4.800247669219970703e+00 -3.130590319633483887e-01 -5.190461277961730957e-01 -2.496315389871597290e-01 7.495751380920410156e-01
2.079000000000000000e+03 5.940296649932861328e+00 5.717491626739501953e+00 -1.892895400524139404e-01 -5.368300080299377441e-01 -2.178358584642410278e-01 6.585198044776916504e-01
2.080000000000000000e+03 2.973659896850585938e+01 -1.093085098266601562e+01 -9.708231687545776367e-01 5.864858031272888184e-01 -1.153012141585350037e-01 6.425330042839050293e-01
2.081000000000000000e+03 2.852140045166015625e+01 -1.105552196502685547e+01 -1.023432970046997070e+00 2.335451543331146240e-01 -2.369663566350936890e-01 8.347444534301757812e-01
2.082000000000000000e+03 2.940131950378417969e+01 -1.169219303131103516e+01 -9.662257432937622070e-01 3.754801154136657715e-01 -1.772236824035644531e-01 7.309818863868713379e-01
2.083000000000000000e+03 7.582777500152587891e+00 5.016000270843505859e+00 -3.078614473342895508e-01 -5.732222199440002441e-01 -2.643251121044158936e-01 7.902897000312805176e-01
2.084000000000000000e+03 6.683550357818603516e+00 5.351603507995605469e+00 -2.335567325353622437e-01 -5.508369207382202148e-01 -2.353180944919586182e-01 7.188585400581359863e-01
2.085000000000000000e+03 4.072654724121093750e+01 -1.735710144042968750e+01 3.153541982173919678e-01 4.374611377716064453e+00 1.406989693641662598e+00 -3.035495519638061523e+00
2.086000000000000000e+03 2.754555511474609375e+01 -8.099820137023925781e+00 -1.205297231674194336e+00 3.184908926486968994e-01 -2.660419046878814697e-01 7.915451526641845703e-01
2.087000000000000000e+03 3.083774566650390625e+01 -1.357134532928466797e+01 -9.049394726753234863e-01 3.736029863357543945e-01 -1.594009548425674438e-01 5.333828926086425781e-01
2.088000000000000000e+03 6.913283824920654297e+00 -6.378281593322753906e+00 -3.375226515345275402e-04 1.923396921483799815e-04 -4.355488999863155186e-05 8.721974445506930351e-04
2.089000000000000000e+03 7.739173889160156250e+00 -6.938529014587402344e+00 -3.930418461095541716e-04 1.140975859016180038e-03 2.243802009616047144e-04 6.467556813731789589e-04
2.090000000000000000e+03 4.514450836181640625e+01 -2.620555496215820312e+01 3.333294689655303955e-01 9.341496467590332031e+00 2.902447700500488281e+00 -2.319298088550567627e-01
2.091000000000000000e+03 4.563498687744140625e+01 -2.715751647949218750e+01 9.204999208450317383e-01 8.363893508911132812e+00 2.785318136215209961e+00 -2.067558616399765015e-01
2.092000000000000000e+03 1.137389564514160156e+01 -5.694868087768554688e+00 -7.067060214467346668e-04 2.064723958028480411e-04 -1.500700891483575106e-04 -5.852410686202347279e-04
2.093000000000000000e+03 6.593491077423095703e+00 -5.717879295349121094e+00 6.818130495958030224e-04 3.461276719463057816e-05 2.149277424905449152e-04 -7.404980133287608624e-04
2.094000000000000000e+03 6.378857135772705078e+00 -6.793354034423828125e+00 1.576497568748891354e-03 1.253417722182348371e-04 5.105517921037971973e-04 3.751530894078314304e-04
2.095000000000000000e+03 1.697878646850585938e+01 2.024262428283691406e+00 -6.791685223579406738e-01 -1.241355180740356445e+00 -5.761570930480957031e-01 9.773538112640380859e-01
2.096000000000000000e+03 1.709534454345703125e+01 3.838497400283813477e+00 -1.761672496795654297e-01 -1.080297231674194336e+00 -3.769393265247344971e-01 7.997137308120727539e-01
2.097000000000000000e+03 1.740785026550292969e+01 2.669662475585937500e+00 -4.441850781440734863e-01 -1.157888174057006836e+00 -4.806219935417175293e-01 8.741587996482849121e-01
2.098000000000000000e+03 2.656598663330078125e+01 -6.230394840240478516e+00 -1.233318686485290527e+00 1.996874958276748657e-01 -3.100893497467041016e-01 7.548039555549621582e-01
2.099000000000000000e+03 2.495101547241210938e+01 -3.799148082733154297e+00 -1.154483079910278320e+00 -1.271897703409194946e-01 -3.845018744468688965e-01 7.143523097038269043e-01
2.100000000000000000e+03 1.617829513549804688e+01 -8.962106704711914062e+00 -9.676498593762516975e-04 1.273639791179448366e-04 -2.520857669878751040e-04 7.843609200790524483e-04
2.101000000000000000e+03 2.284779548645019531e+01 -1.853267073631286621e+00 -1.020269393920898438e+00 -6.042072176933288574e-01 -4.873429834842681885e-01 7.551403045654296875e-01
2.102000000000000000e+03 2.227298545837402344e+01 -1.246552348136901855e+00 -9.535182118415832520e-01 -7.029472589492797852e-01 -4.969396293163299561e-01 7.562955617904663086e-01
2.103000000000000000e+03 2.115070343017578125e+01 -1.198666214942932129e+00 -1.088500857353210449e+00 -1.011583685874938965e+00 -6.300253868103027344e-01 9.070093035697937012e-01
2.104000000000000000e+03 8.513871192932128906e+00 -6.079524040222167969e+00 6.670109578408300877e-04 2.676528820302337408e-04 2.803991665132343769e-04 5.023777484893798828e-04
2.105000000000000000e+03 3.958021545410156250e+01 -1.604574394226074219e+01 -4.535143077373504639e-01 3.536801338195800781e+00 9.249860644340515137e-01 -2.381717681884765625e+00
2.106000000000000000e+03 8.189022064208984375e+00 6.356350898742675781e+00 -1.402152478694915771e-01 -7.270550131797790527e-01 -2.601810693740844727e-01 8.437592983245849609e-01
2.107000000000000000e+03 2.871786308288574219e+01 -9.861285209655761719e+00 -1.080577969551086426e+00 4.645812213420867920e-01 -1.847990304231643677e-01 7.506354451179504395e-01
2.108000000000000000e+03 4.703329086303710938e+01 -2.299487686157226562e+01 3.067287445068359375e+00 8.314566612243652344e+00 3.414556026458740234e+00 -2.806303024291992188e+00
2.109000000000000000e+03 1.509471225738525391e+01 -8.525035858154296875e+00 1.324539305642247200e-03 -3.122086054645478725e-04 3.036992275156080723e-04 2.271898993058130145e-04
2.110000000000000000e+03 2.886075210571289062e+01 -8.737902641296386719e+00 -1.101602077484130859e+00 6.820455789566040039e-01 -1.258669495582580566e-01 6.537246704101562500e-01
2.111000000000000000e+03 2.733464050292968750e+01 -9.171085357666015625e+00 -1.196661233901977539e+00 9.691316634416580200e-02 -3.299244046211242676e-01 8.955295085906982422e-01
2.112000000000000000e+03 1.244848632812500000e+01 -7.042226314544677734e+00 -1.886483369162306190e-05 -2.990741340909153223e-04 -9.538168524159118533e-05 1.892784493975341320e-04
2.113000000000000000e+03 1.543173408508300781e+01 -1.031961727142333984e+01 -1.328961225226521492e-03 -1.197350575239397585e-04 -4.346088680904358625e-04 -4.388678935356438160e-04
2.114000000000000000e+03 1.815449714660644531e+01 2.161377906799316406e+00 -5.128568410873413086e-01 -1.134096622467041016e+00 -4.940860569477081299e-01 8.522598743438720703e-01
2.115000000000000000e+03 1.888700675964355469e+01 1.638038277626037598e+00 -5.782943964004516602e-01 -1.097692370414733887e+00 -5.027960538864135742e-01 8.332176208496093750e-01
2.116000000000000000e+03 2.421366691589355469e+01 -3.478650808334350586e+00 -1.168173909187316895e+00 -3.315926790237426758e-01 -4.499299526214599609e-01 7.781015038490295410e-01
2.117000000000000000e+03 1.445068740844726562e+01 4.613659381866455078e+00 -1.899742037057876587e-01 -1.116417765617370605e+00 -3.919176161289215088e-01 9.276657104492187500e-01
2.118000000000000000e+03 3.057051277160644531e+01 -1.239676666259765625e+01 -8.936457037925720215e-01 5.220048427581787109e-01 -1.114922612905502319e-01 5.487350225448608398e-01
2.119000000000000000e+03 1.590326595306396484e+01 3.653330564498901367e+00 -3.155491054058074951e-01 -1.159587979316711426e+00 -4.425411224365234375e-01 9.080827832221984863e-01
2.120000000000000000e+03 1.516745662689208984e+01 4.136640548706054688e+00 -2.521754801273345947e-01 -1.141382217407226562e+00 -4.180673062801361084e-01 9.194665551185607910e-01
2.121000000000000000e+03 2.719929122924804688e+01 -7.496145725250244141e+00 -1.226407051086425781e+00 2.738557755947113037e-01 -2.857653796672821045e-01 7.874230146408081055e-01
2.122000000000000000e+03 2.659742736816406250e+01 -7.928493976593017578e+00 -1.280510544776916504e+00 -2.373865433037281036e-02 -3.912747502326965332e-01 9.041960835456848145e-01
2.123000000000000000e+03 3.713787078857421875e+01 3.131985425949096680e+00 5.661084651947021484e-01 5.332132339477539062e+00 1.769472241401672363e+00 -6.945471763610839844e-01
2.124000000000000000e+03 8.461772918701171875e+00 -7.592576026916503906e+00 1.068070065230131149e-03 5.405846168287098408e-04 4.825964279007166624e-04 -9.573188435751944780e-05
2.125000000000000000e+03 1.315988159179687500e+01 -6.787939548492431641e+00 -1.386593357892706990e-04 5.381669616326689720e-04 1.198522950289770961e-04 -8.445356070296838880e-05
2.126000000000000000e+03 3.863968276977539062e+01 -1.434520244598388672e+01 -7.867842316627502441e-01 3.221677780151367188e+00 7.304680347442626953e-01 -1.882496714591979980e+00
2.127000000000000000e+03 1.121179199218750000e+01 4.579631328582763672e+00 -3.666749298572540283e-01 -9.413160681724548340e-01 -3.923973143100738525e-01 9.981704354286193848e-01
2.128000000000000000e+03 4.438327407836914062e+01 -5.415363311767578125e+00 -5.812347531318664551e-01 5.582494735717773438e+00 1.500378012657165527e+00 -1.336716055870056152e+00
2.129000000000000000e+03 4.494655609130859375e+01 -8.620748519897460938e+00 -1.261633038520812988e+00 5.741560935974121094e+00 1.343978404998779297e+00 -8.893114924430847168e-01
2.130000000000000000e+03 4.861997604370117188e+01 -1.261316776275634766e+01 -2.165182828903198242e+00 5.426051139831542969e+00 9.782605171203613281e-01 4.690807461738586426e-01
2.131000000000000000e+03 7.332042694091796875e+01 -1.864849281311035156e+01 -1.165441989898681641e+00 6.539190769195556641e+00 1.612124681472778320e+00 -5.096331238746643066e-01
2.132000000000000000e+03 6.942376708984375000e+01 -1.623406028747558594e+01 -6.720073521137237549e-02 3.717333078384399414e+00 1.095039725303649902e+00 -2.493161410093307495e-01
2.133000000000000000e+03 4.353328323364257812e+01 -3.174275398254394531e+00 -2.917641401290893555e-01 5.723790645599365234e+00 1.629607915878295898e+00 -1.593899488449096680e+00
2.134000000000000000e+03 4.325720596313476562e+01 -5.609818935394287109e+00 -7.647504210472106934e-01 5.542300701141357422e+00 1.433265089988708496e+00 -1.282245755195617676e+00
2.135000000000000000e+03 5.300056838989257812e+01 -2.206148910522460938e+01 1.722291231155395508e+00 2.208008050918579102e+00 1.179089784622192383e+00 -7.167354226112365723e-01
2.136000000000000000e+03 4.083116912841796875e+01 -1.741563528776168823e-01 -4.213377088308334351e-02 5.967367649078369141e+00 1.777570247650146484e+00 -1.424407601356506348e+00
2.137000000000000000e+03 4.241955184936523438e+01 -3.461735248565673828e+00 -4.706620872020721436e-01 5.627257347106933594e+00 1.546978592872619629e+00 -1.423797965049743652e+00
2.138000000000000000e+03 1.421003532409667969e+01 -1.098311138153076172e+01 -1.761452760547399521e-03 -5.062452983111143112e-04 -6.803094292990863323e-04 2.534138620831072330e-04
2.139000000000000000e+03 1.453920173645019531e+01 -1.007497787475585938e+01 1.806258689612150192e-03 7.685605669394135475e-05 5.649344529956579208e-04 2.247639713459648192e-05
2.140000000000000000e+03 3.672369480133056641e+00 6.555083751678466797e+00 -7.233061641454696655e-02 -5.220522880554199219e-01 -1.783148646354675293e-01 4.445865154266357422e-01
2.141000000000000000e+03 1.564492034912109375e+01 -9.500288963317871094e+00 1.501920749433338642e-03 1.752518874127417803e-04 5.031517939642071724e-04 6.681148079223930836e-05
2.142000000000000000e+03 1.376589584350585938e+01 5.087862014770507812e+00 -1.279966980218887329e-01 -1.084498286247253418e+00 -3.637484908103942871e-01 9.321487545967102051e-01
2.143000000000000000e+03 1.133862209320068359e+01 5.516845226287841797e+00 -1.653452813625335693e-01 -9.596595764160156250e-01 -3.375014662742614746e-01 9.657890200614929199e-01
2.144000000000000000e+03 4.217410659790039062e+01 -5.820655345916748047e+00 -8.726513981819152832e-01 5.417520999908447266e+00 1.363460779190063477e+00 -1.243228793144226074e+00
2.145000000000000000e+03 5.168557357788085938e+01 -1.923395347595214844e+01 3.931708633899688721e-02 2.611967563629150391e+00 7.953853607177734375e-01 -5.330511331558227539e-01
2.146000000000000000e+03 4.628081130981445312e+01 -2.803796768188476562e+01 9.926261901855468750e-01 7.657474517822265625e+00 2.595030069351196289e+00 -6.068597435951232910e-01
2.147000000000000000e+03 4.601705551147460938e+01 -2.655798149108886719e+01 6.313377618789672852e-01 8.684897422790527344e+00 2.794870615005493164e+00 -7.145580649375915527e-01
2.148000000000000000e+03 4.467265319824218750e+01 -3.393535995483398438e+01 -4.079287350177764893e-01 5.961651802062988281e+00 1.666116952896118164e+00 1.800107359886169434e-01
2.149000000000000000e+03 4.625067901611328125e+01 -3.093080520629882812e+01 8.133899569511413574e-01 6.524941444396972656e+00 2.201499462127685547e+00 -4.795850217342376709e-01
2.150000000000000000e+03 5.304612350463867188e+01 -1.946930313110351562e+01 5.660717934370040894e-02 1.199445605278015137e+00 3.768158257007598877e-01 -3.791835010051727295e-01
2.151000000000000000e+03 4.074140930175781250e+01 2.481265544891357422e+00 4.147201478481292725e-01 6.662475109100341797e+00 2.123158693313598633e+00 -1.530626773834228516e+00
2.152000000000000000e+03 4.191197967529296875e+01 -2.372369289398193359e+00 -3.326380252838134766e-01 5.709056854248046875e+00 1.612925648689270020e+00 -1.466798663139343262e+00
2.153000000000000000e+03 3.157253456115722656e+01 -9.006654739379882812e+00 -9.321189522743225098e-01 1.493263006210327148e+00 1.683432161808013916e-01 1.955777853727340698e-01
2.154000000000000000e+03 3.480762100219726562e+01 -1.406507301330566406e+01 -7.183342576026916504e-01 1.196407675743103027e+00 1.434220373630523682e-01 -4.751333892345428467e-01
2.155000000000000000e+03 4.982002258300781250e+01 -1.453556823730468750e+01 -2.544683933258056641e+00 4.677569866180419922e+00 6.398656964302062988e-01 7.758848071098327637e-01
2.156000000000000000e+03 4.526340484619140625e+01 -1.906772422790527344e+01 1.013051748275756836e+00 1.119781970977783203e+01 3.663261413574218750e+00 -3.042298257350921631e-01
2.157000000000000000e+03 5.078424453735351562e+01 -2.777542114257812500e+01 1.852419614791870117e+00 5.471951484680175781e+00 2.197311401367187500e+00 -1.407205939292907715e+00
2.158000000000000000e+03 5.306477355957031250e+01 -2.627724075317382812e+01 2.101630687713623047e+00 4.305405616760253906e+00 1.922110915184020996e+00 -7.754570841789245605e-01
2.159000000000000000e+03 5.240209579467773438e+01 -1.857168006896972656e+01 -9.516286253929138184e-01 1.803483963012695312e+00 2.555566132068634033e-01 -4.681634008884429932e-01
2.160000000000000000e+03 8.577153205871582031e+00 -3.460607147216796875e+01 2.220358233898878098e-03 -2.512535778805613518e-03 -8.765319944359362125e-05 -9.054998867213726044e-03
2.161000000000000000e+03 9.467215538024902344e+00 -3.141066932678222656e+01 -1.104831974953413010e-02 -4.189911705907434225e-04 -3.440193133428692818e-03 3.218628000468015671e-03
2.162000000000000000e+03 3.678511047363281250e+01 -1.428683662414550781e+01 -6.690660715103149414e-01 1.989940404891967773e+00 3.962622880935668945e-01 -1.213200330734252930e+00
2.163000000000000000e+03 4.479100799560546875e+01 -1.054813861846923828e+01 -1.759675502777099609e+00 6.101798534393310547e+00 1.302636861801147461e+00 -7.917027473449707031e-01
2.164000000000000000e+03 5.699700164794921875e+01 -2.055926132202148438e+01 5.060454010963439941e-01 2.906762063503265381e-01 2.390164881944656372e-01 1.781926512718200684e+00
2.165000000000000000e+03 6.355496406555175781e+00 -2.920311164855957031e+01 -2.999629359692335129e-03 4.701428042608313262e-05 -8.857845095917582512e-04 3.841549158096313477e-03
2.166000000000000000e+03 6.891440391540527344e+00 -3.278354263305664062e+01 2.081778133288025856e-03 2.645809436216950417e-04 7.039077463559806347e-04 -6.669131573289632797e-03
2.167000000000000000e+03 6.653825378417968750e+01 -1.773745536804199219e+01 -2.764366865158081055e-01 2.040971994400024414e+00 5.293605923652648926e-01 1.051843404769897461e+00
2.168000000000000000e+03 6.784321594238281250e+01 -1.480095291137695312e+01 4.353038668632507324e-01 3.570421695709228516e+00 1.201717615127563477e+00 5.601484775543212891e-01
2.169000000000000000e+03 4.976808929443359375e+01 -2.955585289001464844e+01 1.512122631072998047e+00 5.905668258666992188e+00 2.225337266921997070e+00 -1.187903165817260742e+00
2.170000000000000000e+03 5.106595611572265625e+01 -3.428447341918945312e+01 3.954371511936187744e-01 5.724514484405517578e+00 1.835985422134399414e+00 -4.906405210494995117e-01
2.171000000000000000e+03 1.071199226379394531e+01 2.821225166320800781e+01 1.279676705598831177e-01 -4.404654800891876221e-01 -9.374934434890747070e-02 -9.485008567571640015e-02
2.172000000000000000e+03 9.277711868286132812e+00 3.258121109008789062e+01 1.178114674985408783e-02 -6.146954298019409180e-01 -1.808742880821228027e-01 -8.844695985317230225e-02
2.173000000000000000e+03 7.461572265625000000e+01 1.646971130371093750e+01 4.004086926579475403e-02 8.553640365600585938e+00 2.578104496002197266e+00 7.417608499526977539e-01
2.174000000000000000e+03 7.431271362304687500e+01 -2.202114820480346680e+00 3.792974054813385010e-01 8.057130813598632812e+00 2.530928373336791992e+00 -1.218109428882598877e-01
2.175000000000000000e+03 7.426205444335937500e+01 -1.627124404907226562e+01 -6.208000779151916504e-01 6.479395866394042969e+00 1.757578730583190918e+00 -6.560727357864379883e-01
2.176000000000000000e+03 7.292131042480468750e+01 -9.379539489746093750e+00 1.271265149116516113e-01 6.791419982910156250e+00 2.075563907623291016e+00 -2.854314744472503662e-01
2.177000000000000000e+03 7.541848754882812500e+01 5.966747760772705078e+00 3.065491318702697754e-01 8.166529655456542969e+00 2.541923522949218750e+00 9.079941511154174805e-01
2.178000000000000000e+03 7.085553741455078125e+01 -1.527214431762695312e+01 -1.677995473146438599e-01 4.786447525024414062e+00 1.385594367980957031e+00 -5.123575925827026367e-01
2.179000000000000000e+03 7.434268951416015625e+01 -1.824112892150878906e+01 -9.333173036575317383e-01 6.806510925292968750e+00 1.761958122253417969e+00 -3.621329069137573242e-01
2.180000000000000000e+03 7.416925811767578125e+01 -1.735687255859375000e+01 -7.475231289863586426e-01 6.561114311218261719e+00 1.744077444076538086e+00 -5.475242137908935547e-01
2.181000000000000000e+03 9.228112220764160156e+00 2.011254310607910156e+01 2.921217083930969238e-01 -8.172274231910705566e-01 -1.575317084789276123e-01 1.917515397071838379e-01
2.182000000000000000e+03 6.917572021484375000e+01 -1.878804779052734375e+01 -8.033410310745239258e-01 2.236736536026000977e+00 4.300186634063720703e-01 -6.269145607948303223e-01
2.183000000000000000e+03 6.045815467834472656e+00 2.745355796813964844e+01 5.952000245451927185e-02 -1.191208243370056152e+00 -3.395064473152160645e-01 -1.361445616930723190e-02
2.184000000000000000e+03 4.373306274414062500e+00 -2.059441566467285156e+01 3.069759579375386238e-03 9.933102410286664963e-04 1.218920922838151455e-03 -2.684710489120334387e-04
2.185000000000000000e+03 7.442793369293212891e+00 -1.164765644073486328e+01 -2.030785894021391869e-03 1.686926698312163353e-04 -5.586279439739882946e-04 -6.418527918867766857e-04
2.186000000000000000e+03 5.107669830322265625e+00 -1.056871986389160156e+01 1.909489277750253677e-03 2.274123107781633735e-04 6.410704809240996838e-04 4.150077584199607372e-04
2.187000000000000000e+03 6.796556091308593750e+01 -1.760696601867675781e+01 -2.758921980857849121e-01 2.329707622528076172e+00 6.161445975303649902e-01 2.375575602054595947e-01
2.188000000000000000e+03 6.521311283111572266e+00 1.564704799652099609e+01 1.838818341493606567e-01 -1.061332345008850098e+00 -2.632351815700531006e-01 4.097766578197479248e-01
2.189000000000000000e+03 6.659800052642822266e+00 1.689409637451171875e+01 1.994464099407196045e-01 -1.074012875556945801e+00 -2.623699307441711426e-01 3.578090965747833252e-01
2.190000000000000000e+03 5.333763122558593750e+00 1.578411483764648438e+01 1.357251703739166260e-01 -1.149627923965454102e+00 -3.041708171367645264e-01 3.722968697547912598e-01
2.191000000000000000e+03 6.124399185180664062e+00 -8.207565307617187500e+00 -3.484956978354603052e-04 -8.027701405808329582e-04 -3.453797544352710247e-04 -7.187040755525231361e-04
2.192000000000000000e+03 5.073970794677734375e+00 -9.381183624267578125e+00 -1.500184298492968082e-03 -5.356558249332010746e-04 -6.107520312070846558e-04 -2.915480872616171837e-04
2.193000000000000000e+03 6.375983715057373047e+00 1.438799190521240234e+01 1.822893172502517700e-01 -1.038167476654052734e+00 -2.567634582519531250e-01 4.680492579936981201e-01
2.194000000000000000e+03 5.140032768249511719e+00 1.315915966033935547e+01 1.201797276735305786e-01 -1.050165295600891113e+00 -2.789956629276275635e-01 4.730552434921264648e-01
2.195000000000000000e+03 7.290537357330322266e+00 1.944730758666992188e+01 2.069635838270187378e-01 -1.036399483680725098e+00 -2.488307654857635498e-01 2.357006669044494629e-01
2.196000000000000000e+03 5.945683002471923828e+00 1.982737350463867188e+01 1.483071446418762207e-01 -1.180289983749389648e+00 -3.095948398113250732e-01 2.074749022722244263e-01
2.197000000000000000e+03 3.566540908813476562e+01 1.830500221252441406e+01 1.078276872634887695e+00 5.152621269226074219e+00 1.869269490242004395e+00 -7.869724631309509277e-01
2.198000000000000000e+03 8.395384788513183594e+00 -3.289348602294921875e+01 -8.572714403271675110e-03 -2.794710453599691391e-03 -3.410227363929152489e-03 2.621391555294394493e-03
2.199000000000000000e+03 7.471449375152587891e+00 2.768734359741210938e+01 8.488094806671142578e-02 -9.733079671859741211e-01 -2.665280997753143311e-01 -2.959808520972728729e-02
2.200000000000000000e+03 7.577609062194824219e+00 6.939605236053466797e+00 -8.510874211788177490e-02 -7.197251915931701660e-01 -2.414501905441284180e-01 7.852832674980163574e-01
2.201000000000000000e+03 5.647391319274902344e+00 8.349122047424316406e+00 -7.977464236319065094e-03 -7.353699803352355957e-01 -2.230042368173599243e-01 6.534442305564880371e-01
2.202000000000000000e+03 3.896462631225585938e+01 3.045176744461059570e+00 5.186970233917236328e-01 6.242375850677490234e+00 2.028321743011474609e+00 -1.045101642608642578e+00
2.203000000000000000e+03 1.067372131347656250e+01 -1.194226837158203125e+01 2.776432374957948923e-04 -2.788660276564769447e-05 7.492698932765051723e-05 -1.134965685196220875e-03
2.204000000000000000e+03 4.561462783813476562e+01 -1.163142299652099609e+01 -2.017971754074096680e+00 6.366426944732666016e+00 1.304536581039428711e+00 -5.195223689079284668e-01
2.205000000000000000e+03 6.252468585968017578e+00 1.313039016723632812e+01 1.624506562948226929e-01 -1.001792430877685547e+00 -2.518025338649749756e-01 5.210420489311218262e-01
2.206000000000000000e+03 5.315457344055175781e+00 -1.304856586456298828e+01 2.477849833667278290e-03 -1.622993295313790441e-04 6.946651265025138855e-04 3.368520119693130255e-04
2.207000000000000000e+03 7.695816993713378906e+00 -1.276858615875244141e+01 2.106834668666124344e-03 -2.115291426889598370e-04 5.685916403308510780e-04 6.496066926047205925e-04
2.208000000000000000e+03 7.336999893188476562e+00 8.713086128234863281e+00 5.278706550598144531e-02 -8.167293071746826172e-01 -2.291826754808425903e-01 7.441790103912353516e-01
2.209000000000000000e+03 3.580284881591796875e+01 1.216528797149658203e+01 1.834973692893981934e+00 5.519693851470947266e+00 2.206400156021118164e+00 -8.969111442565917969e-01
2.210000000000000000e+03 5.338983535766601562e+00 -6.670942306518554688e+00 2.270804485306143761e-03 -5.100243142805993557e-04 5.282340571284294128e-04 -2.090492926072329283e-04
2.211000000000000000e+03 3.728215026855468750e+01 9.314415931701660156e+00 1.881197929382324219e+00 6.248048305511474609e+00 2.438773870468139648e+00 -8.653701543807983398e-01
2.212000000000000000e+03 3.903677749633789062e+01 9.163571357727050781e+00 1.954481244087219238e+00 7.612178802490234375e+00 2.869997978210449219e+00 -1.049945354461669922e+00
2.213000000000000000e+03 7.509757995605468750e+01 7.860476374626159668e-01 5.441459417343139648e-01 7.887462615966796875e+00 2.529482603073120117e+00 1.665157079696655273e-01
2.214000000000000000e+03 4.032217788696289062e+01 9.171761870384216309e-01 9.141608327627182007e-02 6.126739978790283203e+00 1.865446805953979492e+00 -1.356271028518676758e+00
2.215000000000000000e+03 3.275734710693359375e+01 -1.368977165222167969e+01 -8.379033803939819336e-01 7.658806443214416504e-01 -2.160682901740074158e-02 1.260815560817718506e-01
2.216000000000000000e+03 7.151711273193359375e+01 -1.275323200225830078e+01 1.754327714443206787e-01 5.726294994354248047e+00 1.770518302917480469e+00 -2.399289608001708984e-01
2.217000000000000000e+03 7.178758239746093750e+01 -9.272257804870605469e+00 2.728015184402465820e-01 6.750168800354003906e+00 2.106891155242919922e+00 1.528731286525726318e-01
2.218000000000000000e+03 7.082605743408203125e+01 -1.180864048004150391e+01 2.849945724010467529e-01 5.784667491912841797e+00 1.820898652076721191e+00 6.557542830705642700e-02
2.219000000000000000e+03 4.887544250488281250e+01 -1.452911376953125000e+01 -2.452172517776489258e+00 5.630894184112548828e+00 9.536164999008178711e-01 5.640595555305480957e-01
2.220000000000000000e+03 7.034898376464843750e+01 -1.341110229492187500e+01 2.578308284282684326e-01 5.082718849182128906e+00 1.602164864540100098e+00 -1.412880234420299530e-02
2.221000000000000000e+03 7.466600418090820312e+00 -2.963686180114746094e+01 1.663103117607533932e-03 -5.811068695038557053e-04 3.245988627895712852e-04 -5.643868353217840195e-03
2.222000000000000000e+03 3.866288757324218750e+01 2.358806610107421875e+01 3.207615017890930176e-01 5.346704006195068359e+00 1.700239658355712891e+00 -8.490311354398727417e-02
2.223000000000000000e+03 4.012458419799804688e+01 2.320021820068359375e+01 4.069831371307373047e-01 5.743528366088867188e+00 1.845153331756591797e+00 3.537468016147613525e-01
2.224000000000000000e+03 8.488053321838378906e+00 -6.906732559204101562e+00 -7.803349872119724751e-04 -3.461906453594565392e-04 -3.379576955921947956e-04 -1.852340792538598180e-04
2.225000000000000000e+03 7.075827026367187500e+01 -1.431471061706542969e+01 1.410799771547317505e-01 5.034927368164062500e+00 1.552802085876464844e+00 -2.774688005447387695e-01
2.226000000000000000e+03 6.637554931640625000e+01 -3.808800125122070312e+01 5.869950652122497559e-01 1.351868271827697754e+00 5.816590189933776855e-01 4.738271236419677734e-01
2.227000000000000000e+03 4.354807662963867188e+01 -6.652913093566894531e+00 -9.309829473495483398e-01 5.560183525085449219e+00 1.388760209083557129e+00 -1.195483446121215820e+00
2.228000000000000000e+03 4.373289108276367188e+01 -7.656678199768066406e+00 -1.137075185775756836e+00 5.617779254913330078e+00 1.344211220741271973e+00 -1.100466966629028320e+00
2.229000000000000000e+03 4.155622863769531250e+01 2.740480995178222656e+01 -1.875218935310840607e-02 4.701323509216308594e+00 1.404771447181701660e+00 4.217139780521392822e-01
2.230000000000000000e+03 5.396309661865234375e+01 -2.161774826049804688e+01 1.538227200508117676e+00 1.447192311286926270e+00 8.956258296966552734e-01 -2.413796037435531616e-01
2.231000000000000000e+03 3.706127929687500000e+01 2.396079444885253906e+01 2.780041396617889404e-01 4.877840042114257812e+00 1.546753287315368652e+00 -3.672805130481719971e-01
2.232000000000000000e+03 3.979277801513671875e+01 2.189258003234863281e+01 5.266838073730468750e-01 6.078795909881591797e+00 1.981643915176391602e+00 2.797877192497253418e-01
2.233000000000000000e+03 4.434747695922851562e+01 3.604203796386718750e+01 -9.843673110008239746e-01 3.161687612533569336e+00 6.531960964202880859e-01 2.277101725339889526e-01
2.234000000000000000e+03 4.038334655761718750e+01 2.917593574523925781e+01 -3.387880027294158936e-01 4.392073154449462891e+00 1.215985536575317383e+00 1.268392205238342285e-01
2.235000000000000000e+03 6.332979202270507812e+00 -2.360467147827148438e+01 3.356566885486245155e-03 1.958458684384822845e-03 1.594507717527449131e-03 -1.622041454538702965e-03
2.236000000000000000e+03 4.355412292480468750e+01 -1.861458396911621094e+01 -2.908371388912200928e-02 1.096179294586181641e+01 3.279812574386596680e+00 -3.260126352310180664e+00
2.237000000000000000e+03 4.535443496704101562e+01 -1.250048828125000000e+01 -2.228259801864624023e+00 6.722641944885253906e+00 1.348314642906188965e+00 -6.462925672531127930e-01
2.238000000000000000e+03 4.581690597534179688e+01 -2.215295791625976562e+01 4.934201717376708984e+00 1.011435413360595703e+01 4.514566421508789062e+00 -3.152504205703735352e+00
2.239000000000000000e+03 4.163632202148437500e+01 -1.779873847961425781e+01 4.361226558685302734e-01 5.735382556915283203e+00 1.851451635360717773e+00 -3.625437974929809570e+00
2.240000000000000000e+03 4.544456481933593750e+01 -1.948512840270996094e+01 2.177497148513793945e+00 1.104924964904785156e+01 3.968024015426635742e+00 8.013972081243991852e-03
2.241000000000000000e+03 4.448351669311523438e+01 -1.859133529663085938e+01 -1.141788065433502197e-01 1.151040554046630859e+01 3.418867826461791992e+00 -1.524459958076477051e+00
2.242000000000000000e+03 4.490050506591796875e+01 -1.898276710510253906e+01 7.381404638290405273e-01 1.162676429748535156e+01 3.709471464157104492e+00 -6.242870092391967773e-01
2.243000000000000000e+03 4.541771697998046875e+01 -2.296085357666015625e+01 2.670994281768798828e+00 1.166222190856933594e+01 4.299964904785156250e+00 -3.356255054473876953e+00
2.244000000000000000e+03 4.489015960693359375e+01 -2.373489570617675781e+01 3.874561488628387451e-01 1.239209270477294922e+01 3.833864450454711914e+00 -1.877058863639831543e+00
2.245000000000000000e+03 4.566962814331054688e+01 -2.384505844116210938e+01 1.103610873222351074e+00 1.096519947052001953e+01 3.620643138885498047e+00 -2.485764026641845703e+00
2.246000000000000000e+03 4.400881195068359375e+01 -1.864562034606933594e+01 -1.668461263179779053e-01 1.163330459594726562e+01 3.439937591552734375e+00 -2.340667963027954102e+00
2.247000000000000000e+03 4.438460540771484375e+01 -2.522167015075683594e+01 -3.921198248863220215e-01 1.039720249176025391e+01 3.001524686813354492e+00 1.029369831085205078e-01
2.248000000000000000e+03 4.204282379150390625e+01 -1.888773345947265625e+01 1.671028733253479004e+00 6.222693920135498047e+00 2.368116855621337891e+00 -4.528872489929199219e+00
2.249000000000000000e+03 4.165194320678710938e+01 -1.891968536376953125e+01 1.954244017601013184e+00 4.829245567321777344e+00 2.035046815872192383e+00 -4.134192943572998047e+00
2.250000000000000000e+03 4.479414367675781250e+01 -2.460273933410644531e+01 -8.710993826389312744e-02 1.091452217102050781e+01 3.248223781585693359e+00 -9.101663827896118164e-01
2.251000000000000000e+03 4.427490234375000000e+01 -2.404336547851562500e+01 -6.554374098777770996e-01 1.234408092498779297e+01 3.506592988967895508e+00 -5.072116851806640625e-01
2.252000000000000000e+03 1.150632667541503906e+01 -6.439544677734375000e+00 5.035376525484025478e-04 -1.838843745645135641e-04 9.589598630554974079e-05 7.037965115159749985e-04
2.253000000000000000e+03 1.001849365234375000e+01 -6.466934680938720703e+00 6.227073026821017265e-04 1.570649474160745740e-04 2.339316706638783216e-04 5.161445587873458862e-04
2.254000000000000000e+03 3.098185920715332031e+01 -1.164869594573974609e+01 -8.897666931152343750e-01 8.135077357292175293e-01 -2.287768200039863586e-02 4.227666854858398438e-01
2.255000000000000000e+03 9.169545173645019531e+00 -7.812297821044921875e+00 -1.390303135849535465e-03 -3.475223493296653032e-04 -5.213476251810789108e-04 1.572830660734325647e-04
2.256000000000000000e+03 3.023171806335449219e+01 -1.017485141754150391e+01 -9.894910454750061035e-01 8.720512390136718750e-01 -3.523194044828414917e-02 5.151473283767700195e-01
2.257000000000000000e+03 6.294341087341308594e+00 6.751718044281005859e+00 -1.056758537888526917e-01 -6.447751522064208984e-01 -2.251352965831756592e-01 7.005164623260498047e-01
2.258000000000000000e+03 4.238209915161132812e+01 -1.813707160949707031e+01 3.962424099445343018e-01 7.449001789093017578e+00 2.353573322296142578e+00 -4.013851165771484375e+00
2.259000000000000000e+03 4.088394165039062500e+01 -1.788385581970214844e+01 7.328615188598632812e-01 4.295902729034423828e+00 1.508629322052001953e+00 -3.222655773162841797e+00
2.260000000000000000e+03 4.542543411254882812e+01 -2.583347702026367188e+01 2.594125866889953613e-01 9.625307083129882812e+00 2.965415716171264648e+00 -5.560785531997680664e-01
2.261000000000000000e+03 1.508784961700439453e+01 -7.965052127838134766e+00 -6.796905072405934334e-04 4.039856721647083759e-04 -8.271144179161638021e-05 -4.853370191995054483e-04
2.262000000000000000e+03 1.382003498077392578e+01 -7.953312873840332031e+00 5.968409823253750801e-04 5.955215892754495144e-04 3.577087773010134697e-04 -7.391038234345614910e-04
2.263000000000000000e+03 9.320694923400878906e+00 6.146378040313720703e+00 -1.370328068733215332e-01 -8.051787018775939941e-01 -2.826634645462036133e-01 9.029331207275390625e-01
2.264000000000000000e+03 6.989403724670410156e+00 -7.063397407531738281e+00 -2.654424752108752728e-04 -1.404801965691149235e-03 -5.010733148083090782e-04 -1.518310629762709141e-03
2.265000000000000000e+03 7.645173549652099609e+00 -6.178810119628906250e+00 5.154647078597918153e-05 -4.604496061801910400e-04 -1.226709428010508418e-04 -8.031578618101775646e-04
2.266000000000000000e+03 1.004833889007568359e+01 -7.234045505523681641e+00 -1.092509133741259575e-03 -1.184078973892610520e-05 -3.313049674034118652e-04 -9.016395779326558113e-05
2.267000000000000000e+03 1.341918849945068359e+01 -7.415782451629638672e+00 2.845098970283288509e-05 -7.483382942155003548e-04 -2.159661962650716305e-04 3.516856522765010595e-04
2.268000000000000000e+03 2.687174415588378906e+01 -6.877349853515625000e+00 -1.240223407745361328e+00 2.285744845867156982e-01 -3.034946918487548828e-01 7.786583304405212402e-01
2.269000000000000000e+03 2.830154037475585938e+01 -9.275538444519042969e+00 -1.130135774612426758e+00 4.205446243286132812e-01 -2.128773480653762817e-01 7.722607254981994629e-01
2.270000000000000000e+03 1.755687904357910156e+01 4.526313781738281250e+00 7.692064624279737473e-03 -9.785149693489074707e-01 -2.912468612194061279e-01 7.069531083106994629e-01
2.271000000000000000e+03 2.513178634643554688e+01 -4.475443363189697266e+00 -1.213660120964050293e+00 -1.283943504095077515e-01 -4.026163518428802490e-01 7.639652490615844727e-01
2.272000000000000000e+03 2.382597351074218750e+01 -2.985812664031982422e+00 -1.124181151390075684e+00 -4.017106890678405762e-01 -4.577675759792327881e-01 7.652834653854370117e-01
2.273000000000000000e+03 2.336552619934082031e+01 -2.439151287078857422e+00 -1.076574683189392090e+00 -5.047141909599304199e-01 -4.743866920471191406e-01 7.548634409904479980e-01
2.274000000000000000e+03 2.338264465332031250e+01 -1.323267459869384766e+00 -8.467099666595458984e-01 -3.611674606800079346e-01 -3.623632192611694336e-01 6.266391277313232422e-01
2.275000000000000000e+03 1.635295867919921875e+01 4.345692157745361328e+00 -1.177078634500503540e-01 -1.087313413619995117e+00 -3.615064024925231934e-01 8.204780220985412598e-01
2.276000000000000000e+03 2.648337364196777344e+01 -3.687932252883911133e+00 -9.801841974258422852e-01 4.679040908813476562e-01 -1.536840498447418213e-01 5.172299742698669434e-01
2.277000000000000000e+03 2.671908378601074219e+01 -4.451748371124267578e+00 -1.053827047348022461e+00 4.725543260574340820e-01 -1.743818223476409912e-01 5.674405097961425781e-01
2.278000000000000000e+03 2.030966377258300781e+01 5.374315381050109863e-01 -7.241714596748352051e-01 -9.748123288154602051e-01 -5.096951723098754883e-01 7.937933802604675293e-01
2.279000000000000000e+03 2.848361778259277344e+01 -8.192217826843261719e+00 -1.133195638656616211e+00 6.360550522804260254e-01 -1.491421759128570557e-01 6.693986058235168457e-01
2.280000000000000000e+03 2.780739784240722656e+01 -7.055083274841308594e+00 -1.164688825607299805e+00 5.560151934623718262e-01 -1.826020926237106323e-01 6.718490719795227051e-01
2.281000000000000000e+03 2.791177177429199219e+01 -8.690564155578613281e+00 -1.170072913169860840e+00 3.706972301006317139e-01 -2.398126870393753052e-01 7.854940891265869141e-01
2.282000000000000000e+03 2.972799873352050781e+01 -9.753717422485351562e+00 -1.019673228263854980e+00 8.022902607917785645e-01 -6.521490216255187988e-02 5.743050575256347656e-01
2.283000000000000000e+03 2.280199241638183594e+01 -6.897052526473999023e-01 -7.695087194442749023e-01 -4.702503383159637451e-01 -3.719277083873748779e-01 6.304111480712890625e-01
2.284000000000000000e+03 2.216091537475585938e+01 -5.832679942250251770e-02 -6.807254552841186523e-01 -5.873636603355407715e-01 -3.804267346858978271e-01 6.417589783668518066e-01
2.285000000000000000e+03 2.554001998901367188e+01 -3.465605974197387695e+00 -1.030008316040039062e+00 1.522474437952041626e-01 -2.633282542228698730e-01 6.140053272247314453e-01
2.286000000000000000e+03 2.469102287292480469e+01 -3.164899110794067383e+00 -1.061248302459716797e+00 -1.245458945631980896e-01 -3.557382524013519287e-01 6.848139166831970215e-01
2.287000000000000000e+03 2.628838729858398438e+01 -5.542907238006591797e+00 -1.202374815940856934e+00 1.824077516794204712e-01 -3.059901297092437744e-01 7.190300822257995605e-01
2.288000000000000000e+03 2.721651268005371094e+01 -5.829540729522705078e+00 -1.142565727233886719e+00 4.975233376026153564e-01 -1.935127079486846924e-01 6.361922025680541992e-01
2.289000000000000000e+03 2.813468933105468750e+01 -7.631995677947998047e+00 -1.153938770294189453e+00 5.967659950256347656e-01 -1.671518236398696899e-01 6.732073426246643066e-01
2.290000000000000000e+03 2.335470199584960938e+01 -1.099993959069252014e-01 -5.845493078231811523e-01 -2.344187498092651367e-01 -2.456904202699661255e-01 5.189506411552429199e-01
2.291000000000000000e+03 1.933672714233398438e+01 2.271680116653442383e+00 -3.691402375698089600e-01 -9.614145159721374512e-01 -3.991664350032806396e-01 7.209812998771667480e-01
2.292000000000000000e+03 1.439193439483642578e+01 -8.347312927246093750e+00 -1.320909126661717892e-03 -1.079576541087590158e-04 -4.286600451450794935e-04 6.885391776449978352e-04
2.293000000000000000e+03 3.951291656494140625e+01 -1.435903358459472656e+01 -9.283531308174133301e-01 3.951761722564697266e+00 9.070225954055786133e-01 -2.100497245788574219e+00
2.294000000000000000e+03 7.338033199310302734e+00 1.307334995269775391e+01 2.128288894891738892e-01 -9.607670903205871582e-01 -2.243814617395401001e-01 5.580548644065856934e-01
2.295000000000000000e+03 7.835916519165039062e+00 1.673023033142089844e+01 2.539534568786621094e-01 -9.788885712623596191e-01 -2.174805253744125366e-01 3.759115934371948242e-01
2.296000000000000000e+03 1.492328357696533203e+01 5.357002735137939453e+00 -4.914922174066305161e-03 -1.069670200347900391e+00 -3.223755359649658203e-01 8.533849120140075684e-01
2.297000000000000000e+03 4.779309844970703125e+01 -1.383905124664306641e+01 -2.368034124374389648e+00 6.333053588867187500e+00 1.189505696296691895e+00 3.006258904933929443e-01
2.298000000000000000e+03 4.798694992065429688e+01 -1.598975658416748047e+01 -1.988823890686035156e+00 6.767842769622802734e+00 1.433705687522888184e+00 2.829078733921051025e-01
2.299000000000000000e+03 1.960543823242187500e+01 1.097707271575927734e+00 -6.526771187782287598e-01 -1.043715000152587891e+00 -5.089176297187805176e-01 8.123729825019836426e-01
2.300000000000000000e+03 1.784790420532226562e+01 3.327580928802490234e+00 -2.378460019826889038e-01 -1.055870175361633301e+00 -3.881148695945739746e-01 7.731285095214843750e-01
2.301000000000000000e+03 7.723896980285644531e+00 -8.707078933715820312e+00 2.768210135400295258e-03 -5.004579434171319008e-04 6.803256110288202763e-04 1.388415548717603087e-04
2.302000000000000000e+03 8.122072219848632812e+00 7.474727153778076172e+00 -2.272823639214038849e-02 -7.859303951263427734e-01 -2.425975948572158813e-01 8.097210526466369629e-01
2.303000000000000000e+03 5.458786773681640625e+01 -1.990896987915039062e+01 2.876692414283752441e-01 4.423942044377326965e-02 9.957259893417358398e-02 2.418497651815414429e-01
2.304000000000000000e+03 1.311801242828369141e+01 5.561114788055419922e+00 -8.771185576915740967e-02 -1.055952548980712891e+00 -3.430993258953094482e-01 9.313372373580932617e-01
2.305000000000000000e+03 4.708112716674804688e+01 -2.808857345581054688e+01 1.173301577568054199e+00 7.026152610778808594e+00 2.459836244583129883e+00 -1.010008454322814941e+00
2.306000000000000000e+03 5.020386886596679688e+01 -2.695757102966308594e+01 1.924990534782409668e+00 5.654831409454345703e+00 2.273946523666381836e+00 -1.597006797790527344e+00
2.307000000000000000e+03 4.245304489135742188e+01 -6.805455684661865234e+00 -1.040619730949401855e+00 5.445558071136474609e+00 1.321481585502624512e+00 -1.194573640823364258e+00
2.308000000000000000e+03 4.180116271972656250e+01 -4.804457664489746094e+00 -7.348291873931884766e-01 5.425435543060302734e+00 1.407181859016418457e+00 -1.264903783798217773e+00
2.309000000000000000e+03 5.095036315917968750e+01 -1.718115806579589844e+01 -1.691853046417236328e+00 3.416901350021362305e+00 5.175145268440246582e-01 1.501252036541700363e-02
2.310000000000000000e+03 4.941883850097656250e+01 -1.642804336547851562e+01 -1.959761142730712891e+00 5.300516128540039062e+00 1.002226471900939941e+00 3.564696609973907471e-01
2.311000000000000000e+03 4.117348480224609375e+01 -1.657056808471679688e+01 -4.117733538150787354e-01 5.324596405029296875e+00 1.473846912384033203e+00 -2.999646425247192383e+00
2.312000000000000000e+03 4.968191146850585938e+01 -1.553627204895019531e+01 -2.545758962631225586e+00 4.900437831878662109e+00 7.064036130905151367e-01 5.306198000907897949e-01
2.313000000000000000e+03 3.539183044433593750e+01 -1.135224437713623047e+01 -8.200671672821044922e-01 2.299685001373291016e+00 4.438853263854980469e-01 -6.674489974975585938e-01
2.314000000000000000e+03 3.368892288208007812e+01 -1.233102703094482422e+01 -7.811686992645263672e-01 1.357495427131652832e+00 1.728980094194412231e-01 -1.829343289136886597e-01
2.315000000000000000e+03 1.360992240905761719e+01 -9.649322509765625000e+00 -1.599496812559664249e-03 -3.687671851366758347e-04 -5.904791760258376598e-04 3.172667929902672768e-04
2.316000000000000000e+03 4.216419219970703125e+00 -2.198635292053222656e+01 -3.160208929330110550e-03 -1.051249448210000992e-03 -1.263437559828162193e-03 -1.901647774502635002e-04
2.317000000000000000e+03 3.504524612426757812e+01 -1.315469837188720703e+01 -7.202419042587280273e-01 1.573503971099853516e+00 2.559786438941955566e-01 -5.748122334480285645e-01
2.318000000000000000e+03 3.121137809753417969e+01 -9.770156860351562500e+00 -9.482520818710327148e-01 1.227704524993896484e+00 8.383571356534957886e-02 3.146252334117889404e-01
2.319000000000000000e+03 5.357211303710937500e+01 -2.049668502807617188e+01 7.272825837135314941e-01 1.161400556564331055e+00 5.666049122810363770e-01 -3.052599132061004639e-01
2.320000000000000000e+03 5.045768356323242188e+01 -1.796215629577636719e+01 -1.048548698425292969e+00 4.077330112457275391e+00 9.086344838142395020e-01 -1.244537681341171265e-01
2.321000000000000000e+03 4.137039947509765625e+01 -1.275384187698364258e+00 -2.139529734849929810e-01 5.850255966186523438e+00 1.690890789031982422e+00 -1.447707772254943848e+00
2.322000000000000000e+03 4.083200454711914062e+01 -2.715652942657470703e+00 -4.679822623729705811e-01 5.510149955749511719e+00 1.512650251388549805e+00 -1.268536210060119629e+00
2.323000000000000000e+03 3.875545120239257812e+01 6.277416229248046875e+00 1.313028454780578613e+00 6.796137809753417969e+00 2.432749986648559570e+00 -9.396337270736694336e-01
2.324000000000000000e+03 1.075868034362792969e+01 -6.468593120574951172e+00 -7.844764622859656811e-04 1.672258076723664999e-04 -1.851751876529306173e-04 -7.027172832749783993e-04
2.325000000000000000e+03 1.245587062835693359e+01 5.990602970123291016e+00 -4.373393580317497253e-02 -1.014679074287414551e+00 -3.175239264965057373e-01 9.284575581550598145e-01
2.326000000000000000e+03 3.926589965820312500e+01 5.422517657279968262e-01 1.411956362426280975e-02 5.711397647857666016e+00 1.717655181884765625e+00 -1.103551506996154785e+00
2.327000000000000000e+03 5.142873764038085938e+01 -2.374209213256835938e+01 2.334564924240112305e+00 3.986043453216552734e+00 1.896182537078857422e+00 -1.481863975524902344e+00
2.328000000000000000e+03 7.057718658447265625e+01 -1.776668739318847656e+01 -7.936508059501647949e-01 4.176627159118652344e+00 1.014892935752868652e+00 -9.228119254112243652e-01
2.329000000000000000e+03 3.869714736938476562e+01 -1.344489002227783203e+01 -9.364555478096008301e-01 3.514281034469604492e+00 7.733476758003234863e-01 -1.744869112968444824e+00
2.330000000000000000e+03 9.896168708801269531e+00 6.764945030212402344e+00 -4.179691523313522339e-02 -8.637634515762329102e-01 -2.716681063175201416e-01 8.976296186447143555e-01
2.331000000000000000e+03 1.056669235229492188e+01 6.023984432220458984e+00 -1.266836524009704590e-01 -9.018790125846862793e-01 -3.085688054561614990e-01 9.433329105377197266e-01
2.332000000000000000e+03 4.382321548461914062e+01 -8.618264198303222656e+00 -1.328174710273742676e+00 5.712274551391601562e+00 1.315230011940002441e+00 -1.052803516387939453e+00
2.333000000000000000e+03 4.037311935424804688e+01 -1.594810295104980469e+01 -5.661851763725280762e-01 4.482651710510253906e+00 1.174939990043640137e+00 -2.623554944992065430e+00
2.334000000000000000e+03 4.921735382080078125e+01 -2.888691329956054688e+01 1.474366664886474609e+00 6.124625205993652344e+00 2.279697656631469727e+00 -1.288245201110839844e+00
2.335000000000000000e+03 5.098201751708984375e+01 -3.128604125976562500e+01 1.416416049003601074e+00 5.701112270355224609e+00 2.135258436203002930e+00 -9.442040324211120605e-01
2.336000000000000000e+03 5.372626495361328125e+01 -3.240165328979492188e+01 1.605195522308349609e+00 5.385635852813720703e+00 2.097249507904052734e+00 -6.262723207473754883e-01
2.337000000000000000e+03 5.330410766601562500e+01 -2.319001388549804688e+01 2.159161090850830078e+00 2.641801834106445312e+00 1.440288782119750977e+00 -6.524363756179809570e-01
2.338000000000000000e+03 5.265389251708984375e+01 -2.101426315307617188e+01 1.327857732772827148e+00 2.107363224029541016e+00 1.030566334724426270e+00 -7.392039895057678223e-01
2.339000000000000000e+03 4.605326461791992188e+01 -3.301536560058593750e+01 -1.822056807577610016e-02 6.163341045379638672e+00 1.843536138534545898e+00 -2.982868850231170654e-01
2.340000000000000000e+03 4.811293029785156250e+01 -3.098419380187988281e+01 9.791555404663085938e-01 6.168499469757080078e+00 2.144296646118164062e+00 -8.001209497451782227e-01
2.341000000000000000e+03 4.461236572265625000e+01 -1.146781730651855469e+01 -1.973689913749694824e+00 6.354313850402832031e+00 1.314187169075012207e+00 -8.664467930793762207e-01
2.342000000000000000e+03 6.328382492065429688e+00 2.287004470825195312e+01 1.260501891374588013e-01 -1.153100728988647461e+00 -3.081151545047760010e-01 1.009065434336662292e-01
2.343000000000000000e+03 9.083989143371582031e+00 2.460289192199707031e+01 1.841872334480285645e-01 -7.550965547561645508e-01 -1.712727993726730347e-01 2.394503355026245117e-02
2.344000000000000000e+03 3.015771865844726562e+01 -1.317789459228515625e+01 -9.190679788589477539e-01 3.096962571144104004e-01 -1.828115284442901611e-01 6.421377658843994141e-01
2.345000000000000000e+03 6.341164588928222656e+00 -1.173284149169921875e+01 2.189411781728267670e-03 -1.081777008948847651e-04 6.243702373467385769e-04 5.284640355966985226e-04
2.346000000000000000e+03 7.426580810546875000e+01 -1.364196109771728516e+01 -1.542692333459854126e-01 6.340348720550537109e+00 1.855823755264282227e+00 -6.928810477256774902e-01
2.347000000000000000e+03 7.187331390380859375e+01 -1.776664352416992188e+01 -9.496637582778930664e-01 5.299769878387451172e+00 1.305031895637512207e+00 -9.833540916442871094e-01
2.348000000000000000e+03 7.308952331542968750e+01 -1.751555824279785156e+01 -9.659445285797119141e-01 6.181376457214355469e+00 1.564629554748535156e+00 -7.521976232528686523e-01
2.349000000000000000e+03 3.517645645141601562e+01 2.252378845214843750e+01 5.156357288360595703e-01 4.542526721954345703e+00 1.517448782920837402e+00 -6.475740075111389160e-01
2.350000000000000000e+03 3.973101425170898438e+01 1.985543727874755859e+00 3.099022209644317627e-01 6.183305740356445312e+00 1.947962403297424316e+00 -1.215508818626403809e+00
2.351000000000000000e+03 8.590813636779785156e+00 1.888595199584960938e+01 2.778270542621612549e-01 -8.983593583106994629e-01 -1.861597001552581787e-01 2.554428577423095703e-01
2.352000000000000000e+03 9.458892822265625000e+00 -1.121914291381835938e+01 1.398596941726282239e-04 -1.005911850370466709e-03 -2.598156279418617487e-04 -8.695611613802611828e-04
2.353000000000000000e+03 6.802966308593750000e+01 -1.620331001281738281e+01 1.179499253630638123e-01 3.060740709304809570e+00 9.536072015762329102e-01 3.139255642890930176e-01
2.354000000000000000e+03 4.025716018676757812e+01 -1.645599246025085449e+00 -3.198325037956237793e-01 5.542350292205810547e+00 1.566755294799804688e+00 -1.232946157455444336e+00
2.355000000000000000e+03 6.389250278472900391e+00 9.558337211608886719e+00 7.482142746448516846e-02 -8.435422182083129883e-01 -2.306162416934967041e-01 6.601032614707946777e-01
2.356000000000000000e+03 7.583137512207031250e+00 8.026815414428710938e+00 9.423815645277500153e-03 -7.913199067115783691e-01 -2.345688343048095703e-01 7.681614756584167480e-01
2.357000000000000000e+03 9.272349357604980469e+00 7.469315052032470703e+00 1.307986769825220108e-02 -8.466513752937316895e-01 -2.500714659690856934e-01 8.554657697677612305e-01
2.358000000000000000e+03 6.199920177459716797e+00 1.188251304626464844e+01 1.420194655656814575e-01 -9.530223608016967773e-01 -2.433008700609207153e-01 5.771474242210388184e-01
2.359000000000000000e+03 7.260324096679687500e+01 3.224723434448242188e+01 -7.871417999267578125e-01 6.716485977172851562e+00 1.778803229331970215e+00 3.575616180896759033e-01
2.360000000000000000e+03 1.254990386962890625e+01 3.059756851196289062e+01 6.574694067239761353e-02 -1.039266958832740784e-01 -1.145392842590808868e-02 -1.625615209341049194e-01
2.361000000000000000e+03 1.040686035156250000e+01 -1.107244777679443359e+01 9.342471021227538586e-04 1.325333374552428722e-03 6.778741371817886829e-04 1.117705949582159519e-03
2.362000000000000000e+03 1.104546356201171875e+01 -8.267239570617675781e+00 -1.176642486825585365e-03 -2.457387199683580548e-05 -3.603649092838168144e-04 -2.536270185373723507e-04
2.363000000000000000e+03 7.244898319244384766e+00 1.192027759552001953e+01 1.894042491912841797e-01 -9.370897412300109863e-01 -2.243056446313858032e-01 6.096011996269226074e-01
2.364000000000000000e+03 3.401804351806640625e+01 1.801060295104980469e+01 1.170651912689208984e+00 4.494131565093994141e+00 1.699434995651245117e+00 -8.837364315986633301e-01
2.365000000000000000e+03 3.458720779418945312e+01 1.617615127563476562e+01 1.383006334304809570e+00 4.790899753570556641e+00 1.852171897888183594e+00 -8.951520323753356934e-01
2.366000000000000000e+03 3.814646911621093750e+01 8.503395080566406250e+00 1.816504597663879395e+00 6.776786327362060547e+00 2.577987194061279297e+00 -8.892225623130798340e-01
2.367000000000000000e+03 3.801961517333984375e+01 4.144290447235107422e+00 8.011708855628967285e-01 5.978464603424072266e+00 2.033890724182128906e+00 -8.117396235466003418e-01
2.368000000000000000e+03 3.498210525512695312e+01 1.093218994140625000e+01 1.819952130317687988e+00 4.911782741546630859e+00 2.019520521163940430e+00 -7.908197045326232910e-01
2.369000000000000000e+03 7.216003417968750000e+01 -1.910926628112792969e+01 -1.538615822792053223e+00 5.918392658233642578e+00 1.313933014869689941e+00 -9.554505348205566406e-01
2.370000000000000000e+03 3.544687652587890625e+01 8.929365158081054688e+00 1.715665102005004883e+00 5.031217575073242188e+00 2.024064779281616211e+00 -6.864925026893615723e-01
2.371000000000000000e+03 9.008883476257324219e+00 2.797526550292968750e+01 1.048796251416206360e-01 -7.151125669479370117e-01 -1.830698847770690918e-01 -4.729709774255752563e-02
2.372000000000000000e+03 7.608617305755615234e+00 2.611338233947753906e+01 1.149528771638870239e-01 -9.592965245246887207e-01 -2.533030807971954346e-01 5.580991972237825394e-03
2.373000000000000000e+03 7.183187866210937500e+01 -1.396705436706542969e+01 -3.768070042133331299e-02 5.511104583740234375e+00 1.642027139663696289e+00 -4.829367697238922119e-01
2.374000000000000000e+03 4.279054260253906250e+01 -9.532663345336914062e+00 -1.514287829399108887e+00 5.668486595153808594e+00 1.246259689331054688e+00 -1.180690050125122070e+00
2.375000000000000000e+03 4.382859039306640625e+01 -9.546735763549804688e+00 -1.542451500892639160e+00 5.840703010559082031e+00 1.289475440979003906e+00 -1.009788990020751953e+00
2.376000000000000000e+03 7.301353454589843750e+01 -1.373437690734863281e+01 -8.982165902853012085e-02 5.956943988800048828e+00 1.760136604309082031e+00 -6.284679174423217773e-01
2.377000000000000000e+03 3.959487915039062500e+01 2.649511909484863281e+01 -2.497776644304394722e-03 4.850936889648437500e+00 1.454531669616699219e+00 7.365781068801879883e-02
2.378000000000000000e+03 1.064383697509765625e+01 3.399870300292968750e+01 -1.547711249440908432e-02 -3.430572450160980225e-01 -1.075603067874908447e-01 -1.081709191203117371e-01
2.379000000000000000e+03 8.599874496459960938e+00 2.978898239135742188e+01 6.470732390880584717e-02 -7.791437506675720215e-01 -2.143309265375137329e-01 -6.913306564092636108e-02
2.380000000000000000e+03 5.256409835815429688e+01 -2.488302421569824219e+01 2.318557262420654297e+00 3.900609970092773438e+00 1.865750193595886230e+00 -1.043717145919799805e+00
2.381000000000000000e+03 3.673953628540039062e+01 5.043707847595214844e+00 1.022508382797241211e+00 5.441108703613281250e+00 1.939085006713867188e+00 -6.456157565116882324e-01
2.382000000000000000e+03 4.599011611938476562e+01 -2.190541267395019531e+01 5.103327274322509766e+00 9.532491683959960938e+00 4.390745639801025391e+00 -2.782177686691284180e+00
2.383000000000000000e+03 4.631121063232421875e+01 -2.286124420166015625e+01 3.227076768875122070e+00 9.576262474060058594e+00 3.841001749038696289e+00 -3.092628955841064453e+00
2.384000000000000000e+03 4.597948837280273438e+01 -2.162961769104003906e+01 5.356066703796386719e+00 9.341647148132324219e+00 4.409314155578613281e+00 -2.357364892959594727e+00
2.385000000000000000e+03 4.134528350830078125e+01 -1.721786308288574219e+01 1.831033639609813690e-02 5.402014732360839844e+00 1.626097440719604492e+00 -3.277419567108154297e+00
2.386000000000000000e+03 4.593192291259765625e+01 -2.012387466430664062e+01 3.740762233734130859e+00 9.770146369934082031e+00 4.053272724151611328e+00 -1.598600447177886963e-01
2.387000000000000000e+03 4.600706481933593750e+01 -1.977788162231445312e+01 2.846711635589599609e+00 9.650448799133300781e+00 3.749148368835449219e+00 -3.905409574508666992e-02
2.388000000000000000e+03 4.911051559448242188e+01 -1.720235824584960938e+01 -1.392510414123535156e+00 5.668337821960449219e+00 1.282748222351074219e+00 9.091389179229736328e-02
2.389000000000000000e+03 4.980136871337890625e+01 -1.752807617187500000e+01 -1.069540977478027344e+00 4.772910594940185547e+00 1.111010909080505371e+00 -2.094991132616996765e-02
2.390000000000000000e+03 4.194359207153320312e+01 -1.834161949157714844e+01 9.919271469116210938e-01 6.293566226959228516e+00 2.185647964477539062e+00 -4.162254810333251953e+00
2.391000000000000000e+03 4.712486267089843750e+01 -1.427911567687988281e+01 -2.412922143936157227e+00 6.944519996643066406e+00 1.359479427337646484e+00 4.693841189146041870e-02
2.392000000000000000e+03 4.498152542114257812e+01 -2.423155593872070312e+01 -6.544318795204162598e-02 1.159479808807373047e+01 3.458806514739990234e+00 -1.423639893531799316e+00
2.393000000000000000e+03 4.515734100341796875e+01 -2.547006988525390625e+01 5.116592720150947571e-02 1.002433300018310547e+01 3.022649526596069336e+00 -6.710981726646423340e-01
2.394000000000000000e+03 4.551906585693359375e+01 -2.484655189514160156e+01 2.843645215034484863e-01 1.034890079498291016e+01 3.189979553222656250e+00 -1.390849947929382324e+00
2.395000000000000000e+03 4.565004730224609375e+01 -2.619149971008300781e+01 4.581189453601837158e-01 9.010907173156738281e+00 2.840707778930664062e+00 -6.188499331474304199e-01
2.396000000000000000e+03 1.404782390594482422e+01 -8.943203926086425781e+00 1.370069221593439579e-03 1.560064702061936259e-04 4.578227235469967127e-04 -4.899581545032560825e-04
2.397000000000000000e+03 4.945212173461914062e+01 -2.635967063903808594e+01 1.833907961845397949e+00 6.013069629669189453e+00 2.354093313217163086e+00 -1.788364171981811523e+00
2.398000000000000000e+03 4.717946243286132812e+01 -2.743792152404785156e+01 1.208643674850463867e+00 7.403152465820312500e+00 2.583538770675659180e+00 -1.124812960624694824e+00
2.399000000000000000e+03 3.950751876831054688e+01 -1.521011734008789062e+01 -7.071823477745056152e-01 3.728724718093872070e+00 9.064627289772033691e-01 -2.268970966339111328e+00
2.400000000000000000e+03 3.036745643615722656e+01 -1.129340076446533203e+01 -9.301844835281372070e-01 6.948326826095581055e-01 -7.060553878545761108e-02 5.362043380737304688e-01
2.401000000000000000e+03 3.068915939331054688e+01 -9.456226348876953125e+00 -9.720708727836608887e-01 1.138688564300537109e+00 4.998531937599182129e-02 3.885648846626281738e-01
2.402000000000000000e+03 4.576699066162109375e+01 -2.557947731018066406e+01 4.260137975215911865e-01 9.496405601501464844e+00 2.976725816726684570e+00 -1.046397328376770020e+00
2.403000000000000000e+03 4.497399902343750000e+01 -2.499624061584472656e+01 -3.608348593115806580e-02 1.076032161712646484e+01 3.217271566390991211e+00 -7.281236648559570312e-01
2.404000000000000000e+03 4.130025482177734375e+01 -1.803506469726562500e+01 8.635626435279846191e-01 4.896674633026123047e+00 1.728071212768554688e+00 -3.547050476074218750e+00
2.405000000000000000e+03 1.095584011077880859e+01 -9.247185707092285156e+00 1.673221238888800144e-03 6.616729660890996456e-04 7.004682556726038456e-04 4.055867320857942104e-04
2.406000000000000000e+03 1.171165561676025391e+01 -7.242685317993164062e+00 -2.352867304580286145e-04 1.037367292155977339e-05 -6.747392035322263837e-05 -6.132037960924208164e-04
2.407000000000000000e+03 9.244599342346191406e+00 -7.052649974822998047e+00 1.139881322160363197e-03 2.229577221442013979e-04 4.088517162017524242e-04 -1.550162414787337184e-04
2.408000000000000000e+03 9.550221443176269531e+00 -9.687337875366210938e+00 2.134520327672362328e-03 5.560343852266669273e-04 8.071663905866444111e-04 7.649799226783216000e-04
2.409000000000000000e+03 3.188212203979492188e+01 -1.271924972534179688e+01 -8.609011173248291016e-01 7.931700348854064941e-01 -2.031932584941387177e-02 2.946036756038665771e-01
2.410000000000000000e+03 8.720458984375000000e+00 6.861543178558349609e+00 -6.749445199966430664e-02 -7.914140224456787109e-01 -2.576725482940673828e-01 8.524651527404785156e-01
2.411000000000000000e+03 2.927456855773925781e+01 -9.265447616577148438e+00 -1.063616394996643066e+00 7.331837415695190430e-01 -9.912980347871780396e-02 6.205993890762329102e-01
2.412000000000000000e+03 2.750089454650878906e+01 -6.456620216369628906e+00 -1.161316633224487305e+00 5.251646041870117188e-01 -1.908456087112426758e-01 6.559735536575317383e-01
2.413000000000000000e+03 2.738957405090332031e+01 -4.086159229278564453e+00 -9.592140316963195801e-01 7.548886537551879883e-01 -6.129762530326843262e-02 4.767026305198669434e-01
2.414000000000000000e+03 4.050613021850585938e+01 -1.667781257629394531e+01 -1.890045851469039917e-01 4.390672206878662109e+00 1.260500311851501465e+00 -2.794992923736572266e+00
2.415000000000000000e+03 5.100755691528320312e+01 -1.979640388488769531e+01 6.612403392791748047e-01 3.423883438110351562e+00 1.225537180900573730e+00 -8.119998574256896973e-01
2.416000000000000000e+03 1.611184883117675781e+01 5.581158638000488281e+00 1.131691262125968933e-01 -1.005837678909301758e+00 -2.678005695343017578e-01 7.539047598838806152e-01
2.417000000000000000e+03 4.643724822998046875e+01 -2.736655998229980469e+01 9.756763577461242676e-01 7.731057167053222656e+00 2.612020015716552734e+00 -9.123901128768920898e-01
2.418000000000000000e+03 2.940046501159667969e+01 -8.190374374389648438e+00 -1.066268682479858398e+00 9.435066580772399902e-01 -3.682861849665641785e-02 5.301634669303894043e-01
2.419000000000000000e+03 2.905391120910644531e+01 -7.684417724609375000e+00 -1.086384177207946777e+00 9.056575298309326172e-01 -5.421798676252365112e-02 5.481988191604614258e-01
2.420000000000000000e+03 2.872952842712402344e+01 -7.157869815826416016e+00 -1.094381570816040039e+00 8.670004010200500488e-01 -6.821434944868087769e-02 5.572155714035034180e-01
2.421000000000000000e+03 1.267028713226318359e+01 -9.010712623596191406e+00 1.129580079577863216e-03 5.216537974774837494e-04 4.953701281920075417e-04 -5.431282334029674530e-04
2.422000000000000000e+03 1.859736251831054688e+01 2.806495666503906250e+00 -2.990768551826477051e-01 -1.017528772354125977e+00 -3.949816823005676270e-01 7.485415935516357422e-01
2.423000000000000000e+03 1.830204010009765625e+01 4.003044605255126953e+00 -4.743025824427604675e-02 -9.417613744735717773e-01 -2.967574894428253174e-01 6.793108582496643066e-01
2.424000000000000000e+03 2.614787292480468750e+01 -3.039380073547363281e+00 -8.994483351707458496e-01 4.361394047737121582e-01 -1.389926671981811523e-01 5.080155134201049805e-01
2.425000000000000000e+03 2.580424499511718750e+01 -4.127826213836669922e+00 -1.113663196563720703e+00 1.693311929702758789e-01 -2.832996249198913574e-01 6.434256434440612793e-01
2.426000000000000000e+03 2.148307800292968750e+01 5.556718111038208008e-01 -5.936418771743774414e-01 -6.989123225212097168e-01 -3.877662420272827148e-01 6.551334261894226074e-01
2.427000000000000000e+03 2.392552757263183594e+01 5.090801715850830078e-01 -3.947115838527679443e-01 6.329687777906656265e-03 -1.165145635604858398e-01 4.203691780567169189e-01
2.428000000000000000e+03 2.388821220397949219e+01 -1.946643948554992676e+00 -9.205636978149414062e-01 -2.590618133544921875e-01 -3.538876473903656006e-01 6.393522620201110840e-01
2.429000000000000000e+03 2.396216773986816406e+01 -7.850335240364074707e-01 -6.850051879882812500e-01 -1.158071383833885193e-01 -2.402436882257461548e-01 5.146014690399169922e-01
2.430000000000000000e+03 2.432600593566894531e+01 -2.556267261505126953e+00 -9.880302548408508301e-01 -1.765163242816925049e-01 -3.493639826774597168e-01 6.577425003051757812e-01
2.431000000000000000e+03 3.021612739562988281e+01 -9.092370033264160156e+00 -1.012632131576538086e+00 1.061414480209350586e+00 1.463471259921789169e-02 4.559974968433380127e-01
2.432000000000000000e+03 2.761735725402832031e+01 -4.779996395111083984e+00 -1.016119003295898438e+00 7.780081629753112793e-01 -7.143326103687286377e-02 5.015530586242675781e-01
2.433000000000000000e+03 3.957672500610351562e+01 -1.350030517578125000e+01 -1.094000339508056641e+00 4.164104461669921875e+00 9.210311770439147949e-01 -1.950531840324401855e+00
2.434000000000000000e+03 2.006474876403808594e+01 1.720234751701354980e+00 -4.367889761924743652e-01 -8.896565437316894531e-01 -3.979336619377136230e-01 6.974248886108398438e-01
2.435000000000000000e+03 1.682569503784179688e+01 5.050418376922607422e+00 5.999775230884552002e-02 -1.000061631202697754e+00 -2.820191681385040283e-01 7.336577177047729492e-01
2.436000000000000000e+03 1.562876701354980469e+01 4.852559566497802734e+00 -6.108860298991203308e-02 -1.083899974822998047e+00 -3.434965908527374268e-01 8.393081426620483398e-01
2.437000000000000000e+03 7.101343631744384766e+00 -7.934797286987304688e+00 -9.165367227979004383e-04 1.085452036932110786e-03 5.067458187113516033e-05 5.726729286834597588e-04
2.438000000000000000e+03 2.487644386291503906e+01 -2.144579410552978516e+00 -8.640850782394409180e-01 6.992258876562118530e-02 -2.382487505674362183e-01 5.552838444709777832e-01
2.439000000000000000e+03 1.090239429473876953e+01 -7.315312385559082031e+00 9.587006061337888241e-04 -1.249414490303024650e-04 2.501277485862374306e-04 5.721328780055046082e-04
2.440000000000000000e+03 2.268012237548828125e+01 5.470790266990661621e-01 -4.850056469440460205e-01 -3.713310360908508301e-01 -2.569009959697723389e-01 5.299988389015197754e-01
2.441000000000000000e+03 1.979047393798828125e+01 2.928302764892578125e+00 -1.700803041458129883e-01 -8.165287375450134277e-01 -2.959827184677124023e-01 6.202178597450256348e-01
2.442000000000000000e+03 2.320295906066894531e+01 1.189253330230712891e+00 -3.021506369113922119e-01 -1.615020930767059326e-01 -1.390958130359649658e-01 4.277913272380828857e-01
2.443000000000000000e+03 4.886005020141601562e+01 -1.540929222106933594e+01 -2.354547262191772461e+00 5.857502937316894531e+00 1.050886750221252441e+00 5.157744288444519043e-01
2.444000000000000000e+03 4.550902557373046875e+01 -1.860942459106445312e+01 3.225506246089935303e-01 1.037294578552246094e+01 3.208648920059204102e+00 -3.260069191455841064e-01
2.445000000000000000e+03 4.037857818603515625e+01 -7.157295703887939453e+00 -1.094565987586975098e+00 4.974605083465576172e+00 1.164011836051940918e+00 -1.145038485527038574e+00
2.446000000000000000e+03 4.113161849975585938e+01 -6.044850826263427734e+00 -9.518939852714538574e-01 5.224129199981689453e+00 1.281670570373535156e+00 -1.177175998687744141e+00
2.447000000000000000e+03 4.716553497314453125e+01 -1.314939117431640625e+01 -2.378310203552246094e+00 6.447287082672119141e+00 1.220693111419677734e+00 8.028902858495712280e-02
2.448000000000000000e+03 3.596343994140625000e+01 -1.327013874053955078e+01 -7.371810674667358398e-01 1.949460744857788086e+00 3.636839091777801514e-01 -8.929569125175476074e-01
2.449000000000000000e+03 3.525293350219726562e+01 -1.226641082763671875e+01 -7.857521176338195801e-01 1.972978591918945312e+00 3.561679422855377197e-01 -6.465424895286560059e-01
2.450000000000000000e+03 1.423675918579101562e+01 5.854437351226806641e+00 3.476392850279808044e-02 -1.050203204154968262e+00 -3.046317994594573975e-01 8.626261353492736816e-01
2.451000000000000000e+03 2.842118072509765625e+01 -6.608195781707763672e+00 -1.091398715972900391e+00 8.367115855216979980e-01 -7.640614360570907593e-02 5.515242815017700195e-01
2.452000000000000000e+03 2.813165473937988281e+01 -6.033242225646972656e+00 -1.077692747116088867e+00 8.076416850090026855e-01 -8.101532608270645142e-02 5.409467220306396484e-01
2.453000000000000000e+03 4.033595657348632812e+01 -4.093957901000976562e+00 -6.904632449150085449e-01 5.229848861694335938e+00 1.361815690994262695e+00 -1.149791002273559570e+00
2.454000000000000000e+03 1.209994125366210938e+01 -9.778911590576171875e+00 -1.326923840679228306e-03 -1.047057216055691242e-03 -7.121943053789436817e-04 6.010679499013349414e-05
2.455000000000000000e+03 3.688785934448242188e+01 -1.334226989746093750e+01 -7.478353977203369141e-01 2.385108470916748047e+00 4.911819100379943848e-01 -1.199144244194030762e+00
2.456000000000000000e+03 4.998549652099609375e+01 -1.862087440490722656e+01 -7.213689386844635010e-02 4.500840663909912109e+00 1.328611016273498535e+00 -4.388554990291595459e-01
2.457000000000000000e+03 4.627664184570312500e+01 -1.273447990417480469e+01 -2.259242057800292969e+00 6.629715919494628906e+00 1.311142086982727051e+00 -2.556490898132324219e-01
2.458000000000000000e+03 7.189552307128906250e+01 -1.641855239868164062e+01 -5.624303221702575684e-01 5.243053913116455078e+00 1.404187083244323730e+00 -8.098945021629333496e-01
2.459000000000000000e+03 3.964527511596679688e+01 -5.356857180595397949e-01 -1.699696183204650879e-01 5.640694141387939453e+00 1.641217350959777832e+00 -1.143962144851684570e+00
2.460000000000000000e+03 3.853102111816406250e+01 -1.034727334976196289e+00 -2.502238154411315918e-01 5.215654850006103516e+00 1.489629387855529785e+00 -9.278798699378967285e-01
2.461000000000000000e+03 3.828390884399414062e+01 -2.576966762542724609e+00 -4.949142932891845703e-01 4.894506931304931641e+00 1.319877743721008301e+00 -8.812404274940490723e-01
2.462000000000000000e+03 5.408622264862060547e+00 7.306180477142333984e+00 -6.407759338617324829e-02 -6.534677743911743164e-01 -2.152636051177978516e-01 6.309061050415039062e-01
2.463000000000000000e+03 2.078174972534179688e+01 1.148237466812133789e+00 -5.168503522872924805e-01 -8.018077015876770020e-01 -3.955974280834197998e-01 6.745131611824035645e-01
2.464000000000000000e+03 5.099583435058593750e+01 -2.614549827575683594e+01 2.107939243316650391e+00 5.020135402679443359e+00 2.138422489166259766e+00 -1.570808053016662598e+00
2.465000000000000000e+03 6.928578186035156250e+01 -1.759053039550781250e+01 -4.292705357074737549e-01 3.012016057968139648e+00 7.748236656188964844e-01 -4.412947297096252441e-01
2.466000000000000000e+03 3.780143737792968750e+01 -1.339458942413330078e+01 -8.306958675384521484e-01 2.918931722640991211e+00 6.264707446098327637e-01 -1.508070468902587891e+00
2.467000000000000000e+03 3.887704467773437500e+01 -3.506473302841186523e+00 -6.317123174667358398e-01 4.942053794860839844e+00 1.293102383613586426e+00 -9.702683687210083008e-01
2.468000000000000000e+03 1.176545906066894531e+01 6.375033378601074219e+00 -1.059918012470006943e-02 -9.731380343437194824e-01 -2.951211631298065186e-01 9.173078536987304688e-01
2.469000000000000000e+03 4.948372650146484375e+01 -2.762248611450195312e+01 1.665814280509948730e+00 6.040978431701660156e+00 2.312037706375122070e+00 -1.507022619247436523e+00
2.470000000000000000e+03 5.144124603271484375e+01 -2.497998619079589844e+01 2.242568016052246094e+00 4.399789810180664062e+00 1.992707252502441406e+00 -1.487154245376586914e+00
2.471000000000000000e+03 4.703002929687500000e+01 -2.505774497985839844e+01 1.407007336616516113e+00 8.505061149597167969e+00 2.973620653152465820e+00 -2.092551946640014648e+00
2.472000000000000000e+03 8.017450332641601562e+00 8.575819969177246094e+00 6.000882014632225037e-02 -8.329266905784606934e-01 -2.318753600120544434e-01 7.766600847244262695e-01
2.473000000000000000e+03 3.279724502563476562e+01 -1.255626487731933594e+01 -8.074738383293151855e-01 1.052775382995605469e+00 7.359046489000320435e-02 6.816129386425018311e-02
2.474000000000000000e+03 3.385031890869140625e+01 -1.046004486083984375e+01 -8.462897539138793945e-01 1.912120223045349121e+00 3.197491168975830078e-01 -2.482313960790634155e-01
2.475000000000000000e+03 1.108667373657226562e+01 6.851346969604492188e+00 2.828852646052837372e-02 -9.417538046836853027e-01 -2.740395963191986084e-01 9.044332504272460938e-01
2.476000000000000000e+03 8.944948196411132812e+00 1.029493427276611328e+01 2.009621560573577881e-01 -8.918930888175964355e-01 -2.072792798280715942e-01 7.266404032707214355e-01
2.477000000000000000e+03 4.792005538940429688e+01 -2.872656059265136719e+01 1.246348142623901367e+00 6.615152359008789062e+00 2.358450174331665039e+00 -1.072648763656616211e+00
2.478000000000000000e+03 3.079409980773925781e+01 -1.053774738311767578e+01 -9.435954689979553223e-01 9.654134511947631836e-01 6.545398849993944168e-03 4.272753000259399414e-01
2.479000000000000000e+03 3.208708572387695312e+01 -1.123827648162841797e+01 -8.671636581420898438e-01 1.187902688980102539e+00 9.622169286012649536e-02 1.782641261816024780e-01
2.480000000000000000e+03 7.838148117065429688e+00 -7.631131649017333984e+00 8.155181421898305416e-04 -7.501025102101266384e-04 1.962468559213448316e-05 1.708246963971760124e-05
2.481000000000000000e+03 6.229014873504638672e+00 -9.374526023864746094e+00 1.496937591582536697e-03 6.415103562176227570e-04 6.415343959815800190e-04 9.415843524038791656e-04
2.482000000000000000e+03 5.234646224975585938e+01 -2.355741500854492188e+01 2.184325695037841797e+00 3.259294509887695312e+00 1.633086085319519043e+00 -1.118102312088012695e+00
2.483000000000000000e+03 4.263757705688476562e+01 -7.750678062438964844e+00 -1.193134069442749023e+00 5.498181819915771484e+00 1.291514396667480469e+00 -1.171447873115539551e+00
2.484000000000000000e+03 4.375735855102539062e+01 -1.045665454864501953e+01 -1.728165507316589355e+00 6.003846168518066406e+00 1.282704234123229980e+00 -1.053131341934204102e+00
2.485000000000000000e+03 5.249160003662109375e+01 -3.350524139404296875e+01 5.847070813179016113e-01 5.713299751281738281e+00 1.889402031898498535e+00 -4.232449233531951904e-01
2.486000000000000000e+03 5.209720230102539062e+01 -3.045865821838378906e+01 1.694295525550842285e+00 5.422533988952636719e+00 2.135048866271972656e+00 -9.347767829895019531e-01
2.487000000000000000e+03 1.062749671936035156e+01 2.448697090148925781e+01 2.381001263856887817e-01 -5.463864207267761230e-01 -9.248588234186172485e-02 -1.046787761151790619e-02
2.488000000000000000e+03 1.045988082885742188e+01 7.486847400665283203e+00 6.440257281064987183e-02 -9.076299071311950684e-01 -2.529681921005249023e-01 8.770901560783386230e-01
2.489000000000000000e+03 3.807731246948242188e+01 2.298681497573852539e+00 3.720447719097137451e-01 5.685215473175048828e+00 1.817178010940551758e+00 -8.372290134429931641e-01
2.490000000000000000e+03 7.343994140625000000e+00 1.077308750152587891e+01 1.565810143947601318e-01 -8.999990820884704590e-01 -2.230254113674163818e-01 6.690276861190795898e-01
2.491000000000000000e+03 8.017270088195800781e+00 1.779664230346679688e+01 2.672899961471557617e-01 -9.666586518287658691e-01 -2.098105996847152710e-01 3.187301158905029297e-01
2.492000000000000000e+03 7.294330596923828125e+00 -1.057446002960205078e+01 2.214009640738368034e-03 -7.242149149533361197e-05 6.424764287658035755e-04 6.210881401784718037e-04
2.493000000000000000e+03 8.962519645690917969e+00 -8.518764495849609375e+00 1.949148718267679214e-03 3.751217154785990715e-04 6.972810951992869377e-04 2.473409986123442650e-04
2.494000000000000000e+03 8.837215423583984375e+00 1.713877105712890625e+01 3.034698665142059326e-01 -8.973208069801330566e-01 -1.781552881002426147e-01 3.568425476551055908e-01
2.495000000000000000e+03 8.454399108886718750e+00 2.201491928100585938e+01 2.142053246498107910e-01 -8.932273387908935547e-01 -2.037065923213958740e-01 1.231252998113632202e-01
2.496000000000000000e+03 7.770374774932861328e+00 2.080841255187988281e+01 2.096255123615264893e-01 -9.760923981666564941e-01 -2.299400568008422852e-01 1.713889390230178833e-01
2.497000000000000000e+03 3.885060882568359375e+01 1.457837820053100586e+00 1.941658854484558105e-01 5.848729610443115234e+00 1.812868714332580566e+00 -1.013435721397399902e+00
2.498000000000000000e+03 6.988049316406250000e+01 -1.501663589477539062e+01 9.440891444683074951e-02 4.333946228027343750e+00 1.328506588935852051e+00 -1.707241982221603394e-01
2.499000000000000000e+03 3.730764389038085938e+01 6.380920886993408203e+00 1.319873094558715820e+00 5.911573886871337891e+00 2.169434070587158203e+00 -7.198433279991149902e-01
2.500000000000000000e+03 3.526515197753906250e+01 5.689934730529785156e+00 1.137429237365722656e+00 4.705138683319091797e+00 1.752770304679870605e+00 -4.952732622623443604e-01
2.501000000000000000e+03 1.259682083129882812e+01 8.036057472229003906e+00 2.413692772388458252e-01 -9.452016949653625488e-01 -2.111497223377227783e-01 8.015486598014831543e-01
2.502000000000000000e+03 7.714267253875732422e+00 2.306605529785156250e+01 1.704772412776947021e-01 -9.717603325843811035e-01 -2.403849363327026367e-01 9.095939248800277710e-02
2.503000000000000000e+03 3.596014785766601562e+01 6.984488964080810547e+00 1.415806889533996582e+00 5.138298034667968750e+00 1.966231465339660645e+00 -6.142084598541259766e-01
2.504000000000000000e+03 3.522265625000000000e+01 2.441842460632324219e+01 2.488020211458206177e-01 4.433511257171630859e+00 1.404693961143493652e+00 -6.019685864448547363e-01
2.505000000000000000e+03 1.331157016754150391e+01 -8.431324005126953125e+00 -6.651899893768131733e-04 -6.521164323203265667e-04 -3.951919206883758307e-04 6.985924555920064449e-04
2.506000000000000000e+03 9.012418746948242188e+00 1.522189426422119141e+01 3.212663233280181885e-01 -8.987299203872680664e-01 -1.732390820980072021e-01 4.542407095432281494e-01
2.507000000000000000e+03 9.564723968505859375e+00 1.633060073852539062e+01 3.485431671142578125e-01 -8.580666780471801758e-01 -1.528570652008056641e-01 3.889717459678649902e-01
2.508000000000000000e+03 4.170008850097656250e+01 -8.741098403930664062e+00 -1.341635704040527344e+00 5.343458175659179688e+00 1.200546622276306152e+00 -1.230943799018859863e+00
2.509000000000000000e+03 4.726441955566406250e+01 -3.018522644042968750e+01 9.796031713485717773e-01 6.566497802734375000e+00 2.263830423355102539e+00 -7.181304097175598145e-01
2.510000000000000000e+03 3.443982696533203125e+01 1.299280261993408203e+01 1.710685133934020996e+00 4.699404716491699219e+00 1.923026919364929199e+00 -8.696003556251525879e-01
2.511000000000000000e+03 8.927178382873535156e+00 1.168866348266601562e+01 2.617832720279693604e-01 -9.039686918258666992e-01 -1.926556229591369629e-01 6.568949222564697266e-01
2.512000000000000000e+03 8.167201995849609375e+00 1.193310165405273438e+01 2.280533164739608765e-01 -9.175274968147277832e-01 -2.068422585725784302e-01 6.316174864768981934e-01
2.513000000000000000e+03 3.520188140869140625e+01 1.727007865905761719e+01 1.233537793159484863e+00 5.028262615203857422e+00 1.878540158271789551e+00 -8.338495492935180664e-01
2.514000000000000000e+03 3.397190856933593750e+01 1.966168212890625000e+01 9.633645415306091309e-01 4.353700160980224609e+00 1.595119476318359375e+00 -8.475155830383300781e-01
2.515000000000000000e+03 3.506329727172851562e+01 1.972786521911621094e+01 9.171445369720458984e-01 4.806942462921142578e+00 1.717226028442382812e+00 -7.426301240921020508e-01
2.516000000000000000e+03 3.333131027221679688e+01 1.701124572753906250e+01 1.288867354393005371e+00 4.221250057220458984e+00 1.653035283088684082e+00 -8.821865320205688477e-01
2.517000000000000000e+03 4.844312667846679688e+01 -3.308354187011718750e+01 3.396915197372436523e-01 6.022254943847656250e+00 1.908583998680114746e+00 -5.536510944366455078e-01
2.518000000000000000e+03 3.851942825317382812e+01 2.203869247436523438e+01 5.013257265090942383e-01 5.659445285797119141e+00 1.848231315612792969e+00 -1.088005453348159790e-01
2.519000000000000000e+03 3.698189544677734375e+01 2.215093994140625000e+01 5.198219418525695801e-01 5.220229148864746094e+00 1.722015261650085449e+00 -4.106980860233306885e-01
2.520000000000000000e+03 9.129391670227050781e+00 2.622767066955566406e+01 1.459916681051254272e-01 -7.258905768394470215e-01 -1.739696711301803589e-01 -2.340603806078433990e-02
2.521000000000000000e+03 3.656269836425781250e+01 8.208574295043945312e+00 1.671820521354675293e+00 5.663880825042724609e+00 2.200710296630859375e+00 -7.334888577461242676e-01
2.522000000000000000e+03 3.599386215209960938e+01 3.820142269134521484e+00 7.132511138916015625e-01 4.917563438415527344e+00 1.689244389533996582e+00 -5.482519865036010742e-01
2.523000000000000000e+03 3.422745132446289062e+01 9.697942733764648438e+00 1.701130509376525879e+00 4.459386825561523438e+00 1.848155140876770020e+00 -6.709877848625183105e-01
2.524000000000000000e+03 1.033104419708251953e+01 2.287527084350585938e+01 2.695827186107635498e-01 -6.305722594261169434e-01 -1.082968637347221375e-01 4.983063414692878723e-02
2.525000000000000000e+03 1.076759624481201172e+01 2.625953292846679688e+01 1.807843297719955444e-01 -4.802802205085754395e-01 -8.984877169132232666e-02 -5.595874786376953125e-02
2.526000000000000000e+03 7.193309783935546875e+01 -1.517635917663574219e+01 -2.316709458827972412e-01 5.368871688842773438e+00 1.541160225868225098e+00 -6.623436808586120605e-01
2.527000000000000000e+03 4.624543762207031250e+01 -2.156723403930664062e+01 5.083448410034179688e+00 8.900413513183593750e+00 4.195158481597900391e+00 -2.140433311462402344e+00
2.528000000000000000e+03 4.299558639526367188e+01 -1.738493347167968750e+01 -8.128058910369873047e-01 8.495405197143554688e+00 2.304779767990112305e+00 -3.102196216583251953e+00
2.529000000000000000e+03 4.629503631591796875e+01 -2.358636283874511719e+01 2.087791204452514648e+00 9.844513893127441406e+00 3.579691410064697266e+00 -2.871761560440063477e+00
2.530000000000000000e+03 4.648065567016601562e+01 -2.226406669616699219e+01 4.183542251586914062e+00 8.883194923400878906e+00 3.920021057128906250e+00 -2.775313138961791992e+00
2.531000000000000000e+03 4.206663131713867188e+01 -1.761360549926757812e+01 2.536893449723720551e-02 6.636733531951904297e+00 1.998630762100219727e+00 -3.606276035308837891e+00
2.532000000000000000e+03 4.360225677490234375e+01 -1.811234664916992188e+01 -5.856423974037170410e-01 1.023872756958007812e+01 2.895925521850585938e+00 -2.956635475158691406e+00
2.533000000000000000e+03 4.233220672607421875e+01 -1.596041202545166016e+01 -1.226726055145263672e+00 6.892016410827636719e+00 1.699587106704711914e+00 -2.740698337554931641e+00
2.534000000000000000e+03 4.601479339599609375e+01 -1.943952369689941406e+01 2.064344167709350586e+00 9.697692871093750000e+00 3.528610944747924805e+00 3.004050627350807190e-02
2.535000000000000000e+03 4.448752975463867188e+01 -1.802381896972656250e+01 -7.565489411354064941e-01 1.068756866455078125e+01 2.979305982589721680e+00 -1.636429309844970703e+00
2.536000000000000000e+03 4.501954269409179688e+01 -1.849811935424804688e+01 -5.608531832695007324e-02 1.091015625000000000e+01 3.256221294403076172e+00 -7.681560516357421875e-01
2.537000000000000000e+03 4.942933273315429688e+01 -1.820338058471679688e+01 -4.770005345344543457e-01 5.219425201416015625e+00 1.422727465629577637e+00 -1.342163085937500000e-01
2.538000000000000000e+03 4.727294158935546875e+01 -1.994758605957031250e+01 2.592673301696777344e+00 7.499634265899658203e+00 3.027692317962646484e+00 -4.036295711994171143e-01
2.539000000000000000e+03 4.328817367553710938e+01 -1.760456848144531250e+01 -7.927659153938293457e-01 9.170715332031250000e+00 2.513384819030761719e+00 -2.989207506179809570e+00
2.540000000000000000e+03 4.403134918212890625e+01 -1.810076332092285156e+01 -6.570178866386413574e-01 1.059767532348632812e+01 2.982197284698486328e+00 -2.248809814453125000e+00
2.541000000000000000e+03 4.553465270996093750e+01 -2.433020210266113281e+01 6.100112199783325195e-01 1.089000797271728516e+01 3.450005769729614258e+00 -1.849384188652038574e+00
2.542000000000000000e+03 4.613978958129882812e+01 -2.444438362121582031e+01 1.101963877677917480e+00 9.769339561462402344e+00 3.261390924453735352e+00 -2.224871635437011719e+00
2.543000000000000000e+03 4.268850708007812500e+01 -1.710072135925292969e+01 -8.167051076889038086e-01 7.905378818511962891e+00 2.126602172851562500e+00 -3.214231967926025391e+00
2.544000000000000000e+03 4.605316925048828125e+01 -2.584506225585937500e+01 6.418299078941345215e-01 9.044711112976074219e+00 2.905962228775024414e+00 -1.063222408294677734e+00
2.545000000000000000e+03 4.335442733764648438e+01 -1.612936973571777344e+01 -1.588406443595886230e+00 8.074788093566894531e+00 1.945914506912231445e+00 -2.299455404281616211e+00
2.546000000000000000e+03 4.664130020141601562e+01 -2.676302528381347656e+01 1.075638532638549805e+00 8.046634674072265625e+00 2.736681938171386719e+00 -9.916015863418579102e-01
2.547000000000000000e+03 4.825880813598632812e+01 -2.949657249450683594e+01 1.259145140647888184e+00 6.387853145599365234e+00 2.294099569320678711e+00 -1.078751444816589355e+00
2.548000000000000000e+03 4.877603149414062500e+01 -2.825068092346191406e+01 1.470746397972106934e+00 6.390946865081787109e+00 2.358507871627807617e+00 -1.419163942337036133e+00
2.549000000000000000e+03 3.108197784423828125e+01 -8.774072647094726562e+00 -9.665437936782836914e-01 1.383851408958435059e+00 1.251922696828842163e-01 2.876837849617004395e-01
2.550000000000000000e+03 4.044663619995117188e+01 -1.356485462188720703e+01 -1.287162423133850098e+00 4.851346015930175781e+00 1.069254994392395020e+00 -2.043710708618164062e+00
2.551000000000000000e+03 3.968476104736328125e+01 -1.264284133911132812e+01 -1.214683055877685547e+00 4.359767913818359375e+00 9.435254335403442383e-01 -1.770270943641662598e+00
2.552000000000000000e+03 3.880052566528320312e+01 -1.255070590972900391e+01 -1.063104033470153809e+00 3.778951406478881836e+00 8.147541880607604980e-01 -1.634807586669921875e+00
2.553000000000000000e+03 4.243367385864257812e+01 -1.741162490844726562e+01 -3.458745479583740234e-01 7.401252269744873047e+00 2.116613388061523438e+00 -3.538165092468261719e+00
2.554000000000000000e+03 4.816320419311523438e+01 -1.536871623992919922e+01 -2.275086879730224609e+00 6.402858257293701172e+00 1.238331437110900879e+00 3.424042165279388428e-01
2.555000000000000000e+03 1.201715564727783203e+01 -8.147778511047363281e+00 -1.200386104756034911e-04 -2.469583996571600437e-04 -1.100991066778078675e-04 3.958246961701661348e-04
2.556000000000000000e+03 2.125422286987304688e+01 1.783972620964050293e+00 -3.149153590202331543e-01 -6.238474845886230469e-01 -2.816288471221923828e-01 5.677919387817382812e-01
2.557000000000000000e+03 4.636616516113281250e+01 -2.612015914916992188e+01 7.639194726943969727e-01 8.755874633789062500e+00 2.855938196182250977e+00 -1.157129645347595215e+00
2.558000000000000000e+03 4.806808090209960938e+01 -1.464943027496337891e+01 -2.402217388153076172e+00 6.371566295623779297e+00 1.190804719924926758e+00 4.009576439857482910e-01
2.559000000000000000e+03 4.765984344482421875e+01 -1.663649749755859375e+01 -1.625962138175964355e+00 7.207442760467529297e+00 1.674444198608398438e+00 1.212499067187309265e-01
2.560000000000000000e+03 2.786351013183593750e+01 -5.425052165985107422e+00 -1.053797125816345215e+00 7.882683873176574707e-01 -7.965862005949020386e-02 5.200324058532714844e-01
2.561000000000000000e+03 2.716748237609863281e+01 -3.352722167968750000e+00 -8.985894918441772461e-01 7.365722656250000000e-01 -4.860516637563705444e-02 4.400908052921295166e-01
2.562000000000000000e+03 3.454623794555664062e+01 -1.134391498565673828e+01 -8.186912536621093750e-01 1.954448938369750977e+00 3.407272994518280029e-01 -4.493847787380218506e-01
2.563000000000000000e+03 3.064335060119628906e+01 -8.481940269470214844e+00 -9.857167601585388184e-01 1.292307972908020020e+00 9.197735786437988281e-02 3.389218449592590332e-01
2.564000000000000000e+03 2.978609275817871094e+01 -8.666982650756835938e+00 -1.041128158569335938e+00 9.972589612007141113e-01 -1.316077169030904770e-02 5.014939308166503906e-01
2.565000000000000000e+03 4.157424926757812500e+01 -7.878773689270019531e+00 -1.222813367843627930e+00 5.279888629913330078e+00 1.217122673988342285e+00 -1.195674061775207520e+00
2.566000000000000000e+03 3.982620239257812500e+01 -1.179766082763671875e+01 -1.294065713882446289e+00 4.523195266723632812e+00 9.687389135360717773e-01 -1.630332231521606445e+00
2.567000000000000000e+03 4.693965148925781250e+01 -2.427016067504882812e+01 1.730631589889526367e+00 8.720131874084472656e+00 3.135229110717773438e+00 -2.497810840606689453e+00
2.568000000000000000e+03 3.025901031494140625e+01 -8.105581283569335938e+00 -1.014048695564270020e+00 1.246287345886230469e+00 6.967160850763320923e-02 3.850650489330291748e-01
2.569000000000000000e+03 1.804300689697265625e+01 5.236820697784423828e+00 1.745845973491668701e-01 -8.617201447486877441e-01 -2.061406672000885010e-01 6.163825988769531250e-01
2.570000000000000000e+03 3.141018486022949219e+01 -1.087688922882080078e+01 -9.147518277168273926e-01 1.060167193412780762e+00 4.362462460994720459e-02 3.287994861602783203e-01
2.571000000000000000e+03 3.370295715332031250e+01 -1.139456367492675781e+01 -8.126897215843200684e-01 1.611165881156921387e+00 2.395428568124771118e-01 -2.022344321012496948e-01
2.572000000000000000e+03 1.904932785034179688e+01 3.472346305847167969e+00 -1.079759150743484497e-01 -8.876392841339111328e-01 -2.986845672130584717e-01 6.478431820869445801e-01
2.573000000000000000e+03 2.526000022888183594e+01 5.147214531898498535e-01 -3.158671855926513672e-01 4.190976917743682861e-01 3.096915595233440399e-02 3.085013926029205322e-01
2.574000000000000000e+03 2.727407264709472656e+01 -2.523541688919067383e+00 -7.241776585578918457e-01 8.904638290405273438e-01 4.988584667444229126e-02 3.567740619182586670e-01
2.575000000000000000e+03 1.732246971130371094e+01 5.771361827850341797e+00 2.230081260204315186e-01 -8.937516808509826660e-01 -2.012230604887008667e-01 6.435723900794982910e-01
2.576000000000000000e+03 2.805918693542480469e+01 -3.705823421478271484e+00 -8.600605130195617676e-01 1.084354400634765625e+00 6.728817522525787354e-02 3.639037311077117920e-01
2.577000000000000000e+03 2.874624633789062500e+01 -3.350568056106567383e+00 -7.560895681381225586e-01 1.323387622833251953e+00 1.701894104480743408e-01 2.673348188400268555e-01
2.578000000000000000e+03 1.951779174804687500e+01 4.168080806732177734e+00 7.321120798587799072e-02 -7.455291152000427246e-01 -2.016953825950622559e-01 5.545148253440856934e-01
2.579000000000000000e+03 4.866893386840820312e+01 -1.620892524719238281e+01 -2.042426824569702148e+00 6.131850719451904297e+00 1.226827144622802734e+00 2.895563542842864990e-01
2.580000000000000000e+03 2.445766067504882812e+01 -1.474109649658203125e+00 -7.645714282989501953e-01 -1.442600134760141373e-02 -2.336992323398590088e-01 5.344351530075073242e-01
2.581000000000000000e+03 2.583901596069335938e+01 -1.010142683982849121e+00 -5.762555003166198730e-01 4.882543981075286865e-01 -2.640032768249511719e-02 3.652752041816711426e-01
2.582000000000000000e+03 2.668747711181640625e+01 -1.329215168952941895e+00 -5.593081116676330566e-01 7.709547877311706543e-01 6.349401175975799561e-02 3.164221346378326416e-01
2.583000000000000000e+03 2.548250579833984375e+01 -1.719243407249450684e+00 -7.435124516487121582e-01 3.110683262348175049e-01 -1.297332495450973511e-01 4.532653689384460449e-01
2.584000000000000000e+03 2.913938903808593750e+01 -4.652521610260009766e+00 -8.859435915946960449e-01 1.346487879753112793e+00 1.381632834672927856e-01 3.118409812450408936e-01
2.585000000000000000e+03 1.877718925476074219e+01 4.705510616302490234e+00 1.267102956771850586e-01 -8.131754994392395020e-01 -2.059395611286163330e-01 5.845670700073242188e-01
2.586000000000000000e+03 4.139408111572265625e+01 -6.977158546447753906e+00 -1.077537775039672852e+00 5.239761829376220703e+00 1.248667240142822266e+00 -1.193012237548828125e+00
2.587000000000000000e+03 4.077653884887695312e+01 -5.081493854522705078e+00 -8.082412481307983398e-01 5.210591316223144531e+00 1.320705056190490723e+00 -1.181161880493164062e+00
2.588000000000000000e+03 3.938226318359375000e+01 -4.441316127777099609e+00 -7.373049855232238770e-01 4.939135074615478516e+00 1.260548949241638184e+00 -1.041154623031616211e+00
2.589000000000000000e+03 2.462836837768554688e+01 -2.217554003000259399e-01 -5.157978534698486328e-01 1.608964651823043823e-01 -1.064704135060310364e-01 4.059393703937530518e-01
2.590000000000000000e+03 8.357567787170410156e+00 9.411854743957519531e+00 1.332583427429199219e-01 -8.698536753654479980e-01 -2.209786027669906616e-01 7.524006962776184082e-01
2.591000000000000000e+03 1.784253501892089844e+01 6.517410755157470703e+00 3.698640167713165283e-01 -7.741364836692810059e-01 -1.212817355990409851e-01 5.531427264213562012e-01
2.592000000000000000e+03 1.288061809539794922e+01 6.776340961456298828e+00 1.010797619819641113e-01 -1.000876903533935547e+00 -2.699391245841979980e-01 8.695829510688781738e-01
2.593000000000000000e+03 1.220610237121582031e+01 7.183465957641601562e+00 1.177257969975471497e-01 -9.754700064659118652e-01 -2.573232650756835938e-01 8.742771744728088379e-01
2.594000000000000000e+03 4.651196289062500000e+01 -1.780658721923828125e+01 -5.167943835258483887e-01 8.669407844543457031e+00 2.445784091949462891e+00 -6.870721280574798584e-02
2.595000000000000000e+03 4.676579666137695312e+01 -1.968424606323242188e+01 2.461082696914672852e+00 8.324189186096191406e+00 3.235581398010253906e+00 -1.212886348366737366e-01
2.596000000000000000e+03 5.005540084838867188e+01 -2.131882667541503906e+01 2.127474546432495117e+00 4.444199562072753906e+00 1.971502184867858887e+00 -1.342615485191345215e+00
2.597000000000000000e+03 5.051396560668945312e+01 -1.914794540405273438e+01 2.557413280010223389e-01 3.890231132507324219e+00 1.243791699409484863e+00 -4.979149997234344482e-01
2.598000000000000000e+03 4.194247055053710938e+01 -1.453399085998535156e+01 -1.560527324676513672e+00 6.201000690460205078e+00 1.392142057418823242e+00 -2.255397319793701172e+00
2.599000000000000000e+03 4.032810592651367188e+01 -1.517904567718505859e+01 -8.860646486282348633e-01 4.578504562377929688e+00 1.107731938362121582e+00 -2.445968627929687500e+00
2.600000000000000000e+03 2.993299865722656250e+01 -7.660287857055664062e+00 -1.028589248657226562e+00 1.204651236534118652e+00 5.281857401132583618e-02 4.193418920040130615e-01
2.601000000000000000e+03 2.933841323852539062e+01 -6.680007457733154297e+00 -1.022519230842590332e+00 1.145390152931213379e+00 3.686128184199333191e-02 4.308521151542663574e-01
2.602000000000000000e+03 5.211070251464843750e+01 -2.243393135070800781e+01 2.057947397232055664e+00 3.032486438751220703e+00 1.527130246162414551e+00 -1.118230819702148438e+00
2.603000000000000000e+03 3.210940170288085938e+01 -9.221765518188476562e+00 -9.215110540390014648e-01 1.620002627372741699e+00 2.095474600791931152e-01 1.126951649785041809e-01
2.604000000000000000e+03 3.445267868041992188e+01 -1.218642330169677734e+01 -7.620466947555541992e-01 1.713228583335876465e+00 2.853545844554901123e-01 -4.234153628349304199e-01
2.605000000000000000e+03 3.242393112182617188e+01 -1.027595233917236328e+01 -8.903089761734008789e-01 1.509731173515319824e+00 1.858266592025756836e-01 7.523567974567413330e-02
2.606000000000000000e+03 4.663851547241210938e+01 -1.377950668334960938e+01 -2.381362676620483398e+00 6.968636512756347656e+00 1.376182079315185547e+00 -1.267184019088745117e-01
2.607000000000000000e+03 4.363296508789062500e+01 -1.135776615142822266e+01 -1.889853119850158691e+00 6.193810939788818359e+00 1.291187405586242676e+00 -1.118172526359558105e+00
2.608000000000000000e+03 4.174447250366210938e+01 -1.589826583862304688e+01 -1.003862619400024414e+00 6.150981903076171875e+00 1.544135808944702148e+00 -2.802873134613037109e+00
2.609000000000000000e+03 3.611740875244140625e+01 -1.233777713775634766e+01 -7.911988496780395508e-01 2.321062564849853516e+00 4.589591324329376221e-01 -9.071258306503295898e-01
2.610000000000000000e+03 1.540835571289062500e+01 6.113463401794433594e+00 1.534682959318161011e-01 -1.002458810806274414e+00 -2.546971440315246582e-01 7.720475792884826660e-01
2.611000000000000000e+03 2.099370384216308594e+01 3.041794300079345703e+00 -5.410562083125114441e-02 -5.606625676155090332e-01 -1.844304502010345459e-01 4.949153363704681396e-01
2.612000000000000000e+03 3.981818771362304688e+01 -3.092704057693481445e+00 -5.479607582092285156e-01 5.224759101867675781e+00 1.403039455413818359e+00 -1.117848753929138184e+00
2.613000000000000000e+03 9.018255233764648438e+00 -1.033291530609130859e+01 -1.636929344385862350e-03 4.825015203095972538e-04 -3.463283355813473463e-04 1.953637111000716686e-04
2.614000000000000000e+03 9.868771553039550781e+00 -8.890122413635253906e+00 -1.749174669384956360e-03 -6.153868162073194981e-04 -7.093684398569166660e-04 -3.231254813726991415e-04
2.615000000000000000e+03 4.721728134155273438e+01 -2.561883354187011719e+01 1.223930001258850098e+00 8.030759811401367188e+00 2.776407003402709961e+00 -1.844465732574462891e+00
2.616000000000000000e+03 4.732002258300781250e+01 -2.681176376342773438e+01 1.154735088348388672e+00 7.525211334228515625e+00 2.603983879089355469e+00 -1.463280916213989258e+00
2.617000000000000000e+03 5.008013534545898438e+01 -2.560626411437988281e+01 2.081902742385864258e+00 5.492227077484130859e+00 2.272238969802856445e+00 -1.869579195976257324e+00
2.618000000000000000e+03 9.772825241088867188e+00 9.647426605224609375e+00 2.105890065431594849e-01 -8.931722640991210938e-01 -2.047749757766723633e-01 7.639412879943847656e-01
2.619000000000000000e+03 5.221611404418945312e+01 -2.006732749938964844e+01 5.801350474357604980e-01 2.255556583404541016e+00 8.507075309753417969e-01 -7.163923382759094238e-01
2.620000000000000000e+03 4.064387893676757812e+01 -8.909269332885742188e+00 -1.299836277961730957e+00 4.998887538909912109e+00 1.109715461730957031e+00 -1.248454809188842773e+00
2.621000000000000000e+03 4.809080886840820312e+01 -2.682616615295410156e+01 1.490051984786987305e+00 6.978046894073486328e+00 2.540429592132568359e+00 -1.552485823631286621e+00
2.622000000000000000e+03 1.356035232543945312e+01 6.332077503204345703e+00 7.681328058242797852e-02 -1.028093457221984863e+00 -2.853840589523315430e-01 8.647297024726867676e-01
2.623000000000000000e+03 1.471176052093505859e+01 6.643968105316162109e+00 1.954690963029861450e-01 -9.944247603416442871e-01 -2.396866977214813232e-01 7.833800911903381348e-01
2.624000000000000000e+03 3.663422393798828125e+01 -3.679486751556396484e+00 -6.147628426551818848e-01 4.181296348571777344e+00 1.069960117340087891e+00 -6.651323437690734863e-01
2.625000000000000000e+03 5.035830307006835938e+01 -3.033865165710449219e+01 1.438681483268737793e+00 5.695205211639404297e+00 2.140166044235229492e+00 -1.045705795288085938e+00
2.626000000000000000e+03 1.002710723876953125e+01 -8.067642211914062500e+00 1.338066882453858852e-03 2.542690199334174395e-04 4.777007852680981159e-04 1.033097305480623618e-05
2.627000000000000000e+03 3.764357757568359375e+01 -1.007393449544906616e-01 -1.080792173743247986e-01 5.071850299835205078e+00 1.489131331443786621e+00 -7.979141473770141602e-01
2.628000000000000000e+03 3.826059722900390625e+01 7.385966181755065918e-01 4.931828379631042480e-02 5.445982933044433594e+00 1.648590326309204102e+00 -8.714959621429443359e-01
2.629000000000000000e+03 3.675329971313476562e+01 -2.311149835586547852e+00 -4.557313323020935059e-01 4.399096965789794922e+00 1.183009624481201172e+00 -6.692481637001037598e-01
2.630000000000000000e+03 4.585686874389648438e+01 -3.573395538330078125e+01 -5.323909521102905273e-01 5.700967788696289062e+00 1.550573110580444336e+00 4.111076146364212036e-02
2.631000000000000000e+03 4.886568450927734375e+01 -3.550123596191406250e+01 -2.594829499721527100e-01 5.857382774353027344e+00 1.679369926452636719e+00 -2.460277825593948364e-01
2.632000000000000000e+03 8.375797271728515625e+00 1.292786407470703125e+01 2.645849287509918213e-01 -9.259923696517944336e-01 -1.984222382307052612e-01 5.812865495681762695e-01
2.633000000000000000e+03 9.781906127929687500e+00 1.811776161193847656e+01 3.629281520843505859e-01 -7.899717688560485840e-01 -1.281130760908126831e-01 2.802529036998748779e-01
2.634000000000000000e+03 1.066235542297363281e+01 1.938020515441894531e+01 3.760342299938201904e-01 -6.787360310554504395e-01 -9.081053733825683594e-02 1.967633962631225586e-01
2.635000000000000000e+03 3.736145019531250000e+01 1.477762222290039062e+00 2.120657563209533691e-01 5.171512126922607422e+00 1.615073323249816895e+00 -7.308145165443420410e-01
2.636000000000000000e+03 4.109624099731445312e+01 -1.518095874786376953e+01 -1.080961346626281738e+00 5.405746936798095703e+00 1.297435641288757324e+00 -2.536015987396240234e+00
2.637000000000000000e+03 1.163694095611572266e+01 1.574599075317382812e+01 4.852967560291290283e-01 -7.088907957077026367e-01 -6.707822531461715698e-02 3.686217665672302246e-01
2.638000000000000000e+03 1.050987911224365234e+01 1.707194519042968750e+01 4.086630046367645264e-01 -7.494367957115173340e-01 -1.022321432828903198e-01 3.158123791217803955e-01
2.639000000000000000e+03 9.166157722473144531e+00 8.833843231201171875e+00 1.293125003576278687e-01 -8.772062063217163086e-01 -2.243681102991104126e-01 8.013474941253662109e-01
2.640000000000000000e+03 3.646688079833984375e+01 2.177727460861206055e+00 3.501776158809661865e-01 4.925941467285156250e+00 1.582835793495178223e+00 -5.985334515571594238e-01
2.641000000000000000e+03 8.302765846252441406e+00 1.104020977020263672e+01 2.047715634107589722e-01 -9.030153751373291016e-01 -2.094731330871582031e-01 6.800529360771179199e-01
2.642000000000000000e+03 3.521730041503906250e+01 1.421578407287597656e+01 1.602749109268188477e+00 5.172329902648925781e+00 2.032523632049560547e+00 -8.996264338493347168e-01
2.643000000000000000e+03 3.306377029418945312e+01 1.384653854370117188e+01 1.606654286384582520e+00 4.053338527679443359e+00 1.697997808456420898e+00 -8.487849235534667969e-01
2.644000000000000000e+03 9.353704452514648438e+00 1.260916805267333984e+01 3.152598142623901367e-01 -8.948969841003417969e-01 -1.738911569118499756e-01 6.059025526046752930e-01
2.645000000000000000e+03 4.388901901245117188e+01 -3.700236129760742188e+01 -7.614400982856750488e-01 4.971065998077392578e+00 1.262887716293334961e+00 3.859664797782897949e-01
2.646000000000000000e+03 8.287212371826171875e+00 -9.844771385192871094e+00 2.663797000423073769e-03 -9.123541531153023243e-05 7.717684493400156498e-04 1.166556961834430695e-03
2.647000000000000000e+03 3.287558746337890625e+01 1.899232292175292969e+01 1.091552734375000000e+00 3.978515386581420898e+00 1.521020531654357910e+00 -8.889205455780029297e-01
2.648000000000000000e+03 1.229145050048828125e+01 2.424221229553222656e+01 2.943043410778045654e-01 -3.259187936782836914e-01 -9.484335780143737793e-03 -5.251551419496536255e-02
2.649000000000000000e+03 1.257021045684814453e+01 2.615148735046386719e+01 2.283290326595306396e-01 -2.214398235082626343e-01 2.066762186586856842e-03 -1.142186746001243591e-01
2.650000000000000000e+03 5.144832229614257812e+01 -2.056463432312011719e+01 1.258662819862365723e+00 3.036066770553588867e+00 1.288418889045715332e+00 -9.195496439933776855e-01
2.651000000000000000e+03 3.545518875122070312e+01 2.694567918777465820e+00 4.674412906169891357e-01 4.501566886901855469e+00 1.490702509880065918e+00 -4.894653558731079102e-01
2.652000000000000000e+03 1.266282367706298828e+01 2.824630546569824219e+01 1.478620767593383789e-01 -1.490844488143920898e-01 -3.667098062578588724e-04 -1.440718472003936768e-01
2.653000000000000000e+03 3.566136169433593750e+01 2.638975143432617188e+01 -1.327161397784948349e-02 4.296441555023193359e+00 1.284950971603393555e+00 -5.256381630897521973e-01
2.654000000000000000e+03 3.332162094116210938e+01 2.261042213439941406e+01 5.709588527679443359e-01 3.994984626770019531e+00 1.369783043861389160e+00 -8.045583963394165039e-01
2.655000000000000000e+03 1.224656867980957031e+01 3.510335159301757812e+01 -4.532827064394950867e-02 -5.577991157770156860e-02 -3.033245541155338287e-02 -1.291903108358383179e-01
2.656000000000000000e+03 1.034975624084472656e+01 3.039779663085937500e+01 5.633012577891349792e-02 -4.523405730724334717e-01 -1.188031360507011414e-01 -9.660598635673522949e-02
2.657000000000000000e+03 1.026523685455322266e+01 -3.440007781982421875e+01 -1.241216808557510376e-02 -3.484159242361783981e-03 -4.768898244947195053e-03 -3.997685853391885757e-03
2.658000000000000000e+03 4.710387802124023438e+01 -2.078825569152832031e+01 3.646025419235229492e+00 7.573990345001220703e+00 3.366004705429077148e+00 -1.106002449989318848e+00
2.659000000000000000e+03 4.616580963134765625e+01 -2.129159355163574219e+01 5.143420696258544922e+00 8.959088325500488281e+00 4.230752468109130859e+00 -1.779555797576904297e+00
2.660000000000000000e+03 4.363510894775390625e+01 -1.767065048217773438e+01 -8.539105653762817383e-01 9.651471138000488281e+00 2.639268159866333008e+00 -2.744270086288452148e+00
2.661000000000000000e+03 4.661289596557617188e+01 -2.326306152343750000e+01 2.634613990783691406e+00 9.113655090332031250e+00 3.524480819702148438e+00 -2.960525274276733398e+00
2.662000000000000000e+03 4.746765136718750000e+01 -2.270499229431152344e+01 3.181633472442626953e+00 7.507310867309570312e+00 3.206683397293090820e+00 -2.595130920410156250e+00
2.663000000000000000e+03 5.036214065551757812e+01 -2.027242660522460938e+01 1.360761642456054688e+00 4.041869163513183594e+00 1.620789170265197754e+00 -9.080739617347717285e-01
2.664000000000000000e+03 4.633246994018554688e+01 -2.189987373352050781e+01 4.659031867980957031e+00 8.920410156250000000e+00 4.073832511901855469e+00 -2.611717224121093750e+00
2.665000000000000000e+03 4.857188415527343750e+01 -1.845984649658203125e+01 7.918248325586318970e-02 6.189842224121093750e+00 1.880707502365112305e+00 -1.185525953769683838e-01
2.666000000000000000e+03 4.631911849975585938e+01 -1.942523765563964844e+01 2.024377584457397461e+00 9.090673446655273438e+00 3.334515333175659180e+00 -2.065476402640342712e-02
2.667000000000000000e+03 4.572323226928710938e+01 -1.944623374938964844e+01 2.125355243682861328e+00 1.024974632263183594e+01 3.712530374526977539e+00 6.097554787993431091e-02
2.668000000000000000e+03 4.595241928100585938e+01 -1.346400833129882812e+01 -2.407576799392700195e+00 7.023327827453613281e+00 1.384725213050842285e+00 -4.260770380496978760e-01
2.669000000000000000e+03 4.398484039306640625e+01 -1.759334564208984375e+01 -1.081522703170776367e+00 9.857151031494140625e+00 2.632688522338867188e+00 -2.239223480224609375e+00
2.670000000000000000e+03 4.593224334716796875e+01 -1.817673683166503906e+01 -1.584929525852203369e-01 9.627872467041015625e+00 2.840813875198364258e+00 -1.875257492065429688e-01
2.671000000000000000e+03 4.503330612182617188e+01 -1.792134857177734375e+01 -7.014347314834594727e-01 1.030114173889160156e+01 2.879912137985229492e+00 -9.388774633407592773e-01
2.672000000000000000e+03 4.678482055664062500e+01 -2.624686622619628906e+01 9.269464612007141113e-01 8.232045173645019531e+00 2.747697591781616211e+00 -1.419518709182739258e+00
2.673000000000000000e+03 4.637681198120117188e+01 -2.548037719726562500e+01 8.264535069465637207e-01 9.076039314270019531e+00 2.970747947692871094e+00 -1.578314900398254395e+00
2.674000000000000000e+03 4.175980377197265625e+01 -1.651305770874023438e+01 -6.718117594718933105e-01 6.156393051147460938e+00 1.645374298095703125e+00 -3.043912172317504883e+00
2.675000000000000000e+03 3.186087226867675781e+01 -8.240010261535644531e+00 -9.448054432868957520e-01 1.735899090766906738e+00 2.373280823230743408e-01 1.173276528716087341e-01
2.676000000000000000e+03 3.178962326049804688e+01 -1.004809379577636719e+01 -9.039761424064636230e-01 1.352311611175537109e+00 1.345006525516510010e-01 1.999402046203613281e-01
2.677000000000000000e+03 3.270412445068359375e+01 -9.384654045104980469e+00 -8.936573266983032227e-01 1.812952041625976562e+00 2.757884263992309570e-01 -1.046444103121757507e-02
2.678000000000000000e+03 4.331849288940429688e+01 -1.720551681518554688e+01 -1.068723082542419434e+00 8.772551536560058594e+00 2.311148405075073242e+00 -2.761243581771850586e+00
2.679000000000000000e+03 4.035841751098632812e+01 -1.438129806518554688e+01 -1.110014557838439941e+00 4.714058876037597656e+00 1.081213235855102539e+00 -2.261331319808959961e+00
2.680000000000000000e+03 4.372989273071289062e+01 -1.727978134155273438e+01 -1.221624135971069336e+00 9.275424003601074219e+00 2.416140079498291016e+00 -2.403364419937133789e+00
2.681000000000000000e+03 4.262785339355468750e+01 -1.472047519683837891e+01 -1.732086658477783203e+00 6.819153308868408203e+00 1.526120066642761230e+00 -2.151255369186401367e+00
2.682000000000000000e+03 5.056359481811523438e+01 -2.376267051696777344e+01 2.314226388931274414e+00 4.595170974731445312e+00 2.072819232940673828e+00 -1.756232619285583496e+00
2.683000000000000000e+03 4.995146179199218750e+01 -1.967679595947265625e+01 9.356644153594970703e-01 4.492052555084228516e+00 1.628315091133117676e+00 -7.704150080680847168e-01
2.684000000000000000e+03 4.685056686401367188e+01 -2.134733772277832031e+01 4.221321105957031250e+00 7.919952392578125000e+00 3.642381906509399414e+00 -1.751617550849914551e+00
2.685000000000000000e+03 2.052530479431152344e+01 2.366771936416625977e+00 -2.433476299047470093e-01 -7.299941778182983398e-01 -2.920025289058685303e-01 5.910419225692749023e-01
2.686000000000000000e+03 4.117336273193359375e+01 -1.443107223510742188e+01 -1.329910755157470703e+00 5.472139835357666016e+00 1.242668747901916504e+00 -2.296817541122436523e+00
2.687000000000000000e+03 4.758449554443359375e+01 -1.554332637786865234e+01 -2.175090074539184570e+00 7.062125205993652344e+00 1.466110467910766602e+00 1.982542276382446289e-01
2.688000000000000000e+03 4.779612731933593750e+01 -2.805342292785644531e+01 1.281597852706909180e+00 6.930933952331542969e+00 2.463759660720825195e+00 -1.241432905197143555e+00
2.689000000000000000e+03 4.735731124877929688e+01 -2.620589256286621094e+01 1.283664584159851074e+00 7.795424461364746094e+00 2.723726749420166016e+00 -1.530680775642395020e+00
2.690000000000000000e+03 3.136841773986816406e+01 -8.150088310241699219e+00 -9.506950378417968750e-01 1.602441430091857910e+00 1.955239027738571167e-01 2.022484838962554932e-01
2.691000000000000000e+03 2.827531623840332031e+01 -4.394300460815429688e+00 -9.256235361099243164e-01 1.059962272644042969e+00 4.030161350965499878e-02 3.884782195091247559e-01
2.692000000000000000e+03 3.029646682739257812e+01 -6.685339927673339844e+00 -9.641427993774414062e-01 1.484031319618225098e+00 1.559665650129318237e-01 2.877255678176879883e-01
2.693000000000000000e+03 4.951595687866210938e+01 -1.918612861633300781e+01 6.066497564315795898e-01 4.967225551605224609e+00 1.672162652015686035e+00 -4.345718324184417725e-01
2.694000000000000000e+03 3.286302185058593750e+01 -1.143445014953613281e+01 -8.422941565513610840e-01 1.352074623107910156e+00 1.529341489076614380e-01 2.549018710851669312e-02
2.695000000000000000e+03 1.928655815124511719e+01 5.451475620269775391e+00 2.880385816097259521e-01 -6.659500002861022949e-01 -1.133734285831451416e-01 4.914295971393585205e-01
2.696000000000000000e+03 1.856082534790039062e+01 5.985307216644287109e+00 3.335272669792175293e-01 -7.275770902633666992e-01 -1.182149425148963928e-01 5.240021347999572754e-01
2.697000000000000000e+03 4.441465759277343750e+01 -1.236896324157714844e+01 -2.123286724090576172e+00 6.631834030151367188e+00 1.352564215660095215e+00 -9.696732759475708008e-01
2.698000000000000000e+03 4.837697601318359375e+01 -1.695132064819335938e+01 -1.374120235443115234e+00 6.478960990905761719e+00 1.531452178955078125e+00 2.087276875972747803e-01
2.699000000000000000e+03 4.808623123168945312e+01 -2.610616302490234375e+01 1.491724967956542969e+00 7.044135093688964844e+00 2.560758113861083984e+00 -1.840699553489685059e+00
2.700000000000000000e+03 5.046158981323242188e+01 -2.471442985534667969e+01 2.281938076019287109e+00 5.066378116607666016e+00 2.204494953155517578e+00 -1.842240452766418457e+00
2.701000000000000000e+03 2.855058288574218750e+01 -2.551213741302490234e+00 -6.467170119285583496e-01 1.345983147621154785e+00 2.097798436880111694e-01 2.361136525869369507e-01
2.702000000000000000e+03 2.025656509399414062e+01 3.614878892898559570e+00 1.115150470286607742e-02 -6.633794307708740234e-01 -1.956683695316314697e-01 5.222819447517395020e-01
2.703000000000000000e+03 2.001617813110351562e+01 4.905857563018798828e+00 2.434467077255249023e-01 -5.914480090141296387e-01 -1.044003963470458984e-01 4.583441913127899170e-01
2.704000000000000000e+03 2.246787071228027344e+01 1.834149122238159180e+00 -2.079623341560363770e-01 -3.077120482921600342e-01 -1.547023057937622070e-01 4.474625885486602783e-01
2.705000000000000000e+03 2.448976516723632812e+01 1.211945533752441406e+00 -2.109317034482955933e-01 2.279562205076217651e-01 5.107352510094642639e-03 3.222917616367340088e-01
2.706000000000000000e+03 2.509719657897949219e+01 -1.021057248115539551e+00 -6.153372526168823242e-01 2.504458427429199219e-01 -1.094674319028854370e-01 4.351732432842254639e-01
2.707000000000000000e+03 2.583943557739257812e+01 -2.392094612121582031e+00 -8.172116875648498535e-01 3.637490868568420410e-01 -1.360387802124023438e-01 4.724487662315368652e-01
2.708000000000000000e+03 1.837215042114257812e+01 7.300114631652832031e+00 5.069803595542907715e-01 -6.399055123329162598e-01 -3.987754881381988525e-02 4.635571539402008057e-01
2.709000000000000000e+03 1.661461830139160156e+01 6.316284179687500000e+00 2.635662853717803955e-01 -9.133419394493103027e-01 -1.949327141046524048e-01 6.679525375366210938e-01
2.710000000000000000e+03 3.069922828674316406e+01 -7.634042739868164062e+00 -9.817351102828979492e-01 1.432003736495971680e+00 1.350805759429931641e-01 2.783383727073669434e-01
2.711000000000000000e+03 3.050422668457031250e+01 -7.201610565185546875e+00 -9.586750864982604980e-01 1.477091670036315918e+00 1.555249840021133423e-01 2.873719334602355957e-01
2.712000000000000000e+03 3.918767166137695312e+01 -6.516247272491455078e+00 -9.919100403785705566e-01 4.677075862884521484e+00 1.105549812316894531e+00 -1.037454485893249512e+00
2.713000000000000000e+03 3.888529205322265625e+01 -5.670008659362792969e+00 -8.839864134788513184e-01 4.652035236358642578e+00 1.130414724349975586e+00 -9.944701790809631348e-01
2.714000000000000000e+03 3.290516662597656250e+01 -8.579044342041015625e+00 -8.959589600563049316e-01 2.028449535369873047e+00 3.397471606731414795e-01 -8.014653623104095459e-02
2.715000000000000000e+03 4.906493377685546875e+01 -1.878248405456542969e+01 4.039274752140045166e-01 5.487587928771972656e+00 1.767454624176025391e+00 -3.514691293239593506e-01
2.716000000000000000e+03 4.882549285888671875e+01 -1.787956809997558594e+01 -5.169854760169982910e-01 5.870487689971923828e+00 1.606050729751586914e+00 -7.216813974082469940e-03
2.717000000000000000e+03 2.606925773620605469e+01 -4.783832281827926636e-02 -3.639499843120574951e-01 6.467287540435791016e-01 8.483362942934036255e-02 2.797192335128784180e-01
2.718000000000000000e+03 2.759681129455566406e+01 -1.532888531684875488e+00 -5.364897847175598145e-01 1.094563364982604980e+00 1.674220860004425049e-01 2.521211802959442139e-01
2.719000000000000000e+03 5.128029632568359375e+01 -2.269822120666503906e+01 2.131825208663940430e+00 3.678817987442016602e+00 1.743192911148071289e+00 -1.405947208404541016e+00
2.720000000000000000e+03 3.791011810302734375e+01 -1.247095394134521484e+01 -9.350461363792419434e-01 3.241977691650390625e+00 6.920794844627380371e-01 -1.415341734886169434e+00
2.721000000000000000e+03 3.714589309692382812e+01 -1.146496677398681641e+01 -9.301406145095825195e-01 3.074218511581420898e+00 6.432234048843383789e-01 -1.118836998939514160e+00
2.722000000000000000e+03 9.849321365356445312e+00 8.180191040039062500e+00 1.018985062837600708e-01 -8.873586058616638184e-01 -2.356380224227905273e-01 8.390597105026245117e-01
2.723000000000000000e+03 1.156466865539550781e+01 7.579992771148681641e+00 1.270565092563629150e-01 -9.490265250205993652e-01 -2.465910017490386963e-01 8.639795184135437012e-01
2.724000000000000000e+03 1.108058834075927734e+01 8.186864852905273438e+00 1.753767579793930054e-01 -9.255102276802062988e-01 -2.250400334596633911e-01 8.349626064300537109e-01
2.725000000000000000e+03 3.759624862670898438e+01 -1.675166487693786621e+00 -3.663209378719329834e-01 4.792290210723876953e+00 1.327790737152099609e+00 -7.823421359062194824e-01
2.726000000000000000e+03 3.742451858520507812e+01 -3.115483760833740234e+00 -5.704818367958068848e-01 4.533198356628417969e+00 1.188814878463745117e+00 -7.584993243217468262e-01
2.727000000000000000e+03 4.071351242065429688e+01 -1.191934013366699219e+01 -1.465841293334960938e+00 5.058804988861083984e+00 1.077889084815979004e+00 -1.667788028717041016e+00
2.728000000000000000e+03 3.941835021972656250e+01 -7.329308986663818359e+00 -1.070218801498413086e+00 4.666724205017089844e+00 1.078951597213745117e+00 -1.095254182815551758e+00
2.729000000000000000e+03 4.886214065551757812e+01 -2.481561660766601562e+01 2.047040939331054688e+00 6.436012268066406250e+00 2.544915914535522461e+00 -2.152873277664184570e+00
2.730000000000000000e+03 3.053355216979980469e+01 -5.695044994354248047e+00 -8.863117098808288574e-01 1.710475683212280273e+00 2.472491860389709473e-01 2.033452987670898438e-01
2.731000000000000000e+03 4.267477416992187500e+01 -1.127206611633300781e+01 -1.775886774063110352e+00 5.911817550659179688e+00 1.240779280662536621e+00 -1.342058181762695312e+00
2.732000000000000000e+03 1.052296447753906250e+01 1.591787719726562500e+01 4.219316840171813965e-01 -7.754470705986022949e-01 -1.060546189546585083e-01 3.918903172016143799e-01
2.733000000000000000e+03 8.669920921325683594e+00 1.402963352203369141e+01 2.940920293331146240e-01 -9.210634231567382812e-01 -1.880914121866226196e-01 5.249841213226318359e-01
2.734000000000000000e+03 5.181750488281250000e+01 -2.144377899169921875e+01 1.579525470733642578e+00 2.908327341079711914e+00 1.346355915069580078e+00 -1.043693304061889648e+00
2.735000000000000000e+03 1.713605117797851562e+01 7.061790466308593750e+00 4.045900702476501465e-01 -8.041593432426452637e-01 -1.198707744479179382e-01 5.776322484016418457e-01
2.736000000000000000e+03 2.173030853271484375e+01 2.449354887008666992e+00 -1.315203905105590820e-01 -4.466916024684906006e-01 -1.734635978937149048e-01 4.674102365970611572e-01
2.737000000000000000e+03 4.885814666748046875e+01 -2.708366012573242188e+01 1.607201695442199707e+00 6.433875560760498047e+00 2.412323236465454102e+00 -1.654834389686584473e+00
2.738000000000000000e+03 4.179838562011718750e+01 -9.562534332275390625e+00 -1.465463042259216309e+00 5.403762340545654297e+00 1.181489825248718262e+00 -1.260308265686035156e+00
2.739000000000000000e+03 4.053929901123046875e+01 -8.029317855834960938e+00 -1.193573117256164551e+00 4.979404926300048828e+00 1.135749578475952148e+00 -1.198706507682800293e+00
2.740000000000000000e+03 4.174660491943359375e+01 -1.120052623748779297e+01 -1.630287170410156250e+00 5.546179294586181641e+00 1.174767613410949707e+00 -1.478210091590881348e+00
2.741000000000000000e+03 4.276394653320312500e+01 -1.040272045135498047e+01 -1.664008975028991699e+00 5.785860061645507812e+00 1.236555218696594238e+00 -1.221755146980285645e+00
2.742000000000000000e+03 4.532619094848632812e+01 -1.661193466186523438e+01 -1.718803167343139648e+00 9.000517845153808594e+00 2.184514522552490234e+00 -9.110319018363952637e-01
2.743000000000000000e+03 1.025596714019775391e+01 1.211597347259521484e+01 3.485264778137207031e-01 -8.749597072601318359e-01 -1.579299718141555786e-01 6.265840530395507812e-01
2.744000000000000000e+03 4.921251296997070312e+01 -3.104440307617187500e+01 1.096268296241760254e+00 5.968328475952148438e+00 2.119379043579101562e+00 -9.027236700057983398e-01
2.745000000000000000e+03 1.299488735198974609e+01 8.969841957092285156e+00 3.556286990642547607e-01 -9.143624901771545410e-01 -1.676201373338699341e-01 7.392386794090270996e-01
2.746000000000000000e+03 1.401622295379638672e+01 7.156127452850341797e+00 2.192743718624114990e-01 -9.835178852081298828e-01 -2.292730659246444702e-01 7.955147624015808105e-01
2.747000000000000000e+03 3.592467117309570312e+01 1.340985536575317383e+00 1.797873079776763916e-01 4.583383560180664062e+00 1.428951263427734375e+00 -5.510234236717224121e-01
2.748000000000000000e+03 3.940970611572265625e+01 -9.902172088623046875e+00 -1.231479048728942871e+00 4.470973491668701172e+00 9.718483686447143555e-01 -1.310841083526611328e+00
2.749000000000000000e+03 1.018295860290527344e+01 1.478853607177734375e+01 3.935937583446502686e-01 -8.278362154960632324e-01 -1.302727311849594116e-01 4.691604077816009521e-01
2.750000000000000000e+03 3.741579818725585938e+01 -6.916912078857421875e+00 -9.462115168571472168e-01 4.005253314971923828e+00 9.177125692367553711e-01 -8.479941487312316895e-01
2.751000000000000000e+03 9.842679023742675781e+00 2.143312072753906250e+01 2.846372127532958984e-01 -7.259815335273742676e-01 -1.324032843112945557e-01 1.206644400954246521e-01
2.752000000000000000e+03 4.013624191284179688e+01 -6.277278423309326172e+00 -9.742724299430847168e-01 4.961781501770019531e+00 1.196252822875976562e+00 -1.121881723403930664e+00
2.753000000000000000e+03 5.171404647827148438e+01 -3.233563232421875000e+01 1.195549488067626953e+00 5.502363204956054688e+00 2.009373664855957031e+00 -5.873451232910156250e-01
2.754000000000000000e+03 3.669781494140625000e+01 6.704442501068115234e-01 6.704603135585784912e-02 4.823778152465820312e+00 1.467247366905212402e+00 -6.214908957481384277e-01
2.755000000000000000e+03 3.475588607788085938e+01 7.710944652557373047e+00 1.481078743934631348e+00 4.620510101318359375e+00 1.830476641654968262e+00 -5.659481287002563477e-01
2.756000000000000000e+03 3.401792907714843750e+01 6.493105411529541016e+00 1.217933058738708496e+00 4.151380538940429688e+00 1.610794067382812500e+00 -4.660501778125762939e-01
2.757000000000000000e+03 9.651201248168945312e+00 1.115260028839111328e+01 2.865544259548187256e-01 -8.962948322296142578e-01 -1.829221099615097046e-01 6.821412444114685059e-01
2.758000000000000000e+03 8.233027458190917969e+00 -8.146561622619628906e+00 -1.958844717592000961e-03 -1.137076396844349802e-04 -6.217656773515045643e-04 3.684338298626244068e-05
2.759000000000000000e+03 8.624585151672363281e+00 -9.182882308959960938e+00 -2.702642465010285378e-03 5.280640834826044738e-05 -7.949508144520223141e-04 -1.020209630951285362e-03
2.760000000000000000e+03 3.223107528686523438e+01 1.257917881011962891e+01 1.630240201950073242e+00 3.604041099548339844e+00 1.570284366607666016e+00 -7.694277763366699219e-01
2.761000000000000000e+03 3.289647293090820312e+01 1.047416973114013672e+01 1.667231440544128418e+00 3.816464424133300781e+00 1.645108699798583984e+00 -6.542887091636657715e-01
2.762000000000000000e+03 3.354696655273437500e+01 8.484028816223144531e+00 1.527764678001403809e+00 4.016224861145019531e+00 1.663196802139282227e+00 -5.487554669380187988e-01
2.763000000000000000e+03 3.386701583862304688e+01 1.503820705413818359e+01 1.519919395446777344e+00 4.441186428070068359e+00 1.788331747055053711e+00 -8.842636346817016602e-01
2.764000000000000000e+03 3.225214767456054688e+01 9.209084510803222656e+00 1.518224716186523438e+00 3.494008779525756836e+00 1.503670096397399902e+00 -5.347300767898559570e-01
2.765000000000000000e+03 4.727807617187500000e+01 -3.436719894409179688e+01 -1.941575258970260620e-01 6.004620075225830078e+00 1.743138790130615234e+00 -2.464815974235534668e-01
2.766000000000000000e+03 3.466382980346679688e+01 4.321553707122802734e+00 8.408998847007751465e-01 4.317166328430175781e+00 1.547419786453247070e+00 -4.207979738712310791e-01
2.767000000000000000e+03 3.512169647216796875e+01 1.690846323966979980e+00 2.548887729644775391e-01 4.245368480682373047e+00 1.350077152252197266e+00 -4.456275999546051025e-01
2.768000000000000000e+03 1.456075096130371094e+01 2.584642791748046875e+01 2.855874001979827881e-01 6.383258104324340820e-02 1.048259958624839783e-01 -1.783350706100463867e-01
2.769000000000000000e+03 3.171253967285156250e+01 1.476807785034179688e+01 1.509238004684448242e+00 3.469410181045532227e+00 1.493594408035278320e+00 -8.514066338539123535e-01
2.770000000000000000e+03 3.207711029052734375e+01 2.039995384216308594e+01 8.970977067947387695e-01 3.697661399841308594e+00 1.378427743911743164e+00 -8.995912075042724609e-01
2.771000000000000000e+03 2.915061187744140625e+01 1.713418960571289062e+01 1.233727812767028809e+00 2.664584398269653320e+00 1.169493675231933594e+00 -8.023738265037536621e-01
2.772000000000000000e+03 3.081014442443847656e+01 2.436616706848144531e+01 3.795737922191619873e-01 3.274706363677978516e+00 1.096284031867980957e+00 -8.078985810279846191e-01
2.773000000000000000e+03 2.992267990112304688e+01 2.145391654968261719e+01 7.536504864692687988e-01 3.044044494628906250e+00 1.139308452606201172e+00 -8.436123132705688477e-01
2.774000000000000000e+03 1.131969642639160156e+01 2.090011787414550781e+01 3.735435009002685547e-01 -5.600929856300354004e-01 -5.596484616398811340e-02 1.043695956468582153e-01
2.775000000000000000e+03 6.801595687866210938e+00 -3.637358093261718750e+01 1.834926893934607506e-03 -2.416481263935565948e-03 -1.744663168210536242e-04 -7.965094409883022308e-03
2.776000000000000000e+03 6.787847900390625000e+01 -4.125629043579101562e+01 6.995177268981933594e-01 2.279323577880859375e+00 8.936524391174316406e-01 1.658840030431747437e-01
2.777000000000000000e+03 1.509722423553466797e+01 3.036708259582519531e+01 7.729750126600265503e-02 3.245258331298828125e-01 1.205469965934753418e-01 -2.335763573646545410e-01
2.778000000000000000e+03 4.665810394287109375e+01 -2.081897926330566406e+01 4.293024063110351562e+00 8.245753288269042969e+00 3.761633157730102539e+00 -1.052073359489440918e+00
2.779000000000000000e+03 4.707740402221679688e+01 -2.113134574890136719e+01 3.903135299682617188e+00 7.552248477935791016e+00 3.436615228652954102e+00 -1.457931399345397949e+00
2.780000000000000000e+03 4.697939300537109375e+01 -2.040901756286621094e+01 3.389006614685058594e+00 7.767763137817382812e+00 3.347030878067016602e+00 -6.732557415962219238e-01
2.781000000000000000e+03 4.686088562011718750e+01 -2.208108520507812500e+01 4.009665966033935547e+00 8.100154876708984375e+00 3.632946252822875977e+00 -2.467955350875854492e+00
2.782000000000000000e+03 4.660581970214843750e+01 -2.390825843811035156e+01 1.903736352920532227e+00 9.056655883789062500e+00 3.288117647171020508e+00 -2.644423723220825195e+00
2.783000000000000000e+03 4.669597625732421875e+01 -2.464427375793457031e+01 1.423561573028564453e+00 8.925659179687500000e+00 3.104766130447387695e+00 -2.260312318801879883e+00
2.784000000000000000e+03 4.440809249877929688e+01 -1.744129753112792969e+01 -1.219198822975158691e+00 9.891180038452148438e+00 2.601594209671020508e+00 -1.712132215499877930e+00
2.785000000000000000e+03 4.694947433471679688e+01 -2.362754249572753906e+01 2.300893783569335938e+00 8.608451843261718750e+00 3.272803544998168945e+00 -2.706936836242675781e+00
2.786000000000000000e+03 4.698275756835937500e+01 -1.746910476684570312e+01 -8.004333972930908203e-01 8.132922172546386719e+00 2.199746608734130859e+00 5.048120394349098206e-02
2.787000000000000000e+03 4.627054214477539062e+01 -1.855986213684082031e+01 4.711127877235412598e-01 9.248575210571289062e+00 2.915906429290771484e+00 -4.143258556723594666e-02
2.788000000000000000e+03 4.185392761230468750e+01 -1.708563995361328125e+01 -3.192223310470581055e-01 6.315106868743896484e+00 1.798765420913696289e+00 -3.329644918441772461e+00
2.789000000000000000e+03 4.429253768920898438e+01 -1.617240524291992188e+01 -1.838117718696594238e+00 8.619199752807617188e+00 2.034324645996093750e+00 -1.619676709175109863e+00
2.790000000000000000e+03 4.482455062866210938e+01 -1.672369003295898438e+01 -1.665578603744506836e+00 9.200927734375000000e+00 2.260604858398437500e+00 -1.253131747245788574e+00
2.791000000000000000e+03 4.280760574340820312e+01 -1.661830520629882812e+01 -1.142037987709045410e+00 7.786875724792480469e+00 1.993451237678527832e+00 -2.851588964462280273e+00
2.792000000000000000e+03 4.491876983642578125e+01 -1.732825469970703125e+01 -1.322050452232360840e+00 9.687039375305175781e+00 2.509496688842773438e+00 -1.202154040336608887e+00
2.793000000000000000e+03 4.242279052734375000e+01 -1.535338306427001953e+01 -1.504963397979736328e+00 6.841146469116210938e+00 1.600854873657226562e+00 -2.450010776519775391e+00
2.794000000000000000e+03 4.432716751098632812e+01 -1.680712890625000000e+01 -1.595273613929748535e+00 9.190247535705566406e+00 2.278492212295532227e+00 -1.752874374389648438e+00
2.795000000000000000e+03 4.338206481933593750e+01 -1.553671550750732422e+01 -1.805722236633300781e+00 7.707067489624023438e+00 1.770403623580932617e+00 -2.067093849182128906e+00
2.796000000000000000e+03 3.250020599365234375e+01 -7.320469856262207031e+00 -8.884121179580688477e-01 2.151324033737182617e+00 3.788735866546630859e-01 -4.905197396874427795e-02
2.797000000000000000e+03 4.293391036987304688e+01 -1.550613403320312500e+01 -1.635104775428771973e+00 7.338384151458740234e+00 1.710983753204345703e+00 -2.332159519195556641e+00
2.798000000000000000e+03 4.785552215576171875e+01 -2.748201751708984375e+01 1.295525789260864258e+00 6.929876327514648438e+00 2.467620611190795898e+00 -1.401162743568420410e+00
2.799000000000000000e+03 4.881945419311523438e+01 -2.577242469787597656e+01 1.808063149452209473e+00 6.547841072082519531e+00 2.506771326065063477e+00 -1.929642438888549805e+00
2.800000000000000000e+03 4.901779937744140625e+01 -1.968557357788085938e+01 1.337744832038879395e+00 5.476500511169433594e+00 2.044273614883422852e+00 -6.943224668502807617e-01
2.801000000000000000e+03 2.965196037292480469e+01 -5.710584163665771484e+00 -9.433678388595581055e-01 1.390887260437011719e+00 1.342558413743972778e-01 3.220981955528259277e-01
2.802000000000000000e+03 3.100412178039550781e+01 -7.955342292785644531e+00 -9.710243940353393555e-01 1.471806526184082031e+00 1.502346247434616089e-01 2.703430056571960449e-01
2.803000000000000000e+03 4.130670928955078125e+01 -1.365048408508300781e+01 -1.508375048637390137e+00 5.537551403045654297e+00 1.208752989768981934e+00 -2.070203542709350586e+00
2.804000000000000000e+03 2.074628067016601562e+01 4.338162422180175781e+00 1.879642456769943237e-01 -4.946577250957489014e-01 -9.200804680585861206e-02 4.309689402580261230e-01
2.805000000000000000e+03 2.372640037536621094e+01 1.882492303848266602e+00 -1.100691184401512146e-01 5.808199942111968994e-02 -1.559613458812236786e-02 3.398405313491821289e-01
2.806000000000000000e+03 2.296519660949707031e+01 2.528872728347778320e+00 -2.713573537766933441e-02 -1.183823719620704651e-01 -4.365543276071548462e-02 3.515595197677612305e-01
2.807000000000000000e+03 4.682004165649414062e+01 -1.514746570587158203e+01 -2.286131858825683594e+00 7.432604789733886719e+00 1.543941855430603027e+00 -7.150033861398696899e-02
2.808000000000000000e+03 4.663139724731445312e+01 -1.462526607513427734e+01 -2.340060949325561523e+00 7.328860759735107422e+00 1.496639847755432129e+00 -1.444695740938186646e-01
2.809000000000000000e+03 2.945353126525878906e+01 -3.055642843246459961e+00 -6.841325759887695312e-01 1.619542837142944336e+00 2.806230783462524414e-01 1.954766660928726196e-01
2.810000000000000000e+03 2.781417465209960938e+01 -2.962784528732299805e+00 -7.467164993286132812e-01 1.063990831375122070e+00 9.518231451511383057e-02 3.343263864517211914e-01
2.811000000000000000e+03 5.104204940795898438e+01 -2.178435897827148438e+01 2.020379066467285156e+00 3.661984682083129883e+00 1.704709053039550781e+00 -1.318564772605895996e+00
2.812000000000000000e+03 3.848867416381835938e+01 -4.807320117950439453e+00 -7.901751399040222168e-01 4.650489807128906250e+00 1.158094406127929688e+00 -9.213531017303466797e-01
2.813000000000000000e+03 3.715978622436523438e+01 -7.705937862396240234e+00 -9.844118952751159668e-01 3.789566755294799805e+00 8.415464758872985840e-01 -8.559126853942871094e-01
2.814000000000000000e+03 4.867092132568359375e+01 -1.926867866516113281e+01 1.059801340103149414e+00 5.903181552886962891e+00 2.088894844055175781e+00 -3.797181546688079834e-01
2.815000000000000000e+03 4.514847564697265625e+01 -1.330904102325439453e+01 -2.311993122100830078e+00 7.074612617492675781e+00 1.428785920143127441e+00 -7.388141155242919922e-01
2.816000000000000000e+03 3.139182853698730469e+01 -7.584863185882568359e+00 -9.480515122413635254e-01 1.709043264389038086e+00 2.282975167036056519e-01 1.721101254224777222e-01
2.817000000000000000e+03 3.096127700805664062e+01 -6.071493148803710938e+00 -9.002935886383056641e-01 1.778257012367248535e+00 2.633890211582183838e-01 1.670563668012619019e-01
2.818000000000000000e+03 4.782484436035156250e+01 -2.545082092285156250e+01 1.636676669120788574e+00 7.476738452911376953e+00 2.734024524688720703e+00 -2.003051280975341797e+00
2.819000000000000000e+03 4.347470092773437500e+01 -1.225714492797851562e+01 -2.009543418884277344e+00 6.413855552673339844e+00 1.321293592453002930e+00 -1.275207757949829102e+00
2.820000000000000000e+03 1.984447479248046875e+01 6.261115550994873047e+00 4.468335807323455811e-01 -4.958702027797698975e-01 -1.471098326146602631e-02 3.925984799861907959e-01
2.821000000000000000e+03 1.910708427429199219e+01 6.787994384765625000e+00 4.787533879280090332e-01 -5.703575611114501953e-01 -2.748124673962593079e-02 4.297215640544891357e-01
2.822000000000000000e+03 2.221822547912597656e+01 3.150426387786865234e+00 5.150716751813888550e-02 -2.559069395065307617e-01 -6.131993234157562256e-02 3.758330345153808594e-01
2.823000000000000000e+03 2.148062324523925781e+01 3.751069307327270508e+00 1.194862872362136841e-01 -3.873566687107086182e-01 -8.036111295223236084e-02 4.006005823612213135e-01
2.824000000000000000e+03 4.968307876586914062e+01 -2.448380279541015625e+01 2.266183853149414062e+00 5.546314239501953125e+00 2.343749523162841797e+00 -2.083070278167724609e+00
2.825000000000000000e+03 3.025115585327148438e+01 -5.257923126220703125e+00 -8.718110918998718262e-01 1.662079095840454102e+00 2.370804101228713989e-01 2.189614027738571167e-01
2.826000000000000000e+03 2.998742294311523438e+01 -4.802770614624023438e+00 -8.568949699401855469e-01 1.626228094100952148e+00 2.307999283075332642e-01 2.236733138561248779e-01
2.827000000000000000e+03 2.932830238342285156e+01 -2.397900104522705078e+00 -5.785381197929382324e-01 1.635912418365478516e+00 3.172122836112976074e-01 1.628814935684204102e-01
2.828000000000000000e+03 1.965642547607421875e+01 7.655435085296630859e+00 6.211678981781005859e-01 -4.001658558845520020e-01 6.630060821771621704e-02 3.278087079524993896e-01
2.829000000000000000e+03 4.723954772949218750e+01 -2.397635459899902344e+01 2.102547407150268555e+00 8.217458724975585938e+00 3.096001863479614258e+00 -2.654546022415161133e+00
2.830000000000000000e+03 4.697905731201171875e+01 -1.577034854888916016e+01 -2.040630817413330078e+00 7.551451683044433594e+00 1.653246283531188965e+00 -2.238350547850131989e-02
2.831000000000000000e+03 4.561723709106445312e+01 -1.771954536437988281e+01 -7.720888853073120117e-01 9.644981384277343750e+00 2.661867856979370117e+00 -5.244990587234497070e-01
2.832000000000000000e+03 3.310439682006835938e+01 -1.041541862487792969e+01 -8.622629642486572266e-01 1.675697922706604004e+00 2.440304905176162720e-01 -7.549609243869781494e-02
2.833000000000000000e+03 3.334974288940429688e+01 -9.477304458618164062e+00 -8.844892978668212891e-01 1.985569000244140625e+00 3.303239047527313232e-01 -1.661802530288696289e-01
2.834000000000000000e+03 3.550929260253906250e+01 -1.040398216247558594e+01 -8.881379961967468262e-01 2.575099468231201172e+00 5.060884952545166016e-01 -6.712055802345275879e-01
2.835000000000000000e+03 3.466493606567382812e+01 -1.042941856384277344e+01 -8.527015447616577148e-01 2.246274709701538086e+00 4.180719852447509766e-01 -4.625829756259918213e-01
2.836000000000000000e+03 2.584685134887695312e+01 1.420507550239562988e+00 -7.585541158914566040e-02 7.037864327430725098e-01 1.883793026208877563e-01 2.017360329627990723e-01
2.837000000000000000e+03 4.740822982788085938e+01 -1.817568778991699219e+01 -8.258604258298873901e-02 7.641253471374511719e+00 2.267600059509277344e+00 5.536521784961223602e-03
2.838000000000000000e+03 4.650431442260742188e+01 -1.893110656738281250e+01 1.102064371109008789e+00 8.887069702148437500e+00 2.996740102767944336e+00 5.070068687200546265e-02
2.839000000000000000e+03 2.651357078552246094e+01 8.176692724227905273e-01 -1.562862098217010498e-01 8.811836838722229004e-01 2.174692451953887939e-01 1.948853433132171631e-01
2.840000000000000000e+03 2.691382217407226562e+01 -3.731001913547515869e-01 -3.688678145408630371e-01 9.371536374092102051e-01 1.704857498407363892e-01 2.238846719264984131e-01
2.841000000000000000e+03 5.073064422607421875e+01 -2.097621726989746094e+01 1.597331881523132324e+00 3.783190965652465820e+00 1.614156842231750488e+00 -1.147309541702270508e+00
2.842000000000000000e+03 4.789298629760742188e+01 -2.186793708801269531e+01 3.299978971481323242e+00 6.729743480682373047e+00 3.008916854858398438e+00 -1.953878283500671387e+00
2.843000000000000000e+03 4.883110046386718750e+01 -3.020786285400390625e+01 1.227264523506164551e+00 6.150027275085449219e+00 2.213187456130981445e+00 -1.005066156387329102e+00
2.844000000000000000e+03 3.718331909179687500e+01 -4.430421352386474609e+00 -7.243053913116455078e-01 4.278817653656005859e+00 1.066353678703308105e+00 -7.468913793563842773e-01
2.845000000000000000e+03 3.765539169311523438e+01 -5.192262649536132812e+00 -8.091690540313720703e-01 4.331719398498535156e+00 1.056765079498291016e+00 -8.232058882713317871e-01
2.846000000000000000e+03 3.800102233886718750e+01 -3.952746391296386719e+00 -6.702839136123657227e-01 4.606630802154541016e+00 1.180904150009155273e+00 -8.488249778747558594e-01
2.847000000000000000e+03 3.105739974975585938e+01 -7.156688690185546875e+00 -9.451764225959777832e-01 1.652810931205749512e+00 2.122903466224670410e-01 2.076983749866485596e-01
2.848000000000000000e+03 1.429049491882324219e+01 9.632437705993652344e+00 4.875513017177581787e-01 -8.324605822563171387e-01 -1.034727841615676880e-01 6.246943473815917969e-01
2.849000000000000000e+03 1.644055366516113281e+01 7.635766506195068359e+00 4.301432073116302490e-01 -8.241203427314758301e-01 -1.181931421160697937e-01 5.993900895118713379e-01
2.850000000000000000e+03 3.676010131835937500e+01 -6.685643672943115234e+00 -9.043010473251342773e-01 3.770973205566406250e+00 8.600016832351684570e-01 -7.449876070022583008e-01
2.851000000000000000e+03 1.331457328796386719e+01 7.622693061828613281e+00 2.401763647794723511e-01 -9.688500165939331055e-01 -2.186021059751510620e-01 8.004336357116699219e-01
2.852000000000000000e+03 1.344060420989990234e+01 1.002418422698974609e+01 4.594458043575286865e-01 -8.383997678756713867e-01 -1.136861741542816162e-01 6.426294445991516113e-01
2.853000000000000000e+03 4.057201766967773438e+01 -1.273983192443847656e+01 -1.403274059295654297e+00 4.965071201324462891e+00 1.068539261817932129e+00 -1.860970973968505859e+00
2.854000000000000000e+03 4.085460662841796875e+01 -9.684857368469238281e+00 -1.376496672630310059e+00 5.062417030334472656e+00 1.105776190757751465e+00 -1.332149386405944824e+00
2.855000000000000000e+03 3.679643249511718750e+01 -8.395582437515258789e-01 -2.228171825408935547e-01 4.624478816986083984e+00 1.320498466491699219e+00 -6.656337976455688477e-01
2.856000000000000000e+03 1.521293067932128906e+01 7.453301906585693359e+00 3.321547508239746094e-01 -9.189054369926452637e-01 -1.760251969099044800e-01 7.012052536010742188e-01
2.857000000000000000e+03 1.053652477264404297e+01 8.955192565917968750e+00 2.061482518911361694e-01 -9.097667932510375977e-01 -2.110855579376220703e-01 8.016420602798461914e-01
2.858000000000000000e+03 3.805091476440429688e+01 -1.155307388305664062e+01 -1.033844828605651855e+00 3.535741090774536133e+00 7.505688667297363281e-01 -1.344350814819335938e+00
2.859000000000000000e+03 1.178715324401855469e+01 1.719292449951171875e+01 4.697641432285308838e-01 -6.419101953506469727e-01 -5.164382606744766235e-02 2.769547104835510254e-01
2.860000000000000000e+03 3.913805007934570312e+01 -1.079105091094970703e+01 -1.209038257598876953e+00 4.237987518310546875e+00 9.086847305297851562e-01 -1.412736892700195312e+00
2.861000000000000000e+03 3.894555664062500000e+01 -1.166612529754638672e+01 -1.144823789596557617e+00 4.017640113830566406e+00 8.618448376655578613e-01 -1.503800749778747559e+00
2.862000000000000000e+03 4.182241058349609375e+01 -1.037697410583496094e+01 -1.561285734176635742e+00 5.470059871673583984e+00 1.172632336616516113e+00 -1.358192801475524902e+00
2.863000000000000000e+03 3.957986450195312500e+01 -9.007373809814453125e+00 -1.208861231803894043e+00 4.601405620574951172e+00 1.017763257026672363e+00 -1.236597895622253418e+00
2.864000000000000000e+03 3.746749877929687500e+01 -9.648968696594238281e+00 -1.017599582672119141e+00 3.599243640899658203e+00 7.744932174682617188e-01 -1.025096178054809570e+00
2.865000000000000000e+03 1.284286594390869141e+01 2.035433769226074219e+01 4.476994574069976807e-01 -3.976001441478729248e-01 1.502979639917612076e-02 7.086280733346939087e-02
2.866000000000000000e+03 3.852120590209960938e+01 -7.524882316589355469e+00 -1.048096418380737305e+00 4.323809146881103516e+00 9.827138781547546387e-01 -1.010596752166748047e+00
2.867000000000000000e+03 3.521999359130859375e+01 7.769473791122436523e-01 7.292168587446212769e-02 4.190468311309814453e+00 1.279016971588134766e+00 -4.651803970336914062e-01
2.868000000000000000e+03 3.230008316040039062e+01 6.388764858245849609e+00 1.159587025642395020e+00 3.407671451568603516e+00 1.370177507400512695e+00 -3.687973022460937500e-01
2.869000000000000000e+03 3.092982292175292969e+01 5.707410335540771484e+00 9.552929401397705078e-01 2.762874841690063477e+00 1.115450382232666016e+00 -2.645900249481201172e-01
2.870000000000000000e+03 3.589728164672851562e+01 -5.600600317120552063e-02 -7.563962042331695557e-02 4.379611492156982422e+00 1.291191458702087402e+00 -5.387954711914062500e-01
2.871000000000000000e+03 3.290519714355468750e+01 7.347364902496337891e+00 1.314516544342041016e+00 3.683197259902954102e+00 1.499314188957214355e+00 -4.367737472057342529e-01
2.872000000000000000e+03 3.043688011169433594e+01 8.479143142700195312e+00 1.320544481277465820e+00 2.704718589782714844e+00 1.207578897476196289e+00 -4.047262370586395264e-01
2.873000000000000000e+03 9.785054206848144531e+00 1.366278553009033203e+01 3.561365008354187012e-01 -8.656266927719116211e-01 -1.528470516204833984e-01 5.377360582351684570e-01
2.874000000000000000e+03 1.138097476959228516e+01 1.440627384185791016e+01 4.653035998344421387e-01 -7.674958109855651855e-01 -9.065765887498855591e-02 4.565801918506622314e-01
2.875000000000000000e+03 5.519761276245117188e+01 -3.519304656982421875e+01 -9.326355531811714172e-03 4.909955978393554688e+00 1.470188856124877930e+00 -1.083479881286621094e+00
2.876000000000000000e+03 3.257789230346679688e+01 1.592360687255859375e+01 1.409015178680419922e+00 3.860230445861816406e+00 1.580773711204528809e+00 -8.744099736213684082e-01
2.877000000000000000e+03 3.146044158935546875e+01 1.123438549041748047e+01 1.590631365776062012e+00 3.255188226699829102e+00 1.453745841979980469e+00 -6.448596715927124023e-01
2.878000000000000000e+03 3.430355453491210938e+01 2.989142656326293945e+00 5.048699378967285156e-01 4.040443420410156250e+00 1.363593935966491699e+00 -3.772851228713989258e-01
2.879000000000000000e+03 8.524739265441894531e+00 -3.881280517578125000e+01 6.077062338590621948e-03 -9.338778443634510040e-03 -9.785147849470376968e-04 -8.959718979895114899e-03
2.880000000000000000e+03 3.139371490478515625e+01 1.687075805664062500e+01 1.313818216323852539e+00 3.380975246429443359e+00 1.408438086509704590e+00 -8.870039582252502441e-01
2.881000000000000000e+03 3.081089591979980469e+01 1.346931266784667969e+01 1.520843505859375000e+00 3.109503269195556641e+00 1.389104008674621582e+00 -7.522898912429809570e-01
2.882000000000000000e+03 2.874453544616699219e+01 2.018758964538574219e+01 9.360263347625732422e-01 2.643134593963623047e+00 1.073748230934143066e+00 -8.353622555732727051e-01
2.883000000000000000e+03 3.040700912475585938e+01 1.582988357543945312e+01 1.377752542495727539e+00 3.084249973297119141e+00 1.338600754737854004e+00 -8.365945816040039062e-01
2.884000000000000000e+03 1.350263595581054688e+01 2.202303504943847656e+01 4.237799048423767090e-01 -2.478399425745010376e-01 5.278198793530464172e-02 -2.345309965312480927e-02
2.885000000000000000e+03 1.186926460266113281e+01 2.250033569335937500e+01 3.353486359119415283e-01 -4.367290735244750977e-01 -3.041413053870201111e-02 1.701415516436100006e-02
2.886000000000000000e+03 1.271276187896728516e+01 1.288768577575683594e+01 5.232922434806823730e-01 -7.475349307060241699e-01 -6.727280467748641968e-02 4.988457858562469482e-01
2.887000000000000000e+03 1.176279067993164062e+01 1.246674060821533203e+01 4.547591805458068848e-01 -8.085829615592956543e-01 -1.061471402645111084e-01 5.622133016586303711e-01
2.888000000000000000e+03 5.105191802978515625e+01 -3.611488342285156250e+01 -2.692939341068267822e-01 5.521669387817382812e+00 1.575712561607360840e+00 -3.202030658721923828e-01
2.889000000000000000e+03 3.354127502441406250e+01 2.723897171020507812e+01 -5.192803218960762024e-02 3.811137676239013672e+00 1.127762913703918457e+00 -6.540706753730773926e-01
2.890000000000000000e+03 1.262364768981933594e+01 3.291075897216796875e+01 -1.144378352910280228e-02 -4.106672480702400208e-02 -1.575315184891223907e-02 -1.500449776649475098e-01
2.891000000000000000e+03 1.066280174255371094e+01 3.764818954467773438e+01 -7.583083957433700562e-02 -3.401680588722229004e-01 -1.247996687889099121e-01 -7.992155104875564575e-02
2.892000000000000000e+03 2.390334320068359375e+01 -3.499511337280273438e+01 -4.412739351391792297e-02 -1.734457723796367645e-02 -1.844159141182899475e-02 -8.312398940324783325e-02
2.893000000000000000e+03 3.409170150756835938e+01 -3.753636932373046875e+01 2.335404008626937866e-01 4.861368834972381592e-01 2.159031778573989868e-01 1.373744308948516846e-01
2.894000000000000000e+03 1.129556465148925781e+01 -3.862929916381835938e+01 -2.848355798050761223e-03 -1.280048489570617676e-02 -4.694652277976274490e-03 -6.527752149850130081e-03
2.895000000000000000e+03 1.073416423797607422e+01 -3.637955474853515625e+01 5.382225848734378815e-03 -8.974811993539333344e-03 -1.077775843441486359e-03 -1.188678108155727386e-02
2.896000000000000000e+03 4.205379867553710938e+01 -4.092645645141601562e+01 -6.743375658988952637e-01 4.031991958618164062e+00 1.007296323776245117e+00 2.028665244579315186e-01
2.897000000000000000e+03 7.195447540283203125e+01 -4.124721145629882812e+01 1.119793951511383057e-01 4.628928661346435547e+00 1.422272443771362305e+00 1.002660915255546570e-01
2.898000000000000000e+03 1.833979797363281250e+01 -4.119023513793945312e+01 5.474494770169258118e-02 -5.285645648837089539e-02 5.665476201102137566e-04 -1.410644967108964920e-03
2.899000000000000000e+03 8.681050300598144531e+00 3.616755676269531250e+01 -3.431973233819007874e-02 -6.766674518585205078e-01 -2.132961452007293701e-01 -7.312228530645370483e-02
2.900000000000000000e+03 1.408912944793701172e+01 2.384651565551757812e+01 3.598093092441558838e-01 -8.497007191181182861e-02 8.245176821947097778e-02 -1.151754036545753479e-01
2.901000000000000000e+03 4.847963333129882812e+01 -4.108540725708007812e+01 -1.032259941101074219e+00 5.429288864135742188e+00 1.319108724594116211e+00 -5.087235569953918457e-02
2.902000000000000000e+03 4.164537811279296875e+01 3.478887176513671875e+01 -9.450902938842773438e-01 3.670665264129638672e+00 8.176724314689636230e-01 8.927500247955322266e-02
2.903000000000000000e+03 4.756583023071289062e+01 3.874491119384765625e+01 -9.577186107635498047e-01 2.308765172958374023e+00 4.053139686584472656e-01 2.201382517814636230e-01
2.904000000000000000e+03 3.807127380371093750e+01 2.989608383178710938e+01 -5.038690567016601562e-01 4.214438438415527344e+00 1.113170862197875977e+00 -2.322417199611663818e-01
2.905000000000000000e+03 4.668949890136718750e+01 -2.177057647705078125e+01 4.414474964141845703e+00 8.273975372314453125e+00 3.806535243988037109e+00 -2.217827796936035156e+00
2.906000000000000000e+03 4.783907318115234375e+01 -2.013923072814941406e+01 2.454711437225341797e+00 6.752300262451171875e+00 2.762103557586669922e+00 -6.556545495986938477e-01
2.907000000000000000e+03 4.974448013305664062e+01 -2.067852592468261719e+01 1.784296751022338867e+00 4.696390151977539062e+00 1.944206118583679199e+00 -1.131520032882690430e+00
2.908000000000000000e+03 4.777579498291015625e+01 -2.231921577453613281e+01 3.269732952117919922e+00 7.032355785369873047e+00 3.090626716613769531e+00 -2.283592700958251953e+00
2.909000000000000000e+03 4.815222930908203125e+01 -1.765189743041992188e+01 -7.665029764175415039e-01 6.750501632690429688e+00 1.795199632644653320e+00 6.046823039650917053e-02
2.910000000000000000e+03 4.734432983398437500e+01 -2.336247444152832031e+01 2.636472940444946289e+00 7.946765422821044922e+00 3.174971580505371094e+00 -2.759139299392700195e+00
2.911000000000000000e+03 4.831140899658203125e+01 -2.243696022033691406e+01 2.998865604400634766e+00 6.418661594390869141e+00 2.825258255004882812e+00 -2.168462038040161133e+00
2.912000000000000000e+03 4.777512741088867188e+01 -2.308159446716308594e+01 2.886316776275634766e+00 7.340184211730957031e+00 3.067950248718261719e+00 -2.531357049942016602e+00
2.913000000000000000e+03 4.704666137695312500e+01 -1.918588447570800781e+01 1.545186519622802734e+00 8.018018722534179688e+00 2.868961572647094727e+00 -1.203288510441780090e-02
2.914000000000000000e+03 4.801587295532226562e+01 -1.824979591369628906e+01 7.763461768627166748e-02 6.817884922027587891e+00 2.068655967712402344e+00 1.599755510687828064e-02
2.915000000000000000e+03 4.229750442504882812e+01 -1.652189445495605469e+01 -9.164420366287231445e-01 6.956726074218750000e+00 1.812085151672363281e+00 -3.029118061065673828e+00
2.916000000000000000e+03 4.331352996826171875e+01 -1.670844078063964844e+01 -1.333706140518188477e+00 8.394145965576171875e+00 2.118131875991821289e+00 -2.571841716766357422e+00
2.917000000000000000e+03 4.476113891601562500e+01 -1.610950851440429688e+01 -1.936432600021362305e+00 8.705554962158203125e+00 2.030736684799194336e+00 -1.314029812812805176e+00
2.918000000000000000e+03 4.286304855346679688e+01 -1.605701065063476562e+01 -1.434580326080322266e+00 7.525284767150878906e+00 1.827211260795593262e+00 -2.558992385864257812e+00
2.919000000000000000e+03 4.382403945922851562e+01 -1.678336143493652344e+01 -1.467740654945373535e+00 8.936985969543457031e+00 2.240773677825927734e+00 -2.161643028259277344e+00
2.920000000000000000e+03 4.756053924560546875e+01 -2.486368370056152344e+01 1.670957446098327637e+00 7.740962028503417969e+00 2.823575973510742188e+00 -2.254734754562377930e+00
2.921000000000000000e+03 4.686621475219726562e+01 -1.701035118103027344e+01 -1.345437049865722656e+00 8.115062713623046875e+00 2.030887603759765625e+00 -6.882771849632263184e-02
2.922000000000000000e+03 4.430602645874023438e+01 -1.413481616973876953e+01 -2.228218317031860352e+00 7.364198207855224609e+00 1.540793895721435547e+00 -1.258714556694030762e+00
2.923000000000000000e+03 4.180137634277343750e+01 -1.523716259002685547e+01 -1.296704649925231934e+00 6.157180309295654297e+00 1.458142638206481934e+00 -2.531134366989135742e+00
2.924000000000000000e+03 4.453358078002929688e+01 -1.485222625732421875e+01 -2.197933912277221680e+00 7.822683811187744141e+00 1.687424898147583008e+00 -1.303110241889953613e+00
2.925000000000000000e+03 4.254004287719726562e+01 -1.213500118255615234e+01 -1.836201786994934082e+00 6.053374290466308594e+00 1.265151619911193848e+00 -1.505831360816955566e+00
2.926000000000000000e+03 3.237382507324218750e+01 -8.443914413452148438e+00 -9.174661636352539062e-01 1.876125454902648926e+00 2.875978052616119385e-01 2.728747017681598663e-02
2.927000000000000000e+03 4.733812713623046875e+01 -1.715771865844726562e+01 -1.152873635292053223e+00 7.518476486206054688e+00 1.909680724143981934e+00 2.700104191899299622e-02
2.928000000000000000e+03 4.939484786987304688e+01 -2.013683128356933594e+01 1.626457571983337402e+00 5.012405395507812500e+00 1.991658926010131836e+00 -8.312598466873168945e-01
2.929000000000000000e+03 3.191478729248046875e+01 -7.495399475097656250e+00 -9.129656553268432617e-01 1.890397429466247559e+00 2.932295203208923340e-01 7.639382779598236084e-02
2.930000000000000000e+03 4.573755264282226562e+01 -1.412103843688964844e+01 -2.365714073181152344e+00 7.380943298339843750e+00 1.504568815231323242e+00 -5.281014442443847656e-01
2.931000000000000000e+03 4.613223266601562500e+01 -1.740672111511230469e+01 -1.037561416625976562e+00 8.927700996398925781e+00 2.367041826248168945e+00 -2.622208893299102783e-01
2.932000000000000000e+03 4.699341583251953125e+01 -1.642465019226074219e+01 -1.740288496017456055e+00 7.767601013183593750e+00 1.808193802833557129e+00 2.830587513744831085e-02
2.933000000000000000e+03 3.359733963012695312e+01 -8.530871391296386719e+00 -8.810530304908752441e-01 2.302903175354003906e+00 4.265550374984741211e-01 -2.179016321897506714e-01
2.934000000000000000e+03 4.941963577270507812e+01 -2.159761428833007812e+01 2.396692991256713867e+00 5.072515010833740234e+00 2.240762472152709961e+00 -1.544248938560485840e+00
2.935000000000000000e+03 4.506771087646484375e+01 -1.405853939056396484e+01 -2.348688125610351562e+00 7.407536983489990234e+00 1.517654776573181152e+00 -8.815703392028808594e-01
2.936000000000000000e+03 4.424650573730468750e+01 -1.327874755859375000e+01 -2.213745594024658203e+00 6.985815525054931641e+00 1.431620955467224121e+00 -1.176544427871704102e+00
2.937000000000000000e+03 2.127994728088378906e+01 5.096381187438964844e+00 3.575572371482849121e-01 -3.173179626464843750e-01 1.207177527248859406e-02 3.398400843143463135e-01
2.938000000000000000e+03 3.436772537231445312e+01 -8.734004974365234375e+00 -8.910627961158752441e-01 2.521188259124755859e+00 4.890376627445220947e-01 -3.783203065395355225e-01
2.939000000000000000e+03 2.713281250000000000e+01 4.361376762390136719e-01 -2.213596254587173462e-01 1.040988445281982422e+00 2.458886653184890747e-01 1.619904935359954834e-01
2.940000000000000000e+03 2.716541671752929688e+01 1.188420176506042480e+00 -6.589114665985107422e-02 1.121819257736206055e+00 3.167784214019775391e-01 1.226387768983840942e-01
2.941000000000000000e+03 2.975656890869140625e+01 -4.334173679351806641e+00 -8.249627351760864258e-01 1.594909667968750000e+00 2.309840619564056396e-01 2.295370250940322876e-01
2.942000000000000000e+03 2.965838241577148438e+01 -3.692359447479248047e+00 -7.522462606430053711e-01 1.614174127578735352e+00 2.585783600807189941e-01 1.989955902099609375e-01
2.943000000000000000e+03 4.584317779541015625e+01 -1.649736404418945312e+01 -1.746176958084106445e+00 8.748740196228027344e+00 2.100769042968750000e+00 -5.329054594039916992e-01
2.944000000000000000e+03 3.101391029357910156e+01 -4.351448535919189453e+00 -7.586982846260070801e-01 2.036174297332763672e+00 3.832427859306335449e-01 8.580065518617630005e-02
2.945000000000000000e+03 3.955462646484375000e+01 -8.146965026855468750e+00 -1.153387188911437988e+00 4.643805503845214844e+00 1.047125458717346191e+00 -1.140655875205993652e+00
2.946000000000000000e+03 3.826322174072265625e+01 -6.784739971160888672e+00 -9.732158780097961426e-01 4.313870906829833984e+00 1.002196431159973145e+00 -9.556802511215209961e-01
2.947000000000000000e+03 4.840102386474609375e+01 -2.518429756164550781e+01 1.852863311767578125e+00 6.827230453491210938e+00 2.604028224945068359e+00 -2.163486480712890625e+00
2.948000000000000000e+03 4.903787612915039062e+01 -2.371777725219726562e+01 2.443064451217651367e+00 5.964367866516113281e+00 2.522229671478271484e+00 -2.238011121749877930e+00
2.949000000000000000e+03 3.086225891113281250e+01 -5.091546535491943359e+00 -8.350390195846557617e-01 1.897576689720153809e+00 3.187613189220428467e-01 1.348267197608947754e-01
2.950000000000000000e+03 2.894190025329589844e+01 -4.029408454895019531e+00 -8.448485136032104492e-01 1.334756255149841309e+00 1.469723284244537354e-01 2.945840954780578613e-01
2.951000000000000000e+03 2.504208374023437500e+01 2.018142223358154297e+00 1.010118285194039345e-03 4.734911918640136719e-01 1.423503905534744263e-01 2.243054211139678955e-01
2.952000000000000000e+03 2.424629402160644531e+01 2.631694555282592773e+00 7.115482538938522339e-02 2.706391513347625732e-01 1.025381982326507568e-01 2.465998977422714233e-01
2.953000000000000000e+03 4.937096023559570312e+01 -2.518130493164062500e+01 2.082733392715454102e+00 5.944819450378417969e+00 2.408265829086303711e+00 -2.012603759765625000e+00
2.954000000000000000e+03 4.236814498901367188e+01 -1.298094081878662109e+01 -1.825311779975891113e+00 6.133800983428955078e+00 1.292546749114990234e+00 -1.735804319381713867e+00
2.955000000000000000e+03 2.057236289978027344e+01 5.701534748077392578e+00 4.037263691425323486e-01 -4.159668982028961182e-01 -3.672155085951089859e-03 3.593330383300781250e-01
2.956000000000000000e+03 2.188857460021972656e+01 5.851011276245117188e+00 5.110976099967956543e-01 -1.025872752070426941e-01 1.225531101226806641e-01 2.456163316965103149e-01
2.957000000000000000e+03 2.947901725769042969e+01 -1.542992591857910156e+00 -4.450159966945648193e-01 1.776926875114440918e+00 3.995732665061950684e-01 1.011205241084098816e-01
2.958000000000000000e+03 2.854859161376953125e+01 -1.575484871864318848e+00 -4.936802983283996582e-01 1.426543593406677246e+00 2.798589766025543213e-01 1.929597109556198120e-01
2.959000000000000000e+03 2.273131752014160156e+01 3.894501686096191406e+00 2.256856411695480347e-01 -7.984885573387145996e-02 4.375103488564491272e-02 2.786611616611480713e-01
2.960000000000000000e+03 3.802949523925781250e+01 -5.970070362091064453e+00 -9.030913710594177246e-01 4.350002765655517578e+00 1.034073352813720703e+00 -8.806112408638000488e-01
2.961000000000000000e+03 3.729637908935546875e+01 -1.054193115234375000e+01 -9.954885840415954590e-01 3.357856750488281250e+00 7.087104320526123047e-01 -1.076659321784973145e+00
2.962000000000000000e+03 3.401131439208984375e+01 -9.568413734436035156e+00 -8.743739724159240723e-01 2.135166645050048828e+00 3.782378435134887695e-01 -2.857153117656707764e-01
2.963000000000000000e+03 4.853222656250000000e+01 -2.013081741333007812e+01 2.035745382308959961e+00 5.931181430816650391e+00 2.390078067779541016e+00 -7.512489557266235352e-01
2.964000000000000000e+03 4.783084869384765625e+01 -2.113840293884277344e+01 3.197911500930786133e+00 6.688060283660888672e+00 2.965791702270507812e+00 -1.444920063018798828e+00
2.965000000000000000e+03 1.254341983795166016e+01 1.182008361816406250e+01 5.002401471138000488e-01 -8.003305196762084961e-01 -9.002710133790969849e-02 5.727585554122924805e-01
2.966000000000000000e+03 1.377186203002929688e+01 8.552651405334472656e+00 3.569678664207458496e-01 -9.141468405723571777e-01 -1.671537011861801147e-01 7.246206998825073242e-01
2.967000000000000000e+03 3.208136749267578125e+01 -6.838836669921875000e+00 -8.884764909744262695e-01 2.082741737365722656e+00 3.582796156406402588e-01 2.114191465079784393e-02
2.968000000000000000e+03 3.149634933471679688e+01 -6.482605457305908203e+00 -8.923895359039306641e-01 1.913342237472534180e+00 3.062857985496520996e-01 1.082877814769744873e-01
2.969000000000000000e+03 1.765971946716308594e+01 7.817996978759765625e+00 5.239359736442565918e-01 -6.885930895805358887e-01 -4.939713329076766968e-02 4.892871081829071045e-01
2.970000000000000000e+03 1.505597400665283203e+01 8.935893058776855469e+00 4.783534109592437744e-01 -8.264999985694885254e-01 -1.044439822435379028e-01 6.200690269470214844e-01
2.971000000000000000e+03 1.888204002380371094e+01 8.135698318481445312e+00 6.239801049232482910e-01 -4.841837286949157715e-01 4.193891212344169617e-02 3.722798526287078857e-01
2.972000000000000000e+03 4.085305786132812500e+01 -1.111920547485351562e+01 -1.480101704597473145e+00 5.123749256134033203e+00 1.093094229698181152e+00 -1.529702544212341309e+00
2.973000000000000000e+03 1.043633365631103516e+01 1.053600120544433594e+01 2.917299866676330566e-01 -8.905615210533142090e-01 -1.796494573354721069e-01 7.159103155136108398e-01
2.974000000000000000e+03 1.182509326934814453e+01 8.372156143188476562e+00 2.262823134660720825e-01 -9.345344305038452148e-01 -2.124756276607513428e-01 8.128884434700012207e-01
2.975000000000000000e+03 3.599238967895507812e+01 -2.956626415252685547e+00 -5.409242510795593262e-01 4.046912670135498047e+00 1.051796555519104004e+00 -5.716431736946105957e-01
2.976000000000000000e+03 3.640673065185546875e+01 -4.959025382995605469e+00 -7.576020956039428711e-01 3.920150756835937500e+00 9.487646222114562988e-01 -6.523670554161071777e-01
2.977000000000000000e+03 2.871622657775878906e+01 -5.488032102584838867e-01 -3.006885051727294922e-01 1.570719480514526367e+00 3.810092806816101074e-01 1.280091255903244019e-01
2.978000000000000000e+03 2.778135681152343750e+01 -5.345519185066223145e-01 -3.377060592174530029e-01 1.211450695991516113e+00 2.621234059333801270e-01 1.849568039178848267e-01
2.979000000000000000e+03 3.152104377746582031e+01 -5.279062271118164062e+00 -8.176426291465759277e-01 2.145694494247436523e+00 3.984155952930450439e-01 4.341370239853858948e-02
2.980000000000000000e+03 2.789513778686523438e+01 3.434815108776092529e-01 -1.988534480333328247e-01 1.305716156959533691e+00 3.320588171482086182e-01 1.265638023614883423e-01
2.981000000000000000e+03 1.697544479370117188e+01 8.371299743652343750e+00 5.447003841400146484e-01 -7.126512527465820312e-01 -5.038526281714439392e-02 5.100551247596740723e-01
2.982000000000000000e+03 2.347126579284667969e+01 3.261611938476562500e+00 1.565008908510208130e-01 8.668859302997589111e-02 7.295684516429901123e-02 2.737232446670532227e-01
2.983000000000000000e+03 1.212000942230224609e+01 9.345048904418945312e+00 3.308943510055541992e-01 -9.058879613876342773e-01 -1.724980920553207397e-01 7.451037764549255371e-01
2.984000000000000000e+03 3.625365829467773438e+01 -1.139751148223876953e+01 -8.708988428115844727e-01 2.652298927307128906e+00 5.344200134277343750e-01 -9.001881480216979980e-01
2.985000000000000000e+03 3.822395706176757812e+01 -1.064936256408691406e+01 -1.084226012229919434e+00 3.800386428833007812e+00 8.148481845855712891e-01 -1.251611113548278809e+00
2.986000000000000000e+03 1.263725280761718750e+01 1.033428573608398438e+01 4.075697660446166992e-01 -8.621664047241210938e-01 -1.363789737224578857e-01 6.619948744773864746e-01
2.987000000000000000e+03 1.310448360443115234e+01 1.686553382873535156e+01 5.572863817214965820e-01 -5.257414579391479492e-01 9.463479742407798767e-03 2.407137900590896606e-01
2.988000000000000000e+03 1.216373157501220703e+01 1.876050949096679688e+01 4.715061485767364502e-01 -5.478560328483581543e-01 -2.290496788918972015e-02 1.800733208656311035e-01
2.989000000000000000e+03 3.560406875610351562e+01 -9.367776870727539062e+00 -9.038543105125427246e-01 2.852865934371948242e+00 5.847034454345703125e-01 -6.479214429855346680e-01
2.990000000000000000e+03 3.638513565063476562e+01 -1.045222473144531250e+01 -9.196929931640625000e-01 2.947060823440551758e+00 6.082103848457336426e-01 -8.628235459327697754e-01
2.991000000000000000e+03 3.857916641235351562e+01 -8.952749252319335938e+00 -1.110975861549377441e+00 4.191107273101806641e+00 9.240394830703735352e-01 -1.130266904830932617e+00
2.992000000000000000e+03 3.999987792968750000e+01 -1.097276878356933594e+01 -1.328497409820556641e+00 4.663321971893310547e+00 1.000447392463684082e+00 -1.482928514480590820e+00
2.993000000000000000e+03 2.874570846557617188e+01 2.550232410430908203e+00 2.839611470699310303e-01 1.795805335044860840e+00 6.239299178123474121e-01 -3.692260012030601501e-02
2.994000000000000000e+03 3.307381057739257812e+01 5.638101577758789062e+00 1.033497095108032227e+00 3.709983348846435547e+00 1.423044085502624512e+00 -3.734540045261383057e-01
2.995000000000000000e+03 1.089079380035400391e+01 1.318080329895019531e+01 4.193094670772552490e-01 -8.281369805335998535e-01 -1.226482540369033813e-01 5.460729002952575684e-01
2.996000000000000000e+03 1.108410739898681641e+01 1.150210666656494141e+01 3.842732012271881104e-01 -8.659583926200866699e-01 -1.445055603981018066e-01 6.446835398674011230e-01
2.997000000000000000e+03 3.867292785644531250e+01 -8.201260566711425781e+00 -1.087077260017395020e+00 4.310919761657714844e+00 9.671526551246643066e-01 -1.096262454986572266e+00
2.998000000000000000e+03 3.086040687561035156e+01 9.842076301574707031e+00 1.477371454238891602e+00 2.949874877929687500e+00 1.328173875808715820e+00 -5.164741277694702148e-01
2.999000000000000000e+03 3.423396682739257812e+01 -5.523790121078491211e-01 -1.632346361875534058e-01 3.665858745574951172e+00 1.050787210464477539e+00 -3.550713360309600830e-01
3.000000000000000000e+03 3.055291175842285156e+01 -2.776261806488037109e+00 -5.834659934043884277e-01 2.042715072631835938e+00 4.377747476100921631e-01 6.825851649045944214e-02
3.001000000000000000e+03 3.599851608276367188e+01 -1.557121872901916504e+00 -3.334431946277618408e-01 4.252251148223876953e+00 1.175642371177673340e+00 -5.623742938041687012e-01
3.002000000000000000e+03 1.262411022186279297e+01 1.418946075439453125e+01 5.422319769859313965e-01 -6.987442970275878906e-01 -4.695369303226470947e-02 4.249340891838073730e-01
3.003000000000000000e+03 1.575485324859619141e+01 8.260539054870605469e+00 4.610119163990020752e-01 -8.288757801055908203e-01 -1.103591695427894592e-01 6.090480089187622070e-01
3.004000000000000000e+03 3.414062500000000000e+01 5.626379251480102539e-01 2.936220169067382812e-02 3.770315647125244141e+00 1.139903306961059570e+00 -3.593339323997497559e-01
3.005000000000000000e+03 1.280885982513427734e+01 1.552584457397460938e+01 5.380720496177673340e-01 -6.258039474487304688e-01 -2.631955593824386597e-02 3.403697609901428223e-01
3.006000000000000000e+03 2.913224220275878906e+01 8.788170814514160156e+00 1.269922852516174316e+00 2.217003822326660156e+00 1.046077966690063477e+00 -3.700571358203887939e-01
3.007000000000000000e+03 3.517740631103515625e+01 2.091558265686035156e+01 7.445956468582153320e-01 4.706255912780761719e+00 1.635255455970764160e+00 -7.077556252479553223e-01
3.008000000000000000e+03 1.978865242004394531e+01 -3.874524307250976562e+01 3.601302206516265869e-02 -5.883356928825378418e-02 -6.846163421869277954e-03 -5.494772270321846008e-02
3.009000000000000000e+03 1.533050632476806641e+01 -3.982249069213867188e+01 5.525230430066585541e-03 -2.979740872979164124e-02 -7.281653583049774170e-03 -1.642295159399509430e-02
3.010000000000000000e+03 2.284612274169921875e+01 -3.925635910034179688e+01 1.024753749370574951e-01 -5.995406582951545715e-02 1.275639142841100693e-02 -5.833887681365013123e-02
3.011000000000000000e+03 2.991219520568847656e+01 1.198501014709472656e+01 1.492392659187316895e+00 2.655714273452758789e+00 1.244432091712951660e+00 -6.115674972534179688e-01
3.012000000000000000e+03 2.552066612243652344e+01 -3.713087844848632812e+01 4.240059107542037964e-02 -3.929948061704635620e-02 9.303328115493059158e-04 -9.614519029855728149e-02
3.013000000000000000e+03 3.124826240539550781e+01 6.841790676116943359e+00 1.167235136032104492e+00 2.962926626205444336e+00 1.239048600196838379e+00 -3.478928208351135254e-01
3.014000000000000000e+03 3.200090789794921875e+01 5.480609893798828125e+00 9.492843151092529297e-01 3.180259466171264648e+00 1.238863110542297363e+00 -3.123507499694824219e-01
3.015000000000000000e+03 3.061896324157714844e+01 1.813531303405761719e+01 1.165417909622192383e+00 3.179727554321289062e+00 1.303543686866760254e+00 -8.738108873367309570e-01
3.016000000000000000e+03 2.759591865539550781e+01 1.845932769775390625e+01 1.065135121345520020e+00 2.240179538726806641e+00 9.915943741798400879e-01 -7.640188932418823242e-01
3.017000000000000000e+03 7.497455596923828125e+01 -4.034577941894531250e+01 -5.656272917985916138e-02 6.090405464172363281e+00 1.810152888298034668e+00 -9.673779457807540894e-02
3.018000000000000000e+03 3.038792419433593750e+01 1.980742835998535156e+01 9.655911922454833984e-01 3.125238418579101562e+00 1.227248907089233398e+00 -8.755674362182617188e-01
3.019000000000000000e+03 3.486597061157226562e+01 3.353067016601562500e+01 -7.742108702659606934e-01 3.703795671463012695e+00 8.788754343986511230e-01 -3.410994410514831543e-01
3.020000000000000000e+03 3.489905166625976562e+01 2.956604003906250000e+01 -4.041326940059661865e-01 3.898990392684936523e+00 1.048457264900207520e+00 -4.849493801593780518e-01
3.021000000000000000e+03 3.772152328491210938e+01 -4.094494628906250000e+01 6.173979118466377258e-02 1.851804614067077637e+00 5.740633010864257812e-01 2.155566364526748657e-01
3.022000000000000000e+03 5.280149078369140625e+01 -4.142309188842773438e+01 -8.082712292671203613e-01 5.105833053588867188e+00 1.289268493652343750e+00 -5.797370523214340210e-02
3.023000000000000000e+03 5.337340545654296875e+01 -3.589525604248046875e+01 -1.908194869756698608e-01 5.504525661468505859e+00 1.594111800193786621e+00 -4.786239862442016602e-01
3.024000000000000000e+03 4.006805801391601562e+01 3.100204086303710938e+01 -6.107480525970458984e-01 4.115935802459716797e+00 1.051556348800659180e+00 7.056480273604393005e-03
3.025000000000000000e+03 7.934073925018310547e+00 -4.124347686767578125e+01 2.927933819591999054e-03 -9.729721583425998688e-03 -2.040536375716328621e-03 4.155786242336034775e-03
3.026000000000000000e+03 1.776811790466308594e+01 3.000987625122070312e+01 7.988438755273818970e-02 7.583438754081726074e-01 2.514684796333312988e-01 -3.383843600749969482e-01
3.027000000000000000e+03 4.286273956298828125e+01 4.112471389770507812e+01 -1.231423735618591309e+00 3.280285835266113281e+00 6.146586537361145020e-01 3.681210055947303772e-02
3.028000000000000000e+03 4.742150497436523438e+01 -2.030882263183593750e+01 2.873134136199951172e+00 7.254716396331787109e+00 3.038355112075805664e+00 -7.555686235427856445e-01
3.029000000000000000e+03 4.789244079589843750e+01 -1.872731208801269531e+01 5.652039051055908203e-01 6.983042716979980469e+00 2.264473915100097656e+00 -9.558043628931045532e-02
3.030000000000000000e+03 4.741654586791992188e+01 -1.868068122863769531e+01 7.222388386726379395e-01 7.587614059448242188e+00 2.492955923080444336e+00 3.879629075527191162e-02
3.031000000000000000e+03 4.751451873779296875e+01 -1.947983741760253906e+01 1.892496347427368164e+00 7.287466049194335938e+00 2.753988742828369141e+00 -2.222210615873336792e-01
3.032000000000000000e+03 4.832239913940429688e+01 -1.892040824890136719e+01 8.147444725036621094e-01 6.334023952484130859e+00 2.144630432128906250e+00 -2.513542771339416504e-01
3.033000000000000000e+03 4.882863616943359375e+01 -2.180578994750976562e+01 2.820459365844726562e+00 5.723178386688232422e+00 2.563091278076171875e+00 -1.761643171310424805e+00
3.034000000000000000e+03 4.717670059204101562e+01 -2.188595581054687500e+01 3.852501869201660156e+00 7.719007492065429688e+00 3.471452713012695312e+00 -2.174119710922241211e+00
3.035000000000000000e+03 4.679855728149414062e+01 -1.829228401184082031e+01 9.196944534778594971e-02 8.452509880065917969e+00 2.563343763351440430e+00 5.675853788852691650e-02
3.036000000000000000e+03 4.637787246704101562e+01 -1.697788047790527344e+01 -1.338929653167724609e+00 8.512023925781250000e+00 2.151928424835205078e+00 -2.017510980367660522e-01
3.037000000000000000e+03 4.764282608032226562e+01 -2.374459648132324219e+01 2.351797580718994141e+00 7.700869083404541016e+00 3.015799999237060547e+00 -2.538417816162109375e+00
3.038000000000000000e+03 4.857989120483398438e+01 -2.440514755249023438e+01 2.167634010314941406e+00 6.557637214660644531e+00 2.617581367492675781e+00 -2.313090562820434570e+00
3.039000000000000000e+03 4.693946838378906250e+01 -1.876049423217773438e+01 8.106026649475097656e-01 8.247300148010253906e+00 2.717370748519897461e+00 -8.083691820502281189e-03
3.040000000000000000e+03 4.382751846313476562e+01 -1.617175102233886719e+01 -1.742234468460083008e+00 8.421028137207031250e+00 2.003638029098510742e+00 -1.997527241706848145e+00
3.041000000000000000e+03 4.810343551635742188e+01 -2.465354728698730469e+01 1.980042338371276855e+00 7.244796276092529297e+00 2.767451524734497070e+00 -2.278830766677856445e+00
3.042000000000000000e+03 4.907120513916015625e+01 -2.433163261413574219e+01 2.260563373565673828e+00 6.144992828369140625e+00 2.521667003631591797e+00 -2.165498256683349609e+00
3.043000000000000000e+03 4.543442153930664062e+01 -1.717838096618652344e+01 -1.380049109458923340e+00 9.400578498840332031e+00 2.406158924102783203e+00 -7.493953704833984375e-01
3.044000000000000000e+03 4.570649719238281250e+01 -1.535293388366699219e+01 -2.188496112823486328e+00 8.080948829650878906e+00 1.767735719680786133e+00 -6.262525320053100586e-01
3.045000000000000000e+03 4.591595840454101562e+01 -1.700634193420410156e+01 -1.411292910575866699e+00 8.987338066101074219e+00 2.272813558578491211e+00 -4.505463838577270508e-01
3.046000000000000000e+03 4.403886413574218750e+01 -1.509368038177490234e+01 -2.093279600143432617e+00 7.849368095397949219e+00 1.726826429367065430e+00 -1.583613753318786621e+00
3.047000000000000000e+03 3.281005477905273438e+01 -7.925862312316894531e+00 -9.039160609245300293e-01 2.109475612640380859e+00 3.616678714752197266e-01 -7.670149207115173340e-02
3.048000000000000000e+03 4.638656234741210938e+01 -1.643065834045410156e+01 -1.783580899238586426e+00 8.295350074768066406e+00 1.953530788421630859e+00 -2.500530183315277100e-01
3.049000000000000000e+03 5.048998260498046875e+01 -2.286755752563476562e+01 2.367743253707885742e+00 4.433059692382812500e+00 2.040241003036499023e+00 -1.699644207954406738e+00
3.050000000000000000e+03 3.841795730590820312e+01 -9.776384353637695312e+00 -1.118167638778686523e+00 4.017666339874267578e+00 8.698496222496032715e-01 -1.185119032859802246e+00
3.051000000000000000e+03 4.748026657104492188e+01 -1.761356925964355469e+01 -6.881971359252929688e-01 7.558734416961669922e+00 2.061161041259765625e+00 1.133154183626174927e-01
3.052000000000000000e+03 3.689100646972656250e+01 -5.625987529754638672e+00 -8.394124507904052734e-01 4.007709503173828125e+00 9.504891633987426758e-01 -7.330051064491271973e-01
3.053000000000000000e+03 3.562766647338867188e+01 -6.919143199920654297e+00 -8.872048854827880859e-01 3.340137481689453125e+00 7.358797788619995117e-01 -5.744817852973937988e-01
3.054000000000000000e+03 3.633506011962890625e+01 -7.396380424499511719e+00 -9.221980571746826172e-01 3.511646747589111328e+00 7.768346071243286133e-01 -6.910736560821533203e-01
3.055000000000000000e+03 4.618032073974609375e+01 -1.476140499114990234e+01 -2.326566457748413086e+00 7.591600418090820312e+00 1.579510211944580078e+00 -3.530694544315338135e-01
3.056000000000000000e+03 4.329679107666015625e+01 -1.317555713653564453e+01 -2.031085491180419922e+00 6.665233612060546875e+00 1.390244364738464355e+00 -1.493204474449157715e+00
3.057000000000000000e+03 3.499156188964843750e+01 -7.828898429870605469e+00 -8.898673057556152344e-01 2.910862445831298828e+00 6.062985658645629883e-01 -4.742815792560577393e-01
3.058000000000000000e+03 2.994549751281738281e+01 -2.528860569000244141e+00 -5.631659626960754395e-01 1.850054383277893066e+00 3.860665261745452881e-01 1.079926565289497375e-01
3.059000000000000000e+03 2.123582458496093750e+01 6.564218044281005859e+00 5.647279620170593262e-01 -2.069020271301269531e-01 1.073477864265441895e-01 2.560817301273345947e-01
3.060000000000000000e+03 2.474459457397460938e+01 3.409644365310668945e+00 2.549140453338623047e-01 4.838901460170745850e-01 2.216412574052810669e-01 1.701265126466751099e-01
3.061000000000000000e+03 4.915911865234375000e+01 -2.102063560485839844e+01 2.375744342803955078e+00 5.264990806579589844e+00 2.292220592498779297e+00 -1.276843309402465820e+00
3.062000000000000000e+03 3.197234725952148438e+01 -1.767007350921630859e+00 -3.672330975532531738e-01 2.731276988983154297e+00 7.092131376266479492e-01 -1.197739467024803162e-01
3.063000000000000000e+03 1.187965106964111328e+01 1.088508319854736328e+01 4.007005095481872559e-01 -8.581864237785339355e-01 -1.372457891702651978e-01 6.620551943778991699e-01
3.064000000000000000e+03 3.211069869995117188e+01 -5.697930812835693359e+00 -8.308638930320739746e-01 2.292592287063598633e+00 4.385184943675994873e-01 -1.435911096632480621e-02
3.065000000000000000e+03 3.437308502197265625e+01 -5.573450565338134766e+00 -7.876160144805908203e-01 3.061386585235595703e+00 6.821311116218566895e-01 -3.610415458679199219e-01
3.066000000000000000e+03 2.044494819641113281e+01 7.149938583374023438e+00 6.017854809761047363e-01 -3.065411448478698730e-01 8.857329934835433960e-02 2.895684242248535156e-01
3.067000000000000000e+03 2.199816894531250000e+01 4.493374347686767578e+00 2.889193892478942871e-01 -1.842262297868728638e-01 3.140794485807418823e-02 3.090392649173736572e-01
3.068000000000000000e+03 4.215394210815429688e+01 -1.378520107269287109e+01 -1.729354977607727051e+00 6.180624008178710938e+00 1.335380673408508301e+00 -1.961426138877868652e+00
3.069000000000000000e+03 2.270966529846191406e+01 6.168104171752929688e+00 6.021524071693420410e-01 1.135617271065711975e-01 2.147142440080642700e-01 1.490196585655212402e-01
3.070000000000000000e+03 2.640701103210449219e+01 2.402590036392211914e+00 1.510367244482040405e-01 9.570843577384948730e-01 3.324363231658935547e-01 1.140099614858627319e-01
3.071000000000000000e+03 2.555983352661132812e+01 2.897306680679321289e+00 1.921119987964630127e-01 6.960036754608154297e-01 2.664346992969512939e-01 1.335784196853637695e-01
3.072000000000000000e+03 3.473416519165039062e+01 -9.465585708618164062e+00 -8.915814757347106934e-01 2.522175788879394531e+00 4.891782999038696289e-01 -4.565330147743225098e-01
3.073000000000000000e+03 4.161837768554687500e+01 -1.202467727661132812e+01 -1.649012327194213867e+00 5.570130348205566406e+00 1.176335453987121582e+00 -1.648156046867370605e+00
3.074000000000000000e+03 1.571105384826660156e+01 9.761696815490722656e+00 5.796526670455932617e-01 -7.263232469558715820e-01 -4.400116577744483948e-02 5.251248478889465332e-01
3.075000000000000000e+03 3.182883834838867188e+01 -4.396365165710449219e+00 -7.331318259239196777e-01 2.360152482986450195e+00 4.881061613559722900e-01 -2.306712605059146881e-02
3.076000000000000000e+03 3.112379074096679688e+01 -3.585713624954223633e+00 -6.674187779426574707e-01 2.184715270996093750e+00 4.551889300346374512e-01 3.122245520353317261e-02
3.077000000000000000e+03 2.399319458007812500e+01 3.997721672058105469e+00 3.301987946033477783e-01 2.886159718036651611e-01 1.856444329023361206e-01 1.868251413106918335e-01
3.078000000000000000e+03 2.329534530639648438e+01 4.698634624481201172e+00 3.971289694309234619e-01 1.281357407569885254e-01 1.575794070959091187e-01 1.922086030244827271e-01
3.079000000000000000e+03 3.587866210937500000e+01 -4.268179893493652344e+00 -6.843248605728149414e-01 3.843568325042724609e+00 9.477730393409729004e-01 -5.663359165191650391e-01
3.080000000000000000e+03 3.499968719482421875e+01 -6.287147521972656250e+00 -8.316704034805297852e-01 3.202970504760742188e+00 7.113900184631347656e-01 -4.703467488288879395e-01
3.081000000000000000e+03 2.929687500000000000e+01 3.585422992706298828e+00 4.797423779964447021e-01 2.038023471832275391e+00 7.553297877311706543e-01 -1.004035919904708862e-01
3.082000000000000000e+03 3.261807250976562500e+01 -6.260769367218017578e+00 -8.530212044715881348e-01 2.364654541015625000e+00 4.534900188446044922e-01 -8.853407204151153564e-02
3.083000000000000000e+03 1.933089637756347656e+01 9.012343406677246094e+00 7.382888793945312500e-01 -3.429819345474243164e-01 1.185920909047126770e-01 2.759557068347930908e-01
3.084000000000000000e+03 1.747813606262207031e+01 9.055987358093261719e+00 6.240501999855041504e-01 -6.125508546829223633e-01 3.449811134487390518e-03 4.321951568126678467e-01
3.085000000000000000e+03 3.520458984375000000e+01 -2.296078443527221680e+00 -4.386301934719085693e-01 3.795817375183105469e+00 1.007156133651733398e+00 -4.557412862777709961e-01
3.086000000000000000e+03 1.435052013397216797e+01 1.176105690002441406e+01 5.832985043525695801e-01 -7.081952691078186035e-01 -3.746902570128440857e-02 4.937997162342071533e-01
3.087000000000000000e+03 1.124366474151611328e+01 9.874047279357910156e+00 3.014289140701293945e-01 -8.989334702491760254e-01 -1.792513728141784668e-01 7.379585504531860352e-01
3.088000000000000000e+03 3.026067924499511719e+01 -1.709162712097167969e+00 -4.230572283267974854e-01 2.028485059738159180e+00 4.816283881664276123e-01 3.775690495967864990e-02
3.089000000000000000e+03 3.408314895629882812e+01 1.756676197052001953e+00 2.774451673030853271e-01 3.856270313262939453e+00 1.240114569664001465e+00 -3.515847027301788330e-01
3.090000000000000000e+03 1.814752197265625000e+01 8.606424331665039062e+00 6.288010478019714355e-01 -5.660709738731384277e-01 1.881903223693370819e-02 4.090162217617034912e-01
3.091000000000000000e+03 4.146506118774414062e+01 -1.284534645080566406e+01 -1.611096143722534180e+00 5.573343276977539062e+00 1.188674092292785645e+00 -1.829011082649230957e+00
3.092000000000000000e+03 3.654154968261718750e+01 -9.503009796142578125e+00 -9.614999294281005859e-01 3.230299949645996094e+00 6.806400418281555176e-01 -8.476917147636413574e-01
3.093000000000000000e+03 4.976980209350585938e+01 -2.372636985778808594e+01 2.425178289413452148e+00 5.331407070159912109e+00 2.326975584030151367e+00 -2.027430295944213867e+00
3.094000000000000000e+03 3.011086463928222656e+01 7.198994636535644531e+00 1.153621315956115723e+00 2.512687206268310547e+00 1.099892616271972656e+00 -3.159504532814025879e-01
3.095000000000000000e+03 5.031085968017578125e+01 -2.205191421508789062e+01 2.194599151611328125e+00 4.322530746459960938e+00 1.955138921737670898e+00 -1.528697848320007324e+00
3.096000000000000000e+03 3.448773574829101562e+01 -1.533710479736328125e+00 -3.456496298313140869e-01 3.627650260925292969e+00 9.846002459526062012e-01 -3.781600892543792725e-01
3.097000000000000000e+03 3.273738098144531250e+01 -4.306918621063232422e+00 -7.044662237167358398e-01 2.677736043930053711e+00 5.919809341430664062e-01 -1.339156478643417358e-01
3.098000000000000000e+03 3.326529693603515625e+01 4.454645633697509766e+00 8.299638032913208008e-01 3.736735343933105469e+00 1.370009779930114746e+00 -3.284924924373626709e-01
3.099000000000000000e+03 2.977323341369628906e+01 -5.061238408088684082e-01 -2.547187805175781250e-01 1.981256127357482910e+00 5.179612040519714355e-01 2.218315936625003815e-02
3.100000000000000000e+03 3.519595718383789062e+01 -8.299507498741149902e-01 -2.060150653123855591e-01 4.034986972808837891e+00 1.148691534996032715e+00 -4.657488465309143066e-01
3.101000000000000000e+03 3.311687850952148438e+01 -7.671696543693542480e-01 -2.144167870283126831e-01 3.210002422332763672e+00 8.986756801605224609e-01 -2.259720414876937866e-01
3.102000000000000000e+03 2.934599876403808594e+01 1.034546947479248047e+01 1.405175328254699707e+00 2.376954793930053711e+00 1.134639024734497070e+00 -4.824740886688232422e-01
3.103000000000000000e+03 1.492606830596923828e+01 1.759460067749023438e+01 6.374913454055786133e-01 -3.070496916770935059e-01 9.913248568773269653e-02 1.146533116698265076e-01
3.104000000000000000e+03 3.208825683593750000e+01 1.792743492126464844e+01 1.163872003555297852e+00 3.695860862731933594e+00 1.457919836044311523e+00 -8.810813426971435547e-01
3.105000000000000000e+03 2.943559646606445312e+01 1.448898315429687500e+01 1.418743371963500977e+00 2.656344175338745117e+00 1.222526311874389648e+00 -7.264208793640136719e-01
3.106000000000000000e+03 2.757331466674804688e+01 5.300058841705322266e+00 7.220170497894287109e-01 1.498463392257690430e+00 6.661441326141357422e-01 -9.584852308034896851e-02
3.107000000000000000e+03 2.886366653442382812e+01 2.309487915039062500e+01 5.758993625640869141e-01 2.761540174484252930e+00 1.001231908798217773e+00 -8.263073563575744629e-01
3.108000000000000000e+03 2.732177162170410156e+01 2.156496047973632812e+01 7.685215473175048828e-01 2.317338466644287109e+00 9.257580041885375977e-01 -8.027673363685607910e-01
3.109000000000000000e+03 2.719752502441406250e+01 1.407796382904052734e+01 1.311807632446289062e+00 1.853798270225524902e+00 9.496817588806152344e-01 -5.674837231636047363e-01
3.110000000000000000e+03 3.905111694335937500e+01 3.327994918823242188e+01 -8.481309413909912109e-01 3.923580646514892578e+00 9.226349592208862305e-01 -9.736929088830947876e-02
3.111000000000000000e+03 1.205177116394042969e+01 -4.115928649902343750e+01 1.804133877158164978e-02 -2.431584335863590240e-02 -1.882351352833211422e-03 -1.139213517308235168e-02
3.112000000000000000e+03 1.809400749206542969e+01 3.266769027709960938e+01 -6.180173903703689575e-02 8.913483023643493652e-01 2.488639652729034424e-01 -2.947576940059661865e-01
3.113000000000000000e+03 1.666963577270507812e+01 2.531327629089355469e+01 3.478954136371612549e-01 3.738956749439239502e-01 2.165373265743255615e-01 -2.654508948326110840e-01
3.114000000000000000e+03 2.870503044128417969e+01 -3.590153884887695312e+01 -4.617449641227722168e-02 -1.754896831698715687e-03 -1.437881775200366974e-02 -1.883582919836044312e-01
3.115000000000000000e+03 2.739438819885253906e+01 -3.679178237915039062e+01 9.197791665792465210e-02 -4.892559349536895752e-02 1.291569694876670837e-02 -1.549866348505020142e-01
3.116000000000000000e+03 3.076539611816406250e+01 3.258998489379882812e+01 -4.995993077754974365e-01 3.186383962631225586e+00 8.060353994369506836e-01 -5.252177119255065918e-01
3.117000000000000000e+03 3.295915222167968750e+01 3.106651115417480469e+01 -4.589942097663879395e-01 3.585620164871215820e+00 9.379878044128417969e-01 -5.302960872650146484e-01
3.118000000000000000e+03 1.815745162963867188e+01 3.550011062622070312e+01 -1.884179711341857910e-01 9.614858031272888184e-01 2.319203466176986694e-01 -2.300069332122802734e-01
3.119000000000000000e+03 1.486383914947509766e+01 3.547280883789062500e+01 -1.054858267307281494e-01 3.650808036327362061e-01 7.787849754095077515e-02 -1.684671491384506226e-01
3.120000000000000000e+03 8.567868232727050781e+00 4.077896881103515625e+01 -6.920645385980606079e-02 -6.964521408081054688e-01 -2.296975851058959961e-01 -1.575656794011592865e-02
3.121000000000000000e+03 4.780472564697265625e+01 -1.909434318542480469e+01 1.214761376380920410e+00 6.991458415985107422e+00 2.461865901947021484e+00 -1.616001725196838379e-01
3.122000000000000000e+03 4.759106063842773438e+01 -2.070349311828613281e+01 3.229530811309814453e+00 6.958266258239746094e+00 3.056339025497436523e+00 -1.045470237731933594e+00
3.123000000000000000e+03 4.813819885253906250e+01 -2.153104209899902344e+01 3.186106920242309570e+00 6.377143859863281250e+00 2.868975162506103516e+00 -1.691047787666320801e+00
3.124000000000000000e+03 4.830533218383789062e+01 -2.300211524963378906e+01 2.785004615783691406e+00 6.576767444610595703e+00 2.808531761169433594e+00 -2.357774019241333008e+00
3.125000000000000000e+03 4.894584274291992188e+01 -2.239254570007324219e+01 2.690039873123168945e+00 5.688819408416748047e+00 2.513657808303833008e+00 -1.967925429344177246e+00
3.126000000000000000e+03 4.861410140991210938e+01 -2.129671669006347656e+01 2.727079629898071289e+00 5.854040145874023438e+00 2.574335813522338867e+00 -1.491416811943054199e+00
3.127000000000000000e+03 4.577611541748046875e+01 -1.593900394439697266e+01 -2.027056932449340820e+00 8.406066894531250000e+00 1.913703083992004395e+00 -6.172857880592346191e-01
3.128000000000000000e+03 4.625760269165039062e+01 -1.528902816772460938e+01 -2.237087726593017578e+00 7.821871280670166016e+00 1.675435185432434082e+00 -3.435672223567962646e-01
3.129000000000000000e+03 4.840755081176757812e+01 -2.388763999938964844e+01 2.374627590179443359e+00 6.806431293487548828e+00 2.754317760467529297e+00 -2.361958503723144531e+00
3.130000000000000000e+03 4.424251556396484375e+01 -1.559096717834472656e+01 -2.019074440002441406e+00 8.240105628967285156e+00 1.866309285163879395e+00 -1.570988297462463379e+00
3.131000000000000000e+03 4.517739486694335938e+01 -1.540845394134521484e+01 -2.172725915908813477e+00 8.216624259948730469e+00 1.813169598579406738e+00 -9.804603457450866699e-01
3.132000000000000000e+03 4.634506988525390625e+01 -1.585930061340332031e+01 -2.022262811660766602e+00 8.078523635864257812e+00 1.816878199577331543e+00 -2.673655152320861816e-01
3.133000000000000000e+03 4.525148773193359375e+01 -1.602433586120605469e+01 -1.975403666496276855e+00 8.633805274963378906e+00 1.997520446777343750e+00 -9.344989657402038574e-01
3.134000000000000000e+03 3.352772140502929688e+01 -7.624821186065673828e+00 -8.793849349021911621e-01 2.437608242034912109e+00 4.674669802188873291e-01 -2.278662025928497314e-01
3.135000000000000000e+03 3.622370529174804688e+01 -6.186116695404052734e+00 -8.482226133346557617e-01 3.662434577941894531e+00 8.442635536193847656e-01 -6.468411087989807129e-01
3.136000000000000000e+03 4.972937011718750000e+01 -2.297383689880371094e+01 2.442232370376586914e+00 5.071698188781738281e+00 2.254179239273071289e+00 -1.907788276672363281e+00
3.137000000000000000e+03 4.898545837402343750e+01 -2.304327392578125000e+01 2.655890226364135742e+00 5.895856857299804688e+00 2.565524101257324219e+00 -2.158693552017211914e+00
3.138000000000000000e+03 3.310760116577148438e+01 -6.867516517639160156e+00 -8.634459376335144043e-01 2.428524732589721680e+00 4.695236682891845703e-01 -1.611187011003494263e-01
3.139000000000000000e+03 4.298595046997070312e+01 -1.402272129058837891e+01 -1.963962197303771973e+00 6.804231643676757812e+00 1.452080845832824707e+00 -1.797151446342468262e+00
3.140000000000000000e+03 4.510276794433593750e+01 -1.475551986694335938e+01 -2.270016193389892578e+00 7.795801162719726562e+00 1.657735586166381836e+00 -9.281300306320190430e-01
3.141000000000000000e+03 4.363201904296875000e+01 -1.452523136138916016e+01 -2.044440507888793945e+00 7.327785491943359375e+00 1.585003376007080078e+00 -1.669940471649169922e+00
3.142000000000000000e+03 1.699173355102539062e+01 9.680159568786621094e+00 6.478893756866455078e-01 -6.111632585525512695e-01 1.101783569902181625e-02 4.377339184284210205e-01
3.143000000000000000e+03 3.567284774780273438e+01 -5.569269657135009766e+00 -8.089370131492614746e-01 3.555176019668579102e+00 8.238716721534729004e-01 -5.562149882316589355e-01
3.144000000000000000e+03 3.137173652648925781e+01 -1.344203114509582520e+00 -3.181985318660736084e-01 2.541077613830566406e+00 6.668636798858642578e-01 -5.612152069807052612e-02
3.145000000000000000e+03 3.146270179748535156e+01 -2.339621543884277344e+00 -4.902905821800231934e-01 2.477881908416748047e+00 5.962774157524108887e-01 -4.613897204399108887e-02
3.146000000000000000e+03 2.634969902038574219e+01 1.280718708038330078e+01 1.306638479232788086e+00 1.552893280982971191e+00 8.578594923019409180e-01 -4.602885246276855469e-01
3.147000000000000000e+03 2.600311470031738281e+01 3.828256368637084961e+00 3.969990909099578857e-01 9.063383936882019043e-01 3.910012245178222656e-01 5.831442400813102722e-02
3.148000000000000000e+03 2.778063011169433594e+01 3.019885540008544922e+00 3.404288589954376221e-01 1.465521335601806641e+00 5.417850613594055176e-01 -2.264370676130056381e-03
3.149000000000000000e+03 2.687343406677246094e+01 3.394445180892944336e+00 3.685503602027893066e-01 1.183763623237609863e+00 4.656941890716552734e-01 2.400059625506401062e-02
3.150000000000000000e+03 2.517879486083984375e+01 4.190940856933593750e+00 4.246297478675842285e-01 6.730531454086303711e-01 3.293048739433288574e-01 9.742613136768341064e-02
3.151000000000000000e+03 2.453620147705078125e+01 4.638277053833007812e+00 4.409925341606140137e-01 4.799080193042755127e-01 2.762701809406280518e-01 1.166869923472404480e-01
3.152000000000000000e+03 1.333281135559082031e+01 1.110204029083251953e+01 5.060748457908630371e-01 -8.059342503547668457e-01 -8.995783329010009766e-02 5.823448300361633301e-01
3.153000000000000000e+03 3.073118209838867188e+01 -7.817170023918151855e-01 -2.663474977016448975e-01 2.302104473114013672e+00 6.107270717620849609e-01 -2.440483868122100830e-02
3.154000000000000000e+03 3.193382453918457031e+01 4.412487506866455078e+00 7.420700192451477051e-01 3.085506200790405273e+00 1.148272871971130371e+00 -2.746060788631439209e-01
3.155000000000000000e+03 3.766996383666992188e+01 -8.804797172546386719e+00 -1.040152907371520996e+00 3.817222595214843750e+00 8.331209421157836914e-01 -9.869486093521118164e-01
3.156000000000000000e+03 3.364215469360351562e+01 -5.099123954772949219e+00 -7.576171159744262695e-01 2.904879331588745117e+00 6.441786885261535645e-01 -2.631613910198211670e-01
3.157000000000000000e+03 2.402022933959960938e+01 5.372605800628662109e+00 5.504672527313232422e-01 3.701763451099395752e-01 2.761930823326110840e-01 1.140781641006469727e-01
3.158000000000000000e+03 2.254758834838867188e+01 5.264853954315185547e+00 4.468413889408111572e-01 2.472982276231050491e-03 1.347943097352981567e-01 2.154254019260406494e-01
3.159000000000000000e+03 2.730683708190917969e+01 2.066625833511352539e+00 1.422656923532485962e-01 1.237754583358764648e+00 4.140060842037200928e-01 7.806738466024398804e-02
3.160000000000000000e+03 3.072044944763183594e+01 4.544299125671386719e+00 7.271223664283752441e-01 2.619907617568969727e+00 1.004109025001525879e+00 -2.224740833044052124e-01
3.161000000000000000e+03 3.180354309082031250e+01 -2.807295322418212891e+00 -5.467510223388671875e-01 2.523486375808715820e+00 5.930206179618835449e-01 -8.144961297512054443e-02
3.162000000000000000e+03 3.188394165039062500e+01 -3.528552055358886719e+00 -6.237034201622009277e-01 2.475983858108520508e+00 5.556841492652893066e-01 -5.542358011007308960e-02
3.163000000000000000e+03 3.465321350097656250e+01 -3.136857509613037109e+00 -5.409090518951416016e-01 3.486135482788085938e+00 8.835679292678833008e-01 -3.968879878520965576e-01
3.164000000000000000e+03 3.793532943725585938e+01 -8.017811775207519531e+00 -1.020275235176086426e+00 4.039321899414062500e+00 9.057139158248901367e-01 -9.697417616844177246e-01
3.165000000000000000e+03 3.587248992919921875e+01 -8.311152458190917969e+00 -9.290086030960083008e-01 3.154683828353881836e+00 6.677025556564331055e-01 -6.556543111801147461e-01
3.166000000000000000e+03 2.876419258117675781e+01 4.012207686901092529e-01 -1.245982125401496887e-01 1.639721035957336426e+00 4.545368254184722900e-01 7.881151139736175537e-02
3.167000000000000000e+03 3.283407974243164062e+01 -5.151517391204833984e+00 -7.700676918029785156e-01 2.601284265518188477e+00 5.493649840354919434e-01 -1.376523077487945557e-01
3.168000000000000000e+03 4.097067642211914062e+01 -1.037212181091308594e+01 -1.458084106445312500e+00 5.155773162841796875e+00 1.109306812286376953e+00 -1.417131543159484863e+00
3.169000000000000000e+03 3.286311340332031250e+01 4.610251486301422119e-01 -3.208784386515617371e-03 3.219690084457397461e+00 9.649444222450256348e-01 -2.224251180887222290e-01
3.170000000000000000e+03 3.283312225341796875e+01 1.775743484497070312e+00 2.591758668422698975e-01 3.348730564117431641e+00 1.082371950149536133e+00 -2.451771497726440430e-01
3.171000000000000000e+03 3.251124572753906250e+01 -2.382201194763183594e+00 -4.642413556575775146e-01 2.828394412994384766e+00 7.092459201812744141e-01 -1.640792340040206909e-01
3.172000000000000000e+03 2.894986534118652344e+01 7.443842887878417969e+00 1.121003031730651855e+00 2.102955341339111328e+00 9.671874642372131348e-01 -2.829138636589050293e-01
3.173000000000000000e+03 1.634021759033203125e+01 9.013572692871093750e+00 5.585775971412658691e-01 -7.301315069198608398e-01 -5.146617814898490906e-02 5.254461169242858887e-01
3.174000000000000000e+03 1.384878444671630859e+01 1.414854145050048828e+01 6.085128188133239746e-01 -5.974239706993103027e-01 3.326658392325043678e-03 3.633415102958679199e-01
3.175000000000000000e+03 3.306276702880859375e+01 3.120979070663452148e+00 5.445411801338195801e-01 3.560562610626220703e+00 1.231531143188476562e+00 -2.764921486377716064e-01
3.176000000000000000e+03 1.423136711120605469e+01 1.643344879150390625e+01 6.154738068580627441e-01 -4.337112605571746826e-01 5.452876910567283630e-02 2.078712731599807739e-01
3.177000000000000000e+03 1.597910785675048828e+01 1.671727752685546875e+01 7.100144028663635254e-01 -2.257656157016754150e-01 1.452746391296386719e-01 9.286774694919586182e-02
3.178000000000000000e+03 3.050802040100097656e+01 2.093960762023925781e+00 2.683816254138946533e-01 2.386318206787109375e+00 7.964099645614624023e-01 -9.006714075803756714e-02
3.179000000000000000e+03 3.534793090820312500e+01 -3.596569538116455078e+00 -5.949858427047729492e-01 3.748067140579223633e+00 9.459244012832641602e-01 -4.949592351913452148e-01
3.180000000000000000e+03 1.774969673156738281e+01 9.835911750793457031e+00 6.878693699836730957e-01 -5.046439170837402344e-01 5.496764183044433594e-02 3.718562126159667969e-01
3.181000000000000000e+03 1.600265693664550781e+01 1.135960197448730469e+01 6.812742352485656738e-01 -5.738624334335327148e-01 3.222354128956794739e-02 3.976303339004516602e-01
3.182000000000000000e+03 2.106619834899902344e+01 8.160856246948242188e+00 7.467142343521118164e-01 -1.022578030824661255e-01 1.933369189500808716e-01 1.730833351612091064e-01
3.183000000000000000e+03 1.437474060058593750e+01 1.974250793457031250e+01 5.506318211555480957e-01 -2.486302256584167480e-01 9.060048311948776245e-02 3.133758530020713806e-02
3.184000000000000000e+03 2.781663131713867188e+01 8.838709831237792969e+00 1.209367513656616211e+00 1.795306444168090820e+00 9.014021754264831543e-01 -3.098037540912628174e-01
3.185000000000000000e+03 2.596257972717285156e+01 1.989203834533691406e+01 9.184637069702148438e-01 1.866464853286743164e+00 8.354785442352294922e-01 -6.870092749595642090e-01
3.186000000000000000e+03 1.596846294403076172e+01 2.325416564941406250e+01 4.505804479122161865e-01 1.606100052595138550e-01 1.833571344614028931e-01 -1.809220165014266968e-01
3.187000000000000000e+03 1.582533168792724609e+01 1.896646690368652344e+01 6.479565501213073730e-01 -9.840065240859985352e-02 1.648667603731155396e-01 -1.376636512577533722e-02
3.188000000000000000e+03 2.728583145141601562e+01 4.324137210845947266e+00 5.268132686614990234e-01 1.361042261123657227e+00 5.663566589355468750e-01 -3.412202745676040649e-02
3.189000000000000000e+03 2.984337425231933594e+01 5.978800296783447266e+00 9.478738903999328613e-01 2.363173723220825195e+00 9.933142662048339844e-01 -2.427857667207717896e-01
3.190000000000000000e+03 2.196595382690429688e+01 2.588771629333496094e+01 3.660892248153686523e-01 1.341760993003845215e+00 5.123550295829772949e-01 -5.341101288795471191e-01
3.191000000000000000e+03 2.806756019592285156e+01 1.560122013092041016e+01 1.298010945320129395e+00 2.234133005142211914e+00 1.059643149375915527e+00 -6.967641115188598633e-01
3.192000000000000000e+03 2.847154808044433594e+01 1.297766685485839844e+01 1.403979420661926270e+00 2.226210594177246094e+00 1.089056968688964844e+00 -5.894359946250915527e-01
3.193000000000000000e+03 2.390587997436523438e+01 8.199697494506835938e+00 9.098199009895324707e-01 5.535590648651123047e-01 4.390137195587158203e-01 -4.487664625048637390e-02
3.194000000000000000e+03 3.306092453002929688e+01 2.479559516906738281e+01 2.595060765743255615e-01 3.790297985076904297e+00 1.214941263198852539e+00 -7.497946619987487793e-01
3.195000000000000000e+03 7.460615539550781250e+01 -3.711673355102539062e+01 -3.111914992332458496e-01 6.144708633422851562e+00 1.750055193901062012e+00 -1.153925284743309021e-01
3.196000000000000000e+03 4.545885086059570312e+01 -3.955773544311523438e+01 -8.748214840888977051e-01 5.168293952941894531e+00 1.288041710853576660e+00 1.451125591993331909e-01
3.197000000000000000e+03 4.831667709350585938e+01 -2.193024826049804688e+01 2.996594667434692383e+00 6.230770587921142578e+00 2.768209457397460938e+00 -1.908689975738525391e+00
3.198000000000000000e+03 4.566814804077148438e+01 -1.474530506134033203e+01 -2.344043254852294922e+00 7.738782405853271484e+00 1.618421673774719238e+00 -6.325248479843139648e-01
3.199000000000000000e+03 2.980224990844726562e+01 6.001241207122802734e-01 -3.396151587367057800e-02 2.087406396865844727e+00 6.160334944725036621e-01 -1.692651584744453430e-02
3.200000000000000000e+03 4.961207580566406250e+01 -2.225657272338867188e+01 2.536088228225708008e+00 5.061656951904296875e+00 2.279323577880859375e+00 -1.778370499610900879e+00
3.201000000000000000e+03 3.430501556396484375e+01 -7.072759628295898438e+00 -8.739495277404785156e-01 2.786951303482055664e+00 5.739005208015441895e-01 -3.366784155368804932e-01
3.202000000000000000e+03 3.321584701538085938e+01 -5.738169193267822266e+00 -8.208497166633605957e-01 2.636017084121704102e+00 5.445501804351806641e-01 -1.881802231073379517e-01
3.203000000000000000e+03 2.813390159606933594e+01 1.797760844230651855e+00 1.356043666601181030e-01 1.514031171798706055e+00 4.948906600475311279e-01 3.199959173798561096e-02
3.204000000000000000e+03 3.051663017272949219e+01 3.317576408386230469e+00 4.898951649665832520e-01 2.442236423492431641e+00 8.796394467353820801e-01 -1.535357832908630371e-01
3.205000000000000000e+03 2.520061302185058594e+01 4.995821952819824219e+00 5.447756052017211914e-01 7.368244528770446777e-01 3.844800293445587158e-01 4.149062931537628174e-02
3.206000000000000000e+03 3.090221405029296875e+01 -2.021596431732177734e+00 -4.251591861248016357e-01 2.285985231399536133e+00 5.582478642463684082e-01 1.718474552035331726e-02
3.207000000000000000e+03 3.272626876831054688e+01 -3.330248355865478516e+00 -5.746570825576782227e-01 2.813563823699951172e+00 6.716720461845397949e-01 -1.601788550615310669e-01
3.208000000000000000e+03 3.161825561523437500e+01 5.149516090750694275e-02 -7.916716486215591431e-02 2.714267969131469727e+00 7.905302047729492188e-01 -1.347473561763763428e-01
3.209000000000000000e+03 1.854671478271484375e+01 9.461812019348144531e+00 7.091580629348754883e-01 -4.152593314647674561e-01 8.816961199045181274e-02 3.156560957431793213e-01
3.210000000000000000e+03 3.508221435546875000e+01 -4.863356590270996094e+00 -7.265747189521789551e-01 3.425889730453491211e+00 8.097945451736450195e-01 -4.591309130191802979e-01
3.211000000000000000e+03 2.446226692199707031e+01 6.709948539733886719e+00 7.686746716499328613e-01 6.113436222076416016e-01 4.140054881572723389e-01 3.037461312487721443e-03
3.212000000000000000e+03 2.854663276672363281e+01 5.068542957305908203e+00 7.238079309463500977e-01 1.835831165313720703e+00 7.678917646408081055e-01 -1.352215856313705444e-01
3.213000000000000000e+03 2.644820976257324219e+01 4.654860973358154297e+00 5.483446121215820312e-01 1.097815394401550293e+00 4.938479959964752197e-01 -1.263027265667915344e-02
3.214000000000000000e+03 3.464517211914062500e+01 -4.047187805175781250e+00 -6.554534435272216797e-01 3.354576587677001953e+00 8.097369074821472168e-01 -3.903555572032928467e-01
3.215000000000000000e+03 1.700387001037597656e+01 1.136004829406738281e+01 7.380124926567077637e-01 -4.781352281570434570e-01 7.796318084001541138e-02 3.291283547878265381e-01
3.216000000000000000e+03 1.647992515563964844e+01 1.044130420684814453e+01 6.620633602142333984e-01 -6.126228570938110352e-01 1.483214553445577621e-02 4.341891705989837646e-01
3.217000000000000000e+03 3.095516395568847656e+01 1.041307806968688965e+00 5.715801194310188293e-02 2.539291858673095703e+00 7.789349555969238281e-01 -9.422656893730163574e-02
3.218000000000000000e+03 1.893337821960449219e+01 1.037834930419921875e+01 8.081485033035278320e-01 -2.953633666038513184e-01 1.538355350494384766e-01 2.347699403762817383e-01
3.219000000000000000e+03 1.550809383392333984e+01 1.251556396484375000e+01 6.910447478294372559e-01 -5.468760728836059570e-01 4.325059428811073303e-02 3.671939969062805176e-01
3.220000000000000000e+03 2.188878250122070312e+01 7.537194252014160156e+00 7.378443479537963867e-01 2.610916271805763245e-02 2.291860580444335938e-01 1.409831792116165161e-01
3.221000000000000000e+03 2.778167915344238281e+01 7.540921211242675781e+00 1.060146450996398926e+00 1.704532146453857422e+00 8.294035792350769043e-01 -2.347478121519088745e-01
3.222000000000000000e+03 2.778759956359863281e+01 1.033051872253417969e+01 1.312990188598632812e+00 1.865569353103637695e+00 9.535678625106811523e-01 -4.018065333366394043e-01
3.223000000000000000e+03 2.876872253417968750e+01 6.218731403350830078e+00 9.345299601554870605e-01 1.971877098083496094e+00 8.719221353530883789e-01 -2.051565349102020264e-01
3.224000000000000000e+03 2.944854927062988281e+01 1.704095840454101562e+00 1.807549893856048584e-01 2.021276473999023438e+00 6.606094241142272949e-01 -3.958887234330177307e-02
3.225000000000000000e+03 3.179675674438476562e+01 3.219759225845336914e+00 5.491958260536193848e-01 3.023545265197753906e+00 1.071822285652160645e+00 -2.167324423789978027e-01
3.226000000000000000e+03 1.574154663085937500e+01 1.459354400634765625e+01 7.207574248313903809e-01 -3.983496427536010742e-01 9.672233462333679199e-02 2.332090735435485840e-01
3.227000000000000000e+03 2.594309425354003906e+01 5.278171539306640625e+00 6.443495750427246094e-01 9.667153954505920410e-01 4.833194911479949951e-01 -8.464972488582134247e-03
3.228000000000000000e+03 2.286404991149902344e+01 1.145574474334716797e+01 1.092793583869934082e+00 5.475878715515136719e-01 4.921144247055053711e-01 -1.414005458354949951e-01
3.229000000000000000e+03 1.518551349639892578e+01 2.139591598510742188e+01 5.054701566696166992e-01 -4.566458240151405334e-02 1.379416733980178833e-01 -8.495324850082397461e-02
3.230000000000000000e+03 2.729724121093750000e+01 1.175423717498779297e+01 1.337811470031738281e+00 1.779416799545288086e+00 9.351685047149658203e-01 -4.616349339485168457e-01
3.231000000000000000e+03 2.659943389892578125e+01 7.470723152160644531e+00 9.858772754669189453e-01 1.315937995910644531e+00 6.905446052551269531e-01 -1.619508564472198486e-01
3.232000000000000000e+03 2.652867698669433594e+01 1.660295295715332031e+01 1.182131648063659668e+00 1.828718543052673340e+00 9.032550454139709473e-01 -6.457586288452148438e-01
3.233000000000000000e+03 2.976011085510253906e+01 -3.990373992919921875e+01 2.848285734653472900e-01 7.646142970770597458e-03 8.774241805076599121e-02 -5.881647393107414246e-02
3.234000000000000000e+03 4.962368774414062500e+01 -3.404354476928710938e+01 2.375359237194061279e-01 5.678678035736083984e+00 1.774864077568054199e+00 -3.770401179790496826e-01
3.235000000000000000e+03 2.684891128540039062e+01 -4.134982681274414062e+01 2.401742190122604370e-01 -3.574817627668380737e-02 6.132781133055686951e-02 -2.309796772897243500e-02
3.236000000000000000e+03 4.807219696044921875e+01 -2.047495651245117188e+01 2.590568780899047852e+00 6.427325248718261719e+00 2.705368280410766602e+00 -9.931162595748901367e-01
3.237000000000000000e+03 2.571411132812500000e+01 6.202621936798095703e+00 7.645468115806579590e-01 9.463612437248229980e-01 5.132724046707153320e-01 -4.718434438109397888e-02
3.238000000000000000e+03 3.375614547729492188e+01 -6.310962677001953125e+00 -8.433871269226074219e-01 2.711390733718872070e+00 5.604010820388793945e-01 -2.502639591693878174e-01
3.239000000000000000e+03 1.800050926208496094e+01 1.083424854278564453e+01 7.850381135940551758e-01 -3.819720447063446045e-01 1.209198161959648132e-01 2.872731983661651611e-01
3.240000000000000000e+03 2.541287231445312500e+01 7.222348690032958984e+00 8.960596919059753418e-01 9.108355641365051270e-01 5.420686006546020508e-01 -7.577943801879882812e-02
3.241000000000000000e+03 2.374405670166015625e+01 7.171961307525634766e+00 7.883182764053344727e-01 4.433571696281433105e-01 3.695026338100433350e-01 2.553636580705642700e-02
3.242000000000000000e+03 3.372647094726562500e+01 -4.184771060943603516e+00 -6.648474931716918945e-01 3.052705049514770508e+00 7.163572311401367188e-01 -2.983363270759582520e-01
3.243000000000000000e+03 3.369855117797851562e+01 -3.099008321762084961e+00 -5.437062978744506836e-01 3.193374633789062500e+00 7.949004769325256348e-01 -2.945304214954376221e-01
3.244000000000000000e+03 2.385113525390625000e+01 9.311110496520996094e+00 1.011884331703186035e+00 6.190187335014343262e-01 4.892709255218505859e-01 -9.787195920944213867e-02
3.245000000000000000e+03 1.502937221527099609e+01 1.063555049896240234e+01 5.841944813728332520e-01 -7.209736108779907227e-01 -4.103374108672142029e-02 5.237582921981811523e-01
3.246000000000000000e+03 2.029253578186035156e+01 1.059836959838867188e+01 9.097591042518615723e-01 -4.660976305603981018e-02 2.589448094367980957e-01 9.858097136020660400e-02
3.247000000000000000e+03 2.822812080383300781e+01 3.996971368789672852e+00 5.157043933868408203e-01 1.653485178947448730e+00 6.507568955421447754e-01 -6.482288986444473267e-02
3.248000000000000000e+03 1.946395111083984375e+01 1.130866146087646484e+01 9.020950198173522949e-01 -1.174807921051979065e-01 2.353842705488204956e-01 1.332159340381622314e-01
3.249000000000000000e+03 3.678861236572265625e+01 -8.579920768737792969e+00 -9.670813679695129395e-01 3.488329410552978516e+00 7.563744187355041504e-01 -8.395575284957885742e-01
3.250000000000000000e+03 1.804257202148437500e+01 1.679994010925292969e+01 8.097488284111022949e-01 6.161653250455856323e-02 2.614096105098724365e-01 -4.679534211754798889e-02
3.251000000000000000e+03 1.502409172058105469e+01 1.567216205596923828e+01 6.736707687377929688e-01 -4.105340838432312012e-01 7.894100248813629150e-02 2.134670913219451904e-01
3.252000000000000000e+03 2.302677917480468750e+01 1.390485668182373047e+01 1.132888555526733398e+00 7.847949862480163574e-01 5.753051042556762695e-01 -2.875529825687408447e-01
3.253000000000000000e+03 2.180327987670898438e+01 1.049124908447265625e+01 9.761241078376770020e-01 2.328265160322189331e-01 3.626851737499237061e-01 -6.694747600704431534e-03
3.254000000000000000e+03 3.209655761718750000e+01 -9.584860205650329590e-01 -2.461273223161697388e-01 2.826081037521362305e+00 7.739861011505126953e-01 -1.581366062164306641e-01
3.255000000000000000e+03 2.771446418762207031e+01 6.372391700744628906e+00 9.023896455764770508e-01 1.622556447982788086e+00 7.574838399887084961e-01 -1.575542539358139038e-01
3.256000000000000000e+03 2.959654235839843750e+01 4.786209106445312500e+00 7.342752218246459961e-01 2.205449819564819336e+00 8.819175362586975098e-01 -1.667992919683456421e-01
3.257000000000000000e+03 2.264665985107421875e+01 9.205119132995605469e+00 9.366958737373352051e-01 3.183338642120361328e-01 3.765089213848114014e-01 3.101490437984466553e-03
3.258000000000000000e+03 2.588661003112792969e+01 1.486283683776855469e+01 1.228715538978576660e+00 1.541792988777160645e+00 8.311525583267211914e-01 -5.278311967849731445e-01
3.259000000000000000e+03 2.668132972717285156e+01 6.387040138244628906e+00 8.400765061378479004e-01 1.268766641616821289e+00 6.326529383659362793e-01 -1.056175008416175842e-01
3.260000000000000000e+03 2.670247459411621094e+01 5.439443588256835938e+00 7.129915952682495117e-01 1.241992950439453125e+00 5.864953994750976562e-01 -5.774023756384849548e-02
3.261000000000000000e+03 1.685193061828613281e+01 2.056519317626953125e+01 6.190217733383178711e-01 1.464179009199142456e-01 2.296319156885147095e-01 -1.460112333297729492e-01
3.262000000000000000e+03 5.051976013183593750e+01 -3.309887313842773438e+01 6.337794661521911621e-01 5.843656539916992188e+00 1.943230867385864258e+00 -6.454936861991882324e-01
3.263000000000000000e+03 2.603163146972656250e+01 1.101055812835693359e+01 1.231066703796386719e+00 1.320365428924560547e+00 7.654296755790710449e-01 -3.354076743125915527e-01
3.264000000000000000e+03 2.009941673278808594e+01 1.628956031799316406e+01 9.427111744880676270e-01 3.844902515411376953e-01 3.981604278087615967e-01 -1.878472715616226196e-01
3.265000000000000000e+03 2.401028633117675781e+01 2.462004280090332031e+01 4.564379453659057617e-01 1.661289811134338379e+00 6.353183388710021973e-01 -6.211376786231994629e-01
3.266000000000000000e+03 2.149122810363769531e+01 9.371171951293945312e+00 8.874686360359191895e-01 8.096772432327270508e-02 2.905309200286865234e-01 7.123375684022903442e-02
3.267000000000000000e+03 1.658963775634765625e+01 1.347161102294921875e+01 7.720516324043273926e-01 -3.796658813953399658e-01 1.177157163619995117e-01 2.378896027803421021e-01
3.268000000000000000e+03 2.530929756164550781e+01 1.348432922363281250e+01 1.241722702980041504e+00 1.298671960830688477e+00 7.621183991432189941e-01 -4.298070669174194336e-01
3.269000000000000000e+03 2.087056922912597656e+01 1.233986663818359375e+01 9.975401163101196289e-01 1.854570209980010986e-01 3.548991382122039795e-01 -3.553827479481697083e-02
3.270000000000000000e+03 1.707340240478515625e+01 1.798653602600097656e+01 7.367533445358276367e-01 -4.968996625393629074e-03 2.195352911949157715e-01 -4.314383119344711304e-02
3.271000000000000000e+03 1.967843055725097656e+01 2.685262298583984375e+01 2.784074842929840088e-01 9.756585359573364258e-01 3.762198090553283691e-01 -4.319393932819366455e-01
3.272000000000000000e+03 1.972152519226074219e+01 2.138936996459960938e+01 6.713060140609741211e-01 6.613692641258239746e-01 3.998025953769683838e-01 -3.491464555263519287e-01
3.273000000000000000e+03 2.636020660400390625e+01 9.887147903442382812e+00 1.180360913276672363e+00 1.339613318443298340e+00 7.559922933578491211e-01 -2.961349487304687500e-01
3.274000000000000000e+03 1.751552200317382812e+01 1.253640937805175781e+01 8.133356571197509766e-01 -3.286629021167755127e-01 1.454018354415893555e-01 2.238537818193435669e-01
3.275000000000000000e+03 2.450854110717773438e+01 1.525567245483398438e+01 1.168303370475769043e+00 1.236609458923339844e+00 7.214738130569458008e-01 -4.505953788757324219e-01
3.276000000000000000e+03 2.518780517578125000e+01 8.365698814392089844e+00 9.944468140602111816e-01 9.028517603874206543e-01 5.691896080970764160e-01 -1.365200877189636230e-01
3.277000000000000000e+03 1.684092903137207031e+01 1.565961933135986328e+01 7.819465398788452148e-01 -1.900816261768341064e-01 1.775594800710678101e-01 8.741182833909988403e-02
3.278000000000000000e+03 2.579194259643554688e+01 2.312097358703613281e+01 5.988990664482116699e-01 2.001758575439453125e+00 7.801973223686218262e-01 -7.140203714370727539e-01
3.279000000000000000e+03 2.298282051086425781e+01 1.841989517211914062e+01 9.525821805000305176e-01 1.083113551139831543e+00 6.107087135314941406e-01 -4.714032411575317383e-01
3.280000000000000000e+03 1.843052864074707031e+01 1.947402381896972656e+01 7.333125472068786621e-01 3.289028406143188477e-01 3.186646103858947754e-01 -2.037818431854248047e-01
3.281000000000000000e+03 2.479304504394531250e+01 1.697585296630859375e+01 1.088796019554138184e+00 1.441274404525756836e+00 7.590211033821105957e-01 -5.544157624244689941e-01
3.282000000000000000e+03 2.945894813537597656e+01 2.652394104003906250e+01 1.703951805830001831e-01 2.956037521362304688e+00 9.379298090934753418e-01 -7.584863901138305664e-01
3.283000000000000000e+03 2.743169975280761719e+01 2.489228630065917969e+01 4.079725444316864014e-01 2.474397182464599609e+00 8.647109270095825195e-01 -7.800341844558715820e-01
3.284000000000000000e+03 1.936477088928222656e+01 1.434670639038085938e+01 9.385939836502075195e-01 1.057565212249755859e-01 3.133051693439483643e-01 -3.326586633920669556e-02
3.285000000000000000e+03 1.849959564208984375e+01 1.186443805694580078e+01 8.560555577278137207e-01 -2.355083078145980835e-01 1.861641854047775269e-01 1.785707175731658936e-01
3.286000000000000000e+03 2.195874404907226562e+01 1.145077323913574219e+01 1.046344041824340820e+00 3.734973669052124023e-01 4.259524345397949219e-01 -7.537084072828292847e-02
3.287000000000000000e+03 2.483687973022460938e+01 1.241780090332031250e+01 1.231804251670837402e+00 1.105416893959045410e+00 7.011663317680358887e-01 -3.404524028301239014e-01
3.288000000000000000e+03 2.489169311523437500e+01 1.056915760040283203e+01 1.133779287338256836e+00 9.735333323478698730e-01 6.321938037872314453e-01 -2.336487770080566406e-01
3.289000000000000000e+03 2.553240585327148438e+01 1.190826797485351562e+01 1.251657724380493164e+00 1.260435938835144043e+00 7.536280751228332520e-01 -3.580420315265655518e-01
3.290000000000000000e+03 2.273307991027832031e+01 8.129163742065429688e+00 8.304652571678161621e-01 2.552986443042755127e-01 3.257291615009307861e-01 4.528524354100227356e-02
3.291000000000000000e+03 2.650517272949218750e+01 8.657551765441894531e+00 1.119894623756408691e+00 1.351681113243103027e+00 7.414727210998535156e-01 -2.212094515562057495e-01
3.292000000000000000e+03 2.176050186157226562e+01 1.520202541351318359e+01 1.047501802444458008e+00 5.887383222579956055e-01 4.908720254898071289e-01 -2.595889568328857422e-01
3.293000000000000000e+03 1.952485275268554688e+01 1.794956588745117188e+01 8.420274853706359863e-01 4.020263254642486572e-01 3.732161223888397217e-01 -2.214792519807815552e-01
3.294000000000000000e+03 2.077975273132324219e+01 1.360134124755859375e+01 1.020744919776916504e+00 2.808959484100341797e-01 3.904922604560852051e-01 -1.010987833142280579e-01
3.295000000000000000e+03 1.836552047729492188e+01 1.355929756164550781e+01 8.740357756614685059e-01 -1.240804120898246765e-01 2.249866127967834473e-01 9.992846101522445679e-02
3.296000000000000000e+03 2.507397460937500000e+01 9.523663520812988281e+00 1.090049743652343750e+00 9.540263414382934570e-01 6.132227778434753418e-01 -1.921056061983108521e-01
3.297000000000000000e+03 2.764616394042968750e+01 2.849060440063476562e+01 -7.777450606226921082e-03 2.562507629394531250e+00 7.664190530776977539e-01 -6.612582802772521973e-01
3.298000000000000000e+03 1.981024360656738281e+01 1.331856918334960938e+01 9.603120684623718262e-01 9.977775812149047852e-02 3.180269598960876465e-01 -1.774180494248867035e-02
3.299000000000000000e+03 2.418851661682128906e+01 1.381696128845214844e+01 1.182775139808654785e+00 1.050695657730102539e+00 6.700412631034851074e-01 -3.659113645553588867e-01
3.300000000000000000e+03 2.310547447204589844e+01 1.532964038848876953e+01 1.103291153907775879e+00 9.000641107559204102e-01 6.010065674781799316e-01 -3.578764200210571289e-01
3.301000000000000000e+03 2.277231407165527344e+01 1.035246658325195312e+01 1.009274601936340332e+00 4.372808933258056641e-01 4.339666664600372314e-01 -7.425812631845474243e-02
3.302000000000000000e+03 1.762331008911132812e+01 1.455619144439697266e+01 8.357514142990112305e-01 -1.590770483016967773e-01 2.030023187398910522e-01 9.791295230388641357e-02
3.303000000000000000e+03 1.877764511108398438e+01 1.552527713775634766e+01 8.860790133476257324e-01 1.008360832929611206e-01 2.960745394229888916e-01 -4.559675976634025574e-02
3.304000000000000000e+03 2.380258941650390625e+01 1.145799541473388672e+01 1.134369254112243652e+00 7.706919908523559570e-01 5.715183615684509277e-01 -2.095113098621368408e-01
3.305000000000000000e+03 2.051331901550292969e+01 1.488317775726318359e+01 9.833565950393676758e-01 3.414945304393768311e-01 3.974553346633911133e-01 -1.554900854825973511e-01
3.306000000000000000e+03 2.080889701843261719e+01 2.359877777099609375e+01 5.243768692016601562e-01 1.007005810737609863e+00 4.594148099422454834e-01 -4.633060693740844727e-01
3.307000000000000000e+03 2.190649223327636719e+01 1.255234050750732422e+01 1.072545409202575684e+00 4.368050694465637207e-01 4.528051316738128662e-01 -1.317701041698455811e-01
3.308000000000000000e+03 2.187088012695312500e+01 1.381651210784912109e+01 1.071049332618713379e+00 5.160622596740722656e-01 4.761334955692291260e-01 -1.976886242628097534e-01
3.309000000000000000e+03 2.154558372497558594e+01 1.672428894042968750e+01 9.700356721878051758e-01 6.541898250579833984e-01 4.872676432132720947e-01 -3.052573204040527344e-01
3.310000000000000000e+03 2.293058204650878906e+01 1.262519168853759766e+01 1.128816723823547363e+00 6.655845642089843750e-01 5.383203625679016113e-01 -2.104103714227676392e-01
3.311000000000000000e+03 2.162187194824218750e+01 2.051526260375976562e+01 7.741053104400634766e-01 9.462109804153442383e-01 5.160948634147644043e-01 -4.474373161792755127e-01
3.312000000000000000e+03 2.128082275390625000e+01 1.850583267211914062e+01 8.859879970550537109e-01 7.418876290321350098e-01 4.883626699447631836e-01 -3.512101471424102783e-01
3.313000000000000000e+03 2.562111854553222656e+01 2.681949424743652344e+01 2.320975959300994873e-01 2.132256031036376953e+00 7.093061208724975586e-01 -6.826662421226501465e-01
3.314000000000000000e+03 2.309564590454101562e+01 1.687286567687988281e+01 1.007402539253234863e+00 9.868602752685546875e-01 5.982788205146789551e-01 -4.103391468524932861e-01
3.315000000000000000e+03 2.259865188598632812e+01 -4.144533157348632812e+01 1.128397807478904724e-01 -8.860115706920623779e-02 7.271585986018180847e-03 -2.871247753500938416e-02
3.316000000000000000e+03 1.403473186492919922e+01 3.827592086791992188e+01 -1.521606445312500000e-01 2.562249898910522461e-01 3.121930174529552460e-02 -8.931460976600646973e-02
3.317000000000000000e+03 7.528125762939453125e+01 3.693580627441406250e+01 -2.391611188650131226e-01 8.575209617614746094e+00 2.500814676284790039e+00 4.981967061758041382e-02
3.318000000000000000e+03 3.669787216186523438e+01 3.162199783325195312e+01 -6.537602543830871582e-01 4.001236438751220703e+00 1.004242897033691406e+00 -3.167562484741210938e-01
3.319000000000000000e+03 2.715176391601562500e+01 3.088283920288085938e+01 -1.965020596981048584e-01 2.506805181503295898e+00 6.930909156799316406e-01 -5.931904911994934082e-01
3.320000000000000000e+03 7.237832641601562500e+01 4.123425674438476562e+01 1.458958685398101807e-01 6.097419738769531250e+00 1.872994661331176758e+00 -2.244953438639640808e-02
3.321000000000000000e+03 1.878724861145019531e+01 2.455130004882812500e+01 4.433290660381317139e-01 6.890588998794555664e-01 3.397164046764373779e-01 -3.640899062156677246e-01
3.322000000000000000e+03 2.431960105895996094e+01 3.138681602478027344e+01 -1.398183852434158325e-01 2.007056713104248047e+00 5.601714849472045898e-01 -5.080112814903259277e-01
3.323000000000000000e+03 3.843210601806640625e+01 4.068883132934570312e+01 -1.213756442070007324e+00 3.595883369445800781e+00 7.146380543708801270e-01 -3.185800835490226746e-02
3.324000000000000000e+03 3.493413543701171875e+01 3.865225219726562500e+01 -1.083604574203491211e+00 3.545420646667480469e+00 7.385448217391967773e-01 -1.471924185752868652e-01
3.325000000000000000e+03 2.965379714965820312e+01 3.684885025024414062e+01 -7.429035902023315430e-01 2.982732772827148438e+00 6.719487905502319336e-01 -3.240120708942413330e-01
3.326000000000000000e+03 2.610207939147949219e+01 3.770013046264648438e+01 -5.967355966567993164e-01 2.433405160903930664e+00 5.510008335113525391e-01 -2.501156926155090332e-01
3.327000000000000000e+03 1.785918426513671875e+01 2.243817710876464844e+01 5.377513766288757324e-01 4.076710045337677002e-01 2.836267352104187012e-01 -2.612882852554321289e-01
3.328000000000000000e+03 2.513241958618164062e+01 3.455857086181640625e+01 -4.020165205001831055e-01 2.224525451660156250e+00 5.467526912689208984e-01 -4.001943171024322510e-01
3.329000000000000000e+03 2.169564247131347656e+01 3.517377471923828125e+01 -2.850685715675354004e-01 1.617963075637817383e+00 3.998683691024780273e-01 -3.192539513111114502e-01
3.330000000000000000e+03 3.255534744262695312e+01 3.541953277587890625e+01 -7.957918643951416016e-01 3.388484954833984375e+00 7.778079509735107422e-01 -3.467859327793121338e-01
3.331000000000000000e+03 2.119962501525878906e+01 3.218908309936523438e+01 -1.103177219629287720e-01 1.433521270751953125e+00 3.969610631465911865e-01 -4.040800034999847412e-01
3.332000000000000000e+03 1.766366958618164062e+01 4.118239593505859375e+01 -2.774607837200164795e-01 9.426595568656921387e-01 1.995596438646316528e-01 -4.275717958807945251e-02
3.333000000000000000e+03 2.051955986022949219e+01 2.938634872436523438e+01 9.196407347917556763e-02 1.223738670349121094e+00 3.947108089923858643e-01 -4.338134229183197021e-01
3.334000000000000000e+03 2.938076019287109375e+01 3.014220428466796875e+01 -2.165538668632507324e-01 2.963689804077148438e+00 8.241407871246337891e-01 -6.329616904258728027e-01
3.335000000000000000e+03 2.192808341979980469e+01 -1.262598800659179688e+01 -4.629410686902701855e-04 -1.746451598592102528e-04 -1.912758743856102228e-04 -3.488044312689453363e-04
3.336000000000000000e+03 9.197212219238281250e+00 -1.904609322547912598e+00 -1.618259848328307271e-04 -6.824052543379366398e-04 -2.532693615648895502e-04 -1.014189838315360248e-04
3.337000000000000000e+03 4.033189392089843750e+01 -2.044839096069335938e+01 1.253583192825317383e+00 8.022751212120056152e-01 6.167575120925903320e-01 -9.837909936904907227e-01
3.338000000000000000e+03 4.175902938842773438e+01 -2.032775306701660156e+01 4.121105194091796875e+00 2.239455461502075195e+00 1.908168196678161621e+00 -3.585596561431884766e+00
3.339000000000000000e+03 4.212824249267578125e+01 -2.014488220214843750e+01 4.515571117401123047e+00 4.115792274475097656e+00 2.589409112930297852e+00 -4.969820499420166016e+00
3.340000000000000000e+03 4.231407928466796875e+01 -2.006420135498046875e+01 4.304327964782714844e+00 5.862000942230224609e+00 3.049898624420166016e+00 -5.739221572875976562e+00
3.341000000000000000e+03 4.353104019165039062e+01 -1.982489776611328125e+01 1.662928819656372070e+00 1.458451747894287109e+01 4.874233722686767578e+00 -4.153659343719482422e+00
3.342000000000000000e+03 4.417118072509765625e+01 -1.938679122924804688e+01 9.635384082794189453e-01 1.332344245910644531e+01 4.286094188690185547e+00 -1.814303755760192871e+00
3.343000000000000000e+03 4.486579895019531250e+01 -2.025276756286621094e+01 4.676134586334228516e+00 1.315653324127197266e+01 5.349800586700439453e+00 2.426526993513107300e-01
3.344000000000000000e+03 4.533449935913085938e+01 -2.040720939636230469e+01 4.946438312530517578e+00 1.124618530273437500e+01 4.857787132263183594e+00 -9.167426824569702148e-02
3.345000000000000000e+03 4.524798202514648438e+01 -2.068342781066894531e+01 6.003558158874511719e+00 1.128180980682373047e+01 5.185610294342041016e+00 -3.714953362941741943e-01
3.346000000000000000e+03 4.531428909301757812e+01 -2.113912010192871094e+01 6.918147563934326172e+00 1.087179088592529297e+01 5.336981296539306641e+00 -1.355433702468872070e+00
3.347000000000000000e+03 4.527401351928710938e+01 -2.159893417358398438e+01 7.063362121582031250e+00 1.110473537445068359e+01 5.450429439544677734e+00 -2.749133825302124023e+00
3.348000000000000000e+03 4.520756912231445312e+01 -2.243858146667480469e+01 4.397443771362304688e+00 1.215293979644775391e+01 4.965115070343017578e+00 -3.819805383682250977e+00
3.349000000000000000e+03 4.351486587524414062e+01 -2.327313041687011719e+01 -1.137663125991821289e+00 1.311610698699951172e+01 3.593533277511596680e+00 1.297012805938720703e+00
3.350000000000000000e+03 4.326321792602539062e+01 -2.319864463806152344e+01 -7.576235532760620117e-01 1.203275203704833984e+01 3.382538557052612305e+00 2.342133283615112305e+00
3.351000000000000000e+03 4.252315902709960938e+01 -2.372014617919921875e+01 -4.437592327594757080e-01 6.832763195037841797e+00 1.916701078414916992e+00 1.650771498680114746e+00
3.352000000000000000e+03 4.278193283081054688e+01 -2.378149032592773438e+01 -5.095083713531494141e-01 8.114026069641113281e+00 2.281355142593383789e+00 1.979927420616149902e+00
3.353000000000000000e+03 4.220460510253906250e+01 -2.366322326660156250e+01 1.986147314310073853e-01 4.248670578002929688e+00 1.334185600280761719e+00 1.677699208259582520e+00
3.354000000000000000e+03 5.552863311767578125e+01 -1.704115676879882812e+01 -6.074099540710449219e+00 -2.054236173629760742e+00 -2.438500642776489258e+00 1.947038412094116211e+00
3.355000000000000000e+03 2.135669708251953125e+01 -1.394233894348144531e+01 1.908535923575982451e-04 -3.240892256144434214e-04 -3.997068415628746152e-05 1.098409666155930609e-05
3.356000000000000000e+03 5.454862976074218750e+01 -2.815631294250488281e+01 1.585864305496215820e+00 5.556092739105224609e+00 2.142587184906005859e+00 -1.255033165216445923e-01
3.357000000000000000e+03 7.004116535186767578e+00 -1.965264129638671875e+01 -4.331489093601703644e-03 -2.498657850082963705e-04 -1.374406507238745689e-03 -1.858080031524877995e-05
3.358000000000000000e+03 2.233868408203125000e+01 -3.278595733642578125e+01 -9.556397050619125366e-02 -1.269788108766078949e-02 -3.247855603694915771e-02 -4.108907654881477356e-02
3.359000000000000000e+03 3.902659225463867188e+01 -3.610310745239257812e+01 -3.925039619207382202e-02 2.237861871719360352e+00 6.595834493637084961e-01 1.059295654296875000e+00
3.360000000000000000e+03 5.861894989013671875e+01 -3.679201126098632812e+01 1.778263598680496216e-01 2.088987350463867188e+00 6.800440549850463867e-01 -1.289373636245727539e+00
3.361000000000000000e+03 3.961088562011718750e+01 -3.464270401000976562e+01 3.994917869567871094e-02 2.684057712554931641e+00 8.172020912170410156e-01 1.453780055046081543e+00
3.362000000000000000e+03 4.192488861083984375e+01 -1.972796630859375000e+01 3.423636198043823242e+00 4.610694885253906250e+00 2.410299301147460938e+00 -4.766218662261962891e+00
3.363000000000000000e+03 4.167191314697265625e+01 -1.934420967102050781e+01 2.632254123687744141e+00 4.374290943145751953e+00 2.101963520050048828e+00 -4.280083179473876953e+00
3.364000000000000000e+03 4.343593597412109375e+01 -1.944111442565917969e+01 1.136292695999145508e+00 1.267741870880126953e+01 4.144113540649414062e+00 -4.160413265228271484e+00
3.365000000000000000e+03 5.593121337890625000e+01 -3.635509872436523438e+01 -1.799892038106918335e-01 4.387180328369140625e+00 1.262157320976257324e+00 -1.195943713188171387e+00
3.366000000000000000e+03 2.371893644332885742e+00 3.635664939880371094e+00 -9.250309318304061890e-02 -1.542458832263946533e-01 -7.402469217777252197e-02 1.628092676401138306e-01
3.367000000000000000e+03 4.366742324829101562e+01 -1.955506896972656250e+01 1.295688986778259277e+00 1.380544567108154297e+01 4.530340194702148438e+00 -3.435677051544189453e+00
3.368000000000000000e+03 4.448364257812500000e+01 -2.368914031982421875e+01 -3.845251798629760742e-01 1.303785514831542969e+01 3.795998811721801758e+00 -1.221876502037048340e+00
3.369000000000000000e+03 4.504585266113281250e+01 -2.321062278747558594e+01 1.505432128906250000e+00 1.289471054077148438e+01 4.320042610168457031e+00 -2.885479688644409180e+00
3.370000000000000000e+03 7.338609313964843750e+01 -2.862739944458007812e+01 1.095947146415710449e+00 8.649394035339355469e+00 2.923602342605590820e+00 1.015838235616683960e-01
3.371000000000000000e+03 4.537315368652343750e+01 -2.267523002624511719e+01 3.381866693496704102e+00 1.167966365814208984e+01 4.518458843231201172e+00 -3.644040107727050781e+00
3.372000000000000000e+03 4.467959594726562500e+01 -1.930563163757324219e+01 1.322586894035339355e+00 1.255621433258056641e+01 4.163640499114990234e+00 -7.122913599014282227e-01
3.373000000000000000e+03 2.600517654418945312e+01 -8.348211288452148438e+00 -1.312071561813354492e+00 -3.260345458984375000e-01 -4.914318323135375977e-01 1.016535043716430664e+00
3.374000000000000000e+03 3.257898330688476562e+00 3.695189666748046875e+01 2.000078558921813965e-02 -1.639136314392089844e+00 -4.857406318187713623e-01 -7.309796661138534546e-02
3.375000000000000000e+03 4.507568740844726562e+01 -2.017674636840820312e+01 4.224105834960937500e+00 1.218366050720214844e+01 4.922329902648925781e+00 1.197837740182876587e-01
3.376000000000000000e+03 4.503390121459960938e+01 -1.998765182495117188e+01 3.553262710571289062e+00 1.228875350952148438e+01 4.752604961395263672e+00 1.369860917329788208e-01
3.377000000000000000e+03 4.506605148315429688e+01 -1.977032089233398438e+01 2.843893766403198242e+00 1.216212940216064453e+01 4.501806735992431641e+00 2.567701600492000580e-02
3.378000000000000000e+03 4.570249176025390625e+01 -2.260544586181640625e+01 3.820941209793090820e+00 1.077306270599365234e+01 4.378201484680175781e+00 -3.469834089279174805e+00
3.379000000000000000e+03 4.607958984375000000e+01 -2.245202445983886719e+01 4.068884372711181641e+00 9.763307571411132812e+00 4.149657249450683594e+00 -3.255731582641601562e+00
3.380000000000000000e+03 3.933960342407226562e+01 -1.922530555725097656e+01 1.363535761833190918e+00 1.416276335716247559e+00 8.339436650276184082e-01 -1.398184061050415039e+00
3.381000000000000000e+03 5.212385177612304688e+00 -2.876293182373046875e+01 3.646878292784094810e-03 -2.835705643519759178e-03 2.433517656754702330e-04 -2.998865908011794090e-03
3.382000000000000000e+03 5.358501434326171875e+01 -2.824196624755859375e+01 1.944548010826110840e+00 5.341617584228515625e+00 2.185849666595458984e+00 -8.388795256614685059e-01
3.383000000000000000e+03 5.391832733154296875e+01 -2.925503730773925781e+01 1.873814225196838379e+00 5.399859428405761719e+00 2.182101964950561523e+00 -6.824196577072143555e-01
3.384000000000000000e+03 5.975408554077148438e+01 -1.959837341308593750e+01 -7.146419286727905273e-01 1.587201237678527832e+00 2.617677748203277588e-01 2.525074958801269531e+00
3.385000000000000000e+03 4.709018325805664062e+01 3.465754318237304688e+01 -6.792819499969482422e-01 2.603676557540893555e+00 5.773183703422546387e-01 5.183293819427490234e-01
3.386000000000000000e+03 1.482047462463378906e+01 -3.375938415527343750e+01 -1.699168793857097626e-02 -1.011891290545463562e-02 -8.133180439472198486e-03 -1.527131441980600357e-02
3.387000000000000000e+03 4.058754348754882812e+01 -1.870653343200683594e+01 1.724864840507507324e+00 2.968756437301635742e+00 1.408086419105529785e+00 -2.937908411026000977e+00
3.388000000000000000e+03 3.283911514282226562e+01 -3.505929565429687500e+01 -1.283189505338668823e-01 1.927751004695892334e-01 1.933684758841991425e-02 -9.736033529043197632e-02
3.389000000000000000e+03 4.309220123291015625e+01 -1.853639411926269531e+01 1.730708479881286621e-01 9.650316238403320312e+00 2.947016239166259766e+00 -3.892109870910644531e+00
3.390000000000000000e+03 4.133618164062500000e+01 -1.941267395019531250e+01 2.655480861663818359e+00 3.243810415267944336e+00 1.769787430763244629e+00 -3.636375427246093750e+00
3.391000000000000000e+03 7.620372772216796875e+01 -2.189109039306640625e+01 -4.280110895633697510e-01 7.461025714874267578e+00 2.109904289245605469e+00 8.464000225067138672e-01
3.392000000000000000e+03 4.561016082763671875e+01 -1.997958183288574219e+01 3.666177034378051758e+00 1.062460136413574219e+01 4.287233352661132812e+00 3.864138945937156677e-02
3.393000000000000000e+03 4.514113235473632812e+01 -1.946203804016113281e+01 2.051670551300048828e+00 1.175611495971679688e+01 4.142335414886474609e+00 -1.184507831931114197e-01
3.394000000000000000e+03 4.969944381713867188e+01 -3.208528137207031250e+01 9.728699326515197754e-01 5.757530689239501953e+00 2.019120216369628906e+00 -7.039523720741271973e-01
3.395000000000000000e+03 4.540298461914062500e+01 -2.328330230712890625e+01 1.964213728904724121e+00 1.166941165924072266e+01 4.090087890625000000e+00 -3.161192655563354492e+00
3.396000000000000000e+03 1.946947097778320312e+01 -3.447554016113281250e+01 -2.305328845977783203e-02 -1.726734265685081482e-02 -1.209618896245956421e-02 -5.158329755067825317e-02
3.397000000000000000e+03 4.558404541015625000e+01 -1.920114707946777344e+01 1.529934883117675781e+00 1.056854152679443359e+01 3.629542827606201172e+00 -3.265768289566040039e-02
3.398000000000000000e+03 2.624894142150878906e+01 -7.286103248596191406e+00 -1.302152872085571289e+00 -7.342354208230972290e-02 -4.126729369163513184e-01 8.977068662643432617e-01
3.399000000000000000e+03 7.515836334228515625e+01 -2.911940574645996094e+01 6.652053594589233398e-01 7.440427780151367188e+00 2.431689977645874023e+00 -1.065987125039100647e-01
3.400000000000000000e+03 6.047710418701171875e+01 -1.898402404785156250e+01 -1.087381362915039062e+00 1.818381786346435547e+00 2.193001061677932739e-01 2.463265895843505859e+00
3.401000000000000000e+03 4.673356628417968750e+01 -2.263311958312988281e+01 3.467492103576660156e+00 8.571290969848632812e+00 3.611634969711303711e+00 -2.881023168563842773e+00
3.402000000000000000e+03 4.576398086547851562e+01 -2.162998962402343750e+01 5.790346145629882812e+00 9.938521385192871094e+00 4.718660354614257812e+00 -2.466273784637451172e+00
3.403000000000000000e+03 4.640019226074218750e+01 -2.013586616516113281e+01 3.540872335433959961e+00 8.804828643798828125e+00 3.703710317611694336e+00 -3.084313571453094482e-01
3.404000000000000000e+03 4.571573638916015625e+01 -1.973835182189941406e+01 2.814465761184692383e+00 1.025401210784912109e+01 3.920543432235717773e+00 7.501132041215896606e-02
3.405000000000000000e+03 4.546956253051757812e+01 -1.976203346252441406e+01 2.909653663635253906e+00 1.106303310394287109e+01 4.191805839538574219e+00 3.773268684744834900e-02
3.406000000000000000e+03 4.998609924316406250e+01 -2.823735237121582031e+01 1.697026371955871582e+00 5.881712913513183594e+00 2.273621797561645508e+00 -1.456550836563110352e+00
3.407000000000000000e+03 4.704761505126953125e+01 -2.879734802246093750e+01 1.094467997550964355e+00 7.008460044860839844e+00 2.430878400802612305e+00 -9.020774364471435547e-01
3.408000000000000000e+03 4.552835083007812500e+01 -2.178918266296386719e+01 6.178771018981933594e+00 1.057821464538574219e+01 5.027095794677734375e+00 -2.933229684829711914e+00
3.409000000000000000e+03 4.553376007080078125e+01 -2.159618949890136719e+01 6.335348129272460938e+00 1.048295116424560547e+01 5.045489788055419922e+00 -2.538867235183715820e+00
3.410000000000000000e+03 7.749268341064453125e+01 -2.214103317260742188e+01 -2.235116958618164062e-01 7.317686557769775391e+00 2.128252506256103516e+00 7.447406053543090820e-01
3.411000000000000000e+03 1.697706222534179688e+01 -9.638820648193359375e+00 8.359186467714607716e-04 3.897486603818833828e-04 3.677002096083015203e-04 7.979994406923651695e-04
3.412000000000000000e+03 7.543258666992187500e+01 -3.611042404174804688e+01 -3.497479259967803955e-01 6.645153522491455078e+00 1.888621807098388672e+00 -1.752620190382003784e-01
3.413000000000000000e+03 7.623313140869140625e+01 -1.962403678894042969e+01 -5.835672616958618164e-01 7.410704135894775391e+00 2.048141002655029297e+00 2.603603303432464600e-01
3.414000000000000000e+03 7.194830322265625000e+01 2.904593086242675781e+01 -4.333936572074890137e-01 6.552673816680908203e+00 1.835784077644348145e+00 6.501386165618896484e-01
3.415000000000000000e+03 9.812574386596679688e+00 -1.226135253906250000e+01 2.374605828663334250e-04 4.842155030928552151e-04 2.165028272429481149e-04 1.354395761154592037e-03
3.416000000000000000e+03 1.790865707397460938e+01 -9.582295417785644531e+00 7.509516435675323009e-04 1.150216121459379792e-04 2.597919665277004242e-04 3.001943405251950026e-04
3.417000000000000000e+03 4.615917682647705078e+00 -1.918803024291992188e+01 -2.460732124745845795e-03 -1.246980275027453899e-03 -1.112313708290457726e-03 4.874104342889040709e-04
3.418000000000000000e+03 4.583840179443359375e+01 -2.341034507751464844e+01 2.122499704360961914e+00 1.064313220977783203e+01 3.829689502716064453e+00 -3.050507783889770508e+00
3.419000000000000000e+03 7.652568817138671875e+01 -2.059830856323242188e+01 -5.151684284210205078e-01 7.423012256622314453e+00 2.072353124618530273e+00 5.199719071388244629e-01
3.420000000000000000e+03 4.563767623901367188e+01 -2.116169357299804688e+01 6.217300415039062500e+00 1.013120746612548828e+01 4.904552459716796875e+00 -1.453313827514648438e+00
3.421000000000000000e+03 4.837833786010742188e+01 -2.772797203063964844e+01 1.421737313270568848e+00 6.630928993225097656e+00 2.415799856185913086e+00 -1.353366136550903320e+00
3.422000000000000000e+03 4.102514266967773438e+01 -1.824258804321289062e+01 1.191746830940246582e+00 4.019666194915771484e+00 1.563423991203308105e+00 -3.274875879287719727e+00
3.423000000000000000e+03 4.457638168334960938e+01 -2.432944107055664062e+01 -4.795702397823333740e-01 1.202683830261230469e+01 3.464180231094360352e+00 -6.182395219802856445e-01
3.424000000000000000e+03 4.619215393066406250e+01 -2.399304962158203125e+01 1.529231071472167969e+00 9.959781646728515625e+00 3.446703910827636719e+00 -2.552384614944458008e+00
3.425000000000000000e+03 4.604528427124023438e+01 -2.108298683166503906e+01 5.267122268676757812e+00 9.188610076904296875e+00 4.336719512939453125e+00 -1.378957390785217285e+00
3.426000000000000000e+03 4.609795761108398438e+01 -2.066735649108886719e+01 4.673212528228759766e+00 9.189222335815429688e+00 4.158730506896972656e+00 -7.330344319343566895e-01
3.427000000000000000e+03 4.686082458496093750e+01 -2.005013847351074219e+01 2.936348676681518555e+00 8.050482749938964844e+00 3.296049356460571289e+00 -4.156365692615509033e-01
3.428000000000000000e+03 4.637287902832031250e+01 -1.976737403869628906e+01 2.683136224746704102e+00 8.998376846313476562e+00 3.504453897476196289e+00 -9.062753617763519287e-02
3.429000000000000000e+03 4.273883819580078125e+01 -1.778172874450683594e+01 -2.346254885196685791e-01 8.263924598693847656e+00 2.408789634704589844e+00 -3.654966592788696289e+00
3.430000000000000000e+03 4.109295654296875000e+01 -1.589427185058593750e+01 -7.754453420639038086e-01 5.324141502380371094e+00 1.364608764648437500e+00 -2.752321243286132812e+00
3.431000000000000000e+03 6.349546432495117188e+01 -1.768224143981933594e+01 -7.860510945320129395e-01 2.184270143508911133e+00 4.194657206535339355e-01 2.118463754653930664e+00
3.432000000000000000e+03 4.740193176269531250e+01 -1.489834690093994141e+01 -2.305368900299072266e+00 6.978744029998779297e+00 1.402012586593627930e+00 1.501528173685073853e-01
3.433000000000000000e+03 5.816406250000000000e+00 -7.268304347991943359e+00 -9.452787344343960285e-04 8.686315850354731083e-04 -2.299413608852773905e-05 5.133075756020843983e-04
3.434000000000000000e+03 3.814430618286132812e+01 2.723236465454101562e+01 -1.489078104496002197e-01 4.555218219757080078e+00 1.321893095970153809e+00 -2.164988070726394653e-01
3.435000000000000000e+03 4.670880508422851562e+01 -2.580606651306152344e+01 1.008828282356262207e+00 8.593955039978027344e+00 2.880834817886352539e+00 -1.579409003257751465e+00
3.436000000000000000e+03 1.741825866699218750e+01 -9.995136260986328125e+00 -3.741157124750316143e-04 -5.915804067626595497e-04 -2.897088415920734406e-04 -4.203377466183155775e-04
3.437000000000000000e+03 3.904864501953125000e+01 2.507335472106933594e+01 1.462164223194122314e-01 5.072696685791015625e+00 1.565673828125000000e+00 -1.250677648931741714e-02
3.438000000000000000e+03 4.558393478393554688e+01 -2.527531242370605469e+01 3.648447692394256592e-01 1.001147937774658203e+01 3.112897396087646484e+00 -1.062509894371032715e+00
3.439000000000000000e+03 4.597187805175781250e+01 -2.528708839416503906e+01 5.927261710166931152e-01 9.543847084045410156e+00 3.040971994400024414e+00 -1.416104197502136230e+00
3.440000000000000000e+03 4.630368423461914062e+01 -2.093168449401855469e+01 4.761186599731445312e+00 8.737168312072753906e+00 4.049506187438964844e+00 -1.197873830795288086e+00
3.441000000000000000e+03 4.643807983398437500e+01 -2.119733047485351562e+01 4.738166332244873047e+00 8.536371231079101562e+00 3.982361078262329102e+00 -1.549145698547363281e+00
3.442000000000000000e+03 4.673860931396484375e+01 -2.110458755493164062e+01 4.245445251464843750e+00 8.111225128173828125e+00 3.707001209259033203e+00 -1.442672133445739746e+00
3.443000000000000000e+03 1.266224384307861328e+01 4.865109920501708984e+00 -2.442224323749542236e-01 -1.052931189537048340e+00 -3.891460895538330078e-01 9.817506670951843262e-01
3.444000000000000000e+03 5.426319122314453125e+00 3.005108261108398438e+01 2.385988831520080566e-02 -1.272014260292053223e+00 -3.744463324546813965e-01 -4.267112538218498230e-02
3.445000000000000000e+03 2.604071044921875000e+01 -4.828254699707031250e+00 -1.154341578483581543e+00 1.770826876163482666e-01 -2.931776642799377441e-01 6.840282082557678223e-01
3.446000000000000000e+03 4.666090393066406250e+01 -1.930492019653320312e+01 1.772316217422485352e+00 8.603859901428222656e+00 3.112852811813354492e+00 -3.759786114096641541e-02
3.447000000000000000e+03 4.715050125122070312e+01 -1.957997512817382812e+01 2.083373785018920898e+00 7.769899368286132812e+00 2.955981969833374023e+00 -2.471479028463363647e-01
3.448000000000000000e+03 1.209211826324462891e+01 5.269789695739746094e+00 -1.853191554546356201e-01 -1.013136625289916992e+00 -3.595367372035980225e-01 9.660467505455017090e-01
3.449000000000000000e+03 4.739691925048828125e+01 -2.211742210388183594e+01 3.567565917968750000e+00 7.405603408813476562e+00 3.291950702667236328e+00 -2.312289237976074219e+00
3.450000000000000000e+03 4.605071640014648438e+01 -2.489604187011718750e+01 7.753516435623168945e-01 9.801015853881835938e+00 3.172910213470458984e+00 -1.775915145874023438e+00
3.451000000000000000e+03 4.711286926269531250e+01 -2.239100456237792969e+01 3.634253740310668945e+00 7.921195030212402344e+00 3.466634511947631836e+00 -2.568996429443359375e+00
3.452000000000000000e+03 7.415513610839843750e+01 -9.652111530303955078e-01 6.683104038238525391e-01 8.596089363098144531e+00 2.779320001602172852e+00 6.965958327054977417e-02
3.453000000000000000e+03 6.234214782714843750e+00 -1.055377388000488281e+01 -2.063165884464979172e-03 -9.045205661095678806e-05 -6.460854201577603817e-04 -7.327541825361549854e-04
3.454000000000000000e+03 8.241938591003417969e+00 -1.058970832824707031e+01 -1.622214796952903271e-03 1.148448282037861645e-04 -4.522110102698206902e-04 -6.480418960563838482e-04
3.455000000000000000e+03 4.738561630249023438e+01 -2.138985824584960938e+01 3.707365274429321289e+00 7.232813358306884766e+00 3.282053709030151367e+00 -1.668378353118896484e+00
3.456000000000000000e+03 4.702535247802734375e+01 -2.160110473632812500e+01 4.121092796325683594e+00 7.767584323883056641e+00 3.566603183746337891e+00 -1.981061816215515137e+00
3.457000000000000000e+03 3.701070404052734375e+01 -1.240226936340332031e+01 -8.573804497718811035e-01 2.753033876419067383e+00 5.686960220336914062e-01 -1.179914832115173340e+00
3.458000000000000000e+03 2.523793029785156250e+01 -2.804690361022949219e+00 -9.401944875717163086e-01 1.043442785739898682e-01 -2.507550716400146484e-01 5.701814889907836914e-01
3.459000000000000000e+03 4.655472564697265625e+01 -2.147594070434570312e+01 4.573982238769531250e+00 8.389263153076171875e+00 3.888973712921142578e+00 -1.993982434272766113e+00
3.460000000000000000e+03 4.654854965209960938e+01 -2.506162261962890625e+01 1.072875499725341797e+00 8.952693939208984375e+00 3.007670879364013672e+00 -1.885790824890136719e+00
3.461000000000000000e+03 4.765050506591796875e+01 -1.981939315795898438e+01 2.158606290817260742e+00 7.065912246704101562e+00 2.767355442047119141e+00 -4.756806790828704834e-01
3.462000000000000000e+03 4.743992996215820312e+01 -1.910716629028320312e+01 1.229174733161926270e+00 7.513175487518310547e+00 2.622704982757568359e+00 -1.627235412597656250e-01
3.463000000000000000e+03 4.833942031860351562e+01 -2.086089324951171875e+01 2.738240003585815430e+00 6.092462539672851562e+00 2.649210929870605469e+00 -1.201444864273071289e+00
3.464000000000000000e+03 4.615609741210937500e+01 -1.915108489990234375e+01 1.519561290740966797e+00 9.471565246582031250e+00 3.297338008880615234e+00 2.807664312422275543e-02
3.465000000000000000e+03 7.337983608245849609e+00 -9.536979675292968750e+00 -2.335344441235065460e-03 -2.570557408034801483e-04 -7.777200662530958652e-04 -7.341351592913269997e-04
3.466000000000000000e+03 1.489058017730712891e+01 -7.564036846160888672e+00 -4.640154074877500534e-04 -3.593752044253051281e-04 -2.470171893946826458e-04 8.926185546442866325e-04
3.467000000000000000e+03 1.449996948242187500e+01 -7.244580745697021484e+00 8.318875334225594997e-04 2.406980929663404822e-04 3.217757039237767458e-04 -9.648833074606955051e-04
3.468000000000000000e+03 4.809404754638671875e+01 -2.345394897460937500e+01 2.562127113342285156e+00 6.915417194366455078e+00 2.843263149261474609e+00 -2.488194942474365234e+00
3.469000000000000000e+03 3.680659484863281250e+01 2.039225387573242188e+01 7.454982995986938477e-01 5.400041103363037109e+00 1.843661785125732422e+00 -4.813771843910217285e-01
3.470000000000000000e+03 7.444338226318359375e+01 -8.001583099365234375e+00 1.100949048995971680e-01 6.929608345031738281e+00 2.111911058425903320e+00 -4.684188067913055420e-01
3.471000000000000000e+03 4.750958251953125000e+01 -2.177739143371582031e+01 3.539753198623657227e+00 7.114217758178710938e+00 3.196191310882568359e+00 -1.970786809921264648e+00
3.472000000000000000e+03 4.229637145996093750e+01 -1.701307868957519531e+01 -5.907338857650756836e-01 7.010483741760253906e+00 1.925924897193908691e+00 -3.252723932266235352e+00
3.473000000000000000e+03 3.759711074829101562e+01 7.627583026885986328e+00 1.640161275863647461e+00 6.243984222412109375e+00 2.365243673324584961e+00 -7.934016585350036621e-01
3.474000000000000000e+03 3.860279464721679688e+01 7.543464660644531250e+00 1.643773794174194336e+00 6.962566852569580078e+00 2.581902265548706055e+00 -9.325743317604064941e-01
3.475000000000000000e+03 7.457202911376953125e+01 2.210134696960449219e+01 1.461874246597290039e-01 8.480743408203125000e+00 2.588079214096069336e+00 7.993288636207580566e-01
3.476000000000000000e+03 7.497199249267578125e+01 1.211084938049316406e+01 -1.924353837966918945e-01 8.556898117065429688e+00 2.509338617324829102e+00 8.255258202552795410e-01
3.477000000000000000e+03 9.788846969604492188e+00 -5.770957469940185547e+00 1.758567232172936201e-04 2.161625307053327560e-04 1.176057776319794357e-04 -1.012285007163882256e-03
3.478000000000000000e+03 4.789025878906250000e+01 -2.416586303710937500e+01 2.155415534973144531e+00 7.331860065460205078e+00 2.846182584762573242e+00 -2.477540254592895508e+00
3.479000000000000000e+03 4.628613281250000000e+01 -1.428693389892578125e+01 -2.419281244277954102e+00 7.319567680358886719e+00 1.470085859298706055e+00 -3.067967891693115234e-01
3.480000000000000000e+03 2.651354789733886719e+01 -2.321004867553710938e+00 -7.616267800331115723e-01 6.239516735076904297e-01 -4.130253195762634277e-02 4.110940992832183838e-01
3.481000000000000000e+03 4.575787067413330078e+00 7.630745887756347656e+00 -2.516509965062141418e-02 -6.692914962768554688e-01 -2.083369791507720947e-01 5.397607684135437012e-01
3.482000000000000000e+03 4.783668136596679688e+01 -1.938495063781738281e+01 1.545844912528991699e+00 6.956591606140136719e+00 2.550730943679809570e+00 -3.528070747852325439e-01
3.483000000000000000e+03 4.820583724975585938e+01 -1.987029266357421875e+01 1.958628654479980469e+00 6.311193466186523438e+00 2.480946540832519531e+00 -6.545345783233642578e-01
3.484000000000000000e+03 2.963925552368164062e+01 -7.178384304046630859e+00 -1.026430130004882812e+00 1.167914152145385742e+00 4.244518652558326721e-02 4.303702712059020996e-01
3.485000000000000000e+03 2.903957939147949219e+01 -6.159552097320556641e+00 -1.014242768287658691e+00 1.117447853088378906e+00 3.096150606870651245e-02 4.328348338603973389e-01
3.486000000000000000e+03 2.850452232360839844e+01 -5.028764247894287109e+00 -9.689467549324035645e-01 1.066627383232116699e+00 2.930418029427528381e-02 4.162681102752685547e-01
3.487000000000000000e+03 4.740809631347656250e+01 -2.436095046997070312e+01 1.930944681167602539e+00 8.089033126831054688e+00 3.005993127822875977e+00 -2.360459327697753906e+00
3.488000000000000000e+03 4.382261657714843750e+01 -1.556587028503417969e+01 -1.903625965118408203e+00 7.983356952667236328e+00 1.823919296264648438e+00 -1.821412205696105957e+00
3.489000000000000000e+03 7.132525920867919922e+00 6.339159488677978516e+00 -1.556206792593002319e-01 -6.500707864761352539e-01 -2.417074292898178101e-01 7.743856906890869141e-01
3.490000000000000000e+03 4.468228530883789062e+01 -1.548861598968505859e+01 -2.095092535018920898e+00 8.269340515136718750e+00 1.852274298667907715e+00 -1.271985173225402832e+00
3.491000000000000000e+03 2.996027183532714844e+01 -6.199730396270751953e+00 -9.545094370841979980e-01 1.446851491928100586e+00 1.477026045322418213e-01 3.140439987182617188e-01
3.492000000000000000e+03 4.809050369262695312e+01 -1.922717475891113281e+01 1.170826315879821777e+00 6.596865177154541016e+00 2.330307483673095703e+00 -2.519327402114868164e-01
3.493000000000000000e+03 6.925535678863525391e+00 7.561305046081542969e+00 -3.533504530787467957e-02 -7.347286939620971680e-01 -2.310191243886947632e-01 7.409607768058776855e-01
3.494000000000000000e+03 2.937790107727050781e+01 -5.204472064971923828e+00 -9.236482381820678711e-01 1.358951568603515625e+00 1.305910050868988037e-01 3.219822943210601807e-01
3.495000000000000000e+03 3.467346191406250000e+01 1.885779762268066406e+01 1.081427335739135742e+00 4.726904392242431641e+00 1.742499470710754395e+00 -8.059256672859191895e-01
3.496000000000000000e+03 4.828765106201171875e+01 -1.952613449096679688e+01 1.448005795478820801e+00 6.336174964904785156e+00 2.335254192352294922e+00 -4.799640774726867676e-01
3.497000000000000000e+03 4.797291183471679688e+01 -1.965630340576171875e+01 1.916327357292175293e+00 6.734816551208496094e+00 2.595343112945556641e+00 -3.905448615550994873e-01
3.498000000000000000e+03 6.528687953948974609e+00 8.476037025451660156e+00 1.490299869328737259e-02 -7.761033773422241211e-01 -2.283601164817810059e-01 7.006496787071228027e-01
3.499000000000000000e+03 4.316843414306640625e+01 -1.503623771667480469e+01 -1.852542519569396973e+00 7.322496414184570312e+00 1.640986204147338867e+00 -2.035933256149291992e+00
3.500000000000000000e+03 4.024528503417968750e+01 -1.017285346984863281e+01 -1.346077680587768555e+00 4.821949005126953125e+00 1.042761445045471191e+00 -1.381857275962829590e+00
3.501000000000000000e+03 7.394304275512695312e+00 9.663055419921875000e+00 1.052135080099105835e-01 -8.580824136734008789e-01 -2.258606702089309692e-01 7.102844119071960449e-01
3.502000000000000000e+03 4.885641479492187500e+01 -2.053446578979492188e+01 2.117489576339721680e+00 5.583378791809082031e+00 2.310260534286499023e+00 -1.079559803009033203e+00
3.503000000000000000e+03 2.470990943908691406e+01 1.150800228118896484e+01 1.184115171432495117e+00 9.880266785621643066e-01 6.516425609588623047e-01 -2.697275280952453613e-01
3.504000000000000000e+03 3.033853340148925781e+01 -4.267735481262207031e+00 -7.881691455841064453e-01 1.791931986808776855e+00 3.011288344860076904e-01 1.546668559312820435e-01
3.505000000000000000e+03 3.039586448669433594e+01 -3.554625511169433594e+00 -6.941123604774475098e-01 1.906215190887451172e+00 3.636308312416076660e-01 1.161993965506553650e-01
3.506000000000000000e+03 7.775284290313720703e+00 1.552189540863037109e+01 2.533065974712371826e-01 -9.757880568504333496e-01 -2.167444527149200439e-01 4.357775747776031494e-01
3.507000000000000000e+03 2.380871391296386719e+01 1.038557243347167969e+01 1.068854808807373047e+00 6.848280429840087891e-01 5.261048674583435059e-01 -1.522073298692703247e-01
3.508000000000000000e+03 3.728739166259765625e+01 -6.250915050506591797e+00 -8.886326551437377930e-01 4.065248012542724609e+00 9.529846310615539551e-01 -8.098176121711730957e-01
3.509000000000000000e+03 2.392315864562988281e+01 1.258196926116943359e+01 1.187439203262329102e+00 8.869780302047729492e-01 6.223251819610595703e-01 -2.860075533390045166e-01
3.510000000000000000e+03 1.988430595397949219e+01 1.230383110046386719e+01 9.515984058380126953e-01 2.144396305084228516e-02 2.919127047061920166e-01 4.423260316252708435e-02
3.511000000000000000e+03 3.119418144226074219e+01 -2.904916048049926758e+00 -5.777048468589782715e-01 2.290826082229614258e+00 5.139364004135131836e-01 9.504238143563270569e-03
3.512000000000000000e+03 1.479607009887695312e+01 1.361902809143066406e+01 6.621556282043457031e-01 -5.498599410057067871e-01 3.368870168924331665e-02 3.450196087360382080e-01
3.513000000000000000e+03 1.385218238830566406e+01 1.299331569671630859e+01 5.945258140563964844e-01 -6.740021109580993652e-01 -2.384288236498832703e-02 4.455716609954833984e-01
3.514000000000000000e+03 3.162465667724609375e+01 1.983809471130371094e+00 2.743857800960540771e-01 2.870144367218017578e+00 9.433590769767761230e-01 -1.801777333021163940e-01
3.515000000000000000e+03 1.907209587097167969e+01 1.275663566589355469e+01 9.010277986526489258e-01 -8.912921696901321411e-02 2.435695827007293701e-01 8.992881327867507935e-02
3.516000000000000000e+03 2.791350173950195312e+01 1.113906025886535645e+00 -3.939848393201828003e-02 1.380159497261047363e+00 4.022282958030700684e-01 8.101341873407363892e-02
3.517000000000000000e+03 3.347050476074218750e+01 -1.954074978828430176e+00 -3.914460837841033936e-01 3.231794118881225586e+00 8.521044254302978516e-01 -2.714144587516784668e-01
3.518000000000000000e+03 2.485095214843750000e+01 5.838717460632324219e+00 6.947858333587646484e-01 6.986173987388610840e-01 4.180209636688232422e-01 3.146594390273094177e-02
3.519000000000000000e+03 2.365407180786132812e+01 6.243545055389404297e+00 6.543196439743041992e-01 3.298785984516143799e-01 2.952594757080078125e-01 8.559785783290863037e-02
3.520000000000000000e+03 2.015633964538574219e+01 8.588998794555664062e+00 7.420770525932312012e-01 -2.204842716455459595e-01 1.564778387546539307e-01 2.360481321811676025e-01
3.521000000000000000e+03 2.110511207580566406e+01 1.116263484954833984e+01 9.831748604774475098e-01 1.458756327629089355e-01 3.387151360511779785e-01 1.512308698147535324e-02
3.522000000000000000e+03 1.971489715576171875e+01 9.884531974792480469e+00 8.038028478622436523e-01 -2.175648659467697144e-01 1.758713871240615845e-01 2.010772824287414551e-01
3.523000000000000000e+03 1.605741500854492188e+01 -3.611289262771606445e+00 2.732378488872200251e-04 4.595771897584199905e-04 2.198445145040750504e-04 3.083669871557503939e-04
3.524000000000000000e+03 1.562254238128662109e+01 -4.210125446319580078e+00 -3.052355023100972176e-04 -4.324098990764468908e-04 -2.212936233263462782e-04 -2.370975562371313572e-04
3.525000000000000000e+03 1.505074691772460938e+01 -3.785051584243774414e+00 3.149628464598208666e-04 4.774202825501561165e-04 2.377149503445252776e-04 2.511764469090849161e-04
3.526000000000000000e+03 1.676181221008300781e+01 -5.065579891204833984e+00 -3.266777785029262304e-04 -3.527507069520652294e-04 -2.038285456364974380e-04 -2.108897606376558542e-04
3.527000000000000000e+03 1.619318008422851562e+01 -4.636556148529052734e+00 3.144951188005506992e-04 3.865575999952852726e-04 2.103158185491338372e-04 2.223930205218493938e-04
3.528000000000000000e+03 1.723610115051269531e+01 -4.496263980865478516e+00 2.892385236918926239e-04 3.763276326935738325e-04 1.996698410948738456e-04 2.808021090459078550e-04
3.529000000000000000e+03 1.546591091156005859e+01 -3.171455383300781250e+00 -2.636810531839728355e-04 -5.049797473475337029e-04 -2.305982343386858702e-04 -3.162680659443140030e-04
3.530000000000000000e+03 1.664776039123535156e+01 -4.052479743957519531e+00 -2.737878239713609219e-04 -4.174697678536176682e-04 -2.073772775474935770e-04 -2.979682758450508118e-04
3.531000000000000000e+03 1.831977081298828125e+01 -5.492505550384521484e+00 2.793399908114224672e-04 3.022293967660516500e-04 1.744708133628591895e-04 2.448029699735343456e-04
3.532000000000000000e+03 1.780974006652832031e+01 -6.028855800628662109e+00 -3.067842044401913881e-04 -2.970088389702141285e-04 -1.811379042919725180e-04 -1.954751496668905020e-04
3.533000000000000000e+03 1.730055999755859375e+01 -5.529824733734130859e+00 3.134449070785194635e-04 3.210177819710224867e-04 1.903388038044795394e-04 2.035301295109093189e-04
3.534000000000000000e+03 1.831691551208496094e+01 -6.530111789703369141e+00 3.332520427647978067e-04 2.768664853647351265e-04 1.830355613492429256e-04 1.751547533785924315e-04
3.535000000000000000e+03 1.882190132141113281e+01 -7.033396244049072266e+00 -3.818132099695503712e-04 -2.423652622383087873e-04 -1.872535358415916562e-04 -1.685642491793259978e-04
3.536000000000000000e+03 1.936644935607910156e+01 -6.531159877777099609e+00 2.851871540769934654e-04 2.262043126393109560e-04 1.534174371045082808e-04 2.018193190451711416e-04
3.537000000000000000e+03 1.779333305358886719e+01 -4.976417064666748047e+00 -2.773814194370061159e-04 -3.346556040924042463e-04 -1.836111041484400630e-04 -2.727486134972423315e-04
3.538000000000000000e+03 1.884420585632324219e+01 -6.010818481445312500e+00 -2.680248871911317110e-04 -2.563872840255498886e-04 -1.573236513650044799e-04 -2.290698612341657281e-04
3.539000000000000000e+03 2.031454658508300781e+01 -7.659852027893066406e+00 2.697724557947367430e-04 1.785592176020145416e-04 1.344994961982592940e-04 1.870197011157870293e-04
3.540000000000000000e+03 2.077073287963867188e+01 -8.240385055541992188e+00 -2.619927399791777134e-04 -1.584196579642593861e-04 -1.261237193830311298e-04 -1.635546650504693389e-04
3.541000000000000000e+03 1.929654693603515625e+01 -7.565644741058349609e+00 3.725504793692380190e-04 2.120063727488741279e-04 1.753670512698590755e-04 1.765301858540624380e-04
3.542000000000000000e+03 2.062350273132324219e+01 -9.254287719726562500e+00 -3.819483681581914425e-04 -2.066177112283185124e-04 -1.765698252711445093e-04 -1.047270343406125903e-04
3.543000000000000000e+03 2.018299865722656250e+01 -8.690117835998535156e+00 3.398235130589455366e-04 2.208142250310629606e-04 1.681913272477686405e-04 1.761851890478283167e-04
3.544000000000000000e+03 1.974063491821289062e+01 -8.127175331115722656e+00 -3.699038352351635695e-04 -1.931585284182801843e-04 -1.689187047304585576e-04 -1.887957914732396603e-04
3.545000000000000000e+03 2.122505760192871094e+01 -8.822144508361816406e+00 2.706530212890356779e-04 1.313390239374712110e-04 1.205976077471859753e-04 1.442776265321299434e-04
3.546000000000000000e+03 1.985663604736328125e+01 -7.080731868743896484e+00 -2.819571818690747023e-04 -1.879508636193349957e-04 -1.409724063705652952e-04 -2.010302996495738626e-04
3.547000000000000000e+03 2.203341293334960938e+01 -1.005728912353515625e+01 3.333323984406888485e-04 9.143578063230961561e-05 1.274304522667080164e-04 1.525983825558796525e-04
3.548000000000000000e+03 2.140859222412109375e+01 -1.045394611358642578e+01 -5.162205779924988747e-04 -5.550654532271437347e-05 -1.715181278996169567e-04 -1.080810907296836376e-04
3.549000000000000000e+03 2.103163337707519531e+01 -9.842617988586425781e+00 4.401219193823635578e-04 1.279259304283186793e-04 1.704143651295453310e-04 7.546054985141381621e-05
3.550000000000000000e+03 2.178438568115234375e+01 -1.106581783294677734e+01 5.105567397549748421e-04 8.596939733251929283e-05 1.789578382158651948e-04 1.540880330139771104e-04
3.551000000000000000e+03 2.215780448913574219e+01 -1.167914867401123047e+01 -4.703948798123747110e-04 -1.271510700462386012e-04 -1.792637922335416079e-04 -1.182754713227041066e-04
3.552000000000000000e+03 2.280443191528320312e+01 -1.131808185577392578e+01 4.247651377227157354e-04 9.235680045094341040e-05 1.551365858176723123e-04 1.732648815959692001e-04
3.553000000000000000e+03 2.164555168151855469e+01 -9.428166389465332031e+00 -3.027919447049498558e-04 -1.110512894229032099e-04 -1.241529680555686355e-04 -1.336225395789369941e-04
3.554000000000000000e+03 2.242011070251464844e+01 -1.068695640563964844e+01 -3.807426837738603354e-04 -1.080215297406539321e-04 -1.466292596887797117e-04 -1.533378235762938857e-04
3.555000000000000000e+03 2.317674064636230469e+01 -1.199929141998291016e+01 -3.912574611604213715e-04 -9.346053411718457937e-05 -1.454153971280902624e-04 -1.643540017539635301e-04
3.556000000000000000e+03 2.284523010253906250e+01 -1.300796508789062500e+01 -3.126890223938971758e-04 -6.007744377711787820e-05 -1.118299405789002776e-04 -1.948945136973634362e-04
3.557000000000000000e+03 2.406083297729492188e+01 -1.497063064575195312e+01 6.085760105634108186e-05 -1.632938256079796702e-05 1.335846536676399410e-05 -1.651150705583859235e-05
3.558000000000000000e+03 2.462505912780761719e+01 -1.485978507995605469e+01 -2.051485935226082802e-04 8.500023795932065696e-06 -5.899457028135657310e-05 3.265591294621117413e-05
3.559000000000000000e+03 2.389264106750488281e+01 -1.346117115020751953e+01 -1.707555347820743918e-04 -1.153518387582153082e-04 -8.583220915170386434e-05 -9.616193710826337337e-05
3.560000000000000000e+03 2.353559875488281250e+01 -1.273112678527832031e+01 2.899662649724632502e-04 7.695871317991986871e-05 1.100774898077361286e-04 1.767606008797883987e-04
3.561000000000000000e+03 2.488323020935058594e+01 -1.545215702056884766e+01 8.841216185828670859e-05 6.022536126693012193e-06 2.833040889527183026e-05 -4.357551460998365656e-06
3.562000000000000000e+03 2.424729537963867188e+01 -1.417472362518310547e+01 1.819511089706793427e-04 8.085499575827270746e-05 7.884182559791952372e-05 -2.443366247462108731e-05
3.563000000000000000e+03 2.350594520568847656e+01 -1.435108280181884766e+01 -1.793265837477520108e-04 -3.044113400392234325e-04 -1.451213756809011102e-04 5.599139058176660910e-06
3.564000000000000000e+03 2.317678260803222656e+01 -1.368776988983154297e+01 2.388411521678790450e-04 2.026830043178051710e-04 1.324572513112798333e-04 1.922343508340418339e-04
3.565000000000000000e+03 2.251189041137695312e+01 -1.232635593414306641e+01 3.758041420951485634e-04 6.209934508660808206e-05 1.313710527028888464e-04 1.213790892506949604e-04
3.566000000000000000e+03 2.456154632568359375e+01 -1.316923522949218750e+01 -4.666696786880493164e-01 -1.412201404571533203e+00 -5.636613368988037109e-01 8.134076595306396484e-01
3.567000000000000000e+03 2.482023620605468750e+01 -1.197365283966064453e+01 -8.208431601524353027e-01 -1.356586098670959473e+00 -6.532287597656250000e-01 1.113957405090332031e+00
3.568000000000000000e+03 2.650333786010742188e+01 -1.565426826477050781e+01 -6.337073445320129395e-01 -3.854592442512512207e-01 -3.057499825954437256e-01 6.258198022842407227e-01
3.569000000000000000e+03 2.385268974304199219e+01 -1.163848972320556641e+01 -7.518975138664245605e-01 -2.115799665451049805e+00 -8.603091835975646973e-01 1.197110414505004883e+00
3.570000000000000000e+03 2.484836769104003906e+01 -1.395820903778076172e+01 -3.823318779468536377e-01 -1.176275253295898438e+00 -4.675821363925933838e-01 6.488320827484130859e-01
3.571000000000000000e+03 2.532261657714843750e+01 -1.399315357208251953e+01 -5.331659317016601562e-01 -8.830881714820861816e-01 -4.248762428760528564e-01 7.728502154350280762e-01
3.572000000000000000e+03 2.568108749389648438e+01 -1.559443092346191406e+01 -2.456440776586532593e-01 -3.146907985210418701e-01 -1.681004613637924194e-01 3.346701562404632568e-01
3.573000000000000000e+03 2.449533462524414062e+01 -1.126426315307617188e+01 -9.674819707870483398e-01 -1.484151721000671387e+00 -7.354900836944580078e-01 1.203322410583496094e+00
3.574000000000000000e+03 2.516623687744140625e+01 -1.270689773559570312e+01 -6.790380477905273438e-01 -1.129814982414245605e+00 -5.426558852195739746e-01 9.774754047393798828e-01
3.575000000000000000e+03 2.556309509277343750e+01 -1.336782169342041016e+01 -6.332376599311828613e-01 -8.720254302024841309e-01 -4.515789449214935303e-01 8.776801824569702148e-01
3.576000000000000000e+03 2.595065307617187500e+01 -1.390986061096191406e+01 -6.391118168830871582e-01 -6.626812219619750977e-01 -3.905379176139831543e-01 8.583947420120239258e-01
3.577000000000000000e+03 2.620536613464355469e+01 -1.446394062042236328e+01 -5.590650439262390137e-01 -5.382519364356994629e-01 -3.291951119899749756e-01 7.907529473304748535e-01
3.578000000000000000e+03 2.637091255187988281e+01 -1.507584285736083984e+01 -5.376067757606506348e-01 -4.094610810279846191e-01 -2.841203510761260986e-01 6.992489099502563477e-01
3.579000000000000000e+03 2.638264656066894531e+01 -1.612632179260253906e+01 -5.456430912017822266e-01 -2.223310768604278564e-01 -2.303922623395919800e-01 3.484614491462707520e-01
3.580000000000000000e+03 2.419656753540039062e+01 -1.239193534851074219e+01 -5.321663022041320801e-01 -1.741165995597839355e+00 -6.819996833801269531e-01 9.865653514862060547e-01
3.581000000000000000e+03 2.512793922424316406e+01 -1.461182594299316406e+01 -2.566960453987121582e-01 -8.150106668472290039e-01 -3.215120136737823486e-01 4.839975535869598389e-01
3.582000000000000000e+03 2.566095924377441406e+01 -1.495156669616699219e+01 -3.492340147495269775e-01 -5.619549751281738281e-01 -2.733567059040069580e-01 5.641683340072631836e-01
3.583000000000000000e+03 2.577541732788085938e+01 -1.432993030548095703e+01 -5.319062471389770508e-01 -6.951027512550354004e-01 -3.681026995182037354e-01 7.882619500160217285e-01
3.584000000000000000e+03 2.269077491760253906e+01 -9.641036033630371094e+00 -1.129149675369262695e+00 -2.532735109329223633e+00 -1.098565459251403809e+00 1.683749556541442871e+00
3.585000000000000000e+03 2.348543930053710938e+01 -1.093805503845214844e+01 -9.407016038894653320e-01 -2.287636756896972656e+00 -9.685014486312866211e-01 1.413636684417724609e+00
3.586000000000000000e+03 2.229273414611816406e+01 -8.991255760192871094e+00 -1.415498852729797363e+00 -2.766599655151367188e+00 -1.254629611968994141e+00 1.886802077293395996e+00
3.587000000000000000e+03 2.308835411071777344e+01 -1.029005146026611328e+01 -1.027372121810913086e+00 -2.354766130447387695e+00 -1.014641523361206055e+00 1.540436983108520508e+00
3.588000000000000000e+03 2.413209533691406250e+01 -1.057697391510009766e+01 -1.062052965164184570e+00 -1.693188548088073730e+00 -8.265724182128906250e-01 1.279595971107482910e+00
3.589000000000000000e+03 2.290665245056152344e+01 -8.576805114746093750e+00 -1.503286719322204590e+00 -2.035249948501586914e+00 -1.061560988426208496e+00 1.634727597236633301e+00
3.590000000000000000e+03 2.331559562683105469e+01 -9.244379997253417969e+00 -1.340094089508056641e+00 -1.976264476776123047e+00 -9.949075579643249512e-01 1.584480881690979004e+00
3.591000000000000000e+03 2.372407913208007812e+01 -9.911190032958984375e+00 -1.144299149513244629e+00 -1.884130954742431641e+00 -9.085289835929870605e-01 1.443397998809814453e+00
3.592000000000000000e+03 2.091797065734863281e+01 -7.169854164123535156e+00 -1.838805913925170898e+00 -2.734262943267822266e+00 -1.371920704841613770e+00 2.224731445312500000e+00
3.593000000000000000e+03 2.044657707214355469e+01 -6.570147991180419922e+00 -2.175321102142333984e+00 -2.857923984527587891e+00 -1.509973526000976562e+00 2.381043434143066406e+00
3.594000000000000000e+03 2.138868331909179688e+01 -7.768980979919433594e+00 -1.731444835662841797e+00 -2.667765140533447266e+00 -1.319762945175170898e+00 2.126464366912841797e+00
3.595000000000000000e+03 2.185866355895996094e+01 -8.367236137390136719e+00 -1.655323743820190430e+00 -2.770636320114135742e+00 -1.327787995338439941e+00 2.057451009750366211e+00
3.596000000000000000e+03 2.246022033691406250e+01 -7.935092449188232422e+00 -1.585395932197570801e+00 -2.179407835006713867e+00 -1.129441142082214355e+00 1.704488277435302734e+00
3.597000000000000000e+03 2.100666618347167969e+01 -6.085235118865966797e+00 -2.048435211181640625e+00 -2.212170124053955078e+00 -1.278181672096252441e+00 1.938141226768493652e+00
3.598000000000000000e+03 2.149188232421875000e+01 -6.702531337738037109e+00 -1.907970190048217773e+00 -2.240989685058593750e+00 -1.244687914848327637e+00 1.966537714004516602e+00
3.599000000000000000e+03 2.197641754150390625e+01 -7.319247722625732422e+00 -1.690784335136413574e+00 -2.272154092788696289e+00 -1.188881516456604004e+00 1.871621608734130859e+00
3.600000000000000000e+03 1.885587120056152344e+01 -4.930348396301269531e+00 -2.515305042266845703e+00 -2.412006855010986328e+00 -1.478193521499633789e+00 2.439891099929809570e+00
3.601000000000000000e+03 1.831238174438476562e+01 -4.393686294555664062e+00 -2.835450649261474609e+00 -2.425468921661376953e+00 -1.578275799751281738e+00 2.496426105499267578e+00
3.602000000000000000e+03 1.939846801757812500e+01 -5.466702461242675781e+00 -2.452440977096557617e+00 -2.447759389877319336e+00 -1.470060110092163086e+00 2.425179481506347656e+00
3.603000000000000000e+03 1.994004440307617188e+01 -6.002428531646728516e+00 -2.436907052993774414e+00 -2.704756736755371094e+00 -1.542499184608459473e+00 2.457725524902343750e+00
3.604000000000000000e+03 2.048459243774414062e+01 -5.500192165374755859e+00 -2.086309194564819336e+00 -2.278296470642089844e+00 -1.309381604194641113e+00 1.970108985900878906e+00
3.605000000000000000e+03 1.880515289306640625e+01 -3.840278863906860352e+00 -2.441217660903930664e+00 -2.019933223724365234e+00 -1.338345289230346680e+00 1.988930344581604004e+00
3.606000000000000000e+03 1.936590194702148438e+01 -4.393997669219970703e+00 -2.382312297821044922e+00 -2.102354288101196289e+00 -1.345399975776672363e+00 2.104459047317504883e+00
3.607000000000000000e+03 1.992575645446777344e+01 -4.947409152984619141e+00 -2.187635898590087891e+00 -2.252000331878662109e+00 -1.331890940666198730e+00 2.097566127777099609e+00
3.608000000000000000e+03 1.695117187500000000e+01 -2.380243301391601562e+00 -2.558888673782348633e+00 -1.657863020896911621e+00 -1.265025496482849121e+00 1.935957908630371094e+00
3.609000000000000000e+03 1.651630020141601562e+01 -2.979079723358154297e+00 -2.889993190765380859e+00 -1.713191986083984375e+00 -1.380955576896667480e+00 2.200036764144897461e+00
3.610000000000000000e+03 1.590384101867675781e+01 -2.523920059204101562e+00 -3.065768718719482422e+00 -1.655236005783081055e+00 -1.416301488876342773e+00 2.142650842666625977e+00
3.611000000000000000e+03 1.712716102600097656e+01 -3.436568260192871094e+00 -2.929278135299682617e+00 -1.814130306243896484e+00 -1.423022508621215820e+00 2.279527187347412109e+00
3.612000000000000000e+03 1.758174324035644531e+01 -2.852491855621337891e+00 -2.471101760864257812e+00 -1.874549627304077148e+00 -1.303695440292358398e+00 2.028677940368652344e+00
3.613000000000000000e+03 1.773609352111816406e+01 -3.896142244338989258e+00 -3.034261226654052734e+00 -2.158129453659057617e+00 -1.557717204093933105e+00 2.434942722320556641e+00
3.614000000000000000e+03 1.821038436889648438e+01 -3.326825857162475586e+00 -2.407261371612548828e+00 -2.010265350341796875e+00 -1.325258016586303711e+00 1.971969008445739746e+00
3.615000000000000000e+03 1.631900405883789062e+01 -1.910323858261108398e+00 -2.501468896865844727e+00 -1.560367584228515625e+00 -1.218550920486450195e+00 1.775665760040283203e+00
3.616000000000000000e+03 1.460399055480957031e+01 -1.730789542198181152e+00 -2.887210130691528320e+00 -1.105090856552124023e+00 -1.197690248489379883e+00 1.764145493507385254e+00
3.617000000000000000e+03 1.394003677368164062e+01 -1.356149435043334961e+00 -2.743788003921508789e+00 -1.004719257354736328e+00 -1.124552249908447266e+00 1.640394568443298340e+00
3.618000000000000000e+03 1.327490711212158203e+01 -9.841976165771484375e-01 -2.760984182357788086e+00 -9.408621191978454590e-01 -1.110553860664367676e+00 1.523050785064697266e+00
3.619000000000000000e+03 1.429506587982177734e+01 -7.068015336990356445e-01 -2.361640214920043945e+00 -1.116991758346557617e+00 -1.043589591979980469e+00 1.535451531410217285e+00
3.620000000000000000e+03 1.497913169860839844e+01 -1.092790365219116211e+00 -2.390582323074340820e+00 -1.315075278282165527e+00 -1.111697316169738770e+00 1.687105536460876465e+00
3.621000000000000000e+03 1.526644039154052734e+01 -2.107936620712280273e+00 -3.107436418533325195e+00 -1.398659348487854004e+00 -1.351828694343566895e+00 1.976032614707946777e+00
3.622000000000000000e+03 1.566169452667236328e+01 -1.481285929679870605e+00 -2.399173259735107422e+00 -1.492781043052673340e+00 -1.167586326599121094e+00 1.714587807655334473e+00
3.623000000000000000e+03 1.360982322692871094e+01 -3.235010504722595215e-01 -2.213034868240356445e+00 -1.031830191612243652e+00 -9.734595417976379395e-01 1.377937674522399902e+00
3.624000000000000000e+03 1.136861705780029297e+01 6.672526597976684570e-01 -1.897009611129760742e+00 -6.487588882446289062e-01 -7.637305259704589844e-01 9.856947660446166992e-01
3.625000000000000000e+03 1.043688488006591797e+01 2.462611943483352661e-01 -2.267744779586791992e+00 -4.845104813575744629e-01 -8.256765604019165039e-01 8.380237221717834473e-01
3.626000000000000000e+03 1.187135696411132812e+01 -3.428127467632293701e-01 -2.388997077941894531e+00 -5.629239678382873535e-01 -8.855763077735900879e-01 1.126913547515869141e+00
3.627000000000000000e+03 1.258574008941650391e+01 -6.459255814552307129e-01 -2.657254457473754883e+00 -7.523908019065856934e-01 -1.022893548011779785e+00 1.334414601325988770e+00
3.628000000000000000e+03 1.288842964172363281e+01 2.964896708726882935e-02 -2.067312717437744141e+00 -9.510784149169921875e-01 -9.055173397064208984e-01 1.281363368034362793e+00
3.629000000000000000e+03 1.060655117034912109e+01 9.770575761795043945e-01 -1.581048250198364258e+00 -6.352865099906921387e-01 -6.649004220962524414e-01 8.088688850402832031e-01
3.630000000000000000e+03 1.212970542907714844e+01 3.511690795421600342e-01 -1.970547676086425781e+00 -7.826932668685913086e-01 -8.259722590446472168e-01 1.197575330734252930e+00
3.631000000000000000e+03 1.115460968017578125e+01 -4.513646289706230164e-02 -2.210139036178588867e+00 -4.763964116573333740e-01 -8.059606552124023438e-01 1.016171693801879883e+00
3.632000000000000000e+03 9.852642059326171875e+00 1.127630591392517090e+00 -1.379894971847534180e+00 -5.278767347335815430e-01 -5.723314881324768066e-01 8.165115118026733398e-01
3.633000000000000000e+03 8.934872627258300781e+00 3.838182985782623291e-01 -1.295575141906738281e+00 -2.092537097632884979e-02 -3.949501812458038330e-01 2.158030122518539429e-01
3.634000000000000000e+03 8.173450469970703125e+00 3.805501461029052734e-01 -9.235000610351562500e-01 -3.625193983316421509e-02 -2.879256010055541992e-01 1.513999700546264648e-01
3.635000000000000000e+03 7.412311553955078125e+00 3.753647208213806152e-01 -6.577898263931274414e-01 -1.030572690069675446e-02 -2.004286646842956543e-01 1.089876294136047363e-01
3.636000000000000000e+03 6.650998592376708984e+00 3.733136355876922607e-01 -4.561621248722076416e-01 -1.247337926179170609e-02 -1.405906528234481812e-01 8.349823951721191406e-02
3.637000000000000000e+03 5.128288269042968750e+00 3.666210770606994629e-01 -1.823450773954391479e-01 -7.000027690082788467e-03 -5.680353194475173950e-02 4.943604767322540283e-02
3.638000000000000000e+03 4.367394924163818359e+00 3.671234846115112305e-01 -9.244217723608016968e-02 -5.654532462358474731e-03 -2.942901290953159332e-02 3.602148592472076416e-02
3.639000000000000000e+03 2.846046209335327148e+00 3.605891168117523193e-01 1.022392977029085159e-02 -6.718280259519815445e-03 1.051694969646632671e-03 1.313078589737415314e-02
3.640000000000000000e+03 2.087270975112915039e+00 3.584179878234863281e-01 2.273391373455524445e-02 -3.926324658095836639e-03 5.642276722937822342e-03 2.207220532000064850e-03
3.641000000000000000e+03 2.412721395492553711e+00 1.098417997360229492e+00 -3.821108117699623108e-02 -2.712159976363182068e-02 -1.959980465471744537e-02 2.931339293718338013e-02
3.642000000000000000e+03 1.340976357460021973e+00 3.674286305904388428e-01 1.471183821558952332e-02 -3.409554017707705498e-03 3.390685189515352249e-03 -5.776496604084968567e-03
3.643000000000000000e+03 1.683374881744384766e+00 1.107428669929504395e+00 -1.188343483954668045e-02 -1.907586306333541870e-02 -9.287789463996887207e-03 4.721255972981452942e-03
3.644000000000000000e+03 6.602545380592346191e-01 3.962357640266418457e-01 5.901503376662731171e-03 2.429946325719356537e-03 2.499434864148497581e-03 -3.596603637561202049e-03
3.645000000000000000e+03 3.572900295257568359e-01 9.584811329841613770e-01 -1.054850639775395393e-03 9.017957374453544617e-03 2.388932043686509132e-03 -5.293995141983032227e-03
3.646000000000000000e+03 3.154548645019531250e+00 1.100589156150817871e+00 -8.060022443532943726e-02 -2.638792060315608978e-02 -3.209644183516502380e-02 5.951526761054992676e-02
3.647000000000000000e+03 3.606354475021362305e+00 3.667278885841369629e-01 -2.806785330176353455e-02 -3.946184180676937103e-03 -9.604210965335369110e-03 2.612631022930145264e-02
3.648000000000000000e+03 5.385946273803710938e+00 1.106621026992797852e+00 -3.122167289257049561e-01 -3.245490789413452148e-02 -1.034014895558357239e-01 1.624474823474884033e-01
3.649000000000000000e+03 5.889441967010498047e+00 3.716917037963867188e-01 -3.024682402610778809e-01 -6.800206843763589859e-03 -9.278053045272827148e-02 6.470545381307601929e-02
3.650000000000000000e+03 7.619125843048095703e+00 1.115364670753479004e+00 -7.803537845611572266e-01 -8.875470608472824097e-02 -2.607325613498687744e-01 3.426773250102996826e-01
3.651000000000000000e+03 8.363317489624023438e+00 1.120550155639648438e+00 -1.013648986816406250e+00 -1.018329933285713196e-01 -3.346445858478546143e-01 4.415837526321411133e-01
3.652000000000000000e+03 9.107789993286132812e+00 1.123818278312683105e+00 -1.321176767349243164e+00 -2.707807719707489014e-01 -4.775872826576232910e-01 6.614833474159240723e-01
3.653000000000000000e+03 9.696672439575195312e+00 3.876306116580963135e-01 -1.956209301948547363e+00 -2.740768194198608398e-01 -6.690858602523803711e-01 4.688666462898254395e-01
3.654000000000000000e+03 6.874760627746582031e+00 1.113313674926757812e+00 -5.907283425331115723e-01 -4.846618697047233582e-02 -1.917583495378494263e-01 2.634826600551605225e-01
3.655000000000000000e+03 6.130152225494384766e+00 1.111691713333129883e+00 -4.358575344085693359e-01 -4.558996483683586121e-02 -1.444342434406280518e-01 2.093340009450912476e-01
3.656000000000000000e+03 4.642001152038574219e+00 1.107123494148254395e+00 -2.143005430698394775e-01 -3.134758397936820984e-02 -7.369443774223327637e-02 1.263213604688644409e-01
3.657000000000000000e+03 3.897908926010131836e+00 1.106727957725524902e+00 -1.390143036842346191e-01 -2.681679278612136841e-02 -4.974932968616485596e-02 9.121470898389816284e-02
3.658000000000000000e+03 1.019601225852966309e+00 1.136235833168029785e+00 -3.227114211767911911e-03 -5.713130347430706024e-03 -2.682073274627327919e-03 -8.304597809910774231e-03
3.659000000000000000e+03 1.356510353088378906e+01 -2.044676303863525391e+00 2.359075442655012012e-04 4.829617682844400406e-04 2.156607952201738954e-04 3.045889898203313351e-04
3.660000000000000000e+03 1.321007442474365234e+01 -2.694024085998535156e+00 -3.540033649187535048e-04 -4.369402595330029726e-04 -2.372830786043778062e-04 -3.315612266305834055e-04
3.661000000000000000e+03 1.258673477172851562e+01 -2.342205762863159180e+00 3.990621480625122786e-04 4.577361396513879299e-04 2.570394717622548342e-04 3.143262583762407303e-04
3.662000000000000000e+03 1.420777034759521484e+01 -2.407426834106445312e+00 -2.473484200891107321e-04 -5.288053653202950954e-04 -2.328461414435878396e-04 -3.267763240728527308e-04
3.663000000000000000e+03 1.383262920379638672e+01 -3.045426130294799805e+00 3.309623862151056528e-04 4.558043729048222303e-04 2.360300277359783649e-04 3.086494980379939079e-04
3.664000000000000000e+03 1.445424365997314453e+01 -3.396085023880004883e+00 -3.176119353156536818e-04 -4.706307081505656242e-04 -2.364727988606318831e-04 -2.845154085662215948e-04
3.665000000000000000e+03 1.484949779510498047e+01 -2.769434452056884766e+00 2.560755237936973572e-04 5.327120888978242874e-04 2.366362896282225847e-04 3.267686697654426098e-04
3.666000000000000000e+03 1.292164993286132812e+01 -1.681509137153625488e+00 -2.188423677580431104e-04 -4.270143399480730295e-04 -1.937570050358772278e-04 -2.614314435049891472e-04
3.667000000000000000e+03 1.114702796936035156e+01 -1.674520134925842285e+00 4.261654394213110209e-04 4.724344471469521523e-04 2.695799630600959063e-04 2.469226019456982613e-04
3.668000000000000000e+03 1.155607700347900391e+01 -1.043098807334899902e+00 -1.896808244055137038e-04 -4.169475287199020386e-04 -1.819885073928162456e-04 -1.893591979751363397e-04
3.669000000000000000e+03 1.007052421569824219e+01 -1.379528045654296875e+00 -4.460880008991807699e-04 -3.601388889364898205e-04 -2.418680669507011771e-04 -2.636438694025855511e-05
3.670000000000000000e+03 1.091052532196044922e+01 -7.195191383361816406e-01 1.385522191412746906e-04 4.794759734068065882e-04 1.854084548540413380e-04 2.166282793041318655e-04
3.671000000000000000e+03 1.189208316802978516e+01 -2.005299091339111328e+00 -3.472746466286480427e-04 -4.075005417689681053e-04 -2.264325594296678901e-04 -2.847439318429678679e-04
3.672000000000000000e+03 1.224500656127929688e+01 -1.350578069686889648e+00 1.886814861791208386e-04 3.657749330159276724e-04 1.663369330344721675e-04 2.211561368312686682e-04
3.673000000000000000e+03 1.012131404876708984e+01 -8.739756941795349121e-01 6.680219084955751896e-04 3.794047515839338303e-04 3.142280038446187973e-04 3.924919874407351017e-04
3.674000000000000000e+03 1.027311420440673828e+01 -4.096257984638214111e-01 -1.731108495732769370e-04 -4.413690476212650537e-04 -1.843439677031710744e-04 -1.959842920769006014e-04
3.675000000000000000e+03 1.058933448791503906e+01 -1.247088074684143066e+00 -3.658557834569364786e-04 -4.115678311791270971e-04 -2.332270814804360271e-04 -4.332131939008831978e-04
3.676000000000000000e+03 8.909210205078125000e+00 -3.212539851665496826e-01 5.860493401996791363e-04 -4.245504678692668676e-04 4.844967043027281761e-05 -4.085495311301201582e-05
3.677000000000000000e+03 9.317807197570800781e+00 -1.205478549003601074e+00 2.491479390300810337e-04 7.131822640076279640e-04 2.886990550905466080e-04 4.186635196674615145e-04
3.678000000000000000e+03 9.460213661193847656e+00 -6.912539601325988770e-01 -1.043700031004846096e-03 1.168400995084084570e-04 -2.780579961836338043e-04 -4.288374038878828287e-04
3.679000000000000000e+03 8.266005516052246094e+00 -6.800254583358764648e-01 -1.019182498566806316e-03 -4.210308252368122339e-04 -4.320640000514686108e-04 -9.990305989049375057e-05
3.680000000000000000e+03 7.622209548950195312e+00 -4.054784178733825684e-01 6.926385685801506042e-04 7.275692769326269627e-04 4.260623536538332701e-04 5.770426359958946705e-04
3.681000000000000000e+03 6.825774669647216797e+00 -3.814763724803924561e-01 -3.160199266858398914e-04 -7.514900062233209610e-04 -3.202529915142804384e-04 -4.705387400463223457e-04
3.682000000000000000e+03 6.001619815826416016e+00 -3.739211261272430420e-01 4.519505018834024668e-04 8.310006232932209969e-04 3.848853230010718107e-04 5.717373569495975971e-04
3.683000000000000000e+03 5.174842834472656250e+00 -3.715220093727111816e-01 -4.789160157088190317e-04 -7.982503739185631275e-04 -3.831499197985976934e-04 -6.199312629178166389e-04
3.684000000000000000e+03 4.347759723663330078e+00 -3.725122809410095215e-01 5.536947282962501049e-04 6.197261973284184933e-04 3.520262835081666708e-04 5.777857732027769089e-04
3.685000000000000000e+03 3.520621299743652344e+00 -3.760701715946197510e-01 -4.764377663377672434e-04 -3.549669054336845875e-04 -2.494213986210525036e-04 -3.984891518484801054e-04
3.686000000000000000e+03 2.694509983062744141e+00 -3.805325925350189209e-01 3.237009805161505938e-04 1.405579532729461789e-04 1.392776757711544633e-04 1.882680226117372513e-04
3.687000000000000000e+03 1.143715500831604004e+00 -3.599454164505004883e-01 5.919293107581324875e-05 1.599015668034553528e-04 6.572835263796150684e-05 -4.416392130224267021e-06
3.688000000000000000e+03 4.021799862384796143e-01 -5.506002306938171387e-01 -7.199800165835767984e-05 -1.406754745403304696e-04 -6.380204285960644484e-05 -8.201391756301745772e-05
3.689000000000000000e+03 7.210693359375000000e-01 -1.099945425987243652e+00 -7.158067892305552959e-04 -4.851959602092392743e-06 -2.161976299248635769e-04 -1.470413699280470610e-04
3.690000000000000000e+03 8.506304740905761719e+00 -1.218084216117858887e+00 2.667734224814921618e-04 -1.306335674598813057e-03 -3.118686727248132229e-04 -1.878863404272124171e-04
3.691000000000000000e+03 7.803927898406982422e+00 -1.221213579177856445e+00 6.112342234700918198e-04 1.120939268730580807e-03 5.196520360186696053e-04 -1.489376973040634766e-05
3.692000000000000000e+03 7.101232528686523438e+00 -1.145478367805480957e+00 -7.458484033122658730e-04 -7.311352528631687164e-04 -4.430951084941625595e-04 -3.990416298620402813e-04
3.693000000000000000e+03 6.317089557647705078e+00 -1.121476411819458008e+00 4.228591860737651587e-04 7.930130232125520706e-04 3.647616540547460318e-04 4.656609962694346905e-04
3.694000000000000000e+03 5.505225658416748047e+00 -1.113921165466308594e+00 -3.906904894392937422e-04 -7.258371333591639996e-04 -3.349582839291542768e-04 -5.087851313874125481e-04
3.695000000000000000e+03 4.690740108489990234e+00 -1.111521959304809570e+00 5.545861204154789448e-04 5.506038432940840721e-04 3.315570065751671791e-04 6.455754628404974937e-04
3.696000000000000000e+03 3.875948190689086914e+00 -1.112512230873107910e+00 -8.248164085671305656e-04 -2.411844034213572741e-04 -3.198002232238650322e-04 -6.423958693630993366e-04
3.697000000000000000e+03 3.061101198196411133e+00 -1.116070151329040527e+00 9.730990277603268623e-04 5.919483010075055063e-05 3.096881555393338203e-04 3.776830562856048346e-04
3.698000000000000000e+03 2.247281074523925781e+00 -1.120532631874084473e+00 -5.764261004514992237e-04 -2.342325169593095779e-04 -2.431975881336256862e-04 -1.425011141691356897e-04
3.699000000000000000e+03 1.882497906684875488e+00 -3.807797729969024658e-01 -1.669001940172165632e-04 -7.287257903954014182e-05 -7.193183409981429577e-05 -3.977243250119499862e-05
3.700000000000000000e+03 9.580569267272949219e+00 -2.457754313945770264e-01 5.294014117680490017e-04 4.965043626725673676e-04 3.077717265114188194e-04 -9.832032083068042994e-05
3.701000000000000000e+03 1.447560310363769531e+00 -1.120779752731323242e+00 3.913734399247914553e-04 3.327921731397509575e-04 2.172496897401288152e-04 3.213640011381357908e-04
3.702000000000000000e+03 4.326084899902343750e+01 -2.151201248168945312e+01 2.070376586914062500e+01 1.423269844055175781e+01 1.048093891143798828e+01 1.549640369415283203e+01
3.703000000000000000e+03 4.327123641967773438e+01 -2.152845191955566406e+01 1.389479160308837891e+01 2.805023574829101562e+01 1.258350849151611328e+01 1.844857788085937500e+01
3.704000000000000000e+03 4.328462600708007812e+01 -2.154255867004394531e+01 1.081885433197021484e+01 3.808596038818359375e+01 1.467144489288330078e+01 1.719494628906250000e+01
3.705000000000000000e+03 4.330050277709960938e+01 -2.155379295349121094e+01 8.304240226745605469e+00 4.680829620361328125e+01 1.653376197814941406e+01 1.370435142517089844e+01
3.706000000000000000e+03 4.331826019287109375e+01 -2.156172370910644531e+01 7.232267379760742188e+00 5.305875396728515625e+01 1.808730697631835938e+01 8.837932586669921875e+00
3.707000000000000000e+03 4.333721923828125000e+01 -2.156604957580566406e+01 7.929656028747558594e+00 5.708232498168945312e+01 1.950359344482421875e+01 2.923856019973754883e+00
3.708000000000000000e+03 4.335665893554687500e+01 -2.156660652160644531e+01 9.817811965942382812e+00 5.823554992675781250e+01 2.041600799560546875e+01 -2.940608739852905273e+00
3.709000000000000000e+03 4.337583541870117188e+01 -2.156337165832519531e+01 1.382201957702636719e+01 5.722036743164062500e+01 2.131271553039550781e+01 -8.135577201843261719e+00
3.710000000000000000e+03 4.339401626586914062e+01 -2.155646896362304688e+01 1.816904258728027344e+01 5.396159744262695312e+01 2.163919258117675781e+01 -1.202719402313232422e+01
3.711000000000000000e+03 4.341051101684570312e+01 -2.154616355895996094e+01 2.364893531799316406e+01 4.994141769409179688e+01 2.207710647583007812e+01 -1.399139595031738281e+01
3.712000000000000000e+03 4.342468261718750000e+01 -2.153284645080566406e+01 2.832150077819824219e+01 4.506282043457031250e+01 2.201529693603515625e+01 -1.432110786437988281e+01
3.713000000000000000e+03 4.343599319458007812e+01 -2.151702690124511719e+01 3.255788803100585938e+01 4.111822128295898438e+01 2.210283279418945312e+01 -1.286329650878906250e+01
3.714000000000000000e+03 4.344401550292968750e+01 -2.149930953979492188e+01 3.539579010009765625e+01 3.770976257324218750e+01 2.193166542053222656e+01 -1.028200912475585938e+01
3.715000000000000000e+03 4.344843673706054688e+01 -2.148037147521972656e+01 3.695734405517578125e+01 3.590518569946289062e+01 2.185875892639160156e+01 -7.006051540374755859e+00
3.716000000000000000e+03 4.344908905029296875e+01 -2.146093368530273438e+01 3.705325698852539062e+01 3.531779098510742188e+01 2.171131324768066406e+01 -3.555490493774414062e+00
3.717000000000000000e+03 4.344594955444335938e+01 -2.144174194335937500e+01 3.599129867553710938e+01 3.634402084350585938e+01 2.170059585571289062e+01 -3.931317925453186035e-01
3.718000000000000000e+03 4.343914031982421875e+01 -2.142352485656738281e+01 3.376473617553710938e+01 3.838532257080078125e+01 2.164501762390136719e+01 2.133476734161376953e+00
3.719000000000000000e+03 4.342891693115234375e+01 -2.140698242187500000e+01 3.082361412048339844e+01 4.158325195312500000e+01 2.172206115722656250e+01 3.622970342636108398e+00
3.720000000000000000e+03 4.341566848754882812e+01 -2.139274406433105469e+01 2.730469322204589844e+01 4.521207809448242188e+01 2.175503158569335938e+01 3.872114658355712891e+00
3.721000000000000000e+03 4.339990615844726562e+01 -2.138135147094726562e+01 2.372787475585937500e+01 4.908280944824218750e+01 2.184320449829101562e+01 2.597434759140014648e+00
3.722000000000000000e+03 4.338222885131835938e+01 -2.137324333190917969e+01 2.041383934020996094e+01 5.221464538574218750e+01 2.178854560852050781e+01 -9.652978181838989258e-02
3.723000000000000000e+03 4.336331558227539062e+01 -2.136872673034667969e+01 1.813172149658203125e+01 5.428655624389648438e+01 2.172548484802246094e+01 -4.222173690795898438e+00
3.724000000000000000e+03 4.334387969970703125e+01 -2.136797714233398438e+01 1.686901283264160156e+01 5.436210250854492188e+01 2.136933517456054688e+01 -9.114831924438476562e+00
3.725000000000000000e+03 4.332467269897460938e+01 -2.137101936340332031e+01 1.741450881958007812e+01 5.232209396362304688e+01 2.092098045349121094e+01 -1.429972267150878906e+01
3.726000000000000000e+03 4.330642318725585938e+01 -2.137773895263671875e+01 1.902965354919433594e+01 4.787418365478515625e+01 2.007115173339843750e+01 -1.887975502014160156e+01
3.727000000000000000e+03 4.328982925415039062e+01 -2.138788032531738281e+01 2.203634643554687500e+01 4.149980545043945312e+01 1.906084442138671875e+01 -2.217932128906250000e+01
3.728000000000000000e+03 4.327552413940429688e+01 -2.140105438232421875e+01 2.508600997924804688e+01 3.363955307006835938e+01 1.761766815185546875e+01 -2.373805618286132812e+01
3.729000000000000000e+03 4.326405334472656250e+01 -2.141675949096679688e+01 2.815143013000488281e+01 2.520011520385742188e+01 1.600546264648437500e+01 -2.320447349548339844e+01
3.730000000000000000e+03 4.325585556030273438e+01 -2.143439483642578125e+01 2.987897300720214844e+01 1.686298370361328125e+01 1.402258682250976562e+01 -2.092097091674804688e+01
3.731000000000000000e+03 4.325124740600585938e+01 -2.145328903198242188e+01 3.048684310913085938e+01 9.423266410827636719e+00 1.197303295135498047e+01 -1.658429145812988281e+01
3.732000000000000000e+03 4.325039672851562500e+01 -2.147271919250488281e+01 2.888032531738281250e+01 3.374788045883178711e+00 9.676534652709960938e+00 -1.123320484161376953e+01
3.733000000000000000e+03 4.325334548950195312e+01 -2.149194145202636719e+01 2.410217857360839844e+01 8.680940866470336914e-01 7.491082191467285156e+00 -1.428851842880249023e+00
