# el_label, x, y, sXX, sYY, sZZ, sXY
1.000000000000000000e+00 4.454376983642578125e+01 -2.153533744812011719e+01 -3.985643982887268066e-01 -7.796659320592880249e-02 -1.429592967033386230e-01 -2.087869793176651001e-01
2.000000000000000000e+00 4.525796890258789062e+01 -2.133341026306152344e+01 -5.729078054428100586e-01 -1.029009446501731873e-01 -2.027426362037658691e-01 -2.522113323211669922e-01
3.000000000000000000e+00 4.405188369750976562e+01 -2.244241142272949219e+01 -2.254672050476074219e-01 -1.688965559005737305e-01 -1.183091327548027039e-01 -2.972408533096313477e-01
4.000000000000000000e+00 4.615114593505859375e+01 -2.184869003295898438e+01 -6.272602677345275879e-01 -1.619813889265060425e-01 -2.367724925279617310e-01 -4.311136007308959961e-01
5.000000000000000000e+00 4.545270156860351562e+01 -2.204736137390136719e+01 -4.655503630638122559e-01 -1.676055043935775757e-01 -1.899467557668685913e-01 -3.951838612556457520e-01
6.000000000000000000e+00 4.475288772583007812e+01 -2.224522018432617188e+01 -3.363928198814392090e-01 -1.860115677118301392e-01 -1.567213088274002075e-01 -3.489831387996673584e-01
7.000000000000000000e+00 4.597079086303710938e+01 -2.113067054748535156e+01 -7.343377470970153809e-01 -7.980237901210784912e-02 -2.442420423030853271e-01 -2.878971993923187256e-01
8.000000000000000000e+00 4.382838821411132812e+01 -2.173659515380859375e+01 -2.346909940242767334e-01 -8.117142319679260254e-02 -9.475872665643692017e-02 -1.491887271404266357e-01
9.000000000000000000e+00 4.742242813110351562e+01 -2.080677986145019531e+01 -1.170463800430297852e+00 -8.271986991167068481e-02 -3.759551048278808594e-01 -3.493016958236694336e-01
1.000000000000000000e+01 4.815383148193359375e+01 -2.066137695312500000e+01 -1.394107937812805176e+00 -1.048770844936370850e-01 -4.496954977512359619e-01 -3.866598606109619141e-01
1.100000000000000000e+01 4.686201095581054688e+01 -2.167665290832519531e+01 -7.808712124824523926e-01 -1.449481844902038574e-01 -2.777458131313323975e-01 -4.761610329151153564e-01
1.200000000000000000e+01 4.830693054199218750e+01 -2.138541984558105469e+01 -1.103166341781616211e+00 -1.483146548271179199e-01 -3.754442930221557617e-01 -5.296493172645568848e-01
1.300000000000000000e+01 4.888698577880859375e+01 -2.051945686340332031e+01 -1.603643536567687988e+00 -9.292297065258026123e-02 -5.089699625968933105e-01 -4.253386557102203369e-01
1.400000000000000000e+01 4.903206253051757812e+01 -2.124509811401367188e+01 -1.269011616706848145e+00 -1.543235182762145996e-01 -4.270005524158477783e-01 -5.474968552589416504e-01
1.500000000000000000e+01 4.758355331420898438e+01 -2.152922821044921875e+01 -9.346275925636291504e-01 -1.626773774623870850e-01 -3.291915059089660645e-01 -5.043886303901672363e-01
1.600000000000000000e+01 4.669285964965820312e+01 -2.095580101013183594e+01 -9.343507289886474609e-01 -8.665404468774795532e-02 -3.063014447689056396e-01 -3.097603023052215576e-01
1.700000000000000000e+01 5.036022949218750000e+01 -2.024225044250488281e+01 -2.015384912490844727e+00 -1.008140891790390015e-01 -6.348596811294555664e-01 -4.846579134464263916e-01
1.800000000000000000e+01 5.123764038085937500e+01 -2.082924842834472656e+01 -1.706694960594177246e+00 -1.178721711039543152e-01 -5.473701357841491699e-01 -5.643508434295654297e-01
1.900000000000000000e+01 4.976291656494140625e+01 -2.110580253601074219e+01 -1.425964951515197754e+00 -1.367163062095642090e-01 -4.688043892383575439e-01 -5.663378834724426270e-01
2.000000000000000000e+01 5.197274780273437500e+01 -2.068717575073242188e+01 -1.821487903594970703e+00 -1.136910766363143921e-01 -5.805537104606628418e-01 -5.438179969787597656e-01
2.100000000000000000e+01 5.050101470947265625e+01 -2.096874237060546875e+01 -1.571321964263916016e+00 -1.408851444721221924e-01 -5.136620998382568359e-01 -5.677841305732727051e-01
2.200000000000000000e+01 5.183234024047851562e+01 -1.996061325073242188e+01 -2.361588001251220703e+00 -1.041726469993591309e-01 -7.397282123565673828e-01 -5.295925736427307129e-01
2.300000000000000000e+01 4.962194442749023438e+01 -2.037934684753417969e+01 -1.812659621238708496e+00 -1.082585379481315613e-01 -5.762754678726196289e-01 -4.525957107543945312e-01
2.400000000000000000e+01 5.109704208374023438e+01 -2.010272216796875000e+01 -2.198602199554443359e+00 -1.139446794986724854e-01 -6.937640905380249023e-01 -5.074176192283630371e-01
2.500000000000000000e+01 5.405023574829101562e+01 -1.952743339538574219e+01 -2.603928804397583008e+00 -1.002210676670074463e-01 -8.112449645996093750e-01 -5.245077610015869141e-01
2.600000000000000000e+01 5.331044006347656250e+01 -1.967299842834472656e+01 -2.562361001968383789e+00 -9.655011445283889771e-02 -7.976733446121215820e-01 -5.407008528709411621e-01
2.700000000000000000e+01 5.271442794799804688e+01 -2.054370307922363281e+01 -1.911543726921081543e+00 -7.895013689994812012e-02 -5.971481800079345703e-01 -5.134161710739135742e-01
2.800000000000000000e+01 5.495590972900390625e+01 -2.010264968872070312e+01 -1.922303438186645508e+00 -8.075647987425327301e-03 -5.791137218475341797e-01 -2.974340617656707764e-01
2.900000000000000000e+01 5.478977203369140625e+01 -1.938115119934082031e+01 -2.613535165786743164e+00 -1.101746708154678345e-01 -8.171129822731018066e-01 -5.239792466163635254e-01
3.000000000000000000e+01 5.420899581909179688e+01 -2.025038337707519531e+01 -1.990962505340576172e+00 -2.498764917254447937e-02 -6.047850251197814941e-01 -4.069490432739257812e-01
3.100000000000000000e+01 5.257042312622070312e+01 -1.981785011291503906e+01 -2.485149383544921875e+00 -1.156605780124664307e-01 -7.802430391311645508e-01 -5.390181541442871094e-01
3.200000000000000000e+01 5.346182250976562500e+01 -2.039739990234375000e+01 -1.972508192062377930e+00 -5.692731589078903198e-02 -6.088306307792663574e-01 -4.625444710254669189e-01
3.300000000000000000e+01 5.553008651733398438e+01 -1.920907402038574219e+01 -2.445736408233642578e+00 -1.180047392845153809e-01 -7.691223025321960449e-01 -5.052330493927001953e-01
3.400000000000000000e+01 5.725695419311523438e+01 -1.950564956665039062e+01 -1.468353629112243652e+00 3.026579022407531738e-01 -3.497087061405181885e-01 1.243206933140754700e-01
3.500000000000000000e+01 5.571527862548828125e+01 -1.992561912536621094e+01 -1.840633392333984375e+00 8.669466525316238403e-02 -5.261815786361694336e-01 -1.590886563062667847e-01
3.600000000000000000e+01 5.802567672729492188e+01 -1.928994750976562500e+01 -1.189700484275817871e+00 4.381500482559204102e-01 -2.254651188850402832e-01 3.468075990676879883e-01
3.700000000000000000e+01 5.701029205322265625e+01 -1.880601882934570312e+01 -1.808343172073364258e+00 -1.327318698167800903e-02 -5.464848875999450684e-01 -3.012014329433441162e-01
3.800000000000000000e+01 5.627075195312500000e+01 -1.900946998596191406e+01 -2.131204605102539062e+00 -4.932700097560882568e-02 -6.541594862937927246e-01 -4.318336546421051025e-01
3.900000000000000000e+01 5.774827575683593750e+01 -1.859877204895019531e+01 -1.409669399261474609e+00 6.628837436437606812e-02 -4.030143022537231445e-01 -1.491533964872360229e-01
4.000000000000000000e+01 5.648667907714843750e+01 -1.971755790710449219e+01 -1.710283637046813965e+00 1.793299019336700439e-01 -4.592861235141754150e-01 -2.928504906594753265e-02
4.100000000000000000e+01 5.914070129394531250e+01 -1.790256118774414062e+01 -7.786223292350769043e-02 4.220002889633178711e-01 1.032414138317108154e-01 2.943948209285736084e-01
4.200000000000000000e+01 5.952583312988281250e+01 -1.853448677062988281e+01 -5.445851087570190430e-01 8.459798693656921387e-01 9.041843563318252563e-02 6.215799450874328613e-01
4.300000000000000000e+01 6.026574707031250000e+01 -1.809379196166992188e+01 -1.252279281616210938e-01 1.180392622947692871e+00 3.165494203567504883e-01 8.020793795585632324e-01
4.400000000000000000e+01 5.878223419189453125e+01 -1.896722793579101562e+01 -9.412018656730651855e-01 7.114301919937133789e-01 -6.893151253461837769e-02 5.134742259979248047e-01
4.500000000000000000e+01 6.099867248535156250e+01 -1.764663124084472656e+01 8.154073357582092285e-02 1.362706065177917480e+00 4.332740306854248047e-01 7.169058918952941895e-01
4.600000000000000000e+01 6.048994827270507812e+01 -1.708762741088867188e+01 9.647923111915588379e-01 1.225029587745666504e+00 6.569465398788452148e-01 9.750600457191467285e-01
4.700000000000000000e+01 5.845867919921875000e+01 -1.829862213134765625e+01 -7.599830031394958496e-01 1.788861006498336792e-01 -1.743290722370147705e-01 5.411846190690994263e-02
4.800000000000000000e+01 5.981904220581054688e+01 -1.749854469299316406e+01 4.184750616550445557e-01 5.711809992790222168e-01 2.968968152999877930e-01 6.325458288192749023e-01
4.900000000000000000e+01 6.402732086181640625e+01 -1.271555233001708984e+01 6.249282360076904297e-01 1.112079739570617676e+00 5.211023688316345215e-01 8.115537762641906738e-01
5.000000000000000000e+01 6.380670547485351562e+01 -1.227174377441406250e+01 7.525174617767333984e-01 1.019874334335327148e+00 5.317175388336181641e-01 8.229629397392272949e-01
5.100000000000000000e+01 6.272052383422851562e+01 -1.348061752319335938e+01 4.408059120178222656e-01 8.517821431159973145e-01 3.877764046192169189e-01 6.432886719703674316e-01
5.200000000000000000e+01 6.233651351928710938e+01 -1.424219036102294922e+01 5.240448117256164551e-01 1.144343614578247070e+00 5.005165338516235352e-01 7.831508517265319824e-01
5.300000000000000000e+01 6.320764541625976562e+01 -1.283880043029785156e+01 5.793393254280090332e-01 7.345443367958068848e-01 3.941650986671447754e-01 6.918414235115051270e-01
5.400000000000000000e+01 6.191488647460937500e+01 -1.504100608825683594e+01 5.989457964897155762e-01 1.323224782943725586e+00 5.766511559486389160e-01 8.897767066955566406e-01
5.500000000000000000e+01 6.146208953857421875e+01 -1.579369926452636719e+01 6.239897608757019043e-01 1.511446595191955566e+00 6.406309008598327637e-01 1.006371378898620605e+00
5.600000000000000000e+01 6.157229995727539062e+01 -1.706606101989746094e+01 5.626606941223144531e-01 1.188118696212768555e+00 5.252338051795959473e-01 7.483108639717102051e-01
5.700000000000000000e+01 6.103483200073242188e+01 -1.651922035217285156e+01 9.286186099052429199e-01 1.704472064971923828e+00 7.899271845817565918e-01 1.110428333282470703e+00
5.800000000000000000e+01 6.333197784423828125e+01 -1.445271396636962891e+01 6.558004617691040039e-01 1.013974785804748535e+00 5.009325742721557617e-01 8.968493342399597168e-01
5.900000000000000000e+01 6.292007446289062500e+01 -1.500309181213378906e+01 6.705180406570434570e-01 1.058102369308471680e+00 5.185860991477966309e-01 8.817495107650756836e-01
6.000000000000000000e+01 6.244243240356445312e+01 -1.561079216003417969e+01 6.510990858078002930e-01 1.138050913810729980e+00 5.367450118064880371e-01 9.253299236297607422e-01
6.100000000000000000e+01 6.199459838867187500e+01 -1.635201263427734375e+01 7.507650256156921387e-01 1.208410739898681641e+00 5.877526998519897461e-01 9.430450201034545898e-01
6.200000000000000000e+01 6.288746643066406250e+01 -1.437613964080810547e+01 6.374664902687072754e-01 1.025884151458740234e+00 4.990051984786987305e-01 8.641323447227478027e-01
6.300000000000000000e+01 6.368706130981445312e+01 -1.380090141296386719e+01 6.335507035255432129e-01 1.114302515983581543e+00 5.243559479713439941e-01 8.776379227638244629e-01
6.400000000000000000e+01 6.398512268066406250e+01 -1.320910263061523438e+01 6.293478608131408691e-01 1.151726841926574707e+00 5.343224406242370605e-01 8.627085089683532715e-01
6.500000000000000000e+01 6.356108474731445312e+01 -1.309701156616210938e+01 5.776968598365783691e-01 1.025141954421997070e+00 4.808516502380371094e-01 8.066530227661132812e-01
6.600000000000000000e+01 6.320383834838867188e+01 -1.367214107513427734e+01 5.858555436134338379e-01 9.656906127929687500e-01 4.654638469219207764e-01 8.519399762153625488e-01
6.700000000000000000e+01 5.989504241943359375e+01 -1.551336479187011719e+01 -2.916427774835028686e-06 -5.552794391405768692e-06 -2.540766672609606758e-06 -2.256261268485104665e-06
6.800000000000000000e+01 6.046890640258789062e+01 -1.599821758270263672e+01 2.705535735003650188e-06 2.282727109559345990e-06 1.496478830631531309e-06 2.861274595034046797e-08
6.900000000000000000e+01 6.105422210693359375e+01 -1.447091579437255859e+01 9.273766181649989448e-07 1.931221504491986707e-06 8.575794367970956955e-07 -1.704993564999313094e-06
7.000000000000000000e+01 6.223260879516601562e+01 -1.352114868164062500e+01 2.631717734402627684e-06 8.196759040401957463e-07 1.035418108585872687e-06 -1.123335323427454568e-06
7.100000000000000000e+01 6.169067382812500000e+01 -1.393711185455322266e+01 -1.916228029585909098e-06 -1.430422230441763531e-06 -1.003995066639618017e-06 2.017920678554219194e-06
7.200000000000000000e+01 6.092002868652343750e+01 -1.535791873931884766e+01 -4.422819984029047191e-06 5.429711791293811984e-07 -1.163954607363848481e-06 1.057983922692073975e-06
7.300000000000000000e+01 6.189405059814453125e+01 -1.406194686889648438e+01 -4.870586053584702313e-06 -9.909578011502162553e-07 -1.758463213263894431e-06 1.523624746369023342e-06
7.400000000000000000e+01 6.140942001342773438e+01 -1.470139122009277344e+01 4.945362888975068927e-06 4.247587241934525082e-07 1.611036509530094918e-06 -1.685205688772839494e-06
7.500000000000000000e+01 6.039819717407226562e+01 -1.499867916107177734e+01 8.875635444383078720e-07 -1.790148189684259705e-06 -2.707753878894436639e-07 8.759292313698097132e-07
7.600000000000000000e+01 5.787326049804687500e+01 -1.679512977600097656e+01 -8.165817462213453837e-07 1.959480186997097917e-06 3.428695549700933043e-07 -2.719465101108653471e-06
7.700000000000000000e+01 5.864776611328125000e+01 -1.639934539794921875e+01 8.197476972782169469e-07 -2.321958163520321250e-06 -4.506631512413150631e-07 2.063728743451065384e-06
7.800000000000000000e+01 5.936615371704101562e+01 -1.597429561614990234e+01 -1.041668383550131693e-06 2.863854660972720012e-06 5.466558832267764956e-07 -1.387864926982729230e-06
7.900000000000000000e+01 5.866613388061523438e+01 -1.735568428039550781e+01 -5.567075731960358098e-06 -3.922551513824146241e-06 -2.846888264684821479e-06 3.187111815350363031e-06
8.000000000000000000e+01 5.803774261474609375e+01 -1.729933929443359375e+01 5.026015514886239544e-07 2.161578549930709414e-06 7.992539963197486941e-07 3.076643906751996838e-06
8.100000000000000000e+01 5.816012954711914062e+01 -1.773177146911621094e+01 3.337134558023535646e-06 1.715536427582264878e-06 1.515801272944372613e-06 -4.324482688389252871e-06
8.200000000000000000e+01 5.991773223876953125e+01 -1.650707054138183594e+01 -6.935871965652040672e-07 -2.519227336961193942e-06 -9.638443998483126052e-07 1.943792540259892121e-06
8.300000000000000000e+01 5.922435760498046875e+01 -1.691722106933593750e+01 2.992604322571423836e-06 1.806436443985148799e-06 1.439712264073023107e-06 -2.864185717044165358e-06
8.400000000000000000e+01 5.541037368774414062e+01 -1.842636871337890625e+01 1.738739570100733545e-06 -4.133525180805008858e-06 -7.184356718425988220e-07 -5.124906010678387247e-07
8.500000000000000000e+01 5.528024673461914062e+01 -1.769467163085937500e+01 -1.105379851651377976e-05 -1.783266156962781679e-06 -3.851119345199549571e-06 2.005005853789043613e-06
8.600000000000000000e+01 5.680945968627929688e+01 -1.820807456970214844e+01 2.736195256147766486e-06 -2.008346200454980135e-06 2.183546996548102470e-07 5.886116696274257265e-07
8.700000000000000000e+01 5.653432083129882812e+01 -1.784011840820312500e+01 -1.409458673151675612e-05 7.096797958183742594e-07 -4.015472313767531887e-06 -1.099039536711643450e-06
8.800000000000000000e+01 5.749586105346679688e+01 -1.798945617675781250e+01 -4.212340172671247274e-06 8.129883326546405442e-07 -1.019805495161563158e-06 2.068011554001714103e-06
8.900000000000000000e+01 5.704250335693359375e+01 -1.709250259399414062e+01 -6.630551183661737014e-07 -3.145212303934386000e-06 -1.142480186899774708e-06 3.992953679698985070e-06
9.000000000000000000e+01 5.727741241455078125e+01 -1.754523468017578125e+01 6.329589268716517836e-06 -1.912747620735899545e-06 1.325052494394185487e-06 -4.464171524887206033e-06
9.100000000000000000e+01 5.618411636352539062e+01 -1.738935279846191406e+01 1.174055523733841255e-05 2.806762040563626215e-06 4.364195319794816896e-06 -3.522145561873912811e-06
9.200000000000000000e+01 5.616222381591796875e+01 -1.831321144104003906e+01 1.698640403446916025e-06 3.403841219551395625e-06 1.530744498268177267e-06 1.018761508930765558e-06
9.300000000000000000e+01 5.241899490356445312e+01 -1.905364608764648438e+01 3.086579170030745445e-07 -2.779398528218735009e-06 -7.412222089442366268e-07 8.186493687389884144e-07
9.400000000000000000e+01 5.315275955200195312e+01 -1.891308021545410156e+01 3.498198397622331868e-09 3.032859922313946299e-06 9.109074312618758995e-07 -1.041123937284282874e-06
9.500000000000000000e+01 5.388480377197265625e+01 -1.876910972595214844e+01 -5.353106757866044063e-07 -3.892703716701362282e-06 -1.328404323430731893e-06 1.822749254642985761e-06
9.600000000000000000e+01 5.372604370117187500e+01 -1.804615974426269531e+01 -7.667405270694871433e-07 -1.346988256045733579e-06 -6.341186349345662165e-07 -3.423002112867834512e-07
9.700000000000000000e+01 5.461503982543945312e+01 -1.862159919738769531e+01 -1.322861749031289946e-06 4.991495188733097166e-06 1.100590111491328571e-06 -1.588063241797499359e-06
9.800000000000000000e+01 5.444890213012695312e+01 -1.790010070800781250e+01 3.767655925912549719e-06 2.929825313913170248e-06 2.009244326472980902e-06 2.666120906269497937e-07
9.900000000000000000e+01 5.227499008178710938e+01 -1.832779121398925781e+01 -1.059821101989655290e-06 7.177238785516237840e-07 -1.026291727157513378e-07 -6.196741537678462919e-07
1.000000000000000000e+02 5.300137710571289062e+01 -1.818867683410644531e+01 6.085405743760929909e-07 -2.244943715368208359e-07 1.152138580096107034e-07 8.635196309114689939e-07
1.010000000000000000e+02 5.021003341674804688e+01 -1.947287559509277344e+01 -6.392197064997162670e-07 3.025427531611057930e-06 7.158623702707700431e-07 -9.248857963939371984e-07
1.020000000000000000e+02 5.094702148437500000e+01 -1.933323669433593750e+01 3.433300435062847100e-07 -3.014270305357058533e-06 -8.012820558178646024e-07 5.768053483734547626e-07
1.030000000000000000e+02 4.947301483154296875e+01 -1.961274909973144531e+01 -1.166982599443144863e-07 -3.141982915622065775e-06 -9.776043725651106797e-07 6.336129558803804684e-07
1.040000000000000000e+02 5.168397521972656250e+01 -1.919383239746093750e+01 -2.547425026477867505e-07 2.749492068687686697e-06 7.484248385480896104e-07 -6.922626880623283796e-07
1.050000000000000000e+02 5.154356384277343750e+01 -1.846726989746093750e+01 1.159972953246324323e-06 -1.454198581996024586e-06 -8.826770425685026566e-08 3.531762047259690007e-07
1.060000000000000000e+02 4.933204269409179688e+01 -1.888629341125488281e+01 -2.122463001796859317e-06 1.305253817918128334e-06 -2.451627381105936365e-07 -1.718661792438069824e-06
1.070000000000000000e+02 5.080642700195312500e+01 -1.860671043395996094e+01 -1.696904178061231505e-06 1.407408831255452242e-06 -8.684862251584490878e-08 -8.685538546160387341e-07
1.080000000000000000e+02 5.006925201416015625e+01 -1.874638557434082031e+01 1.231751753039134201e-06 -1.914448830575565808e-06 -2.048091118922457099e-07 4.299567422094696667e-07
1.090000000000000000e+02 4.725450897216796875e+01 -2.004898452758789062e+01 -1.690037720436521340e-06 1.660743350839766208e-06 -8.788315852825689944e-09 -1.376895397697808221e-06
1.100000000000000000e+02 4.709337997436523438e+01 -1.932653617858886719e+01 -5.020584126214089338e-07 -4.020483004296693252e-07 -2.712320110731525347e-07 8.432256208834587596e-07
1.110000000000000000e+02 4.651494979858398438e+01 -2.019693183898925781e+01 -1.577003558850265108e-06 -1.340825406259682495e-06 -8.753486895329842810e-07 3.098572562976187328e-07
1.120000000000000000e+02 4.799435043334960938e+01 -1.990183448791503906e+01 -8.788474019638670143e-07 -2.421281806164188311e-06 -9.900387567540747114e-07 5.750917466684768442e-07
1.130000000000000000e+02 4.873443222045898438e+01 -1.975547790527343750e+01 -1.129331508309405763e-06 2.651452859936398454e-06 4.566363998037559213e-07 -1.292330125579610467e-06
1.140000000000000000e+02 4.858935928344726562e+01 -1.902983856201171875e+01 5.463202228384034242e-07 -1.454513494536513463e-06 -2.724579815094330115e-07 8.233698736148653552e-07
1.150000000000000000e+02 4.634579849243164062e+01 -1.947607994079589844e+01 -2.541679123169160448e-06 -4.973819045517302584e-07 -9.117182457885064650e-07 -2.237795797555008903e-06
1.160000000000000000e+02 4.784125137329101562e+01 -1.917778968811035156e+01 -2.259810798932448961e-06 4.935084803037170786e-07 -5.298906557982263621e-07 -2.353576292080106214e-06
1.170000000000000000e+02 4.432126998901367188e+01 -2.078344535827636719e+01 -2.078740408251178451e-06 7.078176622599130496e-08 -6.023875585015048273e-07 -7.210987860162276775e-07
1.180000000000000000e+02 4.505051040649414062e+01 -2.057725715637207031e+01 -1.701097630757431034e-06 -3.719975723015522817e-07 -6.219285637598659378e-07 -5.458651131107217225e-08
1.190000000000000000e+02 4.359247589111328125e+01 -2.099166297912597656e+01 -1.153185394286992960e-06 2.323187118236091919e-07 -2.762600104233570164e-07 1.545407570802126429e-07
1.200000000000000000e+02 4.411215209960937500e+01 -2.007356262207031250e+01 -1.262787577616109047e-06 1.355893232357630040e-06 2.793169606718493014e-08 3.218404458493751008e-07
1.210000000000000000e+02 4.578023910522460938e+01 -2.037289810180664062e+01 -2.098943241435335949e-06 4.805135631613666192e-07 -4.855289148508745711e-07 -1.203765464197203983e-06
1.220000000000000000e+02 4.559988403320312500e+01 -1.965488052368164062e+01 -1.367705522170581389e-06 6.053847414477786515e-07 -2.286962228481570492e-07 5.263671596367203165e-07
1.230000000000000000e+02 4.336897659301757812e+01 -2.028584671020507812e+01 -3.398843318791477941e-06 -1.276751163459266536e-06 -1.402678321937855799e-06 -9.268782719118462410e-07
1.240000000000000000e+02 4.485577392578125000e+01 -1.986330604553222656e+01 -2.852115358109585941e-06 -8.693465929354715627e-07 -1.116438625103910454e-06 -1.423607386641378980e-06
1.250000000000000000e+02 4.104784393310546875e+01 -2.109504699707031250e+01 3.025149908353341743e-06 -1.323078436143987346e-06 5.106214189254387747e-07 6.647057944064727053e-07
1.260000000000000000e+02 4.266473007202148438e+01 -2.049994087219238281e+01 9.269702445635630284e-07 1.184409143206721637e-06 6.334137765406921972e-07 2.409941544101457112e-06
1.270000000000000000e+02 4.164785385131835938e+01 -2.166072845458984375e+01 -2.575622147560352460e-06 -1.063352854657750868e-07 -8.045872164075262845e-07 7.982670240380684845e-07
1.280000000000000000e+02 4.282600402832031250e+01 -2.122967720031738281e+01 -1.847187490966462065e-06 -2.086080485241836868e-06 -1.179980358756438363e-06 -1.380913772663916461e-06
1.290000000000000000e+02 4.148378753662109375e+01 -2.086083030700683594e+01 -2.291553983013727702e-06 -2.175602958232047968e-06 -1.340147036898997612e-06 -6.971794164201128297e-07
1.300000000000000000e+02 4.205922317504882812e+01 -2.122107124328613281e+01 4.680252459365874529e-06 3.845153969450620934e-06 2.557621883170213550e-06 9.113220471590466332e-07
1.310000000000000000e+02 4.202204132080078125e+01 -2.066273307800292969e+01 -7.128799552447162569e-06 2.684435685296193697e-06 -1.333309114670555573e-06 -7.141475748539960478e-07
1.320000000000000000e+02 4.182039642333984375e+01 -2.331437301635742188e+01 -1.764656160958111286e-03 -8.526279777288436890e-02 -2.610823698341846466e-02 2.537371404469013214e-02
1.330000000000000000e+02 4.184820938110351562e+01 -2.269850349426269531e+01 1.490828488022089005e-02 -3.664414212107658386e-02 -6.520757451653480530e-03 -1.681748405098915100e-02
1.340000000000000000e+02 4.258674240112304688e+01 -2.282795143127441406e+01 -3.916999325156211853e-02 -1.625622063875198364e-01 -6.051966175436973572e-02 -1.229720637202262878e-01
1.350000000000000000e+02 4.327194595336914062e+01 -2.268540954589843750e+01 -1.186177134513854980e-01 -1.792272329330444336e-01 -8.935347944498062134e-02 -2.141793966293334961e-01
1.360000000000000000e+02 4.303801345825195312e+01 -2.198284149169921875e+01 -1.002257093787193298e-01 -5.483816936612129211e-02 -4.651916399598121643e-02 -9.039293229579925537e-02
1.370000000000000000e+02 4.236244201660156250e+01 -2.325310325622558594e+01 -3.852647915482521057e-02 -1.937323361635208130e-01 -6.967764347791671753e-02 -1.323626041412353516e-01
1.380000000000000000e+02 4.224109268188476562e+01 -2.226788902282714844e+01 -2.331644110381603241e-02 -3.659208118915557861e-02 -1.797255687415599823e-02 -2.842448092997074127e-02
1.390000000000000000e+02 4.198795318603515625e+01 -2.336278915405273438e+01 1.621109992265701294e-02 -2.350337803363800049e-01 -6.564680486917495728e-02 -3.802151232957839966e-02
1.400000000000000000e+02 4.218284988403320312e+01 -2.297873306274414062e+01 -1.126334816217422485e-02 -8.747354149818420410e-02 -2.962106652557849884e-02 -6.001395359635353088e-02
1.410000000000000000e+02 1.664671516418457031e+01 -4.055796146392822266e+00 -3.690472794914967380e-06 -5.282817255647387356e-06 -2.691986992431338876e-06 -3.936814209737349302e-06
1.420000000000000000e+02 1.605672454833984375e+01 -3.613803625106811523e+00 3.522004362821462564e-06 5.643619715556269512e-06 2.749687155301216990e-06 3.975401341449469328e-06
1.430000000000000000e+02 1.505074691772460938e+01 -3.785051584243774414e+00 4.513693966146092862e-06 5.697327196685364470e-06 3.063306394324172288e-06 3.570964736354653724e-06
1.440000000000000000e+02 1.676145553588867188e+01 -5.066381931304931641e+00 -5.143742782820481807e-06 -4.719404387287795544e-06 -2.958944151032483205e-06 -3.496551471471320838e-06
1.450000000000000000e+02 1.619213485717773438e+01 -4.639872550964355469e+00 4.794904270966071635e-06 4.987822194379987195e-06 2.934817985078552738e-06 3.557584250302170403e-06
1.460000000000000000e+02 1.562185287475585938e+01 -4.212639808654785156e+00 -4.581295343086821958e-06 -5.269316261546919122e-06 -2.955183390440652147e-06 -3.598041303121135570e-06
1.470000000000000000e+02 1.723574447631835938e+01 -4.497066020965576172e+00 3.910662144335219637e-06 4.851634912483859807e-06 2.628689117045723833e-06 3.843813829007558525e-06
1.480000000000000000e+02 1.546591091156005859e+01 -3.171455144882202148e+00 -3.393216275071608834e-06 -6.067340109439101070e-06 -2.838166892615845427e-06 -3.995377483079209924e-06
1.490000000000000000e+02 1.831977081298828125e+01 -5.492505550384521484e+00 4.371554950921563432e-06 4.044157321914099157e-06 2.524713636375963688e-06 3.733090579771669582e-06
1.500000000000000000e+02 1.780974006652832031e+01 -6.028855800628662109e+00 -5.661137947754468769e-06 -3.926478711946401745e-06 -2.876284952435526066e-06 -3.329431365273194388e-06
1.510000000000000000e+02 1.730055999755859375e+01 -5.529824733734130859e+00 5.235679509496549144e-06 4.425275619723834097e-06 2.898286538766114973e-06 3.394114855836960487e-06
1.520000000000000000e+02 1.831691551208496094e+01 -6.530111789703369141e+00 6.203656539582880214e-06 3.491088364171446301e-06 2.908423539338400587e-06 3.352345402163336985e-06
1.530000000000000000e+02 1.882190132141113281e+01 -7.033396244049072266e+00 -6.891696557431714609e-06 -3.164488816764787771e-06 -3.016855544046848081e-06 -3.444496996962698177e-06
1.540000000000000000e+02 1.936644935607910156e+01 -6.531159877777099609e+00 5.233949650573777035e-06 3.555948524081031792e-06 2.636969611558015458e-06 3.888944775098934770e-06
1.550000000000000000e+02 1.779333305358886719e+01 -4.976417064666748047e+00 -4.086193712282693014e-06 -4.426735813467530534e-06 -2.553878857725067064e-06 -3.765446081160916947e-06
1.560000000000000000e+02 1.884420585632324219e+01 -6.010818481445312500e+00 -4.763286142406286672e-06 -3.758735829251236282e-06 -2.556606659709359519e-06 -3.766854661080287769e-06
1.570000000000000000e+02 2.031454658508300781e+01 -7.659852027893066406e+00 6.167126230138819665e-06 3.317265509394928813e-06 2.845317567334859632e-06 4.188093953416682780e-06
1.580000000000000000e+02 2.077073287963867188e+01 -8.240385055541992188e+00 -6.470490006904583424e-06 -3.297848707006778568e-06 -2.930501750597613864e-06 -4.302521119825541973e-06
1.590000000000000000e+02 1.929654693603515625e+01 -7.565644741058349609e+00 7.151719728426542133e-06 2.968757826238288544e-06 3.036143198187346570e-06 3.499589865896268748e-06
1.600000000000000000e+02 2.062350273132324219e+01 -9.254287719726562500e+00 -7.322846158785978332e-06 -2.972795755340484902e-06 -3.088692437813733704e-06 -3.849317636195337400e-06
1.610000000000000000e+02 2.018299865722656250e+01 -8.690117835998535156e+00 7.294159786397358403e-06 2.795749651340884157e-06 3.026972990483045578e-06 3.792887810050160624e-06
1.620000000000000000e+02 1.974063491821289062e+01 -8.127175331115722656e+00 -7.315826223930343986e-06 -2.770196942947222851e-06 -3.025806790901697241e-06 -3.668789986477349885e-06
1.630000000000000000e+02 2.122505760192871094e+01 -8.822144508361816406e+00 6.518219834106275812e-06 3.200433866368257441e-06 2.915596041930257343e-06 4.271298621461028233e-06
1.640000000000000000e+02 1.985663604736328125e+01 -7.080731868743896484e+00 -5.709774541173828766e-06 -3.437660325289471075e-06 -2.744230414464254864e-06 -3.995564384240424260e-06
1.650000000000000000e+02 2.203341293334960938e+01 -1.005728912353515625e+01 6.065155048418091610e-06 2.720412794587900862e-06 2.635670398376532830e-06 3.603700633902917616e-06
1.660000000000000000e+02 2.140859222412109375e+01 -1.045394611358642578e+01 -6.385426786437164992e-06 -3.490842800601967610e-06 -2.962880898849107325e-06 -3.690549192469916306e-06
1.670000000000000000e+02 2.103163337707519531e+01 -9.842617988586425781e+00 6.975038104428676888e-06 3.129664264633902349e-06 3.031410642506671138e-06 4.008277755929157138e-06
1.680000000000000000e+02 2.178438568115234375e+01 -1.106581783294677734e+01 6.275944087974494323e-06 3.111811111011775210e-06 2.816326514221145771e-06 2.842728008545236662e-06
1.690000000000000000e+02 2.215780448913574219e+01 -1.167914867401123047e+01 -6.166324965306557715e-06 -2.380224032094702125e-06 -2.563964699220377952e-06 -2.223145202151499689e-06
1.700000000000000000e+02 2.280443191528320312e+01 -1.131808185577392578e+01 6.164068963698809966e-06 1.989031716220779344e-06 2.445930249450611882e-06 2.813318587868707255e-06
1.710000000000000000e+02 2.164555168151855469e+01 -9.428166389465332031e+00 -6.265397132665384561e-06 -3.021559678018093109e-06 -2.786086952255573124e-06 -4.041136435262160376e-06
1.720000000000000000e+02 2.242011070251464844e+01 -1.068695640563964844e+01 -5.873870577488560230e-06 -2.252769945698673837e-06 -2.437992179693537764e-06 -3.263504822825780138e-06
1.730000000000000000e+02 2.317627334594726562e+01 -1.198854827880859375e+01 -5.725250048271846026e-06 -1.313216102971637156e-06 -2.111539970428566448e-06 -2.499605898265144788e-06
1.740000000000000000e+02 2.249586677551269531e+01 -1.228262519836425781e+01 6.262118404265493155e-06 1.730067992866679560e-06 2.397655862296232954e-06 1.936249645950738341e-06
1.750000000000000000e+02 2.472507476806640625e+01 -1.492280006408691406e+01 -2.366228272876469418e-06 -3.829810566458036192e-07 -8.247627647506305948e-07 -9.070097348740091547e-07
1.760000000000000000e+02 2.432830429077148438e+01 -1.420704555511474609e+01 3.007495251949876547e-06 8.790730703367444221e-07 1.165970502370328177e-06 1.010146206681383774e-06
1.770000000000000000e+02 2.347621726989746094e+01 -1.372449684143066406e+01 8.424424891018134076e-07 4.967069457961770240e-07 4.017448418380809017e-07 -9.206460731547849718e-07
1.780000000000000000e+02 2.353110694885253906e+01 -1.271993827819824219e+01 4.635126515495358035e-06 1.126571191889524926e-06 1.728509346321516205e-06 2.131500195901026018e-06
1.790000000000000000e+02 2.444098472595214844e+01 -1.518375492095947266e+01 -4.786343197338283062e-07 -1.198041331917920616e-06 -5.030026954955246765e-07 -5.610207836070912890e-07
1.800000000000000000e+02 2.503612327575683594e+01 -1.553747558593750000e+01 9.717873581394087523e-07 5.619208991447521839e-07 4.601124885539320530e-07 5.290339117891562637e-07
1.810000000000000000e+02 2.393114471435546875e+01 -1.346158027648925781e+01 -3.660619313450297341e-06 -1.037432980410812888e-06 -1.409415631314914208e-06 -1.481244453316321597e-06
1.820000000000000000e+02 2.295725822448730469e+01 -1.346156215667724609e+01 7.539627404185011983e-06 8.607136123828240670e-07 2.520102270864299498e-06 2.017852693825261667e-06
1.830000000000000000e+02 2.310306739807128906e+01 -1.394699954986572266e+01 -2.960544634333928116e-06 -2.227150844191783108e-06 -1.556308575345610734e-06 -6.199162783104839036e-08
1.840000000000000000e+02 2.333634757995605469e+01 -1.442708492279052734e+01 -4.527967121248366311e-07 2.382363391006947495e-06 5.788700150333170313e-07 -2.072587676593684591e-06
1.850000000000000000e+02 2.279407119750976562e+01 -1.289781570434570312e+01 -6.294337708823150024e-06 -1.021695993586035911e-06 -2.194810122091439553e-06 -1.229661052093433682e-06
1.860000000000000000e+02 2.378209495544433594e+01 -1.479918479919433594e+01 2.045126620942028239e-06 1.345269765806733631e-06 1.017118961499363650e-06 6.560832161994767375e-07
1.870000000000000000e+02 2.380115509033203125e+01 -1.430604076385498047e+01 -2.065193939415621571e-06 -1.237841843249043450e-06 -9.909107347993995063e-07 8.397505553148221225e-07
1.880000000000000000e+02 2.481090354919433594e+01 -1.191462898254394531e+01 -7.115369498933432624e-06 -7.513875971199013293e-06 -4.388773504615528509e-06 1.080016500054625794e-05
1.890000000000000000e+02 2.445840454101562500e+01 -1.291014575958251953e+01 -1.982483126994338818e-06 -1.256248015124583617e-05 -4.363488642411539331e-06 1.024818266159854829e-05
1.900000000000000000e+02 2.665409660339355469e+01 -1.626477622985839844e+01 1.231688088410010096e-06 1.871910717454738915e-05 5.985238658468006179e-06 1.731856173137202859e-05
1.910000000000000000e+02 2.664365005493164062e+01 -1.577785682678222656e+01 -4.785254986927611753e-06 2.566695002315100282e-06 -6.655679385403345805e-07 2.150409500245586969e-06
1.920000000000000000e+02 2.383864784240722656e+01 -1.159224033355712891e+01 -7.136334716051351279e-06 -1.834040267567615956e-05 -7.643021490366663784e-06 1.165706999017857015e-05
1.930000000000000000e+02 2.512674713134765625e+01 -1.258413887023925781e+01 -6.692283932352438569e-06 -1.352979870716808364e-05 -6.066624791856156662e-06 6.009041499055456370e-06
1.940000000000000000e+02 2.508015632629394531e+01 -1.422547531127929688e+01 2.327808715563151054e-06 -7.219240615086164325e-06 -1.467429569856903981e-06 9.432807019038591534e-06
1.950000000000000000e+02 2.576146316528320312e+01 -1.392042350769042969e+01 -9.422547918802592903e-06 -1.016749320115195587e-05 -5.877012426935834810e-06 2.658256789800361730e-06
1.960000000000000000e+02 2.569825172424316406e+01 -1.550395488739013672e+01 8.018205335247330368e-06 4.750848802359541878e-06 3.830716195807326585e-06 1.172506745206192136e-05
1.970000000000000000e+02 2.449402427673339844e+01 -1.124528026580810547e+01 -4.612511474988423288e-06 -1.494535808888031170e-05 -5.867360869160620496e-06 8.024599992495495826e-06
1.980000000000000000e+02 2.544330024719238281e+01 -1.325331687927246094e+01 -3.192921667505288497e-06 -4.022894700028700754e-06 -2.164744955734931864e-06 1.137753497459925711e-05
1.990000000000000000e+02 2.607990264892578125e+01 -1.458190250396728516e+01 1.327012114415992983e-06 1.029973191180033609e-06 7.070955803101242054e-07 1.173601958726067096e-05
2.000000000000000000e+02 2.639252471923828125e+01 -1.521985816955566406e+01 -1.035839250107528642e-05 -1.244872692041099072e-05 -6.842135917395353317e-06 2.713124786168918945e-06
2.010000000000000000e+02 2.608785629272460938e+01 -1.599215316772460938e+01 -1.826982952479738742e-05 -2.157051494577899575e-05 -1.195210279547609389e-05 -9.666268852015491575e-06
2.020000000000000000e+02 2.476847457885742188e+01 -1.356884574890136719e+01 -8.221667485486250371e-06 -1.390785018884344026e-05 -6.638855211349437013e-06 4.395392807055031881e-06
2.030000000000000000e+02 2.539211463928222656e+01 -1.487647628784179688e+01 -1.062182946043321863e-05 -9.810186384129337966e-06 -6.129604571469826624e-06 5.443928330350900069e-07
2.040000000000000000e+02 2.414904594421386719e+01 -1.225111293792724609e+01 -6.459178621298633516e-06 -1.837933268689084798e-05 -7.451553301507374272e-06 8.255287866631988436e-06
2.050000000000000000e+02 2.269077491760253906e+01 -9.641036033630371094e+00 -4.128298769501270726e-06 -2.037441845459397882e-05 -7.350814939854899421e-06 1.465476543671684340e-05
2.060000000000000000e+02 2.348543930053710938e+01 -1.093805503845214844e+01 -5.908071216254029423e-06 -2.155626680178102106e-05 -8.239300768764223903e-06 1.272923964279470965e-05
2.070000000000000000e+02 2.229273414611816406e+01 -8.991255760192871094e+00 -1.328905364061938599e-05 -2.111992216669023037e-05 -1.032269210554659367e-05 1.011986751109361649e-05
2.080000000000000000e+02 2.308835411071777344e+01 -1.029005146026611328e+01 -1.054285348800476640e-05 -1.977900137717369944e-05 -9.096556823351420462e-06 1.119885109801543877e-05
2.090000000000000000e+02 2.413209533691406250e+01 -1.057697391510009766e+01 -8.822884410619735718e-06 -9.696512279333546758e-06 -5.555818916036514565e-06 8.720895493752323091e-06
2.100000000000000000e+02 2.290665245056152344e+01 -8.576805114746093750e+00 2.132741428795270622e-06 -1.632320527278352529e-05 -4.257139153196476400e-06 1.005536068987566978e-05
2.110000000000000000e+02 2.331559562683105469e+01 -9.244379997253417969e+00 -9.830262570176273584e-06 -1.215288193634478375e-05 -6.594943442905787379e-06 7.384107448160648346e-06
2.120000000000000000e+02 2.372407913208007812e+01 -9.911190032958984375e+00 -2.424230842734687030e-06 -1.770569178916048259e-05 -6.038977062416961417e-06 1.039087510434910655e-05
2.130000000000000000e+02 2.091797065734863281e+01 -7.169854164123535156e+00 3.159656671414268203e-06 -1.014442023006267846e-05 -2.095429181281360798e-06 1.335841807303950191e-05
2.140000000000000000e+02 2.044657707214355469e+01 -6.570147991180419922e+00 -8.321107998199295253e-06 -1.350907223240938038e-05 -6.549053978233132511e-06 -1.763458385539706796e-06
2.150000000000000000e+02 2.138868331909179688e+01 -7.768980979919433594e+00 -1.246988176717422903e-05 -1.764611079124733806e-05 -9.034797585627529770e-06 5.313246674631955102e-06
2.160000000000000000e+02 2.185866355895996094e+01 -8.367236137390136719e+00 -2.217082737843156792e-06 -1.777508805389516056e-05 -5.997650987410452217e-06 1.611879997653886676e-05
2.170000000000000000e+02 2.246022033691406250e+01 -7.935092449188232422e+00 -6.611106982745695859e-06 -1.162794342235429212e-05 -5.471715212479466572e-06 2.249273620691383258e-06
2.180000000000000000e+02 2.100666618347167969e+01 -6.085235118865966797e+00 1.861628516053315252e-05 -9.916889212036039680e-06 2.609818920973339118e-06 5.944816166447708383e-06
2.190000000000000000e+02 2.149188232421875000e+01 -6.702531337738037109e+00 -1.552881371935654897e-06 -1.122360845329239964e-05 -3.832947186310775578e-06 -2.998540594489895739e-06
2.200000000000000000e+02 2.197641754150390625e+01 -7.319247722625732422e+00 8.078854079940356314e-06 -1.510754009359516203e-05 -2.108605940520646982e-06 9.806969501369167119e-06
2.210000000000000000e+02 1.885587120056152344e+01 -4.930348396301269531e+00 2.382647107879165560e-05 1.120022170653101057e-05 1.050800801749574021e-05 -4.045222397053294117e-07
2.220000000000000000e+02 1.831238174438476562e+01 -4.393686294555664062e+00 1.774007614585570991e-05 8.589616982135339640e-07 5.579711341852089390e-06 -2.538937405915930867e-05
2.230000000000000000e+02 1.939846801757812500e+01 -5.466702461242675781e+00 1.516379825261537917e-06 -7.016233666945481673e-06 -1.649956175242550671e-06 -1.239506855199579149e-05
2.240000000000000000e+02 1.994004440307617188e+01 -6.002428531646728516e+00 1.188688111142255366e-05 -7.711956300227029715e-07 3.334705752422451042e-06 8.609119504399131984e-06
2.250000000000000000e+02 2.048459243774414062e+01 -5.500192165374755859e+00 1.024123412207700312e-05 -8.531665116606745869e-06 5.128707130097609479e-07 -1.168706694443244487e-05
2.260000000000000000e+02 1.880515289306640625e+01 -3.840278863906860352e+00 4.680747224483639002e-05 4.326139787735883147e-06 1.534008333692327142e-05 -5.162319212104193866e-06
2.270000000000000000e+02 1.936590194702148438e+01 -4.393997669219970703e+00 2.432923429296351969e-05 -5.955291271675378084e-06 5.512182724487502128e-06 -2.070254413411021233e-05
2.280000000000000000e+02 1.992575645446777344e+01 -4.947409152984619141e+00 2.961513564514461905e-05 -3.470934643701184541e-06 7.843260391382500529e-06 1.515546841801551636e-06
2.290000000000000000e+02 1.695117187500000000e+01 -2.380243301391601562e+00 6.236602348508313298e-05 1.015439920593053102e-06 1.901444011309649795e-05 -3.937530345865525305e-05
2.300000000000000000e+02 1.651630020141601562e+01 -2.979079723358154297e+00 5.992347723804414272e-05 3.220383223379030824e-05 2.763819247775245458e-05 -2.212705294368788600e-05
2.310000000000000000e+02 1.590384101867675781e+01 -2.523920059204101562e+00 6.146742816781625152e-05 1.083914230548543856e-05 2.169197250623255968e-05 -4.979509321856312454e-05
2.320000000000000000e+02 1.712716102600097656e+01 -3.436568260192871094e+00 3.737020233529619873e-05 4.381517101137433201e-06 1.252551555808167905e-05 -3.731768083525821567e-05
2.330000000000000000e+02 1.758174324035644531e+01 -2.852491855621337891e+00 6.083148036850616336e-05 1.412618894391926005e-05 2.248730015708133578e-05 -1.345031796518014744e-05
2.340000000000000000e+02 1.773609352111816406e+01 -3.896142244338989258e+00 4.362926483736373484e-05 2.308930015715304762e-05 2.001557004405185580e-05 -1.100512145058019087e-05
2.350000000000000000e+02 1.821038436889648438e+01 -3.326825857162475586e+00 4.317384082241915166e-05 -1.501227075095812324e-06 1.250178502232301980e-05 -2.999333628395106643e-05
2.360000000000000000e+02 1.631900405883789062e+01 -1.910323858261108398e+00 7.779122825013473630e-05 2.133625457645393908e-05 2.973824484797660261e-05 -1.965242336154915392e-05
2.370000000000000000e+02 1.460399055480957031e+01 -1.730789542198181152e+00 8.002937101991847157e-05 7.304333394131390378e-06 2.620011218823492527e-05 -5.457435690914280713e-05
2.380000000000000000e+02 1.394003677368164062e+01 -1.356149435043334961e+00 9.470650547882542014e-05 4.105802872800268233e-05 4.072935917065478861e-05 -3.688537617563270032e-05
2.390000000000000000e+02 1.327490711212158203e+01 -9.841976165771484375e-01 9.871769725577905774e-05 9.321938705397769809e-06 3.241189187974669039e-05 -5.892483386560343206e-05
2.400000000000000000e+02 1.429506587982177734e+01 -7.068015336990356445e-01 9.328415035270154476e-05 6.171340828586835414e-06 2.983664671774022281e-05 -5.032236367696896195e-05
2.410000000000000000e+02 1.497913169860839844e+01 -1.092790365219116211e+00 8.808437996776774526e-05 2.925045555457472801e-05 3.520045356708578765e-05 -2.871889228117652237e-05
2.420000000000000000e+02 1.526644039154052734e+01 -2.107936620712280273e+00 8.460701064905151725e-05 3.967811790062114596e-05 3.728553929249756038e-05 -3.137790190521627665e-05
2.430000000000000000e+02 1.566169452667236328e+01 -1.481285929679870605e+00 7.861549966037273407e-05 6.133116585260722786e-06 2.542458423704374582e-05 -4.522708331933245063e-05
2.440000000000000000e+02 1.360982322692871094e+01 -3.235010504722595215e-01 9.472773672314360738e-05 3.279150041635148227e-05 3.825577005045488477e-05 -3.085835851379670203e-05
2.450000000000000000e+02 1.136861705780029297e+01 6.672526597976684570e-01 1.047498008119873703e-04 5.615958343696547672e-06 3.310972897452302277e-05 -4.477051697904244065e-05
2.460000000000000000e+02 1.043688488006591797e+01 2.462611943483352661e-01 1.161363688879646361e-04 2.942983201137394644e-06 3.572380592231638730e-05 -4.193980930722318590e-05
2.470000000000000000e+02 1.187135696411132812e+01 -3.428127467632293701e-01 1.043345619109459221e-04 1.704588953543861862e-06 3.181174542987719178e-05 -5.153609163244254887e-05
2.480000000000000000e+02 1.258574008941650391e+01 -6.459255814552307129e-01 1.090481237042695284e-04 4.126266867388039827e-05 4.509323844104073942e-05 -3.912741158274002373e-05
2.490000000000000000e+02 1.288842964172363281e+01 2.964896708726882935e-02 9.867137123364955187e-05 9.583685823599807918e-06 3.247651693527586758e-05 -5.024807614972814918e-05
2.500000000000000000e+02 1.060655117034912109e+01 9.770575761795043945e-01 7.607175211887806654e-05 3.836406176560558379e-05 3.433074380154721439e-05 -3.234382165828719735e-05
2.510000000000000000e+02 1.212970542907714844e+01 3.511690795421600342e-01 9.336957009509205818e-05 3.534940697136335075e-05 3.861569348373450339e-05 -3.638398266048170626e-05
2.520000000000000000e+02 1.115460968017578125e+01 -4.513646289706230164e-02 1.040207862388342619e-04 3.632139487308450043e-05 4.210265251458622515e-05 -3.769209433812648058e-05
2.530000000000000000e+02 9.832606315612792969e+00 1.131396770477294922e+00 7.893027941463515162e-05 8.237331712734885514e-06 2.615028279251419008e-05 -3.566137093002907932e-05
2.540000000000000000e+02 8.916216850280761719e+00 3.932431936264038086e-01 6.955154094612225890e-05 -8.996534234029240906e-06 1.816650183172896504e-05 -1.185237579193199053e-05
2.550000000000000000e+02 6.686530590057373047e+00 1.133687853813171387e+00 3.360385744599625468e-05 -3.560564437066204846e-06 9.012987902679014951e-06 -1.569939922774210572e-05
2.560000000000000000e+02 7.365533351898193359e+00 3.937827348709106445e-01 3.423380985623225570e-05 -4.942738542013103142e-06 8.787321348791010678e-06 -7.112404546205652878e-06
2.570000000000000000e+02 5.113072872161865234e+00 1.133639335632324219e+00 1.708352647256106138e-05 -2.013166067627025768e-06 4.521107712207594886e-06 -9.446773219679016620e-06
2.580000000000000000e+02 4.263494968414306641e+00 3.934068977832794189e-01 1.650691501708934084e-06 -2.046748477368964814e-06 -1.188170699606416747e-07 -2.221575641669915058e-06
2.590000000000000000e+02 2.752517938613891602e+00 1.133095502853393555e+00 -3.712393663590773940e-07 3.731623337444034405e-06 1.008115191325487103e-06 -6.064908006919722538e-07
2.600000000000000000e+02 3.487796306610107422e+00 3.931239545345306396e-01 -2.843262791429879144e-06 2.468231059538084082e-06 -1.125095536735898349e-07 -6.177575073706975672e-07
2.610000000000000000e+02 1.937440633773803711e+00 3.930502235889434814e-01 -3.464018391241552308e-06 1.526193727841018699e-06 -5.813474217575276271e-07 7.791648499733128119e-07
2.620000000000000000e+02 2.712807416915893555e+00 3.930954933166503906e-01 -2.246071517220116220e-06 -1.270422103516466450e-06 -1.054948029377555940e-06 -4.235691051235335181e-07
2.630000000000000000e+02 1.179242849349975586e+00 1.132586002349853516e+00 -2.716164999583270401e-06 8.944717819758807309e-07 -5.465079198074818123e-07 1.809076138670207001e-06
2.640000000000000000e+02 1.162224054336547852e+00 3.925859630107879639e-01 -5.180465905141318217e-07 -9.382143275615817402e-07 -4.368782811070559546e-07 5.119945853948593140e-07
2.650000000000000000e+02 3.932089805603027344e-01 1.131153583526611328e+00 2.695651346584782004e-06 -1.589031171533861198e-06 3.319860297779086977e-07 5.117295245327113662e-07
2.660000000000000000e+02 3.875360786914825439e-01 3.911535739898681641e-01 -1.204112209052254912e-06 2.253567110699350451e-08 -3.544729736404406140e-07 3.807518567100487417e-07
2.670000000000000000e+02 3.538852453231811523e+00 1.133123993873596191e+00 7.262001872732071206e-06 -7.111030413398111705e-07 1.965269575521233492e-06 -4.089482445124303922e-06
2.680000000000000000e+02 4.325896739959716797e+00 1.133406877517700195e+00 6.191942247824044898e-06 5.685729320248356089e-06 3.563301561371190473e-06 -5.446874638437293470e-06
2.690000000000000000e+02 5.039324760437011719e+00 3.936392962932586670e-01 4.718863237940240651e-06 3.584975502235465683e-06 2.491151462891139090e-06 -2.443262474116636440e-06
2.700000000000000000e+02 6.590091228485107422e+00 3.936878144741058350e-01 2.074146141239907593e-05 5.188053819438209757e-06 7.778854524076450616e-06 -4.537530458037508652e-06
2.710000000000000000e+02 5.899841785430908203e+00 1.133722305297851562e+00 1.899092967505566776e-05 7.859772267693188041e-06 8.055210855673067272e-06 -1.115930263040354475e-05
2.720000000000000000e+02 8.140919685363769531e+00 3.937848508358001709e-01 4.774532499141059816e-05 8.809468454273883253e-06 1.696643812465481460e-05 -8.018712833290919662e-06
2.730000000000000000e+02 8.260050773620605469e+00 1.133784890174865723e+00 5.769472045358270407e-05 -4.533989795163506642e-06 1.594821878825314343e-05 -2.339643651794176549e-05
2.740000000000000000e+02 9.046693801879882812e+00 1.133243203163146973e+00 6.960082100704312325e-05 2.191866224166005850e-05 2.745584424701519310e-05 -3.474087498034350574e-05
2.750000000000000000e+02 9.690783500671386719e+00 3.913968205451965332e-01 1.006598613457754254e-04 2.642901563376653939e-05 3.812666182057000697e-05 -2.219762427557725459e-05
2.760000000000000000e+02 7.473318576812744141e+00 1.133782744407653809e+00 3.960483445553109050e-05 1.150769094238057733e-05 1.533375871076714247e-05 -1.875433190434705466e-05
2.770000000000000000e+02 1.965805172920227051e+00 1.133050203323364258e+00 3.096580485362210311e-06 -2.490642145858146250e-07 8.542548926016024780e-07 -1.310911983409823733e-07
2.780000000000000000e+02 5.814747810363769531e+00 3.937222361564636230e-01 1.332792089669965208e-05 -3.213192712792078964e-06 3.034418568859109655e-06 -4.423910013429122046e-06
2.790000000000000000e+02 1.356510353088378906e+01 -2.044676303863525391e+00 2.831405254255514592e-06 6.982762897678185254e-06 2.944250582004315220e-06 3.840561475954018533e-06
2.800000000000000000e+02 1.321007442474365234e+01 -2.694024085998535156e+00 -4.119286131754051894e-06 -6.192688488226849586e-06 -3.093592340519535355e-06 -3.587452511055744253e-06
2.810000000000000000e+02 1.258673477172851562e+01 -2.342205762863159180e+00 4.113377144676633179e-06 6.370084520312957466e-06 3.145038590446347371e-06 3.353480224177474156e-06
2.820000000000000000e+02 1.420777034759521484e+01 -2.407426834106445312e+00 -3.020317080881795846e-06 -6.756465154467150569e-06 -2.933034693342051469e-06 -3.972373178839916363e-06
2.830000000000000000e+02 1.383262920379638672e+01 -3.045426130294799805e+00 4.277600964996963739e-06 6.001160272717243060e-06 3.083628371314262040e-06 3.640407840066473000e-06
2.840000000000000000e+02 1.445424365997314453e+01 -3.396085023880004883e+00 -4.467240160010987893e-06 -5.825085736432811245e-06 -3.087697677983669564e-06 -3.674960453281528316e-06
2.850000000000000000e+02 1.484949779510498047e+01 -2.769434452056884766e+00 3.242798129576840438e-06 6.447363375627901405e-06 2.907048383349319920e-06 4.005161827080883086e-06
2.860000000000000000e+02 1.292164993286132812e+01 -1.681509137153625488e+00 -2.648534518812084571e-06 -7.376362646027700976e-06 -3.007469103977200575e-06 -3.693612370625487529e-06
2.870000000000000000e+02 4.193712997436523438e+01 -2.395752334594726562e+01 -9.456557221710681915e-03 -3.293741643428802490e-01 -1.016492173075675964e-01 -4.120321944355964661e-02
2.880000000000000000e+02 4.225255584716796875e+01 -2.502338981628417969e+01 6.219779606908559799e-03 -5.673696994781494141e-01 -1.683449745178222656e-01 -1.241985708475112915e-01
2.890000000000000000e+02 4.341308593750000000e+01 -2.746343803405761719e+01 -1.858365982770919800e-01 -9.447847604751586914e-01 -3.391864001750946045e-01 -5.223365426063537598e-01
2.900000000000000000e+02 4.839382553100585938e+01 -2.208975601196289062e+01 -8.433986306190490723e-01 -1.964900046586990356e-01 -3.119665980339050293e-01 -6.219134330749511719e-01
2.910000000000000000e+02 4.627841186523437500e+01 -2.253524589538574219e+01 -4.945512712001800537e-01 -2.141546607017517090e-01 -2.126117795705795288e-01 -5.430858731269836426e-01
2.920000000000000000e+02 4.216506195068359375e+01 -2.738203811645507812e+01 -2.908469364047050476e-02 -1.330502271652221680e+00 -4.078761041164398193e-01 -1.467395573854446411e-01
2.930000000000000000e+02 4.243205642700195312e+01 -2.983355331420898438e+01 -5.780141353607177734e-01 -1.511736750602722168e+00 -6.269252896308898926e-01 -5.118139982223510742e-01
2.940000000000000000e+02 4.040601730346679688e+01 -3.127623939514160156e+01 -7.697740197181701660e-01 -7.407545447349548340e-01 -4.531585872173309326e-01 -6.646013259887695312e-01
2.950000000000000000e+02 3.740580368041992188e+01 -3.257870483398437500e+01 -3.988665342330932617e-01 -1.074987649917602539e-01 -1.519095897674560547e-01 -1.809305250644683838e-01
2.960000000000000000e+02 3.574725723266601562e+01 -3.280416870117187500e+01 -1.614114046096801758e-01 -2.462639845907688141e-02 -5.581134185194969177e-02 -6.222173944115638733e-02
2.970000000000000000e+02 3.405990982055664062e+01 -3.269117355346679688e+01 -1.751346327364444733e-02 -7.682192954234778881e-04 -5.484505090862512589e-03 -2.435852400958538055e-02
2.980000000000000000e+02 3.490678405761718750e+01 -3.278891754150390625e+01 -7.472404837608337402e-02 -4.396087955683469772e-03 -2.373604103922843933e-02 -3.557507693767547607e-02
2.990000000000000000e+02 3.159460449218750000e+01 -3.209556579589843750e+01 3.685998544096946716e-02 1.476277830079197884e-03 1.150087919086217880e-02 -1.201247889548540115e-02
3.000000000000000000e+02 2.452243995666503906e+01 -3.116013717651367188e+01 2.817267179489135742e-02 -3.958089509978890419e-04 8.333059027791023254e-03 -8.928837632993236184e-05
3.010000000000000000e+02 1.892452812194824219e+01 -3.108326339721679688e+01 1.515960134565830231e-02 4.571031022351235151e-04 4.685011226683855057e-03 8.079703547991812229e-04
3.020000000000000000e+02 1.732102012634277344e+01 -3.104031562805175781e+01 1.189113315194845200e-02 5.942152347415685654e-04 3.745604306459426880e-03 -9.694682375993579626e-05
3.030000000000000000e+02 1.569087219238281250e+01 -3.079343986511230469e+01 6.990047637373209000e-03 3.485082415863871574e-04 2.201566705480217934e-03 -5.121380672790110111e-04
3.040000000000000000e+02 1.255337810516357422e+01 -2.952345466613769531e+01 1.501684193499386311e-03 3.185244568157941103e-04 5.460625980049371719e-04 -3.045401535928249359e-04
3.050000000000000000e+02 6.144524097442626953e+00 -3.945159912109375000e+01 -7.287385524250566959e-04 1.421402557753026485e-03 2.077992103295400739e-04 6.873082020319998264e-04
3.060000000000000000e+02 1.124025344848632812e+01 -3.579257965087890625e+01 9.784332360140979290e-05 1.416918938048183918e-03 4.544286639429628849e-04 2.571553690358996391e-03
3.070000000000000000e+02 1.769538307189941406e+01 -3.530736541748046875e+01 1.021526986733078957e-03 9.418164263479411602e-04 5.890030297450721264e-04 5.589555483311414719e-03
3.080000000000000000e+02 2.198317527770996094e+01 -3.954834365844726562e+01 -1.077036838978528976e-02 -2.836617175489664078e-03 -4.082095809280872345e-03 3.691428340971469879e-03
3.090000000000000000e+02 3.660746765136718750e+01 -3.562834548950195312e+01 -3.850503265857696533e-02 -2.231640815734863281e-01 -7.850073277950286865e-02 -2.067076712846755981e-01
3.100000000000000000e+02 4.994390106201171875e+01 -3.983250427246093750e+01 7.427806966006755829e-03 6.003010869026184082e-01 1.823186576366424561e-01 1.135592162609100342e-01
3.110000000000000000e+02 5.869685363769531250e+01 -3.838813400268554688e+01 4.585849866271018982e-02 6.200239658355712891e-01 1.997647434473037720e-01 -4.669422507286071777e-01
3.120000000000000000e+02 6.779268646240234375e+01 -3.658707809448242188e+01 6.544677168130874634e-02 1.689079999923706055e+00 5.263580679893493652e-01 5.743064880371093750e-01
3.130000000000000000e+02 7.859084320068359375e+01 -3.733929824829101562e+01 -1.075775176286697388e-02 9.378654479980468750e+00 2.810369014739990234e+00 -9.692618995904922485e-02
3.140000000000000000e+02 7.863534545898437500e+01 -3.811310577392578125e+01 -3.289400786161422729e-02 9.409520149230957031e+00 2.812987804412841797e+00 -5.414385721087455750e-02
3.150000000000000000e+02 7.957774353027343750e+01 -3.406563568115234375e+01 -1.576571911573410034e-02 9.405664443969726562e+00 2.816969394683837891e+00 -1.186316907405853271e-01
3.160000000000000000e+02 7.889275360107421875e+01 -3.077806282043457031e+01 1.467016525566577911e-02 8.385769844055175781e+00 2.520132064819335938e+00 -3.635314404964447021e-01
3.170000000000000000e+02 7.963152313232421875e+01 -2.683801460266113281e+01 2.117711491882801056e-02 7.520373821258544922e+00 2.262465238571166992e+00 -9.999545291066169739e-03
3.180000000000000000e+02 7.131513977050781250e+01 -2.405154228210449219e+01 1.524987816810607910e+00 1.159183025360107422e+01 3.935045480728149414e+00 -2.913839340209960938e+00
3.190000000000000000e+02 7.156079864501953125e+01 -2.645258140563964844e+01 1.277129054069519043e-01 1.273092460632324219e+01 3.857591152191162109e+00 1.998093165457248688e-02
3.200000000000000000e+02 7.153353881835937500e+01 -2.564368629455566406e+01 2.680950164794921875e-01 1.287246608734130859e+01 3.942168235778808594e+00 -4.609112441539764404e-01
3.210000000000000000e+02 7.156174468994140625e+01 -2.727622985839843750e+01 6.967093348503112793e-01 1.357449722290039062e+01 4.281362056732177734e+00 9.734401702880859375e-01
3.220000000000000000e+02 6.935410308837890625e+01 -3.177725982666015625e+01 4.916163086891174316e-01 2.266703367233276367e+00 8.274958729743957520e-01 1.142413735389709473e+00
3.230000000000000000e+02 6.801473236083984375e+01 -3.287904357910156250e+01 -4.685850143432617188e-01 5.063520073890686035e-01 1.133010629564523697e-02 1.509404480457305908e-01
3.240000000000000000e+02 6.498027801513671875e+01 -3.416322708129882812e+01 -1.618445277214050293e+00 -3.006528876721858978e-02 -4.945531785488128662e-01 -3.756897151470184326e-01
3.250000000000000000e+02 6.265908813476562500e+01 -3.568286132812500000e+01 -4.939491748809814453e-01 -5.620356649160385132e-02 -1.650458276271820068e-01 -3.259732425212860107e-01
3.260000000000000000e+02 6.264433288574218750e+01 -3.462302017211914062e+01 -1.343895316123962402e+00 -6.505440920591354370e-02 -4.226849377155303955e-01 -2.186488807201385498e-01
3.270000000000000000e+02 6.031927490234375000e+01 -3.484732437133789062e+01 -4.675221145153045654e-01 6.727072596549987793e-02 -1.200754195451736450e-01 -2.427493035793304443e-01
3.280000000000000000e+02 5.838107681274414062e+01 -3.438967514038085938e+01 2.075395882129669189e-01 6.566679477691650391e-01 2.592622637748718262e-01 -5.017259716987609863e-01
3.290000000000000000e+02 5.602947998046875000e+01 -3.180393218994140625e+01 7.387421727180480957e-01 3.869182109832763672e+00 1.382377266883850098e+00 -6.949510574340820312e-01
3.300000000000000000e+02 5.586848449707031250e+01 -3.051698112487792969e+01 3.015216290950775146e-01 4.349919319152832031e+00 1.395432233810424805e+00 1.028214544057846069e-01
3.310000000000000000e+02 5.601739883422851562e+01 -2.975841712951660156e+01 3.242672979831695557e-01 4.573384284973144531e+00 1.469295382499694824e+00 6.286850571632385254e-01
3.320000000000000000e+02 5.653934097290039062e+01 -2.823591232299804688e+01 1.203298687934875488e+00 4.145009994506835938e+00 1.604492664337158203e+00 1.907654762268066406e+00
3.330000000000000000e+02 5.348014068603515625e+01 -2.177138328552246094e+01 -1.098174810409545898e+00 1.197053343057632446e-01 -2.935408353805541992e-01 -3.558160960674285889e-01
3.340000000000000000e+02 5.495994949340820312e+01 -2.146173477172851562e+01 -1.135248184204101562e+00 3.097577989101409912e-01 -2.476471215486526489e-01 -7.140947878360748291e-02
3.350000000000000000e+02 5.857301712036132812e+01 -2.572239303588867188e+01 1.896053910255432129e+00 1.863454580307006836e+00 1.127852559089660645e+00 1.812980294227600098e+00
3.360000000000000000e+02 5.577878570556640625e+01 -2.062527465820312500e+01 -1.445927739143371582e+00 2.636024057865142822e-01 -3.546975851058959961e-01 1.670219190418720245e-02
3.370000000000000000e+02 6.397842025756835938e+01 -2.222543334960937500e+01 -1.154348254203796387e+00 3.185592293739318848e-01 -2.507367134094238281e-01 3.129319846630096436e-02
3.380000000000000000e+02 5.809057235717773438e+01 -2.017048645019531250e+01 -1.119766354560852051e+00 7.968745231628417969e-01 -9.686753898859024048e-02 6.103117465972900391e-01
3.390000000000000000e+02 1.189001464843750000e+01 -2.901082611083984375e+01 5.638679140247404575e-04 -5.239544043433852494e-05 1.534417388029396534e-04 -3.578331670723855495e-04
3.400000000000000000e+02 2.549265384674072266e+00 -2.570807075500488281e+01 1.398485183017328382e-04 -1.579904892423655838e-05 3.721484245033934712e-05 -1.570467611600179225e-05
3.410000000000000000e+02 3.874812722206115723e-01 -2.998614311218261719e+01 1.720007276162505150e-04 -1.112287427531555295e-04 1.823159436753485352e-05 2.853861042240168899e-05
3.420000000000000000e+02 1.258869409561157227e+00 -3.471055221557617188e+01 -1.660078269196674228e-04 3.885141341015696526e-04 6.675189797533676028e-05 1.896554167615249753e-04
3.430000000000000000e+02 4.177313148975372314e-01 -3.641527175903320312e+01 1.603563723620027304e-04 5.883325356990098953e-04 2.246066869702190161e-04 7.444989023497328162e-05
3.440000000000000000e+02 1.692033886909484863e+00 -4.073208236694335938e+01 -1.894695742521435022e-04 1.244970248080790043e-03 3.166501992382109165e-04 1.002417266136035323e-04
3.450000000000000000e+02 1.137586212158203125e+01 -2.956524658203125000e+01 1.256792107596993446e-03 -3.128896423731930554e-06 3.760989347938448191e-04 4.496431938605383039e-05
3.460000000000000000e+02 9.638021469116210938e+00 -2.661754226684570312e+01 -1.981628593057394028e-04 -1.817354641389101744e-04 -1.139694941230118275e-04 5.380147285904968157e-06
3.470000000000000000e+02 8.875797271728515625e+00 -2.513171195983886719e+01 -1.563628320582211018e-04 -1.322480529779568315e-04 -8.658326260047033429e-05 4.112140231882221997e-06
3.480000000000000000e+02 8.730970382690429688e+00 -2.429802894592285156e+01 1.301347219850867987e-04 -6.175020826049149036e-05 2.051535193459130824e-05 5.762407090514898300e-05
3.490000000000000000e+02 8.752100944519042969e+00 -2.260427474975585938e+01 1.511407026555389166e-04 -4.065323810209520161e-05 3.314623972983099520e-05 -1.471069026592886075e-05
3.500000000000000000e+02 9.052029609680175781e+00 -1.778403663635253906e+01 -1.676925057836342603e-05 5.993055310682393610e-06 -3.232858716728514992e-06 1.230179532285546884e-05
3.510000000000000000e+02 1.138351345062255859e+01 -1.660935974121093750e+01 3.787161040236242115e-05 4.856707892031408846e-05 2.593160752439871430e-05 -4.561468085739761591e-05
3.520000000000000000e+02 1.471150684356689453e+01 -1.416123485565185547e+01 -2.647627752594416961e-06 -3.916021159966476262e-05 -1.254235121450619772e-05 1.459640407119877636e-05
3.530000000000000000e+02 1.548791503906250000e+01 -1.385763645172119141e+01 4.595508471538778394e-07 3.432371522649191320e-05 1.043498014041688293e-05 -7.935349458421114832e-06
3.540000000000000000e+02 1.629245567321777344e+01 -1.361269283294677734e+01 -2.352015826545539312e-06 -2.884169043682049960e-05 -9.358112038171384484e-06 4.901775355392601341e-06
3.550000000000000000e+02 1.712053680419921875e+01 -1.344816780090332031e+01 -2.158867573598399758e-06 2.630258677527308464e-05 7.243115760502405465e-06 -3.285291995780426078e-06
3.560000000000000000e+02 2.007369804382324219e+01 -9.636470794677734375e+00 1.046447687258478254e-05 3.051701469303225167e-06 4.054853434354299679e-06 4.247537162882508710e-06
3.570000000000000000e+02 2.038412284851074219e+01 -1.229128932952880859e+01 1.078375771612627432e-05 4.773856289830291644e-06 4.667284429160645232e-06 1.039022117765853181e-05
3.580000000000000000e+02 2.211557579040527344e+01 -1.298669052124023438e+01 9.297814358433242887e-06 1.341373149443825241e-06 3.191756377418641932e-06 2.747064513641817030e-07
3.590000000000000000e+02 1.784134292602539062e+01 -7.033510684967041016e+00 -8.426397471339441836e-06 -4.715417617262573913e-06 -3.942544481105869636e-06 -3.515012394927907735e-06
3.600000000000000000e+02 1.595469379425048828e+01 -6.153635025024414062e+00 -8.019778761081397533e-06 -6.098479843785753474e-06 -4.235477717884350568e-06 -3.361347125974134542e-06
3.610000000000000000e+02 1.350452423095703125e+01 -3.647988080978393555e+00 -5.752273409598274156e-06 -6.953462161618517712e-06 -3.811720716839772649e-06 -3.717570052685914561e-06
3.620000000000000000e+02 1.108649921417236328e+01 -2.452384471893310547e+00 -5.721043180528795347e-06 -6.187285634950967506e-06 -3.572498599169193767e-06 -3.951482085540192202e-06
3.630000000000000000e+02 9.428426742553710938e+00 -3.426448583602905273e+00 -9.643677913118153811e-06 -5.238323865341953933e-06 -4.464600351639091969e-06 -4.872663794230902568e-06
3.640000000000000000e+02 1.085471153259277344e+01 -3.100045919418334961e+00 7.494732926716096699e-06 6.088861482567153871e-06 4.075078322784975171e-06 4.423471182235516608e-06
3.650000000000000000e+02 3.600719451904296875e+00 -1.862701058387756348e+00 -5.393759238359052688e-06 -1.190404532280808780e-06 -1.975249233510112390e-06 -2.590780923128477298e-06
3.660000000000000000e+02 3.660726845264434814e-01 -9.084677696228027344e+00 2.608022077765781432e-05 7.678488032070163172e-07 8.054421414271928370e-06 3.828156877716537565e-06
3.670000000000000000e+02 1.092865347862243652e+00 -1.059457111358642578e+01 -3.377110988367348909e-05 -8.635763606434920803e-07 -1.039040580508299172e-05 -5.092543688078876585e-06
3.680000000000000000e+02 3.656897246837615967e-01 -1.631871223449707031e+01 -5.664147829520516098e-05 -4.092764811503002420e-07 -1.711522600089665502e-05 -9.100595889321994036e-06
3.690000000000000000e+02 9.682919502258300781e+00 -1.937602806091308594e+01 1.015655143419280648e-04 3.476942220004275441e-05 4.090048241778276861e-05 -7.179346721386536956e-05
3.700000000000000000e+02 1.091411471366882324e+00 -1.782515144348144531e+01 7.115236076060682535e-05 1.118742602557176724e-06 2.168133141822181642e-05 1.191319461213424802e-05
3.710000000000000000e+02 3.676168024539947510e-01 -2.275082397460937500e+01 -1.092135935323312879e-04 -2.132693771272897720e-05 -3.916215791832655668e-05 -2.169595973100513220e-05
3.720000000000000000e+02 7.964245605468750000e+01 -2.362606620788574219e+01 3.056043293327093124e-03 8.155391693115234375e+00 2.447534322738647461e+00 1.174283698201179504e-01
3.730000000000000000e+02 7.965275573730468750e+01 -2.042777633666992188e+01 -1.489356253296136856e-02 9.327001571655273438e+00 2.793632268905639648e+00 9.542486816644668579e-02
3.740000000000000000e+02 6.693686676025390625e+01 -9.014372825622558594e+00 4.227031171321868896e-01 3.063407182693481445e+00 1.045833110809326172e+00 1.000252485275268555e+00
3.750000000000000000e+02 6.661328125000000000e+01 -8.066439628601074219e+00 5.725576877593994141e-01 2.963396310806274414e+00 1.060786247253417969e+00 1.240447282791137695e+00
3.760000000000000000e+02 6.519268798828125000e+01 -1.309683704376220703e+01 6.287368535995483398e-01 1.559187531471252441e+00 6.563773155212402344e-01 7.773060798645019531e-01
3.770000000000000000e+02 6.581900787353515625e+01 -1.383001232147216797e+01 6.043987870216369629e-01 1.736479759216308594e+00 7.022635340690612793e-01 6.677433848381042480e-01
3.780000000000000000e+02 6.378499221801757812e+01 -1.479807949066162109e+01 6.665855050086975098e-01 1.071108579635620117e+00 5.213082432746887207e-01 8.777115345001220703e-01
3.790000000000000000e+02 6.335565185546875000e+01 -1.546155738830566406e+01 6.597617864608764648e-01 1.017363071441650391e+00 5.031374096870422363e-01 8.922608494758605957e-01
3.800000000000000000e+02 6.331764602661132812e+01 -2.242785453796386719e+01 -8.729617595672607422e-01 2.884088754653930664e-01 -1.753658652305603027e-01 1.477724313735961914e-01
3.810000000000000000e+02 6.068334579467773438e+01 -1.965340232849121094e+01 -8.176500201225280762e-01 1.284747958183288574e+00 1.401293724775314331e-01 8.782269358634948730e-01
3.820000000000000000e+02 6.491094207763671875e+01 -2.259615707397460938e+01 -1.373401641845703125e+00 -1.117321997880935669e-01 -4.455401599407196045e-01 -4.629259109497070312e-01
3.830000000000000000e+02 6.880507659912109375e+01 -2.163581657409667969e+01 -3.123705863952636719e+00 7.606472074985504150e-02 -9.142923355102539062e-01 3.382019400596618652e-01
3.840000000000000000e+02 7.020638275146484375e+01 -2.233351135253906250e+01 2.216317355632781982e-01 3.150323629379272461e+00 1.011586666107177734e+00 -1.448215723037719727e+00
3.850000000000000000e+02 6.810427856445312500e+01 -2.062776374816894531e+01 -1.785856842994689941e+00 -1.316419243812561035e-01 -5.752496123313903809e-01 -5.391241908073425293e-01
3.860000000000000000e+02 6.796289062500000000e+01 -2.141871452331542969e+01 -4.304054260253906250e+00 -4.666857719421386719e-01 -1.431222081184387207e+00 -1.883914507925510406e-02
3.870000000000000000e+02 7.894595336914062500e+01 -1.638857269287109375e+01 -4.000378772616386414e-02 9.429697990417480469e+00 2.816908359527587891e+00 -5.162191390991210938e-02
3.880000000000000000e+02 7.963811492919921875e+01 -1.321707344055175781e+01 -1.592144370079040527e-03 9.519925117492675781e+00 2.855499982833862305e+00 -8.703883737325668335e-02
3.890000000000000000e+02 7.891562652587890625e+01 -9.174800872802734375e+00 -9.165453724563121796e-03 8.413908004760742188e+00 2.521422863006591797e+00 -2.811065018177032471e-01
3.900000000000000000e+02 7.964290618896484375e+01 -5.996044158935546875e+00 -2.032765652984380722e-03 7.762447834014892578e+00 2.328124523162841797e+00 -1.359497904777526855e-01
3.910000000000000000e+02 6.971533966064453125e+01 2.723845839500427246e-01 5.072999596595764160e-01 1.132240009307861328e+01 3.548909902572631836e+00 2.027143955230712891e+00
3.920000000000000000e+02 6.932102203369140625e+01 -1.310987114906311035e+00 7.332248091697692871e-01 9.275100708007812500e+00 3.002497673034667969e+00 2.279699087142944336e+00
3.930000000000000000e+02 7.892351531982421875e+01 -2.758049726486206055e+00 1.045282930135726929e-02 6.893808364868164062e+00 2.071278333663940430e+00 -3.383757770061492920e-01
3.940000000000000000e+02 7.964139556884765625e+01 1.206251621246337891e+00 6.614526268094778061e-03 5.679292201995849609e+00 1.705772042274475098e+00 -8.090557157993316650e-02
3.950000000000000000e+02 6.994229888916015625e+01 7.568019866943359375e+00 4.621237218379974365e-01 1.278263568878173828e+01 3.973428010940551758e+00 -1.133381724357604980e+00
3.960000000000000000e+02 7.001605224609375000e+01 5.143166542053222656e+00 3.242669254541397095e-02 1.206618213653564453e+01 3.629582643508911133e+00 -6.569915264844894409e-02
3.970000000000000000e+02 7.891722869873046875e+01 4.423846721649169922e+00 3.302533552050590515e-02 5.845371723175048828e+00 1.763519167900085449e+00 -3.339017927646636963e-02
3.980000000000000000e+02 7.963032531738281250e+01 8.443948745727539062e+00 1.306399819441139698e-03 5.590741634368896484e+00 1.677614450454711914e+00 2.843261510133743286e-02
3.990000000000000000e+02 6.955850982666015625e+01 1.311980915069580078e+01 1.175694689154624939e-01 9.565194129943847656e+00 2.904829025268554688e+00 9.298210144042968750e-01
4.000000000000000000e+02 6.957099151611328125e+01 9.961402893066406250e+00 -5.055075138807296753e-02 8.659539222717285156e+00 2.582696437835693359e+00 -1.040918827056884766e+00
4.010000000000000000e+02 7.027549743652343750e+01 1.085953903198242188e+01 -5.854659080505371094e-01 9.165252685546875000e+00 2.573935985565185547e+00 -2.868473827838897705e-01
4.020000000000000000e+02 7.891383361816406250e+01 1.173209857940673828e+01 -1.445157732814550400e-02 6.190889835357666016e+00 1.852931499481201172e+00 4.422736912965774536e-02
4.030000000000000000e+02 7.963652801513671875e+01 1.567222023010253906e+01 1.685523078776896000e-03 5.894045352935791016e+00 1.768719196319580078e+00 -7.873092778027057648e-03
4.040000000000000000e+02 6.956732177734375000e+01 2.522758102416992188e+01 2.248722165822982788e-01 1.110195922851562500e+01 3.398049592971801758e+00 -1.118795037269592285e+00
4.050000000000000000e+02 6.970214843750000000e+01 1.956803321838378906e+01 2.420843578875064850e-03 1.060995292663574219e+01 3.183712244033813477e+00 -1.680971006862819195e-03
4.060000000000000000e+02 7.891831207275390625e+01 1.895536994934082031e+01 7.391429040580987930e-03 6.199870586395263672e+00 1.862178564071655273e+00 8.887549047358334064e-04
4.070000000000000000e+02 7.964153289794921875e+01 2.208324623107910156e+01 5.777129437774419785e-03 5.922961711883544922e+00 1.778621673583984375e+00 2.598193846642971039e-02
4.080000000000000000e+02 6.930461883544921875e+01 2.684429931640625000e+01 5.566973686218261719e-01 1.005137729644775391e+01 3.182422399520874023e+00 -1.904066205024719238e+00
4.090000000000000000e+02 7.031745147705078125e+01 2.456112098693847656e+01 4.580006599426269531e-01 1.043173694610595703e+01 3.266921281814575195e+00 -5.417398810386657715e-01
4.100000000000000000e+02 7.890420532226562500e+01 2.692498779296875000e+01 2.244304493069648743e-02 6.846609115600585938e+00 2.060715675354003906e+00 2.534989714622497559e-01
4.110000000000000000e+02 7.961656951904296875e+01 2.929995918273925781e+01 1.295674708671867847e-03 7.297455310821533203e+00 2.189625263214111328e+00 1.234484389424324036e-01
4.120000000000000000e+02 6.819458770751953125e+01 2.994399452209472656e+01 1.355423569679260254e+00 5.308929920196533203e+00 1.999306082725524902e+00 -2.412672519683837891e+00
4.130000000000000000e+02 6.857780456542968750e+01 2.920346450805664062e+01 1.231182456016540527e+00 7.173938274383544922e+00 2.521536350250244141e+00 -2.528728723526000977e+00
4.140000000000000000e+02 6.887284088134765625e+01 2.842989730834960938e+01 8.807768225669860840e-01 8.331625938415527344e+00 2.763720750808715820e+00 -2.298966646194458008e+00
4.150000000000000000e+02 7.869423675537109375e+01 3.351853179931640625e+01 -3.127937018871307373e-02 8.204721450805664062e+00 2.452032566070556641e+00 2.923401296138763428e-01
4.160000000000000000e+02 7.964021301269531250e+01 3.649526596069335938e+01 -3.810121212154626846e-03 9.012016296386718750e+00 2.702461957931518555e+00 4.547318816184997559e-02
4.170000000000000000e+02 6.828848266601562500e+01 3.690704345703125000e+01 -2.937096059322357178e-01 3.741598606109619141e+00 1.034366726875305176e+00 -4.786964952945709229e-01
4.180000000000000000e+02 6.904064178466796875e+01 3.542195892333984375e+01 -4.865705370903015137e-01 4.447085857391357422e+00 1.188154578208923340e+00 -5.019437074661254883e-01
4.190000000000000000e+02 6.048916625976562500e+01 3.549029541015625000e+01 -6.876063942909240723e-01 -4.169777408242225647e-02 -2.187912613153457642e-01 2.365454584360122681e-01
4.200000000000000000e+02 6.201726913452148438e+01 3.504668807983398438e+01 -1.045244097709655762e+00 -1.077336370944976807e-01 -3.458932936191558838e-01 2.788513600826263428e-01
4.210000000000000000e+02 6.276952362060546875e+01 3.481135177612304688e+01 -1.141054868698120117e+00 -9.975670278072357178e-02 -3.722434937953948975e-01 3.479745090007781982e-01
4.220000000000000000e+02 6.421855163574218750e+01 3.410831832885742188e+01 -6.782027482986450195e-01 -7.624014467000961304e-02 -2.263328731060028076e-01 2.645123898983001709e-01
4.230000000000000000e+02 6.610548400878906250e+01 3.253684234619140625e+01 1.472271084785461426e-01 9.981447458267211914e-01 3.436115682125091553e-01 -4.994502663612365723e-01
4.240000000000000000e+02 6.782558441162109375e+01 3.187220191955566406e+01 8.260352164506912231e-02 3.611824512481689453e+00 1.108328461647033691e+00 -1.164409160614013672e+00
4.250000000000000000e+02 7.865164947509765625e+01 3.811613464355468750e+01 4.273983358871191740e-05 8.734387397766113281e+00 2.620328903198242188e+00 1.344714760780334473e-01
4.260000000000000000e+02 5.800970077514648438e+01 3.898906707763671875e+01 1.130331233143806458e-01 -9.182044118642807007e-02 6.363803520798683167e-03 2.229661941528320312e-01
4.270000000000000000e+02 5.627655410766601562e+01 3.540760803222656250e+01 -1.879009902477264404e-01 2.001589164137840271e-03 -5.576981976628303528e-02 -1.696041785180568695e-02
4.280000000000000000e+02 5.503147506713867188e+01 3.621897125244140625e+01 -7.675931602716445923e-02 -1.102919690310955048e-02 -2.633655443787574768e-02 7.276792824268341064e-02
4.290000000000000000e+02 5.967446517944335938e+01 3.590097808837890625e+01 -6.941722631454467773e-01 -8.611888438463211060e-02 -2.340873479843139648e-01 2.462932765483856201e-01
4.300000000000000000e+02 5.216665267944335938e+01 3.679161071777343750e+01 -3.467316925525665283e-02 -1.337222103029489517e-02 -1.441361755132675171e-02 2.982361614704132080e-02
4.310000000000000000e+02 5.037041091918945312e+01 3.570975494384765625e+01 -2.124673128128051758e-02 -3.167285816743969917e-03 -7.324205245822668076e-03 1.094665378332138062e-02
4.320000000000000000e+02 5.199394607543945312e+01 3.268513488769531250e+01 2.406090730801224709e-03 4.473885986953973770e-03 2.063992898911237717e-03 1.028789114207029343e-02
4.330000000000000000e+02 5.261236190795898438e+01 3.325115585327148438e+01 5.934573709964752197e-03 1.036029495298862457e-02 4.888460505753755569e-03 1.622241456061601639e-03
4.340000000000000000e+02 5.547261047363281250e+01 3.502067184448242188e+01 -1.138706281781196594e-01 2.418309263885021210e-02 -2.690626122057437897e-02 -1.950997160747647285e-03
4.350000000000000000e+02 4.200288009643554688e+01 3.576055908203125000e+01 -1.014112262055277824e-03 -1.395956263877451420e-03 -7.230205228552222252e-04 -3.172454889863729477e-04
4.360000000000000000e+02 4.505187225341796875e+01 3.741069793701171875e+01 -3.456397447735071182e-03 -4.331062547862529755e-03 -2.336238045245409012e-03 2.658612560480833054e-03
4.370000000000000000e+02 4.584379959106445312e+01 2.886101150512695312e+01 2.472907770425081253e-03 1.469444017857313156e-03 1.182705629616975784e-03 2.740584081038832664e-03
4.380000000000000000e+02 4.446311569213867188e+01 2.220285797119140625e+01 -1.821404584916308522e-04 2.401710720732808113e-03 6.658710772171616554e-04 1.427953015081584454e-03
4.390000000000000000e+02 4.325567626953125000e+01 1.832692909240722656e+01 7.663615979254245758e-04 1.163421897217631340e-03 5.789350834675133228e-04 3.180885396432131529e-04
4.400000000000000000e+02 4.418076705932617188e+01 2.143913841247558594e+01 1.244841259904205799e-03 2.204149262979626656e-03 1.034697168506681919e-03 7.567209540866315365e-04
4.410000000000000000e+02 3.753736877441406250e+01 4.079833984375000000e+01 -2.789445454254746437e-03 -1.996135571971535683e-03 -1.435674261301755905e-03 2.990785869769752026e-04
4.420000000000000000e+02 3.826147842407226562e+01 3.761209487915039062e+01 -2.318592043593525887e-03 -7.178390515036880970e-04 -9.109293459914624691e-04 -1.274396083317697048e-03
4.430000000000000000e+02 4.136246490478515625e+01 2.962935256958007812e+01 2.258118242025375366e-03 -1.769515685737133026e-03 1.465807727072387934e-04 -5.438754451461136341e-04
4.440000000000000000e+02 4.048911666870117188e+01 1.597347736358642578e+01 6.098732119426131248e-04 4.900556523352861404e-04 3.299786476418375969e-04 3.761393600143492222e-04
4.450000000000000000e+02 4.033564758300781250e+01 1.244528388977050781e+01 3.723341214936226606e-04 2.616471902001649141e-04 1.901943905977532268e-04 1.947202981682494283e-04
4.460000000000000000e+02 4.088324737548828125e+01 4.975017070770263672e+00 8.346982212970033288e-05 3.319729148643091321e-05 3.500013190205208957e-05 1.058087291312403977e-04
4.470000000000000000e+02 3.482181930541992188e+01 -1.814081573486328125e+01 -1.732495366013608873e-05 -6.529431630042381585e-06 -7.156315405154600739e-06 2.371035066062177066e-07
4.480000000000000000e+02 3.709975051879882812e+01 -1.822054481506347656e+01 -1.738259925332386047e-05 6.864966962893959135e-06 -3.155289959977380931e-06 1.106429635910899378e-06
4.490000000000000000e+02 3.781145858764648438e+01 -1.829059219360351562e+01 -1.594009154359810054e-05 -9.460389264859259129e-06 -7.620144515385618433e-06 3.958080924348905683e-06
4.500000000000000000e+02 4.240653610229492188e+01 -1.913489913940429688e+01 -6.226428013178519905e-07 5.730894827138399705e-06 1.532475494059326593e-06 3.587736685517484148e-08
4.510000000000000000e+02 4.544055175781250000e+01 -1.900849533081054688e+01 -3.231113169022137299e-06 -2.756767116807168350e-06 -1.796364017536689062e-06 -3.023277940883417614e-06
4.520000000000000000e+02 4.692877578735351562e+01 -1.866057014465332031e+01 -3.215834340153378434e-06 -1.797198592612403445e-06 -1.503909857092367020e-06 -3.800191279879072681e-06
4.530000000000000000e+02 4.988402938842773438e+01 -1.806131362915039062e+01 -3.634366976257297210e-06 1.818149257815093733e-07 -1.035765649248787668e-06 -1.812352593333343975e-06
4.540000000000000000e+02 5.061255264282226562e+01 -1.792280197143554688e+01 2.848049916792660952e-06 -8.204763730645936448e-07 6.082720460653945338e-07 1.227147095050895587e-07
4.550000000000000000e+02 5.194530105590820312e+01 -1.319698333740234375e+01 2.800096444843802601e-05 -1.141620668931864202e-05 4.975427600584225729e-06 2.302240460494431318e-07
4.560000000000000000e+02 4.932186508178710938e+01 -4.146037101745605469e+00 1.079851936083287001e-04 -8.919686479202937335e-06 2.971965113829355687e-05 2.854379636119119823e-05
4.570000000000000000e+02 4.850825119018554688e+01 -1.922606468200683594e+00 -1.447288668714463711e-04 -3.427477349760010839e-05 -5.370109283830970526e-05 -3.665093754534609616e-05
4.580000000000000000e+02 4.789304351806640625e+01 -4.754435122013092041e-01 -1.672071375651285052e-04 -4.886645183432847261e-05 -6.482207390945404768e-05 -5.323401637724600732e-05
4.590000000000000000e+02 4.645417785644531250e+01 2.351278543472290039e+00 -2.129158237949013710e-04 -7.711836951784789562e-05 -8.701025944901630282e-05 -8.173337846528738737e-05
4.600000000000000000e+02 4.741173934936523438e+01 -3.057251930236816406e+00 9.660268551670014858e-05 1.596564470673911273e-05 3.377049870323389769e-05 5.065825098427012563e-05
4.610000000000000000e+02 4.608890533447265625e+01 -7.747936248779296875e+00 3.651985389296896756e-05 2.687605410756077617e-05 1.901877112686634064e-05 2.517733992135617882e-05
4.620000000000000000e+02 4.469708633422851562e+01 -1.921438980102539062e+01 -9.397666644872515462e-07 3.378858764335745946e-06 7.317276526919158641e-07 1.036526555253658444e-06
4.630000000000000000e+02 3.255413055419921875e+01 4.071958541870117188e+01 -2.087021945044398308e-03 -4.725338658317923546e-05 -6.402825820259749889e-04 -8.145093452185392380e-04
4.640000000000000000e+02 2.801625251770019531e+01 3.757794952392578125e+01 -1.234686351381242275e-03 1.565175334690138698e-04 -3.234506293665617704e-04 -6.614805897697806358e-04
4.650000000000000000e+02 2.976640129089355469e+01 3.234031677246093750e+01 -2.935083466582000256e-05 -6.758127710781991482e-04 -2.115490788128226995e-04 -8.384939865209162235e-04
4.660000000000000000e+02 3.388052368164062500e+01 2.239769935607910156e+01 6.253587198443710804e-04 -6.748446030542254448e-04 -1.484576660004677251e-05 4.190260078758001328e-04
4.670000000000000000e+02 3.316123580932617188e+01 1.590378761291503906e+01 9.580524056218564510e-04 -3.187547263223677874e-04 1.917893096106126904e-04 1.425668306183069944e-04
4.680000000000000000e+02 3.265341567993164062e+01 1.167153644561767578e+01 4.003343055956065655e-04 -1.226323074661195278e-04 8.331059507327154279e-05 2.085063606500625610e-04
4.690000000000000000e+02 2.775780487060546875e+01 1.462962180376052856e-01 7.219775579869747162e-05 -4.698870907304808497e-05 7.562713562947465107e-06 3.738810119102708995e-05
4.700000000000000000e+02 2.835185241699218750e+01 -5.681486606597900391e+00 2.118718839483335614e-05 2.268865137011744082e-05 1.316275211138417944e-05 3.720193262779503129e-06
4.710000000000000000e+02 2.539870643615722656e+01 -1.153384304046630859e+01 -6.946243502170545980e-06 -1.664556657487992197e-05 -7.077542704791994765e-06 3.694944098242558539e-06
4.720000000000000000e+02 2.572128486633300781e+01 -1.220398902893066406e+01 -4.591468041326152161e-06 4.041266493004513904e-06 -1.650604843916880782e-07 1.370530208077980205e-05
4.730000000000000000e+02 2.887712860107421875e+01 -1.711249351501464844e+01 -1.289649208047194406e-05 -7.316446954064304009e-06 -6.063881755835609511e-06 1.295123865929781459e-06
4.740000000000000000e+02 2.739326477050781250e+01 -1.646539497375488281e+01 -1.377591252094134688e-05 -1.182468167826300487e-05 -7.680177986912894994e-06 -3.308101895527215675e-06
4.750000000000000000e+02 3.103997421264648438e+01 -1.781649780273437500e+01 -1.016691385302692652e-05 4.993775746697792783e-06 -1.551941522848210298e-06 4.549050117930164561e-06
4.760000000000000000e+02 1.798519515991210938e+01 4.047757339477539062e+01 -5.001819808967411518e-04 1.413775753462687135e-04 -1.076413245755247772e-04 6.569218385266140103e-05
4.770000000000000000e+02 2.286060142517089844e+01 4.057747650146484375e+01 -7.995050400495529175e-04 1.006245365715585649e-04 -2.096641401294618845e-04 -4.116158233955502510e-04
4.780000000000000000e+02 2.250329589843750000e+01 3.073040771484375000e+01 -9.657745249569416046e-05 -2.418726508039981127e-04 -1.015350280795246363e-04 -6.732396432198584080e-04
4.790000000000000000e+02 2.675987052917480469e+01 2.232550048828125000e+01 5.159532884135842323e-04 -7.271253853105008602e-04 -6.335162470350041986e-05 -2.153135137632489204e-04
4.800000000000000000e+02 2.792383003234863281e+01 1.835472869873046875e+01 6.667941925115883350e-04 -2.342192747164517641e-04 1.297724811593070626e-04 -9.191827848553657532e-05
4.810000000000000000e+02 2.021434402465820312e+01 8.674006462097167969e+00 1.791175018297508359e-04 -1.525948609923943877e-04 7.956791705510113388e-06 -2.113572554662823677e-05
4.820000000000000000e+02 2.053182983398437500e+01 1.126676052808761597e-01 1.101156085496768355e-04 -8.400046681344974786e-06 3.051466956094373018e-05 -2.774209315248299390e-05
4.830000000000000000e+02 1.923596954345703125e+01 -3.297811031341552734e+00 4.788878868566825986e-05 -5.553325536311604083e-06 1.270063967240275815e-05 -2.469541686878073961e-05
4.840000000000000000e+02 1.981815528869628906e+01 -3.854819536209106445e+00 4.554448241833597422e-05 -9.091546417039353400e-06 1.093588070943951607e-05 -1.967010803127777763e-06
4.850000000000000000e+02 2.200777053833007812e+01 -6.218505859375000000e+00 1.874413101177196950e-05 -1.738736136758234352e-05 4.070307113579474390e-07 4.377701316116144881e-06
4.860000000000000000e+02 2.344353866577148438e+01 -5.865679740905761719e+00 1.804288513085339218e-05 3.185760533597203903e-06 6.368593858496751636e-06 -6.522009698528563604e-06
4.870000000000000000e+02 2.387627601623535156e+01 -8.821758270263671875e+00 1.193398247778532095e-06 -1.863810393842868507e-05 -5.233411684457678348e-06 6.060499345039715990e-06
4.880000000000000000e+02 1.812152671813964844e+01 3.666902160644531250e+01 -5.441675893962383270e-04 2.876030339393764734e-04 -7.696936518186703324e-05 -3.611621505115181208e-04
4.890000000000000000e+02 1.663668823242187500e+01 2.825838279724121094e+01 6.332858902169391513e-05 -7.283383456524461508e-05 -2.851574208762031049e-06 -4.107278364244848490e-04
4.900000000000000000e+02 1.513225555419921875e+01 2.421396827697753906e+01 4.563534093904308975e-05 5.404113835538737476e-05 2.990294342453125864e-05 -4.364193300716578960e-04
4.910000000000000000e+02 1.302356052398681641e+01 1.842297363281250000e+01 1.013769287965260446e-04 -4.652486950362799689e-06 2.901733387261629105e-05 -2.027103473665192723e-04
4.920000000000000000e+02 1.708472061157226562e+01 6.040296554565429688e+00 9.131623664870858192e-05 -4.272029764251783490e-05 1.457878170185722411e-05 -5.190528099774383008e-05
4.930000000000000000e+02 1.078314590454101562e+01 1.755254507064819336e+00 9.138176392298191786e-05 1.270808297704206780e-05 3.122695488855242729e-05 -4.808745143236592412e-05
4.940000000000000000e+02 1.391351127624511719e+01 3.133274912834167480e-01 9.946969657903537154e-05 8.063885616138577461e-06 3.226007174816913903e-05 -4.756921771331690252e-05
4.950000000000000000e+02 1.492144966125488281e+01 5.515471696853637695e-01 1.018519687931984663e-04 6.140121058706426993e-06 3.239762736484408379e-05 -4.370978422230109572e-05
4.960000000000000000e+02 1.563424491882324219e+01 1.469613909721374512e-01 8.453110785922035575e-05 9.172254067379981279e-06 2.811100966937374324e-05 -2.138617492164485157e-05
4.970000000000000000e+02 1.669030380249023438e+01 -1.319144845008850098e+00 8.125706517603248358e-05 -1.796467898884657188e-07 2.432322617096360773e-05 -3.851274959743022919e-05
4.980000000000000000e+02 1.198952770233154297e+01 3.640103530883789062e+01 -1.800394529709592462e-04 3.431179793551564217e-04 4.892356082564219832e-05 -3.049980441574007273e-04
4.990000000000000000e+02 1.036237049102783203e+01 3.946397781372070312e+01 -2.645308559294790030e-04 5.036994698457419872e-04 7.175058271968737245e-05 -4.579885717248544097e-05
5.000000000000000000e+02 7.134047508239746094e+00 2.417340278625488281e+01 -7.251697388710454106e-05 3.148759133182466030e-04 7.270768401212990284e-05 -2.179647271987050772e-04
5.010000000000000000e+02 6.294048786163330078e+00 1.703142356872558594e+01 1.191186584037495777e-05 1.932140730787068605e-04 6.153777940198779106e-05 -1.590085012139752507e-04
5.020000000000000000e+02 5.955380439758300781e+00 9.649874687194824219e+00 2.945231972262263298e-05 8.614154648967087269e-05 3.467815986368805170e-05 -9.229426359524950385e-05
5.030000000000000000e+02 5.889355182647705078e+00 1.856517672538757324e+00 3.070377351832576096e-05 -3.349781763972714543e-06 8.206197890103794634e-06 -1.705461909295991063e-05
5.040000000000000000e+02 1.160842514038085938e+01 1.373474836349487305e+00 7.416686275973916054e-05 3.300144453532993793e-05 3.215049218852072954e-05 -3.451516386121511459e-05
5.050000000000000000e+02 1.331496238708496094e+00 3.699106216430664062e+01 8.809279825072735548e-05 9.174440056085586548e-04 3.016610280610620975e-04 -3.697743159136734903e-05
5.060000000000000000e+02 1.586158037185668945e+00 3.876391220092773438e+01 6.169196421978995204e-05 9.681280353106558323e-04 3.089460078626871109e-04 1.642835627535532694e-06
5.070000000000000000e+02 2.197830677032470703e+00 3.663819503784179688e+01 -8.021719986572861671e-05 8.821506053209304810e-04 2.405800332780927420e-04 -3.646105324150994420e-05
5.080000000000000000e+02 1.164847254753112793e+00 2.913570594787597656e+01 3.284625927335582674e-05 6.959143793210387230e-04 2.186281926697120070e-04 -4.677173637901432812e-05
5.090000000000000000e+02 3.609008193016052246e-01 2.035598564147949219e+01 3.574763832148164511e-05 3.604412486311048269e-04 1.188566675409674644e-04 -1.599166171217802912e-05
5.100000000000000000e+02 1.068161964416503906e+00 1.545510482788085938e+01 -2.621274143166374415e-05 1.945378753589466214e-04 5.049753963248804212e-05 -2.790489088511094451e-05
5.110000000000000000e+02 3.781601786613464355e-01 6.690741062164306641e+00 -1.360679107165196911e-05 1.834233262343332171e-05 1.420662670170713682e-06 -2.616817255329806358e-06
5.120000000000000000e+02 1.076746463775634766e+00 9.040917396545410156e+00 -1.597947266418486834e-05 5.832741953781805933e-05 1.270438406208995730e-05 -1.735620207909960300e-05
5.130000000000000000e+02 4.244174003601074219e+00 2.586579561233520508e+00 1.080485253623919562e-05 1.483509367972146720e-05 7.691983228141907603e-06 -1.636790329939685762e-05
5.140000000000000000e+02 4.113662719726562500e+01 -2.024618911743164062e+01 -3.865011422021780163e-06 -1.371535063299234025e-06 -1.570963945596304256e-06 4.294624318390560802e-07
5.150000000000000000e+02 4.167199325561523438e+01 -1.928872108459472656e+01 -7.617204573762137443e-06 -3.781000941671663895e-06 -3.419461791054345667e-06 1.140638005381333642e-06
5.160000000000000000e+02 5.276432418823242188e+01 -1.748793983459472656e+01 -2.607306896607042290e-06 -2.105180783473770134e-06 -1.413746304024243727e-06 7.786555329403199721e-07
5.170000000000000000e+02 5.274409484863281250e+01 -1.514358806610107422e+01 8.448791049886494875e-06 3.357321247676736675e-06 3.541833621056866832e-06 1.877702175079321023e-06
5.180000000000000000e+02 5.467491149902343750e+01 -1.574154281616210938e+01 2.682407512111240067e-06 4.839887424168409780e-06 2.256688503621262498e-06 4.302467004890786484e-06
5.190000000000000000e+02 5.413940429687500000e+01 -1.714227676391601562e+01 -6.359387043630704284e-06 -3.516474862408358604e-06 -2.962758571811718866e-06 2.151227363356156275e-06
5.200000000000000000e+02 5.538327789306640625e+01 -1.632889938354492188e+01 -3.135909310003626160e-06 -5.211260940995998681e-06 -2.504151098037254997e-06 -3.246629603381734341e-06
5.210000000000000000e+02 5.703337097167968750e+01 -1.642688560485839844e+01 -1.546910084471164737e-06 -1.081305617844918743e-05 -3.707989890244789422e-06 -2.365823547734180465e-06
5.220000000000000000e+02 5.781586074829101562e+01 -1.617596817016601562e+01 2.105161911458708346e-06 1.380732828692998737e-05 4.773747150466078892e-06 4.544439434539526701e-06
5.230000000000000000e+02 5.932202911376953125e+01 -1.534700679779052734e+01 6.259934707486536354e-06 1.369608526147203520e-05 5.986806172586511821e-06 5.955191682005533949e-06
5.240000000000000000e+02 4.607345199584960938e+01 3.050259590148925781e+00 2.108959743054583669e-04 2.194078660977538675e-05 6.985102663747966290e-05 1.208229223266243935e-04
5.250000000000000000e+02 4.110950851440429688e+01 3.081377744674682617e+00 -2.602235144877340645e-05 1.105871774598199409e-06 -7.474943686247570440e-06 -3.938027293770574033e-05
5.260000000000000000e+02 4.568500900268554688e+01 3.747683525085449219e+00 -2.424408303340896964e-04 -9.103886259254068136e-05 -1.000439078779891133e-04 -9.670948202256113291e-05
5.270000000000000000e+02 4.282032012939453125e+01 9.503554344177246094e+00 -3.767491143662482500e-04 2.558069536462426186e-05 -1.053505257004871964e-04 -9.205470269080251455e-05
5.280000000000000000e+02 4.249395370483398438e+01 1.191760540008544922e+01 4.119770019315183163e-04 2.181181625928729773e-04 1.890285493573173881e-04 6.756334187230095267e-05
5.290000000000000000e+02 4.255226898193359375e+01 1.353334522247314453e+01 4.600811807904392481e-04 3.555841103661805391e-04 2.446995931677520275e-04 8.324997907038778067e-05
5.300000000000000000e+02 4.306597137451171875e+01 1.754043197631835938e+01 -4.713506787084043026e-04 9.672126616351306438e-04 1.487585977884009480e-04 3.705210983753204346e-04
5.310000000000000000e+02 3.968288421630859375e+01 1.596275329589843750e+01 1.630096448934637010e-05 3.317126829642802477e-04 1.044040909619070590e-04 4.667895846068859100e-04
5.320000000000000000e+02 4.628065109252929688e+01 2.582838439941406250e+01 3.688664175570011139e-03 4.365238361060619354e-03 2.416170667856931686e-03 2.102393191307783127e-03
5.330000000000000000e+02 4.547950744628906250e+01 2.619556236267089844e+01 8.530936320312321186e-04 2.688909880816936493e-03 1.062600989826023579e-03 3.048941958695650101e-03
5.340000000000000000e+02 4.962553024291992188e+01 3.043066978454589844e+01 4.989258479326963425e-03 5.950480233877897263e-03 3.281921613961458206e-03 8.713817223906517029e-03
5.350000000000000000e+02 4.856250381469726562e+01 2.920464324951171875e+01 3.142969682812690735e-03 4.717573523521423340e-03 2.358163008466362953e-03 7.347181439399719238e-03
5.360000000000000000e+02 4.624783706665039062e+01 2.967758750915527344e+01 6.084846798330545425e-03 5.801934166811406612e-04 1.999512081965804100e-03 1.635296153835952282e-03
5.370000000000000000e+02 5.203108978271484375e+01 -2.139179611206054688e+01 -1.375680208206176758e+00 -6.295815110206604004e-02 -4.315915107727050781e-01 -5.439879894256591797e-01
5.380000000000000000e+02 4.841949844360351562e+01 -2.275865745544433594e+01 -6.227307915687561035e-01 -1.991441100835800171e-01 -2.465624809265136719e-01 -6.755102872848510742e-01
5.390000000000000000e+02 4.306456375122070312e+01 -3.089261436462402344e+01 -3.195720911026000977e-01 -8.608005642890930176e-01 -3.541117906570434570e-01 -1.900100857019424438e-01
5.400000000000000000e+02 5.310840225219726562e+01 -3.117027282714843750e+01 8.192412853240966797e-01 1.494969487190246582e+00 6.942632198333740234e-01 3.110476434230804443e-01
5.410000000000000000e+02 5.402609634399414062e+01 -3.168904685974121094e+01 7.598255872726440430e-01 2.041214227676391602e+00 8.403119444847106934e-01 3.065263926982879639e-01
5.420000000000000000e+02 5.152108001708984375e+01 -3.509391784667968750e+01 1.381158232688903809e-01 9.646476507186889648e-01 3.308290243148803711e-01 3.182208836078643799e-01
5.430000000000000000e+02 7.096713256835937500e+01 -2.247583198547363281e+01 1.002648323774337769e-01 5.893098354339599609e+00 1.798008918762207031e+00 -1.701649308204650879e+00
5.440000000000000000e+02 6.042492675781250000e+01 -2.414847755432128906e+01 1.224138259887695312e+00 1.003517746925354004e+00 6.682967543601989746e-01 1.120438456535339355e+00
5.450000000000000000e+02 6.349927520751953125e+01 -2.313230705261230469e+01 -7.810046672821044922e-01 9.375198930501937866e-02 -2.061758041381835938e-01 -4.326662421226501465e-02
5.460000000000000000e+02 2.553441429138183594e+01 -3.495518112182617188e+01 2.044795779511332512e-03 -3.355362685397267342e-03 -3.931700484827160835e-04 3.678437788039445877e-03
5.470000000000000000e+02 2.614169502258300781e+01 -3.129399681091308594e+01 3.301480039954185486e-02 -4.505086399149149656e-04 9.769286960363388062e-03 -1.596574322320520878e-03
5.480000000000000000e+02 3.116859054565429688e+01 -3.315117263793945312e+01 1.073469314724206924e-02 -7.392527069896459579e-03 1.002649776637554169e-03 -1.219200436025857925e-02
5.490000000000000000e+02 4.085360336303710938e+01 -3.248631668090820312e+01 -2.491511106491088867e-01 -7.700180411338806152e-01 -3.057507574558258057e-01 -4.014331698417663574e-01
5.500000000000000000e+02 3.789720535278320312e+01 -3.585326766967773438e+01 8.244847878813743591e-03 -3.407025933265686035e-01 -9.973731637001037598e-02 -2.276671826839447021e-01
5.510000000000000000e+02 5.897082519531250000e+01 -3.613142013549804688e+01 -8.846986293792724609e-02 5.006986260414123535e-01 1.236686334013938904e-01 -6.217246651649475098e-01
5.520000000000000000e+02 6.758837890625000000e+01 -3.421259307861328125e+01 -5.570249557495117188e-01 8.797252178192138672e-01 9.681008756160736084e-02 4.168723523616790771e-01
5.530000000000000000e+02 6.427967071533203125e+01 -3.432197570800781250e+01 -1.581422209739685059e+00 -1.209551095962524414e-01 -5.107132196426391602e-01 -3.791194856166839600e-01
5.540000000000000000e+02 7.041204071044921875e+01 -3.039204978942871094e+01 1.335063934326171875e+00 5.109436988830566406e+00 1.933350205421447754e+00 2.443523645401000977e+00
5.550000000000000000e+02 1.153548431396484375e+01 -1.371068572998046875e+01 -6.745027349097654223e-05 -2.446156759106088430e-05 -2.757355287030804902e-05 1.267048082809196785e-05
5.560000000000000000e+02 1.149315738677978516e+01 -1.297340106964111328e+01 5.824571053381077945e-05 2.620117356855189428e-06 1.825974868552293628e-05 6.242151357582770288e-06
5.570000000000000000e+02 1.193905067443847656e+01 -1.600429916381835938e+01 -2.347419467696454376e-05 -4.408345921547152102e-05 -2.026729634962975979e-05 3.452857345109805465e-05
5.580000000000000000e+02 6.695616149902343750e+01 -7.332668781280517578e+00 5.419738292694091797e-01 3.282682180404663086e+00 1.147396802902221680e+00 1.335869669914245605e+00
5.590000000000000000e+02 3.678704452514648438e+01 2.990545654296875000e+01 1.078966539353132248e-03 -7.519955397583544254e-04 9.809131734073162079e-05 -1.290093059651553631e-03
5.600000000000000000e+02 2.843878364562988281e+01 3.449353408813476562e+01 -7.676462992094457150e-04 -6.934257689863443375e-04 -4.383216146379709244e-04 -8.088206523098051548e-04
5.610000000000000000e+02 2.594576072692871094e+01 3.117862892150878906e+01 -1.131028766394592822e-04 -5.434891791082918644e-04 -1.969776203623041511e-04 -7.845395011827349663e-04
5.620000000000000000e+02 1.750946998596191406e+01 3.340259170532226562e+01 -1.437633036402985454e-04 -3.370778722455725074e-05 -5.324132871464826167e-05 -3.796548116952180862e-04
5.630000000000000000e+02 6.299426078796386719e+00 3.234001541137695312e+01 -1.897792753879912198e-05 5.173099343664944172e-04 1.494995958637446165e-04 -1.562669931445270777e-04
5.640000000000000000e+02 6.523677349090576172e+00 2.769195938110351562e+01 -8.027668081922456622e-05 4.091756127309054136e-04 9.866968321148306131e-05 -2.257224405184388161e-04
5.650000000000000000e+02 1.471372032165527344e+01 2.618222808837890625e+01 7.088664278853684664e-05 -2.570178367022890598e-05 1.355545737169450149e-05 -3.149752737954258919e-04
5.660000000000000000e+02 2.745612907409667969e+01 2.481539726257324219e+01 4.574705089908093214e-04 -8.547183824703097343e-04 -1.191743649542331696e-04 -3.106868243776261806e-04
5.670000000000000000e+02 3.094838333129882812e+01 2.130005073547363281e+01 9.975389111787080765e-04 -7.492809672839939594e-04 7.447737880283966660e-05 -7.991724851308390498e-05
5.680000000000000000e+02 3.911733627319335938e+01 2.312087249755859375e+01 1.009595231153070927e-03 -5.559472483582794666e-04 1.360943861072883010e-04 8.638030267320573330e-04
5.690000000000000000e+02 1.214669823646545410e+00 3.077190971374511719e+01 3.658675996121019125e-05 7.577254436910152435e-04 2.382936654612421989e-04 -5.056513691670261323e-05
5.700000000000000000e+02 6.149422645568847656e+00 1.862764358520507812e+01 -1.511713617219356820e-05 2.273985155625268817e-04 6.368441245285794139e-05 -1.556751522002741694e-04
5.710000000000000000e+02 1.270769309997558594e+01 1.939696884155273438e+01 1.257858384633436799e-04 5.600306394626386464e-05 5.453667108668014407e-05 -3.149230324197560549e-04
5.720000000000000000e+02 2.693890953063964844e+01 1.777297401428222656e+01 5.017882212996482849e-04 -4.893940058536827564e-04 3.718261496032937430e-06 -2.181722265959251672e-05
5.730000000000000000e+02 3.320724487304687500e+01 1.824265480041503906e+01 1.110389479435980320e-03 -4.855959850829094648e-04 1.874380395747721195e-04 4.938114216201938689e-05
5.740000000000000000e+02 1.099653482437133789e+00 2.349369812011718750e+01 -3.437108898651786149e-05 4.738353018183261156e-04 1.318392605753615499e-04 -4.905090099782682955e-05
5.750000000000000000e+02 6.229052543640136719e+00 8.559271812438964844e+00 3.907436621375381947e-05 6.029181167832575738e-05 2.980985482281539589e-05 -8.164841710822656751e-05
5.760000000000000000e+02 1.755634307861328125e+01 6.634971141815185547e+00 1.951489830389618874e-04 -3.423006273806095123e-05 4.827567681786604226e-05 -6.906928319949656725e-05
5.770000000000000000e+02 2.249353027343750000e+01 6.402997970581054688e+00 2.451561158522963524e-04 -4.833519778912886977e-05 5.904626959818415344e-05 -2.860845052055083215e-05
5.780000000000000000e+02 4.252809143066406250e+01 1.110599613189697266e+01 -3.896595444530248642e-04 1.483025989728048444e-04 -7.240708509925752878e-05 -3.827739055850543082e-05
5.790000000000000000e+02 4.067884063720703125e+01 9.767432212829589844e+00 -2.246405347250401974e-04 1.614767825230956078e-04 -1.894912747957278043e-05 4.914805322187021375e-05
5.800000000000000000e+02 1.069750189781188965e+00 1.625704002380371094e+01 3.073452171520330012e-05 2.142519078915938735e-04 7.349593215622007847e-05 -3.497967918519861996e-05
5.810000000000000000e+02 2.202539634704589844e+01 7.178218364715576172e-01 8.582267764722928405e-05 -5.207353751757182181e-05 1.012474240269511938e-05 1.452801552659366280e-05
5.820000000000000000e+02 2.710099983215332031e+01 9.234666824340820312e-01 1.138134102802723646e-04 1.461480587749974802e-05 3.852846566587686539e-05 6.896345894347177818e-07
5.830000000000000000e+02 2.688040924072265625e+01 -4.761311054229736328e+00 3.735426798812113702e-05 -2.643871812324505299e-05 3.274665232311235741e-06 7.666979399800766259e-06
5.840000000000000000e+02 3.781557464599609375e+01 1.139793872833251953e+00 -2.787432777040521614e-06 7.227888272609561682e-05 2.084743573504965752e-05 6.896932063682470471e-06
5.850000000000000000e+02 4.728964233398437500e+01 -4.641795158386230469e+00 -7.322982128243893385e-05 -3.711603130795992911e-05 -3.310375541332177818e-05 -4.354310658527538180e-05
5.860000000000000000e+02 2.657494926452636719e+01 -1.240317249298095703e+01 -6.001309429848333821e-06 9.083366421691607684e-06 9.246170407095632982e-07 1.273968700843397528e-05
5.870000000000000000e+02 5.176915740966796875e+01 -1.700107955932617188e+01 -4.586822797136846930e-06 -1.527661197542329319e-06 -1.834345198403752875e-06 6.483734864559664857e-07
5.880000000000000000e+02 4.460718536376953125e+01 -1.544146060943603516e+01 -1.082990024769969750e-06 -1.158955546998186037e-05 -3.801763796218438074e-06 -9.330581633548717946e-06
5.890000000000000000e+02 4.490673828125000000e+01 -2.292957496643066406e+01 -2.694991528987884521e-01 -2.572231888771057129e-01 -1.580166965723037720e-01 -4.544525742530822754e-01
5.900000000000000000e+02 4.584488677978515625e+01 -2.389885902404785156e+01 -2.390713691711425781e-01 -3.402416706085205078e-01 -1.737939119338989258e-01 -6.164218187332153320e-01
5.910000000000000000e+02 4.213994598388671875e+01 -2.885818099975585938e+01 -4.359993934631347656e-01 -2.045116186141967773e+00 -7.443346381187438965e-01 -5.945194959640502930e-01
5.920000000000000000e+02 3.969778442382812500e+01 -3.167866706848144531e+01 -7.146943211555480957e-01 -4.772602021694183350e-01 -3.575863540172576904e-01 -5.370767712593078613e-01
5.930000000000000000e+02 3.895845794677734375e+01 -3.201960754394531250e+01 -6.158977150917053223e-01 -3.064458072185516357e-01 -2.767030596733093262e-01 -3.911526799201965332e-01
5.940000000000000000e+02 3.819796752929687500e+01 -3.234038925170898438e+01 -5.196454524993896484e-01 -1.813958138227462769e-01 -2.103123813867568970e-01 -2.813436388969421387e-01
5.950000000000000000e+02 3.658280563354492188e+01 -3.272558593750000000e+01 -2.684806883335113525e-01 -4.469589889049530029e-02 -9.395297616720199585e-02 -1.065879315137863159e-01
5.960000000000000000e+02 3.239274215698242188e+01 -3.233853912353515625e+01 3.034941479563713074e-02 1.807788736186921597e-03 9.647161699831485748e-03 -1.508243288844823837e-02
5.970000000000000000e+02 3.082479095458984375e+01 -3.185944938659667969e+01 4.107299819588661194e-02 -1.025791745632886887e-03 1.201416179537773132e-02 -9.473778307437896729e-03
5.980000000000000000e+02 2.975346565246582031e+01 -3.359388732910156250e+01 9.003815241158008575e-03 -7.109649479389190674e-03 5.682496121153235435e-04 -4.719779826700687408e-03
5.990000000000000000e+02 2.776031303405761719e+01 -3.139565277099609375e+01 3.971334174275398254e-02 -1.121758832596242428e-03 1.157747581601142883e-02 -2.365384018048644066e-03
6.000000000000000000e+02 2.855217552185058594e+01 -3.143938827514648438e+01 4.121259599924087524e-02 7.748685893602669239e-04 1.259623933583498001e-02 -3.018007380887866020e-03
6.010000000000000000e+02 2.695446968078613281e+01 -3.135595893859863281e+01 3.692806512117385864e-02 7.470681448467075825e-04 1.130254007875919342e-02 -1.535973278805613518e-03
6.020000000000000000e+02 2.372044372558593750e+01 -3.110745429992675781e+01 2.560795098543167114e-02 1.682969887042418122e-04 7.732874713838100433e-03 1.695121754892170429e-04
6.030000000000000000e+02 2.211768722534179688e+01 -3.110211563110351562e+01 2.145993337035179138e-02 3.445478505454957485e-04 6.541344337165355682e-03 1.693750964477658272e-03
6.040000000000000000e+02 2.131596565246582031e+01 -3.113056373596191406e+01 2.068688720464706421e-02 2.567012779763899744e-05 6.213766988366842270e-03 1.499497564509510994e-03
6.050000000000000000e+02 2.038451004028320312e+01 -3.199532318115234375e+01 1.493164710700511932e-02 -3.510289388941600919e-05 4.468963481485843658e-03 3.016383619979023933e-03
6.060000000000000000e+02 1.972565460205078125e+01 -3.109594535827636719e+01 1.679041050374507904e-02 -2.369306457694619894e-04 4.966043867170810699e-03 9.665546240285038948e-04
6.070000000000000000e+02 1.812388992309570312e+01 -3.107602119445800781e+01 1.377940736711025238e-02 -9.465683251619338989e-05 4.105424974113702774e-03 3.825630410574376583e-04
6.080000000000000000e+02 1.727240371704101562e+01 -3.186021041870117188e+01 9.559333324432373047e-03 2.255052531836554408e-04 2.935451688244938850e-03 1.903412165120244026e-03
6.090000000000000000e+02 1.485886287689208984e+01 -3.060691070556640625e+01 5.366662517189979553e-03 1.179244645754806697e-05 1.613536500371992588e-03 -6.438903510570526123e-04
6.100000000000000000e+02 1.328281974792480469e+01 -2.995354461669921875e+01 2.432523528113961220e-03 2.143319761671591550e-05 7.361870375461876392e-04 -6.303465343080461025e-04
6.110000000000000000e+02 1.072692012786865234e+01 -2.783784484863281250e+01 -6.757788651157170534e-05 -1.627500460017472506e-04 -6.909837975399568677e-05 -8.586878539063036442e-05
6.120000000000000000e+02 1.016912937164306641e+01 -2.724381637573242188e+01 8.962647552834823728e-05 -2.151371882064267993e-05 2.043382846750319004e-05 1.775802520569413900e-04
6.130000000000000000e+02 9.185046195983886719e+00 -2.591691207885742188e+01 5.775268436991609633e-05 -1.324596232734620571e-04 -2.241207948827650398e-05 1.589326420798897743e-04
6.140000000000000000e+02 8.850450515747070312e+00 -2.176276016235351562e+01 -1.265344762941822410e-04 -1.853596222645137459e-05 -4.352113319328054786e-05 4.002737841801717877e-05
6.150000000000000000e+02 9.317674636840820312e+00 -2.013007164001464844e+01 -1.156692087533883750e-04 -7.387205641862237826e-06 -3.691692472784779966e-05 5.422940739663317800e-05
6.160000000000000000e+02 1.049960708618164062e+01 -1.796458816528320312e+01 7.314606773434206843e-05 5.684939969796687365e-05 3.899863804690539837e-05 -6.445887993322685361e-05
6.170000000000000000e+02 1.091820907592773438e+01 -1.727640724182128906e+01 -5.598118150373920798e-05 -5.134052116773091257e-05 -3.219650898245163262e-05 5.709748802473768592e-05
6.180000000000000000e+02 1.256948184967041016e+01 -1.546575736999511719e+01 2.327014954062178731e-05 3.851957444567233324e-05 1.853691719588823617e-05 -2.484254400769714266e-05
6.190000000000000000e+02 1.325216388702392578e+01 -1.497797203063964844e+01 -1.479825550632085651e-05 -3.343589924043044448e-05 -1.447024624212644994e-05 2.618576399981975555e-05
6.200000000000000000e+02 1.396987342834472656e+01 -1.453918647766113281e+01 7.896389433881267905e-06 3.919170194421894848e-05 1.412642814102582633e-05 -2.141387813026085496e-05
6.210000000000000000e+02 1.361739826202392578e+01 -1.386040306091308594e+01 2.395331648585852236e-06 -2.693247188290115446e-05 -7.361142252193531021e-06 7.624179943377384916e-06
6.220000000000000000e+02 1.878802680969238281e+01 -8.027463912963867188e+00 -9.861322723736520857e-06 -3.659376943687675521e-06 -4.056209945701994002e-06 -3.790091795963235199e-06
6.230000000000000000e+02 2.028613090515136719e+01 -1.104050922393798828e+01 -1.072270333679625764e-05 -2.801459913825965486e-06 -4.057249043398769572e-06 -2.730015239649219438e-06
6.240000000000000000e+02 2.125286865234375000e+01 -1.260615348815917969e+01 7.008969987509772182e-06 7.440872650477103889e-06 4.334952791396062821e-06 -1.507120401811334887e-07
6.250000000000000000e+02 2.258236503601074219e+01 -1.396954059600830078e+01 7.630601430719252676e-06 1.995857928704936057e-06 2.887937853301991709e-06 1.963210024769068696e-06
6.260000000000000000e+02 2.278775405883789062e+01 -1.443047237396240234e+01 -3.239028501411667094e-06 -4.003035883215488866e-06 -2.172619360862881877e-06 -3.579511940188240260e-07
6.270000000000000000e+02 2.190719413757324219e+01 -1.390194797515869141e+01 -8.796299880486913025e-06 -3.228340972327714553e-07 -2.735740281423204578e-06 -2.391391944911447354e-06
6.280000000000000000e+02 2.235499572753906250e+01 -1.348355770111083984e+01 -9.791689990379381925e-06 -3.671539730021322612e-07 -3.047653308385633864e-06 -1.827634491746721324e-06
6.290000000000000000e+02 2.103485679626464844e+01 -1.329685497283935547e+01 4.247308424965012819e-06 1.368219500363920815e-06 1.684658400336047634e-06 2.998530845843561110e-08
6.300000000000000000e+02 2.155167579650878906e+01 -1.193405532836914062e+01 8.155579052981920540e-06 4.171828550170175731e-06 3.698222371895099059e-06 1.079660592040454503e-06
6.310000000000000000e+02 2.046550559997558594e+01 -1.019782447814941406e+01 -1.031148985930485651e-05 -2.969985644085681997e-06 -3.984442628279794008e-06 -3.902551725332159549e-06
6.320000000000000000e+02 2.083264732360839844e+01 -1.077736759185791016e+01 1.050399350788211450e-05 3.088867288170149550e-06 4.077858193340944126e-06 4.063066626258660108e-06
6.330000000000000000e+02 2.119642448425292969e+01 -1.135694217681884766e+01 -9.294382834923453629e-06 -4.490908850129926577e-06 -4.135587460041278973e-06 -3.321317990412353538e-06
6.340000000000000000e+02 1.700173187255859375e+01 -8.009904861450195312e+00 -1.195103777718031779e-05 -4.654478289012331516e-06 -4.981654910807264969e-06 -2.510265403543598950e-06
6.350000000000000000e+02 1.685235404968261719e+01 -6.070607185363769531e+00 -6.902755558257922530e-06 -5.833301202073926106e-06 -3.820817255473230034e-06 -3.505535460135433823e-06
6.360000000000000000e+02 1.734878540039062500e+01 -6.549170970916748047e+00 7.622571047249948606e-06 5.318760031514102593e-06 3.882399141730275005e-06 3.483377668089815415e-06
6.370000000000000000e+02 1.543510341644287109e+01 -5.728433132171630859e+00 7.655259651073720306e-06 6.086041594244306907e-06 4.122390237171202898e-06 3.572802143025910482e-06
6.380000000000000000e+02 1.523542785644531250e+01 -4.780207633972167969e+00 6.087642304919427261e-06 6.570770892722066492e-06 3.797523959292448126e-06 3.757578951990581118e-06
6.390000000000000000e+02 1.467910957336425781e+01 -4.371929645538330078e+00 -6.052415756130358204e-06 -6.759834377589868382e-06 -3.843675131065538153e-06 -3.692359996421146207e-06
6.400000000000000000e+02 1.168920421600341797e+01 -2.698080301284790039e+00 5.750580839958274737e-06 6.467218099714955315e-06 3.665339590952498838e-06 3.916161404049489647e-06
6.410000000000000000e+02 1.229305553436279297e+01 -2.983541488647460938e+00 -5.640385552396764979e-06 -6.629061317653395236e-06 -3.680833970065577887e-06 -3.541059186318307184e-06
6.420000000000000000e+02 1.047951507568359375e+01 -2.219025611877441406e+00 5.817605597258079797e-06 6.001361725793685764e-06 3.545690105966059491e-06 3.678937446238705888e-06
6.430000000000000000e+02 9.868509292602539062e+00 -2.004837274551391602e+00 -6.397146535164210945e-06 -5.613554549199761823e-06 -3.603210416258662008e-06 -3.516398692227085121e-06
6.440000000000000000e+02 7.616219997406005859e+00 -1.846143722534179688e+00 4.752045697387075052e-06 4.019443622382823378e-06 2.631446932355174795e-06 3.863808160531334579e-06
6.450000000000000000e+02 8.969214439392089844e+00 -2.623454809188842773e+00 -6.825320724601624534e-06 -4.834397259401157498e-06 -3.497915258776629344e-06 -4.596564849634887651e-06
6.460000000000000000e+02 8.408890724182128906e+00 -1.854799628257751465e+00 -4.520886250247713178e-06 -4.537216227618046105e-06 -2.717430561460787430e-06 -3.665336862468393520e-06
6.470000000000000000e+02 5.210617065429687500e+00 -1.853842496871948242e+00 -5.152946869202423841e-06 -2.207377747254213318e-06 -2.208097384936991148e-06 -3.481354951873072423e-06
6.480000000000000000e+02 4.405587196350097656e+00 -1.858350634574890137e+00 5.329630766937043518e-06 1.650788703955186065e-06 2.094125875373720191e-06 3.105217501797596924e-06
6.490000000000000000e+02 1.091307759284973145e+00 -6.583288669586181641e+00 2.014561141550075263e-05 7.149997145461384207e-07 6.258183475438272581e-06 3.179316081514116377e-06
6.500000000000000000e+02 1.092525243759155273e+00 -5.791051387786865234e+00 -1.756958954501897097e-05 -5.425101790024200454e-07 -5.433629667095374316e-06 -2.833468670360161923e-06
6.510000000000000000e+02 3.833604156970977783e-01 -2.685967445373535156e+00 7.253819603647571057e-06 1.142961281175303156e-07 2.210434786320547573e-06 8.030197591324395034e-07
6.520000000000000000e+02 3.964075148105621338e-01 -1.894309878349304199e+00 -4.859831278736237437e-06 -6.448659206625961815e-08 -1.477295313634385820e-06 -4.082422719875467010e-07
6.530000000000000000e+02 4.534777998924255371e-01 -4.201328277587890625e+01 -1.742351196298841387e-05 1.146807800978422165e-03 3.388152981642633677e-04 3.577817551558837295e-05
6.540000000000000000e+02 5.273371338844299316e-01 -4.113887023925781250e+01 1.149125164374709129e-04 1.112345722503960133e-03 3.681774833239614964e-04 -8.200360753107815981e-06
6.550000000000000000e+02 4.573033750057220459e-01 -4.036737060546875000e+01 -1.835702569223940372e-04 1.135563594289124012e-03 2.855980128515511751e-04 -2.252474951092153788e-05
6.560000000000000000e+02 4.012446701526641846e-01 -3.881122207641601562e+01 -1.102796813938766718e-04 9.576003067195415497e-04 2.541962021496146917e-04 3.857225601677782834e-05
6.570000000000000000e+02 4.071317911148071289e-01 -3.959416961669921875e+01 1.307632337557151914e-04 1.094093895517289639e-03 3.674571344163268805e-04 9.076210699276998639e-05
6.580000000000000000e+02 4.130986630916595459e-01 -3.721632003784179688e+01 -1.366412907373160124e-04 7.335417903959751129e-04 1.790701498975977302e-04 7.149344310164451599e-05
6.590000000000000000e+02 4.196378290653228760e-01 -3.561325836181640625e+01 -1.778570003807544708e-04 4.614227509591728449e-04 8.506972517352551222e-05 6.125645450083538890e-05
6.600000000000000000e+02 4.187655448913574219e-01 -3.481013870239257812e+01 1.944053074112161994e-04 3.243397513870149851e-04 1.556235220050439239e-04 7.901778008090332150e-05
6.610000000000000000e+02 4.155320227146148682e-01 -3.400591278076171875e+01 -1.886782411020249128e-04 2.119466080330312252e-04 6.980506896070437506e-06 3.773471689783036709e-05
6.620000000000000000e+02 4.107931852340698242e-01 -3.320192337036132812e+01 1.963903632713481784e-04 1.078680579666979611e-04 9.127752127824351192e-05 6.795162335038185120e-05
6.630000000000000000e+02 4.051956534385681152e-01 -3.239825820922851562e+01 -1.804337080102413893e-04 2.462834345351438969e-05 -4.674161027651280165e-05 1.491551938670454547e-05
6.640000000000000000e+02 1.231655955314636230e+00 -3.309898376464843750e+01 -1.588460290804505348e-04 1.889252307591959834e-04 9.023761776916217059e-06 1.216743767145089805e-04
6.650000000000000000e+02 3.991580009460449219e-01 -3.159470367431640625e+01 1.844580983743071556e-04 -3.897325586876831949e-05 4.364545384305529296e-05 4.788786100107245147e-05
6.660000000000000000e+02 3.821589946746826172e-01 -2.918190765380859375e+01 -1.622233976377174258e-04 -1.230299822054803371e-04 -8.557601540815085173e-05 -1.893834632937796414e-05
6.670000000000000000e+02 3.775007128715515137e-01 -2.837884330749511719e+01 1.629427861189469695e-04 -1.203693100251257420e-04 1.277204046346014366e-05 1.664639967202674598e-05
6.680000000000000000e+02 3.741863965988159180e-01 -2.757535934448242188e+01 -1.553114707348868251e-04 -1.106974086724221706e-04 -7.980265945661813021e-05 -2.710761509661097080e-05
6.690000000000000000e+02 3.719287216663360596e-01 -2.677138328552246094e+01 1.510378060629591346e-04 -9.347208833787590265e-05 1.726971458992920816e-05 1.219713431055424735e-05
6.700000000000000000e+02 3.701722621917724609e-01 -2.596721267700195312e+01 -1.443575893063098192e-04 -7.699619891354814172e-05 -6.640613719355314970e-05 -2.899202445405535400e-05
6.710000000000000000e+02 3.685687184333801270e-01 -2.516316986083984375e+01 1.361008326057344675e-04 -5.719380351365543902e-05 2.367210981901735067e-05 1.275778049603104591e-05
6.720000000000000000e+02 1.111192584037780762e+00 -2.667168998718261719e+01 -1.458946062484756112e-04 -4.796141365659423172e-05 -5.815680560772307217e-05 -3.752186967176385224e-05
6.730000000000000000e+02 3.674892187118530273e-01 -2.435942840576171875e+01 -1.284236204810440540e-04 -4.414817522047087550e-05 -5.177153798285871744e-05 -2.662800216057803482e-05
6.740000000000000000e+02 3.676438927650451660e-01 -2.194664192199707031e+01 9.976437286240980029e-05 -9.912404493661597371e-06 2.695558941923081875e-05 1.364345462206983939e-05
6.750000000000000000e+02 3.672108650207519531e-01 -2.114347267150878906e+01 -9.254958422388881445e-05 -8.652550604892894626e-06 -3.036063935724087059e-05 -1.673411134106572717e-05
6.760000000000000000e+02 3.669292330741882324e-01 -2.033977508544921875e+01 8.456321666017174721e-05 -1.663058355916291475e-06 2.487004894646815956e-05 1.232289469044189900e-05
6.770000000000000000e+02 3.664674758911132812e-01 -1.953570175170898438e+01 -7.845804793760180473e-05 -2.777435611278633587e-06 -2.437064540572464466e-05 -1.304166562476893887e-05
6.780000000000000000e+02 3.658492267131805420e-01 -1.873147964477539062e+01 7.220389670692384243e-05 1.356429834231676068e-06 2.206809767812956125e-05 1.106705167330801487e-05
6.790000000000000000e+02 1.818650364875793457e+00 -2.014873886108398438e+01 8.936654921853914857e-05 -1.128815142692474183e-06 2.647131987032480538e-05 1.226951189892133698e-05
6.800000000000000000e+02 3.653534054756164551e-01 -1.792730331420898438e+01 -6.687403219984844327e-05 -8.096918122646457050e-07 -2.030511859629768878e-05 -1.081592927221208811e-05
6.810000000000000000e+02 3.659799695014953613e-01 -1.551496028900146484e+01 5.214035263634286821e-05 2.178655222451197915e-06 1.629570215300191194e-05 8.404218533542007208e-06
6.820000000000000000e+02 3.655162751674652100e-01 -1.471211051940917969e+01 -4.784971315530128777e-05 -5.259098543319851160e-07 -1.451268690288998187e-05 -7.459032076440053061e-06
6.830000000000000000e+02 3.651975989341735840e-01 -1.390903663635253906e+01 4.385889405966736376e-05 1.711402205728518311e-06 1.367108870908850804e-05 6.793424290663097054e-06
6.840000000000000000e+02 3.651151359081268311e-01 -1.310549545288085938e+01 -4.020547203253954649e-05 -5.292185960570350289e-07 -1.222040737047791481e-05 -5.998243977956008166e-06
6.850000000000000000e+02 3.650890886783599854e-01 -1.230173206329345703e+01 3.693861435749568045e-05 1.261501665794639848e-06 1.146003432950237766e-05 5.511965355253778398e-06
6.860000000000000000e+02 3.651475012302398682e-01 -1.149770832061767578e+01 -3.389748599147424102e-05 -5.179065851734776516e-07 -1.032461750583024696e-05 -4.948270088789286092e-06
6.870000000000000000e+02 1.809028267860412598e+00 -1.291547203063964844e+01 -4.764818368130363524e-05 -1.942836206580977887e-06 -1.487730605731485412e-05 -8.507642633048817515e-06
6.880000000000000000e+02 3.654013276100158691e-01 -1.069352626800537109e+01 3.113372440566308796e-05 9.651440677771461196e-07 9.629659871279727668e-06 4.584651378536364064e-06
6.890000000000000000e+02 3.655885457992553711e-01 -8.280982017517089844e+00 -2.388046050327830017e-05 -4.970551685801183339e-07 -7.313254627661081031e-06 -3.457619868640904315e-06
6.900000000000000000e+02 3.640175163745880127e-01 -7.478639125823974609e+00 2.170233892684336752e-05 6.206980174283671658e-07 6.696910986647708341e-06 3.112217427769792266e-06
6.910000000000000000e+02 3.624987900257110596e-01 -6.677271842956542969e+00 -1.954863000719342381e-05 -4.125175507851963630e-07 -5.988344128127209842e-06 -2.727037781369290315e-06
6.920000000000000000e+02 3.621309697628021240e-01 -5.877085208892822266e+00 1.729570976749528199e-05 4.352957034825521987e-07 5.319301635609008372e-06 2.371803020650986582e-06
6.930000000000000000e+02 3.638278245925903320e-01 -5.077834606170654297e+00 -1.490222621214343235e-05 -2.948993085283291293e-07 -4.559137778414878994e-06 -1.980305569304618984e-06
6.940000000000000000e+02 3.677793741226196289e-01 -4.279265880584716797e+00 1.237214019056409597e-05 2.725717536122829188e-07 3.793413497987785377e-06 1.589282305758388247e-06
6.950000000000000000e+02 1.156983017921447754e+00 -2.651495456695556641e+00 -7.540141268691513687e-06 -2.714810705128911650e-07 -2.343486585232312791e-06 -1.445751536266470794e-06
6.960000000000000000e+02 7.960675811767578125e+01 -4.209167861938476562e+01 3.701164573431015015e-02 1.006442737579345703e+01 3.030431509017944336e+00 4.227758944034576416e-02
6.970000000000000000e+02 7.955910491943359375e+01 -4.128416824340820312e+01 -9.340660274028778076e-02 1.010389423370361328e+01 3.003146409988403320e+00 -5.227422807365655899e-03
6.980000000000000000e+02 7.198591613769531250e+01 -3.681434249877929688e+01 -3.133042454719543457e-01 5.419155120849609375e+00 1.531755208969116211e+00 5.198398232460021973e-01
6.990000000000000000e+02 5.389995574951171875e+01 -3.883833694458007812e+01 -8.964726328849792480e-02 9.744635820388793945e-01 2.654449045658111572e-01 -1.904303906485438347e-03
7.000000000000000000e+02 1.318640470504760742e+00 -4.006253814697265625e+01 1.356995198875665665e-05 1.024529919959604740e-03 3.114299615845084190e-04 1.489670976297929883e-04
7.010000000000000000e+02 1.598909735679626465e+00 -4.180559921264648438e+01 -3.389556150068528950e-05 1.171189709566533566e-03 3.411882498767226934e-04 -5.341575524653308094e-05
7.020000000000000000e+02 7.958668518066406250e+01 4.206305313110351562e+01 1.759717427194118500e-02 9.387215614318847656e+00 2.821443796157836914e+00 -2.061566151678562164e-02
7.030000000000000000e+02 7.839173126220703125e+01 3.891621017456054688e+01 -1.393589284271001816e-02 8.624002456665039062e+00 2.583019971847534180e+00 9.293686598539352417e-02
7.040000000000000000e+02 7.744071197509765625e+01 3.756707000732421875e+01 -6.223319098353385925e-02 8.185884475708007812e+00 2.437095403671264648e+00 1.984717696905136108e-01
7.050000000000000000e+02 7.966519927978515625e+01 3.965370941162109375e+01 -2.269988879561424255e-02 9.318368911743164062e+00 2.788700580596923828e+00 4.177097603678703308e-02
7.060000000000000000e+02 7.953991699218750000e+01 3.814307022094726562e+01 -1.089667156338691711e-02 9.153045654296875000e+00 2.742644786834716797e+00 3.963320329785346985e-02
7.070000000000000000e+02 7.958331298828125000e+01 3.729175949096679688e+01 3.905559657141566277e-03 9.089004516601562500e+00 2.727872848510742188e+00 4.561575129628181458e-02
7.080000000000000000e+02 7.961869049072265625e+01 3.495330429077148438e+01 -9.325982071459293365e-03 8.770919799804687500e+00 2.628478050231933594e+00 7.914301753044128418e-02
7.090000000000000000e+02 7.958380889892578125e+01 3.416305160522460938e+01 -8.444376289844512939e-03 8.613013267517089844e+00 2.581370592117309570e+00 9.696009755134582520e-02
7.100000000000000000e+02 7.956620788574218750e+01 3.335581207275390625e+01 -1.151222083717584610e-02 8.431022644042968750e+00 2.525853157043457031e+00 1.164660677313804626e-01
7.110000000000000000e+02 7.958010101318359375e+01 3.172492599487304688e+01 -1.628095516934990883e-03 8.007637023925781250e+00 2.401802778244018555e+00 1.304197311401367188e-01
7.120000000000000000e+02 7.959510803222656250e+01 3.091272926330566406e+01 -3.513984847813844681e-04 7.773847579956054688e+00 2.332048892974853516e+00 1.326760947704315186e-01
7.130000000000000000e+02 7.882756042480468750e+01 3.016708755493164062e+01 2.637369791045784950e-03 7.544164180755615234e+00 2.264040470123291016e+00 3.289379179477691650e-01
7.140000000000000000e+02 7.962995147705078125e+01 2.768835067749023438e+01 4.392187576740980148e-03 6.845534324645996094e+00 2.054977893829345703e+00 1.081479489803314209e-01
7.150000000000000000e+02 7.963328552246093750e+01 2.688486099243164062e+01 5.590571090579032898e-03 6.642858505249023438e+00 1.994534730911254883e+00 9.736058861017227173e-02
7.160000000000000000e+02 7.963500976562500000e+01 2.608367919921875000e+01 4.952551331371068954e-03 6.461181163787841797e+00 1.939840078353881836e+00 8.613824099302291870e-02
7.170000000000000000e+02 7.963598632812500000e+01 2.528343772888183594e+01 6.590514443814754486e-03 6.303890228271484375e+00 1.893144249916076660e+00 7.340425997972488403e-02
7.180000000000000000e+02 7.963732147216796875e+01 2.448308944702148438e+01 4.435816779732704163e-03 6.171370029449462891e+00 1.852741837501525879e+00 6.160154566168785095e-02
7.190000000000000000e+02 7.890911102294921875e+01 2.533132743835449219e+01 2.541828528046607971e-02 6.582985401153564453e+00 1.982521057128906250e+00 1.933021694421768188e-01
7.200000000000000000e+02 7.964086151123046875e+01 2.288319206237792969e+01 3.751737531274557114e-03 5.981902122497558594e+00 1.795696139335632324e+00 3.687107190489768982e-02
7.210000000000000000e+02 7.963929748535156250e+01 2.048116874694824219e+01 4.348481073975563049e-03 5.860300540924072266e+00 1.759394764900207520e+00 1.016895100474357605e-02
7.220000000000000000e+02 7.963880920410156250e+01 1.968029975891113281e+01 5.547030013985931873e-04 5.849022865295410156e+00 1.754873275756835938e+00 5.137773230671882629e-03
7.230000000000000000e+02 7.963817596435546875e+01 1.887915992736816406e+01 3.900669049471616745e-03 5.847626209259033203e+00 1.755457997322082520e+00 -1.933315943460911512e-04
7.240000000000000000e+02 7.963761138916015625e+01 1.807753753662109375e+01 -6.075180717743933201e-04 5.853899002075195312e+00 1.755987405776977539e+00 -3.348892088979482651e-03
7.250000000000000000e+02 7.963691711425781250e+01 1.647414398193359375e+01 -1.599691109731793404e-03 5.879716396331787109e+00 1.763435006141662598e+00 -7.438689004629850388e-03
7.260000000000000000e+02 7.963593292236328125e+01 1.406641864776611328e+01 -2.388750290265306830e-04 5.910272121429443359e+00 1.773010015487670898e+00 -3.273455891758203506e-03
7.270000000000000000e+02 7.963642120361328125e+01 1.326462078094482422e+01 -3.509747330099344254e-03 5.905323982238769531e+00 1.770544290542602539e+00 1.207994646392762661e-03
7.280000000000000000e+02 7.963673400878906250e+01 1.246250820159912109e+01 -2.075467491522431374e-03 5.887199878692626953e+00 1.765537381172180176e+00 7.255930919200181961e-03
7.290000000000000000e+02 7.963682556152343750e+01 1.166040897369384766e+01 -4.042842891067266464e-03 5.853314399719238281e+00 1.754781365394592285e+00 1.422320865094661713e-02
7.300000000000000000e+02 7.963637542724609375e+01 1.085790061950683594e+01 -1.516364980489015579e-03 5.803937435150146484e+00 1.740726351737976074e+00 2.013493888080120087e-02
7.310000000000000000e+02 7.963515472412109375e+01 1.005434989929199219e+01 -2.872050041332840919e-03 5.741487026214599609e+00 1.721584439277648926e+00 2.507784031331539154e-02
7.320000000000000000e+02 7.891015625000000000e+01 1.012055683135986328e+01 -8.248544298112392426e-03 6.111947536468505859e+00 1.831109762191772461e+00 7.772543281316757202e-02
7.330000000000000000e+02 7.962684631347656250e+01 6.832113742828369141e+00 3.874510992318391800e-03 5.447223186492919922e+00 1.635329365730285645e+00 2.109081484377384186e-02
7.340000000000000000e+02 7.962849426269531250e+01 6.027196407318115234e+00 5.662712268531322479e-03 5.394082069396972656e+00 1.619923353195190430e+00 1.071746367961168289e-02
7.350000000000000000e+02 7.963243103027343750e+01 5.222271919250488281e+00 5.867538042366504669e-03 5.363440990447998047e+00 1.610792517662048340e+00 -1.817509997636079788e-03
7.360000000000000000e+02 7.963643646240234375e+01 4.417019367218017578e+00 8.220917545258998871e-03 5.361167430877685547e+00 1.610816597938537598e+00 -1.730736345052719116e-02
7.370000000000000000e+02 7.963943481445312500e+01 3.612627506256103516e+00 6.859662942588329315e-03 5.392158508300781250e+00 1.619705438613891602e+00 -3.391684591770172119e-02
7.380000000000000000e+02 7.964147949218750000e+01 2.008188247680664062e+00 8.527339436113834381e-03 5.550330638885498047e+00 1.667657375335693359e+00 -6.435278058052062988e-02
7.390000000000000000e+02 7.963912200927734375e+01 -3.946895599365234375e-01 5.629523191601037979e-03 6.034205913543701172e+00 1.811950564384460449e+00 -1.115929558873176575e-01
7.400000000000000000e+02 7.963928985595703125e+01 -1.193562865257263184e+00 4.624934867024421692e-03 6.251834869384765625e+00 1.876937866210937500e+00 -1.222278252243995667e-01
7.410000000000000000e+02 7.963993835449218750e+01 -1.991042375564575195e+00 3.501601284369826317e-03 6.487831592559814453e+00 1.947399973869323730e+00 -1.304340064525604248e-01
7.420000000000000000e+02 7.964086914062500000e+01 -2.789070844650268555e+00 2.377187833189964294e-03 6.736763477325439453e+00 2.021742343902587891e+00 -1.360478699207305908e-01
7.430000000000000000e+02 7.964196014404296875e+01 -3.589343309402465820e+00 1.677471562288701534e-03 6.993983268737792969e+00 2.098698139190673828e+00 -1.396327465772628784e-01
7.440000000000000000e+02 7.964307403564453125e+01 -5.193718433380126953e+00 7.560141966678202152e-05 7.511483192443847656e+00 2.253467559814453125e+00 -1.391901969909667969e-01
7.450000000000000000e+02 7.963958740234375000e+01 -7.598975658416748047e+00 -2.567599294707179070e-03 8.233434677124023438e+00 2.469260215759277344e+00 -1.279623359441757202e-01
7.460000000000000000e+02 7.963884735107421875e+01 -8.401414871215820312e+00 -1.237954129464924335e-03 8.451691627502441406e+00 2.535136222839355469e+00 -1.230044737458229065e-01
7.470000000000000000e+02 7.963836669921875000e+01 -9.204018592834472656e+00 -2.728567924350500107e-03 8.658082962036132812e+00 2.596606492996215820e+00 -1.178046762943267822e-01
7.480000000000000000e+02 7.963832092285156250e+01 -1.000627803802490234e+01 -1.166092813946306705e-03 8.853404045104980469e+00 2.655671358108520508e+00 -1.128714904189109802e-01
7.490000000000000000e+02 7.963844299316406250e+01 -1.080840587615966797e+01 -3.113626036792993546e-03 9.037905693054199219e+00 2.710437774658203125e+00 -1.074230894446372986e-01
7.500000000000000000e+02 7.891520690917968750e+01 -9.978615760803222656e+00 -1.103092171251773834e-02 8.573041915893554688e+00 2.568603277206420898e+00 -2.668120861053466797e-01
7.510000000000000000e+02 7.963825988769531250e+01 -1.241367244720458984e+01 -5.264171399176120758e-03 9.373650550842285156e+00 2.810515880584716797e+00 -9.498747438192367554e-02
7.520000000000000000e+02 7.963862609863281250e+01 -1.481981182098388672e+01 -2.251097699627280235e-03 9.747672080993652344e+00 2.923626422882080078e+00 -6.265164911746978760e-02
7.530000000000000000e+02 7.964191436767578125e+01 -1.561999893188476562e+01 -1.057498436421155930e-02 9.822619438171386719e+00 2.943613290786743164e+00 -4.783152043819427490e-02
7.540000000000000000e+02 7.964627838134765625e+01 -1.641926002502441406e+01 -4.135366063565015793e-03 9.866197586059570312e+00 2.958618640899658203e+00 -3.131340816617012024e-02
7.550000000000000000e+02 7.964926910400390625e+01 -1.721920013427734375e+01 -1.589746586978435516e-02 9.867784500122070312e+00 2.955566167831420898e+00 -7.738057523965835571e-03
7.560000000000000000e+02 7.964968109130859375e+01 -1.802157211303710938e+01 -6.533666048198938370e-03 9.817003250122070312e+00 2.943140983581542969e+00 1.755525544285774231e-02
7.570000000000000000e+02 7.895900726318359375e+01 -1.718120956420898438e+01 -4.544029757380485535e-02 9.446258544921875000e+00 2.820245504379272461e+00 2.218813402578234673e-03
7.580000000000000000e+02 7.965083312988281250e+01 -1.962653350830078125e+01 -6.507538259029388428e-03 9.547079086303710938e+00 2.862171411514282227e+00 7.057755440473556519e-02
7.590000000000000000e+02 7.964933013916015625e+01 -2.202777290344238281e+01 -7.539576385170221329e-03 8.759715080261230469e+00 2.625652790069580078e+00 1.258108466863632202e-01
7.600000000000000000e+02 7.964626312255859375e+01 -2.282641983032226562e+01 5.362501833587884903e-03 8.450656890869140625e+00 2.536805868148803711e+00 1.272927075624465942e-01
7.610000000000000000e+02 7.216003417968750000e+01 -2.558281326293945312e+01 7.719087004661560059e-01 1.164269924163818359e+01 3.724382400512695312e+00 -6.007679104804992676e-01
7.620000000000000000e+02 7.963864898681640625e+01 -2.442774391174316406e+01 1.233356446027755737e-02 7.895420551300048828e+00 2.372326135635375977e+00 9.940472245216369629e-02
7.630000000000000000e+02 7.963515472412109375e+01 -2.523118782043457031e+01 1.566534303128719330e-02 7.692760467529296875e+00 2.312527894973754883e+00 6.764076650142669678e-02
7.640000000000000000e+02 7.963254547119140625e+01 -2.603492355346679688e+01 1.676466688513755798e-02 7.565094470977783203e+00 2.274557590484619141e+00 3.204516693949699402e-02
7.650000000000000000e+02 7.963275146484375000e+01 -2.844053459167480469e+01 1.869053207337856293e-02 7.683990955352783203e+00 2.310804367065429688e+00 -8.606823533773422241e-02
7.660000000000000000e+02 7.963322448730468750e+01 -2.924069404602050781e+01 9.169155731797218323e-03 7.877344131469726562e+00 2.365953922271728516e+00 -1.153748407959938049e-01
7.670000000000000000e+02 7.963138580322265625e+01 -3.004176521301269531e+01 1.000300515443086624e-02 8.121538162231445312e+00 2.439462184906005859e+00 -1.362395882606506348e-01
7.680000000000000000e+02 7.962652587890625000e+01 -3.084381294250488281e+01 3.623118973337113857e-04 8.395474433898925781e+00 2.518751144409179688e+00 -1.460287719964981079e-01
7.690000000000000000e+02 7.961844635009765625e+01 -3.164729309082031250e+01 2.640342805534601212e-03 8.675450325012207031e+00 2.603427171707153320e+00 -1.490795016288757324e-01
7.700000000000000000e+02 7.959371948242187500e+01 -3.325860977172851562e+01 4.168575105722993612e-04 9.189823150634765625e+00 2.757071971893310547e+00 -1.347503960132598877e-01
7.710000000000000000e+02 7.954587554931640625e+01 -3.568259811401367188e+01 -3.670072183012962341e-02 9.731146812438964844e+00 2.908334016799926758e+00 -7.781542837619781494e-02
7.720000000000000000e+02 7.953559875488281250e+01 -3.649222183227539062e+01 1.553147006779909134e-02 9.827222824096679688e+00 2.952826261520385742e+00 -5.880529806017875671e-02
7.730000000000000000e+02 7.953604888916015625e+01 -3.729742431640625000e+01 -4.308485239744186401e-02 9.891778945922851562e+00 2.954608201980590820e+00 -3.642188385128974915e-02
7.740000000000000000e+02 7.953840637207031250e+01 -3.809785461425781250e+01 4.793944582343101501e-02 9.938489913940429688e+00 2.995928764343261719e+00 -3.840956836938858032e-02
7.750000000000000000e+02 7.950986480712890625e+01 -3.889320755004882812e+01 -5.474831908941268921e-02 9.989377021789550781e+00 2.980388641357421875e+00 -3.453958407044410706e-02
7.760000000000000000e+02 7.952581787109375000e+01 -4.048371887207031250e+01 4.105216264724731445e-02 1.005387210845947266e+01 3.028477191925048828e+00 -5.636762455105781555e-02
7.770000000000000000e+02 4.794477224349975586e-01 4.198098373413085938e+01 2.938355237347423099e-06 1.045331824570894241e-03 3.144810616504400969e-04 -4.495797384151956066e-06
7.780000000000000000e+02 5.690047740936279297e-01 4.106078720092773438e+01 4.270681893103756011e-05 1.044785371050238609e-03 3.262476529926061630e-04 1.653231811360456049e-05
7.790000000000000000e+02 2.766699600219726562e+01 4.084794616699218750e+01 -1.203728257678449154e-03 -2.797441557049751282e-04 -4.450417181942611933e-04 2.141205477528274059e-04
7.800000000000000000e+02 4.835448074340820312e+01 3.691077423095703125e+01 -9.171836078166961670e-03 -9.345656260848045349e-03 -5.555247887969017029e-03 1.296893879771232605e-02
7.810000000000000000e+02 6.421458435058593750e+01 3.851397705078125000e+01 1.968018859624862671e-01 9.062641263008117676e-01 3.309198021888732910e-01 -2.068128436803817749e-01
7.820000000000000000e+02 7.781026458740234375e+01 3.968186569213867188e+01 -1.138586830347776413e-02 8.388716697692871094e+00 2.513199329376220703e+00 9.286640584468841553e-02
7.830000000000000000e+02 7.952992248535156250e+01 4.121645355224609375e+01 -4.937679693102836609e-02 9.412856101989746094e+00 2.809043884277343750e+00 -3.367604687809944153e-03
7.840000000000000000e+02 3.894421756267547607e-01 1.895386934280395508e+00 -4.295777671359246597e-06 -2.202552423113957047e-06 -1.949498937392490916e-06 8.778782216722902376e-07
7.850000000000000000e+02 1.170969843864440918e+00 1.884406805038452148e+00 5.241935923550045118e-06 -5.422650701802922413e-07 1.409901187798823230e-06 1.532249314095679438e-07
7.860000000000000000e+02 1.913672089576721191e+00 2.635793447494506836e+00 9.261110790248494595e-06 3.136755594823625870e-06 3.719359938259003684e-06 -3.455764954196638428e-06
7.870000000000000000e+02 3.693751096725463867e-01 4.285553932189941406e+00 9.832827345235273242e-06 -1.009965870935047860e-07 2.919549388025188819e-06 -2.223160663561429828e-06
7.880000000000000000e+02 1.116038322448730469e+00 5.022158622741699219e+00 1.222845276060979813e-05 1.137331855716183782e-05 7.080531304382020608e-06 -7.956511581141967326e-06
7.890000000000000000e+02 3.735871613025665283e-01 5.888249397277832031e+00 1.269506083190208301e-05 1.031281954055884853e-05 6.902364020788809285e-06 -4.174813511781394482e-06
7.900000000000000000e+02 3.692718446254730225e-01 8.296620368957519531e+00 -1.624703327252063900e-05 3.800277772825211287e-05 6.526723154820501804e-06 -3.952490260417107493e-06
7.910000000000000000e+02 3.615473806858062744e-01 9.102442741394042969e+00 1.763913678587414324e-05 4.909503331873565912e-05 2.002025030378717929e-05 -6.794131877541076392e-06
7.920000000000000000e+02 3.561611771583557129e-01 9.907368659973144531e+00 -1.787491419236175716e-05 6.355567893479019403e-05 1.370422978652641177e-05 -5.274352588457986712e-06
7.930000000000000000e+02 3.538730740547180176e-01 1.071114540100097656e+01 1.906075158331077546e-05 7.771534001221880317e-05 2.903282620536629111e-05 -7.936268957564607263e-06
7.940000000000000000e+02 3.536895811557769775e-01 1.151476573944091797e+01 -1.943950883287470788e-05 9.453015081817284226e-05 2.252719241369049996e-05 -6.044738256605342031e-06
7.950000000000000000e+02 1.057715535163879395e+00 1.144171237945556641e+01 2.129696258634794503e-05 9.725164272822439671e-05 3.556457886588759720e-05 -2.208575097029097378e-05
7.960000000000000000e+02 3.545672595500946045e-01 1.312193489074707031e+01 -2.203388430643826723e-05 1.307648053625598550e-04 3.261927486164495349e-05 -6.686612778139533475e-06
7.970000000000000000e+02 3.562713563442230225e-01 1.553374862670898438e+01 2.808333192660938948e-05 1.949283760040998459e-04 6.690351438010111451e-05 -1.297064682148629799e-05
7.980000000000000000e+02 3.566482961177825928e-01 1.633700561523437500e+01 -2.953628245450090617e-05 2.198302681790664792e-04 5.708819298888556659e-05 -8.393531970796175301e-06
7.990000000000000000e+02 3.576119542121887207e-01 1.714057540893554688e+01 3.185329842381179333e-05 2.447636215947568417e-04 8.298507600557059050e-05 -1.435707235941663384e-05
8.000000000000000000e+02 3.586360216140747070e-01 1.794485855102539062e+01 -3.281456156400963664e-05 2.726677339524030685e-04 7.195595389930531383e-05 -9.754858183441683650e-06
8.010000000000000000e+02 3.593001365661621094e-01 1.874906158447265625e+01 3.462132735876366496e-05 2.999972784891724586e-04 1.003855795715935528e-04 -1.535750197945162654e-05
8.020000000000000000e+02 3.638404607772827148e-01 2.196466636657714844e+01 3.484617263893596828e-05 4.253945662640035152e-04 1.380722242174670100e-04 -1.638754656596574932e-05
8.030000000000000000e+02 3.649985492229461670e-01 2.276914215087890625e+01 -3.394644954823888838e-05 4.606319125741720200e-04 1.280056458199396729e-04 -1.447282647859537974e-05
8.040000000000000000e+02 3.662718832492828369e-01 2.357279205322265625e+01 3.358889443916268647e-05 4.938915371894836426e-04 1.582441327627748251e-04 -1.683107075223233551e-05
8.050000000000000000e+02 3.678900003433227539e-01 2.437648200988769531e+01 -3.257675780332647264e-05 5.304861697368323803e-04 1.493728195782750845e-04 -1.543482358101755381e-05
8.060000000000000000e+02 3.695178627967834473e-01 2.518042564392089844e+01 3.197936530341394246e-05 5.646859644912183285e-04 1.789996022125706077e-04 -1.707881529000587761e-05
8.070000000000000000e+02 1.104521632194519043e+00 2.429676628112792969e+01 3.513556293910369277e-05 5.007659201510250568e-04 1.607704471098259091e-04 -4.471550346352159977e-05
8.080000000000000000e+02 3.738737106323242188e-01 2.678789520263671875e+01 3.005544749612454325e-05 6.361858686432242393e-04 1.998724037548527122e-04 -1.679205888649448752e-05
8.090000000000000000e+02 3.890925049781799316e-01 2.920588684082031250e+01 -2.951329588540829718e-05 7.412345148622989655e-04 2.135163667844608426e-04 -1.555751259729731828e-05
8.100000000000000000e+02 3.965774178504943848e-01 3.001352119445800781e+01 3.133907375740818679e-05 7.736506522633135319e-04 2.414969058008864522e-04 -1.743831307976506650e-05
8.110000000000000000e+02 4.042707681655883789e-01 3.082204055786132812e+01 -3.588824256439693272e-05 8.056955994106829166e-04 2.309421979589387774e-04 -1.320101364399306476e-05
8.120000000000000000e+02 4.086323678493499756e-01 3.163016891479492188e+01 4.331191667006351054e-05 8.368624257855117321e-04 2.640523016452789307e-04 -1.978321597562171519e-05
8.130000000000000000e+02 1.231844544410705566e+00 3.159507942199707031e+01 -4.362070103525184095e-05 7.840977632440626621e-04 2.221431204816326499e-04 -3.848881897283717990e-05
8.140000000000000000e+02 3.980735540390014648e-01 3.323917770385742188e+01 6.436906551243737340e-05 8.969283662736415863e-04 2.883892157115042210e-04 -2.049359318334609270e-05
8.150000000000000000e+02 3.789379894733428955e-01 3.561662673950195312e+01 -1.030771672958508134e-04 9.783040732145309448e-04 2.625680644996464252e-04 2.372895778535166755e-06
8.160000000000000000e+02 4.008049964904785156e-01 3.640545272827148438e+01 1.046073230099864304e-04 1.002935459837317467e-03 3.322628326714038849e-04 -2.432273140584584326e-05
8.170000000000000000e+02 4.445418417453765869e-01 3.719493103027343750e+01 -9.503564797341823578e-05 1.029783044941723347e-03 2.804242249112576246e-04 -4.968583652953384444e-06
8.180000000000000000e+02 4.899772107601165771e-01 3.799655914306640625e+01 6.223129457794129848e-05 1.031482825055718422e-03 3.281142271589487791e-04 -7.687182090876376606e-08
8.190000000000000000e+02 5.015780329704284668e-01 3.881870269775390625e+01 -4.047088441438972950e-05 1.039802446030080318e-03 2.997994888573884964e-04 -7.289548193512018770e-06
8.200000000000000000e+02 4.442069530487060547e-01 4.033473587036132812e+01 -1.031797000905498862e-04 1.074667205102741718e-03 2.914462529588490725e-04 2.873678567993920296e-05
8.210000000000000000e+02 9.911792755126953125e+00 1.933044075965881348e+00 6.540022877743467689e-05 3.626654870458878577e-05 3.050003397220280021e-05 -4.874061414739117026e-05
8.220000000000000000e+02 9.062777519226074219e+00 1.898424625396728516e+00 6.245649274205788970e-05 4.398188139020930976e-06 2.005640453717205673e-05 -3.646532059065066278e-05
8.230000000000000000e+02 8.256617546081542969e+00 1.878955602645874023e+00 5.299689655657857656e-05 2.465687066433019936e-05 2.329613016627263278e-05 -4.042388536618091166e-05
8.240000000000000000e+02 7.334301471710205078e+00 2.588864326477050781e+00 3.955608553951606154e-05 2.511686943762470037e-05 1.940188667504116893e-05 -4.052853546454571187e-05
8.250000000000000000e+02 6.675425052642822266e+00 1.858787178993225098e+00 3.121287591056898236e-05 1.780760612746234983e-05 1.470614552090410143e-05 -2.639748890942428261e-05
8.260000000000000000e+02 4.316657543182373047e+00 1.860894560813903809e+00 1.764983971952460706e-05 -7.285530614353774581e-07 5.076386059954529628e-06 -9.824203516473062336e-06
8.270000000000000000e+02 3.530586957931518555e+00 1.865108251571655273e+00 4.884905138169415295e-06 9.239003702532500029e-06 4.237172561261104420e-06 -7.067024398565990850e-06
8.280000000000000000e+02 1.956239581108093262e+00 1.876672029495239258e+00 -1.369396500194852706e-06 4.919466846331488341e-06 1.065021137947042007e-06 -5.837954972776060458e-07
8.290000000000000000e+02 1.316971588134765625e+01 6.770407557487487793e-01 8.609105861978605390e-05 2.806012707878835499e-05 3.424535680096596479e-05 -3.224487591069191694e-05
8.300000000000000000e+02 1.522493171691894531e+01 1.183259844779968262e+00 8.293274731840938330e-05 4.838415406993590295e-06 2.633134863572195172e-05 -2.531263999117072672e-05
8.310000000000000000e+02 1.601568794250488281e+01 -8.763704895973205566e-01 8.217596769100055099e-05 1.526883715996518731e-05 2.923344072769396007e-05 -1.974394035642035306e-05
8.320000000000000000e+02 1.734007644653320312e+01 -1.795606017112731934e+00 7.293107773875817657e-05 6.606372608075616881e-06 2.386123560427222401e-05 -1.301985594182042405e-05
8.330000000000000000e+02 1.862303543090820312e+01 -2.771590471267700195e+00 5.905888974666595459e-05 -1.805894157769216690e-06 1.717589839245192707e-05 -6.562071121152257547e-06
8.340000000000000000e+02 2.096321105957031250e+01 -4.993498325347900391e+00 3.028707942576147616e-05 -1.435942886018892750e-05 4.778295078722294420e-06 2.330119059479329735e-06
8.350000000000000000e+02 2.150251579284667969e+01 -5.594223499298095703e+00 1.579064155521336943e-05 -6.279113677010172978e-06 2.853458681784104556e-06 -8.949798029789235443e-06
8.360000000000000000e+02 2.299363708496093750e+01 -7.486898899078369141e+00 7.965561962919309735e-06 -1.903818883874919266e-05 -3.321787971799494699e-06 6.492927241197321564e-06
8.370000000000000000e+02 2.345215797424316406e+01 -8.145695686340332031e+00 -2.115454662998672575e-06 -4.117848675377899781e-06 -1.869991024250339251e-06 3.913313321390887722e-06
8.380000000000000000e+02 2.429084777832031250e+01 -9.500212669372558594e+00 -5.267804226605221629e-06 -1.414200824001454748e-06 -2.004601583394105546e-06 7.923142220533918589e-06
8.390000000000000000e+02 2.469880485534667969e+01 -1.018145370483398438e+01 -4.397384145704563707e-06 -1.820658508222550154e-05 -6.781190677429549396e-06 6.026582013873849064e-06
8.400000000000000000e+02 2.506886482238769531e+01 -1.086030769348144531e+01 -5.724815764551749453e-06 6.064593094379233662e-07 -1.535506953587173484e-06 1.164089371741283685e-05
8.410000000000000000e+02 2.604187583923339844e+01 -1.286948013305664062e+01 -8.586574949731584638e-06 -1.611142033652868122e-05 -7.409398222080199048e-06 1.519559987173124682e-06
8.420000000000000000e+02 2.636559104919433594e+01 -1.352557468414306641e+01 -3.048765847779577598e-06 7.978366738825570792e-06 1.478880335525900591e-06 1.563178557262290269e-05
8.430000000000000000e+02 2.669908142089843750e+01 -1.415523529052734375e+01 -9.811503332457505167e-06 -1.598341259523294866e-05 -7.738474778307136148e-06 -6.388454494299367070e-07
8.440000000000000000e+02 2.704807281494140625e+01 -1.472773361206054688e+01 1.800423063968992210e-07 1.169055394711904228e-05 3.561178800737252459e-06 1.264009733858983964e-05
8.450000000000000000e+02 2.762374687194824219e+01 -1.505388927459716797e+01 -1.385752784699434415e-05 -1.101991801988333464e-05 -7.463233487214893103e-06 1.278309127883403562e-06
8.460000000000000000e+02 2.854932594299316406e+01 -1.624428939819335938e+01 -2.266232331749051809e-05 -5.191217042010976002e-06 -8.356061698577832431e-06 2.246005578854237683e-06
8.470000000000000000e+02 3.055070114135742188e+01 -1.695986747741699219e+01 -7.788470611558295786e-06 5.959697773505467921e-06 -5.486319309966347646e-07 5.907485046918736771e-06
8.480000000000000000e+02 2.958734512329101562e+01 -1.738218688964843750e+01 -8.911223631002940238e-06 4.167100541963009164e-06 -1.423236994924081955e-06 6.832842700532637537e-06
8.490000000000000000e+02 3.253816604614257812e+01 -1.804690933227539062e+01 -1.236839852936100215e-05 5.562228125199908391e-06 -2.041851075773593038e-06 2.405299937890958972e-06
8.500000000000000000e+02 3.178358078002929688e+01 -1.795841217041015625e+01 -1.285354210267541930e-05 -5.172361397853819653e-06 -5.407770913734566420e-06 7.079298711687442847e-07
8.510000000000000000e+02 3.146233558654785156e+01 -1.645958137512207031e+01 -6.734153430443257093e-06 7.469323463737964630e-06 2.205510867270277231e-07 5.569444510911125690e-06
8.520000000000000000e+02 3.341121673583984375e+01 -1.743529510498046875e+01 -1.121573041018564254e-05 6.825788659625686705e-06 -1.316982320531678852e-06 2.320634166608215310e-06
8.530000000000000000e+02 3.634585189819335938e+01 -1.818980216979980469e+01 -1.828894892241805792e-05 -7.525733053626026958e-06 -7.744404683762695640e-06 1.394976948176918086e-06
8.540000000000000000e+02 3.700574874877929688e+01 -1.758664131164550781e+01 -1.540623270557262003e-05 -7.379698217846453190e-06 -6.835779458924662322e-06 1.923045601870398968e-06
8.550000000000000000e+02 3.846850967407226562e+01 -1.811445999145507812e+01 -1.525105926702963188e-05 3.074169626415823586e-06 -3.653066869446774945e-06 -4.973904310645593796e-07
8.560000000000000000e+02 3.953874969482421875e+01 -1.920366859436035156e+01 -6.874454811622854322e-06 -2.634237944221240468e-06 -2.852607849490595981e-06 1.948327053469256498e-06
8.570000000000000000e+02 4.054464340209960938e+01 -2.049549484252929688e+01 -4.113518116355407983e-06 4.437053391370682220e-08 -1.220744252350414172e-06 2.019333891212227172e-07
8.580000000000000000e+02 4.250231552124023438e+01 -1.981804847717285156e+01 -6.422294063668232411e-06 -1.413117843185318634e-06 -2.350623617530800402e-06 -2.261656248947474523e-07
8.590000000000000000e+02 4.602966690063476562e+01 -1.822154426574707031e+01 -3.729418494913261384e-06 -3.976298557972768322e-06 -2.311715206815279089e-06 -4.500749582803109661e-06
8.600000000000000000e+02 4.618555450439453125e+01 -1.882299804687500000e+01 -1.037566761397101800e-07 1.984672962862532586e-06 5.642748988066159654e-07 1.546964654153271113e-06
8.610000000000000000e+02 4.767139053344726562e+01 -1.850260353088378906e+01 1.143208237408543937e-06 4.230567185459221946e-07 4.698794953128526686e-07 1.686396103650622535e-06
8.620000000000000000e+02 4.841516876220703125e+01 -1.834848785400390625e+01 -3.548610720827127807e-06 -4.753441089633270167e-07 -1.207186528517922852e-06 -3.283710384494042955e-06
8.630000000000000000e+02 4.915307998657226562e+01 -1.820154571533203125e+01 2.510429339963593520e-06 -8.350190228156861849e-07 5.026230951443722006e-07 1.052456468642049003e-06
8.640000000000000000e+02 5.133924865722656250e+01 -1.778417015075683594e+01 -2.969299202959518880e-06 -3.871860201343224617e-07 -1.006945581139007118e-06 -3.441069225118553732e-07
8.650000000000000000e+02 5.205763244628906250e+01 -1.764062881469726562e+01 2.443103085170150734e-06 5.760892349826463033e-07 9.057577017301809974e-07 -3.776574715175229358e-07
8.660000000000000000e+02 5.354572677612304688e+01 -1.455895709991455078e+01 7.051912234601331875e-06 5.449882792163407430e-06 3.750538553504156880e-06 6.405186923075234517e-06
8.670000000000000000e+02 5.408483505249023438e+01 -1.515334129333496094e+01 -5.121817139297490939e-06 -5.119954494148259982e-06 -3.072531399084255099e-06 -5.466665243147872388e-06
8.680000000000000000e+02 5.421529388427734375e+01 -1.612439918518066406e+01 -1.135614638769766316e-05 -3.059713435504818335e-06 -4.324757810536539182e-06 -4.804137915925821289e-06
8.690000000000000000e+02 5.619552230834960938e+01 -1.657217407226562500e+01 -7.225975195979117416e-07 9.926537131832446903e-06 2.761182031463249587e-06 3.968266810261411592e-06
8.700000000000000000e+02 5.877288436889648438e+01 -1.558143806457519531e+01 6.357016445690533146e-06 -8.627606803202070296e-06 -6.811770845160936005e-07 -4.632641719126695534e-07
8.710000000000000000e+02 5.302380752563476562e+01 -1.397468280792236328e+01 -8.247292498708702624e-06 -5.883498488401528448e-06 -4.239237114234128967e-06 -6.669529284408781677e-06
8.720000000000000000e+02 5.256444931030273438e+01 -1.341197013854980469e+01 7.868211469030939043e-06 1.100647659768583253e-05 5.662406238116091117e-06 5.827277618664084002e-06
8.730000000000000000e+02 5.145849990844726562e+01 -1.096402645111083984e+01 -3.822251528617925942e-05 -3.618557684603729285e-06 -1.255232200492173433e-05 -2.389974497418734245e-06
8.740000000000000000e+02 5.187668609619140625e+01 -1.247959041595458984e+01 -3.199640559614636004e-05 -1.891171677925740369e-06 -1.016627265926217660e-05 -2.210240381828043610e-06
8.750000000000000000e+02 5.024703216552734375e+01 -9.474386215209960938e+00 4.911357245873659849e-05 -5.397379936766810715e-06 1.311485812038881704e-05 8.248125595855526626e-06
8.760000000000000000e+02 5.082643890380859375e+01 -1.176184940338134766e+01 -3.480309169390238822e-05 -3.374982725290465169e-06 -1.145342230302048847e-05 -4.798855570697924122e-06
8.770000000000000000e+02 5.076277160644531250e+01 -8.674459457397460938e+00 5.258128294371999800e-05 -6.795291938033187762e-06 1.373579652863554657e-05 6.311951892712386325e-06
8.780000000000000000e+02 5.054090118408203125e+01 -7.909826278686523438e+00 -6.030961958458647132e-05 -9.097415386349894106e-06 -2.082210994558408856e-05 -4.533168976195156574e-06
8.790000000000000000e+02 5.030587005615234375e+01 -7.154757976531982422e+00 6.813200161559507251e-05 -7.405273208860307932e-06 1.821801924961619079e-05 1.147981402027653530e-05
8.800000000000000000e+02 4.981084442138671875e+01 -5.652133941650390625e+00 8.586841431679204106e-05 -9.544257409288547933e-06 2.289724579895846546e-05 1.904272539832163602e-05
8.810000000000000000e+02 4.906643676757812500e+01 -3.398795843124389648e+00 -1.226439926540479064e-04 -2.546796167735010386e-05 -4.443358557182364166e-05 -2.491880695743020624e-05
8.820000000000000000e+02 4.862030410766601562e+01 -4.284219741821289062e+00 -9.739556116983294487e-05 -2.770493119896855205e-05 -3.753014607354998589e-05 -3.126929732388816774e-05
8.830000000000000000e+02 4.809638595581054688e+01 -2.842857122421264648e+00 -1.135712009272538126e-04 -3.793672658503055573e-05 -4.545237607089802623e-05 -3.970272518927231431e-05
8.840000000000000000e+02 4.821549606323242188e+01 -1.190876245498657227e+00 1.510859146947041154e-04 1.654831862651917618e-06 4.582222391036339104e-05 5.920632611378096044e-05
8.850000000000000000e+02 4.753738784790039062e+01 2.279726415872573853e-01 1.675868988968431950e-04 8.280091606138739735e-06 5.276009687804616988e-05 8.239973249146714807e-05
8.860000000000000000e+02 4.717407989501953125e+01 9.337548017501831055e-01 -1.888406695798039436e-04 -6.269798177527263761e-05 -7.546159758931025863e-05 -6.709709850838407874e-05
8.870000000000000000e+02 4.681751632690429688e+01 1.644538164138793945e+00 1.888687547761946917e-04 1.372241786157246679e-05 6.077735088183544576e-05 9.961604519048705697e-05
8.880000000000000000e+02 4.500735855102539062e+01 3.426712751388549805e+00 1.909468846861273050e-04 3.891681626555509865e-05 6.895911064930260181e-05 1.183256026706658304e-04
8.890000000000000000e+02 4.488377380371093750e+01 5.130377292633056641e+00 -2.810689038597047329e-04 -9.990996477426961064e-05 -1.142936598625965416e-04 -1.114203842007555068e-04
8.900000000000000000e+02 4.448145294189453125e+01 5.825943470001220703e+00 2.770389546640217304e-04 2.360957478231284767e-05 9.019456047099083662e-05 1.569730375194922090e-04
8.910000000000000000e+02 4.409717559814453125e+01 6.535513877868652344e+00 -3.217012272216379642e-04 -9.192845755023881793e-05 -1.240888959728181362e-04 -1.146241193055175245e-04
8.920000000000000000e+02 4.374150466918945312e+01 7.260538101196289062e+00 3.207905392628163099e-04 1.904831879073753953e-05 1.019516639644280076e-04 1.512542221462354064e-04
8.930000000000000000e+02 4.310033035278320312e+01 8.740740776062011719e+00 3.550425753928720951e-04 3.000414108100812882e-05 1.155140198534354568e-04 1.337936701020225883e-04
8.940000000000000000e+02 4.262414932250976562e+01 1.029654312133789062e+01 3.807873290497809649e-04 9.910052176564931870e-05 1.439663610653951764e-04 7.781914609950035810e-05
8.950000000000000000e+02 4.250030517578125000e+01 1.272806262969970703e+01 -4.104711406398564577e-04 2.898248494602739811e-04 -3.619388007791712880e-05 2.139253228961024433e-05
8.960000000000000000e+02 4.261796951293945312e+01 1.433506488800048828e+01 -4.583083209581673145e-04 4.127300635445863008e-04 -1.367347249470185488e-05 6.195748574100434780e-05
8.970000000000000000e+02 4.274314880371093750e+01 1.595158100128173828e+01 -4.410660476423799992e-04 7.525372202508151531e-04 9.344136196887120605e-05 1.964500697795301676e-04
8.980000000000000000e+02 4.288530349731445312e+01 1.675167274475097656e+01 6.357103120535612106e-04 8.783853845670819283e-04 4.542287206277251244e-04 2.165784972021356225e-04
8.990000000000000000e+02 4.346291351318359375e+01 1.911028671264648438e+01 -4.504164389800280333e-04 1.329908845946192741e-03 2.638477308209985495e-04 5.984262097626924515e-04
9.000000000000000000e+02 4.392984771728515625e+01 2.066477584838867188e+01 -4.039979248773306608e-04 1.772111514583230019e-03 4.104340914636850357e-04 9.025966865010559559e-04
9.010000000000000000e+02 4.477965545654296875e+01 2.295361137390136719e+01 1.829893211834132671e-03 2.871202304959297180e-03 1.410328666679561138e-03 1.217720448039472103e-03
9.020000000000000000e+02 4.550350952148437500e+01 2.440457153320312500e+01 2.569756237789988518e-03 3.422660054638981819e-03 1.797724864445626736e-03 1.598902279511094093e-03
9.030000000000000000e+02 4.513033676147460938e+01 2.368640899658203125e+01 2.868886440410278738e-05 2.901238156482577324e-03 8.789781131781637669e-04 2.105053747072815895e-03
9.040000000000000000e+02 4.669344711303710938e+01 2.652831077575683594e+01 5.068881437182426453e-04 4.155715927481651306e-03 1.398781198076903820e-03 4.065113142132759094e-03
9.050000000000000000e+02 4.711137008666992188e+01 2.722945785522460938e+01 5.339561030268669128e-03 5.689167417585849762e-03 3.308618441224098206e-03 2.867079572752118111e-03
9.060000000000000000e+02 4.756045532226562500e+01 2.791475105285644531e+01 1.976534724235534668e-03 4.989557899534702301e-03 2.089827787131071091e-03 5.924882367253303528e-03
9.070000000000000000e+02 4.805232620239257812e+01 2.856921005249023438e+01 7.261678576469421387e-03 6.622023880481719971e-03 4.165110643953084946e-03 3.532421775162220001e-03
9.080000000000000000e+02 4.822967147827148438e+01 3.049654006958007812e+01 3.889200277626514435e-03 1.510947244241833687e-03 1.620044233277440071e-03 5.803458858281373978e-03
9.090000000000000000e+02 5.019324493408203125e+01 3.102080535888671875e+01 9.937736205756664276e-03 9.238113649189472198e-03 5.752754863351583481e-03 5.998603999614715576e-03
9.100000000000000000e+02 5.138454055786132812e+01 3.213583374023437500e+01 1.084983535110950470e-02 9.060859680175781250e-03 5.973208695650100708e-03 5.487868562340736389e-03
9.110000000000000000e+02 5.328747177124023438e+01 3.374242019653320312e+01 -1.063118409365415573e-02 -2.767961705103516579e-03 -4.019743762910366058e-03 9.925765916705131531e-03
9.120000000000000000e+02 5.781245803833007812e+01 3.572718429565429688e+01 -4.159928262233734131e-01 -1.544631831347942352e-02 -1.294317394495010376e-01 3.220194578170776367e-02
9.130000000000000000e+02 6.110037994384765625e+01 3.653058242797851562e+01 -4.947747290134429932e-01 -4.723901674151420593e-02 -1.626041233539581299e-01 1.681837439537048340e-01
9.140000000000000000e+02 6.125109481811523438e+01 3.522938537597656250e+01 -8.143457770347595215e-01 -4.417036473751068115e-02 -2.575548291206359863e-01 2.284596711397171021e-01
9.150000000000000000e+02 6.350457382202148438e+01 3.450309753417968750e+01 -1.048978805541992188e+00 -1.578778624534606934e-01 -3.620569705963134766e-01 3.369168639183044434e-01
9.160000000000000000e+02 6.488430786132812500e+01 3.362238693237304688e+01 -3.485146760940551758e-01 1.572224646806716919e-01 -5.738766491413116455e-02 7.996917515993118286e-02
9.170000000000000000e+02 6.666641235351562500e+01 3.192838287353515625e+01 4.113389849662780762e-01 1.488370776176452637e+00 5.699129104614257812e-01 -8.481548428535461426e-01
9.180000000000000000e+02 6.720901489257812500e+01 3.129456520080566406e+01 7.333915233612060547e-01 2.224869489669799805e+00 8.874782919883728027e-01 -1.293995976448059082e+00
9.190000000000000000e+02 6.772837066650390625e+01 3.063875579833984375e+01 1.108049750328063965e+00 3.472587585449218750e+00 1.374191164970397949e+00 -1.889225482940673828e+00
9.200000000000000000e+02 6.945938873291015625e+01 2.603840637207031250e+01 4.605126082897186279e-01 1.086520576477050781e+01 3.397715568542480469e+00 -1.491799116134643555e+00
9.210000000000000000e+02 6.964700317382812500e+01 2.441450691223144531e+01 2.565622031688690186e-01 1.155007934570312500e+01 3.541992425918579102e+00 -7.465675473213195801e-01
9.220000000000000000e+02 6.968711853027343750e+01 2.360121154785156250e+01 1.812294721603393555e-01 1.147589492797851562e+01 3.497137308120727539e+00 -2.997446358203887939e-01
9.230000000000000000e+02 6.969599151611328125e+01 2.279198455810546875e+01 1.856238022446632385e-02 1.094686508178710938e+01 3.289628267288208008e+00 -9.203073382377624512e-02
9.240000000000000000e+02 6.970028686523437500e+01 2.198495864868164062e+01 1.487804483622312546e-02 1.075785827636718750e+01 3.231821060180664062e+00 -5.400846153497695923e-02
9.250000000000000000e+02 6.970159912109375000e+01 1.795809173583984375e+01 6.695628981105983257e-04 1.062652969360351562e+01 3.188159942626953125e+00 1.050174329429864883e-02
9.260000000000000000e+02 6.970092773437500000e+01 1.715278816223144531e+01 5.896677728742361069e-03 1.066132068634033203e+01 3.200165271759033203e+00 1.867683418095111847e-02
9.270000000000000000e+02 7.040344238281250000e+01 1.644137954711914062e+01 3.944753482937812805e-02 1.033603763580322266e+01 3.112645387649536133e+00 8.116688579320907593e-02
9.280000000000000000e+02 6.969908905029296875e+01 1.634580612182617188e+01 8.009090088307857513e-03 1.073251438140869141e+01 3.222157001495361328e+00 3.500801324844360352e-02
9.290000000000000000e+02 6.969410705566406250e+01 1.553795623779296875e+01 1.779185421764850616e-02 1.083941841125488281e+01 3.257163047790527344e+00 6.597420573234558105e-02
9.300000000000000000e+02 6.968547058105468750e+01 1.472743892669677734e+01 9.247932583093643188e-02 1.120369529724121094e+01 3.388852357864379883e+00 2.066404074430465698e-01
9.310000000000000000e+02 6.947081756591796875e+01 1.233367729187011719e+01 -2.649038434028625488e-01 8.121803283691406250e+00 2.357069730758666992e+00 4.943800270557403564e-01
9.320000000000000000e+02 7.029644012451171875e+01 1.319217491149902344e+01 -3.199454769492149353e-02 9.721629142761230469e+00 2.906890392303466797e+00 -1.384464353322982788e-01
9.330000000000000000e+02 6.944734954833984375e+01 1.154225730895996094e+01 -2.388857901096343994e-01 7.898243904113769531e+00 2.297807455062866211e+00 -3.482304140925407410e-02
9.340000000000000000e+02 6.947788238525390625e+01 1.075081157684326172e+01 -2.345079183578491211e-01 7.928679943084716797e+00 2.308251619338989258e+00 -5.389553904533386230e-01
9.350000000000000000e+02 6.982775878906250000e+01 8.373101234436035156e+00 2.382731139659881592e-01 1.113850307464599609e+01 3.413032770156860352e+00 -1.478534221649169922e+00
9.360000000000000000e+02 6.999742889404296875e+01 6.757902145385742188e+00 2.775414884090423584e-01 1.294694137573242188e+01 3.967344760894775391e+00 -4.154569506645202637e-01
9.370000000000000000e+02 7.071472930908203125e+01 3.556227445602416992e+00 1.675203740596771240e-01 1.167095947265625000e+01 3.551543951034545898e+00 2.434763461351394653e-01
9.380000000000000000e+02 7.062345123291015625e+01 1.877297043800354004e+00 7.444157600402832031e-01 1.153786945343017578e+01 3.684685707092285156e+00 7.101584672927856445e-01
9.390000000000000000e+02 7.000180053710937500e+01 2.708602666854858398e+00 1.499986797571182251e-01 1.277966690063476562e+01 3.878899574279785156e+00 2.710282504558563232e-01
9.400000000000000000e+02 6.996345520019531250e+01 1.890160918235778809e+00 3.969933986663818359e-01 1.330986976623535156e+01 4.112058639526367188e+00 8.834650516510009766e-01
9.410000000000000000e+02 6.986703491210937500e+01 1.075277090072631836e+00 5.516546964645385742e-01 1.271009540557861328e+01 3.978524923324584961e+00 1.650078296661376953e+00
9.420000000000000000e+02 6.882299041748046875e+01 -2.856234073638916016e+00 6.173060536384582520e-01 7.336117744445800781e+00 2.386027097702026367e+00 2.051049947738647461e+00
9.430000000000000000e+02 6.907527160644531250e+01 -2.085178136825561523e+00 6.094207763671875000e-01 8.034854888916015625e+00 2.593282699584960938e+00 2.187736749649047852e+00
9.440000000000000000e+02 6.855842590332031250e+01 -3.624278068542480469e+00 7.120193243026733398e-01 6.741422176361083984e+00 2.236032485961914062e+00 2.023852586746215820e+00
9.450000000000000000e+02 6.795909881591796875e+01 -5.129801750183105469e+00 7.025811672210693359e-01 5.120583057403564453e+00 1.746949315071105957e+00 1.827540397644042969e+00
9.460000000000000000e+02 6.729828643798828125e+01 -6.603303909301757812e+00 6.256835460662841797e-01 3.786391019821166992e+00 1.323622345924377441e+00 1.504856109619140625e+00
9.470000000000000000e+02 6.624902343750000000e+01 -8.793095588684082031e+00 5.897639393806457520e-01 2.531173229217529297e+00 9.362811446189880371e-01 1.155776858329772949e+00
9.480000000000000000e+02 6.586331176757812500e+01 -9.511292457580566406e+00 5.347260832786560059e-01 2.083471536636352539e+00 7.854592800140380859e-01 1.030210614204406738e+00
9.490000000000000000e+02 6.547310638427734375e+01 -1.023655509948730469e+01 5.410487055778503418e-01 1.844584345817565918e+00 7.156898975372314453e-01 9.576508998870849609e-01
9.500000000000000000e+02 6.504261016845703125e+01 -1.098984241485595703e+01 6.407634019851684570e-01 1.640669584274291992e+00 6.844298839569091797e-01 9.302752017974853516e-01
9.510000000000000000e+02 6.479034423828125000e+01 -1.233948135375976562e+01 6.459236145019531250e-01 1.475870013236999512e+00 6.365380883216857910e-01 8.309996128082275391e-01
9.520000000000000000e+02 6.446351623535156250e+01 -1.168659114837646484e+01 6.934628486633300781e-01 1.377170562744140625e+00 6.211900115013122559e-01 9.072203040122985840e-01
9.530000000000000000e+02 6.302804183959960938e+01 -1.720713996887207031e+01 3.167889118194580078e-01 9.931591749191284180e-01 3.929844200611114502e-01 7.892663478851318359e-01
9.540000000000000000e+02 6.293570709228515625e+01 -1.614046096801757812e+01 6.721910834312438965e-01 1.004866480827331543e+00 5.031172633171081543e-01 9.002022743225097656e-01
9.550000000000000000e+02 6.251052474975585938e+01 -1.682678031921386719e+01 5.290846228599548340e-01 1.005047321319580078e+00 4.602395892143249512e-01 7.632218003273010254e-01
9.560000000000000000e+02 6.205843353271484375e+01 -1.751673316955566406e+01 1.812146902084350586e-01 1.180207848548889160e+00 4.084267616271972656e-01 7.416800260543823242e-01
9.570000000000000000e+02 5.889243698120117188e+01 -2.036300086975097656e+01 -9.956895112991333008e-01 1.045787215232849121e+00 1.502931211143732071e-02 7.793334722518920898e-01
9.580000000000000000e+02 6.003470230102539062e+01 -1.911958694458007812e+01 -7.114759087562561035e-01 1.182583928108215332e+00 1.413324177265167236e-01 8.454578518867492676e-01
9.590000000000000000e+02 5.733154678344726562e+01 -2.028956604003906250e+01 -1.258857846260070801e+00 5.621704459190368652e-01 -2.090062201023101807e-01 3.963451683521270752e-01
9.600000000000000000e+02 5.917578887939453125e+01 -2.519203567504882812e+01 1.669378638267517090e+00 1.511249542236328125e+00 9.541884660720825195e-01 1.595988035202026367e+00
9.610000000000000000e+02 5.277107620239257812e+01 -2.124684715270996094e+01 -1.443624615669250488e+00 -3.139461204409599304e-02 -4.425057768821716309e-01 -4.822553098201751709e-01
9.620000000000000000e+02 5.351625061035156250e+01 -2.109716987609863281e+01 -1.493338823318481445e+00 3.603113815188407898e-02 -4.371922910213470459e-01 -4.027957916259765625e-01
9.630000000000000000e+02 5.056552124023437500e+01 -2.166677665710449219e+01 -1.194509625434875488e+00 -1.264905631542205811e-01 -3.963000476360321045e-01 -6.152626276016235352e-01
9.640000000000000000e+02 4.983338165283203125e+01 -2.180528259277343750e+01 -1.083230733871459961e+00 -1.634027361869812012e-01 -3.739900588989257812e-01 -6.269137859344482422e-01
9.650000000000000000e+02 4.910940170288085938e+01 -2.194616317749023438e+01 -9.659519791603088379e-01 -1.678177863359451294e-01 -3.401309251785278320e-01 -6.301268935203552246e-01
9.660000000000000000e+02 4.697361373901367188e+01 -2.237643241882324219e+01 -6.112763285636901855e-01 -2.163280546665191650e-01 -2.482813000679016113e-01 -5.753829479217529297e-01
9.670000000000000000e+02 4.768104934692382812e+01 -2.223379898071289062e+01 -7.293572425842285156e-01 -1.912286579608917236e-01 -2.761757671833038330e-01 -6.054638624191284180e-01
9.680000000000000000e+02 4.559326934814453125e+01 -2.272271156311035156e+01 -3.837228119373321533e-01 -2.451708614826202393e-01 -1.886681020259857178e-01 -5.057957172393798828e-01
9.690000000000000000e+02 4.420772933959960938e+01 -2.313910865783691406e+01 -1.851456463336944580e-01 -2.766462862491607666e-01 -1.385375708341598511e-01 -3.846447169780731201e-01
9.700000000000000000e+02 4.349748229980468750e+01 -2.399612617492675781e+01 -8.051259070634841919e-02 -3.921511173248291016e-01 -1.417991071939468384e-01 -3.563437461853027344e-01
9.710000000000000000e+02 7.105171203613281250e+01 -2.332317733764648438e+01 1.270674586296081543e+00 7.613499641418457031e+00 2.665252208709716797e+00 -2.767716407775878906e+00
9.720000000000000000e+02 7.147116851806640625e+01 -2.483967208862304688e+01 7.839508056640625000e-01 1.336324119567871094e+01 4.244157791137695312e+00 -1.575981259346008301e+00
9.730000000000000000e+02 7.144357299804687500e+01 -2.810149574279785156e+01 1.111740231513977051e+00 1.271256446838378906e+01 4.147291660308837891e+00 2.276522159576416016e+00
9.740000000000000000e+02 7.083892059326171875e+01 -2.966487693786621094e+01 1.562765121459960938e+00 7.685014724731445312e+00 2.774333953857421875e+00 2.992573499679565430e+00
9.750000000000000000e+02 6.871008300781250000e+01 -3.237349319458007812e+01 4.630165919661521912e-02 1.261905789375305176e+00 3.924622535705566406e-01 6.009096503257751465e-01
9.760000000000000000e+02 6.654508209228515625e+01 -3.372388076782226562e+01 -1.303288698196411133e+00 -6.798361986875534058e-02 -4.113816916942596436e-01 -4.064055383205413818e-01
9.770000000000000000e+02 6.575668334960937500e+01 -3.404654693603515625e+01 -1.525850892066955566e+00 -2.301078140735626221e-01 -5.267876386642456055e-01 -3.941875398159027100e-01
9.780000000000000000e+02 6.351274108886718750e+01 -3.455580139160156250e+01 -1.503831267356872559e+00 -1.079925298690795898e-01 -4.835471510887145996e-01 -2.979140579700469971e-01
9.790000000000000000e+02 6.182540893554687500e+01 -3.455894470214843750e+01 -1.132651925086975098e+00 -5.128664895892143250e-02 -3.551815450191497803e-01 -1.338261514902114868e-01
9.800000000000000000e+02 5.935347366333007812e+01 -3.478832626342773438e+01 -1.770000606775283813e-01 2.051847577095031738e-01 8.455408737063407898e-03 -3.375984430313110352e-01
9.810000000000000000e+02 5.644417953491210938e+01 -3.247484207153320312e+01 8.238443136215209961e-01 2.467816829681396484e+00 9.874983429908752441e-01 -9.471308588981628418e-01
9.820000000000000000e+02 5.621707916259765625e+01 -2.898447036743164062e+01 7.944256067276000977e-01 4.881559848785400391e+00 1.702795624732971191e+00 1.310091614723205566e+00
9.830000000000000000e+02 5.745458602905273438e+01 -2.689154243469238281e+01 1.666719079017639160e+00 2.784488677978515625e+00 1.335362315177917480e+00 2.043569326400756836e+00
9.840000000000000000e+02 5.345672607421875000e+01 -2.244070243835449219e+01 -7.628782391548156738e-01 2.509633898735046387e-01 -1.535744518041610718e-01 -3.179464042186737061e-01
9.850000000000000000e+02 5.978444290161132812e+01 -2.465855026245117188e+01 1.571149706840515137e+00 1.351896882057189941e+00 8.769139647483825684e-01 1.419853091239929199e+00
9.860000000000000000e+02 6.111681747436523438e+01 -2.365642166137695312e+01 5.537886619567871094e-01 6.502940058708190918e-01 3.612248003482818604e-01 7.604570984840393066e-01
9.870000000000000000e+02 6.421977996826171875e+01 -2.293161773681640625e+01 -9.459226727485656738e-01 1.855486258864402771e-02 -2.782103419303894043e-01 -2.377541661262512207e-01
9.880000000000000000e+02 6.632135772705078125e+01 -2.186856269836425781e+01 -2.590286970138549805e+00 -2.741067111492156982e-01 -8.593181371688842773e-01 -7.968722581863403320e-01
9.890000000000000000e+02 6.709827423095703125e+01 -2.151702308654785156e+01 -3.783745050430297852e+00 -4.369624257087707520e-01 -1.266212224960327148e+00 -6.147904992103576660e-01
9.900000000000000000e+02 2.185500717163085938e+01 -1.247671794891357422e+01 -9.263170795748010278e-06 -2.531412064854521304e-06 -3.538374812706024386e-06 1.912197262754489202e-07
9.910000000000000000e+02 2.208150672912597656e+01 -1.423622608184814453e+01 8.073083336057607085e-06 5.976943612040486187e-06 4.215008175378898159e-06 3.558629032340832055e-06
9.920000000000000000e+02 1.973571586608886719e+01 -1.350319862365722656e+01 -2.801545406327932142e-06 -9.705726370157208294e-06 -3.752181555682909675e-06 -6.109478363214293495e-06
9.930000000000000000e+02 2.744417762756347656e+01 -1.580227947235107422e+01 -2.580301270427298732e-06 1.716358269732154440e-06 -2.591829115772270598e-07 1.008160688797943294e-05
9.940000000000000000e+02 6.461357116699218750e+01 -1.356976413726806641e+01 6.304022073745727539e-01 1.344367265701293945e+00 5.924308300018310547e-01 8.285748958587646484e-01
9.950000000000000000e+02 6.422789764404296875e+01 -1.415509891510009766e+01 6.489616036415100098e-01 1.181555747985839844e+00 5.491551756858825684e-01 8.462758064270019531e-01
9.960000000000000000e+02 6.659661102294921875e+01 -9.766505241394042969e+00 4.304283857345581055e-01 2.731849670410156250e+00 9.486833810806274414e-01 9.681701064109802246e-01
9.970000000000000000e+02 9.628253936767578125e+00 -2.733950853347778320e+00 8.191592314688023180e-06 5.601937118626665324e-06 4.138058557145996019e-06 4.323428584029898047e-06
9.980000000000000000e+02 1.024666213989257812e+01 -2.897650003433227539e+00 -7.764739166304934770e-06 -5.936271008977200836e-06 -4.110303052584640682e-06 -4.118984179513063282e-06
9.990000000000000000e+02 1.145375442504882812e+01 -3.331711769104003906e+00 -7.519637165387393907e-06 -6.269591722229961306e-06 -4.136768893658882007e-06 -4.441174951352877542e-06
1.000000000000000000e+03 4.321189498901367188e+01 -1.961684417724609375e+01 -2.519043391657760367e-07 3.677795575640629977e-06 1.027767325467721093e-06 1.036331354953290429e-06
1.001000000000000000e+03 3.946218490600585938e+01 -1.808037757873535156e+01 -1.284391055378364399e-05 -3.500954335322603583e-06 -4.903459284832933918e-06 -2.701815901673398912e-06
1.002000000000000000e+03 4.182253646850585938e+01 -2.002593803405761719e+01 9.966913694370305166e-07 1.500236407991906162e-06 7.490783104913134594e-07 -2.575829967099707574e-07
1.003000000000000000e+03 4.235010910034179688e+01 -1.844621086120605469e+01 -6.918124654475832358e-06 -5.729962140321731567e-06 -3.794425992964534089e-06 -2.061561190203065053e-06
1.004000000000000000e+03 3.891123962402343750e+01 -1.873524665832519531e+01 -6.396598109859041870e-06 -1.237252035934943706e-06 -2.290154952788725495e-06 4.878911113337380812e-06
1.005000000000000000e+03 1.633293533325195312e+01 -5.620292186737060547e+00 6.569886409124592319e-06 6.145284714875742793e-06 3.814551519099040888e-06 3.611628244470921345e-06
1.006000000000000000e+03 1.578770351409912109e+01 -5.197319984436035156e+00 -6.224076969374436885e-06 -6.372082680172752589e-06 -3.778847940338891931e-06 -3.763587983485194854e-06
1.007000000000000000e+03 1.410298252105712891e+01 -3.994924783706665039e+00 6.008679065416799858e-06 6.825725449743913487e-06 3.850321263598743826e-06 3.716665787578676827e-06
1.008000000000000000e+03 1.435612678527832031e+01 -4.926632404327392578e+00 7.692658982705324888e-06 6.285886684054275975e-06 4.193563654553145170e-06 3.582265435397857800e-06
1.009000000000000000e+03 1.918419647216796875e+01 -9.452217102050781250e+00 1.100148983823601156e-05 2.526349135223426856e-06 4.058351805724669248e-06 3.339835075166774914e-06
1.010000000000000000e+03 1.832762908935546875e+01 -7.520653724670410156e+00 9.310980203736107796e-06 4.111268026463221759e-06 4.026674560009269044e-06 3.656432227217010222e-06
1.011000000000000000e+03 1.322648143768310547e+01 -4.215322494506835938e+00 7.395410648314282298e-06 6.377807949320413172e-06 4.131965397391468287e-06 3.637228928710101172e-06
1.012000000000000000e+03 1.289994430541992188e+01 -3.310101747512817383e+00 5.651071205647895113e-06 6.925172328919870779e-06 3.772873014895594679e-06 3.621159521571826190e-06
1.013000000000000000e+03 1.264109897613525391e+01 -3.893147230148315430e+00 -7.169892342062667012e-06 -6.377589670591987669e-06 -4.064244421897456050e-06 -3.777427764362073503e-06
1.014000000000000000e+03 1.204838752746582031e+01 -3.596201181411743164e+00 7.361234565905760974e-06 6.334845238598063588e-06 4.108823759452207014e-06 4.038884526380570605e-06
1.015000000000000000e+03 1.349666786193847656e+01 -5.115512847900390625e+00 9.588154171069618315e-06 5.678165052813710645e-06 4.579895630740793422e-06 3.480535497146775015e-06
1.016000000000000000e+03 1.798335838317871094e+01 -1.272185325622558594e+01 -4.988272394257364795e-06 7.181220553320599720e-06 6.578845272997568827e-07 5.904028057557297871e-06
1.017000000000000000e+03 1.922402763366699219e+01 -8.557098388671875000e+00 1.041677478497149423e-05 3.142028390357154422e-06 4.067640929861227050e-06 4.028194780403282493e-06
1.018000000000000000e+03 1.883915901184082031e+01 -1.343026065826416016e+01 -7.199785159173188731e-07 1.682038782746531069e-05 4.830122634302824736e-06 6.002045211062068120e-06
1.019000000000000000e+03 1.965356445312500000e+01 -9.094252586364746094e+00 -1.059342775988625363e-05 -2.869283207473927177e-06 -4.038813131046481431e-06 -4.292750872991746292e-06
1.020000000000000000e+03 1.833819389343261719e+01 -8.467501640319824219e+00 1.167093432741239667e-05 3.298914180049905553e-06 4.490954324865015224e-06 3.233483994335983880e-06
1.021000000000000000e+03 1.797380638122558594e+01 -1.339882183074951172e+01 2.720055817917454988e-06 -2.319385384907945991e-05 -6.142139682197012007e-06 -2.268175876452005468e-06
1.022000000000000000e+03 2.063969230651855469e+01 -1.157266807556152344e+01 1.111197161662857980e-05 2.813780611177207902e-06 4.177725713816471398e-06 4.429239652381511405e-06
1.023000000000000000e+03 1.905849456787109375e+01 -1.029669380187988281e+01 9.713681720313616097e-06 3.321754093121853657e-06 3.910630766768008471e-06 1.141739176091505215e-06
1.024000000000000000e+03 2.064891815185546875e+01 -1.370440769195556641e+01 3.656642093119444326e-06 5.379204594646580517e-06 2.710753960855072364e-06 5.559317287406884134e-06
1.025000000000000000e+03 1.871130561828613281e+01 -9.812086105346679688e+00 -1.047277146426495165e-05 -3.400265995878726244e-06 -4.161910965194692835e-06 -4.008168616564944386e-06
1.026000000000000000e+03 4.569999313354492188e+01 -2.333928108215332031e+01 -2.955233752727508545e-01 -2.861579060554504395e-01 -1.745043843984603882e-01 -5.729621648788452148e-01
1.027000000000000000e+03 4.342370605468750000e+01 -2.335877609252929688e+01 -1.045374497771263123e-01 -2.725198268890380859e-01 -1.131171807646751404e-01 -3.054871857166290283e-01
1.028000000000000000e+03 4.431710433959960938e+01 -2.384280967712402344e+01 -1.327139735221862793e-01 -3.678477108478546143e-01 -1.501685082912445068e-01 -4.639306962490081787e-01
1.029000000000000000e+03 4.702682495117187500e+01 -2.305780601501464844e+01 -4.552684724330902100e-01 -2.427385151386260986e-01 -2.094020992517471313e-01 -6.409357786178588867e-01
1.030000000000000000e+03 4.272334671020507812e+01 -2.397805404663085938e+01 -3.688907623291015625e-02 -3.624266684055328369e-01 -1.197947189211845398e-01 -2.238453328609466553e-01
1.031000000000000000e+03 4.222864151000976562e+01 -2.660708999633789062e+01 1.757631637156009674e-02 -1.068316936492919922e+00 -3.152221739292144775e-01 -1.510953158140182495e-01
1.032000000000000000e+03 4.771733474731445312e+01 -2.291232872009277344e+01 -5.321132540702819824e-01 -2.379910349845886230e-01 -2.310312837362289429e-01 -6.619648337364196777e-01
1.033000000000000000e+03 4.985616302490234375e+01 -2.312456512451171875e+01 -5.439463257789611816e-01 -1.407992243766784668e-01 -2.054236680269241333e-01 -6.739954352378845215e-01
1.034000000000000000e+03 4.912572860717773438e+01 -2.261149406433105469e+01 -7.071207761764526367e-01 -1.894414871931076050e-01 -2.689686715602874756e-01 -6.731871366500854492e-01
1.035000000000000000e+03 5.129807281494140625e+01 -2.152959060668945312e+01 -1.292308807373046875e+00 -1.128255724906921387e-01 -4.215403199195861816e-01 -5.874745249748229980e-01
1.036000000000000000e+03 5.483474349975585938e+01 -1.690644645690917969e+01 1.317865553573938087e-05 1.799212782316317316e-06 4.493360393098555505e-06 8.936211202126287390e-07
1.037000000000000000e+03 5.345990753173828125e+01 -1.732341957092285156e+01 3.841975285467924550e-06 2.527004653529729694e-06 1.910693981699296273e-06 -1.433932652616931591e-06
1.038000000000000000e+03 5.367174911499023438e+01 -1.640412521362304688e+01 9.106061042984947562e-06 1.529213136564067099e-06 3.190582219758653082e-06 -8.204774530895520002e-07
1.039000000000000000e+03 2.689982032775878906e+01 -1.302192592620849609e+01 -6.386175300576724112e-06 -1.549815351609140635e-05 -6.565298463101498783e-06 2.005875103350263089e-06
1.040000000000000000e+03 2.625129699707031250e+01 -1.175678825378417969e+01 -5.458870418806327507e-06 -1.507445904280757532e-05 -6.159998974908376113e-06 3.364587655596551485e-06
1.041000000000000000e+03 2.723612594604492188e+01 -1.357664871215820312e+01 -5.384221367421559989e-06 1.245925523107871413e-05 2.122510068147676066e-06 1.483989035477861762e-05
1.042000000000000000e+03 2.759715080261230469e+01 -1.401999664306640625e+01 -1.264484671992249787e-05 -1.699531276244670153e-05 -8.892047844710759819e-06 5.271674581308616325e-07
1.043000000000000000e+03 2.592012214660644531e+01 -1.109577178955078125e+01 -6.124965693743433803e-06 6.619378382310969755e-06 1.483239060462437919e-07 1.094764229492284358e-05
1.044000000000000000e+03 2.918280982971191406e+01 -1.653764152526855469e+01 -4.026969236292643473e-06 4.464206995180575177e-06 1.311713759832855430e-07 8.613042155047878623e-06
1.045000000000000000e+03 5.201336288452148438e+01 -2.207411384582519531e+01 -1.001061201095581055e+00 -2.031269483268260956e-02 -3.064121603965759277e-01 -5.357494950294494629e-01
1.046000000000000000e+03 4.984000396728515625e+01 -2.247275924682617188e+01 -7.920860052108764648e-01 -1.441596150398254395e-01 -2.808736860752105713e-01 -6.631001830101013184e-01
1.047000000000000000e+03 5.056203460693359375e+01 -2.233985710144042969e+01 -8.703247308731079102e-01 -1.218528077006340027e-01 -2.976532578468322754e-01 -6.368380188941955566e-01
1.048000000000000000e+03 5.107597732543945312e+01 -1.714560890197753906e+01 4.517389697866747156e-06 -1.161443776709347731e-07 1.320373598900914658e-06 -7.774904702273488510e-07
1.049000000000000000e+03 5.037038803100585938e+01 -1.727867126464843750e+01 -5.311994300427613780e-06 -6.570575692421698477e-07 -1.790715487004490569e-06 -1.004513705993304029e-06
1.050000000000000000e+03 5.307484817504882812e+01 -1.663567543029785156e+01 -6.064759418222820386e-06 -2.359025529585778713e-06 -2.527135620766784996e-06 1.276595980925776530e-06
1.051000000000000000e+03 5.243839645385742188e+01 -1.683299255371093750e+01 4.797313067683717236e-06 1.307035745412576944e-06 1.831304643928888254e-06 -1.370358177155139856e-06
1.052000000000000000e+03 4.965809631347656250e+01 -1.741215896606445312e+01 4.808873654837952927e-06 -6.240468337637139484e-07 1.255448069059639238e-06 5.199249244469683617e-07
1.053000000000000000e+03 5.501404190063476562e+01 -2.079483604431152344e+01 -1.488240718841552734e+00 1.779389828443527222e-01 -3.930905461311340332e-01 -1.423541158437728882e-01
1.054000000000000000e+03 5.426299667358398438e+01 -2.094670867919921875e+01 -1.496954679489135742e+00 7.673826813697814941e-02 -4.260649085044860840e-01 -2.895855307579040527e-01
1.055000000000000000e+03 5.696513366699218750e+01 -2.754084968566894531e+01 1.480574965476989746e+00 3.314151048660278320e+00 1.438417792320251465e+00 2.030898571014404297e+00
1.056000000000000000e+03 5.274663925170898438e+01 -2.192647933959960938e+01 -1.057878732681274414e+00 6.039848923683166504e-02 -2.992440760135650635e-01 -4.570752084255218506e-01
1.057000000000000000e+03 4.748030853271484375e+01 -1.786404418945312500e+01 -4.474182333069620654e-06 -2.659791789483278990e-06 -2.140192236765869893e-06 -4.853508016822161153e-06
1.058000000000000000e+03 4.893888473510742188e+01 -1.755153465270996094e+01 -5.532806426344905049e-06 -1.052715788318892010e-06 -1.975656687136506662e-06 -3.413510739846969955e-06
1.059000000000000000e+03 4.821117019653320312e+01 -1.770139122009277344e+01 3.371070533830788918e-06 7.032821827124280389e-07 1.222305741066520568e-06 1.955562993316561915e-06
1.060000000000000000e+03 4.675529861450195312e+01 -1.803834342956542969e+01 1.138841412284818944e-06 2.878383384086191654e-06 1.205167450279986952e-06 2.322190994163975120e-06
1.061000000000000000e+03 4.087315750122070312e+01 -1.944990348815917969e+01 6.503969984805735294e-07 3.375469987076940015e-06 1.207760078614228405e-06 7.136642832250572610e-09
1.062000000000000000e+03 3.558557510375976562e+01 -1.816345024108886719e+01 -1.643575342313852161e-05 6.830862730566877872e-06 -2.881467480619903654e-06 4.891401772511017043e-07
1.063000000000000000e+03 2.985653305053710938e+01 -1.676376533508300781e+01 -1.421008801116840914e-05 -6.450396995205665007e-06 -6.198145456437487155e-06 1.316516090810182504e-06
1.064000000000000000e+03 4.009896087646484375e+01 -1.980644416809082031e+01 -1.987661562452558428e-06 -8.181502266779716592e-07 -8.417435424235009123e-07 3.149850726913427934e-06
1.065000000000000000e+03 4.082454299926757812e+01 -1.861261749267578125e+01 -1.088466342480387539e-05 -6.380143531714566052e-06 -5.179442268854472786e-06 -4.825426458410220221e-07
1.066000000000000000e+03 3.329675674438476562e+01 -1.810053443908691406e+01 -1.481798972235992551e-05 -5.496133780980017036e-06 -6.094237051001982763e-06 1.337611905682933866e-07
1.067000000000000000e+03 3.268775558471679688e+01 -1.736085891723632812e+01 -1.443621022190200165e-05 -5.475833404489094391e-06 -5.973613042442593724e-06 8.332203833560924977e-07
1.068000000000000000e+03 3.405792617797851562e+01 -1.812610435485839844e+01 -1.483955475123366341e-05 6.161767942103324458e-06 -2.603336042739101686e-06 9.076596256818447728e-07
1.069000000000000000e+03 3.030953407287597656e+01 -1.761562919616699219e+01 -1.284945756196975708e-05 -6.087966539780609310e-06 -5.681226866727229208e-06 1.523611558695847634e-06
1.070000000000000000e+03 3.077735519409179688e+01 -1.631170082092285156e+01 -1.457951566408155486e-05 -6.006621333654038608e-06 -6.175841008371207863e-06 1.130724854192521889e-06
1.071000000000000000e+03 2.816581726074218750e+01 -1.677102851867675781e+01 -5.648522801493527368e-06 3.943697720387717709e-06 -5.114474106449051760e-07 8.749600965529680252e-06
1.072000000000000000e+03 3.486668014526367188e+01 -1.753316497802734375e+01 -1.250475997949251905e-05 6.558320365002145991e-06 -1.783931793397641741e-06 1.035812829286442138e-06
1.073000000000000000e+03 3.559359359741210938e+01 -1.756627655029296875e+01 -1.677184263826347888e-05 -6.649173883488401771e-06 -7.026304956525564194e-06 8.095023531495826319e-07
1.074000000000000000e+03 3.630856323242187500e+01 -1.758903121948242188e+01 -1.255954157386440784e-05 5.726280051021603867e-06 -2.049978547802311368e-06 4.282663610410963884e-07
1.075000000000000000e+03 3.125445175170898438e+01 -1.712594604492187500e+01 -1.394955143041443080e-05 -5.536559456231771037e-06 -5.845833584317006171e-06 1.000023075903300196e-06
1.076000000000000000e+03 4.445483398437500000e+01 -1.798349189758300781e+01 -5.449348350339278113e-07 6.185973688843660057e-06 1.692311684564629104e-06 1.534216266918519977e-06
1.077000000000000000e+03 4.457444000244140625e+01 -1.861046791076660156e+01 -4.201358024147339165e-06 -4.288878699298948050e-06 -2.547071062508621253e-06 -3.395797193661564961e-06
1.078000000000000000e+03 4.395490646362304688e+01 -1.941809654235839844e+01 -4.244791853125207126e-06 -3.095118245255434886e-06 -2.201973074988927692e-06 -1.894818979053525254e-06
1.079000000000000000e+03 4.385232925415039062e+01 -1.879875755310058594e+01 -8.085330591711681336e-07 5.246632099442649633e-06 1.331429643869341817e-06 1.198333052343514282e-06
1.080000000000000000e+03 5.368370819091796875e+01 -3.041306877136230469e+01 9.241725802421569824e-01 1.878008484840393066e+00 8.406543135643005371e-01 3.051913082599639893e-01
1.081000000000000000e+03 5.705682373046875000e+01 -3.308511352539062500e+01 5.813412666320800781e-01 1.298040151596069336e+00 5.638144612312316895e-01 -9.110523462295532227e-01
1.082000000000000000e+03 6.146546936035156250e+01 -1.812252426147460938e+01 -1.035409122705459595e-01 1.243741631507873535e+00 3.420602083206176758e-01 7.455673217773437500e-01
1.083000000000000000e+03 6.070211029052734375e+01 -2.062207412719726562e+01 -8.363319635391235352e-01 1.265304327011108398e+00 1.286917179822921753e-01 9.551373720169067383e-01
1.084000000000000000e+03 6.272828674316406250e+01 -2.317501831054687500e+01 -6.970305442810058594e-01 8.278137445449829102e-02 -1.842747479677200317e-01 1.700081229209899902e-01
1.085000000000000000e+03 8.718875885009765625e+00 3.455120325088500977e+00 5.358816997613757849e-05 1.020926538330968469e-05 1.913923006213735789e-05 -4.491043000598438084e-05
1.086000000000000000e+03 8.119196891784667969e+00 2.625394105911254883e+00 5.264994615572504699e-05 3.521013695717556402e-06 1.685128881945274770e-05 -3.721371467690914869e-05
1.087000000000000000e+03 1.139386892318725586e+00 7.425975799560546875e+00 -1.331086423306260258e-05 3.681799353216774762e-05 7.052138244034722447e-06 -1.283912752114702016e-05
1.088000000000000000e+03 5.102765560150146484e+00 1.857835054397583008e+00 1.527343556517735124e-05 1.309949948335997760e-05 8.511879968864377588e-06 -1.589986277394928038e-05
1.089000000000000000e+03 8.921552658081054688e+00 2.687129497528076172e+00 5.694054198102094233e-05 3.382733120815828443e-05 2.723036232055164874e-05 -5.349453567760065198e-05
1.090000000000000000e+03 7.463137626647949219e+00 1.866075515747070312e+00 4.751246160594746470e-05 -4.397766133479308337e-06 1.293440891458885744e-05 -2.546459472796414047e-05
1.091000000000000000e+03 6.562699794769287109e+00 2.571221828460693359e+00 4.058866034029051661e-05 5.722239961869490799e-07 1.234826504514785483e-05 -2.720292650337796658e-05
1.092000000000000000e+03 7.959331989288330078e+00 3.349175453186035156e+00 4.574850390781648457e-05 3.212517549400217831e-05 2.336210309294983745e-05 -5.280706318444572389e-05
1.093000000000000000e+03 1.114950060844421387e+00 4.230682373046875000e+00 -7.036499027890386060e-06 8.601676199759822339e-06 4.695533277754293522e-07 -4.416380306793143973e-06
1.094000000000000000e+03 4.195294857025146484e+00 3.317195177078247070e+00 2.327209585928358138e-05 9.028288332046940923e-06 9.690114893601275980e-06 -1.838559728639665991e-05
1.095000000000000000e+03 2.743245124816894531e+00 1.870497345924377441e+00 9.268234862247481942e-06 8.081890996436413843e-07 3.022927330675884150e-06 -3.693585313158109784e-06
1.096000000000000000e+03 3.788298368453979492e-01 2.688937187194824219e+00 6.623798981308937073e-06 -3.490030167085933499e-06 9.401306897416361608e-07 -3.796039038661547238e-07
1.097000000000000000e+03 2.557221031188964844e+01 -1.042502498626708984e+01 -2.780711838568095118e-06 -1.571350730955600739e-05 -5.548266017285641283e-06 4.293511665309779346e-06
1.098000000000000000e+03 2.479407119750976562e+01 -9.054565429687500000e+00 2.471914285706588998e-06 -1.792588045645970851e-05 -4.636189714801730588e-06 4.898002316622296348e-06
1.099000000000000000e+03 2.437541770935058594e+01 -8.369216918945312500e+00 -1.286254018850740977e-06 2.647105930009274743e-06 4.082555165041412693e-07 3.751438953258912079e-06
1.100000000000000000e+03 2.393420982360839844e+01 -7.688722610473632812e+00 9.880927791527938098e-06 -1.919837814057245851e-05 -2.795235104713356122e-06 4.601661657943623140e-06
1.101000000000000000e+03 7.111064147949218750e+01 -2.152012634277343750e+01 -1.451108932495117188e+00 5.811449050903320312e+00 1.308102011680603027e+00 -1.054378271102905273e+00
1.102000000000000000e+03 6.894419097900390625e+01 -2.091927146911621094e+01 -2.021880149841308594e+00 7.404823899269104004e-01 -3.844193220138549805e-01 -1.061717271804809570e+00
1.103000000000000000e+03 6.438551330566406250e+01 -1.890985107421875000e+01 -4.030589163303375244e-01 7.585736513137817383e-01 1.066544279456138611e-01 7.422311305999755859e-01
1.104000000000000000e+03 6.190288543701171875e+01 -2.328854179382324219e+01 -5.585254356265068054e-02 4.842474758625030518e-01 1.285184770822525024e-01 4.631361067295074463e-01
1.105000000000000000e+03 5.797651290893554688e+01 -3.690254974365234375e+01 -8.777523040771484375e-02 7.763885259628295898e-01 2.065839916467666626e-01 -5.529076457023620605e-01
1.106000000000000000e+03 2.297420501708984375e+01 -6.358273029327392578e+00 2.033122109423857182e-05 -2.096490970870945603e-05 -1.901067889775731601e-07 4.204383003525435925e-06
1.107000000000000000e+03 2.138306999206542969e+01 -4.475241184234619141e+00 3.318175367894582450e-05 -3.955255124310497195e-06 8.767950021137949079e-06 -1.519825855211820453e-05
1.108000000000000000e+03 2.250378036499023438e+01 -6.848839282989501953e+00 4.922586867905920371e-06 -4.804501259059179574e-06 3.542562510006064258e-08 -2.452050694046192802e-06
1.109000000000000000e+03 2.246696281433105469e+01 -5.716138839721679688e+00 1.751034324115607888e-05 -1.707650312710029539e-06 4.740807980851968750e-06 -7.994045517989434302e-06
1.110000000000000000e+03 2.346543121337890625e+01 -7.016351222991943359e+00 6.561512236658018082e-06 5.035693106947292108e-07 2.119524424415430985e-06 -2.034349336099694483e-06
1.111000000000000000e+03 5.762502670288085938e+01 -3.379910659790039062e+01 4.340559542179107666e-01 1.021920323371887207e+00 4.367928802967071533e-01 -6.643062233924865723e-01
1.112000000000000000e+03 5.792447662353515625e+01 -3.565602874755859375e+01 -1.197652965784072876e-01 9.167935848236083984e-01 2.391085028648376465e-01 -5.612353086471557617e-01
1.113000000000000000e+03 5.402503585815429688e+01 3.411050415039062500e+01 -1.016505062580108643e-02 1.350723300129175186e-02 1.002654782496392727e-03 -5.889303516596555710e-03
1.114000000000000000e+03 5.199043655395507812e+01 3.395793914794921875e+01 -1.340804249048233032e-02 6.280484143644571304e-03 -2.138267504051327705e-03 8.059440180659294128e-03
1.115000000000000000e+03 5.792176818847656250e+01 -2.111977386474609375e+01 -9.253718852996826172e-01 9.791517257690429688e-01 1.613395474851131439e-02 6.942397952079772949e-01
1.116000000000000000e+03 7.185941314697265625e+01 -2.910652160644531250e+01 9.830515980720520020e-01 9.700768470764160156e+00 3.205145835876464844e+00 1.252681016921997070e+00
1.117000000000000000e+03 7.118526458740234375e+01 -2.890130233764648438e+01 1.339341998100280762e+00 1.020948505401611328e+01 3.464648008346557617e+00 2.994212627410888672e+00
1.118000000000000000e+03 7.892955780029296875e+01 -2.356296157836914062e+01 3.054955974221229553e-02 8.277237892150878906e+00 2.492336273193359375e+00 3.392457067966461182e-01
1.119000000000000000e+03 7.208599853515625000e+01 -2.477407264709472656e+01 1.374107241630554199e+00 1.091604137420654297e+01 3.687044858932495117e+00 -9.506605267524719238e-01
1.120000000000000000e+03 5.670755767822265625e+01 -3.555033493041992188e+01 -1.437882781028747559e-01 1.305903434753417969e+00 3.486345708370208740e-01 -4.454103112220764160e-01
1.121000000000000000e+03 1.666759490966796875e+01 3.280950486660003662e-01 8.367769623873755336e-05 -4.032515334984054789e-06 2.389355358900502324e-05 -1.638560024730395526e-05
1.122000000000000000e+03 1.239300251007080078e+01 1.020442485809326172e+00 1.005929443635977805e-04 1.211742619489086792e-05 3.381311034900136292e-05 -4.832112244912423193e-05
1.123000000000000000e+03 1.462049484252929688e+01 -7.477372139692306519e-02 8.758232434047386050e-05 2.257675077999010682e-05 3.304772326373495162e-05 -2.658798803167883307e-05
1.124000000000000000e+03 1.531993007659912109e+01 -4.704100489616394043e-01 9.297554788645356894e-05 3.995251063315663487e-06 2.909123941208235919e-05 -4.379478559712879360e-05
1.125000000000000000e+03 5.474655914306640625e+01 3.452361679077148438e+01 -4.833638295531272888e-02 -1.608779467642307281e-02 -1.932725496590137482e-02 1.400194037705659866e-02
1.126000000000000000e+03 5.263876724243164062e+01 3.469813919067382812e+01 -2.032047137618064880e-02 7.559058722108602524e-03 -3.828423796221613884e-03 3.406527685001492500e-03
1.127000000000000000e+03 5.503015899658203125e+01 -3.202362442016601562e+01 8.195002079010009766e-01 2.314477205276489258e+00 9.401932358741760254e-01 7.156050950288772583e-02
1.128000000000000000e+03 5.632520294189453125e+01 -3.372023773193359375e+01 1.890096664428710938e-01 2.017479181289672852e+00 6.619466543197631836e-01 -6.686955094337463379e-01
1.129000000000000000e+03 6.954182434082031250e+01 -2.196820259094238281e+01 -1.220017433166503906e+00 7.407809495925903320e-01 -1.437709331512451172e-01 -2.703411579132080078e-01
1.130000000000000000e+03 6.585136413574218750e+01 -3.528278732299804688e+01 -4.659910202026367188e-01 1.801241487264633179e-01 -8.576006442308425903e-02 6.725421547889709473e-02
1.131000000000000000e+03 6.838717651367187500e+01 -3.380627441406250000e+01 -4.832950830459594727e-01 1.512680888175964355e+00 3.088157474994659424e-01 6.483834385871887207e-01
1.132000000000000000e+03 6.049954605102539062e+01 -2.302991867065429688e+01 -3.577310591936111450e-03 1.194584369659423828e+00 3.573020994663238525e-01 9.738879203796386719e-01
1.133000000000000000e+03 5.799190139770507812e+01 -2.628210067749023438e+01 1.893227815628051758e+00 2.374393701553344727e+00 1.280286431312561035e+00 1.988604784011840820e+00
1.134000000000000000e+03 5.493567657470703125e+01 -3.013164329528808594e+01 8.527661561965942383e-01 3.006504774093627930e+00 1.157781243324279785e+00 2.590861320495605469e-01
1.135000000000000000e+03 5.545665740966796875e+01 -3.124004554748535156e+01 7.376723289489746094e-01 3.657698392868041992e+00 1.318611145019531250e+00 -2.414717376232147217e-01
1.136000000000000000e+03 7.040413665771484375e+01 -2.139010620117187500e+01 -1.662980318069458008e+00 4.470504283905029297e+00 8.422571420669555664e-01 -1.496917366981506348e+00
1.137000000000000000e+03 6.991893768310546875e+01 -3.110197448730468750e+01 8.675925731658935547e-01 3.344606637954711914e+00 1.263659834861755371e+00 1.755968809127807617e+00
1.138000000000000000e+03 5.525858306884765625e+01 -2.942016792297363281e+01 9.016252160072326660e-01 3.366549015045166016e+00 1.280452251434326172e+00 6.088194847106933594e-01
1.139000000000000000e+03 7.110510253906250000e+01 -3.076882934570312500e+01 2.656393647193908691e-01 6.711039543151855469e+00 2.093003511428833008e+00 1.480135560035705566e+00
1.140000000000000000e+03 5.989595031738281250e+01 -2.365056991577148438e+01 4.847516417503356934e-01 1.308570384979248047e+00 5.379965901374816895e-01 1.042424678802490234e+00
1.141000000000000000e+03 5.869092559814453125e+01 -2.477814674377441406e+01 1.195378780364990234e+00 1.625656127929687500e+00 8.463104963302612305e-01 1.393720746040344238e+00
1.142000000000000000e+03 6.728928375244140625e+01 -3.331245040893554688e+01 -9.467359185218811035e-01 1.335586309432983398e-01 -2.439531832933425903e-01 -1.881999820470809937e-01
1.143000000000000000e+03 7.150439453125000000e+01 -2.994063949584960938e+01 6.820393204689025879e-01 8.115072250366210938e+00 2.639133453369140625e+00 1.476834774017333984e+00
1.144000000000000000e+03 6.686733245849609375e+01 -3.476335144042968750e+01 -4.947926700115203857e-01 5.600662231445312500e-01 1.958207413554191589e-02 2.323745787143707275e-01
1.145000000000000000e+03 5.638695526123046875e+01 -2.717115402221679688e+01 1.180621266365051270e+00 2.905992507934570312e+00 1.225984215736389160e+00 1.362194418907165527e+00
1.146000000000000000e+03 5.646682357788085938e+01 -2.497719192504882812e+01 5.813000202178955078e-01 1.687047243118286133e+00 6.805042028427124023e-01 7.480975985527038574e-01
1.147000000000000000e+03 5.814946746826171875e+01 -2.264898109436035156e+01 -3.310925364494323730e-01 1.348714351654052734e+00 3.052865564823150635e-01 8.476046323776245117e-01
1.148000000000000000e+03 7.227655029296875000e+01 -2.728473281860351562e+01 1.216455101966857910e+00 1.110899829864501953e+01 3.697635889053344727e+00 7.495421171188354492e-01
1.149000000000000000e+03 5.808745574951171875e+01 -2.531698036193847656e+01 1.272868394851684570e+00 1.924330830574035645e+00 9.591597914695739746e-01 1.434404611587524414e+00
1.150000000000000000e+03 5.273487091064453125e+01 -2.260428047180175781e+01 -7.204080820083618164e-01 1.381710916757583618e-01 -1.746710985898971558e-01 -4.281290769577026367e-01
1.151000000000000000e+03 6.111181259155273438e+01 -3.460621643066406250e+01 -7.997716665267944336e-01 5.900741741061210632e-02 -2.222292721271514893e-01 -1.618693172931671143e-01
1.152000000000000000e+03 5.675622940063476562e+01 -3.449023818969726562e+01 7.163310796022415161e-02 1.454634547233581543e+00 4.578803181648254395e-01 -5.653853416442871094e-01
1.153000000000000000e+03 6.478628540039062500e+01 -3.507461166381835938e+01 -7.869272232055664062e-01 -2.110150270164012909e-02 -2.424086183309555054e-01 -2.200476229190826416e-01
1.154000000000000000e+03 6.166224288940429688e+01 -3.532470703125000000e+01 -6.321494579315185547e-01 -2.471113577485084534e-02 -1.970581710338592529e-01 -3.658793866634368896e-01
1.155000000000000000e+03 6.560600280761718750e+01 -2.223411369323730469e+01 -1.893491625785827637e+00 -2.327474951744079590e-01 -6.378717422485351562e-01 -6.256167888641357422e-01
1.156000000000000000e+03 6.461752319335937500e+01 -2.191412925720214844e+01 -1.431816935539245605e+00 2.780326604843139648e-01 -3.461352884769439697e-01 -1.470774319022893906e-02
1.157000000000000000e+03 6.133467864990234375e+01 -1.912757492065429688e+01 -5.724369883537292480e-01 1.262722492218017578e+00 2.070856690406799316e-01 8.348829746246337891e-01
1.158000000000000000e+03 6.594461822509765625e+01 -2.112858581542968750e+01 -2.237771749496459961e+00 1.384170800447463989e-01 -6.298064589500427246e-01 7.031318545341491699e-02
1.159000000000000000e+03 6.159228134155273438e+01 -3.841222763061523438e+01 3.824182152748107910e-01 7.660600543022155762e-02 1.377072632312774658e-01 -4.346589148044586182e-01
1.160000000000000000e+03 7.064738464355468750e+01 -3.166901969909667969e+01 -2.985557727515697479e-02 5.171656131744384766e+00 1.542540192604064941e+00 1.336065530776977539e+00
1.161000000000000000e+03 6.999947357177734375e+01 -3.253250503540039062e+01 -2.388028800487518311e-01 3.839541196823120117e+00 1.080221414566040039e+00 1.122465610504150391e+00
1.162000000000000000e+03 5.707206726074218750e+01 3.555248260498046875e+01 -2.632467746734619141e-01 -2.362665906548500061e-02 -8.606202900409698486e-02 -6.160835735499858856e-03
1.163000000000000000e+03 5.045037078857421875e+01 3.464719772338867188e+01 -7.953234016895294189e-03 5.913245957344770432e-03 -6.119963945820927620e-04 6.334745325148105621e-03
1.164000000000000000e+03 2.039324188232421875e+01 -4.419274330139160156e+00 3.097098306170664728e-05 -6.001681413181358948e-06 7.490790267183911055e-06 -1.740021616569720209e-05
1.165000000000000000e+03 1.798292732238769531e+01 -2.278754234313964844e+00 6.605748058063909411e-05 -3.328157390569685958e-06 1.881879688880871981e-05 -3.257192656747065485e-05
1.166000000000000000e+03 2.021706581115722656e+01 -3.308753728866577148e+00 5.014219641452655196e-05 -5.140165740158408880e-06 1.350060847471468151e-05 -2.176603447878733277e-05
1.167000000000000000e+03 2.061842727661132812e+01 -2.757314205169677734e+00 6.003060479997657239e-05 -2.388730536040384322e-05 1.084298946807393804e-05 8.491868470628105570e-07
1.168000000000000000e+03 2.193862152099609375e+01 -5.088218212127685547e+00 3.251789166824892163e-05 -2.046371810138225555e-05 3.616252570282085799e-06 2.665848114702384919e-06
1.169000000000000000e+03 4.189670944213867188e+01 1.098774337768554688e+01 3.613495500758290291e-04 1.731925294734537601e-04 1.603626151336356997e-04 9.750825847731903195e-05
1.170000000000000000e+03 4.202407836914062500e+01 1.015005874633789062e+01 -3.311687032692134380e-04 1.301329612033441663e-04 -6.031072553014382720e-05 -1.446405985916499048e-05
1.171000000000000000e+03 5.166484451293945312e+01 -1.173181152343750000e+01 3.475014455034397542e-05 -2.811245167322340421e-06 9.581669473845977336e-06 2.992586132677388377e-06
1.172000000000000000e+03 5.109667205810546875e+01 -1.400564670562744141e+01 1.730185249471105635e-05 -1.029937993735074997e-05 2.100741767208091915e-06 -6.883009064040379599e-06
1.173000000000000000e+03 4.341364669799804688e+01 7.997007846832275391e+00 -3.570412518456578255e-04 -6.817621033405885100e-05 -1.275652466574683785e-04 -1.136267965193837881e-04
1.174000000000000000e+03 6.164152145385742188e+01 3.749004745483398438e+01 -7.724168826825916767e-04 1.847315393388271332e-02 5.310221109539270401e-03 4.723151400685310364e-02
1.175000000000000000e+03 1.769210052490234375e+01 -1.212347149848937988e+00 8.395314944209530950e-05 -3.190295728927594610e-06 2.422885518171824515e-05 -3.382565773790702224e-05
1.176000000000000000e+03 1.834303092956542969e+01 -1.704714536666870117e+00 7.168053707573562860e-05 -7.844351785024628043e-06 1.915085522341541946e-05 -7.315538368857232854e-06
1.177000000000000000e+03 1.961252784729003906e+01 -2.753603935241699219e+00 5.994778985041193664e-05 -1.437950868421467021e-05 1.367048389511182904e-05 -2.770660330497776158e-06
1.178000000000000000e+03 5.871202468872070312e+01 3.601881027221679688e+01 -6.199598908424377441e-01 -1.452241986989974976e-01 -2.295552343130111694e-01 1.655411124229431152e-01
1.179000000000000000e+03 5.618224716186523438e+01 3.675381851196289062e+01 -1.917362809181213379e-01 1.380397379398345947e-02 -5.337969213724136353e-02 1.618400365114212036e-01
1.180000000000000000e+03 5.969469451904296875e+01 3.834258270263671875e+01 6.500298529863357544e-02 -7.794184144586324692e-03 1.716263964772224426e-02 1.924042403697967529e-01
1.181000000000000000e+03 5.366729736328125000e+01 -1.546798038482666016e+01 8.497800081386230886e-06 4.243412149662617594e-06 3.822363396466244012e-06 5.081742983747972175e-06
1.182000000000000000e+03 4.793882751464843750e+01 -4.449324131011962891e+00 8.704876381671056151e-05 6.855872015876229852e-06 2.817139102262444794e-05 4.187196100247092545e-05
1.183000000000000000e+03 4.910778427124023438e+01 -5.751919746398925781e+00 -8.141955186147242785e-05 -2.018273153225891292e-05 -3.048068538191728294e-05 -2.396617855993099511e-05
1.184000000000000000e+03 4.266804885864257812e+01 1.514162826538085938e+01 5.104318843223154545e-04 5.604586331173777580e-04 3.212671435903757811e-04 1.046429460984654725e-04
1.185000000000000000e+03 4.186718368530273438e+01 1.430588817596435547e+01 4.633115022443234921e-04 4.576792125590145588e-04 2.762972144410014153e-04 1.698348933132365346e-04
1.186000000000000000e+03 5.005547332763671875e+01 -6.406431198120117188e+00 -7.807642396073788404e-05 -1.366007836622884497e-05 -2.752094951574690640e-05 -9.480990229349117726e-06
1.187000000000000000e+03 5.099306488037109375e+01 -9.438410758972167969e+00 -4.762593744089826941e-05 -5.958344445389229804e-06 -1.607528429303783923e-05 -2.648417876116582192e-06
1.188000000000000000e+03 4.719845962524414062e+01 -7.301523685455322266e-01 1.380088215228170156e-04 1.781308856152463704e-05 4.674657247960567474e-05 7.039730553515255451e-05
1.189000000000000000e+03 5.078065109252929688e+01 3.159045982360839844e+01 6.254056002944707870e-03 5.986682139337062836e-03 3.672221442684531212e-03 9.696392342448234558e-03
1.190000000000000000e+03 4.768198776245117188e+01 2.983699607849121094e+01 6.900267675518989563e-03 3.940518014132976532e-03 3.252235706895589828e-03 2.369352616369724274e-03
1.191000000000000000e+03 4.388743209838867188e+01 2.507549285888671875e+01 3.344901604577898979e-03 1.577382441610097885e-03 1.476685283705592155e-03 1.614320208318531513e-03
1.192000000000000000e+03 4.369188690185546875e+01 1.988805961608886719e+01 9.475840488448739052e-04 1.561508048325777054e-03 7.527276175096631050e-04 4.769887309521436691e-04
1.193000000000000000e+03 4.231004714965820312e+01 1.760695457458496094e+01 7.382703479379415512e-04 8.972671348601579666e-04 4.906612448394298553e-04 3.857838164549320936e-04
1.194000000000000000e+03 4.577396392822265625e+01 2.038277387619018555e+00 1.704608439467847347e-04 3.284641206846572459e-05 6.099218080635182559e-05 1.028131155180744827e-04
1.195000000000000000e+03 4.650584793090820312e+01 6.492409110069274902e-01 1.497368648415431380e-04 2.290407610416878015e-05 5.179228173801675439e-05 8.596995758125558496e-05
1.196000000000000000e+03 5.138152694702148438e+01 3.331747817993164062e+01 4.319414962083101273e-03 5.152062978595495224e-03 2.841443289071321487e-03 2.917654113844037056e-03
1.197000000000000000e+03 5.011505126953125000e+01 3.221989059448242188e+01 6.003013812005519867e-03 6.877009291201829910e-03 3.864006837829947472e-03 3.310565371066331863e-03
1.198000000000000000e+03 4.934578704833984375e+01 -6.490869522094726562e+00 7.411076512653380632e-05 -3.824794930551433936e-06 2.108579064952209592e-05 2.266743285872507840e-05
1.199000000000000000e+03 4.588297271728515625e+01 2.512072753906250000e+01 1.749929797369986773e-04 3.514323616400361061e-03 1.106794923543930054e-03 2.925012027844786644e-03
1.200000000000000000e+03 4.346107482910156250e+01 6.260407447814941406e+00 2.428171574138104916e-04 2.483768730598967522e-05 8.029645687201991677e-05 1.280661672353744507e-04
1.201000000000000000e+03 5.123274993896484375e+01 -1.019932365417480469e+01 4.234925654600374401e-05 -4.654532403947087005e-06 1.130841792473802343e-05 4.377823188406182453e-06
1.202000000000000000e+03 4.396035766601562500e+01 3.804317712783813477e+00 1.658350520301610231e-04 4.410007750266231596e-05 6.298053631326183677e-05 1.088267817976884544e-04
1.203000000000000000e+03 4.470488357543945312e+01 2.472669219970703125e+01 4.376524593681097031e-04 2.379917772486805916e-03 8.452710462734103203e-04 2.310435287654399872e-03
1.204000000000000000e+03 4.685996627807617188e+01 -4.226522520184516907e-02 -1.477004116168245673e-04 -6.293797923717647791e-05 -6.319151725620031357e-05 -6.381831917678937316e-05
1.205000000000000000e+03 4.957126617431640625e+01 -4.896977424621582031e+00 -9.943206532625481486e-05 -1.844264443207066506e-05 -3.536241274559870362e-05 -1.580836396897211671e-05
1.206000000000000000e+03 4.433422851562500000e+01 2.398625183105468750e+01 2.566543174907565117e-03 2.305006375536322594e-03 1.461464795283973217e-03 1.491132075898349285e-03
1.207000000000000000e+03 4.588303756713867188e+01 2.692580032348632812e+01 4.873548168689012527e-03 3.117100568488240242e-03 2.397194737568497658e-03 2.379603451117873192e-03
1.208000000000000000e+03 4.879468536376953125e+01 -2.659053325653076172e+00 1.299090945394709706e-04 -5.791461262560915202e-06 3.723529152921400964e-05 4.244383671903051436e-05
1.209000000000000000e+03 4.836384201049804688e+01 -3.559812545776367188e+00 1.072494342224672437e-04 2.101824520650552586e-06 3.280537930550053716e-05 4.267804615665227175e-05
1.210000000000000000e+03 4.712661361694335938e+01 -2.367720127105712891e+00 -9.925376070896163583e-05 -5.354455788619816303e-05 -4.583949703373946249e-05 -4.985744453733786941e-05
1.211000000000000000e+03 4.908267211914062500e+01 2.982666397094726562e+01 8.180316537618637085e-03 7.970363833010196686e-03 4.845203831791877747e-03 4.596094600856304169e-03
1.212000000000000000e+03 5.065328598022460938e+01 -1.099977111816406250e+01 3.996580926468595862e-05 -4.440122665982926264e-06 1.065770629793405533e-05 5.102280738356057554e-06
1.213000000000000000e+03 4.215052032470703125e+01 1.679308509826660156e+01 -3.203625092282891273e-04 7.359414012171328068e-04 1.246736646862700582e-04 3.600241325329989195e-04
1.214000000000000000e+03 4.202128219604492188e+01 1.596600246429443359e+01 5.903569981455802917e-04 6.303483387455344200e-04 3.662116068881005049e-04 2.582248998805880547e-04
1.215000000000000000e+03 4.539462661743164062e+01 2.731332063674926758e+00 -1.861843775259330869e-04 -8.611217344878241420e-05 -8.168896602001041174e-05 -8.830048318486660719e-05
1.216000000000000000e+03 4.528923034667968750e+01 4.440957069396972656e+00 2.412352769169956446e-04 2.989652602991554886e-05 8.133953815558925271e-05 1.428713731002062559e-04
1.217000000000000000e+03 4.508578109741210938e+01 2.546289825439453125e+01 3.572653746232390404e-03 2.646706532686948776e-03 1.865808037109673023e-03 1.884349389001727104e-03
1.218000000000000000e+03 4.461765670776367188e+01 4.122517108917236328e+00 -2.136973198503255844e-04 -8.891433390090242028e-05 -9.078349830815568566e-05 -9.883902384899556637e-05
1.219000000000000000e+03 4.398520278930664062e+01 2.322188758850097656e+01 3.192592412233352661e-04 1.955464249476790428e-03 6.824170704931020737e-04 1.676366082392632961e-03
1.220000000000000000e+03 4.366631317138671875e+01 2.243600654602050781e+01 1.797598204575479031e-03 1.916854409500956535e-03 1.114335842430591583e-03 1.121552777476608753e-03
1.221000000000000000e+03 4.192974472045898438e+01 1.513222217559814453e+01 -3.423754242248833179e-04 5.382859380915760994e-04 5.877316289115697145e-05 2.368084387853741646e-04
1.222000000000000000e+03 4.980637359619140625e+01 -7.963300704956054688e+00 6.113645940786227584e-05 -4.409594566823216155e-06 1.701805922493804246e-05 1.435851390851894394e-05
1.223000000000000000e+03 5.002838516235351562e+01 -8.714201927185058594e+00 -5.379720096243545413e-05 -9.057557690539397299e-06 -1.885642814158927649e-05 -9.799257895792834461e-06
1.224000000000000000e+03 4.957993316650390625e+01 -7.225974559783935547e+00 -6.748519808752462268e-05 -1.552104731672443449e-05 -2.490187398507259786e-05 -1.631928171264007688e-05
1.225000000000000000e+03 5.319735717773437500e+01 -1.574747848510742188e+01 -9.572239832777995616e-06 -2.308087687197257765e-06 -3.564098278729943559e-06 -1.323709284406504594e-06
1.226000000000000000e+03 5.316064453125000000e+01 -1.486015129089355469e+01 -7.500280389649560675e-06 -5.663313004333758727e-06 -3.949077836296055466e-06 -5.720663466490805149e-06
1.227000000000000000e+03 4.277798461914062500e+01 7.755670070648193359e+00 2.785187389235943556e-04 3.440595173742622137e-05 9.387741010868921876e-05 1.108555952669121325e-04
1.228000000000000000e+03 4.290599822998046875e+01 2.002770423889160156e+01 -1.970183802768588066e-04 1.282833283767104149e-03 3.257444768678396940e-04 8.576964610256254673e-04
1.229000000000000000e+03 4.268898773193359375e+01 1.922233009338378906e+01 9.520481689833104610e-04 1.145460992120206356e-03 6.292527541518211365e-04 5.437706713564693928e-04
1.230000000000000000e+03 4.718832015991210938e+01 2.913023757934570312e+01 2.654311014339327812e-03 2.813695464283227921e-03 1.640401897020637989e-03 4.883243702352046967e-03
1.231000000000000000e+03 4.434688186645507812e+01 3.102674961090087891e+00 -1.568294828757643700e-04 -8.241744944825768471e-05 -7.177407678682357073e-05 -8.774267917033284903e-05
1.232000000000000000e+03 4.182369613647460938e+01 1.348486137390136719e+01 -3.676602209452539682e-04 3.440603904891759157e-04 -7.079950592014938593e-06 1.069212739821523428e-04
1.233000000000000000e+03 4.614314270019531250e+01 1.345050454139709473e+00 -1.649153564358130097e-04 -7.661305426154285669e-05 -7.245851884363219142e-05 -7.554600597359240055e-05
1.234000000000000000e+03 4.180690765380859375e+01 1.265770626068115234e+01 4.123862599954009056e-04 2.872881013900041580e-04 2.099023113260045648e-04 1.236589014297351241e-04
1.235000000000000000e+03 4.182883834838867188e+01 1.182397270202636719e+01 -3.457502753008157015e-04 2.334171440452337265e-04 -3.369993646629154682e-05 4.350008384790271521e-05
1.236000000000000000e+03 4.313796234130859375e+01 2.083322334289550781e+01 1.255243201740086079e-03 1.499569159932434559e-03 8.264437201432883739e-04 7.836527074687182903e-04
1.237000000000000000e+03 4.672920989990234375e+01 2.840006256103515625e+01 6.349766626954078674e-03 3.133694408461451530e-03 2.845038194209337234e-03 2.470244886353611946e-03
1.238000000000000000e+03 5.074716186523437500e+01 3.276446914672851562e+01 -7.111444720067083836e-04 3.703116904944181442e-03 8.975917007774114609e-04 5.834965500980615616e-03
1.239000000000000000e+03 4.422649765014648438e+01 4.822557449340820312e+00 2.153618552256375551e-04 3.278107396909035742e-05 7.444288348779082298e-05 1.290154905291274190e-04
1.240000000000000000e+03 4.310475921630859375e+01 7.002391338348388672e+00 -2.801471564453095198e-04 -3.379585905349813402e-05 -9.418290574103593826e-05 -9.218367631547152996e-05
1.241000000000000000e+03 1.106610655784606934e+00 -2.586678695678710938e+01 1.396678126184269786e-04 -4.948106288793496788e-05 2.705602310015819967e-05 -2.381507101745228283e-06
1.242000000000000000e+03 8.295413970947265625e+00 -2.536232757568359375e+01 1.348288933513686061e-04 -1.628946120035834610e-05 3.556182855390943587e-05 1.542794925626367331e-04
1.243000000000000000e+03 4.167163085937500000e+01 -3.021207237243652344e+01 -7.137381434440612793e-01 -1.581569433212280273e+00 -6.885923147201538086e-01 -7.934982776641845703e-01
1.244000000000000000e+03 4.277878570556640625e+01 -2.788392448425292969e+01 -1.736716330051422119e-01 -1.349959492683410645e+00 -4.570893347263336182e-01 -5.232310295104980469e-01
1.245000000000000000e+03 7.962390899658203125e+01 3.894153976440429688e+01 2.167236059904098511e-02 9.210599899291992188e+00 2.769681453704833984e+00 4.210072755813598633e-02
1.246000000000000000e+03 7.965361785888671875e+01 3.572465515136718750e+01 -7.659453898668289185e-03 8.906274795532226562e+00 2.669584751129150391e+00 5.974520742893218994e-02
1.247000000000000000e+03 7.884658050537109375e+01 3.515004730224609375e+01 -2.615944296121597290e-02 8.525842666625976562e+00 2.549904823303222656e+00 1.881086230278015137e-01
1.248000000000000000e+03 7.794855499267578125e+01 3.185814285278320312e+01 -3.231956437230110168e-02 7.775973320007324219e+00 2.323096036911010742e+00 4.699288010597229004e-01
1.249000000000000000e+03 7.956681060791015625e+01 3.254152679443359375e+01 -1.555539900436997414e-03 8.227170944213867188e+00 2.467684507369995117e+00 1.271660476922988892e-01
1.250000000000000000e+03 7.891114044189453125e+01 1.494482994079589844e+01 -3.288512350991368294e-03 6.230765819549560547e+00 1.868243098258972168e+00 -1.281477510929107666e-02
1.251000000000000000e+03 7.963602447509765625e+01 1.486934757232666016e+01 -2.694112714380025864e-03 5.905505657196044922e+00 1.770843505859375000e+00 -6.282153073698282242e-03
1.252000000000000000e+03 7.892376708984375000e+01 2.055286979675292969e+01 1.196709927171468735e-02 6.215980052947998047e+00 1.868384122848510742e+00 2.768651209771633148e-02
1.253000000000000000e+03 7.964055633544921875e+01 2.128231620788574219e+01 2.082335064187645912e-03 5.883615970611572266e+00 1.765709519386291504e+00 1.760190539062023163e-02
1.254000000000000000e+03 7.888053131103515625e+01 2.854158210754394531e+01 1.337835937738418579e-02 7.180061340332031250e+00 2.158031940460205078e+00 3.017397820949554443e-01
1.255000000000000000e+03 7.962431335449218750e+01 2.849384689331054688e+01 4.493637476116418839e-03 7.066135883331298828e+00 2.121188879013061523e+00 1.173220798373222351e-01
1.256000000000000000e+03 7.960714721679687500e+01 3.010575866699218750e+01 4.299981985241174698e-03 7.534567356109619141e+00 2.261660099029541016e+00 1.285265982151031494e-01
1.257000000000000000e+03 7.874881744384765625e+01 3.181146621704101562e+01 -1.457239687442779541e-02 7.889909267425537109e+00 2.362601041793823242e+00 3.377828598022460938e-01
1.258000000000000000e+03 7.885649108886718750e+01 2.935508918762207031e+01 7.569510955363512039e-03 7.362426757812500000e+00 2.210998773574829102e+00 3.198071122169494629e-01
1.259000000000000000e+03 7.889659881591796875e+01 2.773002052307128906e+01 1.870028115808963776e-02 7.007174015045166016e+00 2.107762336730957031e+00 2.798794507980346680e-01
1.260000000000000000e+03 7.753417968750000000e+01 2.306538963317871094e+01 9.805303066968917847e-02 6.907900810241699219e+00 2.101786136627197266e+00 1.751255244016647339e-01
1.261000000000000000e+03 7.890682983398437500e+01 2.612732696533203125e+01 2.458078786730766296e-02 6.706249237060546875e+00 2.019248962402343750e+00 2.231943905353546143e-01
1.262000000000000000e+03 7.892099761962890625e+01 2.373794937133789062e+01 2.501030638813972473e-02 6.390701770782470703e+00 1.924713611602783203e+00 1.267232298851013184e-01
1.263000000000000000e+03 7.891373443603515625e+01 2.453402328491210938e+01 2.675489895045757294e-02 6.477506637573242188e+00 1.951278448104858398e+00 1.590119600296020508e-01
1.264000000000000000e+03 7.963925933837890625e+01 2.368300056457519531e+01 7.115919142961502075e-03 6.064106941223144531e+00 1.821366786956787109e+00 4.859183728694915771e-02
1.265000000000000000e+03 7.892986297607421875e+01 2.214888763427734375e+01 1.897833682596683502e-02 6.271231174468994141e+00 1.887062788009643555e+00 6.811986118555068970e-02
1.266000000000000000e+03 7.754573822021484375e+01 2.151750946044921875e+01 6.709093600511550903e-02 6.870556354522705078e+00 2.081294059753417969e+00 8.777748048305511475e-02
1.267000000000000000e+03 7.820739746093750000e+01 1.904643058776855469e+01 2.206142432987689972e-02 6.537438392639160156e+00 1.967849850654602051e+00 3.717420622706413269e-03
1.268000000000000000e+03 7.891487884521484375e+01 1.735317993164062500e+01 2.995452610775828362e-03 6.207311630249023438e+00 1.863092064857482910e+00 -1.495287381112575531e-02
1.269000000000000000e+03 7.891632080078125000e+01 1.815441703796386719e+01 7.749712094664573669e-03 6.201268196105957031e+00 1.862705349922180176e+00 -8.948069997131824493e-03
1.270000000000000000e+03 7.963723754882812500e+01 1.727582550048828125e+01 3.000917378813028336e-03 5.865372180938720703e+00 1.760511875152587891e+00 -6.391809787601232529e-03
1.271000000000000000e+03 7.891248321533203125e+01 1.574960041046142578e+01 -2.864426467567682266e-03 6.224507331848144531e+00 1.866492867469787598e+00 -1.733591966331005096e-02
1.272000000000000000e+03 7.891384887695312500e+01 1.655204010009765625e+01 2.740173134952783585e-03 6.215632915496826172e+00 1.865512013435363770e+00 -1.837529242038726807e-02
1.273000000000000000e+03 7.819104003906250000e+01 1.422752475738525391e+01 -1.760675571858882904e-02 6.563786506652832031e+00 1.963853955268859863e+00 -5.436627194285392761e-03
1.274000000000000000e+03 7.891059112548828125e+01 1.413952064514160156e+01 -9.358759038150310516e-03 6.233419895172119141e+00 1.867218375205993652e+00 -4.559605382382869720e-03
1.275000000000000000e+03 7.747753906250000000e+01 1.271214294433593750e+01 -5.850759893655776978e-02 6.900540828704833984e+00 2.052609920501708984e+00 3.562878444790840149e-02
1.276000000000000000e+03 7.890390777587890625e+01 9.309182167053222656e+00 -6.743563339114189148e-03 6.064991474151611328e+00 1.817474365234375000e+00 8.643811196088790894e-02
1.277000000000000000e+03 7.956127929687500000e+01 -3.487349700927734375e+01 4.033455625176429749e-03 9.588006019592285156e+00 2.877611875534057617e+00 -1.079892590641975403e-01
1.278000000000000000e+03 7.890419769287109375e+01 -2.838794136047363281e+01 6.930812448263168335e-02 7.910259723663330078e+00 2.393870353698730469e+00 -2.028506398200988770e-01
1.279000000000000000e+03 7.963182067871093750e+01 -2.763999557495117188e+01 1.506826374679803848e-02 7.562326908111572266e+00 2.273218631744384766e+00 -4.886420071125030518e-02
1.280000000000000000e+03 7.826321411132812500e+01 -2.191918373107910156e+01 -3.790646418929100037e-02 8.648057937622070312e+00 2.583045244216918945e+00 5.042431950569152832e-01
1.281000000000000000e+03 7.965192413330078125e+01 -2.122863960266113281e+01 -2.324449596926569939e-03 9.058554649353027344e+00 2.716869115829467773e+00 1.146143525838851929e-01
1.282000000000000000e+03 7.820631408691406250e+01 -1.479387283325195312e+01 -6.548088788986206055e-02 8.919231414794921875e+00 2.656125307083129883e+00 -2.005255967378616333e-01
1.283000000000000000e+03 7.963771820068359375e+01 -1.401893520355224609e+01 -8.760359138250350952e-03 9.646141052246093750e+00 2.891214370727539062e+00 -7.495357841253280640e-02
1.284000000000000000e+03 7.892276763916015625e+01 -7.564992904663085938e+00 -8.547117002308368683e-03 8.068528175354003906e+00 2.417994260787963867e+00 -3.086352944374084473e-01
1.285000000000000000e+03 7.964126586914062500e+01 -6.797374725341796875e+00 -4.854484577663242817e-04 8.003783226013183594e+00 2.400989294052124023e+00 -1.323100924491882324e-01
1.286000000000000000e+03 7.891805267333984375e+01 -3.850424587726593018e-01 2.722035907208919525e-02 6.363561153411865234e+00 1.917234420776367188e+00 -2.759321630001068115e-01
1.287000000000000000e+03 7.964017486572265625e+01 4.052567780017852783e-01 8.152373135089874268e-03 5.841536045074462891e+00 1.754906535148620605e+00 -9.690987318754196167e-02
1.288000000000000000e+03 7.888414764404296875e+01 7.679871559143066406e+00 9.324701502919197083e-03 5.959747314453125000e+00 1.790721654891967773e+00 8.412789553403854370e-02
1.289000000000000000e+03 7.962786102294921875e+01 7.637832164764404297e+00 7.118078065104782581e-04 5.515611171722412109e+00 1.654896855354309082e+00 2.622804976999759674e-02
1.290000000000000000e+03 7.898347473144531250e+01 3.583286666870117188e+01 -2.879378013312816620e-02 8.658511161804199219e+00 2.588915348052978516e+00 1.500742882490158081e-01
1.291000000000000000e+03 7.957219696044921875e+01 4.040848159790039062e+01 1.331075280904769897e-02 9.392691612243652344e+00 2.821800708770751953e+00 3.964046388864517212e-02
1.292000000000000000e+03 7.904619598388671875e+01 3.936348724365234375e+01 4.248782992362976074e-03 8.986012458801269531e+00 2.697078227996826172e+00 8.073048293590545654e-02
1.293000000000000000e+03 7.873510742187500000e+01 3.723326873779296875e+01 -1.177614741027355194e-02 8.706271171569824219e+00 2.608348608016967773e+00 1.163593754172325134e-01
1.294000000000000000e+03 7.798622894287109375e+01 3.690484237670898438e+01 -5.585660785436630249e-02 8.400005340576171875e+00 2.503244400024414062e+00 2.091173529624938965e-01
1.295000000000000000e+03 7.874718475341796875e+01 3.435709381103515625e+01 -4.428964853286743164e-02 8.368157386779785156e+00 2.497160196304321289e+00 2.481808811426162720e-01
1.296000000000000000e+03 7.719789123535156250e+01 3.186763191223144531e+01 -5.045779794454574585e-02 7.693523883819580078e+00 2.292919874191284180e+00 5.652450323104858398e-01
1.297000000000000000e+03 7.963313293457031250e+01 9.249694824218750000e+00 -9.238847997039556503e-04 5.668249130249023438e+00 1.700197577476501465e+00 2.905926480889320374e-02
1.298000000000000000e+03 7.891329193115234375e+01 1.092846965789794922e+01 -1.367995608597993851e-02 6.156475067138671875e+00 1.842838525772094727e+00 6.327626109123229980e-02
1.299000000000000000e+03 7.889393615722656250e+01 8.495386123657226562e+00 2.334941877052187920e-03 6.013039112091064453e+00 1.804612278938293457e+00 9.230627864599227905e-02
1.300000000000000000e+03 7.812436676025390625e+01 6.896236419677734375e+00 3.976349160075187683e-02 6.363533020019531250e+00 1.920988917350769043e+00 1.050203144550323486e-01
1.301000000000000000e+03 7.887944030761718750e+01 6.864300727844238281e+00 1.508659869432449341e-02 5.916863441467285156e+00 1.779585003852844238e+00 6.743264943361282349e-02
1.302000000000000000e+03 7.279823303222656250e+01 3.480245828628540039e+00 5.191755294799804688e-01 9.592917442321777344e+00 3.033627748489379883e+00 8.502674847841262817e-02
1.303000000000000000e+03 7.892899322509765625e+01 2.812386989593505859e+00 3.254431486129760742e-02 5.909790515899658203e+00 1.782700419425964355e+00 -1.132289692759513855e-01
1.304000000000000000e+03 7.892597198486328125e+01 3.615119934082031250e+00 3.052396327257156372e-02 5.864217758178710938e+00 1.768422603607177734e+00 -7.130147516727447510e-02
1.305000000000000000e+03 7.964095306396484375e+01 2.810001611709594727e+00 6.134378723800182343e-03 5.455433845520019531e+00 1.638470411300659180e+00 -4.822054505348205566e-02
1.306000000000000000e+03 7.892999267578125000e+01 2.011755704879760742e+00 3.275235369801521301e-02 5.985235214233398438e+00 1.805396199226379395e+00 -1.537772566080093384e-01
1.307000000000000000e+03 7.891599273681640625e+01 -1.178139686584472656e+00 2.078069187700748444e-02 6.527829647064208984e+00 1.964583039283752441e+00 -3.054831027984619141e-01
1.308000000000000000e+03 7.818908691406250000e+01 -1.951550722122192383e+00 3.615897893905639648e-02 6.912029266357421875e+00 2.084456443786621094e+00 -4.720890223979949951e-01
1.309000000000000000e+03 7.893594360351562500e+01 -4.358234405517578125e+00 1.648479083087295294e-04 7.294532299041748047e+00 2.188409090042114258e+00 -3.444997072219848633e-01
1.310000000000000000e+03 7.893127441406250000e+01 -3.556158781051635742e+00 4.645465407520532608e-03 7.091287612915039062e+00 2.128779888153076172e+00 -3.440688848495483398e-01
1.311000000000000000e+03 7.964270019531250000e+01 -4.391237735748291016e+00 -1.878069015219807625e-04 7.253970146179199219e+00 2.176134824752807617e+00 -1.402449607849121094e-01
1.312000000000000000e+03 7.893746948242187500e+01 -5.161252498626708984e+00 -4.667311906814575195e-03 7.496090412139892578e+00 2.247426986694335938e+00 -3.382436931133270264e-01
1.313000000000000000e+03 7.893562316894531250e+01 -5.962927341461181641e+00 -5.553958006203174591e-03 7.693764686584472656e+00 2.306463241577148438e+00 -3.304546475410461426e-01
1.314000000000000000e+03 7.819256591796875000e+01 -9.158687591552734375e+00 -2.633270062506198883e-02 8.186886787414550781e+00 2.448166131973266602e+00 -4.115583598613739014e-01
1.315000000000000000e+03 7.891849517822265625e+01 -1.158540630340576172e+01 -1.343732140958309174e-02 8.866301536560058594e+00 2.655859231948852539e+00 -2.372688800096511841e-01
1.316000000000000000e+03 7.891668701171875000e+01 -1.078184509277343750e+01 -8.805739693343639374e-03 8.724713325500488281e+00 2.614772319793701172e+00 -2.536988854408264160e-01
1.317000000000000000e+03 7.963841247558593750e+01 -1.161076354980468750e+01 -8.872993057593703270e-04 9.212027549743652344e+00 2.763342142105102539e+00 -1.024971753358840942e-01
1.318000000000000000e+03 7.891993713378906250e+01 -1.238986492156982422e+01 -1.269400864839553833e-02 8.998879432678222656e+00 2.695855617523193359e+00 -2.213318049907684326e-01
1.319000000000000000e+03 7.891963958740234375e+01 -1.319544792175292969e+01 -2.204539440572261810e-02 9.119960784912109375e+00 2.729374647140502930e+00 -1.971116662025451660e-01
1.320000000000000000e+03 7.891906738281250000e+01 -1.479762363433837891e+01 -3.061755746603012085e-02 9.313567161560058594e+00 2.784884929656982422e+00 -1.356631219387054443e-01
1.321000000000000000e+03 7.895745849609375000e+01 -1.878697395324707031e+01 -4.891846328973770142e-02 9.351215362548828125e+00 2.790689229965209961e+00 1.396958380937576294e-01
1.322000000000000000e+03 7.896118164062500000e+01 -1.798129272460937500e+01 -5.585458129644393921e-02 9.421352386474609375e+00 2.809649229049682617e+00 6.999977678060531616e-02
1.323000000000000000e+03 7.964945983886718750e+01 -1.882494163513183594e+01 -1.667931303381919861e-02 9.710472106933593750e+00 2.908137798309326172e+00 4.452151805162429810e-02
1.324000000000000000e+03 7.896012115478515625e+01 -1.958789825439453125e+01 -5.718154087662696838e-02 9.244033813476562500e+00 2.756055831909179688e+00 2.081943303346633911e-01
1.325000000000000000e+03 7.896640014648437500e+01 -2.038751792907714844e+01 -4.186468198895454407e-02 9.095615386962890625e+00 2.716125249862670898e+00 2.725565433502197266e-01
1.326000000000000000e+03 7.895252990722656250e+01 -2.197722434997558594e+01 -7.465627975761890411e-03 8.697579383850097656e+00 2.607034206390380859e+00 3.543756902217864990e-01
1.327000000000000000e+03 7.752188110351562500e+01 -2.342345619201660156e+01 1.057048290967941284e-01 8.395460128784179688e+00 2.550349473953247070e+00 6.153821945190429688e-01
1.328000000000000000e+03 7.891925048828125000e+01 -2.436466789245605469e+01 5.107803642749786377e-02 8.090993881225585938e+00 2.442621707916259766e+00 2.833857536315917969e-01
1.329000000000000000e+03 7.889608001708984375e+01 -2.678729438781738281e+01 8.561930060386657715e-02 7.812605381011962891e+00 2.369467496871948242e+00 7.486931863240897655e-04
1.330000000000000000e+03 7.823844909667968750e+01 -2.270134544372558594e+01 1.543656270951032639e-02 8.497518539428710938e+00 2.553886413574218750e+00 5.251302123069763184e-01
1.331000000000000000e+03 7.890860748291015625e+01 -2.517132949829101562e+01 7.250276952981948853e-02 7.943805217742919922e+00 2.404892444610595703e+00 2.091685533523559570e-01
1.332000000000000000e+03 7.819009399414062500e+01 -2.834233093261718750e+01 1.746231615543365479e-01 8.054813385009765625e+00 2.468831062316894531e+00 -2.764019668102264404e-01
1.333000000000000000e+03 7.255802154541015625e+01 -3.131387138366699219e+01 -2.961794435977935791e-01 7.720233917236328125e+00 2.227216243743896484e+00 2.509519755840301514e-01
1.334000000000000000e+03 7.883300018310546875e+01 -3.239167022705078125e+01 -1.591197587549686432e-02 8.758697509765625000e+00 2.622835636138916016e+00 -3.593409657478332520e-01
1.335000000000000000e+03 7.886801147460937500e+01 -3.158213043212890625e+01 -1.206895802170038223e-02 8.577444076538085938e+00 2.569612503051757812e+00 -3.655754029750823975e-01
1.336000000000000000e+03 7.960734558105468750e+01 -3.245245742797851562e+01 -7.938528433442115784e-03 8.944667816162109375e+00 2.681018829345703125e+00 -1.421693861484527588e-01
1.337000000000000000e+03 7.879049682617187500e+01 -3.320439529418945312e+01 -4.048960283398628235e-02 8.918604850769042969e+00 2.663434505462646484e+00 -3.272009491920471191e-01
1.338000000000000000e+03 7.863306427001953125e+01 -3.567179489135742188e+01 -4.585698992013931274e-02 9.229753494262695312e+00 2.755168914794921875e+00 -2.221883535385131836e-01
1.339000000000000000e+03 7.848356628417968750e+01 -3.884825897216796875e+01 -1.319520291872322559e-03 9.260908126831054688e+00 2.777876615524291992e+00 -3.328153118491172791e-02
1.340000000000000000e+03 7.701340484619140625e+01 -3.998328399658203125e+01 -2.620742656290531158e-02 8.552644729614257812e+00 2.557931184768676758e+00 7.338709384202957153e-02
1.341000000000000000e+03 7.836258697509765625e+01 -3.967686843872070312e+01 2.272607199847698212e-02 9.257430076599121094e+00 2.784046649932861328e+00 -8.948258310556411743e-02
1.342000000000000000e+03 7.949034881591796875e+01 -3.968560409545898438e+01 1.922458410263061523e-02 1.001031303405761719e+01 3.008861303329467773e+00 -6.871815770864486694e-03
1.343000000000000000e+03 7.856215667724609375e+01 -4.051077651977539062e+01 -1.569966971874237061e-02 9.346126556396484375e+00 2.799128055572509766e+00 -1.375633850693702698e-02
1.344000000000000000e+03 7.863985443115234375e+01 -4.206033325195312500e+01 5.783658009022474289e-03 9.611347198486328125e+00 2.885139226913452148e+00 -6.229409575462341309e-02
1.345000000000000000e+03 4.107321166992187500e+01 -3.076826667785644531e+01 -7.707901597023010254e-01 -1.015713691711425781e+00 -5.359511375427246094e-01 -7.919713854789733887e-01
1.346000000000000000e+03 4.234138488769531250e+01 -3.297995376586914062e+01 -2.530857175588607788e-02 -7.162491679191589355e-01 -2.224673330783843994e-01 -1.297737658023834229e-01
1.347000000000000000e+03 6.389159011840820312e+01 3.699747085571289062e+01 -2.632890595123171806e-03 5.508843064308166504e-01 1.644754260778427124e-01 -2.054754793643951416e-01
1.348000000000000000e+03 9.105924606323242188e+00 -2.698538398742675781e+01 1.696086255833506584e-04 7.084026492520933971e-06 5.300779230310581625e-05 1.502583036199212074e-04
1.349000000000000000e+03 7.037331390380859375e+01 1.481069755554199219e+01 2.668238282203674316e-01 1.032118892669677734e+01 3.176403760910034180e+00 3.009768128395080566e-01
1.350000000000000000e+03 6.965063476562500000e+01 1.391583251953125000e+01 3.560553491115570068e-01 1.125989627838134766e+01 3.484785318374633789e+00 7.099933028221130371e-01
1.351000000000000000e+03 1.226819801330566406e+01 -3.134258460998535156e+01 2.492596860975027084e-03 -3.950299287680536509e-04 6.292700418271124363e-04 4.959506914019584656e-04
1.352000000000000000e+03 3.671993255615234375e+01 -3.366417694091796875e+01 -1.978002339601516724e-01 -1.450563222169876099e-01 -1.028569638729095459e-01 -1.988340765237808228e-01
1.353000000000000000e+03 3.783824145793914795e-01 3.482843780517578125e+01 9.247670823242515326e-05 9.545236825942993164e-04 3.141001216135919094e-04 -2.520219459256622940e-05
1.354000000000000000e+03 3.869809210300445557e-01 3.403743743896484375e+01 -7.892254507169127464e-05 9.240417275577783585e-04 2.535357489250600338e-04 -4.569689735944848508e-06
1.355000000000000000e+03 3.830404877662658691e-01 2.839845848083496094e+01 2.880877764255274087e-05 7.062107906676828861e-04 2.205058699473738670e-04 -1.673157930781599134e-05
1.356000000000000000e+03 3.779621124267578125e-01 2.759240722656250000e+01 -2.930800656031351537e-05 6.728350999765098095e-04 1.930581347551196814e-04 -1.617172529222443700e-05
1.357000000000000000e+03 4.068351984024047852e-01 -3.801710891723632812e+01 1.054506283253431320e-04 8.575690444558858871e-04 2.889058960136026144e-04 6.111557013355195522e-05
1.358000000000000000e+03 1.251053810119628906e+00 -3.711413574218750000e+01 1.366823271382600069e-04 6.896032136864960194e-04 2.478856476955115795e-04 1.570297463331371546e-04
1.359000000000000000e+03 3.623606860637664795e-01 2.115965080261230469e+01 -3.496133285807445645e-05 3.938430745620280504e-04 1.076645203283987939e-04 -1.307632737734820694e-05
1.360000000000000000e+03 1.091602802276611328e+00 2.188365936279296875e+01 -3.462420500000007451e-05 4.106799315195530653e-04 1.128167132264934480e-04 -4.585252463584765792e-05
1.361000000000000000e+03 1.108833551406860352e+00 2.510087585449218750e+01 -3.368669058545492589e-05 5.390574806369841099e-04 1.516112388344481587e-04 -5.110993515700101852e-05
1.362000000000000000e+03 1.113101601600646973e+00 2.590362167358398438e+01 3.370063859620131552e-05 5.661610048264265060e-04 1.799584861146286130e-04 -4.508674464887008071e-05
1.363000000000000000e+03 3.712208271026611328e-01 2.598413085937500000e+01 -3.107906377408653498e-05 6.020152359269559383e-04 1.712808589218184352e-04 -1.609958235349040478e-05
1.364000000000000000e+03 1.131647348403930664e+00 2.751195716857910156e+01 3.203664164175279438e-05 6.319994572550058365e-04 1.992108300328254700e-04 -4.496422116062603891e-05
1.365000000000000000e+03 1.146655440330505371e+00 2.832168006896972656e+01 -3.315957292215898633e-05 6.675677723251283169e-04 1.903224474517628551e-04 -5.019120726501569152e-05
1.366000000000000000e+03 1.188535094261169434e+00 2.995115280151367188e+01 -3.640869545051828027e-05 7.273222436197102070e-04 2.072740753646939993e-04 -4.641495979740284383e-05
1.367000000000000000e+03 2.753353595733642578e+00 2.974078369140625000e+01 -4.205843288218602538e-05 6.345333531498908997e-04 1.777424768079072237e-04 -1.017872928059659898e-04
1.368000000000000000e+03 1.198881983757019043e+00 3.321898269653320312e+01 -5.951809362159110606e-05 8.434935589320957661e-04 2.351926377741619945e-04 -3.453226599958725274e-05
1.369000000000000000e+03 4.064907133579254150e-01 3.243591308593750000e+01 -5.380657239584252238e-05 8.678045123815536499e-04 2.441993856336921453e-04 -1.030357270792592317e-05
1.370000000000000000e+03 1.167899131774902344e+00 3.400686645507812500e+01 6.193474109750241041e-05 8.717671153135597706e-04 2.801105729304254055e-04 -4.792842810275033116e-05
1.371000000000000000e+03 1.126167297363281250e+00 3.551536178588867188e+01 7.797574653523042798e-05 9.142663329839706421e-04 2.976726100314408541e-04 -5.018553201807662845e-05
1.372000000000000000e+03 3.236689329147338867e+00 3.946122360229492188e+01 2.882296212192159146e-05 7.787946378812193871e-04 2.422852849122136831e-04 -5.516360397450625896e-05
1.373000000000000000e+03 1.489510178565979004e+00 3.779741668701171875e+01 -1.017201793729327619e-04 9.639388881623744965e-04 2.586656191851943731e-04 -4.146243736613541842e-05
1.374000000000000000e+03 4.254459738731384277e-01 3.962203598022460938e+01 6.982674676692113280e-05 1.077503780834376812e-03 3.441991575527936220e-04 -3.691427627927623689e-05
1.375000000000000000e+03 1.884122490882873535e+00 4.044261550903320312e+01 -6.857419066363945603e-05 9.992908453568816185e-04 2.792150189634412527e-04 -2.631525057950057089e-05
1.376000000000000000e+03 1.705759048461914062e+00 4.173242950439453125e+01 2.957013293780619279e-06 9.984826901927590370e-04 3.004319150932133198e-04 2.292150020366534591e-05
1.377000000000000000e+03 1.142012596130371094e+00 -2.907744026184082031e+01 1.755652774590998888e-04 -5.791702278656885028e-05 3.529447349137626588e-05 2.021596992562990636e-05
1.378000000000000000e+03 1.265123248100280762e+00 -3.631575775146484375e+01 -1.635111111681908369e-04 6.142748170532286167e-04 1.352291001239791512e-04 2.403391699772328138e-04
1.379000000000000000e+03 1.821785926818847656e+00 -8.086867332458496094e+00 -2.645835957082454115e-05 -1.033114017445768695e-06 -8.247442565334495157e-06 -4.564708433463238180e-06
1.380000000000000000e+03 1.093239545822143555e+00 -1.541212654113769531e+01 -5.672305996995419264e-05 -1.280127889913273975e-06 -1.740095649438444525e-05 -9.828243491938337684e-06
1.381000000000000000e+03 1.099395155906677246e+00 -2.184544944763183594e+01 -1.039728667819872499e-04 -9.967840924218762666e-06 -3.418221240281127393e-05 -2.558977394073735923e-05
1.382000000000000000e+03 3.599268496036529541e-01 1.955281257629394531e+01 -3.492568794172257185e-05 3.308338345959782600e-04 8.877244545146822929e-05 -1.136554601544048637e-05
1.383000000000000000e+03 3.557688593864440918e-01 1.472914218902587891e+01 -2.547965596022550017e-05 1.725584879750385880e-04 4.412365160533227026e-05 -7.460749202437000349e-06
1.384000000000000000e+03 3.550280928611755371e-01 1.392507839202880859e+01 2.429963387839961797e-05 1.504929678048938513e-04 5.243778286967426538e-05 -1.134422836912563071e-05
1.385000000000000000e+03 3.766249716281890869e-01 7.492630481719970703e+00 1.573315967107191682e-05 2.667757871677167714e-05 1.272322151635307819e-05 -5.845854502695146948e-06
1.386000000000000000e+03 1.182074785232543945e+00 -3.942360305786132812e+01 -9.154786675935611129e-05 9.371949126943945885e-04 2.536941028665751219e-04 1.074096508091315627e-04
1.387000000000000000e+03 2.922597408294677734e+00 -3.875279998779296875e+01 -4.193060885882005095e-05 9.411735809408128262e-04 2.697728923521935940e-04 1.800987811293452978e-04
1.388000000000000000e+03 1.214499711990356445e+00 -3.869481658935546875e+01 6.940396997379139066e-05 9.548224625177681446e-04 3.072679101023823023e-04 1.361642207484692335e-04
1.389000000000000000e+03 1.266950726509094238e+00 -3.551498413085937500e+01 1.896688918350264430e-04 4.564335395116358995e-04 1.938307250384241343e-04 1.799144083634018898e-04
1.390000000000000000e+03 1.957466483116149902e+00 -3.058889198303222656e+01 -1.144355628639459610e-04 6.277899956330657005e-05 -1.549696935398969799e-05 7.563812687294557691e-05
1.391000000000000000e+03 1.214724779129028320e+00 -3.229487609863281250e+01 2.007941075135022402e-04 9.686341218184679747e-05 8.929726027417927980e-05 1.188659953186288476e-04
1.392000000000000000e+03 3.931108117103576660e-01 -3.079098510742187500e+01 -1.688252668827772141e-04 -8.526610326953232288e-05 -7.622741395607590675e-05 -3.962448317906819284e-06
1.393000000000000000e+03 1.195950627326965332e+00 -3.149152183532714844e+01 -1.507569104433059692e-04 4.784804696100763977e-05 -3.087265940848737955e-05 6.168038817122578621e-05
1.394000000000000000e+03 1.892148494720458984e+00 -2.897965049743652344e+01 -1.313708489760756493e-04 1.107123262045206502e-05 -3.608988481573760509e-05 9.028190106619149446e-06
1.395000000000000000e+03 1.127747058868408203e+00 -2.827698707580566406e+01 -1.503052917541936040e-04 -5.377770867198705673e-05 -6.122489867266267538e-05 -2.182819662266410887e-05
1.396000000000000000e+03 3.281440019607543945e+00 -2.322784423828125000e+01 1.119568914873525500e-04 2.058731979559524916e-06 3.420468783588148654e-05 7.462629127985564992e-06
1.397000000000000000e+03 1.102441906929016113e+00 -2.506252670288085938e+01 -1.357848523184657097e-04 -3.228646892239339650e-05 -5.042139309807680547e-05 -3.981222107540816069e-05
1.398000000000000000e+03 7.995045661926269531e+00 -2.444173622131347656e+01 -2.132772497134283185e-04 -4.473176886676810682e-05 -7.740270666545256972e-05 -3.775763616431504488e-05
1.399000000000000000e+03 3.672491014003753662e-01 -2.355553817749023438e+01 1.175912912003695965e-04 -2.764740747807081789e-05 2.698316529858857393e-05 1.390171200910117477e-05
1.400000000000000000e+03 1.098766565322875977e+00 -2.345691490173339844e+01 -1.203721476485952735e-04 -1.904769851535093039e-05 -4.182595148449763656e-05 -3.425721661187708378e-05
1.401000000000000000e+03 1.099443197250366211e+00 -2.426024246215820312e+01 1.234126539202407002e-04 -2.895646321121603251e-05 2.833685903169680387e-05 4.352642008598195389e-06
1.402000000000000000e+03 1.098022937774658203e+00 -2.104333686828613281e+01 9.328950545750558376e-05 -3.873582954838639125e-06 2.682477679627481848e-05 1.199993585032643750e-05
1.403000000000000000e+03 1.093109488487243652e+00 -1.862960433959960938e+01 -7.703380106249824166e-05 -1.571748725837096572e-06 -2.358166420890484005e-05 -1.420208445779280737e-05
1.404000000000000000e+03 1.095310449600219727e+00 -1.943456649780273438e+01 8.145294123096391559e-05 -4.067445900091115618e-07 2.431385837553534657e-05 1.231696842296514660e-05
1.405000000000000000e+03 3.651529848575592041e-01 -1.712319564819335938e+01 6.151378329377621412e-05 2.206963017670204863e-06 1.911622348416130990e-05 9.804005458136089146e-06
1.406000000000000000e+03 1.092314362525939941e+00 -1.621558570861816406e+01 6.109017704147845507e-05 1.822429794628988020e-06 1.887378311948850751e-05 1.079555022442946211e-05
1.407000000000000000e+03 1.092345356941223145e+00 -1.461094760894775391e+01 5.224068081588484347e-05 2.138109721272485331e-06 1.631363738852087408e-05 9.134815627476200461e-06
1.408000000000000000e+03 1.091912388801574707e+00 -1.139915275573730469e+01 3.693559483508579433e-05 1.314856035605771467e-06 1.147513557953061536e-05 5.793574473500484601e-06
1.409000000000000000e+03 1.091567754745483398e+00 -1.220324325561523438e+01 -4.040740532218478620e-05 -1.045113435793609824e-06 -1.243575570697430521e-05 -6.276851763686863706e-06
1.410000000000000000e+03 3.657179772853851318e-01 -9.889310836791992188e+00 -2.851117278623860329e-05 -5.142337613506242633e-07 -8.707622328074648976e-06 -4.151416305830935016e-06
1.411000000000000000e+03 1.095608949661254883e+00 -8.983489990234375000e+00 -2.784153548418544233e-05 -7.589378583361394703e-07 -8.580142093705944717e-06 -4.168826308159623295e-06
1.412000000000000000e+03 1.095338821411132812e+00 -8.179959297180175781e+00 2.526211392250843346e-05 8.961497428572329227e-07 7.847478627809323370e-06 3.849294444080442190e-06
1.413000000000000000e+03 3.530476570129394531e+00 -2.592575073242187500e+00 7.742682100797537714e-06 1.142686983257590327e-06 2.665610736585222185e-06 3.337765065225539729e-06
1.414000000000000000e+03 2.734143257141113281e+00 -2.607467651367187500e+00 -7.771354830765631050e-06 -7.847710321584600024e-07 -2.566837565609603189e-06 -2.667912667675409466e-06
1.415000000000000000e+03 2.796213150024414062e+00 -1.867401123046875000e+00 5.437735126179177314e-06 8.260914228230831213e-07 1.879147930594626814e-06 2.063132569674053229e-06
1.416000000000000000e+03 2.639346361160278320e+00 -4.112736225128173828e+00 -1.283059191337088123e-05 -6.984987521718721837e-07 -4.058726972289150581e-06 -3.677487029563053511e-06
1.417000000000000000e+03 3.742053806781768799e-01 -3.481685638427734375e+00 -9.802813110582064837e-06 -1.621336593871092191e-07 -2.989484073623316363e-06 -1.184927782560407650e-06
1.418000000000000000e+03 1.192289829254150391e+00 -1.881701707839965820e+00 5.251155016594566405e-06 2.565851957569975639e-07 1.652321998335537501e-06 9.559703357808757573e-07
1.419000000000000000e+03 3.696218132972717285e-01 5.085982799530029297e+00 -1.052671450452180579e-05 4.821810762223321944e-06 -1.711471213639015332e-06 -1.516467591500259005e-06
1.420000000000000000e+03 3.426780223846435547e+00 3.342839956283569336e+00 5.964740012132097036e-06 1.670951132837217301e-05 6.802275493100751191e-06 -1.550199885969050229e-05
1.421000000000000000e+03 1.147592663764953613e+00 6.621637344360351562e+00 1.500831331213703379e-05 2.560237953730393201e-05 1.218320812768070027e-05 -1.267042989638866857e-05
1.422000000000000000e+03 1.056069731712341309e+00 1.064167881011962891e+01 -1.792859075067099184e-05 8.420993253821507096e-05 1.988440089917276055e-05 -1.994718695641495287e-05
1.423000000000000000e+03 1.061198711395263672e+00 9.842719078063964844e+00 1.948566932696849108e-05 6.762281554983928800e-05 2.613254582684021443e-05 -1.782971594366244972e-05
1.424000000000000000e+03 1.062700390815734863e+00 1.304490852355957031e+01 2.378716271778102964e-05 1.315324334427714348e-04 4.659588012145832181e-05 -2.675613541214261204e-05
1.425000000000000000e+03 1.060742855072021484e+00 1.224290084838867188e+01 -1.993046862480696291e-05 1.156595171778462827e-04 2.871871402021497488e-05 -2.226763899670913815e-05
1.426000000000000000e+03 3.541682958602905273e-01 1.231834506988525391e+01 2.112850597768556327e-05 1.114820406655780971e-04 3.978316453867591918e-05 -9.563400453771464527e-06
1.427000000000000000e+03 1.064531445503234863e+00 1.384601974487304688e+01 -2.283185858686920255e-05 1.523834362160414457e-04 3.886547347065061331e-05 -2.482086892996449023e-05
1.428000000000000000e+03 2.496008157730102539e+00 1.523704624176025391e+01 -2.109382876369636506e-05 1.862498465925455093e-04 4.954680480295792222e-05 -6.363479769788682461e-05
1.429000000000000000e+03 1.072667121887207031e+00 1.705965805053710938e+01 -2.958758159365970641e-05 2.417057985439896584e-04 6.363546708598732948e-05 -3.185067544109188020e-05
1.430000000000000000e+03 1.075580358505249023e+00 1.786508178710937500e+01 3.383784132893197238e-05 2.628549118526279926e-04 8.900782268028706312e-05 -3.805627420661039650e-05
1.431000000000000000e+03 1.077605962753295898e+00 1.866996002197265625e+01 -3.272226240369491279e-05 2.940039266832172871e-04 7.838450255803763866e-05 -3.648766869446262717e-05
1.432000000000000000e+03 1.079612970352172852e+00 1.947299957275390625e+01 3.634872700786218047e-05 3.162154171150177717e-04 1.057692497852258384e-04 -4.016726234112866223e-05
1.433000000000000000e+03 1.095535039901733398e+00 2.268993759155273438e+01 3.631006984505802393e-05 4.364114720374345779e-04 1.418164611095562577e-04 -4.335652192821726203e-05
1.434000000000000000e+03 7.101424407958984375e+01 1.248886203765869141e+01 -3.958193063735961914e-01 9.461303710937500000e+00 2.719645500183105469e+00 -2.937126755714416504e-01
1.435000000000000000e+03 6.172863006591796875e+01 3.900691223144531250e+01 2.381790429353713989e-01 2.031947523355484009e-01 1.324121356010437012e-01 -1.937714591622352600e-02
1.436000000000000000e+03 6.969831085205078125e+01 9.169957160949707031e+00 1.781834661960601807e-01 9.855939865112304688e+00 3.010236978530883789e+00 -1.352584600448608398e+00
1.437000000000000000e+03 7.103604125976562500e+01 1.093944168090820312e+01 -6.607869267463684082e-01 9.493267059326171875e+00 2.649744033813476562e+00 -9.565661102533340454e-02
1.438000000000000000e+03 9.033458709716796875e+00 -2.093049430847167969e+01 1.160531537607312202e-04 1.487718327553011477e-05 3.927910074708051980e-05 -3.317940718261525035e-05
1.439000000000000000e+03 2.291979980468750000e+01 -3.107571601867675781e+01 2.233235351741313934e-02 -1.086538308300077915e-03 6.373744457960128784e-03 7.756589329801499844e-04
1.440000000000000000e+03 2.343646430969238281e+01 -3.280620574951171875e+01 1.594789698719978333e-02 -9.494872065261006355e-04 4.499522969126701355e-03 4.139373544603586197e-03
1.441000000000000000e+03 6.395500946044921875e+01 3.588964080810546875e+01 -2.884929478168487549e-01 3.435581326484680176e-01 1.651955768465995789e-02 -1.584899127483367920e-01
1.442000000000000000e+03 6.878517150878906250e+01 3.034754180908203125e+01 5.177272558212280273e-01 5.808178901672363281e+00 1.897771835327148438e+00 -1.374474644660949707e+00
1.443000000000000000e+03 6.917942047119140625e+01 2.954806709289550781e+01 7.917208671569824219e-01 6.838918685913085938e+00 2.289191961288452148e+00 -1.438848972320556641e+00
1.444000000000000000e+03 6.728167724609375000e+01 3.260202026367187500e+01 -2.790542691946029663e-02 2.720020532608032227e+00 8.076345324516296387e-01 -9.138204455375671387e-01
1.445000000000000000e+03 1.441302299499511719e+01 -1.348822879791259766e+01 -7.318896678043529391e-06 2.438241426716558635e-05 5.119055458635557443e-06 -6.175361704663373530e-06
1.446000000000000000e+03 1.204582595825195312e+01 -1.490072822570800781e+01 -2.144704376405570656e-05 -4.312217788537964225e-05 -1.937076740432530642e-05 1.947761484188959002e-05
1.447000000000000000e+03 1.146699047088623047e+01 -1.558666992187500000e+01 2.015862628468312323e-05 4.868825999437831342e-05 2.065406624751631171e-05 -3.478765574982389808e-05
1.448000000000000000e+03 7.052738952636718750e+01 1.033708930015563965e+00 7.363256812095642090e-01 1.127000999450683594e+01 3.601900577545166016e+00 8.112778067588806152e-01
1.449000000000000000e+03 1.129413700103759766e+01 -2.843054389953613281e+01 3.364430449437350035e-04 8.560637070331722498e-05 1.266148174181580544e-04 4.993087350158020854e-05
1.450000000000000000e+03 1.207402038574218750e+01 -3.013344001770019531e+01 1.791405258700251579e-03 -3.197442856617271900e-04 4.414982977323234081e-04 -1.805725187296047807e-04
1.451000000000000000e+03 7.216761779785156250e+01 4.389671325683593750e+00 3.748381137847900391e-01 1.022191524505615234e+01 3.179026126861572266e+00 5.909725651144981384e-02
1.452000000000000000e+03 6.910594940185546875e+01 2.764117622375488281e+01 6.197729110717773438e-01 9.032599449157714844e+00 2.895711660385131836e+00 -2.093934774398803711e+00
1.453000000000000000e+03 6.551321411132812500e+01 3.309796142578125000e+01 -9.660222381353378296e-02 5.439177155494689941e-01 1.341946572065353394e-01 -1.778113842010498047e-01
1.454000000000000000e+03 3.761258697509765625e+01 -3.352511978149414062e+01 -2.473469227552413940e-01 -2.278298437595367432e-01 -1.425530314445495605e-01 -2.686070799827575684e-01
1.455000000000000000e+03 6.949839019775390625e+01 2.873135948181152344e+01 8.100827932357788086e-01 7.765969753265380859e+00 2.572815895080566406e+00 -1.510371685028076172e+00
1.456000000000000000e+03 6.827320098876953125e+01 -7.732487678527832031e+00 2.520925104618072510e-01 4.409815311431884766e+00 1.398572325706481934e+00 9.682052135467529297e-01
1.457000000000000000e+03 6.761882781982421875e+01 -7.530285835266113281e+00 3.964503407478332520e-01 3.928309202194213867e+00 1.297427773475646973e+00 1.204901337623596191e+00
1.458000000000000000e+03 7.000874328613281250e+01 5.950660228729248047e+00 3.255462972447276115e-03 1.219985389709472656e+01 3.660932779312133789e+00 -1.093250140547752380e-01
1.459000000000000000e+03 7.068264007568359375e+01 6.832041740417480469e+00 5.610898733139038086e-01 1.139417934417724609e+01 3.586580753326416016e+00 -5.378711223602294922e-01
1.460000000000000000e+03 6.532060241699218750e+01 3.431374740600585938e+01 -3.434961736202239990e-01 8.819405436515808105e-01 1.615333259105682373e-01 -2.551594376564025879e-01
1.461000000000000000e+03 7.011268615722656250e+01 2.623428535461425781e+01 6.127118468284606934e-01 9.788974761962890625e+00 3.120506048202514648e+00 -1.032102584838867188e+00
1.462000000000000000e+03 6.975007629394531250e+01 2.790679931640625000e+01 6.288352608680725098e-01 8.672985076904296875e+00 2.790545940399169922e+00 -1.418599963188171387e+00
1.463000000000000000e+03 6.667429351806640625e+01 3.327525329589843750e+01 -1.460094749927520752e-01 2.010740756988525391e+00 5.594193935394287109e-01 -6.941593885421752930e-01
1.464000000000000000e+03 6.319784927368164062e+01 3.555311584472656250e+01 -4.778890609741210938e-01 2.542328089475631714e-02 -1.357397437095642090e-01 6.249255314469337463e-02
1.465000000000000000e+03 6.250422668457031250e+01 3.588483047485351562e+01 -4.109795093536376953e-01 2.163564227521419525e-02 -1.168031543493270874e-01 1.644361168146133423e-01
1.466000000000000000e+03 6.826802062988281250e+01 -4.382539272308349609e+00 7.254176139831542969e-01 5.913669586181640625e+00 1.991726160049438477e+00 1.961555957794189453e+00
1.467000000000000000e+03 6.976977539062500000e+01 -2.231882572174072266e+00 3.826830983161926270e-01 8.452467918395996094e+00 2.650545120239257812e+00 1.499054908752441406e+00
1.468000000000000000e+03 7.037126922607421875e+01 2.372927474975585938e+01 4.020832479000091553e-01 1.049376964569091797e+01 3.268755912780761719e+00 -4.745319187641143799e-01
1.469000000000000000e+03 7.022212219238281250e+01 -6.212581992149353027e-01 5.369191169738769531e-01 9.937278747558593750e+00 3.142259359359741211e+00 1.361039996147155762e+00
1.470000000000000000e+03 6.626450347900390625e+01 -1.055326938629150391e+01 5.079052448272705078e-01 2.354767560958862305e+00 8.588018417358398438e-01 9.236447215080261230e-01
1.471000000000000000e+03 7.052479553222656250e+01 8.477350234985351562e+00 1.881761848926544189e-01 1.073080635070800781e+01 3.275694608688354492e+00 -4.492531418800354004e-01
1.472000000000000000e+03 7.108200073242187500e+01 1.015916252136230469e+01 -5.033348798751831055e-01 9.668957710266113281e+00 2.749686956405639648e+00 -1.221506148576736450e-01
1.473000000000000000e+03 3.321578979492187500e+01 -3.254487609863281250e+01 1.500186696648597717e-02 2.424009609967470169e-03 5.227762740105390549e-03 -1.867348141968250275e-02
1.474000000000000000e+03 7.039280700683593750e+01 2.027189582586288452e-01 5.523636341094970703e-01 1.080254650115966797e+01 3.406473159790039062e+00 1.108201146125793457e+00
1.475000000000000000e+03 6.953431701660156250e+01 -5.236367583274841309e-01 6.047899723052978516e-01 1.031981277465820312e+01 3.277380704879760742e+00 2.170597791671752930e+00
1.476000000000000000e+03 7.042640686035156250e+01 9.283540725708007812e+00 -1.458260864019393921e-01 9.945163726806640625e+00 2.939801216125488281e+00 -4.985081851482391357e-01
1.477000000000000000e+03 7.001724243164062500e+01 4.333821773529052734e+00 3.227940946817398071e-02 1.207465744018554688e+01 3.632081270217895508e+00 7.118354085832834244e-03
1.478000000000000000e+03 7.071674346923828125e+01 6.019464969635009766e+00 2.174669951200485229e-01 1.165979957580566406e+01 3.563179969787597656e+00 -3.402881026268005371e-01
1.479000000000000000e+03 6.645784759521484375e+01 -1.342130756378173828e+01 5.430848598480224609e-01 2.094458103179931641e+00 7.912629246711730957e-01 5.897752642631530762e-01
1.480000000000000000e+03 7.001208496093750000e+01 3.523369550704956055e+00 1.856531389057636261e-02 1.220275211334228516e+01 3.666395187377929688e+00 6.424141675233840942e-02
1.481000000000000000e+03 6.763577270507812500e+01 -5.870311260223388672e+00 6.800124645233154297e-01 4.434740066528320312e+00 1.534425735473632812e+00 1.676904916763305664e+00
1.482000000000000000e+03 6.891897583007812500e+01 -4.560585498809814453e+00 4.607678651809692383e-01 6.285227298736572266e+00 2.023798465728759766e+00 1.447490215301513672e+00
1.483000000000000000e+03 6.828409576416015625e+01 -6.058938026428222656e+00 4.186179041862487793e-01 4.990370273590087891e+00 1.622696518898010254e+00 1.340540528297424316e+00
1.484000000000000000e+03 7.023157501220703125e+01 2.539749717712402344e+01 5.023052692413330078e-01 1.032125282287597656e+01 3.247067451477050781e+00 -8.232221007347106934e-01
1.485000000000000000e+03 7.039805603027343750e+01 2.290998077392578125e+01 1.767126768827438354e-01 1.056738185882568359e+01 3.223228216171264648e+00 -3.152940273284912109e-01
1.486000000000000000e+03 6.950386810302734375e+01 -3.015958786010742188e+00 4.254954755306243896e-01 7.604022502899169922e+00 2.408855438232421875e+00 1.578766345977783203e+00
1.487000000000000000e+03 6.795279693603515625e+01 -6.797268867492675781e+00 3.806825578212738037e-01 4.433403968811035156e+00 1.444226026535034180e+00 1.258802771568298340e+00
1.488000000000000000e+03 6.832767486572265625e+01 3.112134933471679688e+01 2.425676882266998291e-01 4.664314270019531250e+00 1.472064495086669922e+00 -1.328532099723815918e+00
1.489000000000000000e+03 6.860743713378906250e+01 -5.313155174255371094e+00 4.375174343585968018e-01 5.628207683563232422e+00 1.819717645645141602e+00 1.415913820266723633e+00
1.490000000000000000e+03 7.039205932617187500e+01 1.562810420989990234e+01 6.745127588510513306e-02 1.040076160430908203e+01 3.140463829040527344e+00 1.473133563995361328e-01
1.491000000000000000e+03 6.970240783691406250e+01 2.117857170104980469e+01 1.131435390561819077e-02 1.068066215515136719e+01 3.207592964172363281e+00 -2.470502629876136780e-02
1.492000000000000000e+03 7.041082000732421875e+01 2.209611129760742188e+01 6.200383231043815613e-02 1.042510700225830078e+01 3.146133422851562500e+00 -1.416506171226501465e-01
1.493000000000000000e+03 7.073120117187500000e+01 4.381092548370361328e+00 1.188344955444335938e-01 1.153843593597412109e+01 3.497181177139282227e+00 3.090085089206695557e-02
1.494000000000000000e+03 6.970232391357421875e+01 2.037315559387207031e+01 3.851325018331408501e-03 1.062600135803222656e+01 3.188956022262573242e+00 -8.671762421727180481e-03
1.495000000000000000e+03 7.113507843017578125e+01 2.056353187561035156e+01 6.340052187442779541e-02 9.955216407775878906e+00 3.005585193634033203e+00 -6.269058585166931152e-02
1.496000000000000000e+03 7.041163635253906250e+01 1.805981445312500000e+01 1.457485090941190720e-02 1.029103279113769531e+01 3.091682195663452148e+00 2.574053965508937836e-02
1.497000000000000000e+03 7.040888977050781250e+01 1.725353813171386719e+01 1.645536720752716064e-02 1.031108760833740234e+01 3.098263025283813477e+00 4.658643901348114014e-02
1.498000000000000000e+03 7.041565704345703125e+01 2.047693824768066406e+01 2.271477505564689636e-02 1.031363201141357422e+01 3.100903987884521484e+00 -3.956664726138114929e-02
1.499000000000000000e+03 6.970204162597656250e+01 1.876285362243652344e+01 3.945586271584033966e-03 1.061075115203857422e+01 3.184408903121948242e+00 5.684876814484596252e-03
1.500000000000000000e+03 7.041446685791015625e+01 1.967084121704101562e+01 1.656378060579299927e-02 1.029026031494140625e+01 3.092047214508056641e+00 -1.042395737022161484e-02
1.501000000000000000e+03 7.041328430175781250e+01 1.886488914489746094e+01 1.151268556714057922e-02 1.028447437286376953e+01 3.088796138763427734e+00 6.544656120240688324e-03
1.502000000000000000e+03 4.001339721679687500e+01 -3.275202178955078125e+01 -2.954280376434326172e-01 -6.210811138153076172e-01 -2.749527394771575928e-01 -4.074535667896270752e-01
1.503000000000000000e+03 4.461592102050781250e+01 -2.449152374267578125e+01 -1.161744147539138794e-01 -4.470373690128326416e-01 -1.689635366201400757e-01 -5.474137663841247559e-01
1.504000000000000000e+03 4.211693572998046875e+01 -2.809257888793945312e+01 -6.302421540021896362e-02 -1.803438425064086914e+00 -5.599387884140014648e-01 -2.596763968467712402e-01
1.505000000000000000e+03 1.788947486877441406e+01 -7.990872383117675781e+00 -1.101633461075834930e-05 -3.945483058487297967e-06 -4.488545528147369623e-06 -2.921914074249798432e-06
1.506000000000000000e+03 4.165783691406250000e+01 -3.190346145629882812e+01 -2.265487313270568848e-01 -1.029314637184143066e+00 -3.767590224742889404e-01 -3.587897121906280518e-01
1.507000000000000000e+03 1.404928588867187500e+01 -3.032797622680664062e+01 3.878974821418523788e-03 3.947171499021351337e-04 1.282107550650835037e-03 -5.312443245202302933e-04
1.508000000000000000e+03 1.363856983184814453e+01 -3.119872093200683594e+01 3.802543040364980698e-03 -3.885098558384925127e-04 1.024210010655224323e-03 5.334755987860262394e-04
1.509000000000000000e+03 1.651061439514160156e+01 -3.094239425659179688e+01 9.328349493443965912e-03 -8.512809290550649166e-05 2.772966399788856506e-03 -5.366237019188702106e-04
1.510000000000000000e+03 1.806955337524414062e+01 -3.185585784912109375e+01 1.100690290331840515e-02 6.430876092053949833e-04 3.494997275993227959e-03 1.837108167819678783e-03
1.511000000000000000e+03 2.604234123229980469e+01 -3.225173568725585938e+01 2.482658252120018005e-02 -5.955063970759510994e-04 7.269322872161865234e-03 2.353183459490537643e-03
1.512000000000000000e+03 2.532860183715820312e+01 -3.121789360046386719e+01 2.969073504209518433e-02 -3.155817103106528521e-04 8.812545798718929291e-03 -7.550335139967501163e-04
1.513000000000000000e+03 4.236086273193359375e+01 -3.135369300842285156e+01 -2.296491116285324097e-01 -9.671773314476013184e-01 -3.590479493141174316e-01 -1.866436749696731567e-01
1.514000000000000000e+03 1.008686065673828125e+01 -1.865971183776855469e+01 -8.631944365333765745e-05 -5.469632742460817099e-05 -4.230473132338374853e-05 7.148077565943822265e-05
1.515000000000000000e+03 1.642924499511718750e+01 -3.179706764221191406e+01 8.030354976654052734e-03 3.966144286096096039e-04 2.528090728446841240e-03 1.741529093123972416e-03
1.516000000000000000e+03 2.358087348937988281e+01 -3.198584747314453125e+01 2.035230398178100586e-02 -1.367547782137989998e-03 5.695426836609840393e-03 3.039531875401735306e-03
1.517000000000000000e+03 2.436389350891113281e+01 -3.206755828857421875e+01 2.148940227925777435e-02 -3.753667406272143126e-04 6.334210745990276337e-03 2.322317566722631454e-03
1.518000000000000000e+03 8.332219123840332031e+00 -2.068201446533203125e+01 -1.032920772559009492e-04 -4.489186176215298474e-05 -4.445518061402253807e-05 3.373665094841271639e-05
1.519000000000000000e+03 3.490718841552734375e+01 -3.381945419311523438e+01 -1.068794429302215576e-01 -3.689593076705932617e-02 -4.313261061906814575e-02 -1.053285226225852966e-01
1.520000000000000000e+03 8.708885192871093750e+00 -2.345088005065917969e+01 -1.591531909070909023e-04 -2.226955621154047549e-05 -5.442682595457881689e-05 -8.440704732493031770e-06
1.521000000000000000e+03 1.523303794860839844e+01 -1.317492103576660156e+01 6.002587724651675671e-06 -2.524497358535882086e-05 -5.772715667262673378e-06 2.683505044842604548e-07
1.522000000000000000e+03 3.007758140563964844e+01 -3.165301132202148438e+01 4.327718168497085571e-02 9.929646039381623268e-04 1.328104361891746521e-02 -6.244971416890621185e-03
1.523000000000000000e+03 9.112380981445312500e+00 -1.896823883056640625e+01 -3.077198925893753767e-05 -1.099817018257454038e-05 -1.253104801435256377e-05 4.307259951019659638e-05
1.524000000000000000e+03 2.052091026306152344e+01 -3.111911773681640625e+01 1.873023808002471924e-02 4.075033648405224085e-04 5.741322878748178482e-03 1.179519575089216232e-03
1.525000000000000000e+03 2.932465362548828125e+01 -3.151303863525390625e+01 4.242599382996559143e-02 -1.275323331356048584e-03 1.234520133584737778e-02 -4.782919306308031082e-03
1.526000000000000000e+03 3.039845466613769531e+01 -3.276955795288085938e+01 2.193012088537216187e-02 -3.658640896901488304e-03 5.481444299221038818e-03 -5.809990223497152328e-03
1.527000000000000000e+03 1.094450855255126953e+01 -1.625032615661621094e+01 -2.274537655466701835e-05 -4.930260911351069808e-05 -2.161439624615013599e-05 4.208296741126105189e-05
1.528000000000000000e+03 1.609996414184570312e+01 -1.285545539855957031e+01 3.354702812430332415e-06 1.933251769514754415e-05 6.806165856687584892e-06 3.485204160824650899e-06
1.529000000000000000e+03 2.199454498291015625e+01 -3.204883956909179688e+01 1.723117567598819733e-02 -4.849738033954054117e-04 5.023860372602939606e-03 2.738413633778691292e-03
1.530000000000000000e+03 2.918110466003417969e+01 -3.223237228393554688e+01 3.222646564245223999e-02 -7.856797892600297928e-04 9.432235732674598694e-03 -1.865551574155688286e-03
1.531000000000000000e+03 3.924821472167968750e+01 -3.292819213867187500e+01 -3.557276725769042969e-01 -4.379913210868835449e-01 -2.381156980991363525e-01 -3.853116035461425781e-01
1.532000000000000000e+03 1.554666519165039062e+01 -3.168366241455078125e+01 6.575929932296276093e-03 -2.357132761972025037e-04 1.902065007016062737e-03 1.311550848186016083e-03
1.533000000000000000e+03 2.518074989318847656e+01 -3.216614151000976562e+01 2.343366295099258423e-02 -1.594882574863731861e-03 6.551634054630994797e-03 2.165891695767641068e-03
1.534000000000000000e+03 1.014680671691894531e+01 -2.833367156982421875e+01 4.311661468818783760e-04 5.085150769446045160e-05 1.446052920073270798e-04 8.727461681701242924e-05
1.535000000000000000e+03 1.073466682434082031e+01 -2.895917129516601562e+01 5.269395769573748112e-04 -1.968513097381219268e-04 9.902648889692500234e-05 -2.329501876374706626e-04
1.536000000000000000e+03 8.084415435791015625e+00 -2.252739143371582031e+01 -1.572725013829767704e-04 3.006379665748681873e-05 -3.816261232714168727e-05 6.054838377167470753e-05
1.537000000000000000e+03 7.936147212982177734e+00 -2.346675872802734375e+01 1.690323406364768744e-04 -1.154939091065898538e-04 1.606153091415762901e-05 2.862837573047727346e-05
1.538000000000000000e+03 3.299726486206054688e+01 -3.363597488403320312e+01 -2.708242088556289673e-02 -9.378395043313503265e-03 -1.093824487179517746e-02 -3.617293760180473328e-02
1.539000000000000000e+03 3.395417785644531250e+01 -3.374055480957031250e+01 -6.133963912725448608e-02 -1.942203752696514130e-02 -2.422850206494331360e-02 -6.580152362585067749e-02
1.540000000000000000e+03 2.848259353637695312e+01 -3.221923828125000000e+01 3.082699142396450043e-02 -2.315226709470152855e-03 8.553529158234596252e-03 -1.125422655604779720e-03
1.541000000000000000e+03 3.205628585815429688e+01 -3.346366500854492188e+01 -6.622464861720800400e-03 -5.220915190875530243e-03 -3.553014015778899193e-03 -2.123865112662315369e-02
1.542000000000000000e+03 3.582475280761718750e+01 -3.377579498291015625e+01 -1.486710458993911743e-01 -6.730555742979049683e-02 -6.479298323392868042e-02 -1.383455842733383179e-01
1.543000000000000000e+03 1.282631397247314453e+01 -3.066628646850585938e+01 2.792108105495572090e-03 5.619503644993528724e-05 8.544909069314599037e-04 3.447211929596960545e-04
1.544000000000000000e+03 9.603896141052246094e+00 -2.768545532226562500e+01 -1.150706157204695046e-05 -1.355602435069158673e-04 -4.412019188748672605e-05 -1.341790630249306560e-04
1.545000000000000000e+03 4.220527648925781250e+01 -2.577753257751464844e+01 -2.559715881943702698e-02 -8.003252148628234863e-01 -2.477767020463943481e-01 -1.334866434335708618e-01
1.546000000000000000e+03 9.561452865600585938e+00 -1.824682998657226562e+01 3.128540629404596984e-05 3.053394175367429852e-05 1.854580477811396122e-05 -3.671214653877541423e-05
1.547000000000000000e+03 1.000625228881835938e+01 -1.756755065917968750e+01 -3.009400825249031186e-05 -4.230769627611152828e-05 -2.172051063098479062e-05 4.184712815913371742e-05
1.548000000000000000e+03 4.299028015136718750e+01 -2.593756675720214844e+01 -3.898328635841608047e-03 -7.843394279479980469e-01 -2.364713251590728760e-01 -3.247898817062377930e-01
1.549000000000000000e+03 2.690126228332519531e+01 -3.226768493652343750e+01 2.609846927225589752e-02 -1.014434034004807472e-03 7.525210734456777573e-03 1.130930031649768353e-03
1.550000000000000000e+03 1.278808975219726562e+01 -1.430828762054443359e+01 -4.941713086736854166e-06 2.507004683138802648e-05 6.038500487193232402e-06 -1.932078339450526983e-05
1.551000000000000000e+03 4.303728485107421875e+01 -2.668839454650878906e+01 -5.606343597173690796e-02 -1.024030685424804688e+00 -3.240282535552978516e-01 -4.280412197113037109e-01
1.552000000000000000e+03 4.616048431396484375e+01 -2.434387016296386719e+01 -1.994281113147735596e-01 -3.429419100284576416e-01 -1.627110093832015991e-01 -6.601904034614562988e-01
1.553000000000000000e+03 1.962147140502929688e+01 -3.189612388610839844e+01 1.381499692797660828e-02 5.606522317975759506e-04 4.312695004045963287e-03 2.646756358444690704e-03
1.554000000000000000e+03 1.884411048889160156e+01 -3.184839439392089844e+01 1.256888918578624725e-02 2.864890266209840775e-04 3.856613300740718842e-03 2.117578638717532158e-03
1.555000000000000000e+03 6.817045211791992188e+00 -1.846071600914001465e+00 -4.814393378183012828e-06 -3.490788685667212121e-06 -2.491554596417699941e-06 -3.899683633790118620e-06
1.556000000000000000e+03 1.004251098632812500e+01 -3.562976121902465820e+00 9.875434443529229611e-06 5.517988938663620502e-06 4.618027105607325211e-06 4.617238573700888082e-06
1.557000000000000000e+03 6.014816284179687500e+00 -1.849409818649291992e+00 5.033327397541143000e-06 2.828148808475816622e-06 2.358442998229293153e-06 3.776235189434373751e-06
1.558000000000000000e+03 7.488012790679931641e+00 -2.543945550918579102e+00 -6.136214324214961380e-06 -3.878014922520378605e-06 -3.004268819495337084e-06 -4.719723619928117841e-06
1.559000000000000000e+03 6.709388732910156250e+00 -2.544506072998046875e+00 6.503070380858844146e-06 3.302431196061661467e-06 2.941650564025621861e-06 4.859894943365361542e-06
1.560000000000000000e+03 5.126137256622314453e+00 -2.565957546234130859e+00 7.268025001394562423e-06 2.108968374159303494e-06 2.813098035403527319e-06 4.438943051354726776e-06
1.561000000000000000e+03 1.823397874832153320e+00 -7.288280010223388672e+00 2.356938057346269488e-05 1.006482762022642419e-06 7.372758773271925747e-06 4.232607352605555207e-06
1.562000000000000000e+03 1.992919683456420898e+00 -1.873332023620605469e+00 -5.389111720432993025e-06 -5.163964260646025650e-07 -1.771652364368492272e-06 -1.487784857090446167e-06
1.563000000000000000e+03 1.099243402481079102e+00 -5.001861572265625000e+00 1.504792999185156077e-05 5.332173032002174295e-07 4.674344381783157587e-06 2.562158215368981473e-06
1.564000000000000000e+03 1.130432605743408203e+00 -3.430560111999511719e+00 9.984180906030815095e-06 3.748232870748324785e-07 3.107701104454463348e-06 1.893432454380672425e-06
1.565000000000000000e+03 6.074920272827148438e+01 -1.862825012207031250e+01 -4.868501722812652588e-01 1.296791791915893555e+00 2.429824918508529663e-01 7.643354535102844238e-01
1.566000000000000000e+03 6.401939392089843750e+01 -1.695403099060058594e+01 3.800452351570129395e-01 9.403993487358093262e-01 3.961333930492401123e-01 7.711881995201110840e-01
1.567000000000000000e+03 6.346152877807617188e+01 -1.654084587097167969e+01 5.267708897590637207e-01 9.300888180732727051e-01 4.370579123497009277e-01 7.923594117164611816e-01
1.568000000000000000e+03 6.431650543212890625e+01 -1.531887626647949219e+01 6.461992859840393066e-01 1.092014193534851074e+00 5.214640498161315918e-01 8.181802630424499512e-01
1.569000000000000000e+03 6.479562377929687500e+01 -1.478144550323486328e+01 6.478937864303588867e-01 1.255968570709228516e+00 5.711587071418762207e-01 7.883058190345764160e-01
1.570000000000000000e+03 6.387551879882812500e+01 -1.590169143676757812e+01 6.191022396087646484e-01 9.860153794288635254e-01 4.815352857112884521e-01 8.479071855545043945e-01
1.571000000000000000e+03 6.527771759033203125e+01 -1.428020381927490234e+01 6.279522180557250977e-01 1.473844528198242188e+00 6.305390596389770508e-01 7.312740087509155273e-01
1.572000000000000000e+03 5.655610275268554688e+01 -2.044641876220703125e+01 -1.369421243667602539e+00 4.148569405078887939e-01 -2.863692939281463623e-01 2.037245929241180420e-01
1.573000000000000000e+03 5.935407638549804688e+01 -1.961918449401855469e+01 -9.251146316528320312e-01 1.019284248352050781e+00 2.825087495148181915e-02 7.889993190765380859e-01
1.574000000000000000e+03 5.977272415161132812e+01 -2.258311271667480469e+01 -3.201764523983001709e-01 1.354265570640563965e+00 3.102267384529113770e-01 9.972425699234008789e-01
1.575000000000000000e+03 5.571120452880859375e+01 -2.131379318237304688e+01 -1.119022250175476074e+00 4.517892003059387207e-01 -2.001699209213256836e-01 1.138003543019294739e-01
1.576000000000000000e+03 5.720744705200195312e+01 -2.111737060546875000e+01 -9.930506348609924316e-01 7.844385504722595215e-01 -6.258363276720046997e-02 5.123120546340942383e-01
1.577000000000000000e+03 1.888294029235839844e+01 -1.280509471893310547e+01 5.372393161451327614e-07 -1.043007432599551976e-05 -2.967850605273270048e-06 -5.563066679314943030e-06
1.578000000000000000e+03 1.993699264526367188e+01 -1.049921131134033203e+01 1.034610249917022884e-05 2.821597945512621664e-06 3.950310201616957784e-06 3.416413164814002812e-06
1.579000000000000000e+03 2.058406066894531250e+01 -1.280800819396972656e+01 -6.886818027851404622e-06 -1.662787872191984206e-05 -7.054408797557698563e-06 -2.659613983269082382e-06
1.580000000000000000e+03 2.141176986694335938e+01 -1.400438022613525391e+01 -8.688581146998330951e-06 -6.725076218572212383e-06 -4.624097527994308621e-06 -5.733926172979408875e-06
1.581000000000000000e+03 2.154249382019042969e+01 -1.307186508178710938e+01 -7.980285772646311671e-06 6.614021685891202651e-08 -2.374243649683194235e-06 1.067212224370450713e-06
1.582000000000000000e+03 1.191585826873779297e+01 2.075783014297485352e+00 9.698561188997700810e-05 1.856145536294206977e-05 3.466412090347148478e-05 -5.307403625920414925e-05
1.583000000000000000e+03 1.344568061828613281e+01 1.312967061996459961e+00 1.026254394673742354e-04 1.239385528606362641e-05 3.450578878982923925e-05 -4.758265640703029931e-05
1.584000000000000000e+03 1.419431686401367188e+01 9.387083053588867188e-01 8.346816321136429906e-05 1.677976615610532463e-05 3.007437953783664852e-05 -2.883759043470490724e-05
1.585000000000000000e+03 6.179352188110351562e+01 -2.255331230163574219e+01 -3.991254866123199463e-01 7.469325661659240723e-01 1.043421253561973572e-01 7.612683176994323730e-01
1.586000000000000000e+03 6.010690307617187500e+01 -2.018366432189941406e+01 -8.997837305068969727e-01 1.296566128730773926e+00 1.190347075462341309e-01 9.590925574302673340e-01
1.587000000000000000e+03 5.968690109252929688e+01 -2.081141662597656250e+01 -8.397424817085266113e-01 1.278161883354187012e+00 1.315257996320724487e-01 9.679035544395446777e-01
1.588000000000000000e+03 6.328915023803710938e+01 -2.011223602294921875e+01 -7.697653174400329590e-01 9.001328349113464355e-01 3.911026194691658020e-02 7.753543257713317871e-01
1.589000000000000000e+03 6.197332382202148438e+01 -1.855029869079589844e+01 -3.339245319366455078e-01 1.211720824241638184e+00 2.633388638496398926e-01 7.732108235359191895e-01
1.590000000000000000e+03 4.260840988159179688e+01 -2.358720207214355469e+01 -3.732961788773536682e-02 -2.836034595966339111e-01 -9.627992659807205200e-02 -1.753484159708023071e-01
1.591000000000000000e+03 4.310744476318359375e+01 -2.527913093566894531e+01 -4.439751058816909790e-02 -6.501452922821044922e-01 -2.083628475666046143e-01 -3.742163777351379395e-01
1.592000000000000000e+03 3.699703931808471680e+00 -4.165427017211914062e+01 -2.155538968509063125e-04 1.076860469765961170e-03 2.583919558674097061e-04 1.831863337429240346e-04
1.593000000000000000e+03 4.216318130493164062e+01 -2.377399253845214844e+01 -7.828995585441589355e-03 -2.607269585132598877e-01 -8.056678622961044312e-02 -1.087300553917884827e-01
1.594000000000000000e+03 4.248922348022460938e+01 -2.442431449890136719e+01 -2.725986205041408539e-02 -4.107666611671447754e-01 -1.314079612493515015e-01 -1.703986227512359619e-01
1.595000000000000000e+03 2.097208595275878906e+01 -1.210075569152832031e+01 -8.203427569242194295e-06 -7.362033102253917605e-06 -4.669638201448833570e-06 -4.758775048685492948e-06
1.596000000000000000e+03 1.244137763977050781e+01 -1.356171607971191406e+01 2.844078153430018574e-05 7.381071554846130311e-06 1.074655574484495446e-05 5.640451945509994403e-06
1.597000000000000000e+03 1.064204788208007812e+01 -3.737837553024291992e+00 -9.526957910566125065e-06 -5.704405339201912284e-06 -4.569409156829351559e-06 -4.929111128149088472e-06
1.598000000000000000e+03 1.238621139526367188e+01 -4.475816249847412109e+00 8.726578016649000347e-06 6.131484497018391266e-06 4.457418981473892927e-06 3.857673164020525292e-06
1.599000000000000000e+03 1.658365249633789062e+01 -8.510505676269531250e+00 1.477931073168292642e-05 4.599095973389921710e-06 5.813521966047119349e-06 2.994355781993363053e-06
1.600000000000000000e+03 1.742301750183105469e+01 -7.517507076263427734e+00 1.012219945550896227e-05 4.607067239703610539e-06 4.418780008563771844e-06 2.897420472436351702e-06
1.601000000000000000e+03 1.387566089630126953e+01 -6.905189037322998047e+00 1.275789509236346930e-05 4.151230314164422452e-06 5.072737621958367527e-06 4.290974629839183763e-06
1.602000000000000000e+03 1.379924774169921875e+01 -4.559151649475097656e+00 -7.668502803426235914e-06 -6.315789050859166309e-06 -4.195287601760355756e-06 -3.589316975194378756e-06
1.603000000000000000e+03 1.694413185119628906e+01 -7.050364494323730469e+00 -9.312473594036418945e-06 -5.308226263878168538e-06 -4.386210093798581511e-06 -2.909521981564466842e-06
1.604000000000000000e+03 6.567002868652343750e+01 -1.203838539123535156e+01 6.063926219940185547e-01 1.855033755302429199e+00 7.384278774261474609e-01 8.017478585243225098e-01
1.605000000000000000e+03 4.635526275634765625e+01 -2.318152618408203125e+01 -3.819809257984161377e-01 -2.742224037647247314e-01 -1.968609988689422607e-01 -6.134862899780273438e-01
1.606000000000000000e+03 4.777962875366210938e+01 -2.358433532714843750e+01 -3.696686923503875732e-01 -2.392523139715194702e-01 -1.826763004064559937e-01 -6.980389356613159180e-01
1.607000000000000000e+03 3.010299110412597656e+01 -1.614447593688964844e+01 -4.831912065128562972e-06 6.727507297910051420e-06 5.686785584657627624e-07 6.801932158850831911e-06
1.608000000000000000e+03 3.196728134155273438e+01 -1.725914573669433594e+01 -9.620547643862664700e-06 6.607166596950264648e-06 -9.040142003868822940e-07 4.231360890116775408e-06
1.609000000000000000e+03 4.312796783447265625e+01 -1.897309112548828125e+01 -5.749184310843702406e-06 -3.858732725348090753e-06 -2.882374928958597593e-06 -1.668643449193041306e-06
1.610000000000000000e+03 4.164514160156250000e+01 -1.779989814758300781e+01 -9.412990038981661201e-06 -5.936686193308560178e-06 -4.604903097060741857e-06 -3.176314976371941157e-06
1.611000000000000000e+03 1.490060710906982422e+01 -5.318058490753173828e+00 -7.531632945756427944e-06 -6.123827461124164984e-06 -4.096638349437853321e-06 -3.646826826297910884e-06
1.612000000000000000e+03 1.456262683868408203e+01 -5.857837200164794922e+00 9.178229447570629418e-06 5.616186626866692677e-06 4.438324594957521185e-06 3.660924221549066715e-06
1.613000000000000000e+03 1.403520107269287109e+01 -5.474346637725830078e+00 -9.494114237895701081e-06 -5.554647941607981920e-06 -4.514628926699515432e-06 -3.620908728407812305e-06
1.614000000000000000e+03 1.645615959167480469e+01 -6.594657897949218750e+00 8.531132152711506933e-06 5.960286671324865893e-06 4.347425601736176759e-06 3.068489604629576206e-06
1.615000000000000000e+03 1.123083019256591797e+01 -3.949624061584472656e+00 9.219689673045650125e-06 5.800266080768778920e-06 4.505986908043269068e-06 4.802418061444768682e-06
1.616000000000000000e+03 7.034233093261718750e+01 1.399024009704589844e+01 3.762854933738708496e-01 9.868224143981933594e+00 3.073353052139282227e+00 1.334045082330703735e-01
1.617000000000000000e+03 7.025823211669921875e+01 1.241434383392333984e+01 -4.887652099132537842e-01 9.478624343872070312e+00 2.696957826614379883e+00 -3.262275457382202148e-02
1.618000000000000000e+03 1.877014160156250000e+01 -8.951961517333984375e+00 -1.140317726822104305e-05 -2.866913973775808699e-06 -4.281027486285893247e-06 -3.591114364098757505e-06
1.619000000000000000e+03 1.745473670959472656e+01 -8.467580795288085938e+00 1.205265107273589820e-05 4.187521426501916721e-06 4.872051704296609387e-06 2.468130787747213617e-06
1.620000000000000000e+03 1.745939254760742188e+01 -9.417255401611328125e+00 1.367029562970856205e-05 4.657521003537112847e-06 5.498345217347377911e-06 1.486424253016593866e-06
1.621000000000000000e+03 1.714038085937500000e+01 -1.187089252471923828e+01 -9.788469469640403986e-06 -1.109233562601730227e-05 -6.264241619646782055e-06 -1.557460109324892983e-06
1.622000000000000000e+03 1.975311851501464844e+01 -1.229253387451171875e+01 -2.780202294161426835e-06 5.046755177318118513e-06 6.799658649470075034e-07 -1.070342364073439967e-06
1.623000000000000000e+03 6.525897216796875000e+01 -2.152998542785644531e+01 -1.773996353149414062e+00 2.223414182662963867e-01 -4.654964804649353027e-01 -7.065703719854354858e-02
1.624000000000000000e+03 6.669797515869140625e+01 -2.071615409851074219e+01 -2.012540102005004883e+00 -1.251759231090545654e-01 -6.413148045539855957e-01 2.885114252567291260e-01
1.625000000000000000e+03 7.033801269531250000e+01 1.007707405090332031e+01 -4.304457902908325195e-01 9.448024749755859375e+00 2.705273866653442383e+00 -3.495126664638519287e-01
1.626000000000000000e+03 7.176766204833984375e+01 1.098936748504638672e+01 -6.008174419403076172e-01 9.556385040283203125e+00 2.686670064926147461e+00 -8.341243118047714233e-02
1.627000000000000000e+03 4.503890991210937500e+01 -2.356854820251464844e+01 -2.218546867370605469e-01 -3.340907096862792969e-01 -1.667836159467697144e-01 -5.330845117568969727e-01
1.628000000000000000e+03 4.641202926635742188e+01 -2.382480621337890625e+01 -2.677634060382843018e-01 -2.998079061508178711e-01 -1.702713817358016968e-01 -6.539191603660583496e-01
1.629000000000000000e+03 4.464054870605468750e+01 -2.541327667236328125e+01 -7.681188732385635376e-02 -5.428896546363830566e-01 -1.859104633331298828e-01 -5.822609066963195801e-01
1.630000000000000000e+03 2.743862533569335938e+01 -1.251093769073486328e+01 -6.638805189140839502e-06 1.164364675787510350e-05 1.501452288721338846e-06 1.133773093897616491e-05
1.631000000000000000e+03 2.945144653320312500e+01 -1.596456432342529297e+01 -1.618406713532749563e-05 -6.504699285869719461e-06 -6.806630153732839972e-06 2.381727199463057332e-06
1.632000000000000000e+03 2.280080604553222656e+01 -3.198117828369140625e+01 1.930846087634563446e-02 -5.603861063718795776e-04 5.624422337859869003e-03 3.066238947212696075e-03
1.633000000000000000e+03 2.463262939453125000e+01 -3.482362365722656250e+01 4.071829374879598618e-03 -2.300168154761195183e-03 5.314982845447957516e-04 4.466700833290815353e-03
1.634000000000000000e+03 3.215600204467773438e+01 -1.658754539489746094e+01 -1.486026030761422589e-05 -5.362628144212067127e-06 -6.066866717446828261e-06 7.492553777410648763e-07
1.635000000000000000e+03 4.920662307739257812e+01 -2.385985374450683594e+01 -3.083376288414001465e-01 -1.711467057466506958e-01 -1.438453048467636108e-01 -6.945686340332031250e-01
1.636000000000000000e+03 5.266440963745117188e+01 -1.429324913024902344e+01 8.867801625456195325e-06 5.601426437351619825e-06 4.340768555266549811e-06 7.697085493418853730e-06
1.637000000000000000e+03 5.128606414794921875e+01 -2.220923042297363281e+01 -9.402735829353332520e-01 -6.002973765134811401e-02 -3.000909984111785889e-01 -5.963349938392639160e-01
1.638000000000000000e+03 5.108472824096679688e+01 -1.324288082122802734e+01 -2.691582085390109569e-05 2.930929213107447140e-06 -7.195467787823872641e-06 -9.725738436827668920e-07
1.639000000000000000e+03 7.024993133544921875e+01 1.163647842407226562e+01 -6.384143829345703125e-01 9.010810852050781250e+00 2.511718988418579102e+00 -9.138575196266174316e-02
1.640000000000000000e+03 3.413722991943359375e+01 -1.749065017700195312e+01 -1.560678720124997199e-05 -6.250395017559640110e-06 -6.557154392794473097e-06 8.257891863650002051e-07
1.641000000000000000e+03 3.285214614868164062e+01 -1.669382858276367188e+01 -7.864214239816647023e-06 7.479431587853468955e-06 -1.154348368004320946e-07 3.785863327721017413e-06
1.642000000000000000e+03 2.801016235351562500e+01 -1.199775409698486328e+01 -4.261506546754390001e-06 -1.020304262056015432e-05 -4.339364750194363296e-06 2.701643779801088385e-06
1.643000000000000000e+03 2.608691024780273438e+01 -9.971054077148437500e+00 -4.502835054154274985e-06 9.101604518946260214e-06 1.379630930387065746e-06 7.769980584271252155e-06
1.644000000000000000e+03 2.678871917724609375e+01 -1.129092693328857422e+01 -6.144360668258741498e-06 1.058884026861051098e-05 1.333343675469222944e-06 1.022781361825764179e-05
1.645000000000000000e+03 2.774902725219726562e+01 -1.303321266174316406e+01 -4.486766556510701776e-06 -1.438878916815156117e-05 -5.662666808348149061e-06 1.617848511159536429e-06
1.646000000000000000e+03 2.711739158630371094e+01 -1.192037582397460938e+01 -4.422778147272765636e-06 -1.301855536439688876e-05 -5.232400326349306852e-06 3.328658976897713728e-06
1.647000000000000000e+03 3.099457550048828125e+01 -1.567234039306640625e+01 -4.064111180923646316e-06 8.596523912274278700e-06 1.359723796667822171e-06 6.668698460998712108e-06
1.648000000000000000e+03 5.128217315673828125e+01 -2.288481140136718750e+01 -6.328774094581604004e-01 -2.395140193402767181e-02 -1.970486342906951904e-01 -5.934928059577941895e-01
1.649000000000000000e+03 5.056490707397460938e+01 -2.300749397277832031e+01 -5.882019400596618652e-01 -7.442511618137359619e-02 -1.987881213426589966e-01 -6.430006623268127441e-01
1.650000000000000000e+03 5.029785537719726562e+01 -1.394293498992919922e+01 -2.464978570060338825e-05 5.276480351312784478e-06 -5.811991741211386397e-06 -4.209984126646304503e-06
1.651000000000000000e+03 5.145710754394531250e+01 -1.499669647216796875e+01 -9.631643479224294424e-06 -4.259956767782568932e-06 -4.167480256000999361e-06 -2.797286470013204962e-06
1.652000000000000000e+03 4.944475936889648438e+01 -1.675358009338378906e+01 -7.910038220870774239e-06 -1.062650312633195426e-06 -2.691806457733036950e-06 -2.949423787867999636e-06
1.653000000000000000e+03 2.500319480895996094e+01 -3.309003829956054688e+01 1.592816784977912903e-02 -1.083516515791416168e-03 4.453395493328571320e-03 4.024099092930555344e-03
1.654000000000000000e+03 3.061713409423828125e+01 -3.419729232788085938e+01 -3.900971496477723122e-03 -1.337898708879947662e-02 -5.183987319469451904e-03 -1.339877862483263016e-02
1.655000000000000000e+03 4.111146163940429688e+01 1.426813793182373047e+01 -2.685149374883621931e-04 3.977890883106738329e-04 3.878224742948077619e-05 2.417088689981028438e-04
1.656000000000000000e+03 5.421585845947265625e+01 -2.161581420898437500e+01 -1.131910204887390137e+00 2.287245094776153564e-01 -2.709557116031646729e-01 -2.252388149499893188e-01
1.657000000000000000e+03 5.045798492431640625e+01 -1.023607349395751953e+01 -4.388550587464123964e-05 -5.422155027190456167e-06 -1.479229740652954206e-05 -6.309406217042123899e-06
1.658000000000000000e+03 4.781350708007812500e+01 -2.129847288131713867e+00 1.206551823997870088e-04 9.780315849639009684e-06 3.913064938387833536e-05 5.582397716352716088e-05
1.659000000000000000e+03 4.842360305786132812e+01 -5.874990463256835938e+00 7.632888446096330881e-05 3.390872507225139998e-06 2.391592715866863728e-05 3.495948112686164677e-05
1.660000000000000000e+03 5.748999786376953125e+01 -2.588563156127929688e+01 1.355977773666381836e+00 2.164322614669799805e+00 1.056090116500854492e+00 1.456329941749572754e+00
1.661000000000000000e+03 5.273716354370117188e+01 -2.328990554809570312e+01 -4.190425276756286621e-01 2.603208720684051514e-01 -4.761649668216705322e-02 -3.976778686046600342e-01
1.662000000000000000e+03 5.575137710571289062e+01 -2.674784088134765625e+01 9.841158986091613770e-01 2.324337482452392578e+00 9.925360083580017090e-01 7.713051438331604004e-01
1.663000000000000000e+03 5.773009109497070312e+01 -2.187670326232910156e+01 -6.951134800910949707e-01 1.115850090980529785e+00 1.262210011482238770e-01 7.046852707862854004e-01
1.664000000000000000e+03 4.728592681884765625e+01 -1.720979118347167969e+01 3.299640638942946680e-06 2.966181682495516725e-06 1.879746719168906566e-06 3.162565462844213471e-06
1.665000000000000000e+03 4.873298263549804688e+01 -1.688819313049316406e+01 6.375727025442756712e-06 2.177331168695673114e-07 1.978037971639423631e-06 2.039943638010299765e-06
1.666000000000000000e+03 3.171720695495605469e+01 -3.471246719360351562e+01 -2.150911092758178711e-02 -2.482536993920803070e-02 -1.390034426003694534e-02 -3.425716608762741089e-02
1.667000000000000000e+03 4.547559738159179688e+01 1.026276230812072754e+00 1.292714732699096203e-04 4.080221697222441435e-05 5.102210707264021039e-05 8.625839836895465851e-05
1.668000000000000000e+03 4.999727249145507812e+01 -1.178242588043212891e+01 3.691781603265553713e-05 -4.319480467529501766e-06 9.779500032891519368e-06 6.659514383500209078e-06
1.669000000000000000e+03 3.560382843017578125e+01 -1.695566940307617188e+01 -9.337182746094185859e-06 6.520157057821052149e-06 -8.451078201687778346e-07 1.420899252480012365e-06
1.670000000000000000e+03 4.510807800292968750e+01 1.713909983634948730e+00 -1.390022953273728490e-04 -8.396858174819499254e-05 -6.689126166747882962e-05 -7.956471381476148963e-05
1.671000000000000000e+03 2.824585533142089844e+01 -1.577226066589355469e+01 -2.756718913587974384e-06 -1.123144647863227874e-05 -4.196449481241870672e-06 4.964312211086507887e-06
1.672000000000000000e+03 2.771727180480957031e+01 -3.222544860839843750e+01 2.812062203884124756e-02 -7.317388080991804600e-04 8.216665126383304596e-03 4.585327405948191881e-04
1.673000000000000000e+03 1.016471385955810547e+01 -2.950821304321289062e+01 9.741963003762066364e-04 -7.093643489497480914e-06 2.901308180298656225e-04 1.714723184704780579e-04
1.674000000000000000e+03 4.530018234252929688e+01 -1.841420173645019531e+01 -5.055076712778827641e-07 4.384626663522794843e-06 1.163735646514396649e-06 1.612180426491249818e-06
1.675000000000000000e+03 4.375745391845703125e+01 -1.815846061706542969e+01 -5.541008249565493315e-06 -5.255057658359874040e-06 -3.238819772377610207e-06 -3.732570576175930910e-06
1.676000000000000000e+03 4.515866470336914062e+01 -1.779354476928710938e+01 -4.215471562929451466e-06 -5.459480689751217142e-06 -2.902485675804200582e-06 -4.838970653509022668e-06
1.677000000000000000e+03 4.886896133422851562e+01 -5.016491889953613281e+00 9.017049160320311785e-05 -2.513392928449320607e-06 2.629712980706244707e-05 3.258463038946501911e-05
1.678000000000000000e+03 4.949167633056640625e+01 3.164544105529785156e+01 3.687690244987607002e-03 2.347917063161730766e-03 1.810682239010930061e-03 6.753038149327039719e-03
1.679000000000000000e+03 2.978063774108886719e+01 -3.240016174316406250e+01 2.869731746613979340e-02 -3.995575476437807083e-03 7.410523016005754471e-03 -4.049104172736406326e-03
1.680000000000000000e+03 2.924670028686523438e+01 -3.292697525024414062e+01 1.970740035176277161e-02 -3.742696018889546394e-03 4.789411090314388275e-03 -1.637246226891875267e-03
1.681000000000000000e+03 4.097701263427734375e+01 -1.777982902526855469e+01 1.525595223483833252e-07 8.302017704409081489e-06 2.536373131079017185e-06 -2.207146394539449830e-07
1.682000000000000000e+03 7.018188476562500000e+01 -3.207111597061157227e+00 2.540177106857299805e-01 7.769882202148437500e+00 2.407170057296752930e+00 9.969902038574218750e-01
1.683000000000000000e+03 7.001309967041015625e+01 -1.436445236206054688e+00 4.722136855125427246e-01 9.121028900146484375e+00 2.877972602844238281e+00 1.382232308387756348e+00
1.684000000000000000e+03 3.354496002197265625e+01 -1.678120803833007812e+01 -1.533377144369296730e-05 -5.818037607241421938e-06 -6.345542715280316770e-06 1.082477297131845262e-06
1.685000000000000000e+03 7.221505737304687500e+01 -2.640204620361328125e+01 6.736075878143310547e-01 1.187959671020507812e+01 3.765961170196533203e+00 2.499126046895980835e-01
1.686000000000000000e+03 7.816519927978515625e+01 -2.673826789855957031e+01 2.114851623773574829e-01 8.000691413879394531e+00 2.463652849197387695e+00 1.131851691752672195e-02
1.687000000000000000e+03 4.669970703125000000e+01 3.051057243347167969e+01 2.376081887632608414e-03 7.896968745626509190e-04 9.497336577624082565e-04 3.714258084073662758e-03
1.688000000000000000e+03 4.751641082763671875e+01 -1.425288677215576172e+00 -1.297257258556783199e-04 -5.351710569811984897e-05 -5.497285019373521209e-05 -5.136743129696696997e-05
1.689000000000000000e+03 4.682725524902343750e+01 -1.686794161796569824e+00 1.083571696653962135e-04 2.623790533107239753e-05 4.037852340843528509e-05 6.213708547875285149e-05
1.690000000000000000e+03 4.248138046264648438e+01 8.524288177490234375e+00 -3.076953289564698935e-04 4.599148451234214008e-05 -7.851114787627011538e-05 -6.303683039732277393e-05
1.691000000000000000e+03 4.245997619628906250e+01 6.734006881713867188e+00 2.157332055503502488e-04 2.998657873831689358e-05 7.371593528660014272e-05 1.059068963513709605e-04
1.692000000000000000e+03 4.583531951904296875e+01 3.393169641494750977e-01 -1.208235116791911423e-04 -7.479298074031248689e-05 -5.868494554306380451e-05 -6.934465636732056737e-05
1.693000000000000000e+03 4.887513351440429688e+01 -7.316028118133544922e+00 6.451424997067078948e-05 1.866741854428255465e-06 1.991429780900944024e-05 2.379370926064439118e-05
1.694000000000000000e+03 4.408798217773437500e+01 -2.496225738525390625e+01 -8.621573448181152344e-02 -5.109456777572631836e-01 -1.791484206914901733e-01 -5.055384635925292969e-01
1.695000000000000000e+03 6.846950531005859375e+01 3.240881729125976562e+01 -2.727386951446533203e-01 4.445309638977050781e+00 1.251771330833435059e+00 -8.906694054603576660e-01
1.696000000000000000e+03 6.793177032470703125e+01 3.325679397583007812e+01 -3.141258060932159424e-01 3.676088571548461914e+00 1.008588790893554688e+00 -8.077377676963806152e-01
1.697000000000000000e+03 4.383844375610351562e+01 5.533619403839111328e+00 -2.439551899442449212e-04 -6.907011993462219834e-05 -9.390759078087285161e-05 -1.029461636790074408e-04
1.698000000000000000e+03 4.357507324218750000e+01 4.513790130615234375e+00 -1.813667622627690434e-04 -6.021844092174433172e-05 -7.247555913636460900e-05 -9.333777416031807661e-05
1.699000000000000000e+03 5.297182846069335938e+01 -2.990280723571777344e+01 9.733373522758483887e-01 1.356305122375488281e+00 6.988927125930786133e-01 2.283916622400283813e-01
1.700000000000000000e+03 5.452022933959960938e+01 -3.085843849182128906e+01 8.862661123275756836e-01 2.426720857620239258e+00 9.938961267471313477e-01 2.457236498594284058e-01
1.701000000000000000e+03 5.018025875091552734e+00 2.575640916824340820e+00 2.700019103940576315e-05 2.563874886618577875e-06 8.869219527696259320e-06 -1.803840859793126583e-05
1.702000000000000000e+03 2.675720691680908203e+00 5.639290332794189453e+00 -2.644162805154337548e-06 2.953812690975610167e-05 8.068189345067366958e-06 -1.991556200664490461e-05
1.703000000000000000e+03 1.899293422698974609e+00 5.742828369140625000e+00 1.624880678718909621e-05 2.280144690303131938e-05 1.171507574326824397e-05 -1.721036642265971750e-05
1.704000000000000000e+03 2.690549850463867188e+00 2.616777658462524414e+00 1.800043150979036000e-06 1.025621713779401034e-05 3.616878075263230130e-06 -6.616209248022641987e-06
1.705000000000000000e+03 3.469248771667480469e+00 2.600296497344970703e+00 1.615189466974698007e-05 4.272381829650839791e-06 6.127283086243551224e-06 -1.001861619442934170e-05
1.706000000000000000e+03 4.958085536956787109e+00 3.295187950134277344e+00 1.636155866435728967e-05 2.131300243490841240e-05 1.130236887547653168e-05 -2.770848004729487002e-05
1.707000000000000000e+03 5.716988563537597656e+00 3.279153585433959961e+00 3.565122460713610053e-05 6.854440925962990150e-06 1.275169961445499212e-05 -2.759898779913783073e-05
1.708000000000000000e+03 5.792327404022216797e+00 2.568676471710205078e+00 2.301408494531642646e-05 1.933116072905249894e-05 1.270357370231067762e-05 -2.773053165583405644e-05
1.709000000000000000e+03 7.205385208129882812e+00 3.293364524841308594e+00 4.679552876041270792e-05 6.324826244963333011e-06 1.593610613781493157e-05 -3.775615550694055855e-05
1.710000000000000000e+03 2.519563293457031250e+01 -9.743125915527343750e+00 -4.761922809848329052e-06 4.530808382696704939e-06 -6.933429830269233207e-08 7.424025625368813053e-06
1.711000000000000000e+03 2.487303352355957031e+01 -7.907133579254150391e+00 1.056683231581700966e-05 -1.889943996502552181e-05 -2.499782112863613293e-06 3.940484020859003067e-06
1.712000000000000000e+03 9.751312255859375000e+00 2.794197559356689453e+00 6.055559424567036331e-05 1.065863671101396903e-05 2.136426883225794882e-05 -3.940989336115308106e-05
1.713000000000000000e+03 2.529990196228027344e+01 -8.599461555480957031e+00 -7.946554205773281865e-07 7.853896022425033152e-06 2.117772055498789996e-06 4.145169896219158545e-06
1.714000000000000000e+03 4.885115814208984375e+01 3.107931137084960938e+01 7.717133499681949615e-03 5.043600685894489288e-03 3.828220302239060402e-03 2.844075672328472137e-03
1.715000000000000000e+03 4.545123672485351562e+01 2.807388877868652344e+01 5.295962560921907425e-03 1.610539853572845459e-03 2.071950584650039673e-03 2.005887450650334358e-03
1.716000000000000000e+03 6.964384460449218750e+01 -9.664263725280761719e+00 6.428799778223037720e-02 4.817600727081298828e+00 1.464566588401794434e+00 3.281296193599700928e-01
1.717000000000000000e+03 7.175114440917968750e+01 1.176412105560302734e+01 -5.325794219970703125e-01 9.423899650573730469e+00 2.667396306991577148e+00 -1.779362857341766357e-01
1.718000000000000000e+03 1.825877547264099121e+00 -2.337075233459472656e+01 1.122483590734191239e-04 -1.156095731857931241e-05 3.020621988980565220e-05 4.042869022669037804e-06
1.719000000000000000e+03 2.552316665649414062e+00 -2.329568672180175781e+01 -1.314535184064880013e-04 1.032158252201043069e-05 -3.633958112914115191e-05 -3.878056668327189982e-05
1.720000000000000000e+03 4.818922424316406250e+01 -5.160294055938720703e+00 -7.967467536218464375e-05 -2.866292561520822346e-05 -3.250128065701574087e-05 -3.668504359666258097e-05
1.721000000000000000e+03 6.727960205078125000e+01 -8.270138740539550781e+00 4.330997169017791748e-01 3.433050870895385742e+00 1.159845113754272461e+00 1.101970911026000977e+00
1.722000000000000000e+03 4.364522552490234375e+01 -2.660479354858398438e+01 -1.268492937088012695e-01 -7.497417330741882324e-01 -2.629773020744323730e-01 -5.340073704719543457e-01
1.723000000000000000e+03 2.804993820190429688e+01 -1.431549453735351562e+01 4.027842805953696370e-06 8.785329555394127965e-06 3.843951617454877123e-06 1.369703568343538791e-05
1.724000000000000000e+03 7.181002044677734375e+01 -2.243041992187500000e+01 -6.327126622200012207e-01 8.130692481994628906e+00 2.249393939971923828e+00 -8.033207058906555176e-01
1.725000000000000000e+03 2.442069816589355469e+01 -6.048216819763183594e+00 1.750212868500966579e-05 7.913046829344239086e-06 7.624552381457760930e-06 -4.365409949969034642e-06
1.726000000000000000e+03 5.010583496093750000e+01 -1.252025985717773438e+01 -3.204901076969690621e-05 -2.906264398916391656e-06 -1.048658305080607533e-05 -8.171843546733725816e-06
1.727000000000000000e+03 5.097079467773437500e+01 -1.250110626220703125e+01 3.344523793202824891e-05 -3.436457063799025491e-06 9.002634214994031936e-06 4.044832166982814670e-06
1.728000000000000000e+03 5.929425811767578125e+01 -2.422735404968261719e+01 9.408676028251647949e-01 1.406201720237731934e+00 7.041208148002624512e-01 1.178331851959228516e+00
1.729000000000000000e+03 1.633723640441894531e+01 -2.810281515121459961e-01 9.585927182342857122e-05 6.799690481784637086e-07 2.896177284128498286e-05 -3.882561941281892359e-05
1.730000000000000000e+03 1.374409961700439453e+01 1.962563753128051758e+00 7.665698649361729622e-05 1.324497952737146989e-05 2.697058880585245788e-05 -3.367801036802120507e-05
1.731000000000000000e+03 1.702527236938476562e+01 -7.358842492103576660e-01 8.043006528168916702e-05 4.127384158891800325e-07 2.425284219498280436e-05 -1.398588847223436460e-05
1.732000000000000000e+03 1.700105667114257812e+01 9.462368488311767578e-01 1.126349161495454609e-04 -3.048769940505735576e-06 3.287584331701509655e-05 -3.774573633563704789e-05
1.733000000000000000e+03 1.268362998962402344e+01 1.683147549629211426e+00 7.468679541489109397e-05 2.408479303994681686e-05 2.963147562695667148e-05 -3.478373037069104612e-05
1.734000000000000000e+03 7.216865539550781250e+01 -2.821720504760742188e+01 1.337788224220275879e+00 1.055473613739013672e+01 3.567757368087768555e+00 8.035398721694946289e-01
1.735000000000000000e+03 8.993451118469238281e+00 -2.814580535888671875e+01 3.915367415174841881e-04 7.106622797437012196e-05 1.387808879371732473e-04 1.246783649548888206e-04
1.736000000000000000e+03 4.154000473022460938e+01 1.765805625915527344e+01 -1.431344717275351286e-04 6.949477829039096832e-04 1.655439991736784577e-04 5.201392923481762409e-04
1.737000000000000000e+03 4.139026260375976562e+01 1.682123374938964844e+01 6.822574650868773460e-04 6.629407871514558792e-04 4.035594756714999676e-04 3.992505662608891726e-04
1.738000000000000000e+03 5.691556167602539062e+01 -2.650481414794921875e+01 1.314718484878540039e+00 2.495308637619018555e+00 1.143008112907409668e+00 1.469648957252502441e+00
1.739000000000000000e+03 6.260642623901367188e+01 -2.252659416198730469e+01 -5.417401790618896484e-01 3.910104036331176758e-01 -4.521892592310905457e-02 4.260443747043609619e-01
1.740000000000000000e+03 6.016097259521484375e+01 -2.187082290649414062e+01 -5.843650698661804199e-01 1.334930181503295898e+00 2.251695543527603149e-01 1.019637942314147949e+00
1.741000000000000000e+03 5.421336746215820312e+01 3.556641006469726562e+01 -6.820644438266754150e-02 9.144766256213188171e-03 -1.771850325167179108e-02 1.423400640487670898e-02
1.742000000000000000e+03 2.818950271606445312e+01 -3.370023727416992188e+01 1.065837685018777847e-02 -4.153357818722724915e-03 1.951505662873387337e-03 3.264447150286287069e-04
1.743000000000000000e+03 1.898579978942871094e+01 -2.217649936676025391e+00 6.864578608656302094e-05 -5.161781700735446066e-06 1.904520104289986193e-05 -2.824485272867605090e-05
1.744000000000000000e+03 2.080644035339355469e+01 -3.881604909896850586e+00 4.647619789466261864e-05 -1.897092988656368107e-05 8.251580766227561980e-06 8.066288046393310651e-07
1.745000000000000000e+03 2.122213745117187500e+01 -3.341714382171630859e+00 5.133246304467320442e-05 -3.289062988187652081e-06 1.441301992599619552e-05 -1.914371750899590552e-05
1.746000000000000000e+03 2.180966567993164062e+01 -3.948239326477050781e+00 4.663435902330093086e-05 -2.519099507480859756e-05 6.433008820749819279e-06 2.717716142797144130e-06
1.747000000000000000e+03 7.145215606689453125e+01 6.074842453002929688e+00 4.204870164394378662e-01 1.070320987701416016e+01 3.337109088897705078e+00 -2.360891699790954590e-01
1.748000000000000000e+03 7.073221588134765625e+01 5.203334808349609375e+00 1.033967956900596619e-01 1.152456951141357422e+01 3.488389968872070312e+00 -7.664947211742401123e-02
1.749000000000000000e+03 4.249032211303710938e+01 1.841524887084960938e+01 -2.807217242661863565e-04 9.808015311136841774e-04 2.100239362334832549e-04 5.726940580643713474e-04
1.750000000000000000e+03 4.170995330810546875e+01 1.848904991149902344e+01 8.894792990759015083e-04 8.465012651868164539e-04 5.207941867411136627e-04 5.613052053377032280e-04
1.751000000000000000e+03 4.304129791259765625e+01 2.548213958740234375e+01 9.863040177151560783e-04 7.993170293048024178e-04 5.356863257475197315e-04 1.699537038803100586e-03
1.752000000000000000e+03 7.061777496337890625e+01 7.655124664306640625e+00 5.572796463966369629e-01 1.103676509857177734e+01 3.478213548660278320e+00 -3.885093927383422852e-01
1.753000000000000000e+03 2.527665376663208008e+00 -2.006688690185546875e+01 -1.021401840262115002e-04 8.155965929290687200e-07 -3.039737566723488271e-05 -2.121266697940882295e-05
1.754000000000000000e+03 1.871248245239257812e+01 -1.123587250709533691e+00 8.698103920323774219e-05 -5.515270004252670333e-06 2.443973062327131629e-05 -3.044922414119355381e-05
1.755000000000000000e+03 1.804914855957031250e+01 -6.205230355262756348e-01 7.949734572321176529e-05 -1.264622733287978917e-05 2.005533679039217532e-05 -8.428251021541655064e-06
1.756000000000000000e+03 4.629723739624023438e+01 2.766102409362792969e+01 1.940623391419649124e-03 2.775607164949178696e-03 1.414869097061455250e-03 3.846534062176942825e-03
1.757000000000000000e+03 7.112932586669921875e+01 2.219794273376464844e+01 1.718530058860778809e-01 1.000067329406738281e+01 3.051757812500000000e+00 -2.158497869968414307e-01
1.758000000000000000e+03 7.821827697753906250e+01 4.415171623229980469e+00 7.245075702667236328e-02 6.276919364929199219e+00 1.904811024665832520e+00 -4.171220585703849792e-02
1.759000000000000000e+03 5.586713409423828125e+01 -3.500391769409179688e+01 -1.261421144008636475e-01 1.659596443176269531e+00 4.600363075733184814e-01 -2.691081464290618896e-01
1.760000000000000000e+03 4.930696105957031250e+01 -8.769261360168457031e+00 5.352455991669557989e-05 -1.904340251712710597e-06 1.548606633150484413e-05 1.472530857427045703e-05
1.761000000000000000e+03 4.951467132568359375e+01 -9.517091751098632812e+00 -4.780623203259892762e-05 -9.075494745047762990e-06 -1.706451803329400718e-05 -1.269256699742982164e-05
1.762000000000000000e+03 4.382035446166992188e+01 1.026575803756713867e+00 -7.392239058390259743e-05 -7.559799996670335531e-05 -4.485611862037330866e-05 -6.432784721255302429e-05
1.763000000000000000e+03 7.849944305419921875e+01 4.101948165893554688e+01 -4.426688328385353088e-02 8.728281021118164062e+00 2.605204343795776367e+00 8.291868120431900024e-02
1.764000000000000000e+03 7.892092895507812500e+01 1.975450134277343750e+01 1.182905863970518112e-02 6.203796863555908203e+00 1.864687800407409668e+00 1.174607779830694199e-02
1.765000000000000000e+03 7.820264434814453125e+01 1.824662017822265625e+01 1.456454675644636154e-02 6.539479732513427734e+00 1.966213345527648926e+00 -9.525470435619354248e-03
1.766000000000000000e+03 7.723355865478515625e+01 3.580215835571289062e+01 -1.313043832778930664e-01 8.024170875549316406e+00 2.367859840393066406e+00 3.248931467533111572e-01
1.767000000000000000e+03 7.879286956787109375e+01 3.098088455200195312e+01 -1.457659644074738026e-03 7.716788768768310547e+00 2.314599514007568359e+00 3.340987563133239746e-01
1.768000000000000000e+03 7.811334991455078125e+01 2.939413070678710938e+01 1.591182127594947815e-02 7.406163692474365234e+00 2.226622581481933594e+00 4.626508653163909912e-01
1.769000000000000000e+03 7.892773437500000000e+01 2.135133552551269531e+01 1.710521988570690155e-02 6.237709045410156250e+00 1.876444220542907715e+00 4.509035497903823853e-02
1.770000000000000000e+03 7.822076416015625000e+01 2.063678169250488281e+01 3.206034749746322632e-02 6.549873352050781250e+00 1.974580049514770508e+00 4.288173094391822815e-02
1.771000000000000000e+03 7.818180847167968750e+01 2.776306343078613281e+01 4.305157065391540527e-02 7.136751651763916016e+00 2.153940916061401367e+00 4.077042043209075928e-01
1.772000000000000000e+03 7.747218322753906250e+01 2.462214660644531250e+01 1.120901852846145630e-01 6.993726730346679688e+00 2.131745100021362305e+00 2.858371436595916748e-01
1.773000000000000000e+03 7.823159027099609375e+01 2.222025489807128906e+01 4.763074964284896851e-02 6.589766502380371094e+00 1.991219162940979004e+00 1.024538576602935791e-01
1.774000000000000000e+03 7.892717742919921875e+01 2.294360160827636719e+01 2.433703467249870300e-02 6.321969509124755859e+00 1.903891921043395996e+00 9.491848945617675781e-02
1.775000000000000000e+03 7.895346832275390625e+01 3.646664810180664062e+01 -1.877912878990173340e-02 8.729489326477050781e+00 2.613213062286376953e+00 1.247813999652862549e-01
1.776000000000000000e+03 7.784578704833984375e+01 3.832190704345703125e+01 -4.058286547660827637e-02 8.372542381286621094e+00 2.499588012695312500e+00 1.254578232765197754e-01
1.777000000000000000e+03 7.782744598388671875e+01 3.275521087646484375e+01 -5.802483111619949341e-02 7.880019664764404297e+00 2.346598386764526367e+00 4.581499993801116943e-01
1.778000000000000000e+03 7.819481658935546875e+01 1.584254169464111328e+01 -2.652484690770506859e-03 6.555171012878417969e+00 1.965755581855773926e+00 -2.420816756784915924e-02
1.779000000000000000e+03 7.891294860839843750e+01 1.253454208374023438e+01 -1.482998579740524292e-02 6.213772296905517578e+00 1.859682679176330566e+00 2.533594891428947449e-02
1.780000000000000000e+03 7.186285400390625000e+01 9.427818298339843750e+00 -2.166172415018081665e-01 9.660607337951660156e+00 2.833196878433227539e+00 1.044304966926574707e-01
1.781000000000000000e+03 7.819160461425781250e+01 1.342254734039306641e+01 -2.817155979573726654e-02 6.562642097473144531e+00 1.960341095924377441e+00 1.139499712735414505e-02
1.782000000000000000e+03 7.891172790527343750e+01 1.333734703063964844e+01 -1.045064069330692291e-02 6.227825641632080078e+00 1.865212440490722656e+00 9.143554605543613434e-03
1.783000000000000000e+03 7.819835662841796875e+01 1.019606590270996094e+01 -2.473206259310245514e-02 6.488577842712402344e+00 1.939153671264648438e+00 1.147754341363906860e-01
1.784000000000000000e+03 7.870053100585937500e+01 3.266447830200195312e+01 -2.453542686998844147e-02 8.056678771972656250e+00 2.409642934799194336e+00 3.183913826942443848e-01
1.785000000000000000e+03 7.778920745849609375e+01 -3.836462402343750000e+01 -3.568216040730476379e-02 8.977254867553710938e+00 2.682471752166748047e+00 -4.101132601499557495e-02
1.786000000000000000e+03 7.768554687500000000e+01 -4.089990997314453125e+01 -2.544675581157207489e-02 8.656323432922363281e+00 2.589262962341308594e+00 9.870393201708793640e-03
1.787000000000000000e+03 7.859362030029296875e+01 -3.651009368896484375e+01 -9.291323274374008179e-02 9.316592216491699219e+00 2.767103672027587891e+00 -1.433522552251815796e-01
1.788000000000000000e+03 7.763351440429687500e+01 -3.653307342529296875e+01 -1.216749772429466248e-01 8.760978698730468750e+00 2.591790914535522461e+00 -2.558082640171051025e-01
1.789000000000000000e+03 7.890684509277343750e+01 -2.997902870178222656e+01 2.876887656748294830e-02 8.199725151062011719e+00 2.468548059463500977e+00 -3.333767354488372803e-01
1.790000000000000000e+03 7.182244873046875000e+01 -3.105919456481933594e+01 -9.005393087863922119e-02 7.276978969573974609e+00 2.156077623367309570e+00 7.997403144836425781e-01
1.791000000000000000e+03 7.892942810058593750e+01 -1.559520053863525391e+01 -2.842928655445575714e-02 9.384001731872558594e+00 2.806671619415283203e+00 -9.684571623802185059e-02
1.792000000000000000e+03 7.767903900146484375e+01 -1.790741157531738281e+01 -1.945028156042098999e-01 8.811200141906738281e+00 2.585009098052978516e+00 8.586291968822479248e-02
1.793000000000000000e+03 7.891856384277343750e+01 -8.369627952575683594e+00 -1.118066255003213882e-02 8.245496749877929688e+00 2.470294952392578125e+00 -2.950434386730194092e-01
1.794000000000000000e+03 7.818991088867187500e+01 -9.967870712280273438e+00 -2.445906586945056915e-02 8.312257766723632812e+00 2.486339569091796875e+00 -3.910884857177734375e-01
1.795000000000000000e+03 7.891768646240234375e+01 -1.966988205909729004e+00 1.486099977046251297e-02 6.705427169799804688e+00 2.016086578369140625e+00 -3.252443075180053711e-01
1.796000000000000000e+03 7.820962524414062500e+01 -2.739529371261596680e+00 2.354595996439456940e-02 7.045510768890380859e+00 2.120717048645019531e+00 -4.909372031688690186e-01
1.797000000000000000e+03 7.890243530273437500e+01 5.236913204193115234e+00 3.167225420475006104e-02 5.848703384399414062e+00 1.764112710952758789e+00 8.089339360594749451e-03
1.798000000000000000e+03 7.221221160888671875e+01 5.250998973846435547e+00 3.762314617633819580e-01 1.012842273712158203e+01 3.151396274566650391e+00 -4.095442593097686768e-02
1.799000000000000000e+03 7.818399047851562500e+01 2.696107482910156250e+01 5.110395699739456177e-02 7.021131992340087891e+00 2.121670722961425781e+00 3.708565831184387207e-01
1.800000000000000000e+03 7.792466735839843750e+01 3.460318374633789062e+01 -9.218631684780120850e-02 8.128837585449218750e+00 2.410995483398437500e+00 3.498678803443908691e-01
1.801000000000000000e+03 7.780398559570312500e+01 3.369363784790039062e+01 -7.865122705698013306e-02 7.990527629852294922e+00 2.373562812805175781e+00 4.167241156101226807e-01
1.802000000000000000e+03 7.817963409423828125e+01 2.617057991027832031e+01 5.859427526593208313e-02 6.916821956634521484e+00 2.092624902725219727e+00 3.316606283187866211e-01
1.803000000000000000e+03 7.821308135986328125e+01 1.984256744384765625e+01 2.455636858940124512e-02 6.541480541229248047e+00 1.969811081886291504e+00 2.298188395798206329e-02
1.804000000000000000e+03 7.818547058105468750e+01 9.377886772155761719e+00 -1.007219310849905014e-02 6.451587200164794922e+00 1.932454466819763184e+00 1.278977245092391968e-01
1.805000000000000000e+03 7.892910003662109375e+01 1.210693478584289551e+00 3.521457687020301819e-02 6.085552692413330078e+00 1.836230158805847168e+00 -1.965842843055725098e-01
1.806000000000000000e+03 7.830031585693359375e+01 -1.794441604614257812e+01 -1.210113093256950378e-01 9.091724395751953125e+00 2.691213846206665039e+00 8.951617777347564697e-02
1.807000000000000000e+03 7.874069976806640625e+01 -3.402063369750976562e+01 -2.996014244854450226e-02 9.048973083496093750e+00 2.705703973770141602e+00 -3.028212785720825195e-01
1.808000000000000000e+03 7.870310211181640625e+01 4.014861679077148438e+01 -2.436362765729427338e-02 8.758802413940429688e+00 2.620331764221191406e+00 7.895075529813766479e-02
1.809000000000000000e+03 7.894099426269531250e+01 -2.276796722412109375e+01 3.641146933659911156e-03 8.485407829284667969e+00 2.546714782714843750e+00 3.560193479061126709e-01
1.810000000000000000e+03 7.757440948486328125e+01 -2.184317588806152344e+01 -6.327732652425765991e-02 8.594061851501464844e+00 2.559235334396362305e+00 6.155969500541687012e-01
1.811000000000000000e+03 7.889801025390625000e+01 -2.759064102172851562e+01 8.611366152763366699e-02 7.831270694732666016e+00 2.375215291976928711e+00 -1.085652634501457214e-01
1.812000000000000000e+03 7.703952026367187500e+01 3.894845962524414062e+01 -4.637056216597557068e-02 8.024194717407226562e+00 2.393347263336181641e+00 1.351572424173355103e-01
1.813000000000000000e+03 7.805924224853515625e+01 3.021097755432128906e+01 1.239486853592097759e-03 7.538989543914794922e+00 2.262068748474121094e+00 4.765407145023345947e-01
1.814000000000000000e+03 7.815751647949218750e+01 2.857639312744140625e+01 2.938405796885490417e-02 7.270762920379638672e+00 2.190043926239013672e+00 4.403096437454223633e-01
1.815000000000000000e+03 7.819298553466796875e+01 2.458281707763671875e+01 6.319964677095413208e-02 6.748921871185302734e+00 2.043636560440063477e+00 2.364000082015991211e-01
1.816000000000000000e+03 7.819915771484375000e+01 1.744590759277343750e+01 1.110679935663938522e-02 6.543117523193359375e+00 1.966267347335815430e+00 -1.937147974967956543e-02
1.817000000000000000e+03 7.747969818115234375e+01 1.514312934875488281e+01 -1.723378710448741913e-02 6.891961574554443359e+00 2.062418460845947266e+00 -2.436519786715507507e-02
1.818000000000000000e+03 7.868673706054687500e+01 -3.484196090698242188e+01 -5.974989011883735657e-02 9.145557403564453125e+00 2.725742340087890625e+00 -2.491633296012878418e-01
1.819000000000000000e+03 7.820912933349609375e+01 -2.912716293334960938e+01 1.239675134420394897e-01 8.140433311462402344e+00 2.479320049285888672e+00 -3.851687610149383545e-01
1.820000000000000000e+03 7.896250915527343750e+01 -2.118520355224609375e+01 -3.646553307771682739e-02 8.907644271850585938e+00 2.661353588104248047e+00 3.244973421096801758e-01
1.821000000000000000e+03 7.891706085205078125e+01 -1.399728012084960938e+01 -2.211049199104309082e-02 9.224261283874511719e+00 2.760645151138305664e+00 -1.705109179019927979e-01
1.822000000000000000e+03 7.822357177734375000e+01 -1.559383201599121094e+01 -7.820501178503036499e-02 8.990676879882812500e+00 2.673741340637207031e+00 -1.424751430749893188e-01
1.823000000000000000e+03 7.892905426025390625e+01 -6.762600898742675781e+00 -9.062814526259899139e-03 7.884579658508300781e+00 2.362654924392700195e+00 -3.204882144927978516e-01
1.824000000000000000e+03 7.821609497070312500e+01 -7.537298202514648438e+00 -2.485015243291854858e-02 7.923726558685302734e+00 2.369663000106811523e+00 -4.492269158363342285e-01
1.825000000000000000e+03 7.892371368408203125e+01 4.116626381874084473e-01 3.221236914396286011e-02 6.214278221130371094e+00 1.873947143554687500e+00 -2.400389611721038818e-01
1.826000000000000000e+03 7.819972991943359375e+01 -3.783912062644958496e-01 6.426795572042465210e-02 6.661732673645019531e+00 2.017800331115722656e+00 -4.018441438674926758e-01
1.827000000000000000e+03 7.814255523681640625e+01 6.063612937927246094e+00 5.792298913002014160e-02 6.330093860626220703e+00 1.916405081748962402e+00 6.323729455471038818e-02
1.828000000000000000e+03 7.816271209716796875e+01 8.556947708129882812e+00 -2.421190263703465462e-03 6.426743507385253906e+00 1.927296638488769531e+00 1.311658918857574463e-01
1.829000000000000000e+03 7.888609313964843750e+01 6.050559520721435547e+00 2.408438548445701599e-02 5.877828121185302734e+00 1.770573735237121582e+00 4.496359080076217651e-02
1.830000000000000000e+03 7.822887420654296875e+01 2.805698633193969727e+00 7.637225836515426636e-02 6.319547176361083984e+00 1.918775796890258789e+00 -1.602002978324890137e-01
1.831000000000000000e+03 7.822928619384765625e+01 1.210086584091186523e+00 7.922209054231643677e-02 6.450851440429687500e+00 1.959022045135498047e+00 -2.847503721714019775e-01
1.832000000000000000e+03 7.818618011474609375e+01 -1.167414903640747070e+00 4.758525267243385315e-02 6.786694049835205078e+00 2.050283908843994141e+00 -4.424358606338500977e-01
1.833000000000000000e+03 7.824363708496093750e+01 -5.936128616333007812e+00 -1.620126888155937195e-02 7.640014648437500000e+00 2.287143945693969727e+00 -4.774563908576965332e-01
1.834000000000000000e+03 7.823388671875000000e+01 -3.536600589752197266e+00 1.037150155752897263e-02 7.191655635833740234e+00 2.160608291625976562e+00 -4.991979002952575684e-01
1.835000000000000000e+03 7.824777221679687500e+01 -4.338370800018310547e+00 -3.691495861858129501e-03 7.341925144195556641e+00 2.201470136642456055e+00 -4.957090616226196289e-01
1.836000000000000000e+03 7.755809020996093750e+01 -3.538397073745727539e+00 1.237653195858001709e-02 7.289103984832763672e+00 2.190444231033325195e+00 -6.058591008186340332e-01
1.837000000000000000e+03 7.820278930664062500e+01 -8.347245216369628906e+00 -2.429652214050292969e-02 8.057851791381835938e+00 2.410066604614257812e+00 -4.308394193649291992e-01
1.838000000000000000e+03 7.821455383300781250e+01 -1.319080162048339844e+01 -4.261886700987815857e-02 8.752032279968261719e+00 2.612823963165283203e+00 -2.900989353656768799e-01
1.839000000000000000e+03 7.819550323486328125e+01 -1.077518653869628906e+01 -2.665056847035884857e-02 8.430023193359375000e+00 2.521011829376220703e+00 -3.677303493022918701e-01
1.840000000000000000e+03 7.820444488525390625e+01 -1.158135318756103516e+01 -2.668817155063152313e-02 8.545331001281738281e+00 2.555593013763427734e+00 -3.471052050590515137e-01
1.841000000000000000e+03 7.747066497802734375e+01 -1.079925060272216797e+01 -4.885586723685264587e-02 8.153795242309570312e+00 2.431481599807739258e+00 -4.573344588279724121e-01
1.842000000000000000e+03 7.752368164062500000e+01 -1.562681388854980469e+01 -1.389010548591613770e-01 8.633646965026855469e+00 2.548423767089843750e+00 -1.895625442266464233e-01
1.843000000000000000e+03 7.829418182373046875e+01 -1.715799140930175781e+01 -1.075456812977790833e-01 9.089858055114746094e+00 2.694693803787231445e+00 -2.002632681978866458e-04
1.844000000000000000e+03 7.830210113525390625e+01 -2.034950065612792969e+01 -1.175392866134643555e-01 8.910707473754882812e+00 2.637950420379638672e+00 3.897983431816101074e-01
1.845000000000000000e+03 7.828423309326171875e+01 -1.955281257629394531e+01 -1.209724992513656616e-01 9.001807212829589844e+00 2.664250373840332031e+00 2.890064120292663574e-01
1.846000000000000000e+03 7.819087982177734375e+01 -2.510527801513671875e+01 1.698958128690719604e-01 8.106122970581054688e+00 2.482805728912353516e+00 3.110373318195343018e-01
1.847000000000000000e+03 7.817350769042968750e+01 -2.592055511474609375e+01 2.003592550754547119e-01 8.035307884216308594e+00 2.470700025558471680e+00 1.756694018840789795e-01
1.848000000000000000e+03 7.822249603271484375e+01 -2.349362182617187500e+01 6.339987367391586304e-02 8.351387023925781250e+00 2.524436235427856445e+00 4.903043210506439209e-01
1.849000000000000000e+03 7.748842620849609375e+01 -2.503543472290039062e+01 2.804980576038360596e-01 8.222405433654785156e+00 2.550871133804321289e+00 4.050323367118835449e-01
1.850000000000000000e+03 7.889979553222656250e+01 -2.597975730895996094e+01 8.582121878862380981e-02 7.847733974456787109e+00 2.380066633224487305e+00 1.049179360270500183e-01
1.851000000000000000e+03 7.890986633300781250e+01 -2.918277740478515625e+01 5.719454586505889893e-02 8.033660888671875000e+00 2.427256822586059570e+00 -2.810102403163909912e-01
1.852000000000000000e+03 7.808643341064453125e+01 -3.230305480957031250e+01 -5.524376034736633301e-02 8.606122016906738281e+00 2.565263271331787109e+00 -4.902124702930450439e-01
1.853000000000000000e+03 7.772212982177734375e+01 -3.563475418090820312e+01 -1.305978596210479736e-01 8.761971473693847656e+00 2.589411973953247070e+00 -2.719824910163879395e-01
1.854000000000000000e+03 7.218883514404296875e+01 -3.020778083801269531e+01 2.650406062602996826e-01 8.360960006713867188e+00 2.587800264358520508e+00 5.995692014694213867e-01
1.855000000000000000e+03 7.792642974853515625e+01 -3.394023132324218750e+01 -1.051268577575683594e-01 8.750387191772460938e+00 2.593578338623046875e+00 -3.947971165180206299e-01
1.856000000000000000e+03 7.665728759765625000e+01 -3.651393127441406250e+01 -1.884212046861648560e-01 8.202046394348144531e+00 2.404087543487548828e+00 -1.916549205780029297e-01
1.857000000000000000e+03 7.863259887695312500e+01 -4.125346755981445312e+01 -7.088677585124969482e-02 9.394752502441406250e+00 2.797159910202026367e+00 -3.948878869414329529e-02
1.858000000000000000e+03 7.068238830566406250e+01 2.721534967422485352e+00 4.196676909923553467e-01 1.169729614257812500e+01 3.635089159011840820e+00 5.341863036155700684e-01
1.859000000000000000e+03 7.136718750000000000e+01 2.709214448928833008e+00 5.704218149185180664e-01 1.079869079589843750e+01 3.410733699798583984e+00 3.964382410049438477e-01
1.860000000000000000e+03 1.948107719421386719e+01 -3.266368865966796875e+01 1.112849637866020203e-02 5.749071133323013783e-04 3.511021146550774574e-03 3.423807676881551743e-03
1.861000000000000000e+03 3.492362976074218750e+01 -1.691600418090820312e+01 -1.514086488896282390e-05 -6.676685643469681963e-06 -6.545265023305546492e-06 4.657720182876801118e-07
1.862000000000000000e+03 4.970203399658203125e+01 -1.027064037322998047e+01 4.497037298278883100e-05 -4.001542038167826831e-06 1.229064946528524160e-05 8.791790605755522847e-06
1.863000000000000000e+03 6.736046600341796875e+01 -9.954753875732421875e+00 3.546810448169708252e-01 3.209911584854125977e+00 1.069377779960632324e+00 8.245638608932495117e-01
1.864000000000000000e+03 3.725261986255645752e-01 3.486438751220703125e+00 -7.561250640719663352e-06 -2.012352069868938997e-06 -2.872080813176580705e-06 -2.160408598683716264e-07
1.865000000000000000e+03 1.188327789306640625e+00 3.625050735473632812e+01 -8.988209447124972939e-05 9.396064560860395432e-04 2.549173077568411827e-04 -2.293371471751015633e-05
1.866000000000000000e+03 2.806151866912841797e+00 3.838935470581054688e+01 -7.904834637884050608e-05 8.667801739647984505e-04 2.363195526413619518e-04 -5.337428592611104250e-05
1.867000000000000000e+03 1.138765215873718262e+00 3.476969146728515625e+01 -7.123285467969253659e-05 8.914613863453269005e-04 2.460685500409454107e-04 -2.353080526518169791e-05
1.868000000000000000e+03 2.519168138504028320e+00 3.740409851074218750e+01 5.615601185127161443e-05 8.357797632925212383e-04 2.675807336345314980e-04 -6.757258961442857981e-05
1.869000000000000000e+03 1.975205063819885254e+00 2.986227416992187500e+01 3.520440441207028925e-05 6.824001902714371681e-04 2.152813685825094581e-04 -7.691753853578120470e-05
1.870000000000000000e+03 2.067703723907470703e+00 3.240364074707031250e+01 -5.044390854891389608e-05 7.660565315745770931e-04 2.146837941836565733e-04 -6.099127131165005267e-05
1.871000000000000000e+03 1.850031971931457520e+00 2.500137519836425781e+01 3.756903606699779630e-05 5.011461907997727394e-04 1.616145600564777851e-04 -7.145695417420938611e-05
1.872000000000000000e+03 1.246510863304138184e+00 -3.390402984619140625e+01 2.061822451651096344e-04 2.528657787479460239e-04 1.377144071739166975e-04 1.646947785047814250e-04
1.873000000000000000e+03 2.863073348999023438e+00 -3.211096954345703125e+01 2.704055223148316145e-04 1.615679648239165545e-04 1.295920519623905420e-04 2.160021831514313817e-04
1.874000000000000000e+03 1.120179772377014160e+00 2.670615577697753906e+01 -3.335045403218828142e-05 6.046413909643888474e-04 1.713872770778834820e-04 -5.190236333874054253e-05
1.875000000000000000e+03 2.006595373153686523e+00 3.322541046142578125e+01 4.922437074128538370e-05 7.764798356220126152e-04 2.477112575434148312e-04 -7.017386815277859569e-05
1.876000000000000000e+03 1.226158022880554199e+00 3.241168594360351562e+01 4.952825838699936867e-05 8.102041319943964481e-04 2.579197171144187450e-04 -5.296812378219328821e-05
1.877000000000000000e+03 1.086885094642639160e+00 2.107702636718750000e+01 3.686925992951728404e-05 3.741840773727744818e-04 1.233160000992938876e-04 -4.171421824139542878e-05
1.878000000000000000e+03 1.827501654624938965e+00 2.258832550048828125e+01 -3.567591920727863908e-05 4.221613926347345114e-04 1.159456442110240459e-04 -7.772834942443296313e-05
1.879000000000000000e+03 2.560720920562744141e+00 2.245888137817382812e+01 4.473976150620728731e-05 3.849501663353294134e-04 1.289069768972694874e-04 -9.217235492542386055e-05
1.880000000000000000e+03 1.933828949928283691e+00 2.904039192199707031e+01 -3.801672210101969540e-05 6.550797261297702789e-04 1.851189008448272943e-04 -7.861994527047500014e-05
1.881000000000000000e+03 1.854692935943603516e+00 2.580229568481445312e+01 -3.699871012941002846e-05 5.423381808213889599e-04 1.516018528491258621e-04 -8.446876745438203216e-05
1.882000000000000000e+03 1.863134026527404785e+00 2.660142135620117188e+01 3.521899270708672702e-05 5.619468865916132927e-04 1.791497488738968968e-04 -7.114532490959390998e-05
1.883000000000000000e+03 1.903121948242187500e+00 2.822218132019042969e+01 3.343719799886457622e-05 6.245351978577673435e-04 1.973917242139577866e-04 -7.228879985632374883e-05
1.884000000000000000e+03 2.028481006622314453e+00 3.069921684265136719e+01 -4.133537004236131907e-05 7.052103173919022083e-04 1.991624740185216069e-04 -7.270999776665121317e-05
1.885000000000000000e+03 1.922073125839233398e+00 3.475143432617187500e+01 4.711076690000481904e-05 8.432213799096643925e-04 2.670996473170816898e-04 -6.378491525538265705e-05
1.886000000000000000e+03 1.969680309295654297e+00 3.400539398193359375e+01 -5.713798964279703796e-05 8.117289980873465538e-04 2.263773058075457811e-04 -6.440746074076741934e-05
1.887000000000000000e+03 2.436458826065063477e+00 3.558031082153320312e+01 -8.535762390238232911e-06 8.219179580919444561e-04 2.440146636217832565e-04 -4.375629578134976327e-05
1.888000000000000000e+03 1.248340725898742676e+00 3.973908996582031250e+01 -2.211606624769046903e-05 9.541924810037016869e-04 2.796229091472923756e-04 -2.658085759321693331e-05
1.889000000000000000e+03 2.892222404479980469e+00 -3.784957885742187500e+01 -2.313047152711078525e-04 8.860109373927116394e-04 1.964118710020557046e-04 5.326232057996094227e-04
1.890000000000000000e+03 2.074741363525390625e+00 -3.786366653442382812e+01 7.560342783108353615e-05 8.040672400966286659e-04 2.639011945575475693e-04 1.984585105674341321e-04
1.891000000000000000e+03 2.138079881668090820e+00 -3.543559265136718750e+01 -1.526210544398054481e-04 5.412829341366887093e-04 1.165985668194480240e-04 3.584780497476458549e-04
1.892000000000000000e+03 1.082544803619384766e+00 2.027453231811523438e+01 -3.462579479673877358e-05 3.505546483211219311e-04 9.477866115048527718e-05 -4.156778231845237315e-05
1.893000000000000000e+03 1.819015145301818848e+00 2.178035926818847656e+01 3.974057835876010358e-05 3.822995058726519346e-04 1.266120234504342079e-04 -6.720962119288742542e-05
1.894000000000000000e+03 2.516792774200439453e+00 -1.282832813262939453e+01 5.114118539495393634e-05 3.066276804020162672e-06 1.626224002393428236e-05 1.115111808758229017e-05
1.895000000000000000e+03 1.815164923667907715e+00 -9.697388648986816406e+00 -3.270603701821528375e-05 -1.217167664435692132e-06 -1.017696104099741206e-05 -5.553651590162189677e-06
1.896000000000000000e+03 2.512849807739257812e+00 -1.683602905273437500e+01 -7.826013461453840137e-05 -6.831213568148086779e-07 -2.368297646171413362e-05 -1.614641769265290350e-05
1.897000000000000000e+03 1.806423783302307129e+00 -1.692636299133300781e+01 7.109410944394767284e-05 1.003346028483065311e-06 2.162923738069366664e-05 1.311012783844489604e-05
1.898000000000000000e+03 1.066545963287353516e+00 1.464940166473388672e+01 2.693102396733593196e-05 1.704863534541800618e-04 5.922521086176857352e-05 -3.120407563983462751e-05
1.899000000000000000e+03 1.779980778694152832e+00 1.535632133483886719e+01 3.085107164224609733e-05 1.864577934611588717e-04 6.519266025861725211e-05 -5.201082603889517486e-05
1.900000000000000000e+03 1.105240821838378906e+00 8.233978271484375000e+00 1.772152972989715636e-05 4.279501445125788450e-05 1.815496216295287013e-05 -1.516823886049678549e-05
1.901000000000000000e+03 1.763344645500183105e+00 1.215354824066162109e+01 2.432882138236891478e-05 1.143183326348662376e-04 4.159414675086736679e-05 -3.817910328507423401e-05
1.902000000000000000e+03 1.791901826858520508e+00 1.776575279235839844e+01 -2.944051630038302392e-05 2.600747684482485056e-04 6.919028237462043762e-05 -5.614314068225212395e-05
1.903000000000000000e+03 1.093084454536437988e+00 -7.379825115203857422e+00 -2.261377630929928273e-05 -6.806390047131571919e-07 -6.988324457779526711e-06 -3.432304765738081187e-06
1.904000000000000000e+03 2.553046226501464844e+00 -7.206580638885498047e+00 -2.432224391668569297e-05 -1.239566927324631251e-06 -7.668542821193113923e-06 -5.244710337137803435e-06
1.905000000000000000e+03 2.606285572052001953e+00 -4.874707221984863281e+00 1.558146323077380657e-05 7.269505886142724194e-07 4.892523975286167115e-06 4.115079718758352101e-06
1.906000000000000000e+03 1.941831946372985840e+00 -2.626231193542480469e+00 7.721690963080618531e-06 5.123177970745018683e-07 2.470202616677852347e-06 2.068576804958865978e-06
1.907000000000000000e+03 1.117599725723266602e+00 -2.747539710998535156e+01 1.581475953571498394e-04 -6.484152982011437416e-05 2.799181856971699744e-05 -3.552640350790170487e-07
1.908000000000000000e+03 1.839350223541259766e+00 -2.658395576477050781e+01 1.512747694505378604e-04 -3.283475234638899565e-05 3.553200440364889801e-05 -1.195199820358539000e-05
1.909000000000000000e+03 1.097044587135314941e+00 -2.023954200744628906e+01 -8.921950939111411572e-05 -4.290033757570199668e-06 -2.805286203511059284e-05 -1.839775541156996042e-05
1.910000000000000000e+03 1.814951896667480469e+00 -1.934132766723632812e+01 -8.831300510792061687e-05 -1.335644469691033009e-06 -2.689459506655111909e-05 -1.777955003490205854e-05
1.911000000000000000e+03 1.091440916061401367e+00 -1.300680828094482422e+01 4.402407284942455590e-05 1.736163198984286282e-06 1.372807037114398554e-05 7.248011570482049137e-06
1.912000000000000000e+03 1.809400558471679688e+00 -1.211194515228271484e+01 4.371929753688164055e-05 1.989013981074094772e-06 1.371249345538672060e-05 7.878781616454944015e-06
1.913000000000000000e+03 1.957831978797912598e+00 6.555114269256591797e+00 -9.357038834423292428e-06 3.462571476120501757e-05 7.580603323731338605e-06 -1.850973967520985752e-05
1.914000000000000000e+03 1.129518151283264160e+00 5.819836139678955078e+00 -1.022328888211632147e-05 1.978664840862620622e-05 2.869008085326640867e-06 -8.611107659817207605e-06
1.915000000000000000e+03 1.827078223228454590e+00 8.210339546203613281e+00 -1.219068872160278261e-05 5.515208613360300660e-05 1.288841940549900755e-05 -2.746993413893505931e-05
1.916000000000000000e+03 1.124096751213073730e+00 3.442814588546752930e+00 9.000606041809078306e-06 3.099279410889721476e-06 3.629965476648067124e-06 -3.269241688030888326e-06
1.917000000000000000e+03 1.142108201980590820e+00 2.659053564071655273e+00 -4.152652309130644426e-06 3.047116251764236949e-06 -3.316608570003154455e-07 -4.787972898157022428e-07
1.918000000000000000e+03 1.850216746330261230e+00 -2.738507080078125000e+01 -1.418529864167794585e-04 -5.119164597999770194e-06 -4.409164466778747737e-05 -2.880194369936361909e-05
1.919000000000000000e+03 1.158560991287231445e+00 -2.988159179687500000e+01 -1.481079525547102094e-04 -2.864048838091548532e-05 -5.302453064359724522e-05 1.174050430563511327e-05
1.920000000000000000e+03 1.809671401977539062e+00 -1.531842231750488281e+01 6.164023943711072206e-05 2.175797817471902817e-06 1.914481254061684012e-05 1.194201468024402857e-05
1.921000000000000000e+03 1.099509477615356445e+00 -2.265054702758789062e+01 1.064556126948446035e-04 -1.261378565686754882e-05 2.815254811139311641e-05 9.847940418694633991e-06
1.922000000000000000e+03 1.823563575744628906e+00 -2.175655364990234375e+01 1.000211705104447901e-04 -3.779719008889514953e-06 2.887243499571923167e-05 9.871186193777248263e-06
1.923000000000000000e+03 1.234294056892395020e+00 -3.791405868530273438e+01 -1.377713488182052970e-04 8.231485262513160706e-04 2.056131488643586636e-04 2.275266160722821951e-04
1.924000000000000000e+03 1.176812291145324707e+00 -3.068817520141601562e+01 1.899654453154653311e-04 -7.947988706291653216e-06 5.460523971123620868e-05 6.330883479677140713e-05
1.925000000000000000e+03 1.921968936920166016e+00 -2.978215408325195312e+01 2.052783675026148558e-04 6.268718607316259295e-06 6.346412556013092399e-05 4.953084498993121088e-05
1.926000000000000000e+03 1.867910623550415039e+00 -2.818257141113281250e+01 1.794903073459863663e-04 -2.779893111437559128e-05 4.550741141429170966e-05 3.384431465747184120e-06
1.927000000000000000e+03 1.829719662666320801e+00 -2.497389602661132812e+01 1.290797372348606586e-04 -2.438656338199507445e-05 3.140795161016285419e-05 -6.497217327705584466e-06
1.928000000000000000e+03 3.251321792602539062e+00 -2.565496444702148438e+01 -1.479379570810124278e-04 5.771883661509491503e-05 -2.706573468458373100e-05 -3.195971294189803302e-05
1.929000000000000000e+03 1.821345329284667969e+00 -2.095357894897460938e+01 -1.021843054331839085e-04 -3.175890242346213199e-06 -3.160805863444693387e-05 -2.410357228654902428e-05
1.930000000000000000e+03 1.090749979019165039e+00 -1.702093124389648438e+01 -6.635792669840157032e-05 -1.021057869365904480e-06 -2.021369436988607049e-05 -1.179387072625104338e-05
1.931000000000000000e+03 1.810989856719970703e+00 -1.853490066528320312e+01 8.047335722949355841e-05 -3.333926485993288225e-07 2.404199040029197931e-05 1.324053846474271268e-05
1.932000000000000000e+03 1.809872388839721680e+00 -1.451783370971679688e+01 -5.690540274372324347e-05 -2.227272034360794351e-06 -1.773980147845577449e-05 -1.063695071934489533e-05
1.933000000000000000e+03 1.091412425041198730e+00 -1.380969238281250000e+01 -4.803477349923923612e-05 -1.305673549722996540e-06 -1.480213450122391805e-05 -7.886585080996155739e-06
1.934000000000000000e+03 1.809042811393737793e+00 -1.371778583526611328e+01 5.222387699177488685e-05 2.462664951963233761e-06 1.640596201468724757e-05 9.858259545580949634e-06
1.935000000000000000e+03 1.094004154205322266e+00 -9.789636611938476562e+00 3.071785249630920589e-05 1.048544618242885917e-06 9.529919225315097719e-06 4.707164407591335475e-06
1.936000000000000000e+03 1.810577750205993652e+00 -1.130792617797851562e+01 -3.975015351898036897e-05 -1.504572878729959484e-06 -1.237641754414653406e-05 -6.828850473539205268e-06
1.937000000000000000e+03 1.931153178215026855e+00 7.391366004943847656e+00 1.905086355691310018e-05 3.670528894872404635e-05 1.672684629738796502e-05 -2.157714698114432395e-05
1.938000000000000000e+03 2.674551248550415039e+00 7.532389640808105469e+00 -1.791172735465806909e-06 5.382220115279778838e-05 1.560930832056328654e-05 -3.776430094148963690e-05
1.939000000000000000e+03 1.754797220230102539e+00 1.135788917541503906e+01 -1.675120984145905823e-05 1.017562681226991117e-04 2.550151657487731427e-05 -3.497610669001005590e-05
1.940000000000000000e+03 2.475151062011718750e+00 1.284127044677734375e+01 2.836419844243209809e-05 1.284268364543095231e-04 4.703730883193202317e-05 -5.571862857323139906e-05
1.941000000000000000e+03 1.776936531066894531e+00 1.455177497863769531e+01 -2.209041485912166536e-05 1.707362098386511207e-04 4.459373667486943305e-05 -4.377500226837582886e-05
1.942000000000000000e+03 1.773386120796203613e+00 1.374976634979248047e+01 2.743590630416292697e-05 1.483071973780170083e-04 5.272293128655292094e-05 -4.544934927253052592e-05
1.943000000000000000e+03 1.769167184829711914e+00 1.295194530487060547e+01 -1.909032289404422045e-05 1.336539862677454948e-04 3.436909901211038232e-05 -3.914128683391027153e-05
1.944000000000000000e+03 1.787628889083862305e+00 1.695824813842773438e+01 3.439144347794353962e-05 2.286249509779736400e-04 7.890491542639210820e-05 -5.752445213147439063e-05
1.945000000000000000e+03 1.795619606971740723e+00 1.857130432128906250e+01 3.798310353886336088e-05 2.753699955064803362e-04 9.400593262398615479e-05 -6.181777280289679766e-05
1.946000000000000000e+03 1.799104094505310059e+00 1.937249183654785156e+01 -3.317297887406311929e-05 3.113774291705340147e-04 8.346133108716458082e-05 -6.376891542458906770e-05
1.947000000000000000e+03 1.810364961624145508e+00 2.097184562683105469e+01 -3.498581645544618368e-05 3.653083404060453176e-04 9.909676009556278586e-05 -7.161410758271813393e-05
1.948000000000000000e+03 1.111510515213012695e+00 -4.214834213256835938e+00 -1.247738964593736455e-05 -4.038357417357474333e-07 -3.864367499772924930e-06 -2.225198841188102961e-06
1.949000000000000000e+03 2.084198713302612305e+00 -3.381297302246093750e+01 -1.265122264157980680e-04 3.357543318998068571e-04 6.277263310039415956e-05 2.570340002421289682e-04
1.950000000000000000e+03 2.679352283477783203e+00 -2.968542480468750000e+01 -9.110593964578583837e-05 7.308782369364053011e-05 -5.405434876593062654e-06 6.466311606345698237e-05
1.951000000000000000e+03 2.109411239624023438e+00 -3.462413787841796875e+01 2.298301842529326677e-04 3.546156513039022684e-04 1.753337564878165722e-04 2.640238089952617884e-04
1.952000000000000000e+03 2.109647750854492188e+00 -3.705297470092773438e+01 -1.663124567130580544e-04 7.367802900262176991e-04 1.711403601802885532e-04 4.109391884412616491e-04
1.953000000000000000e+03 2.148291349411010742e+00 -3.624864959716796875e+01 1.770703820511698723e-04 5.602143355645239353e-04 2.211854152847081423e-04 2.622362808324396610e-04
1.954000000000000000e+03 2.013617324829101562e+01 -3.291003417968750000e+01 1.067186985164880753e-02 8.347402326762676239e-04 3.451983211562037468e-03 4.301878623664379120e-03
1.955000000000000000e+03 2.116998100280761719e+01 -3.207372665405273438e+01 1.568853482604026794e-02 7.246973691508173943e-04 4.923969972878694534e-03 3.131059696897864342e-03
1.956000000000000000e+03 7.041564178466796875e+01 2.128493881225585938e+01 4.684240743517875671e-02 1.034909629821777344e+01 3.118781805038452148e+00 -8.070497214794158936e-02
1.957000000000000000e+03 8.210460662841796875e+00 -2.163120460510253906e+01 1.319834263995289803e-04 -2.309717046955483966e-06 3.890211155521683395e-05 -4.379371966933831573e-05
1.958000000000000000e+03 7.678305816650390625e+01 1.768185043334960938e+01 3.118283487856388092e-02 7.200629711151123047e+00 2.169543743133544922e+00 -2.080418914556503296e-02
1.959000000000000000e+03 7.113113403320312500e+01 1.975475502014160156e+01 3.759207949042320251e-02 9.945570945739746094e+00 2.994948863983154297e+00 -2.540800347924232483e-02
1.960000000000000000e+03 7.109811401367187500e+01 1.569939804077148438e+01 1.418890804052352905e-01 9.890526771545410156e+00 3.009724855422973633e+00 1.369314193725585938e-01
1.961000000000000000e+03 7.111128234863281250e+01 1.651721191406250000e+01 6.160893663763999939e-02 9.936599731445312500e+00 2.999462604522705078e+00 8.117620646953582764e-02
1.962000000000000000e+03 6.598427581787109375e+01 -1.273605823516845703e+01 5.797976851463317871e-01 1.964701533317565918e+00 7.633497714996337891e-01 7.315921187400817871e-01
1.963000000000000000e+03 7.112430572509765625e+01 1.814128875732421875e+01 2.927811816334724426e-02 9.938564300537109375e+00 2.990352869033813477e+00 2.644236013293266296e-02
1.964000000000000000e+03 7.111908721923828125e+01 1.733402824401855469e+01 4.330538958311080933e-02 9.937638282775878906e+00 2.994283199310302734e+00 5.425076931715011597e-02
1.965000000000000000e+03 7.394971466064453125e+01 1.649221038818359375e+01 4.931122809648513794e-02 8.501038551330566406e+00 2.565104961395263672e+00 -3.217505291104316711e-02
1.966000000000000000e+03 7.107258605957031250e+01 2.385348510742187500e+01 4.529428184032440186e-01 9.864258766174316406e+00 3.095160484313964844e+00 -3.468577265739440918e-01
1.967000000000000000e+03 7.109209442138671875e+01 1.239895150065422058e-01 6.504908800125122070e-01 9.997060775756835938e+00 3.194265604019165039e+00 5.389012098312377930e-01
1.968000000000000000e+03 7.108007812500000000e+01 1.488067913055419922e+01 2.276514619588851929e-01 9.723360061645507812e+00 2.985303401947021484e+00 6.396489590406417847e-02
1.969000000000000000e+03 4.364050674438476562e+01 -2.605594444274902344e+01 -5.703255161643028259e-02 -7.841191291809082031e-01 -2.523455023765563965e-01 -5.199426412582397461e-01
1.970000000000000000e+03 4.006700134277343750e+01 -1.844883155822753906e+01 -3.237444843762204982e-06 8.496414920955430716e-06 1.577690909471129999e-06 1.299836981161206495e-06
1.971000000000000000e+03 8.783272743225097656e+00 -3.331139326095581055e+00 8.598708518547937274e-06 4.958353201800491661e-06 4.067118425155058503e-06 5.187718670640606433e-06
1.972000000000000000e+03 8.248396873474121094e+00 -2.564634799957275391e+00 6.115837095421738923e-06 4.312731562094995752e-06 3.128570597255020402e-06 4.529970283329021186e-06
1.973000000000000000e+03 5.920916557312011719e+00 -2.553681135177612305e+00 -6.854922048660228029e-06 -2.722465296756126918e-06 -2.873216089938068762e-06 -4.740539679914945737e-06
1.974000000000000000e+03 7.361708164215087891e+00 -3.250281810760498047e+00 7.548664598289178684e-06 4.049031304020900279e-06 3.479308816167758778e-06 5.679937657987466082e-06
1.975000000000000000e+03 4.328285694122314453e+00 -2.579124212265014648e+00 -7.535562417615437880e-06 -1.578990577399963513e-06 -2.734365807555150241e-06 -3.913137334166094661e-06
1.976000000000000000e+03 6.605596542358398438e+00 -3.253073930740356445e+00 -8.014928425836842507e-06 -3.443390141910640523e-06 -3.437495706748450175e-06 -5.852937647432554513e-06
1.977000000000000000e+03 3.468988656997680664e+00 -3.330213546752929688e+00 -1.017066279018763453e-05 -1.039329958985035773e-06 -3.362997858857852407e-06 -3.967205884691793472e-06
1.978000000000000000e+03 1.869621634483337402e+00 -4.159097671508789062e+00 1.269545828108675778e-05 5.788897965430805925e-07 3.982304406235925853e-06 2.967321961477864534e-06
1.979000000000000000e+03 4.259136676788330078e+00 -3.307312488555908203e+00 9.920309821609407663e-06 1.464715865040489007e-06 3.415507535464712419e-06 4.735830316349165514e-06
1.980000000000000000e+03 5.832571983337402344e+00 -3.267562627792358398e+00 8.762088327785022557e-06 2.688219410629244521e-06 3.435092366999015212e-06 5.762326964031672105e-06
1.981000000000000000e+03 1.847486138343811035e+00 -4.933231353759765625e+00 -1.534510920464526862e-05 -5.901951567466312554e-07 -4.780591552844271064e-06 -3.267527745265397243e-06
1.982000000000000000e+03 6.406714630126953125e+01 -3.716220474243164062e+01 1.234521493315696716e-01 1.627824604511260986e-01 8.587038516998291016e-02 -1.322027891874313354e-01
1.983000000000000000e+03 7.141536712646484375e+01 3.559878826141357422e+00 3.659515976905822754e-01 1.088837623596191406e+01 3.376298427581787109e+00 2.504737377166748047e-01
1.984000000000000000e+03 1.046215820312500000e+01 -1.690952301025390625e+01 2.650920214364305139e-05 4.915897443424910307e-05 2.270045297336764634e-05 -4.437788811628706753e-05
1.985000000000000000e+03 9.988548278808593750e+00 -1.651099777221679688e+01 -1.519821671536192298e-05 -2.365001637372188270e-05 -1.165446974482620135e-05 3.647565608844161034e-05
1.986000000000000000e+03 6.764002990722656250e+01 -9.207945823669433594e+00 3.180045485496520996e-01 3.557189226150512695e+00 1.162558078765869141e+00 8.773918747901916504e-01
1.987000000000000000e+03 4.809479522705078125e+01 3.188357543945312500e+01 1.597656984813511372e-03 -1.815543742850422859e-03 -6.536603905260562897e-05 4.545064177364110947e-03
1.988000000000000000e+03 6.438204193115234375e+01 -1.634449386596679688e+01 5.082816481590270996e-01 9.549798369407653809e-01 4.389784336090087891e-01 7.607517838478088379e-01
1.989000000000000000e+03 6.358191680908203125e+01 -1.760359382629394531e+01 1.824432909488677979e-01 9.017735719680786133e-01 3.252650499343872070e-01 7.671986222267150879e-01
1.990000000000000000e+03 6.495944213867187500e+01 -1.661570739746093750e+01 4.122655093669891357e-01 1.020979166030883789e+00 4.299734234809875488e-01 6.634336113929748535e-01
1.991000000000000000e+03 6.531947326660156250e+01 -1.545824146270751953e+01 5.883530378341674805e-01 1.286895871162414551e+00 5.625746846199035645e-01 6.647207736968994141e-01
1.992000000000000000e+03 6.617870330810546875e+01 -1.998135185241699219e+01 -1.013194680213928223e+00 2.260469496250152588e-01 -2.361443191766738892e-01 4.040619432926177979e-01
1.993000000000000000e+03 4.112914657592773438e+01 1.170077514648437500e+01 3.563651407603174448e-04 2.247331140097230673e-04 1.743294706102460623e-04 1.411887933500111103e-04
1.994000000000000000e+03 6.582998657226562500e+01 -1.494198417663574219e+01 5.867820382118225098e-01 1.542626023292541504e+00 6.388224363327026367e-01 6.015347838401794434e-01
1.995000000000000000e+03 6.601349639892578125e+01 3.382125091552734375e+01 -2.239866852760314941e-01 1.479474902153015137e+00 3.766464591026306152e-01 -4.564268887042999268e-01
1.996000000000000000e+03 5.646406936645507812e+01 -2.119073104858398438e+01 -1.071498155593872070e+00 5.815586447715759277e-01 -1.469818502664566040e-01 3.014444708824157715e-01
1.997000000000000000e+03 5.635762023925781250e+01 -2.189277076721191406e+01 -7.904716134071350098e-01 7.704187631607055664e-01 -6.015849299728870392e-03 3.596059083938598633e-01
1.998000000000000000e+03 5.839729690551757812e+01 -2.200425338745117188e+01 -6.109756231307983398e-01 1.253931164741516113e+00 1.928866356611251831e-01 8.386908173561096191e-01
1.999000000000000000e+03 4.209580230712890625e+01 2.015489578247070312e+01 1.194998854771256447e-03 1.020841416902840137e-03 6.647520931437611580e-04 7.640706025995314121e-04
2.000000000000000000e+03 6.995266723632812500e+01 2.707378005981445312e+01 5.952932834625244141e-01 9.304663658142089844e+00 2.969987154006958008e+00 -1.151568770408630371e+00
2.001000000000000000e+03 7.042922210693359375e+01 2.817376518249511719e+01 6.084702014923095703e-01 8.187882423400878906e+00 2.638905763626098633e+00 -7.632033824920654297e-01
2.002000000000000000e+03 2.695709609985351562e+01 -3.323757171630859375e+01 1.627895608544349670e-02 -1.311016734689474106e-03 4.490382038056850433e-03 2.847312716767191887e-03
2.003000000000000000e+03 6.925127410888671875e+01 -5.520945072174072266e+00 2.490232288837432861e-01 5.979354381561279297e+00 1.868513345718383789e+00 1.032726764678955078e+00
2.004000000000000000e+03 1.457837009429931641e+01 -3.154388809204101562e+01 4.853925202041864395e-03 2.231961116194725037e-04 1.523136510513722897e-03 1.062357216142117977e-03
2.005000000000000000e+03 1.548084354400634766e+01 -3.258726119995117188e+01 5.292871966958045959e-03 5.847649881616234779e-04 1.763291074894368649e-03 2.531573176383972168e-03
2.006000000000000000e+03 2.597103309631347656e+01 -3.324535369873046875e+01 1.529515348374843597e-02 -1.967427320778369904e-03 3.998317755758762360e-03 3.289239946752786636e-03
2.007000000000000000e+03 7.746395874023437500e+01 -3.137725067138671875e+01 -2.225295267999172211e-02 8.426260948181152344e+00 2.521202325820922852e+00 -5.902864933013916016e-01
2.008000000000000000e+03 6.921965026855468750e+01 -3.793985843658447266e+00 4.831157922744750977e-01 6.894531726837158203e+00 2.213294267654418945e+00 1.492442965507507324e+00
2.009000000000000000e+03 1.638425636291503906e+01 -3.269180679321289062e+01 6.267323158681392670e-03 2.301289205206558108e-04 1.949235564097762108e-03 3.161822445690631866e-03
2.010000000000000000e+03 5.215844345092773438e+01 -1.378540802001953125e+01 -1.979612898139748722e-05 -1.327722998212266248e-06 -6.337155809887917712e-06 -8.471050023217685521e-06
2.011000000000000000e+03 5.267416763305664062e+01 -1.599265384674072266e+01 7.705628377152606845e-06 1.508230411673139315e-06 2.764157670753775164e-06 -1.109426534640078899e-06
2.012000000000000000e+03 7.091299438476562500e+01 2.555867958068847656e+01 6.348254084587097168e-01 9.482450485229492188e+00 3.035182714462280273e+00 -5.036923289299011230e-01
2.013000000000000000e+03 1.878613090515136719e+01 -3.259047698974609375e+01 1.065973099321126938e-02 6.201184587553143501e-04 3.383954754099249840e-03 3.393526421859860420e-03
2.014000000000000000e+03 6.859850311279296875e+01 -7.003801822662353516e+00 2.331202477216720581e-01 4.904781818389892578e+00 1.541370630264282227e+00 1.011018276214599609e+00
2.015000000000000000e+03 5.079678726196289062e+01 3.391993331909179688e+01 -1.090733893215656281e-02 4.535531159490346909e-03 -1.911542261950671673e-03 3.674370935186743736e-03
2.016000000000000000e+03 6.315068054199218750e+01 -2.182274055480957031e+01 -8.799951672554016113e-01 5.412498712539672852e-01 -1.016235873103141785e-01 4.440417885780334473e-01
2.017000000000000000e+03 4.657279586791992188e+01 -1.739848136901855469e+01 -4.540756435744697228e-06 -5.022064669901737943e-06 -2.868846422643400729e-06 -6.192230557644506916e-06
2.018000000000000000e+03 4.586625289916992188e+01 -1.759621238708496094e+01 4.186942135220306227e-07 5.205801244301255792e-06 1.687348571977054235e-06 2.364135525567689911e-06
2.019000000000000000e+03 4.293544006347656250e+01 4.193761348724365234e+00 1.366072683595120907e-04 4.244153387844562531e-05 5.371464067138731480e-05 1.000880365609191358e-04
2.020000000000000000e+03 6.919876861572265625e+01 -3.323451995849609375e+01 -3.865206837654113770e-01 2.575783729553222656e+00 6.567788720130920410e-01 8.469626307487487793e-01
2.021000000000000000e+03 7.053820037841796875e+01 -3.339646911621093750e+01 -5.432883501052856445e-01 4.679241180419921875e+00 1.240785956382751465e+00 9.062615036964416504e-01
2.022000000000000000e+03 3.764859390258789062e+01 -1.753231620788574219e+01 -1.079206958820577711e-05 6.011002824379829690e-06 -1.434320097359886859e-06 -7.662173970857111271e-07
2.023000000000000000e+03 3.499655914306640625e+01 -1.630315017700195312e+01 -8.118699042825028300e-06 8.820001312415115535e-06 2.103907092987356009e-07 1.520736418569867965e-06
2.024000000000000000e+03 4.338537979125976562e+01 2.163865661621093750e+01 6.528672383865341544e-05 1.587397186085581779e-03 4.958051722496747971e-04 1.257523661479353905e-03
2.025000000000000000e+03 4.230834197998046875e+01 2.099544906616210938e+01 1.965268602361902595e-04 1.090217032469809055e-03 3.860231663566082716e-04 1.075026346370577812e-03
2.026000000000000000e+03 5.128061294555664062e+01 3.451733398437500000e+01 -1.089373696595430374e-02 6.058363942429423332e-04 -3.086370183154940605e-03 6.169542670249938965e-03
2.027000000000000000e+03 4.189449310302734375e+01 1.932044982910156250e+01 -3.561689300113357604e-05 9.040823206305503845e-04 2.605396439321339130e-04 7.445508963428437710e-04
2.028000000000000000e+03 1.298379039764404297e+01 -3.198692131042480469e+01 3.360445145517587662e-03 2.829757249855902046e-05 1.016622758470475674e-03 1.572481356561183929e-03
2.029000000000000000e+03 4.313704681396484375e+01 2.352065277099609375e+01 2.352684969082474709e-03 1.438554842025041580e-03 1.137371873483061790e-03 1.338785281404852867e-03
2.030000000000000000e+03 6.956762695312500000e+01 -4.766804218292236328e+00 2.783281803131103516e-01 6.526100158691406250e+00 2.041328430175781250e+00 1.037571310997009277e+00
2.031000000000000000e+03 4.280939483642578125e+01 2.268684387207031250e+01 5.346845136955380440e-04 1.159060746431350708e-03 5.081236013211309910e-04 1.376003259792923927e-03
2.032000000000000000e+03 4.281914138793945312e+01 5.976102828979492188e+00 -2.118625852745026350e-04 -1.631950726732611656e-05 -6.845462485216557980e-05 -8.608639473095536232e-05
2.033000000000000000e+03 6.987901306152343750e+01 -3.994708299636840820e+00 2.757860720157623291e-01 7.113760948181152344e+00 2.216864109039306641e+00 1.056140065193176270e+00
2.034000000000000000e+03 6.458574676513671875e+01 3.479068374633789062e+01 -5.021415948867797852e-01 3.967902958393096924e-01 -3.160537779331207275e-02 -1.491085141897201538e-01
2.035000000000000000e+03 4.865018844604492188e+01 -6.594405174255371094e+00 -6.757474329788237810e-05 -2.353515992581378669e-05 -2.733297151280567050e-05 -2.880686406570021063e-05
2.036000000000000000e+03 4.798607635498046875e+01 3.282794570922851562e+01 9.540376486256718636e-04 5.037380033172667027e-04 4.373326955828815699e-04 3.797138342633843422e-03
2.037000000000000000e+03 1.574162006378173828e+01 -1.213806629180908203e+01 -1.335193701379466802e-05 -1.811379479477182031e-05 -9.439719178772065789e-06 -1.049146590048621874e-06
2.038000000000000000e+03 8.641716003417968750e+00 -1.976239013671875000e+01 5.568344931816682220e-05 -2.445737482048571110e-05 9.367822713102214038e-06 -4.833021012018434703e-05
2.039000000000000000e+03 5.557986068725585938e+01 -2.263367462158203125e+01 -5.383263230323791504e-01 7.864636778831481934e-01 7.444121688604354858e-02 1.998459696769714355e-01
2.040000000000000000e+03 5.705659103393554688e+01 -2.184873962402343750e+01 -7.569918632507324219e-01 9.278227090835571289e-01 5.124924331903457642e-02 5.380194783210754395e-01
2.041000000000000000e+03 5.011398696899414062e+01 3.346003341674804688e+01 4.488889535423368216e-04 5.111631937325000763e-03 1.668156241066753864e-03 3.952890634536743164e-03
2.042000000000000000e+03 2.644750785827636719e+01 -1.063947677612304688e+01 -1.825722620196756907e-06 -1.389885892422171310e-05 -4.717374395113438368e-06 3.718200787261594087e-06
2.043000000000000000e+03 4.466856002807617188e+01 2.656317901611328125e+01 4.366128239780664444e-03 1.702371751889586449e-03 1.820550067350268364e-03 1.855552429333329201e-03
2.044000000000000000e+03 6.896423339843750000e+01 3.158706665039062500e+01 -1.471612453460693359e-01 5.299673080444335938e+00 1.545753598213195801e+00 -8.904048800468444824e-01
2.045000000000000000e+03 4.107944869995117188e+01 1.341739749908447266e+01 4.220110422465950251e-04 3.525711654219776392e-04 2.323746593901887536e-04 1.916953333420678973e-04
2.046000000000000000e+03 7.600183963775634766e+00 -2.064377784729003906e+01 1.312042440986260772e-04 8.113856893032789230e-05 6.370284245349466801e-05 2.926276101788971573e-05
2.047000000000000000e+03 4.305760192871093750e+01 -2.872625923156738281e+01 -4.718019962310791016e-01 -9.960339069366455078e-01 -4.403507709503173828e-01 -5.022609829902648926e-01
2.048000000000000000e+03 4.393645095825195312e+01 -2.707218360900878906e+01 -1.308216601610183716e-01 -7.433554530143737793e-01 -2.622531354427337646e-01 -5.250981450080871582e-01
2.049000000000000000e+03 4.350213623046875000e+01 2.431979942321777344e+01 7.178784580901265144e-04 1.416787039488554001e-03 6.403996376320719719e-04 1.757475896738469601e-03
2.050000000000000000e+03 2.195110130310058594e+01 -3.304840087890625000e+01 1.241110172122716904e-02 2.731670683715492487e-04 3.805280663073062897e-03 4.665583837777376175e-03
2.051000000000000000e+03 3.284996795654296875e+01 -3.479625320434570312e+01 -3.644755110144615173e-02 -3.689268603920936584e-02 -2.200207114219665527e-02 -5.839742720127105713e-02
2.052000000000000000e+03 7.123677062988281250e+01 8.557164192199707031e+00 1.539220064878463745e-01 1.008606624603271484e+01 3.071996450424194336e+00 -3.499347344040870667e-02
2.053000000000000000e+03 1.226989269256591797e+01 2.760590553283691406e+00 6.323298293864354491e-05 2.047330053756013513e-05 2.511188540665898472e-05 -4.012763747596181929e-05
2.054000000000000000e+03 1.155682182312011719e+01 3.221435546875000000e+00 9.593841969035565853e-05 2.205778400821145624e-05 3.539886165526695549e-05 -6.638863123953342438e-05
2.055000000000000000e+03 1.112042808532714844e+01 2.521519660949707031e+00 5.574401802732609212e-05 2.782472620310727507e-05 2.507062345102895051e-05 -3.885525075020268559e-05
2.056000000000000000e+03 6.765830230712890625e+01 -3.519580841064453125e+01 -2.918136715888977051e-01 1.216634392738342285e+00 2.774462103843688965e-01 5.556645989418029785e-01
2.057000000000000000e+03 4.108344268798828125e+01 1.256158065795898438e+01 -2.851329627446830273e-04 2.792919403873383999e-04 -1.752313664837856777e-06 1.276483671972528100e-04
2.058000000000000000e+03 6.235846710205078125e+01 -3.690340423583984375e+01 2.731231413781642914e-02 6.570270657539367676e-02 2.790450491011142731e-02 -4.217752814292907715e-01
2.059000000000000000e+03 9.550825119018554688e+00 -2.884354972839355469e+01 3.945085918530821800e-04 -1.806440704967826605e-04 6.415935058612376451e-05 -1.685243041720241308e-04
2.060000000000000000e+03 6.873452758789062500e+01 -3.480949401855468750e+01 -3.711744248867034912e-01 2.335077285766601562e+00 5.891708731651306152e-01 7.691920995712280273e-01
2.061000000000000000e+03 5.760041046142578125e+01 -2.488877105712890625e+01 8.594485521316528320e-01 1.786550760269165039e+00 7.937997579574584961e-01 1.123297214508056641e+00
2.062000000000000000e+03 6.256330871582031250e+01 3.684431457519531250e+01 -1.380046308040618896e-01 1.150132268667221069e-01 -6.897421553730964661e-03 3.500183671712875366e-02
2.063000000000000000e+03 6.725328063964843750e+01 3.413545227050781250e+01 -3.473965227603912354e-01 2.874172449111938477e+00 7.580327987670898438e-01 -7.134374380111694336e-01
2.064000000000000000e+03 3.596479034423828125e+01 -3.483435440063476562e+01 -9.093018621206283569e-02 -1.410316675901412964e-01 -6.958855688571929932e-02 -1.774473041296005249e-01
2.065000000000000000e+03 3.847389602661132812e+01 -3.328037643432617188e+01 -3.052906990051269531e-01 -3.422749936580657959e-01 -1.942697167396545410e-01 -3.302949666976928711e-01
2.066000000000000000e+03 5.428208541870117188e+01 3.737738037109375000e+01 -6.021731346845626831e-02 -2.750895544886589050e-02 -2.631787955760955811e-02 5.730161815881729126e-02
2.067000000000000000e+03 5.728630447387695312e+01 3.659787750244140625e+01 -3.101342618465423584e-01 -1.405110862106084824e-02 -9.725560992956161499e-02 1.489491909742355347e-01
2.068000000000000000e+03 7.054828643798828125e+01 -2.053704833984375000e+01 -1.456026196479797363e+00 4.392084121704101562e+00 8.808173537254333496e-01 -1.426420211791992188e+00
2.069000000000000000e+03 1.703836822509765625e+01 -1.268522071838378906e+01 6.721636054862756282e-06 -1.004219757305691019e-05 -9.961684099835110828e-07 -2.651383738339063711e-06
2.070000000000000000e+03 1.790587615966796875e+01 -9.788016319274902344e+00 -1.508194145571906120e-05 -2.679344106581993401e-06 -5.328385668690316379e-06 -7.127701337594771758e-06
2.071000000000000000e+03 4.053897476196289062e+01 -3.469107437133789062e+01 3.239738196134567261e-02 -5.716660618782043457e-01 -1.617805957794189453e-01 -2.180974483489990234e-01
2.072000000000000000e+03 4.222285079956054688e+01 9.322462081909179688e+00 2.988045453093945980e-04 5.830074587720446289e-05 1.071315855369903147e-04 9.562735067447647452e-05
2.073000000000000000e+03 4.213014602661132812e+01 7.506487369537353516e+00 -2.525020972825586796e-04 4.902524233330041170e-05 -6.104305793996900320e-05 -5.473882993101142347e-05
2.074000000000000000e+03 6.206124114990234375e+01 4.125154113769531250e+01 4.116495251655578613e-01 5.010185241699218750e-01 2.738004028797149658e-01 -2.719548344612121582e-02
2.075000000000000000e+03 6.178739166259765625e+01 3.614159774780273438e+01 -4.507485628128051758e-01 -1.071679443120956421e-01 -1.673749536275863647e-01 2.183358967304229736e-01
2.076000000000000000e+03 6.713963317871093750e+01 -1.072020721435546875e+01 3.979236483573913574e-01 2.919740676879882812e+00 9.952992796897888184e-01 7.583030462265014648e-01
2.077000000000000000e+03 2.217241668701171875e+01 -3.412548828125000000e+01 7.731036748737096786e-03 -3.839707642327994108e-04 2.204119693487882614e-03 5.865823477506637573e-03
2.078000000000000000e+03 6.389059829711914062e+01 -3.566867446899414062e+01 -4.942046403884887695e-01 -8.572289347648620605e-02 -1.739782541990280151e-01 -2.402320653200149536e-01
2.079000000000000000e+03 7.111055755615234375e+01 2.302182197570800781e+01 3.358356952667236328e-01 9.923675537109375000e+00 3.077853441238403320e+00 -3.093185126781463623e-01
2.080000000000000000e+03 8.041904449462890625e+00 -1.919976043701171875e+01 2.456449510646052659e-05 8.145630999933928251e-05 3.180624116794206202e-05 2.018993836827576160e-05
2.081000000000000000e+03 6.834276580810546875e+01 -9.374361991882324219e+00 2.158432155847549438e-01 4.033862590789794922e+00 1.274911761283874512e+00 6.892117857933044434e-01
2.082000000000000000e+03 5.821645736694335938e+01 -2.437128448486328125e+01 6.965423226356506348e-01 1.629684925079345703e+00 6.978681683540344238e-01 1.105748295783996582e+00
2.083000000000000000e+03 5.563712310791015625e+01 -2.198893737792968750e+01 -8.154435753822326660e-01 6.020326614379882812e-01 -6.402327120304107666e-02 1.652774959802627563e-01
2.084000000000000000e+03 7.480330657958984375e+01 -2.252837562561035156e+01 -1.115737110376358032e-01 8.503859519958496094e+00 2.517685651779174805e+00 6.860834360122680664e-01
2.085000000000000000e+03 7.078926086425781250e+01 2.642235946655273438e+01 6.163672208786010742e-01 9.212529182434082031e+00 2.948668956756591797e+00 -5.823904871940612793e-01
2.086000000000000000e+03 2.441965484619140625e+01 -7.218623161315917969e+00 6.698983725073048845e-06 5.745781891164369881e-06 3.733429593921755441e-06 -6.815778306190622970e-07
2.087000000000000000e+03 7.290731811523437500e+01 -2.849904441833496094e+01 1.172567486763000488e+00 9.483207702636718750e+00 3.196732759475708008e+00 2.500254809856414795e-01
2.088000000000000000e+03 7.120964050292968750e+01 9.825720787048339844e-01 7.691304683685302734e-01 1.036209297180175781e+01 3.339367151260375977e+00 4.765889346599578857e-01
2.089000000000000000e+03 4.921088790893554688e+01 -1.255982208251953125e+01 3.433901656535454094e-05 -4.737575636681867763e-06 8.880432687874417752e-06 8.459174750896636397e-06
2.090000000000000000e+03 1.153575515747070312e+01 -3.075491142272949219e+01 2.090657362714409828e-03 -1.413732097717002034e-04 5.847853026352822781e-04 5.155323306098580360e-04
2.091000000000000000e+03 7.135387420654296875e+01 -3.290934371948242188e+01 -5.778298974037170410e-01 5.761929512023925781e+00 1.555229902267456055e+00 8.351393342018127441e-01
2.092000000000000000e+03 3.822421646118164062e+01 -1.736510086059570312e+01 -6.611066964978817850e-06 -8.721960512048099190e-06 -4.599908152158604935e-06 1.635758508200524375e-06
2.093000000000000000e+03 2.292269706726074219e+01 -5.210630416870117188e+00 3.315817593829706311e-05 -2.438464980514254421e-05 2.632057885421090759e-06 3.542043032211950049e-06
2.094000000000000000e+03 2.237782478332519531e+01 -4.572098731994628906e+00 3.338002716191112995e-05 -2.733376618380134460e-07 9.932006832968909293e-06 -1.276565490115899593e-05
2.095000000000000000e+03 1.977842712402343750e+01 -1.289017581939697266e+01 4.328689101384952664e-06 1.480693026678636670e-05 5.740685992350336164e-06 2.820394456648500636e-06
2.096000000000000000e+03 1.968347167968750000e+01 -1.135499000549316406e+01 1.225579580932389945e-05 1.894372189781279303e-06 4.245050604367861524e-06 2.916115590778645128e-06
2.097000000000000000e+03 1.595241165161132812e+01 7.688706517219543457e-01 1.066449694917537272e-04 1.968139713426353410e-06 3.258393189753405750e-05 -4.045122113893739879e-05
2.098000000000000000e+03 7.254499053955078125e+01 -2.936378860473632812e+01 7.907385230064392090e-01 9.074870109558105469e+00 2.959682464599609375e+00 3.329438865184783936e-01
2.099000000000000000e+03 4.122269058227539062e+01 1.083664417266845703e+01 -2.783897798508405685e-04 1.879730261862277985e-04 -2.712502464419230819e-05 5.524682637769728899e-05
2.100000000000000000e+03 1.999899673461914062e+01 -2.194004058837890625e+00 6.997583113843575120e-05 -5.423420589067973197e-06 1.936572334670927376e-05 -2.493010470061562955e-05
2.101000000000000000e+03 3.974718856811523438e+01 -3.370741653442382812e+01 -1.292952746152877808e-01 -5.822433233261108398e-01 -2.134615927934646606e-01 -3.367688059806823730e-01
2.102000000000000000e+03 1.409330654144287109e+01 -1.272698497772216797e+01 1.347637862636474892e-05 -5.697749656974337995e-06 2.333588781766593456e-06 2.191644853155594319e-06
2.103000000000000000e+03 6.096047973632812500e+01 -2.229701042175292969e+01 -4.631385803222656250e-01 1.112064599990844727e+00 1.946778148412704468e-01 9.469251632690429688e-01
2.104000000000000000e+03 6.039615631103515625e+01 -2.117043304443359375e+01 -7.889122366905212402e-01 1.299184083938598633e+00 1.530815809965133667e-01 9.851288795471191406e-01
2.105000000000000000e+03 6.127288055419921875e+01 -2.016706275939941406e+01 -8.043186068534851074e-01 1.246911764144897461e+00 1.327779442071914673e-01 9.352831244468688965e-01
2.106000000000000000e+03 7.103356170654296875e+01 1.326364040374755859e+01 -7.097016274929046631e-02 9.509373664855957031e+00 2.831521272659301758e+00 -1.705015003681182861e-01
2.107000000000000000e+03 7.145898437500000000e+01 -3.198323822021484375e+01 -4.110344052314758301e-01 6.307595729827880859e+00 1.768968462944030762e+00 8.520748019218444824e-01
2.108000000000000000e+03 7.269532775878906250e+01 -3.321176147460937500e+01 -6.249248981475830078e-01 6.913467407226562500e+00 1.886562824249267578e+00 3.080006241798400879e-01
2.109000000000000000e+03 5.210591506958007812e+01 -1.620242881774902344e+01 -6.947867404960561544e-06 -2.081039156109909527e-06 -2.708671900109038688e-06 1.011401423056668136e-06
2.110000000000000000e+03 7.140867614746093750e+01 6.897584438323974609e+00 4.934609532356262207e-01 1.054161643981933594e+01 3.310523271560668945e+00 -1.869449168443679810e-01
2.111000000000000000e+03 9.514835357666015625e+00 -1.712464523315429688e+01 2.272938581882044673e-05 8.204889127227943391e-06 9.280282029067166150e-06 -2.226304604846518487e-05
2.112000000000000000e+03 1.448800373077392578e+01 1.577540755271911621e+00 1.075941472663544118e-04 9.211155884258914739e-06 3.504159030853770673e-05 -4.596079452312551439e-05
2.113000000000000000e+03 7.017304229736328125e+01 2.904817390441894531e+01 5.443966984748840332e-01 7.562310695648193359e+00 2.432012319564819336e+00 -7.890729308128356934e-01
2.114000000000000000e+03 6.983835601806640625e+01 2.991545104980468750e+01 3.747682571411132812e-01 6.855103015899658203e+00 2.168961286544799805e+00 -7.699803113937377930e-01
2.115000000000000000e+03 4.183509826660156250e+01 8.299127578735351562e+00 2.517410612199455500e-04 4.692591755883768201e-05 8.960009290603920817e-05 9.832507930696010590e-05
2.116000000000000000e+03 5.931378555297851562e+01 -2.323333168029785156e+01 1.000799834728240967e-01 1.400284290313720703e+00 4.501092731952667236e-01 1.001999855041503906e+00
2.117000000000000000e+03 5.021459197998046875e+01 -1.323990917205810547e+01 2.801146911224350333e-05 -4.000343778898240998e-06 7.203337645478313789e-06 4.693785285780904815e-06
2.118000000000000000e+03 5.014523315429687500e+01 -1.663194656372070312e+01 7.151926638471195474e-06 -8.465801784041104838e-07 1.891604028969595674e-06 -4.529751720383501379e-07
2.119000000000000000e+03 3.385314178466796875e+01 -3.477786254882812500e+01 -6.236133724451065063e-02 -4.851980507373809814e-02 -3.326434269547462463e-02 -9.500226378440856934e-02
2.120000000000000000e+03 3.493957138061523438e+01 -3.497420120239257812e+01 -7.824663817882537842e-02 -8.420826494693756104e-02 -4.873647168278694153e-02 -1.353116482496261597e-01
2.121000000000000000e+03 1.789466476440429688e+01 -8.922211647033691406e+00 -1.299956420552916825e-05 -3.296999011581647210e-06 -4.888968760496936738e-06 -2.523434886825270951e-06
2.122000000000000000e+03 3.626285552978515625e+01 -1.697841453552246094e+01 -1.584225537953898311e-05 -6.530472546728560701e-06 -6.711818059557117522e-06 1.108901344082369178e-07
2.123000000000000000e+03 4.332719802856445312e+01 -2.961920738220214844e+01 -4.079958200454711914e-01 -9.288707375526428223e-01 -4.010599553585052490e-01 -3.281923830509185791e-01
2.124000000000000000e+03 6.103038406372070312e+01 -3.609954071044921875e+01 -1.664862781763076782e-01 2.167275175452232361e-02 -4.344405606389045715e-02 -4.808622002601623535e-01
2.125000000000000000e+03 4.035874176025390625e+01 -1.764350509643554688e+01 -1.330164286628132686e-05 -6.418378688977099955e-06 -5.916006557526998222e-06 -3.688725769279699307e-07
2.126000000000000000e+03 3.900402832031250000e+01 -1.766975593566894531e+01 -4.990023626305628568e-06 -1.775509190338198096e-06 -2.029659754043677822e-06 1.223140543515910394e-06
2.127000000000000000e+03 6.676237487792968750e+01 -1.951791954040527344e+01 -7.663744091987609863e-01 3.105160892009735107e-01 -1.367574930191040039e-01 2.686140239238739014e-01
2.128000000000000000e+03 6.970475769042968750e+01 -2.118110656738281250e+01 -1.570691943168640137e+00 2.536169767379760742e+00 2.896433174610137939e-01 -1.482605814933776855e+00
2.129000000000000000e+03 2.653164148330688477e+00 3.371660709381103516e+00 1.417197381670121104e-05 8.562264156353194267e-06 6.820271664764732122e-06 -9.946264071913901716e-06
2.130000000000000000e+03 8.664400100708007812e+00 -2.620958137512207031e+01 -2.119020064128562808e-04 -8.728049579076468945e-05 -8.975475066108629107e-05 -8.293056453112512827e-05
2.131000000000000000e+03 7.276779651641845703e+00 -2.482188796997070312e+01 8.840362716000527143e-05 1.468106493121013045e-04 7.056428148644044995e-05 1.669515040703117847e-04
2.132000000000000000e+03 4.412268066406250000e+01 -2.800970077514648438e+01 -2.229011207818984985e-01 -7.587715983390808105e-01 -2.945018112659454346e-01 -5.165391564369201660e-01
2.133000000000000000e+03 6.492772674560546875e+01 3.558443832397460938e+01 -2.898577451705932617e-01 8.892313241958618164e-01 1.798120737075805664e-01 -3.307904303073883057e-01
2.134000000000000000e+03 7.186299133300781250e+01 -2.321089172363281250e+01 1.595139950513839722e-01 8.940984725952148438e+00 2.730149507522583008e+00 -4.805207848548889160e-01
2.135000000000000000e+03 7.125965881347656250e+01 -2.063393020629882812e+01 -1.475736379623413086e+00 5.728338241577148438e+00 1.275780558586120605e+00 -1.272229313850402832e+00
2.136000000000000000e+03 1.082948398590087891e+01 -3.014829826354980469e+01 1.277160481549799442e-03 -3.397085529286414385e-04 2.812355814967304468e-04 -1.290767067985143512e-05
2.137000000000000000e+03 5.557790374755859375e+01 -2.866532897949218750e+01 1.071813106536865234e+00 3.287070751190185547e+00 1.307665109634399414e+00 8.384170532226562500e-01
2.138000000000000000e+03 5.455350112915039062e+01 -2.904064369201660156e+01 1.072656393051147461e+00 2.370833396911621094e+00 1.033046960830688477e+00 3.659169375896453857e-01
2.139000000000000000e+03 1.900900006294250488e+00 -3.389457225799560547e+00 -1.013287783280247822e-05 -5.199101451580645517e-07 -3.195836370650795288e-06 -2.523574039514642209e-06
2.140000000000000000e+03 1.132230663299560547e+01 -1.449002552032470703e+01 5.908863749937154353e-05 3.159710104227997363e-05 2.720572229009121656e-05 -1.106759100366616622e-05
2.141000000000000000e+03 1.088328647613525391e+01 -1.521922874450683594e+01 -3.850691064144484699e-05 -3.745585127035155892e-05 -2.278882857353892177e-05 1.989438169403001666e-05
2.142000000000000000e+03 8.514730453491210938e+00 -2.738233757019042969e+01 -3.309242310933768749e-05 -7.813955016899853945e-05 -3.336959343869239092e-05 -1.574198686284944415e-04
2.143000000000000000e+03 5.167962646484375000e+01 3.545695877075195312e+01 -2.475025132298469543e-02 9.838421829044818878e-03 -4.473548848181962967e-03 1.276568230241537094e-02
2.144000000000000000e+03 4.161714553833007812e+01 -1.855144882202148438e+01 -1.360879537060100120e-06 8.434129995293915272e-06 2.121975057889358141e-06 4.930964223603950813e-07
2.145000000000000000e+03 6.342248153686523438e+01 -1.939047813415527344e+01 -6.107512712478637695e-01 9.162060618400573730e-01 9.163641929626464844e-02 7.867941856384277344e-01
2.146000000000000000e+03 4.369488143920898438e+01 -3.178722381591796875e+01 -9.307754784822463989e-02 -7.374737858772277832e-01 -2.491654008626937866e-01 -5.908346176147460938e-02
2.147000000000000000e+03 4.385263442993164062e+01 -3.050774955749511719e+01 -3.272727429866790771e-01 -7.763581871986389160e-01 -3.310892581939697266e-01 -2.035578340291976929e-01
2.148000000000000000e+03 5.863767623901367188e+01 -2.125620079040527344e+01 -8.502476215362548828e-01 1.172292232513427734e+00 9.661339968442916870e-02 8.435770273208618164e-01
2.149000000000000000e+03 5.558800888061523438e+01 -3.404826354980468750e+01 2.472265250980854034e-02 1.926795482635498047e+00 5.854554176330566406e-01 -3.020406886935234070e-02
2.150000000000000000e+03 5.573404693603515625e+01 -3.322093200683593750e+01 1.652698069810867310e-01 2.464388132095336914e+00 7.888973951339721680e-01 -2.612834274768829346e-01
2.151000000000000000e+03 9.457405090332031250e+00 3.619020700454711914e+00 6.282995309447869658e-05 3.683671820908784866e-05 2.990000029967632145e-05 -6.462688907049596310e-05
2.152000000000000000e+03 5.830389404296875000e+01 3.737519454956054688e+01 -1.687065511941909790e-01 -1.582349985837936401e-01 -9.808246046304702759e-02 2.583943009376525879e-01
2.153000000000000000e+03 6.040283203125000000e+01 3.712403488159179688e+01 -2.219925373792648315e-01 -4.832544072996824980e-04 -6.674274057149887085e-02 1.314408630132675171e-01
2.154000000000000000e+03 6.192931747436523438e+01 -2.131664657592773438e+01 -8.127166628837585449e-01 1.014149665832519531e+00 6.042987853288650513e-02 8.366901278495788574e-01
2.155000000000000000e+03 4.702422714233398438e+01 -3.969411611557006836e+00 7.887736865086480975e-05 1.907146724988706410e-05 2.938464967883192003e-05 4.493012602324597538e-05
2.156000000000000000e+03 6.546649932861328125e+01 -2.036905097961425781e+01 -1.293219685554504395e+00 3.485313355922698975e-01 -2.834065258502960205e-01 5.647663474082946777e-01
2.157000000000000000e+03 6.254092407226562500e+01 -1.789416885375976562e+01 5.385104939341545105e-02 1.056738853454589844e+00 3.331769406795501709e-01 7.592698335647583008e-01
2.158000000000000000e+03 4.001316547393798828e+00 -3.863901901245117188e+01 -3.856864932458847761e-04 1.076750108040869236e-03 2.073190844384953380e-04 5.866287392564117908e-04
2.159000000000000000e+03 5.343622589111328125e+01 3.517049026489257812e+01 -5.293494835495948792e-02 -1.165721914730966091e-03 -1.623020134866237640e-02 2.141622267663478851e-02
2.160000000000000000e+03 1.101570415496826172e+01 -4.560821533203125000e+00 -1.085899657482514158e-05 -5.143417183717247099e-06 -4.800724127562716603e-06 -5.482188498717732728e-06
2.161000000000000000e+03 1.213171195983886719e+01 -5.053368568420410156e+00 -1.011691620078636333e-05 -5.811974460812052712e-06 -4.778667062055319548e-06 -3.815297532128170133e-06
2.162000000000000000e+03 4.632838821411132812e+01 -2.583794784545898438e+01 -5.053946748375892639e-02 -3.953540325164794922e-01 -1.337680518627166748e-01 -6.533230543136596680e-01
2.163000000000000000e+03 1.507776737213134766e+01 -6.262094020843505859e+00 -9.108327503781765699e-06 -5.752545803261455148e-06 -4.458262083062436432e-06 -3.555974217306356877e-06
2.164000000000000000e+03 1.294732761383056641e+01 -4.782544136047363281e+00 -9.208555638906545937e-06 -5.929683993599610403e-06 -4.541471753327641636e-06 -3.557999889380880632e-06
2.165000000000000000e+03 1.371053504943847656e+01 -6.014284133911132812e+00 1.165064077213173732e-05 4.524388259596889839e-06 4.852508482144912705e-06 3.769102249862044118e-06
2.166000000000000000e+03 1.318988132476806641e+01 -5.667869567871093750e+00 -1.191465889860410243e-05 -4.729840384243289009e-06 -4.993349648430012167e-06 -3.296940349173382856e-06
2.167000000000000000e+03 1.832077598571777344e+01 -9.358777046203613281e+00 1.341780625807587057e-05 2.341251047255354933e-06 4.727717168862000108e-06 4.016254479211056605e-06
2.168000000000000000e+03 1.181248855590820312e+01 -4.197254180908203125e+00 -8.706893822818528861e-06 -5.981133199384203181e-06 -4.406408152135554701e-06 -4.435615664988290519e-06
2.169000000000000000e+03 1.044090843200683594e+01 -4.372977256774902344e+00 1.175789111584890634e-05 4.892081506113754585e-06 4.994991741114063188e-06 5.215379587752977386e-06
2.170000000000000000e+03 1.900846672058105469e+01 -1.156331634521484375e+01 -7.799245395290199667e-06 5.538067853194661438e-06 -6.783532171539263800e-07 3.860288870782824233e-06
2.171000000000000000e+03 1.938445472717285156e+01 -1.080337619781494141e+01 -1.169734241557307541e-05 -3.227193303700914839e-07 -3.606018481150385924e-06 -8.996651672532607336e-07
2.172000000000000000e+03 2.767560386657714844e+01 -1.142273139953613281e+01 -5.650858383887680247e-06 1.285730468225665390e-05 2.161933934985427186e-06 9.704421245260164142e-06
2.173000000000000000e+03 7.101412963867187500e+01 1.171429729461669922e+01 -6.676852703094482422e-01 9.564809799194335938e+00 2.669137239456176758e+00 -2.061363756656646729e-01
2.174000000000000000e+03 8.092268943786621094e+00 -3.273246288299560547e+00 -7.610888133058324456e-06 -4.583183454087702557e-06 -3.658221430669073015e-06 -5.381182745622936636e-06
2.175000000000000000e+03 9.854296684265136719e+00 -4.222727298736572266e+00 -1.187993439089041203e-05 -5.059265731688356027e-06 -5.081759809399954975e-06 -5.011648681829683483e-06
2.176000000000000000e+03 6.583310699462890625e+01 -1.600959205627441406e+01 5.015428662300109863e-01 1.294011354446411133e+00 5.386662483215332031e-01 5.394457578659057617e-01
2.177000000000000000e+03 3.235119247436523438e+01 -1.593122196197509766e+01 -4.858433840126963332e-06 8.243417141784448177e-06 1.015495172396185808e-06 5.320369382388889790e-06
2.178000000000000000e+03 7.115093231201171875e+01 9.366041183471679688e+00 -2.484513074159622192e-01 9.942942619323730469e+00 2.908347368240356445e+00 -2.522717975080013275e-02
2.179000000000000000e+03 4.790602493286132812e+01 -2.421194839477539062e+01 -2.302205413579940796e-01 -2.526122629642486572e-01 -1.448498368263244629e-01 -7.063385844230651855e-01
2.180000000000000000e+03 4.707211303710937500e+01 -2.377536582946777344e+01 -3.051286339759826660e-01 -2.895968854427337646e-01 -1.784176528453826904e-01 -6.825748085975646973e-01
2.181000000000000000e+03 4.526766586303710938e+01 -2.416121482849121094e+01 -1.835310608148574829e-01 -3.597861230373382568e-01 -1.629951447248458862e-01 -5.906729698181152344e-01
2.182000000000000000e+03 6.583270263671875000e+01 -1.132548999786376953e+01 5.728328227996826172e-01 2.025766372680664062e+00 7.795797586441040039e-01 8.460444808006286621e-01
2.183000000000000000e+03 4.507098007202148438e+01 -2.503713607788085938e+01 -1.065284833312034607e-01 -4.566701352596282959e-01 -1.689595878124237061e-01 -6.116010546684265137e-01
2.184000000000000000e+03 4.865961837768554688e+01 -2.456603050231933594e+01 -1.496682763099670410e-01 -1.904699057340621948e-01 -1.020414531230926514e-01 -6.952592134475708008e-01
2.185000000000000000e+03 4.847127914428710938e+01 -2.340383529663085938e+01 -4.295221865177154541e-01 -2.213339209556579590e-01 -1.952568292617797852e-01 -6.990227103233337402e-01
2.186000000000000000e+03 9.248983383178710938e+00 -4.109632015228271484e+00 1.126732786360662431e-05 5.259802037471672520e-06 4.958139015798224136e-06 5.170966232981299981e-06
2.187000000000000000e+03 1.653686332702636719e+01 -7.563151359558105469e+00 1.110169978346675634e-05 5.472536031447816640e-06 4.972270744474371895e-06 2.370428319409256801e-06
2.188000000000000000e+03 1.557731246948242188e+01 -6.684899330139160156e+00 9.244781722372863442e-06 5.966064236417878419e-06 4.563253696687752381e-06 3.083162710026954301e-06
2.189000000000000000e+03 1.612414169311523438e+01 -8.093146324157714844e+00 -1.319199600402498618e-05 -5.475270882016047835e-06 -5.600179974862840027e-06 -1.671269728831248358e-06
2.190000000000000000e+03 1.421977710723876953e+01 -6.390390872955322266e+00 -1.098973734769970179e-05 -4.845790499530266970e-06 -4.750658263219520450e-06 -3.910976374754682183e-06
2.191000000000000000e+03 1.632418060302734375e+01 -1.160108566284179688e+01 1.542199424875434488e-05 2.814290382957551628e-05 1.306946887780213729e-05 -1.461577994632534683e-06
2.192000000000000000e+03 1.794045066833496094e+01 -1.093672275543212891e+01 8.838837857183534652e-06 6.201023097673896700e-06 4.511958195507759228e-06 -1.683849745859333780e-06
2.193000000000000000e+03 4.253810501098632812e+01 2.816260337829589844e+01 2.802480710670351982e-03 -1.382050104439258575e-03 4.261291469447314739e-04 5.826702690683305264e-04
2.194000000000000000e+03 4.457431030273437500e+01 2.845597457885742188e+01 2.575978869572281837e-03 2.648291119839996099e-04 8.522424031980335712e-04 1.897563575766980648e-03
2.195000000000000000e+03 6.191732788085937500e+01 -2.189725112915039062e+01 -6.629639863967895508e-01 8.902298808097839355e-01 6.817976385354995728e-02 7.863035798072814941e-01
2.196000000000000000e+03 6.427337646484375000e+01 -2.129967117309570312e+01 -1.285427093505859375e+00 5.118992924690246582e-01 -2.320583462715148926e-01 2.955217659473419189e-01
2.197000000000000000e+03 1.158198642730712891e+01 -4.787704944610595703e+00 9.951249012374319136e-06 5.577329375228146091e-06 4.658573288907064125e-06 4.775455181516008452e-06
2.198000000000000000e+03 2.985277557373046875e+01 -3.523308563232421875e+01 -1.017378736287355423e-02 -1.732719875872135162e-02 -8.250296115875244141e-03 -1.267117261886596680e-02
2.199000000000000000e+03 3.106981468200683594e+01 -3.604867553710937500e+01 -1.969251781702041626e-02 -3.836110979318618774e-02 -1.741608791053295135e-02 -3.330777212977409363e-02
2.200000000000000000e+03 3.423450851440429688e+01 -1.685610771179199219e+01 -9.278308425564318895e-06 7.516341611335519701e-06 -5.285898510010156315e-07 1.835325747379101813e-06
2.201000000000000000e+03 3.303085327148437500e+01 -1.603504180908203125e+01 -1.586826510902028531e-05 -5.005371349398046732e-06 -6.262090664677089080e-06 3.716573644396703457e-07
2.202000000000000000e+03 2.839624977111816406e+01 -1.371671009063720703e+01 -1.899739618238527328e-05 -7.550030659331241623e-06 -7.964227734191808850e-06 -1.313249754275602754e-06
2.203000000000000000e+03 2.778392410278320312e+01 -3.302725219726562500e+01 1.915043219923973083e-02 -2.880264539271593094e-03 4.881049972027540207e-03 1.482529100030660629e-03
2.204000000000000000e+03 2.415417098999023438e+01 -3.296334075927734375e+01 1.628050394356250763e-02 -1.843359670601785183e-03 4.331143107265233994e-03 4.235588945448398590e-03
2.205000000000000000e+03 3.166945838928222656e+01 -1.580972290039062500e+01 -1.513729694124776870e-05 -5.649653303407831118e-06 -6.236085027921944857e-06 4.606594643519201782e-07
2.206000000000000000e+03 2.902021980285644531e+01 -1.523282337188720703e+01 -1.228209657710976899e-05 -1.083075221686158329e-05 -6.933854820090346038e-06 2.284045649503241293e-06
2.207000000000000000e+03 4.117443847656250000e+01 1.512005233764648438e+01 5.255425348877906799e-04 4.828561504837125540e-04 3.025195910595357418e-04 2.754505840130150318e-04
2.208000000000000000e+03 4.034059143066406250e+01 1.421937751770019531e+01 4.733251698780804873e-04 3.677717177197337151e-04 2.523290750104933977e-04 2.675620198715478182e-04
2.209000000000000000e+03 4.915999221801757812e+01 -2.325179290771484375e+01 -4.921685159206390381e-01 -1.679021418094635010e-01 -1.980212032794952393e-01 -6.961863040924072266e-01
2.210000000000000000e+03 4.987052917480468750e+01 -2.375889587402343750e+01 -3.295107781887054443e-01 -9.283938258886337280e-02 -1.267050504684448242e-01 -6.715841889381408691e-01
2.211000000000000000e+03 2.884973716735839844e+01 -1.578529834747314453e+01 -3.202697826054645702e-06 6.370700248226057738e-06 9.504007039140560664e-07 3.535286850819829851e-06
2.212000000000000000e+03 1.327286338806152344e+01 -1.310337448120117188e+01 1.339043933512584772e-06 8.447697837254963815e-06 2.936022610811050981e-06 5.659392172674415633e-06
2.213000000000000000e+03 4.855593872070312500e+01 -2.400569534301757812e+01 -2.818540632724761963e-01 -1.997092366218566895e-01 -1.444689929485321045e-01 -7.051285505294799805e-01
2.214000000000000000e+03 5.231752395629882812e+01 -1.460048770904541016e+01 -4.737749350169906393e-06 -7.415040272462647408e-06 -3.645836841315031052e-06 -2.866601334972074255e-06
2.215000000000000000e+03 7.748917388916015625e+01 1.190388965606689453e+01 -6.397356837987899780e-02 6.893018722534179688e+00 2.048713684082031250e+00 7.146377861499786377e-02
2.216000000000000000e+03 2.823991775512695312e+01 -1.090421485900878906e+01 -1.428732389285869431e-06 -1.107162188418442383e-05 -3.750106316147139296e-06 2.689893790375208482e-06
2.217000000000000000e+03 5.200665283203125000e+01 -2.275227546691894531e+01 -6.789888739585876465e-01 6.971507519483566284e-02 -1.827821433544158936e-01 -5.218068361282348633e-01
2.218000000000000000e+03 5.082879257202148438e+01 -1.651158523559570312e+01 -6.846403721283422783e-06 -1.349055651189701166e-06 -2.458637709423783235e-06 1.531856383962804102e-07
2.219000000000000000e+03 5.148852157592773438e+01 -1.637425231933593750e+01 6.318181476672179997e-06 3.991775372469419381e-07 2.015207655858830549e-06 -1.432212911822716706e-06
2.220000000000000000e+03 5.345355224609375000e+01 -2.310948371887207031e+01 -4.607632458209991455e-01 3.586300611495971680e-01 -3.063995577394962311e-02 -2.845985591411590576e-01
2.221000000000000000e+03 2.834325599670410156e+01 -1.254852199554443359e+01 -6.657228823314653710e-06 9.831819625105708838e-06 9.523771495878463611e-07 9.534012860967777669e-06
2.222000000000000000e+03 2.803403663635253906e+01 -1.346614360809326172e+01 -3.842982096102787182e-06 1.186545159725937992e-05 2.406740804872242734e-06 1.483269079471938312e-05
2.223000000000000000e+03 2.858818817138671875e+01 -1.145910167694091797e+01 -4.857520707446383312e-06 1.595255344000179321e-05 3.328510047140298411e-06 1.029382292472291738e-05
2.224000000000000000e+03 4.994727706909179688e+01 -1.598084449768066406e+01 -1.046451961883576587e-05 -5.728400083171436563e-07 -3.311207819933770224e-06 -1.766116156431962736e-06
2.225000000000000000e+03 4.305813980102539062e+01 -1.831256866455078125e+01 -1.151379365182947367e-06 7.259153790073469281e-06 1.832332372941891663e-06 1.109673235077934805e-06
2.226000000000000000e+03 4.232687759399414062e+01 -1.774230766296386719e+01 -1.586362259331508540e-06 8.776552931522019207e-06 2.157057224394520745e-06 1.425647724317968823e-06
2.227000000000000000e+03 5.056390762329101562e+01 -2.367601013183593750e+01 -3.443675935268402100e-01 -5.222933739423751831e-02 -1.189790815114974976e-01 -6.311507821083068848e-01
2.228000000000000000e+03 5.128056335449218750e+01 -2.356193161010742188e+01 -3.642380535602569580e-01 5.240567773580551147e-02 -9.354971349239349365e-02 -5.805241465568542480e-01
2.229000000000000000e+03 5.060826873779296875e+01 -1.588101196289062500e+01 9.114293789025396109e-06 -1.281305230804719031e-06 2.349896703890408389e-06 -1.989516476896824315e-06
2.230000000000000000e+03 4.674636840820312500e+01 -3.302567481994628906e+00 -7.528628339059650898e-05 -5.260262696538120508e-05 -3.836667383438907564e-05 -4.674595766118727624e-05
2.231000000000000000e+03 4.909222412109375000e+01 -8.036452293395996094e+00 -5.754692756454460323e-05 -1.672994403634220362e-05 -2.228306220786180347e-05 -1.983760375878773630e-05
2.232000000000000000e+03 4.839074707031250000e+01 -8.124864578247070312e+00 5.420910747488960624e-05 5.175642854737816378e-06 1.781542596290819347e-05 2.082384889945387840e-05
2.233000000000000000e+03 5.490639877319335938e+01 -2.212134742736816406e+01 -8.185496330261230469e-01 4.876345098018646240e-01 -9.927453100681304932e-02 -1.750569418072700500e-02
2.234000000000000000e+03 5.417753219604492188e+01 -2.227525520324707031e+01 -7.943441867828369141e-01 3.445542454719543457e-01 -1.349369734525680542e-01 -1.859928220510482788e-01
2.235000000000000000e+03 2.893392753601074219e+01 -3.440183639526367188e+01 1.687773386947810650e-03 -7.874292321503162384e-03 -1.855955692008137703e-03 -3.608497558161616325e-03
2.236000000000000000e+03 4.754257965087890625e+01 -5.325294017791748047e+00 7.351914973696693778e-05 9.956802387023344636e-06 2.504278563719708472e-05 4.193711356492713094e-05
2.237000000000000000e+03 4.768080520629882812e+01 -3.749283552169799805e+00 -9.087092621484771371e-05 -3.957920853281393647e-05 -3.913504042429849505e-05 -4.261180947651155293e-05
2.238000000000000000e+03 3.369948577880859375e+01 -1.612866020202636719e+01 -5.281853191263508052e-06 7.516869573009898886e-06 6.705049599986523390e-07 2.813539367707562633e-06
2.239000000000000000e+03 4.801036071777343750e+01 -1.703932762145996094e+01 -6.629861218243604526e-06 -2.855410684787784703e-06 -2.845581548172049224e-06 -5.711969606636557728e-06
2.240000000000000000e+03 4.896311950683593750e+01 -1.030330467224121094e+01 -4.251080463291145861e-05 -8.369765964744146913e-06 -1.526417145214509219e-05 -1.384062943543540314e-05
2.241000000000000000e+03 4.986411285400390625e+01 -1.102752113342285156e+01 -3.934227788704447448e-05 -4.691193225880851969e-06 -1.321004219789756462e-05 -8.982407962321303785e-06
2.242000000000000000e+03 4.917367935180664062e+01 -1.179326629638671875e+01 -3.640248178271576762e-05 -2.483404614395112731e-06 -1.166576657851692289e-05 -1.037191941577475518e-05
2.243000000000000000e+03 4.408529281616210938e+01 2.068874359130859375e+00 -1.102995156543329358e-04 -7.937275950098410249e-05 -5.690168109140358865e-05 -7.646006997674703598e-05
2.244000000000000000e+03 4.781469726562500000e+01 -1.636393928527832031e+01 6.635149020439712331e-06 2.244541065010707825e-06 2.663907025635126047e-06 3.886342256009811535e-06
2.245000000000000000e+03 2.276443290710449219e+01 -3.283255386352539062e+01 1.442002411931753159e-02 -1.035425346344709396e-03 4.015379585325717926e-03 4.435206763446331024e-03
2.246000000000000000e+03 9.576236724853515625e+00 -3.009104537963867188e+01 8.985912427306175232e-04 -2.854226622730493546e-04 1.839505712268874049e-04 2.826443778758402914e-05
2.247000000000000000e+03 8.943884849548339844e+00 -2.939109420776367188e+01 7.180596003308892250e-04 6.601149652851745486e-05 2.352213195990771055e-04 2.369811554672196507e-04
2.248000000000000000e+03 4.925328826904296875e+01 -1.608664321899414062e+01 9.780449545360170305e-06 -9.048560514202108607e-07 2.662677843545679934e-06 1.654119273553078528e-06
2.249000000000000000e+03 4.853969192504882812e+01 -1.621208000183105469e+01 -9.599310033081565052e-06 -2.598748778837034479e-06 -3.659417643575579859e-06 -6.098204266891116276e-06
2.250000000000000000e+03 3.187693023681640625e+01 -1.516809082031250000e+01 -2.385720335951191373e-06 9.676175977801904082e-06 2.187136715292581357e-06 6.695764113828772679e-06
2.251000000000000000e+03 4.776718902587890625e+01 -6.015336513519287109e+00 -6.742466212017461658e-05 -3.021474185516126454e-05 -2.929182119260076433e-05 -4.111249290872365236e-05
2.252000000000000000e+03 4.370470046997070312e+01 2.769111394882202148e+00 1.200944898300804198e-04 5.278858952806331217e-05 5.186492489883676171e-05 9.046417108038440347e-05
2.253000000000000000e+03 4.473163604736328125e+01 2.405253171920776367e+00 1.463802327634766698e-04 4.706697291112504900e-05 5.803415842819958925e-05 9.908823994919657707e-05
2.254000000000000000e+03 4.729496002197265625e+01 3.134261703491210938e+01 5.116701126098632812e-03 2.095986856147646904e-03 2.163806464523077011e-03 5.871219327673316002e-04
2.255000000000000000e+03 4.409844970703125000e+01 3.039391136169433594e+01 2.577211940661072731e-03 -1.435574144124984741e-03 3.424913447815924883e-04 1.191919669508934021e-03
2.256000000000000000e+03 9.167082786560058594e+00 4.394796371459960938e+00 5.078398316982202232e-05 1.346319277217844501e-05 1.927415360114537179e-05 -4.930398790747858584e-05
2.257000000000000000e+03 8.481849670410156250e+00 4.188656806945800781e+00 5.430857709143310785e-05 3.636061592260375619e-05 2.720075826800893992e-05 -6.519335147459059954e-05
2.258000000000000000e+03 4.433832550048828125e+01 -1.734313392639160156e+01 -5.521656476048519835e-06 -6.246308203117223457e-06 -3.530389449224458076e-06 -5.125469670019811019e-06
2.259000000000000000e+03 4.366950607299804688e+01 -1.750126457214355469e+01 -1.878571254110283917e-07 7.625919351994525641e-06 2.231418648079852574e-06 1.600941459400928579e-06
2.260000000000000000e+03 1.585023117065429688e+01 2.459015369415283203e+00 8.220301970141008496e-05 -1.023527238430688158e-05 2.159032374038361013e-05 -2.826134368660859764e-05
2.261000000000000000e+03 2.580552673339843750e+01 -8.131747245788574219e+00 1.042952499119564891e-05 -1.750469164107926190e-05 -2.122549631167203188e-06 3.369578735146205872e-06
2.262000000000000000e+03 2.516926527023315430e+00 8.259175300598144531e+00 1.943029019457753748e-05 5.043328565079718828e-05 2.095907257171347737e-05 -2.808589124470017850e-05
2.263000000000000000e+03 2.635039329528808594e+00 4.129921436309814453e+00 3.468404088380339090e-07 1.840926233853679150e-05 5.626830898108892143e-06 -1.371011512674158439e-05
2.264000000000000000e+03 7.788524627685546875e+00 4.037021160125732422e+00 4.788204751093871891e-05 1.307725324295461178e-05 1.828779022616799921e-05 -4.721534423879347742e-05
2.265000000000000000e+03 5.673702716827392578e+00 3.991864681243896484e+00 2.076126475003547966e-05 2.830789526342414320e-05 1.472074745834106579e-05 -3.994779399363324046e-05
2.266000000000000000e+03 7.614357471466064453e+00 4.650109767913818359e+00 4.617091690306551754e-05 3.520078826113604009e-05 2.441151264065410942e-05 -6.161717465147376060e-05
2.267000000000000000e+03 6.464334487915039062e+00 3.275414705276489258e+00 2.856694300135131925e-05 2.671162110345903784e-05 1.658356995903886855e-05 -4.004097354481928051e-05
2.268000000000000000e+03 6.891745758056640625e+01 -7.945081710815429688e+00 1.362897604703903198e-01 4.830571651458740234e+00 1.490058422088623047e+00 7.436365485191345215e-01
2.269000000000000000e+03 6.794962310791015625e+01 -8.467369079589843750e+00 2.788144946098327637e-01 3.970932483673095703e+00 1.274924159049987793e+00 9.239314198493957520e-01
2.270000000000000000e+03 7.146219635009765625e+01 5.243847846984863281e+00 2.511121928691864014e-01 1.088467884063720703e+01 3.340737342834472656e+00 -1.189749762415885925e-01
2.271000000000000000e+03 1.870323300361633301e+00 4.178424835205078125e+00 1.274740498047322035e-05 1.097266158467391506e-05 7.116019787645200267e-06 -9.553607924317475408e-06
2.272000000000000000e+03 1.884824872016906738e+00 3.404689311981201172e+00 -2.513792651370749809e-06 1.030305065796710551e-05 2.336777470191009343e-06 -5.701514965039677918e-06
2.273000000000000000e+03 2.394231414794921875e+01 -6.536630153656005859e+00 2.068823960144072771e-05 -2.188861799368169159e-05 -3.601136029374174541e-07 3.919573828170541674e-06
2.274000000000000000e+03 2.489945983886718750e+01 -5.551868915557861328e+00 3.136616214760579169e-05 -2.569929347373545170e-05 1.700060579423734453e-06 4.654985787055920810e-06
2.275000000000000000e+03 1.736766624450683594e+01 -1.363300234079360962e-01 9.956267604138702154e-05 -3.189163180650211871e-06 2.891205440391786397e-05 -3.519541496643796563e-05
2.276000000000000000e+03 1.771393775939941406e+01 4.727710187435150146e-01 8.383455133298411965e-05 -1.639333822822663933e-05 2.023236447712406516e-05 -1.103172508010175079e-05
2.277000000000000000e+03 4.090948104858398438e+01 1.854442977905273438e+01 9.171552665065973997e-05 5.909107858315110207e-04 2.047878806479275227e-04 6.415339303202927113e-04
2.278000000000000000e+03 4.300199127197265625e+01 -1.763500404357910156e+01 -6.923946784809231758e-06 -6.055848643882200122e-06 -3.893938355759019032e-06 -4.734974481834797189e-06
2.279000000000000000e+03 5.879243087768554688e+01 -2.382948303222656250e+01 4.563027918338775635e-01 1.496035337448120117e+00 5.857014060020446777e-01 1.075685262680053711e+00
2.280000000000000000e+03 4.416333007812500000e+01 -2.665750503540039062e+01 -1.003374606370925903e-01 -7.092874050140380859e-01 -2.428874671459197998e-01 -5.533295869827270508e-01
2.281000000000000000e+03 7.548401641845703125e+01 -2.405667495727539062e+01 4.499131739139556885e-01 8.499923706054687500e+00 2.684951066970825195e+00 6.870633959770202637e-01
2.282000000000000000e+03 6.311144638061523438e+01 -1.829885292053222656e+01 -1.628857254981994629e-01 9.892970919609069824e-01 2.479234039783477783e-01 7.808879017829895020e-01
2.283000000000000000e+03 7.337699890136718750e+01 -2.778519439697265625e+01 1.256607651710510254e+00 9.525651931762695312e+00 3.234678030014038086e+00 1.366293579339981079e-01
2.284000000000000000e+03 7.204926300048828125e+01 2.676224470138549805e+00 6.154362559318542480e-01 1.009266471862792969e+01 3.212430238723754883e+00 2.319378107786178589e-01
2.285000000000000000e+03 2.206452560424804688e+01 -2.243156194686889648e+00 7.001154153840616345e-05 -1.140105950980796479e-06 2.066143133561126888e-05 -1.905151293613016605e-05
2.286000000000000000e+03 2.164115715026855469e+01 -2.796073675155639648e+00 5.951177445240318775e-05 -3.040041156054940075e-05 8.733409231354016811e-06 3.931315859517781064e-06
2.287000000000000000e+03 4.427579116821289062e+01 2.582100677490234375e+01 9.826178429648280144e-04 1.658425317145884037e-03 7.923129596747457981e-04 2.309841802343726158e-03
2.288000000000000000e+03 4.263003158569335938e+01 2.471070098876953125e+01 3.005493897944688797e-03 8.111775387078523636e-04 1.145001500844955444e-03 1.362717128358781338e-03
2.289000000000000000e+03 2.224046134948730469e+01 -3.413892507553100586e+00 5.094337393529713154e-05 -1.023000422151199018e-07 1.525232255517039448e-05 -1.620529474166687578e-05
2.290000000000000000e+03 1.936259841918945312e+01 -1.648668527603149414e+00 7.128126162569969893e-05 -1.942254857567604631e-05 1.555761264171451330e-05 -2.750398834905354306e-06
2.291000000000000000e+03 1.974779129028320312e+01 -1.069218993186950684e+00 8.912409975891932845e-05 -6.502052656287560239e-06 2.478661372151691467e-05 -2.746275458775926381e-05
2.292000000000000000e+03 7.105868530273437500e+01 1.406035232543945312e+01 1.360974311828613281e-01 9.651210784912109375e+00 2.936192512512207031e+00 -7.309020310640335083e-02
2.293000000000000000e+03 2.570378494262695312e+01 -9.289902687072753906e+00 2.952381464638165198e-06 -1.600091127329505980e-05 -3.914559329132316634e-06 4.040782641823170707e-06
2.294000000000000000e+03 2.621678352355957031e+01 -8.822348594665527344e+00 -3.632171967637987109e-07 1.184090888273203745e-05 3.443307377892779186e-06 5.032137778471224010e-06
2.295000000000000000e+03 7.183576965332031250e+01 2.311546707153320312e+01 3.754401803016662598e-01 9.436989784240722656e+00 2.943729162216186523e+00 -2.104454189538955688e-01
2.296000000000000000e+03 2.088653945922851562e+01 -3.439461898803710938e+01 5.575002636760473251e-03 8.900081738829612732e-04 1.939503243193030357e-03 5.805594380944967270e-03
2.297000000000000000e+03 6.864097595214843750e+01 3.381935119628906250e+01 -4.557205438613891602e-01 4.337537288665771484e+00 1.164544939994812012e+00 -6.566060781478881836e-01
2.298000000000000000e+03 4.651193237304687500e+01 -1.010396242141723633e+00 -1.094125400413759053e-04 -6.578134343726560473e-05 -5.255816358840093017e-05 -5.944903750787489116e-05
2.299000000000000000e+03 7.806524658203125000e+01 3.548658370971679688e+01 -6.910058856010437012e-02 8.286067008972167969e+00 2.465089797973632812e+00 2.740308344364166260e-01
2.300000000000000000e+03 7.739664459228515625e+01 2.940945053100585938e+01 2.769356779754161835e-02 7.432602405548095703e+00 2.238088846206665039e+00 5.610035657882690430e-01
2.301000000000000000e+03 7.800396728515625000e+01 3.102663803100585938e+01 -9.055177681148052216e-03 7.668761253356933594e+00 2.297911882400512695e+00 4.792922437191009521e-01
2.302000000000000000e+03 7.819256591796875000e+01 1.503552532196044922e+01 -1.203630398958921432e-02 6.562077999114990234e+00 1.965012550354003906e+00 -1.768955029547214508e-02
2.303000000000000000e+03 7.747707366943359375e+01 1.433340454101562500e+01 -3.273500502109527588e-02 6.901063442230224609e+00 2.060498476028442383e+00 -1.018978655338287354e-02
2.304000000000000000e+03 7.746815490722656250e+01 2.859515380859375000e+01 4.780103266239166260e-02 7.339723587036132812e+00 2.216257333755493164e+00 5.326386094093322754e-01
2.305000000000000000e+03 7.822928619384765625e+01 2.142963409423828125e+01 3.777295723557472229e-02 6.563659667968750000e+00 1.980429768562316895e+00 7.061310857534408569e-02
2.306000000000000000e+03 7.536164093017578125e+01 1.389833641052246094e+01 -1.002101898193359375e-01 7.889483928680419922e+00 2.336782217025756836e+00 -3.283027932047843933e-02
2.307000000000000000e+03 7.819406890869140625e+01 1.261827945709228516e+01 -3.320148214697837830e-02 6.554453372955322266e+00 1.956375598907470703e+00 3.661153838038444519e-02
2.308000000000000000e+03 7.720181274414062500e+01 3.106760787963867188e+01 -2.936928533017635345e-02 7.611379146575927734e+00 2.274602890014648438e+00 5.787380933761596680e-01
2.309000000000000000e+03 7.782685852050781250e+01 -3.477521896362304688e+01 -9.748735278844833374e-02 8.778280258178710938e+00 2.604238033294677734e+00 -3.526076078414916992e-01
2.310000000000000000e+03 7.652069854736328125e+01 -3.759511947631835938e+01 -1.768941581249237061e-01 8.076084136962890625e+00 2.369756937026977539e+00 -1.965573877096176147e-01
2.311000000000000000e+03 7.829098510742187500e+01 -2.113883781433105469e+01 -6.531699746847152710e-02 8.782598495483398438e+00 2.615184307098388672e+00 4.636141955852508545e-01
2.312000000000000000e+03 7.274257659912109375e+01 -2.472784996032714844e+01 1.223461627960205078e+00 9.812043190002441406e+00 3.310651302337646484e+00 -1.687235981225967407e-01
2.313000000000000000e+03 7.820837402343750000e+01 -1.399228477478027344e+01 -6.076133623719215393e-02 8.841661453247070312e+00 2.634270191192626953e+00 -2.497258931398391724e-01
2.314000000000000000e+03 7.828116607666015625e+01 -1.875019264221191406e+01 -1.257394552230834961e-01 9.058076858520507812e+00 2.679701328277587891e+00 1.936348527669906616e-01
2.315000000000000000e+03 7.813930511474609375e+01 7.729857444763183594e+00 2.179273962974548340e-02 6.402366638183593750e+00 1.927247881889343262e+00 1.296711117029190063e-01
2.316000000000000000e+03 7.734733581542968750e+01 6.926163196563720703e+00 7.120531797409057617e-02 6.833254814147949219e+00 2.071337938308715820e+00 1.282567530870437622e-01
2.317000000000000000e+03 7.817066192626953125e+01 -2.754814529418945312e+01 1.951825022697448730e-01 8.015300750732421875e+00 2.463145017623901367e+00 -1.372242569923400879e-01
2.318000000000000000e+03 7.749230957031250000e+01 -2.832071685791015625e+01 2.992233932018280029e-01 8.165947914123535156e+00 2.539551496505737305e+00 -3.202071487903594971e-01
2.319000000000000000e+03 7.823072052001953125e+01 -6.732990741729736328e+00 -1.950931362807750702e-02 7.783114433288574219e+00 2.329081535339355469e+00 -4.657512903213500977e-01
2.320000000000000000e+03 7.821790313720703125e+01 4.147434532642364502e-01 7.659354805946350098e-02 6.546700477600097656e+00 1.986988186836242676e+00 -3.440600633621215820e-01
2.321000000000000000e+03 7.744355773925781250e+01 -1.154903054237365723e+00 8.864943683147430420e-02 7.025900363922119141e+00 2.134364843368530273e+00 -5.402501225471496582e-01
2.322000000000000000e+03 7.754740905761718750e+01 3.589565277099609375e+00 1.365188062191009521e-01 6.664537429809570312e+00 2.040316820144653320e+00 -1.210820376873016357e-01
2.323000000000000000e+03 7.818733215332031250e+01 5.235512733459472656e+00 7.432545721530914307e-02 6.300678253173828125e+00 1.912501096725463867e+00 1.287956442683935165e-02
2.324000000000000000e+03 7.821279907226562500e+01 -2.990974807739257812e+01 7.958944886922836304e-02 8.248563766479492188e+00 2.498445987701416016e+00 -4.622010588645935059e-01
2.325000000000000000e+03 7.738771057128906250e+01 6.046311378479003906e+00 1.093637645244598389e-01 6.790910243988037109e+00 2.070082187652587891e+00 8.259516209363937378e-02
2.326000000000000000e+03 7.724819183349609375e+01 3.674638366699218750e+01 -9.794519841670989990e-02 8.053918838500976562e+00 2.386791944503784180e+00 2.489701956510543823e-01
2.327000000000000000e+03 7.839006805419921875e+01 3.617638778686523438e+01 -4.730474948883056641e-02 8.455000877380371094e+00 2.522308826446533203e+00 2.057564705610275269e-01
2.328000000000000000e+03 7.823003387451171875e+01 2.007773160934448242e+00 7.968576252460479736e-02 6.372080326080322266e+00 1.935529828071594238e+00 -2.229610383510589600e-01
2.329000000000000000e+03 7.753035736083984375e+01 4.195796549320220947e-01 1.284460723400115967e-01 6.853245735168457031e+00 2.094507694244384766e+00 -4.223865270614624023e-01
2.330000000000000000e+03 7.750715637207031250e+01 1.027971744537353516e+01 -4.853065684437751770e-02 6.855804920196533203e+00 2.042182207107543945e+00 1.326077878475189209e-01
2.331000000000000000e+03 7.820148468017578125e+01 1.100946044921875000e+01 -3.344046697020530701e-02 6.516892433166503906e+00 1.945035576820373535e+00 8.888628333806991577e-02
2.332000000000000000e+03 7.743624114990234375e+01 8.636149406433105469e+00 3.931570332497358322e-03 6.820381641387939453e+00 2.047293901443481445e+00 1.669226884841918945e-01
2.333000000000000000e+03 7.739701843261718750e+01 7.796971321105957031e+00 2.860564738512039185e-02 6.815952301025390625e+00 2.053367376327514648e+00 1.510877609252929688e-01
2.334000000000000000e+03 7.819831848144531250e+01 1.181524372100830078e+01 -3.551447764039039612e-02 6.537402153015136719e+00 1.950566291809082031e+00 6.213179230690002441e-02
2.335000000000000000e+03 7.250429534912109375e+01 1.024042987823486328e+01 -3.906933069229125977e-01 9.385525703430175781e+00 2.698449850082397461e+00 9.477350860834121704e-02
2.336000000000000000e+03 7.747540283203125000e+01 1.352313613891601562e+01 -4.427903145551681519e-02 6.901442527770996094e+00 2.057148933410644531e+00 1.154347416013479233e-02
2.337000000000000000e+03 7.753951263427734375e+01 1.993682146072387695e+00 1.394190490245819092e-01 6.733582019805908203e+00 2.061900377273559570e+00 -2.690524160861968994e-01
2.338000000000000000e+03 7.822872924804687500e+01 3.606151580810546875e+00 7.472531497478485107e-02 6.284187793731689453e+00 1.907673954963684082e+00 -1.012009158730506897e-01
2.339000000000000000e+03 7.754626464843750000e+01 1.203289985656738281e+00 1.398374438285827637e-01 6.774863719940185547e+00 2.074410438537597656e+00 -3.469580411911010742e-01
2.340000000000000000e+03 7.211215972900390625e+01 3.534376621246337891e+00 4.729542136192321777e-01 1.019223785400390625e+01 3.199557781219482422e+00 1.824878305196762085e-01
2.341000000000000000e+03 7.568045043945312500e+01 5.998639583587646484e+00 2.143111079931259155e-01 7.742799282073974609e+00 2.387133121490478516e+00 1.058341786265373230e-01
2.342000000000000000e+03 7.753669738769531250e+01 2.790126562118530273e+00 1.325416117906570435e-01 6.695341110229492188e+00 2.048364877700805664e+00 -1.993274986743927002e-01
2.343000000000000000e+03 7.750343322753906250e+01 5.201929092407226562e+00 1.166282743215560913e-01 6.699762344360351562e+00 2.044917106628417969e+00 1.854820922017097473e-02
2.344000000000000000e+03 7.753186798095703125e+01 -2.262517738342285156e+01 6.334916222840547562e-03 8.500856399536132812e+00 2.552157402038574219e+00 6.280035376548767090e-01
2.345000000000000000e+03 7.824997711181640625e+01 -5.139245033264160156e+00 -1.011927425861358643e-02 7.492865562438964844e+00 2.244823932647705078e+00 -4.884729385375976562e-01
2.346000000000000000e+03 7.754737091064453125e+01 -6.705482006072998047e+00 -3.467485308647155762e-02 7.693834781646728516e+00 2.297748088836669922e+00 -5.691222548484802246e-01
2.347000000000000000e+03 7.701168823242187500e+01 -1.969059371948242188e+01 -3.136311173439025879e-01 8.623888969421386719e+00 2.493077516555786133e+00 3.681745231151580811e-01
2.348000000000000000e+03 7.765731811523437500e+01 -1.716363716125488281e+01 -1.803099066019058228e-01 8.787218093872070312e+00 2.582072496414184570e+00 -1.278471201658248901e-02
2.349000000000000000e+03 7.761265563964843750e+01 -1.953416252136230469e+01 -2.353881746530532837e-01 8.784889221191406250e+00 2.564850330352783203e+00 3.351099193096160889e-01
2.350000000000000000e+03 7.760497283935546875e+01 -1.871109390258789062e+01 -2.204129993915557861e-01 8.797262191772460938e+00 2.573054790496826172e+00 2.008206248283386230e-01
2.351000000000000000e+03 7.819719696044921875e+01 1.664583015441894531e+01 2.963814884424209595e-03 6.548485279083251953e+00 1.965434789657592773e+00 -2.402703091502189636e-02
2.352000000000000000e+03 7.756427764892578125e+01 -5.913669109344482422e+00 -2.688479050993919373e-02 7.595304965972900391e+00 2.270526170730590820e+00 -5.840957164764404297e-01
2.353000000000000000e+03 7.758024597167968750e+01 -5.126674175262451172e+00 -1.901705376803874969e-02 7.493944644927978516e+00 2.242478132247924805e+00 -5.943863987922668457e-01
2.354000000000000000e+03 7.825990295410156250e+01 -1.638253593444824219e+01 -8.669273555278778076e-02 9.053093910217285156e+00 2.689920425415039062e+00 -7.534817606210708618e-02
2.355000000000000000e+03 7.758132171630859375e+01 -1.641932678222656250e+01 -1.571362614631652832e-01 8.717774391174316406e+00 2.568191528320312500e+00 -1.043724492192268372e-01
2.356000000000000000e+03 7.744528198242187500e+01 -1.949046730995178223e+00 6.386175751686096191e-02 7.111908912658691406e+00 2.152731180191040039e+00 -5.794390439987182617e-01
2.357000000000000000e+03 7.750331115722656250e+01 -1.481166076660156250e+01 -1.187323331832885742e-01 8.551220893859863281e+00 2.529746532440185547e+00 -2.636323869228363037e-01
2.358000000000000000e+03 7.750080108642578125e+01 -2.743291854858398438e+00 4.246380552649497986e-02 7.198497772216796875e+00 2.172288417816162109e+00 -6.012641787528991699e-01
2.359000000000000000e+03 7.252615356445312500e+01 1.575464153289794922e+01 8.507713675498962402e-02 9.137229919433593750e+00 2.766692161560058594e+00 -1.279025431722402573e-02
2.360000000000000000e+03 7.748264312744140625e+01 1.595210456848144531e+01 -4.779856652021408081e-03 6.884785175323486328e+00 2.064001560211181641e+00 -2.940039150416851044e-02
2.361000000000000000e+03 7.748577880859375000e+01 1.675629806518554688e+01 9.538585320115089417e-03 6.878459930419921875e+00 2.066399574279785156e+00 -2.780451811850070953e-02
2.362000000000000000e+03 7.749530792236328125e+01 1.835652351379394531e+01 2.967931143939495087e-02 6.869266510009765625e+00 2.069683790206909180e+00 -8.928802795708179474e-03
2.363000000000000000e+03 7.753047180175781250e+01 2.073536109924316406e+01 5.386749655008316040e-02 6.863537788391113281e+00 2.075221538543701172e+00 5.998125672340393066e-02
2.364000000000000000e+03 7.750387573242187500e+01 1.915459060668945312e+01 3.597051277756690979e-02 6.866553783416748047e+00 2.070757150650024414e+00 8.732047863304615021e-03
2.365000000000000000e+03 7.821231079101562500e+01 -1.238593673706054688e+01 -3.725898265838623047e-02 8.653373718261718750e+00 2.584834337234497070e+00 -3.184892535209655762e-01
2.366000000000000000e+03 7.751656341552734375e+01 -1.400540924072265625e+01 -9.598921239376068115e-02 8.484038352966308594e+00 2.516414642333984375e+00 -3.147952258586883545e-01
2.367000000000000000e+03 7.672745513916015625e+01 -9.147531509399414062e+00 -6.791204214096069336e-02 7.756734848022460938e+00 2.306646823883056641e+00 -5.741173624992370605e-01
2.368000000000000000e+03 7.752900695800781250e+01 -1.321019840240478516e+01 -8.250876516103744507e-02 8.417831420898437500e+00 2.500596761703491211e+00 -3.612145781517028809e-01
2.369000000000000000e+03 7.751729583740234375e+01 -1.241366195678710938e+01 -5.469894781708717346e-02 8.328112602233886719e+00 2.482024192810058594e+00 -4.000971615314483643e-01
2.370000000000000000e+03 7.745712280273437500e+01 -9.976516723632812500e+00 -4.619211703538894653e-02 8.057013511657714844e+00 2.403246641159057617e+00 -4.854981303215026855e-01
2.371000000000000000e+03 7.752403259277343750e+01 -7.511785984039306641e+00 -4.152574017643928528e-02 7.789871215820312500e+00 2.324503660202026367e+00 -5.527784824371337891e-01
2.372000000000000000e+03 7.822441101074218750e+01 2.300594711303710938e+01 5.520670488476753235e-02 6.628349304199218750e+00 2.005066871643066406e+00 1.426327973604202271e-01
2.373000000000000000e+03 7.680289459228515625e+01 -2.835998725891113281e+01 4.539014101028442383e-01 8.244860649108886719e+00 2.609628677368164062e+00 -3.590159416198730469e-01
2.374000000000000000e+03 7.746503448486328125e+01 -9.152778625488281250e+00 -4.386349767446517944e-02 7.970586776733398438e+00 2.378016948699951172e+00 -5.080904960632324219e-01
2.375000000000000000e+03 7.751095581054687500e+01 -2.422637939453125000e+01 2.029789388179779053e-01 8.297446250915527344e+00 2.550127744674682617e+00 5.202949047088623047e-01
2.376000000000000000e+03 7.820872497558593750e+01 -2.429596710205078125e+01 1.195959299802780151e-01 8.216700553894042969e+00 2.500889062881469727e+00 4.287084341049194336e-01
2.377000000000000000e+03 7.820962524414062500e+01 2.379114532470703125e+01 6.088737770915031433e-02 6.681254386901855469e+00 2.022642612457275391e+00 1.866109073162078857e-01
2.378000000000000000e+03 7.755062103271484375e+01 2.229606437683105469e+01 8.263501524925231934e-02 6.881745338439941406e+00 2.089314222335815430e+00 1.274973005056381226e-01
2.379000000000000000e+03 7.818230438232421875e+01 2.537866020202636719e+01 6.194713339209556580e-02 6.826937675476074219e+00 2.066665410995483398e+00 2.837853729724884033e-01
2.380000000000000000e+03 7.251815795898437500e+01 2.405210113525390625e+01 4.975798726081848145e-01 8.870765686035156250e+00 2.810503721237182617e+00 -9.810945391654968262e-02
2.381000000000000000e+03 7.298375701904296875e+01 -2.711135673522949219e+01 1.251169919967651367e+00 1.016444110870361328e+01 3.424683332443237305e+00 2.759177386760711670e-01
2.382000000000000000e+03 7.746166229248046875e+01 -2.585780143737792969e+01 3.523880839347839355e-01 8.159808158874511719e+00 2.553658962249755859e+00 2.282571941614151001e-01
2.383000000000000000e+03 7.349305725097656250e+01 -2.619304847717285156e+01 1.272106051445007324e+00 9.631198883056640625e+00 3.270991563796997070e+00 1.319082081317901611e-01
2.384000000000000000e+03 7.744190979003906250e+01 -2.669293594360351562e+01 3.691267371177673340e-01 8.139629364013671875e+00 2.552626848220825195e+00 3.444003686308860779e-02
2.385000000000000000e+03 7.178788757324218750e+01 2.396282386779785156e+01 5.025545954704284668e-01 9.323351860046386719e+00 2.947771787643432617e+00 -2.540050148963928223e-01
2.386000000000000000e+03 7.682334899902343750e+01 2.858866500854492188e+01 7.245624065399169922e-02 7.390154361724853516e+00 2.238783121109008789e+00 5.894357562065124512e-01
2.387000000000000000e+03 7.749850463867187500e+01 2.779280471801757812e+01 7.193984091281890869e-02 7.250173091888427734e+00 2.196633815765380859e+00 4.995551705360412598e-01
2.388000000000000000e+03 7.744089508056640625e+01 2.622018814086914062e+01 1.002386957406997681e-01 7.109692573547363281e+00 2.162979364395141602e+00 4.085503518581390381e-01
2.389000000000000000e+03 7.801377868652343750e+01 -3.311840820312500000e+01 -6.954594701528549194e-02 8.697447776794433594e+00 2.588370561599731445e+00 -4.647588729858398438e-01
2.390000000000000000e+03 7.714661407470703125e+01 -3.381950378417968750e+01 -1.606170088052749634e-01 8.511844635009765625e+00 2.505368471145629883e+00 -4.684543013572692871e-01
2.391000000000000000e+03 7.814794921875000000e+01 -3.149344444274902344e+01 -8.606213144958019257e-03 8.496704101562500000e+00 2.546429157257080078e+00 -5.140368342399597168e-01
2.392000000000000000e+03 7.819338989257812500e+01 -3.069546318054199219e+01 2.218289114534854889e-02 8.372475624084472656e+00 2.518397569656372070e+00 -4.972072541713714600e-01
2.393000000000000000e+03 7.727402496337890625e+01 -3.299913787841796875e+01 -1.335808634757995605e-01 8.506720542907714844e+00 2.511941909790039062e+00 -5.196505188941955566e-01
2.394000000000000000e+03 7.621383666992187500e+01 -3.449692153930664062e+01 -2.748706042766571045e-01 8.198139190673828125e+00 2.376980781555175781e+00 -3.773260712623596191e-01
2.395000000000000000e+03 7.737762451171875000e+01 -3.218511962890625000e+01 -7.085969299077987671e-02 8.484525680541992188e+00 2.524099826812744141e+00 -5.824831128120422363e-01
2.396000000000000000e+03 7.755397796630859375e+01 -2.984190750122070312e+01 1.257757246494293213e-01 8.281476974487304688e+00 2.522176027297973633e+00 -5.317668318748474121e-01
2.397000000000000000e+03 7.713111114501953125e+01 3.488162612915039062e+01 -1.308489441871643066e-01 7.911971569061279297e+00 2.334336757659912109e+00 4.006723165512084961e-01
2.398000000000000000e+03 7.706173706054687500e+01 3.263431930541992188e+01 -9.378603845834732056e-02 7.733357429504394531e+00 2.291871309280395508e+00 5.307529568672180176e-01
2.399000000000000000e+03 7.694246673583984375e+01 3.402571105957031250e+01 -1.338706314563751221e-01 7.790606975555419922e+00 2.297020912170410156e+00 4.669997692108154297e-01
2.400000000000000000e+03 7.693045806884765625e+01 -4.187520980834960938e+01 -2.052056975662708282e-02 8.362320899963378906e+00 2.502539873123168945e+00 1.838077418506145477e-02
2.401000000000000000e+03 7.761432647705078125e+01 -3.746060562133789062e+01 -1.548076122999191284e-01 8.854119300842285156e+00 2.609793424606323242e+00 -1.563761383295059204e-01
2.402000000000000000e+03 7.113619995117187500e+01 2.137759780883789062e+01 9.289312362670898438e-02 9.970868110656738281e+00 3.019128322601318359e+00 -1.127780526876449585e-01
2.403000000000000000e+03 7.186287689208984375e+01 2.144690895080566406e+01 1.563366502523422241e-01 9.565519332885742188e+00 2.916556596755981445e+00 -1.241436675190925598e-01
2.404000000000000000e+03 6.713543891906738281e+00 -2.406767845153808594e+01 -9.031003719428554177e-05 -1.406442461302503943e-04 -6.928628863533958793e-05 -1.124415430240333080e-04
2.405000000000000000e+03 2.591152191162109375e+00 2.407120132446289062e+01 4.287509364075958729e-05 4.402743652462959290e-04 1.449448463972657919e-04 -9.554772987030446529e-05
2.406000000000000000e+03 1.829555630683898926e+00 3.543678283691406250e+01 -6.533349369419738650e-05 8.647177601233124733e-04 2.398152864770963788e-04 -4.351445022621192038e-05
2.407000000000000000e+03 4.055740833282470703e+00 3.759569168090820312e+01 3.792027564486488700e-05 7.037756149657070637e-04 2.225087664555758238e-04 -8.724617509869858623e-05
2.408000000000000000e+03 1.818930745124816895e+00 -8.890688896179199219e+00 2.949458030343521386e-05 1.258430756934103556e-06 9.225903340848162770e-06 5.126102223584894091e-06
2.409000000000000000e+03 5.668509483337402344e+00 -4.720691204071044922e+00 1.285949019802501425e-05 2.771848585325642489e-06 4.689401521318359300e-06 8.195876944228075445e-06
2.410000000000000000e+03 2.631773710250854492e+00 -2.888843536376953125e+01 2.183970209443941712e-04 9.412086001248098910e-06 6.834272790001705289e-05 2.491796658432576805e-05
2.411000000000000000e+03 1.807850360870361328e+00 -1.612146377563476562e+01 -6.684400432277470827e-05 -1.432502358511555940e-06 -2.048295209533534944e-05 -1.272151621378725395e-05
2.412000000000000000e+03 2.515357255935668945e+00 -1.523142147064208984e+01 -6.743714038748294115e-05 -2.583093646535417065e-06 -2.100607161992229521e-05 -1.446691476303385571e-05
2.413000000000000000e+03 1.824909090995788574e+00 -2.256357765197753906e+01 -1.163910128525458276e-04 -4.432955392985604703e-06 -3.624719101935625076e-05 -3.328987804707139730e-05
2.414000000000000000e+03 2.539871215820312500e+00 -2.167837905883789062e+01 -1.169832175946794450e-04 2.838118007275625132e-06 -3.424353053560480475e-05 -2.879256680898834020e-05
2.415000000000000000e+03 2.568566322326660156e+00 -2.730587768554687500e+01 1.761545718181878328e-04 -1.233225793839665130e-05 4.914669625577516854e-05 -1.143013560067629442e-05
2.416000000000000000e+03 2.534099340438842773e+00 -2.087395095825195312e+01 9.841174323810264468e-05 -5.937293678925925633e-08 2.950571251858491451e-05 1.203748433908913285e-05
2.417000000000000000e+03 2.517115116119384766e+00 -1.443122482299804688e+01 6.183478399179875851e-05 3.068243813686422072e-06 1.947090822795871645e-05 1.366640481137437746e-05
2.418000000000000000e+03 2.517255306243896484e+00 -1.363085937500000000e+01 -5.625793710350990295e-05 -3.259344566686195321e-06 -1.785518543329089880e-05 -1.215921838593203574e-05
2.419000000000000000e+03 3.043465137481689453e+00 -3.536827850341796875e+01 2.699087781365960836e-04 4.300596774555742741e-04 2.099905395880341530e-04 3.719960513990372419e-04
2.420000000000000000e+03 2.028635978698730469e+00 -3.219807815551757812e+01 -1.101346060750074685e-04 1.677010877756401896e-04 1.726994560158345848e-05 1.615657674847170711e-04
2.421000000000000000e+03 1.807822227478027344e+00 -1.773046684265136719e+01 -7.740247383480891585e-05 -9.252174777429900132e-07 -2.349830901948735118e-05 -1.484822223574155942e-05
2.422000000000000000e+03 2.513170719146728516e+00 -1.603274726867675781e+01 7.216800440801307559e-05 1.437781179447483737e-06 2.208173464168794453e-05 1.531965062895324081e-05
2.423000000000000000e+03 8.084232330322265625e+00 -1.791880416870117188e+01 -2.501000017218757421e-05 6.258781650103628635e-05 1.127334508055355400e-05 9.494042387814261019e-06
2.424000000000000000e+03 2.518486738204956055e+00 -1.844583511352539062e+01 -8.949247421696782112e-05 6.846515248071227688e-07 -2.664234853000380099e-05 -1.791262911865487695e-05
2.425000000000000000e+03 2.515024662017822266e+00 -1.764053535461425781e+01 8.160172001225873828e-05 -2.913561161221878137e-07 2.439310810586903244e-05 1.529515066067688167e-05
2.426000000000000000e+03 9.012103080749511719e+00 -1.660912322998046875e+01 -2.728230901993811131e-05 1.797960430849343538e-05 -2.790811549857608043e-06 1.427553070243448019e-05
2.427000000000000000e+03 2.462167978286743164e+00 1.204883575439453125e+01 -1.467606216465355828e-05 1.164703862741589546e-04 3.053830005228519440e-05 -5.059050090494565666e-05
2.428000000000000000e+03 1.747362852096557617e+00 1.056831359863281250e+01 2.209773629147093743e-05 8.436362986685708165e-05 3.193840893800370395e-05 -3.081223985645920038e-05
2.429000000000000000e+03 2.431060075759887695e+00 1.048996734619140625e+01 -1.244921986653935164e-05 8.955310477176681161e-05 2.313116601726505905e-05 -4.486339457798749208e-05
2.430000000000000000e+03 3.960007429122924805e+00 1.416297531127929688e+01 3.967937300330959260e-05 1.459895574953407049e-04 5.570067514781840146e-05 -9.411968494532629848e-05
2.431000000000000000e+03 2.484793901443481445e+00 1.363583374023437500e+01 -1.745555709931068122e-05 1.486275723436847329e-04 3.935160566470585763e-05 -5.671710459864698350e-05
2.432000000000000000e+03 1.827056050300598145e+00 -2.417281913757324219e+01 -1.329200895270332694e-04 -3.676002961583435535e-06 -4.097882629139348865e-05 -4.230142076266929507e-05
2.433000000000000000e+03 2.546286344528198242e+00 -2.248683929443359375e+01 1.046732795657590032e-04 -1.114905330723559018e-06 3.106751319137401879e-05 7.399806236207950860e-06
2.434000000000000000e+03 2.522745847702026367e+00 2.004383850097656250e+01 -3.460912557784467936e-05 3.245792759116739035e-04 8.699104364495724440e-05 -9.123347990680485964e-05
2.435000000000000000e+03 1.812554001808166504e+00 -1.050312519073486328e+01 3.624689634307287633e-05 1.540664129606739152e-06 1.133626756200101227e-05 6.332707016554195434e-06
2.436000000000000000e+03 2.535174369812011719e+00 -8.804640769958496094e+00 -3.081054455833509564e-05 -1.678120725046028383e-06 -9.746599971549585462e-06 -6.434084752982016653e-06
2.437000000000000000e+03 3.261334419250488281e+00 -7.925755500793457031e+00 -2.802203198370989412e-05 -2.156853497581323609e-06 -9.053665962710510939e-06 -7.360197741945739836e-06
2.438000000000000000e+03 1.771625041961669922e+00 9.002226829528808594e+00 2.006949762289877981e-05 5.844594488735310733e-05 2.355463220737874508e-05 -2.427473555144388229e-05
2.439000000000000000e+03 2.444100618362426758e+00 8.993182182312011719e+00 -8.979590347735211253e-06 6.833672523498535156e-05 1.780714046617504209e-05 -4.040043495479039848e-05
2.440000000000000000e+03 1.833483934402465820e+00 -2.577901458740234375e+01 -1.415637962054461241e-04 -4.854674443777184933e-06 -4.392553819343447685e-05 -4.246562093612737954e-05
2.441000000000000000e+03 2.550851106643676758e+00 -2.490158081054687500e+01 -1.433717698091641068e-04 2.463703458488453180e-05 -3.562042184057645500e-05 -4.205872392049059272e-05
2.442000000000000000e+03 2.513907194137573242e+00 1.845067977905273438e+01 -2.996441071445588022e-05 2.751416759565472603e-04 7.355317939072847366e-05 -8.078003884293138981e-05
2.443000000000000000e+03 2.508830070495605469e+00 1.764527702331542969e+01 3.984783324995078146e-05 2.381999074714258313e-04 8.341432112501934171e-05 -8.026028081076219678e-05
2.444000000000000000e+03 2.518295526504516602e+00 1.924974441528320312e+01 4.417254604049958289e-05 2.819226065184921026e-04 9.782854613149538636e-05 -8.521706331521272659e-05
2.445000000000000000e+03 1.803528308868408203e+00 2.017100143432617188e+01 4.034489393234252930e-05 3.261331003159284592e-04 1.099434011848643422e-04 -6.467143975896760821e-05
2.446000000000000000e+03 3.237254381179809570e+00 1.911019325256347656e+01 -3.142183777526952326e-05 2.872320183087140322e-04 7.674305379623547196e-05 -1.058297639247030020e-04
2.447000000000000000e+03 2.594768285751342773e+00 -2.809692192077636719e+01 -1.255828392459079623e-04 4.266264659236185253e-05 -2.487605706846807152e-05 -2.165148998756194487e-06
2.448000000000000000e+03 5.231988430023193359e+00 -2.493610763549804688e+01 -5.710472032660618424e-05 1.262095902347937226e-04 2.073146060865838081e-05 8.993333904072642326e-05
2.449000000000000000e+03 1.749430537223815918e+00 9.785573005676269531e+00 -1.479058755649020895e-05 7.536649354733526707e-05 1.817277188820298761e-05 -3.119463144685141742e-05
2.450000000000000000e+03 2.424063444137573242e+00 9.736156463623046875e+00 2.292102362844161689e-05 7.316090341191738844e-05 2.882457920350134373e-05 -3.648996425908990204e-05
2.451000000000000000e+03 2.543744087219238281e+00 -8.002270698547363281e+00 2.749226041487418115e-05 1.544826432109402958e-06 8.711125701665878296e-06 5.883873200218658894e-06
2.452000000000000000e+03 2.523474216461181641e+00 -1.041588306427001953e+01 -3.814184310613200068e-05 -2.086855829475098290e-06 -1.206860906677320600e-05 -7.927252227091230452e-06
2.453000000000000000e+03 2.528323888778686523e+00 -9.609886169433593750e+00 3.440009822952561080e-05 1.937274419105960988e-06 1.090121168090263382e-05 7.281736088771140203e-06
2.454000000000000000e+03 1.879184246063232422e+00 2.740834426879882812e+01 -3.696613202919252217e-05 6.005656323395669460e-04 1.690798380877822638e-04 -8.389817958232015371e-05
2.455000000000000000e+03 2.616487503051757812e+00 2.728283882141113281e+01 3.563849168131127954e-05 5.550754722207784653e-04 1.772141986293718219e-04 -9.481848974246531725e-05
2.456000000000000000e+03 3.416767358779907227e+00 -4.074630737304687500e+00 1.280887136090314016e-05 9.503289675194537267e-07 4.127760348637821153e-06 4.610733867593808100e-06
2.457000000000000000e+03 1.826309800148010254e+00 -6.496965885162353516e+00 -2.081448656099382788e-05 -7.742021921330888290e-07 -6.476606358774006367e-06 -3.826804004347650334e-06
2.458000000000000000e+03 7.692539691925048828e+00 -2.570407295227050781e+01 -1.836129667935892940e-04 -6.540608592331409454e-05 -7.470572018064558506e-05 -1.173816199298016727e-04
2.459000000000000000e+03 3.419235467910766602e+00 4.822863101959228516e+00 4.562027697829762474e-06 2.648777444846928120e-05 9.314941053162328899e-06 -2.416885763523168862e-05
2.460000000000000000e+03 1.873469233512878418e+00 4.956149578094482422e+00 -5.545155545405577868e-06 1.950473779288586229e-05 4.187874765193555504e-06 -1.145238729804987088e-05
2.461000000000000000e+03 4.933204174041748047e+00 4.015794754028320312e+00 3.063277472392655909e-05 1.442127631889889017e-05 1.351621540379710495e-05 -2.797680645016953349e-05
2.462000000000000000e+03 2.500139236450195312e+00 1.603464126586914062e+01 3.577339884941466153e-05 1.976880594156682491e-04 7.003844075370579958e-05 -7.320387521758675575e-05
2.463000000000000000e+03 2.504214525222778320e+00 1.683732414245605469e+01 -2.503387258911971003e-05 2.282836358062922955e-04 6.097492951084859669e-05 -7.156245555961504579e-05
2.464000000000000000e+03 1.783348321914672852e+00 1.615592956542968750e+01 -2.605823647172655910e-05 2.130510983988642693e-04 5.609785876004025340e-05 -4.929245187668129802e-05
2.465000000000000000e+03 2.681812524795532227e+00 -3.356796264648437500e+00 1.023542790790088475e-05 7.482752835130668245e-07 3.295110900580766611e-06 3.256429636167013086e-06
2.466000000000000000e+03 1.833594202995300293e+00 -5.712501049041748047e+00 1.804341809474863112e-05 7.251157967402832583e-07 5.630560281133512035e-06 3.584300202419399284e-06
2.467000000000000000e+03 3.281454324722290039e+00 -7.135525226593017578e+00 2.471407606208231300e-05 1.738328592182369903e-06 7.935721441754139960e-06 6.671700248261913657e-06
2.468000000000000000e+03 3.453777074813842773e+00 2.877122688293457031e+01 -4.376312790554948151e-05 5.701865884475409985e-04 1.579270319780334830e-04 -1.393647835357114673e-04
2.469000000000000000e+03 2.601669788360595703e+00 2.647606658935546875e+01 -4.081516817677766085e-05 5.399708752520382404e-04 1.497467164881527424e-04 -1.158618542831391096e-04
2.470000000000000000e+03 2.598882913589477539e+00 2.487915992736816406e+01 -3.870024011121131480e-05 4.841664922423660755e-04 1.336398709099739790e-04 -1.132975667132996023e-04
2.471000000000000000e+03 2.600138187408447266e+00 2.567927360534667969e+01 4.039053965243510902e-05 4.953164025209844112e-04 1.607120793778449297e-04 -9.564033825881779194e-05
2.472000000000000000e+03 1.844467759132385254e+00 2.419565200805664062e+01 -3.581101918825879693e-05 4.811863764189183712e-04 1.336126151727512479e-04 -8.187294588424265385e-05
2.473000000000000000e+03 2.577109336853027344e+00 2.326338005065917969e+01 -3.744618516066111624e-05 4.278320702724158764e-04 1.171157709904946387e-04 -1.085175317712128162e-04
2.474000000000000000e+03 1.836228013038635254e+00 2.339161109924316406e+01 3.914100670954212546e-05 4.413194255903363228e-04 1.441381318727508187e-04 -6.986924563534557819e-05
2.475000000000000000e+03 1.994163632392883301e+00 -3.139290237426757812e+01 2.253230486530810595e-04 8.388244896195828915e-05 9.276164928451180458e-05 1.265905157197266817e-04
2.476000000000000000e+03 2.774302721023559570e+00 3.482142257690429688e+01 -4.006995004601776600e-05 7.777031278237700462e-04 2.212899562437087297e-04 -9.456237603444606066e-05
2.477000000000000000e+03 2.738705158233642578e+00 -3.048885154724121094e+01 2.559662680141627789e-04 6.422262231353670359e-05 9.605666855350136757e-05 1.051471117534674704e-04
2.478000000000000000e+03 2.058861255645751953e+00 -3.300565338134765625e+01 2.332873409613966942e-04 2.016725193243473768e-04 1.304879551753401756e-04 2.104285667883232236e-04
2.479000000000000000e+03 3.625895261764526367e+00 -3.118822288513183594e+01 3.310207976028323174e-04 1.070947328116744757e-04 1.314346591243520379e-04 1.876026217360049486e-04
2.480000000000000000e+03 2.908833265304565430e+00 -3.292693328857421875e+01 -5.796278128400444984e-05 2.794037282001227140e-04 6.643228698521852493e-05 2.895529614761471748e-04
2.481000000000000000e+03 2.964847326278686523e+00 3.149658012390136719e+01 -4.621123662218451500e-05 6.750726024620234966e-04 1.886584213934838772e-04 -9.434796811547130346e-05
2.482000000000000000e+03 2.793962478637695312e+00 3.327420425415039062e+01 -5.513538053492084146e-05 7.610466564074158669e-04 2.117733820341527462e-04 -9.508953371550887823e-05
2.483000000000000000e+03 2.834799766540527344e+00 3.058641815185546875e+01 3.384864976396784186e-05 6.650105933658778667e-04 2.096577809425070882e-04 -1.072008235496468842e-04
2.484000000000000000e+03 2.966466903686523438e+00 3.243815231323242188e+01 3.529069726937450469e-05 6.943331682123243809e-04 2.188871585531160235e-04 -1.014805020531639457e-04
2.485000000000000000e+03 3.485996007919311523e+00 3.360188674926757812e+01 -1.929713835124857724e-05 6.883703754283487797e-04 2.007219736697152257e-04 -9.029528882820159197e-05
2.486000000000000000e+03 2.810294866561889648e+00 3.401224517822265625e+01 4.814414933207444847e-05 7.603667909279465675e-04 2.425532875349745154e-04 -7.880578777985647321e-05
2.487000000000000000e+03 2.971672534942626953e+00 -3.455179214477539062e+01 -1.040253773680888116e-04 4.757801361847668886e-04 1.115264312829822302e-04 4.081138467881828547e-04
2.488000000000000000e+03 2.938685178756713867e+00 -3.373743820190429688e+01 2.728257968556135893e-04 2.771458239294588566e-04 1.649914920562878251e-04 3.187410475220531225e-04
2.489000000000000000e+03 2.076059579849243164e+00 3.155423355102539062e+01 3.664745963760651648e-05 7.381968316622078419e-04 2.324532833881676197e-04 -8.190952939912676811e-05
2.490000000000000000e+03 7.185007476806640625e+01 1.980886650085449219e+01 7.099023461341857910e-02 9.581583976745605469e+00 2.895772218704223633e+00 -3.151166439056396484e-02
2.491000000000000000e+03 7.663873291015625000e+01 -3.878313827514648438e+01 -1.412113904953002930e-01 8.367006301879882812e+00 2.467738628387451172e+00 -1.182115226984024048e-01
2.492000000000000000e+03 7.677117156982421875e+01 1.526481246948242188e+01 -2.223514020442962646e-02 7.220302104949951172e+00 2.159420013427734375e+00 -3.236703574657440186e-02
2.493000000000000000e+03 7.596450805664062500e+00 -2.155472183227539062e+01 -1.381934562232345343e-04 -2.839957596734166145e-05 -4.997790892957709730e-05 1.835087459767237306e-05
2.494000000000000000e+03 7.191967964172363281e+00 -2.326264381408691406e+01 -6.897695857333019376e-05 1.498108758823946118e-04 2.425017555651720613e-05 7.755777187412604690e-05
2.495000000000000000e+03 7.144795227050781250e+01 4.402173519134521484e+00 2.414213865995407104e-01 1.089894580841064453e+01 3.342110157012939453e+00 8.330202847719192505e-02
2.496000000000000000e+03 7.112780761718750000e+01 1.894734191894531250e+01 3.298284858465194702e-02 9.939352035522460938e+00 2.991700649261474609e+00 4.434408154338598251e-03
2.497000000000000000e+03 7.072743225097656250e+01 -1.584353089332580566e+00 3.624747991561889648e-01 8.976076126098632812e+00 2.801565170288085938e+00 8.108974695205688477e-01
2.498000000000000000e+03 7.184389495849609375e+01 1.900127220153808594e+01 5.197721347212791443e-02 9.581478118896484375e+00 2.890036582946777344e+00 -3.344129072502255440e-03
2.499000000000000000e+03 3.211765289306640625e+00 -1.755413627624511719e+01 -9.195841266773641109e-05 1.255579604730883148e-06 -2.721085002121981233e-05 -1.928415804286487401e-05
2.500000000000000000e+03 7.179727935791015625e+01 1.492524623870849609e+01 1.173384934663772583e-01 9.418949127197265625e+00 2.860886335372924805e+00 -2.439190819859504700e-02
2.501000000000000000e+03 7.181144714355468750e+01 1.574437713623046875e+01 1.287282705307006836e-01 9.464189529418945312e+00 2.877875328063964844e+00 3.466020897030830383e-02
2.502000000000000000e+03 4.941897964477539062e+01 3.292151641845703125e+01 -2.733969304244965315e-04 -1.983046095119789243e-04 -1.415104634361341596e-04 3.870187792927026749e-03
2.503000000000000000e+03 2.564795494079589844e+00 -6.420892715454101562e+00 2.138199124601669610e-05 1.037494484990020283e-06 6.725846105837263167e-06 4.886135684500914067e-06
2.504000000000000000e+03 4.197121143341064453e+00 -4.042458534240722656e+00 -1.241419249708997086e-05 -1.340589847131923307e-06 -4.126434760109987110e-06 -5.455290192912798375e-06
2.505000000000000000e+03 5.048554897308349609e+00 -3.286413192749023438e+00 -9.387687896378338337e-06 -2.027250502578681335e-06 -3.424481519687105902e-06 -5.322710421751253307e-06
2.506000000000000000e+03 5.748450756072998047e+00 -3.990216970443725586e+00 -1.065825199475511909e-05 -2.756616140686674044e-06 -4.024460395157802850e-06 -6.852959359093802050e-06
2.507000000000000000e+03 6.505869865417480469e+00 -3.969686269760131836e+00 9.569605026626959443e-06 3.704715936692082323e-06 3.982296220783609897e-06 7.083193850121460855e-06
2.508000000000000000e+03 7.240935325622558594e+00 -3.961359500885009766e+00 -8.762444849708117545e-06 -4.587732291838619858e-06 -4.005053142464021221e-06 -6.760317319276509807e-06
2.509000000000000000e+03 9.084586143493652344e+00 -4.785381317138671875e+00 -1.286099359276704490e-05 -5.605123988061677665e-06 -5.539835001400206238e-06 -5.271332156553398818e-06
2.510000000000000000e+03 4.331970977783203125e+01 3.476833105087280273e+00 -1.268624910153448582e-04 -6.016318002366460860e-05 -5.610770313069224358e-05 -8.222763426601886749e-05
2.511000000000000000e+03 7.046955108642578125e+01 -2.407046556472778320e+00 2.981375753879547119e-01 8.352352142333984375e+00 2.595146894454956055e+00 9.064762592315673828e-01
2.512000000000000000e+03 7.748272705078125000e+01 9.460941314697265625e+00 -2.466620691120624542e-02 6.844340801239013672e+00 2.045902490615844727e+00 1.622239053249359131e-01
2.513000000000000000e+03 3.435317993164062500e+01 -1.622166252136230469e+01 -1.501392398495227098e-05 -6.132258022262249142e-06 -6.343854693113826215e-06 1.381250172016734723e-06
2.514000000000000000e+03 6.463755035400390625e+01 -1.735185813903808594e+01 2.585887014865875244e-01 8.833273649215698242e-01 3.425748348236083984e-01 6.965793371200561523e-01
2.515000000000000000e+03 6.480285644531250000e+01 -1.589534759521484375e+01 5.843172669410705566e-01 1.089623451232910156e+00 5.021821856498718262e-01 7.297304868698120117e-01
2.516000000000000000e+03 6.872006988525390625e+01 -1.919724655151367188e+01 -5.550050735473632812e-01 1.622821092605590820e+00 3.203448057174682617e-01 -9.745275974273681641e-01
2.517000000000000000e+03 6.892642974853515625e+01 -6.267008304595947266e+00 2.268639802932739258e-01 5.431262969970703125e+00 1.697438001632690430e+00 1.025873422622680664e+00
2.518000000000000000e+03 4.253553390502929688e+01 2.184232330322265625e+01 1.657510059885680676e-03 1.238758326508104801e-03 8.688805392012000084e-04 1.008835621178150177e-03
2.519000000000000000e+03 4.161400985717773438e+01 2.204505157470703125e+01 6.419073324650526047e-04 6.933988188393414021e-04 4.005918453913182020e-04 1.145793125033378601e-03
2.520000000000000000e+03 7.053287506103515625e+01 -4.235589981079101562e+00 1.369905769824981689e-01 7.244238853454589844e+00 2.214368820190429688e+00 6.294250488281250000e-01
2.521000000000000000e+03 4.797319030761718750e+01 -6.712611198425292969e+00 6.313453195616602898e-05 1.020684248942416161e-05 2.200241215177811682e-05 3.327157537569291890e-05
2.522000000000000000e+03 4.709166336059570312e+01 -1.654523468017578125e+01 -6.433996077248593792e-06 -5.493911430676234886e-06 -3.578372115953243338e-06 -7.993340659595560282e-06
2.523000000000000000e+03 4.638738632202148438e+01 -1.674911689758300781e+01 2.046356257778825238e-06 5.895560207136441022e-06 2.382574848525109701e-06 3.818217919615563005e-06
2.524000000000000000e+03 5.697698974609375000e+01 -2.545321083068847656e+01 9.354521632194519043e-01 1.979208588600158691e+00 8.743982315063476562e-01 1.072271108627319336e+00
2.525000000000000000e+03 2.733430290222167969e+01 -1.080855655670166016e+01 -1.491022089794569183e-06 -1.213543782796477899e-05 -4.087938123120693490e-06 3.331108246129588224e-06
2.526000000000000000e+03 2.698029136657714844e+01 -1.016522598266601562e+01 -3.827375621767714620e-06 1.242557846126146615e-05 2.579460897322860546e-06 7.961810297274496406e-06
2.527000000000000000e+03 3.689477157592773438e+01 -1.697471809387207031e+01 -7.682845534873194993e-06 4.971928319719154388e-06 -8.132750508593744598e-07 -5.637506887978815939e-07
2.528000000000000000e+03 3.451611709594726562e+01 -1.559341049194335938e+01 -2.579122565293801017e-06 7.128043762349989265e-06 1.364676336379488930e-06 9.060065622179536149e-07
2.529000000000000000e+03 4.550513458251953125e+01 3.113864707946777344e+01 4.410305991768836975e-03 -2.055533230304718018e-03 7.064318051561713219e-04 4.591274482663720846e-04
2.530000000000000000e+03 4.107658767700195312e+01 1.939622116088867188e+01 1.058876165188848972e-03 7.183648413047194481e-04 5.331722786650061607e-04 7.231652853079140186e-04
2.531000000000000000e+03 4.570135116577148438e+01 -1.696026229858398438e+01 -4.136303232371574268e-06 -7.179025487857870758e-06 -3.394598707018303685e-06 -6.757412393199047074e-06
2.532000000000000000e+03 6.942684173583984375e+01 3.076243782043457031e+01 9.331008046865463257e-02 6.112388610839843750e+00 1.861709594726562500e+00 -8.292012214660644531e-01
2.533000000000000000e+03 6.962517547607421875e+01 3.205178070068359375e+01 -3.598182797431945801e-01 5.674778938293457031e+00 1.594488263130187988e+00 -5.840427875518798828e-01
2.534000000000000000e+03 6.136383819580078125e+01 -2.164508819580078125e+01 -6.873227357864379883e-01 1.096080541610717773e+00 1.226273179054260254e-01 9.096083641052246094e-01
2.535000000000000000e+03 5.907643127441406250e+01 -2.224452400207519531e+01 -4.651288986206054688e-01 1.352226972579956055e+00 2.661294341087341309e-01 9.591318368911743164e-01
2.536000000000000000e+03 4.860053253173828125e+01 -8.839749336242675781e+00 -4.783150870935060084e-05 -1.611293009773362428e-05 -1.918333146022632718e-05 -1.955376137630082667e-05
2.537000000000000000e+03 4.879716873168945312e+01 -9.567690849304199219e+00 4.738879943033680320e-05 -2.874488984616618836e-07 1.413040536135667935e-05 1.339191021543228999e-05
2.538000000000000000e+03 6.955987548828125000e+01 -6.505429744720458984e+00 1.038672477006912231e-01 5.746655941009521484e+00 1.755156993865966797e+00 7.334135174751281738e-01
2.539000000000000000e+03 2.732465362548828125e+01 -3.420932388305664062e+01 6.841395981609821320e-03 -4.033741075545549393e-03 8.422964019700884819e-04 2.091639675199985504e-03
2.540000000000000000e+03 8.578773498535156250e+00 -1.847732925415039062e+01 1.702497684163972735e-06 -3.197194018866866827e-05 -9.080833478947170079e-06 -6.730199856974650174e-06
2.541000000000000000e+03 4.385041046142578125e+01 -2.867741394042968750e+01 -3.097818791866302490e-01 -8.587788343429565430e-01 -3.505682051181793213e-01 -4.675143659114837646e-01
2.542000000000000000e+03 4.547787475585937500e+01 -2.554398536682128906e+01 -8.885777741670608521e-02 -4.510883688926696777e-01 -1.619838476181030273e-01 -6.437436938285827637e-01
2.543000000000000000e+03 7.133011627197265625e+01 7.728739738464355469e+00 4.131829142570495605e-01 1.037457275390625000e+01 3.236326456069946289e+00 -1.498280614614486694e-01
2.544000000000000000e+03 7.180385589599609375e+01 1.021208953857421875e+01 -4.791190922260284424e-01 9.602437973022460938e+00 2.736995697021484375e+00 7.001255452632904053e-02
2.545000000000000000e+03 1.450060939788818359e+01 -3.252612686157226562e+01 4.460996482521295547e-03 -1.068633791874162853e-04 1.306239981204271317e-03 2.211141400039196014e-03
2.546000000000000000e+03 1.631946754455566406e+01 -3.363048171997070312e+01 4.156197421252727509e-03 1.213077455759048462e-03 1.610782463103532791e-03 3.721317742019891739e-03
2.547000000000000000e+03 4.506214904785156250e+01 2.730913734436035156e+01 1.808137283660471439e-03 1.549063366837799549e-03 1.007160171866416931e-03 2.719737589359283447e-03
2.548000000000000000e+03 4.344691467285156250e+01 2.622262382507324219e+01 3.918185364454984665e-03 7.287343032658100128e-04 1.394075923599302769e-03 1.398051041178405285e-03
2.549000000000000000e+03 7.197943115234375000e+01 -2.397447013854980469e+01 1.239207506179809570e+00 9.713007926940917969e+00 3.285664796829223633e+00 -7.104253172874450684e-01
2.550000000000000000e+03 7.186290740966796875e+01 -2.159211540222167969e+01 -1.118924140930175781e+00 7.107361316680908203e+00 1.796531081199645996e+00 -7.798684835433959961e-01
2.551000000000000000e+03 6.923393249511718750e+01 -7.232092857360839844e+00 1.096619814634323120e-01 5.274401187896728516e+00 1.615218997001647949e+00 7.439973950386047363e-01
2.552000000000000000e+03 4.074849319458007812e+01 1.769463539123535156e+01 7.933535962365567684e-04 6.320631946437060833e-04 4.276250547263771296e-04 5.288411630317568779e-04
2.553000000000000000e+03 4.384452438354492188e+01 2.695024108886718750e+01 1.510948175564408302e-03 7.183121633715927601e-04 6.687781424261629581e-04 2.107973210513591766e-03
2.554000000000000000e+03 7.062957763671875000e+01 2.729748535156250000e+01 6.103564500808715820e-01 8.752075195312500000e+00 2.808729410171508789e+00 -7.064964175224304199e-01
2.555000000000000000e+03 7.100709533691406250e+01 2.470194244384765625e+01 5.627104640007019043e-01 9.746843338012695312e+00 3.092865943908691406e+00 -4.548729360103607178e-01
2.556000000000000000e+03 4.319356155395507812e+01 5.236350536346435547e+00 1.868541294243186712e-04 3.208921407349407673e-05 6.568300159415230155e-05 1.136526698246598244e-04
2.557000000000000000e+03 4.308190155029296875e+01 2.421134948730468750e+00 -8.152753434842452407e-05 -6.059746010578237474e-05 -4.263749724486842752e-05 -6.798133108532056212e-05
2.558000000000000000e+03 7.132836151123046875e+01 2.749346733093261719e+01 5.686051845550537109e-01 8.370077133178710938e+00 2.681604862213134766e+00 -2.792677283287048340e-01
2.559000000000000000e+03 7.093572235107421875e+01 -7.344496250152587891e-01 4.685052931308746338e-01 9.547660827636718750e+00 3.004849910736083984e+00 6.490941047668457031e-01
2.560000000000000000e+03 7.180942535400390625e+01 4.368340969085693359e-02 6.171525716781616211e-01 9.422760009765625000e+00 3.011973857879638672e+00 1.693508028984069824e-01
2.561000000000000000e+03 6.988716125488281250e+01 -5.765245914459228516e+00 1.129913553595542908e-01 6.229780673980712891e+00 1.902831554412841797e+00 7.039373517036437988e-01
2.562000000000000000e+03 4.142503356933593750e+01 2.113911819458007812e+01 1.484059263020753860e-03 7.298361742869019508e-04 6.641686195507645607e-04 9.134600986726582050e-04
2.563000000000000000e+03 4.124877929687500000e+01 2.025794792175292969e+01 2.914940414484590292e-04 7.169484742917120457e-04 3.025327750947326422e-04 8.521899580955505371e-04
2.564000000000000000e+03 2.835668182373046875e+01 -1.514128112792968750e+01 -3.087913228227989748e-06 1.016480655380291864e-05 2.123068043147213757e-06 1.187538146041333675e-05
2.565000000000000000e+03 3.032725334167480469e+01 -1.552338790893554688e+01 -1.484339281887514517e-05 -6.942625077499542385e-06 -6.535805368912406266e-06 1.477815885664313100e-06
2.566000000000000000e+03 7.129949951171875000e+01 1.846622347831726074e+00 7.499840855598449707e-01 1.061314105987548828e+01 3.408937692642211914e+00 4.460670650005340576e-01
2.567000000000000000e+03 4.146883010864257812e+01 7.235104084014892578e+00 2.019638923229649663e-04 3.699104854604229331e-05 7.168648153310641646e-05 1.022680153255350888e-04
2.568000000000000000e+03 4.180862045288085938e+01 6.446096897125244141e+00 -1.883800869109109044e-04 4.914840974379330873e-05 -4.176950096734799445e-05 -6.013496749801561236e-05
2.569000000000000000e+03 1.264160442352294922e+01 3.446505069732666016e+00 1.043463780661113560e-04 2.062259773083496839e-05 3.749069219338707626e-05 -6.359678081935271621e-05
2.570000000000000000e+03 1.300159740447998047e+01 2.348051071166992188e+00 1.034405868267640471e-04 1.668269942456390709e-05 3.603698496590368450e-05 -5.274084833217784762e-05
2.571000000000000000e+03 1.046389865875244141e+01 3.101665496826171875e+00 8.212866669055074453e-05 3.069685772061347961e-05 3.384765659575350583e-05 -6.629808922298252583e-05
2.572000000000000000e+03 2.660779762268066406e+01 -9.500945091247558594e+00 3.063036047024070285e-06 -1.413004065398126841e-05 -3.320101541248732246e-06 3.280277269368525594e-06
2.573000000000000000e+03 5.418933868408203125e+01 -2.350472831726074219e+01 -2.432476282119750977e-01 6.257300376892089844e-01 1.147447302937507629e-01 -8.504497259855270386e-02
2.574000000000000000e+03 5.742280197143554688e+01 -2.309001731872558594e+01 -1.936454772949218750e-01 1.344167232513427734e+00 3.451565206050872803e-01 7.251654863357543945e-01
2.575000000000000000e+03 7.021047210693359375e+01 -5.010437488555908203e+00 1.282323598861694336e-01 6.719808101654052734e+00 2.054412126541137695e+00 6.829816699028015137e-01
2.576000000000000000e+03 5.594026947021484375e+01 -2.789684486389160156e+01 1.113399744033813477e+00 3.282048702239990234e+00 1.318634510040283203e+00 1.073030710220336914e+00
2.577000000000000000e+03 5.415908813476562500e+01 -2.972039604187011719e+01 1.049185156822204590e+00 2.127397298812866211e+00 9.529747366905212402e-01 3.594492971897125244e-01
2.578000000000000000e+03 4.031742095947265625e+01 1.333519077301025391e+01 -2.014152414631098509e-04 3.039659641217440367e-04 3.076521170441992581e-05 2.320231142221018672e-04
2.579000000000000000e+03 3.953622817993164062e+01 1.323963928222656250e+01 4.219041147734969854e-04 2.664587518665939569e-04 2.065088629024103284e-04 2.508657053112983704e-04
2.580000000000000000e+03 7.280137634277343750e+01 -2.551582717895507812e+01 1.158582329750061035e+00 1.043005657196044922e+01 3.476591587066650391e+00 -1.415168046951293945e-01
2.581000000000000000e+03 7.286138916015625000e+01 -2.630055618286132812e+01 1.155975222587585449e+00 1.052190876007080078e+01 3.503365278244018555e+00 1.515190750360488892e-01
2.582000000000000000e+03 6.901982879638671875e+01 -9.524235725402832031e+00 1.264728456735610962e-01 4.453742980957031250e+00 1.374064683914184570e+00 5.012605190277099609e-01
2.583000000000000000e+03 2.096325683593750000e+01 -3.313917922973632812e+01 1.104600355029106140e-02 1.558383955853059888e-04 3.360552713274955750e-03 4.492157604545354843e-03
2.584000000000000000e+03 7.185758972167968750e+01 2.227971839904785156e+01 2.648003995418548584e-01 9.501439094543457031e+00 2.929871797561645508e+00 -1.808941066265106201e-01
2.585000000000000000e+03 7.679039001464843750e+01 2.385278320312500000e+01 1.569900363683700562e-01 7.192634105682373047e+00 2.204887151718139648e+00 2.463442087173461914e-01
2.586000000000000000e+03 9.240989685058593750e+00 -1.357287693023681641e+01 1.432954377378337085e-06 5.317221439327113330e-05 1.638155117689166218e-05 1.074747274287801702e-06
2.587000000000000000e+03 6.801052093505859375e+01 3.491305923461914062e+01 -4.352332949638366699e-01 3.598210573196411133e+00 9.488931894302368164e-01 -6.440504193305969238e-01
2.588000000000000000e+03 4.952370071411132812e+01 3.431112289428710938e+01 -9.859632700681686401e-03 -1.264413818717002869e-03 -3.337214002385735512e-03 3.482677740976214409e-03
2.589000000000000000e+03 5.831613159179687500e+01 -2.347619247436523438e+01 1.336748749017715454e-01 1.475764155387878418e+00 4.828317165374755859e-01 9.362128376960754395e-01
2.590000000000000000e+03 2.536864852905273438e+01 -7.434733390808105469e+00 6.530834980367217213e-06 1.048898138833465055e-05 5.105944637762149796e-06 7.763537155369704124e-07
2.591000000000000000e+03 6.812667846679687500e+01 -1.008195781707763672e+01 2.560904622077941895e-01 3.709807157516479492e+00 1.189769268035888672e+00 6.459410190582275391e-01
2.592000000000000000e+03 6.861430358886718750e+01 -8.658854484558105469e+00 1.734683215618133545e-01 4.405198574066162109e+00 1.373600006103515625e+00 7.236415147781372070e-01
2.593000000000000000e+03 2.490613746643066406e+01 -6.738884449005126953e+00 2.030601172009482980e-05 -2.161273005185648799e-05 -3.920158064829593059e-07 3.779902954192948528e-06
2.594000000000000000e+03 4.896644592285156250e+01 -1.475643634796142578e+01 1.429911299055675045e-05 1.239856715073983651e-06 4.661691036744741723e-06 7.072089829307515174e-06
2.595000000000000000e+03 4.224130630493164062e+01 2.385832214355468750e+01 9.132907143794000149e-04 6.761557306163012981e-04 4.768339276779443026e-04 1.320752780884504318e-03
2.596000000000000000e+03 3.340002059936523438e+01 -3.572061920166015625e+01 -3.897803276777267456e-02 -6.920891255140304565e-02 -3.245608136057853699e-02 -9.122625738382339478e-02
2.597000000000000000e+03 2.391163253784179688e+01 -5.367341041564941406e+00 3.260529410908930004e-05 -2.587852213764563203e-05 2.018031636907835491e-06 4.254835857864236459e-06
2.598000000000000000e+03 2.337747192382812500e+01 -4.700914859771728516e+00 3.267465217504650354e-05 4.281124802218982950e-06 1.108673313865438104e-05 -1.027073722070781514e-05
2.599000000000000000e+03 7.744792938232421875e+01 2.542319488525390625e+01 1.156150326132774353e-01 7.048377037048339844e+00 2.149197578430175781e+00 3.529963493347167969e-01
2.600000000000000000e+03 6.733571624755859375e+01 -2.014966773986816406e+01 -1.241302728652954102e+00 -1.094981431961059570e-01 -4.052402675151824951e-01 1.092599704861640930e-02
2.601000000000000000e+03 6.984996032714843750e+01 -2.039224243164062500e+01 -1.565044164657592773e+00 3.069544792175292969e+00 4.513501822948455811e-01 -1.581482410430908203e+00
2.602000000000000000e+03 7.147901916503906250e+01 2.658535957336425781e+01 6.184104681015014648e-01 8.709338188171386719e+00 2.798324584960937500e+00 -2.718285024166107178e-01
2.603000000000000000e+03 4.864649581909179688e+01 3.368915176391601562e+01 -2.934796735644340515e-03 3.239869838580489159e-03 9.152194252237677574e-05 2.671053865924477577e-03
2.604000000000000000e+03 1.733638763427734375e+01 1.570691823959350586e+00 8.545352466171607375e-05 -1.931469341798219830e-05 1.984164919122122228e-05 -1.597835580469109118e-05
2.605000000000000000e+03 6.703247070312500000e+01 -4.130659484863281250e+01 6.589371562004089355e-01 1.820914268493652344e+00 7.439554333686828613e-01 1.250897049903869629e-01
2.606000000000000000e+03 6.601123809814453125e+01 -3.697384262084960938e+01 1.482705324888229370e-01 6.366463899612426758e-01 2.354750633239746094e-01 2.224421799182891846e-01
2.607000000000000000e+03 1.553351497650146484e+01 1.819815039634704590e+00 1.149081654148176312e-04 3.726978548002080061e-06 3.559054312063381076e-05 -4.389153036754578352e-05
2.608000000000000000e+03 1.908727264404296875e+01 -5.336381196975708008e-01 7.926452235551550984e-05 -2.386822598055005074e-05 1.661888745729811490e-05 -3.140051148875500076e-06
2.609000000000000000e+03 1.840968894958496094e+01 -2.064018137753009796e-02 1.039267372107133269e-04 -6.497728463727980852e-06 2.922870226029772311e-05 -3.254254625062458217e-05
2.610000000000000000e+03 1.858551597595214844e+01 -3.327400970458984375e+01 7.418932393193244934e-03 6.031890516169369221e-04 2.406636485829949379e-03 4.437682218849658966e-03
2.611000000000000000e+03 1.730036544799804688e+01 -3.278059387207031250e+01 7.302265148609876633e-03 6.575134466402232647e-04 2.387933433055877686e-03 3.385186428204178810e-03
2.612000000000000000e+03 2.102475929260253906e+01 -2.200289726257324219e+00 7.067376282066106796e-05 -3.992132860730635002e-06 2.000448876060545444e-05 -2.212990693806204945e-05
2.613000000000000000e+03 2.039362907409667969e+01 -1.625459432601928711e+00 7.100541552063077688e-05 -2.872710501833353192e-05 1.268349296879023314e-05 1.627148662919353228e-06
2.614000000000000000e+03 7.170982360839843750e+01 2.482679557800292969e+01 5.925051569938659668e-01 9.164405822753906250e+00 2.927073240280151367e+00 -2.426394075155258179e-01
2.615000000000000000e+03 7.160564422607421875e+01 2.569877624511718750e+01 6.210470199584960938e-01 8.992259979248046875e+00 2.883992195129394531e+00 -2.584612369537353516e-01
2.616000000000000000e+03 5.636565399169921875e+01 -2.607939147949218750e+01 9.718428254127502441e-01 2.131273984909057617e+00 9.309350848197937012e-01 9.854502081871032715e-01
2.617000000000000000e+03 7.217254638671875000e+01 6.957223892211914062e+00 4.184308946132659912e-01 9.909180641174316406e+00 3.098283290863037109e+00 -2.997903339564800262e-02
2.618000000000000000e+03 6.373149490356445312e+01 -2.162569236755371094e+01 -1.107616066932678223e+00 4.927866160869598389e-01 -1.844488382339477539e-01 3.260456025600433350e-01
2.619000000000000000e+03 6.480686950683593750e+01 -2.082668113708496094e+01 -1.407973885536193848e+00 5.122269392013549805e-01 -2.687240839004516602e-01 4.184328615665435791e-01
2.620000000000000000e+03 1.499693489074707031e+01 -3.423267745971679688e+01 3.201273502781987190e-03 8.794154273346066475e-04 1.224206644110381603e-03 3.940369002521038055e-03
2.621000000000000000e+03 1.721508216857910156e+01 -3.374057769775390625e+01 4.914862103760242462e-03 5.368176498450338840e-04 1.635503955185413361e-03 4.762942437082529068e-03
2.622000000000000000e+03 4.445591354370117188e+01 1.376722574234008789e+00 1.078419300029054284e-04 5.395763946580700576e-05 4.853987047681584954e-05 8.172882371582090855e-05
2.623000000000000000e+03 4.610482788085937500e+01 -3.583028793334960938e+00 6.014476093696430326e-05 3.571342313080094755e-05 2.875745485653169453e-05 4.318516221246682107e-05
2.624000000000000000e+03 5.183836936950683594e+00 -1.727847290039062500e+01 1.148890733020380139e-04 1.543406506243627518e-05 3.909694351023063064e-05 6.379296974046155810e-05
2.625000000000000000e+03 4.157842254638671875e+01 9.122805595397949219e+00 -2.719893236644566059e-04 1.219982150360010564e-04 -4.499733040574938059e-05 -1.093757418857421726e-05
2.626000000000000000e+03 6.967494964599609375e+01 -3.415031051635742188e+01 -4.527975320816040039e-01 3.339092969894409180e+00 8.658886551856994629e-01 9.319352507591247559e-01
2.627000000000000000e+03 4.111008071899414062e+01 -1.700912666320800781e+01 -1.261134457308799028e-05 -6.419228157028555870e-06 -5.709172000933904201e-06 -2.420715873086010106e-06
2.628000000000000000e+03 7.055079650878906250e+01 3.030887031555175781e+01 9.587814658880233765e-02 6.928787231445312500e+00 2.107399702072143555e+00 -3.184141814708709717e-01
2.629000000000000000e+03 1.095300292968750000e+01 -3.141224098205566406e+01 1.791477203369140625e-03 -3.713463665917515755e-04 4.260392452124506235e-04 5.863142432644963264e-04
2.630000000000000000e+03 1.351351642608642578e+01 -3.276554107666015625e+01 3.203019732609391212e-03 5.504766522790305316e-05 9.774202480912208557e-04 1.830435474403202534e-03
2.631000000000000000e+03 1.044737434387207031e+01 -1.589022254943847656e+01 1.766034620231948793e-05 4.264311792212538421e-05 1.809103923733346164e-05 -2.895449506468139589e-05
2.632000000000000000e+03 8.551204681396484375e+00 -1.728079605102539062e+01 2.869904164981562644e-05 -3.485505658318288624e-05 -1.846804821070691105e-06 -7.580593319289619103e-06
2.633000000000000000e+03 7.104939270019531250e+01 -3.429198455810546875e+01 -6.142037510871887207e-01 5.172896385192871094e+00 1.367607831954956055e+00 7.493154406547546387e-01
2.634000000000000000e+03 1.545026588439941406e+01 -3.352209472656250000e+01 4.046530928462743759e-03 3.579911135602742434e-04 1.321356627158820629e-03 3.456881036981940269e-03
2.635000000000000000e+03 6.637454223632812500e+01 -1.449150276184082031e+01 5.632032752037048340e-01 1.836264491081237793e+00 7.198402881622314453e-01 5.145174860954284668e-01
2.636000000000000000e+03 5.228005218505859375e+01 -1.538627338409423828e+01 -9.563402272760868073e-06 -2.145248117813025601e-06 -3.512595185384270735e-06 7.261819519044365734e-07
2.637000000000000000e+03 5.181051254272460938e+01 -1.420952796936035156e+01 -4.064698259753640741e-06 5.771908945462200791e-06 5.121632966620381922e-07 9.888102795230224729e-06
2.638000000000000000e+03 7.753575897216796875e+01 -3.059662818908691406e+01 5.901698023080825806e-02 8.358206748962402344e+00 2.525166988372802734e+00 -5.876123905181884766e-01
2.639000000000000000e+03 1.406076908111572266e+01 2.620160102844238281e+00 1.111201345338486135e-04 1.249977049155859277e-05 3.708597068907693028e-05 -5.160053842701017857e-05
2.640000000000000000e+03 7.197845458984375000e+01 1.806008100509643555e+00 7.253397107124328613e-01 9.926988601684570312e+00 3.195698499679565430e+00 2.320009917020797729e-01
2.641000000000000000e+03 5.553892898559570312e+01 -2.324987602233886719e+01 -2.729326188564300537e-01 9.548870325088500977e-01 2.045863270759582520e-01 2.316226363182067871e-01
2.642000000000000000e+03 5.487099456787109375e+01 -2.275112342834472656e+01 -5.223461985588073730e-01 6.213207840919494629e-01 2.969237044453620911e-02 1.712581701576709747e-02
2.643000000000000000e+03 1.316110706329345703e+01 -1.169657707214355469e+01 2.970788045786321163e-05 2.425683669571299106e-05 1.618941496417392045e-05 2.795472369143681135e-07
2.644000000000000000e+03 1.493926715850830078e+01 -1.247774887084960938e+01 -3.455976184341125190e-06 1.333398813585517928e-05 2.963403630928951316e-06 1.071348037839925382e-06
2.645000000000000000e+03 1.271913242340087891e+01 -3.345604324340820312e+01 2.358867553994059563e-03 4.550699377432465553e-04 8.441812824457883835e-04 2.443496370688080788e-03
2.646000000000000000e+03 1.834917068481445312e+01 -1.142701435089111328e+01 -1.499904556112596765e-05 -7.197816557891201228e-06 -6.659058726654620841e-06 -7.716185450590273831e-07
2.647000000000000000e+03 1.896837615966796875e+01 -1.216431522369384766e+01 3.456799731793580577e-06 -4.791179890162311494e-06 -4.003140645636449335e-07 -6.363872557813010644e-07
2.648000000000000000e+03 6.917988586425781250e+01 -3.596578598022460938e+01 -1.208210140466690063e-01 2.830968856811523438e+00 8.130443692207336426e-01 7.477645277976989746e-01
2.649000000000000000e+03 7.022582244873046875e+01 -3.513061904907226562e+01 -4.417407214641571045e-01 4.102092266082763672e+00 1.098105430603027344e+00 7.431847453117370605e-01
2.650000000000000000e+03 7.010458374023437500e+01 3.120220184326171875e+01 -1.520417034626007080e-01 6.312991619110107422e+00 1.848284959793090820e+00 -4.325623214244842529e-01
2.651000000000000000e+03 3.593194580078125000e+01 -3.685536575317382812e+01 1.436678878962993622e-02 -2.099653929471969604e-01 -5.867958441376686096e-02 -1.589259207248687744e-01
2.652000000000000000e+03 7.194750976562500000e+01 8.627605438232421875e+00 4.469431191682815552e-02 9.774538993835449219e+00 2.945770025253295898e+00 1.215050369501113892e-01
2.653000000000000000e+03 6.890548229217529297e+00 -2.084896659851074219e+01 -5.275835428619757295e-05 -1.217142780660651624e-04 -5.234179116087034345e-05 -8.884835551725700498e-06
2.654000000000000000e+03 7.381087779998779297e+00 -1.974455451965332031e+01 -1.301520096603780985e-04 -9.397220856044441462e-05 -6.723726255586370826e-05 -2.300205778738018125e-05
2.655000000000000000e+03 1.823078536987304688e+01 -3.416210556030273438e+01 4.924111533910036087e-03 9.560919133946299553e-04 1.764061045832931995e-03 4.982638638466596603e-03
2.656000000000000000e+03 5.938052749633789062e+01 -2.153434181213378906e+01 -7.354528307914733887e-01 1.284587740898132324e+00 1.647404879331588745e-01 9.503386020660400391e-01
2.657000000000000000e+03 7.175263977050781250e+01 1.253483104705810547e+01 -3.810889720916748047e-01 9.409755706787109375e+00 2.708600044250488281e+00 -2.165323346853256226e-01
2.658000000000000000e+03 7.176676177978515625e+01 1.330797672271728516e+01 -1.535679101943969727e-01 9.352314949035644531e+00 2.759624004364013672e+00 -2.336094975471496582e-01
2.659000000000000000e+03 7.169551086425781250e+01 -3.360223770141601562e+01 -6.583318114280700684e-01 5.842934131622314453e+00 1.555380702018737793e+00 6.479945778846740723e-01
2.660000000000000000e+03 4.255571746826171875e+01 -3.490510177612304688e+01 1.368857175111770630e-01 -5.220271944999694824e-01 -1.155424416065216064e-01 -4.693129286170005798e-02
2.661000000000000000e+03 4.151071166992187500e+01 -3.375818252563476562e+01 1.865201629698276520e-02 -7.284506559371948242e-01 -2.129396051168441772e-01 -1.982726454734802246e-01
2.662000000000000000e+03 1.807886695861816406e+01 -1.202023220062255859e+01 6.095262506278231740e-06 6.878848125779768452e-06 3.892233053193194792e-06 -1.615563519408169668e-06
2.663000000000000000e+03 4.319750595092773438e+01 -3.388426971435546875e+01 9.223462641239166260e-02 -5.962166786193847656e-01 -1.511946171522140503e-01 -1.797345839440822601e-02
2.664000000000000000e+03 4.116336822509765625e+01 8.047771453857421875e+00 -2.196313580498099327e-04 1.097920976462773979e-04 -3.295177884865552187e-05 -1.395123308611800894e-05
2.665000000000000000e+03 4.137160491943359375e+01 9.973465919494628906e+00 2.836686326190829277e-04 1.256913819815963507e-04 1.228080072905868292e-04 1.131135795731097460e-04
2.666000000000000000e+03 1.851979064941406250e+01 -1.061502933502197266e+01 -5.347699698177166283e-06 -8.135113603202626109e-06 -4.044843990413937718e-06 1.091607941816619132e-06
2.667000000000000000e+03 1.825605010986328125e+01 -1.014769077301025391e+01 7.137556167435832322e-06 4.908873506792588159e-06 3.613928811319055967e-06 5.982977199892047793e-06
2.668000000000000000e+03 3.734642791748046875e+01 -1.597622108459472656e+01 -2.041849620582070202e-05 -2.640336447257141117e-07 -6.204759301908779889e-06 -6.880429282318800688e-06
2.669000000000000000e+03 4.645313262939453125e+01 -2.637892246246337891e+00 8.131998038152232766e-05 3.166317401337437332e-05 3.389494668226689100e-05 5.276212687022052705e-05
2.670000000000000000e+03 3.781251144409179688e+01 -3.459730529785156250e+01 -1.100377738475799561e-01 -3.133838176727294922e-01 -1.270264834165573120e-01 -2.713286280632019043e-01
2.671000000000000000e+03 3.933219909667968750e+01 -3.552212524414062500e+01 3.904910385608673096e-02 -4.607547223567962646e-01 -1.265116930007934570e-01 -2.285253554582595825e-01
2.672000000000000000e+03 3.884492492675781250e+01 -3.430699539184570312e+01 -9.786078333854675293e-02 -4.325844943523406982e-01 -1.591335833072662354e-01 -3.039131164550781250e-01
2.673000000000000000e+03 7.114767456054687500e+01 2.842058944702148438e+01 4.824379384517669678e-01 7.926733016967773438e+00 2.522751331329345703e+00 -2.835513949394226074e-01
2.674000000000000000e+03 7.090615844726562500e+01 2.936993598937988281e+01 3.251905441284179688e-01 7.428221225738525391e+00 2.326023578643798828e+00 -2.641098797321319580e-01
2.675000000000000000e+03 4.456027221679687500e+01 -2.741114997863769531e+01 -1.450126022100448608e-01 -6.613106131553649902e-01 -2.418969720602035522e-01 -5.719227790832519531e-01
2.676000000000000000e+03 7.228833007812500000e+01 -3.406818389892578125e+01 -6.866148710250854492e-01 6.383435726165771484e+00 1.709046244621276855e+00 4.722499549388885498e-01
2.677000000000000000e+03 7.323203277587890625e+01 -2.968563270568847656e+01 5.358791351318359375e-01 8.717281341552734375e+00 2.775948047637939453e+00 -1.091893911361694336e-01
2.678000000000000000e+03 6.913002014160156250e+01 3.289513397216796875e+01 -4.430575370788574219e-01 5.039817810058593750e+00 1.379028081893920898e+00 -6.472748517990112305e-01
2.679000000000000000e+03 8.095410346984863281e+00 -2.655605697631835938e+01 1.458870101487264037e-04 7.202207052614539862e-05 6.537272565765306354e-05 1.509729045210406184e-04
2.680000000000000000e+03 1.048727893829345703e+01 -1.425751113891601562e+01 -5.098448309581726789e-05 -2.538235276006162167e-05 -2.291005148435942829e-05 -3.082334842474665493e-06
2.681000000000000000e+03 7.139730072021484375e+01 -1.975576782226562500e+01 -1.325713515281677246e+00 5.526446819305419922e+00 1.260219931602478027e+00 -1.144361972808837891e+00
2.682000000000000000e+03 4.039920043945312500e+01 1.155215740203857422e+01 -2.210155362263321877e-04 2.240964240627363324e-04 9.242677379006636329e-07 1.277802657568827271e-04
2.683000000000000000e+03 1.024669456481933594e+01 -3.076953697204589844e+01 1.464388915337622166e-03 -5.196089841774664819e-05 4.237284010741859674e-04 5.287141539156436920e-04
2.684000000000000000e+03 4.451628875732421875e+01 -3.244395446777343750e+01 1.273683737963438034e-03 -5.004849433898925781e-01 -1.497633755207061768e-01 2.472255378961563110e-02
2.685000000000000000e+03 4.306066894531250000e+01 -3.234007263183593750e+01 -1.103546097874641418e-01 -7.538295388221740723e-01 -2.592552602291107178e-01 -1.186127066612243652e-01
2.686000000000000000e+03 3.469585037231445312e+01 -3.616561126708984375e+01 -4.256230592727661133e-02 -1.204998493194580078e-01 -4.891864582896232605e-02 -1.421318799257278442e-01
2.687000000000000000e+03 5.098530960083007812e+01 -1.464571952819824219e+01 -9.413486623088829219e-06 4.731261014967458323e-06 -1.404667614224308636e-06 9.597955795470625162e-06
2.688000000000000000e+03 5.190037155151367188e+01 -1.479563808441162109e+01 1.234190222021425143e-05 -4.856665896113554481e-07 3.556870751708629541e-06 -3.208563612133730203e-06
2.689000000000000000e+03 7.199066162109375000e+01 -2.072759056091308594e+01 -1.461497187614440918e+00 6.736757755279541016e+00 1.582578182220458984e+00 -7.851981520652770996e-01
2.690000000000000000e+03 9.713241577148437500e+00 -1.403570747375488281e+01 5.307537139742635190e-05 2.642156687215901911e-06 1.671525933488737792e-05 -1.615273731658817269e-06
2.691000000000000000e+03 6.533487701416015625e+01 3.648076248168945312e+01 -8.444717526435852051e-02 1.400082468986511230e+00 3.946906030178070068e-01 -3.973655104637145996e-01
2.692000000000000000e+03 5.450732040405273438e+01 -3.683687591552734375e+01 -1.490533351898193359e-01 1.280081629753112793e+00 3.393085002899169922e-01 -6.371795386075973511e-02
2.693000000000000000e+03 5.640330886840820312e+01 -3.707071304321289062e+01 -1.556453704833984375e-01 1.111390829086303711e+00 2.867236435413360596e-01 -3.594477474689483643e-01
2.694000000000000000e+03 3.875760269165039062e+01 -1.711164474487304688e+01 -1.448151215299731120e-05 1.155169047706294805e-05 -8.789465937297791243e-07 -1.514723976470122579e-06
2.695000000000000000e+03 3.980147171020507812e+01 -1.740569305419921875e+01 -3.156852471875026822e-06 9.211970791511703283e-06 1.816535473153635394e-06 -2.291812251087321783e-07
2.696000000000000000e+03 1.124569702148437500e+01 -3.273165512084960938e+01 1.909312093630433083e-03 -2.327866677660495043e-04 5.029576132073998451e-04 1.452031661756336689e-03
2.697000000000000000e+03 6.009399795532226562e+01 -4.022506713867187500e+01 3.817821741104125977e-01 3.069547414779663086e-01 2.066210806369781494e-01 -2.295621037483215332e-01
2.698000000000000000e+03 5.468466567993164062e+01 -3.303986358642578125e+01 3.202237486839294434e-01 2.065633535385131836e+00 7.157571911811828613e-01 2.192254066467285156e-01
2.699000000000000000e+03 1.086574935913085938e+01 3.714049100875854492e+00 4.921527215628884733e-05 2.703867357922717929e-05 2.287618372065480798e-05 -4.347493813838809729e-05
2.700000000000000000e+03 8.798611640930175781e+00 5.127398490905761719e+00 6.386197492247447371e-05 3.824292070930823684e-05 3.063146868953481317e-05 -7.967008423293009400e-05
2.701000000000000000e+03 6.632527923583984375e+01 -1.894650840759277344e+01 -3.899233043193817139e-01 4.904722571372985840e-01 3.016469068825244904e-02 3.638822734355926514e-01
2.702000000000000000e+03 6.384993743896484375e+01 -2.084070205688476562e+01 -1.120833396911621094e+00 6.831907033920288086e-01 -1.312928050756454468e-01 5.448303222656250000e-01
2.703000000000000000e+03 3.747932815551757812e+01 -1.690976524353027344e+01 -1.247022646566620097e-05 -6.707756256218999624e-06 -5.753394816565560177e-06 3.713954583872691728e-07
2.704000000000000000e+03 5.477756118774414062e+01 -3.530300140380859375e+01 -8.368348330259323120e-02 1.518687248229980469e+00 4.305011332035064697e-01 -2.713090926408767700e-02
2.705000000000000000e+03 1.122776985168457031e+01 4.433035850524902344e+00 9.346655133413150907e-05 2.958826189569663256e-05 3.691644451464526355e-05 -7.705245661782100797e-05
2.706000000000000000e+03 6.254298019409179688e+01 -2.190560150146484375e+01 -7.462680339813232422e-01 7.046936154365539551e-01 -1.247232779860496521e-02 6.379314064979553223e-01
2.707000000000000000e+03 6.300519180297851562e+01 -2.129903411865234375e+01 -9.616383910179138184e-01 7.364472746849060059e-01 -6.755733489990234375e-02 6.189543604850769043e-01
2.708000000000000000e+03 4.618129730224609375e+01 -3.374175131320953369e-01 1.176543300971388817e-04 3.283256955910474062e-05 4.514606916927732527e-05 7.495214231312274933e-05
2.709000000000000000e+03 4.481813812255859375e+01 6.890479922294616699e-01 -9.724839037517085671e-05 -8.030777098610997200e-05 -5.326684913598001003e-05 -6.997917807893827558e-05
2.710000000000000000e+03 4.896837615966796875e+01 3.542291259765625000e+01 -1.000509876757860184e-02 3.094091080129146576e-03 -2.073302399367094040e-03 7.821139879524707794e-03
2.711000000000000000e+03 5.461240768432617188e+01 4.022239303588867188e+01 8.151755481958389282e-02 -1.272064894437789917e-01 -1.370668131858110428e-02 5.336642637848854065e-02
2.712000000000000000e+03 5.343218612670898438e+01 3.625667190551757812e+01 -4.457639157772064209e-02 1.425739284604787827e-02 -9.095699526369571686e-03 3.963420167565345764e-02
2.713000000000000000e+03 7.508148670196533203e+00 -2.692673110961914062e+01 -1.058352645486593246e-04 -8.938455721363425255e-06 -3.443211608100682497e-05 -1.329684164375066757e-04
2.714000000000000000e+03 3.281908512115478516e+00 -2.403783416748046875e+01 -1.499147765571251512e-04 4.115767296752892435e-05 -3.262713289586827159e-05 -3.773608841584064066e-05
2.715000000000000000e+03 6.647801876068115234e+00 -2.539806175231933594e+01 -9.998919995268806815e-05 -8.218946459237486124e-05 -5.465359936351887882e-05 -7.204550638562068343e-05
2.716000000000000000e+03 6.375011825561523438e+01 -1.865728187561035156e+01 -2.700612843036651611e-01 8.512052893638610840e-01 1.743431985378265381e-01 7.761744260787963867e-01
2.717000000000000000e+03 6.198018264770507812e+01 -1.966297531127929688e+01 -6.984844207763671875e-01 1.172223567962646484e+00 1.421217322349548340e-01 8.550369739532470703e-01
2.718000000000000000e+03 4.443929290771484375e+01 -3.142479324340820312e+01 -5.818206816911697388e-02 -5.550048947334289551e-01 -1.839560866355895996e-01 -3.474761173129081726e-02
2.719000000000000000e+03 4.512335586547851562e+01 -2.946353912353515625e+01 -1.404673308134078979e-01 -5.137411355972290039e-01 -1.962625384330749512e-01 -3.054089248180389404e-01
2.720000000000000000e+03 4.404413986206054688e+01 -2.937688064575195312e+01 -3.380864262580871582e-01 -7.625771164894104004e-01 -3.301990628242492676e-01 -3.725412786006927490e-01
2.721000000000000000e+03 6.276857757568359375e+01 -2.085916709899902344e+01 -8.964986801147460938e-01 9.083017110824584961e-01 3.540901700034737587e-03 7.681648731231689453e-01
2.722000000000000000e+03 5.295999145507812500e+01 3.840696334838867188e+01 -2.204324863851070404e-02 -1.415801048278808594e-02 -1.086037792265415192e-02 6.342898309230804443e-02
2.723000000000000000e+03 5.346379089355468750e+01 -3.271302413940429688e+01 4.850445091724395752e-01 1.625789165496826172e+00 6.332501173019409180e-01 3.279321789741516113e-01
2.724000000000000000e+03 7.676721954345703125e+01 4.180965042114257812e+01 -8.549780398607254028e-02 7.900413513183593750e+00 2.344474792480468750e+00 -8.837389759719371796e-03
2.725000000000000000e+03 2.613738775253295898e+00 -3.987087249755859375e+01 -1.038677801261655986e-04 8.654256234876811504e-04 2.284673537360504270e-04 3.478987491689622402e-04
2.726000000000000000e+03 6.376695251464843750e+01 -3.909967422485351562e+01 5.724981427192687988e-01 4.250223040580749512e-01 2.992561459541320801e-01 -1.980244070291519165e-01
2.727000000000000000e+03 4.545828342437744141e+00 3.857298278808593750e+01 -1.371193211525678635e-04 7.565598934888839722e-04 1.858321775216609240e-04 -6.120755278971046209e-05
2.728000000000000000e+03 5.578808593750000000e+01 3.838412475585937500e+01 3.699320554733276367e-02 -1.082523390650749207e-01 -2.137773856520652771e-02 1.747134923934936523e-01
2.729000000000000000e+03 6.008748245239257812e+01 -3.719879531860351562e+01 6.872962415218353271e-02 2.392367869615554810e-01 9.238991886377334595e-02 -4.868994057178497314e-01
2.730000000000000000e+03 5.781930541992187500e+01 4.124184417724609375e+01 2.695319056510925293e-01 -1.791712045669555664e-01 2.710820920765399933e-02 1.006467714905738831e-01
2.731000000000000000e+03 6.634881591796875000e+01 -3.904019927978515625e+01 5.233626365661621094e-01 1.266554236412048340e+00 5.369750857353210449e-01 3.009967207908630371e-01
2.732000000000000000e+03 1.256343173980712891e+01 -6.790459156036376953e+00 -1.897215224744286388e-05 -1.715539269753207918e-06 -6.206307716638548300e-06 -3.920566996384877712e-06
2.733000000000000000e+03 1.287425708770751953e+01 -6.223347187042236328e+00 1.512549897597637028e-05 2.989956328747211955e-06 5.434636477730236948e-06 3.106293434029794298e-06
2.734000000000000000e+03 7.948071479797363281e+00 -3.978447437286376953e+00 8.953267752076499164e-06 5.003706519346451387e-06 4.187092145002679899e-06 6.170766027935314924e-06
2.735000000000000000e+03 9.673869132995605469e+00 -4.882800102233886719e+00 1.383408471156144515e-05 5.028799023421015590e-06 5.658865120494738221e-06 5.020837761549046263e-06
2.736000000000000000e+03 1.338498020172119141e+01 -6.545161247253417969e+00 -1.425708705937722698e-05 -3.255740239183069207e-06 -5.253848030406516045e-06 -4.479481049202149734e-06
2.737000000000000000e+03 1.266395664215087891e+01 -5.348612308502197266e+00 1.116062412620522082e-05 5.482595497596776113e-06 4.992965841665863991e-06 3.121613417533808388e-06
2.738000000000000000e+03 2.948489761352539062e+01 -1.140049076080322266e+01 -4.468742190510965884e-06 1.366579181194538251e-05 2.759114977379795164e-06 1.038919162965612486e-05
2.739000000000000000e+03 7.246698760986328125e+01 1.177787494659423828e+01 -4.672704041004180908e-01 9.284486770629882812e+00 2.645164966583251953e+00 -1.075078547000885010e-01
2.740000000000000000e+03 4.690694808959960938e+01 -2.548114967346191406e+01 -5.591446906328201294e-02 -3.183544278144836426e-01 -1.122806742787361145e-01 -6.771377325057983398e-01
2.741000000000000000e+03 4.560939788818359375e+01 -2.470072937011718750e+01 -1.380606740713119507e-01 -3.995564877986907959e-01 -1.612851470708847046e-01 -6.427739262580871582e-01
2.742000000000000000e+03 3.409893751144409180e+00 4.086762905120849609e+00 1.952459751919377595e-05 1.530002373328898102e-05 1.044738564814906567e-05 -1.865689227997791022e-05
2.743000000000000000e+03 1.471457004547119141e+01 -6.791445732116699219e+00 1.074045030691195279e-05 5.289718501444440335e-06 4.809050551557447761e-06 3.544646233422099613e-06
2.744000000000000000e+03 1.394002151489257812e+01 -1.188847923278808594e+01 -2.268994103360455483e-05 -1.945843541761860251e-05 -1.264451293536694720e-05 -8.455273928120732307e-06
2.745000000000000000e+03 3.322376251220703125e+01 -1.537776088714599609e+01 -1.829648113016446587e-06 8.320259439642541111e-06 1.947183363881777041e-06 5.054197572462726384e-06
2.746000000000000000e+03 1.434367179870605469e+01 -7.303269863128662109e+00 -1.222425089508760720e-05 -4.671162059821654111e-06 -5.068623977422248572e-06 -3.229338517485302873e-06
2.747000000000000000e+03 2.941844558715820312e+01 -1.241511535644531250e+01 5.479258106788620353e-06 1.511271693743765354e-05 6.177592695166822523e-06 7.856341653678100556e-06
2.748000000000000000e+03 7.750507354736328125e+01 1.109445476531982422e+01 -5.740754306316375732e-02 6.870967864990234375e+00 2.044068098068237305e+00 1.038880795240402222e-01
2.749000000000000000e+03 1.135614776611328125e+01 -5.363174915313720703e+00 -1.127125233324477449e-05 -4.592552159010665491e-06 -4.759141575050307438e-06 -5.958918336546048522e-06
2.750000000000000000e+03 1.114394378662109375e+01 -5.898887157440185547e+00 1.466058074583997950e-05 1.180289132207690272e-06 4.752261247631395236e-06 7.153542810556245968e-06
2.751000000000000000e+03 1.577594089508056641e+01 -1.112852478027343750e+01 -1.261681609321385622e-05 -2.138312629540450871e-05 -1.019998308038339019e-05 -1.466627600166248158e-05
2.752000000000000000e+03 4.723218154907226562e+01 -2.448577117919921875e+01 -1.905242055654525757e-01 -2.912317812442779541e-01 -1.445267945528030396e-01 -6.936135292053222656e-01
2.753000000000000000e+03 4.755012893676757812e+01 -2.514550018310546875e+01 -7.583206146955490112e-02 -2.842261493206024170e-01 -1.080174669623374939e-01 -6.894969344139099121e-01
2.754000000000000000e+03 4.598777770996093750e+01 -2.523964500427246094e+01 -1.009983047842979431e-01 -3.999119400978088379e-01 -1.502730697393417358e-01 -6.569550633430480957e-01
2.755000000000000000e+03 1.606248283386230469e+01 -7.121691703796386719e+00 -9.909321306622587144e-06 -5.879004675080068409e-06 -4.736497885460266843e-06 -2.586117489045136608e-06
2.756000000000000000e+03 1.519340896606445312e+01 -7.214630603790283203e+00 -1.068581059371354058e-05 -5.664678610628470778e-06 -4.905146852252073586e-06 -3.070240154556813650e-06
2.757000000000000000e+03 1.672399902343750000e+01 -1.032926845550537109e+01 1.765334491210523993e-05 1.349013700746581890e-06 5.700707788491854444e-06 -7.956521585583686829e-06
2.758000000000000000e+03 4.657098388671875000e+01 -2.484579849243164062e+01 -1.388451159000396729e-01 -3.427347540855407715e-01 -1.444739550352096558e-01 -6.853222846984863281e-01
2.759000000000000000e+03 1.080919075012207031e+01 -5.165705680847167969e+00 1.327906466030981392e-05 3.686599256980116479e-06 5.089699243399081752e-06 6.033705176378134638e-06
2.760000000000000000e+03 6.332855224609375000e+01 -2.068821144104003906e+01 -9.903728961944580078e-01 8.357334733009338379e-01 -4.639182984828948975e-02 7.126905322074890137e-01
2.761000000000000000e+03 3.255187225341796875e+01 -1.528051185607910156e+01 -1.592451008036732674e-05 -5.122404672874836251e-06 -6.314074198598973453e-06 -6.664505463049863465e-07
2.762000000000000000e+03 2.967135047912597656e+01 -1.537098598480224609e+01 -2.522286877137958072e-06 8.533345862815622240e-06 1.803317672965931706e-06 6.574631242983741686e-06
2.763000000000000000e+03 4.804023742675781250e+01 -2.561337280273437500e+01 9.383098804391920567e-04 -2.273371219635009766e-01 -6.791964173316955566e-02 -6.622242331504821777e-01
2.764000000000000000e+03 4.952458190917968750e+01 -2.487201309204101562e+01 -3.500375896692276001e-02 -8.768855035305023193e-02 -3.680769354104995728e-02 -6.477371454238891602e-01
2.765000000000000000e+03 4.811195755004882812e+01 -2.474700355529785156e+01 -1.320142149925231934e-01 -2.316687256097793579e-01 -1.091048866510391235e-01 -6.984499096870422363e-01
2.766000000000000000e+03 2.880817794799804688e+01 -1.035923671722412109e+01 -1.055113557413278613e-06 1.639016227272804826e-05 4.600514330377336591e-06 7.367582384176785126e-06
2.767000000000000000e+03 4.790513610839843750e+01 -8.921051979064941406e+00 4.661486309487372637e-05 6.382039373420411721e-06 1.589906969456933439e-05 1.724535650282632560e-05
2.768000000000000000e+03 4.831706237792968750e+01 -1.248618221282958984e+01 -2.963166298286523670e-05 1.295715264859609306e-06 -8.500784133502747864e-06 -5.656672783516114578e-06
2.769000000000000000e+03 5.200709915161132812e+01 -2.343256187438964844e+01 -3.884852528572082520e-01 1.436091363430023193e-01 -7.346282899379730225e-02 -4.984066188335418701e-01
2.770000000000000000e+03 5.276061248779296875e+01 -2.400606155395507812e+01 -1.365023106336593628e-01 3.660778999328613281e-01 6.887267529964447021e-02 -3.597995340824127197e-01
2.771000000000000000e+03 5.053183364868164062e+01 -2.437343597412109375e+01 -1.253461837768554688e-01 5.543843843042850494e-03 -3.594069927930831909e-02 -6.084046363830566406e-01
2.772000000000000000e+03 5.127897262573242188e+01 -2.424300956726074219e+01 -1.242510527372360229e-01 1.073209643363952637e-01 -5.079026799649000168e-03 -5.504819154739379883e-01
2.773000000000000000e+03 5.122686004638671875e+01 -1.576322078704833984e+01 -7.745689799776300788e-06 -2.270965069328667596e-06 -3.004996415256755427e-06 1.103971953853033483e-06
2.774000000000000000e+03 5.100703048706054688e+01 -1.518349266052246094e+01 8.759380762057844549e-06 -1.335036927230248693e-06 2.227303184554330073e-06 -4.622359028871869668e-06
2.775000000000000000e+03 2.852858543395996094e+01 -1.313194084167480469e+01 -1.525493871668004431e-06 5.817632427351782098e-06 1.287641453018295579e-06 5.121688445797190070e-06
2.776000000000000000e+03 2.894758605957031250e+01 -1.199796009063720703e+01 -5.521705588762415573e-06 -1.099416658689733595e-05 -4.954761607223190367e-06 5.303989496496797074e-07
2.777000000000000000e+03 4.548909759521484375e+01 -3.897813796997070312e+00 -3.687022035592235625e-05 -6.243945244932547212e-05 -2.979290184157434851e-05 -4.122278187423944473e-05
2.778000000000000000e+03 4.639868545532226562e+01 -4.222157955169677734e+00 -5.556149335461668670e-05 -5.100052294437773526e-05 -3.196860416210256517e-05 -4.139996963203884661e-05
2.779000000000000000e+03 4.837115478515625000e+01 -1.175623321533203125e+01 3.627701516961678863e-05 -4.598198756866622716e-06 9.503644832875579596e-06 5.164443791727535427e-06
2.780000000000000000e+03 4.909122085571289062e+01 -1.104487228393554688e+01 4.108058419660665095e-05 -3.625286808528471738e-06 1.123658876167610288e-05 8.217160029744263738e-06
2.781000000000000000e+03 7.682859039306640625e+01 1.116859340667724609e+01 -9.184620529413223267e-02 7.230178833007812500e+00 2.141499757766723633e+00 1.076907217502593994e-01
2.782000000000000000e+03 5.416024017333984375e+01 -2.291445922851562500e+01 -5.015606880187988281e-01 5.045313835144042969e-01 8.912056218832731247e-04 -1.426033675670623779e-01
2.783000000000000000e+03 5.197986221313476562e+01 -2.480637741088867188e+01 9.176038205623626709e-02 3.167259991168975830e-01 1.225459128618240356e-01 -4.314478337764739990e-01
2.784000000000000000e+03 7.572254943847656250e+01 -3.636550140380859375e+01 -2.444648593664169312e-01 7.822152137756347656e+00 2.273306131362915039e+00 -1.421638578176498413e-01
2.785000000000000000e+03 4.689238357543945312e+01 -1.587843990325927734e+01 4.857077783526619896e-06 5.978429271635832265e-06 3.250652071074000560e-06 5.138583219377323985e-06
2.786000000000000000e+03 4.667951583862304688e+01 -4.859738826751708984e+00 6.512757681775838137e-05 1.703049383650068194e-05 2.464742101437877864e-05 3.664037285489030182e-05
2.787000000000000000e+03 4.863946533203125000e+01 -1.358324909210205078e+01 4.909713425149675459e-06 1.079817411664407700e-05 4.712366262538125739e-06 1.482565312471706420e-05
2.788000000000000000e+03 4.836214065551757812e+01 -1.552358531951904297e+01 1.120382876251824200e-05 8.684480690135387704e-07 3.621683163146371953e-06 4.003907179139787331e-06
2.789000000000000000e+03 2.911733627319335938e+01 -1.313436603546142578e+01 -1.580769094289280474e-05 -1.126309598475927487e-05 -8.121235623548272997e-06 6.365370609273668379e-06
2.790000000000000000e+03 3.228636932373046875e+01 -1.389185714721679688e+01 1.364285822091915179e-06 1.344433167105307803e-05 4.442585122887976468e-06 7.578676104458281770e-06
2.791000000000000000e+03 6.551361846923828125e+01 -1.859474182128906250e+01 -2.110370844602584839e-01 6.695044636726379395e-01 1.375402212142944336e-01 5.702085494995117188e-01
2.792000000000000000e+03 4.693687057495117188e+01 -5.501897335052490234e+00 -6.470436346717178822e-05 -2.922485873568803072e-05 -2.817876702465582639e-05 -4.346997593529522419e-05
2.793000000000000000e+03 7.528301239013671875e+01 3.714911270141601562e+01 -2.468912452459335327e-01 7.266901493072509766e+00 2.106003046035766602e+00 3.019114732742309570e-01
2.794000000000000000e+03 7.634033966064453125e+01 3.697345733642578125e+01 -1.771009564399719238e-01 7.767795085906982422e+00 2.277208089828491211e+00 2.738657593727111816e-01
2.795000000000000000e+03 8.191198348999023438e+00 4.873102188110351562e+00 4.077694757143035531e-05 2.028144990617875010e-05 1.831751978897955269e-05 -5.093014988233335316e-05
2.796000000000000000e+03 4.300045013427734375e+01 -2.053258895874023438e+00 -2.404009319434408098e-05 -5.459251769934780896e-05 -2.358978235861286521e-05 -4.134188566240482032e-05
2.797000000000000000e+03 4.517108917236328125e+01 6.292626261711120605e-03 9.615570888854563236e-05 4.657711542677134275e-05 4.281984729459509254e-05 7.199640094768255949e-05
2.798000000000000000e+03 4.255267333984375000e+01 4.925200462341308594e+00 -1.514797768322750926e-04 -1.583006815053522587e-05 -5.019295349484309554e-05 -8.262945630121976137e-05
2.799000000000000000e+03 4.345676040649414062e+01 1.719893455505371094e+00 8.516872185282409191e-05 5.938801041338592768e-05 4.336702113505452871e-05 7.280715362867340446e-05
2.800000000000000000e+03 4.614999008178710938e+01 -1.981728911399841309e+00 -8.000430534593760967e-05 -6.681421655230224133e-05 -4.404555875225923955e-05 -5.536446042242459953e-05
2.801000000000000000e+03 1.618097305297851562e+01 3.099485158920288086e+00 1.320420124102383852e-04 -1.892885961751744617e-06 3.904473851434886456e-05 -4.768131111632101238e-05
2.802000000000000000e+03 1.627241706848144531e+01 1.396178960800170898e+00 8.392601012019440532e-05 -7.461959739885060117e-06 2.293921534146647900e-05 -2.106300053128506988e-05
2.803000000000000000e+03 4.316702270507812500e+01 3.006719589233398438e+01 3.283200087025761604e-03 6.322659319266676903e-04 1.174639794044196606e-03 6.982790655456483364e-04
2.804000000000000000e+03 4.520802307128906250e+01 3.014571762084960938e+01 2.303631277754902840e-03 6.970198010094463825e-04 9.001953294500708580e-04 1.039859838783740997e-03
2.805000000000000000e+03 4.818139266967773438e+01 -7.418367862701416016e+00 -5.478087405208498240e-05 -2.615043194964528084e-05 -2.427939216431695968e-05 -2.894375575124286115e-05
2.806000000000000000e+03 4.769474029541015625e+01 -8.221921920776367188e+00 -4.556148269330151379e-05 -2.428556763334199786e-05 -2.095411400659941137e-05 -2.549750206526368856e-05
2.807000000000000000e+03 5.779513168334960938e+01 -2.396830177307128906e+01 3.494932353496551514e-01 1.536813855171203613e+00 5.658921599388122559e-01 9.357832670211791992e-01
2.808000000000000000e+03 3.562412261962890625e+01 -1.634159278869628906e+01 -1.404262184223625809e-05 -7.827035915397573262e-06 -6.560897418239619583e-06 -2.092297563649481162e-06
2.809000000000000000e+03 3.388279342651367188e+01 -1.547581768035888672e+01 -1.708630406938027591e-05 -4.024156169180059806e-06 -6.333138117042835802e-06 -1.115718575306345883e-07
2.810000000000000000e+03 6.386085033416748047e+00 4.696521282196044922e+00 2.302524262631777674e-05 3.517397271934896708e-05 1.745976442180108279e-05 -5.087190584163181484e-05
2.811000000000000000e+03 8.330505371093750000e+00 -5.391261100769042969e+00 -1.216620876220986247e-05 -6.949721409910125658e-06 -5.734778824262320995e-06 -6.266890977713046595e-06
2.812000000000000000e+03 3.555974006652832031e+00 7.254887104034423828e+00 1.106336867451318540e-06 5.975643216515891254e-05 1.825883009587414563e-05 -4.830882608075626194e-05
2.813000000000000000e+03 6.395229816436767578e+00 3.976819276809692383e+00 4.374227864900603890e-05 1.148311457654926926e-05 1.656761742196977139e-05 -3.767668385989964008e-05
2.814000000000000000e+03 4.194684982299804688e+00 4.774305343627929688e+00 2.536452302592806518e-05 2.249039425805676728e-05 1.435647573089227080e-05 -2.845304879883769900e-05
2.815000000000000000e+03 4.179511070251464844e+00 4.048439502716064453e+00 1.049557704391190782e-05 2.376029260631185025e-05 1.027676080411765724e-05 -2.670976209628861398e-05
2.816000000000000000e+03 4.014075279235839844e+00 7.977964401245117188e+00 5.347279056877596304e-06 6.894829130033031106e-05 2.228867197118233889e-05 -5.818483623443171382e-05
2.817000000000000000e+03 7.093537807464599609e+00 3.974368572235107422e+00 3.191324867657385767e-05 3.412824662518687546e-05 1.981244895432610065e-05 -5.029458043281920254e-05
2.818000000000000000e+03 6.639311981201171875e+01 -1.175517940521240234e+01 5.259359478950500488e-01 2.338536739349365234e+00 8.593418002128601074e-01 7.714594006538391113e-01
2.819000000000000000e+03 6.869005584716796875e+01 -1.139048576354980469e+01 2.315830886363983154e-01 3.803378343582153320e+00 1.210488438606262207e+00 3.764997422695159912e-01
2.820000000000000000e+03 2.281976127624511719e+01 -4.049906730651855469e+00 4.609206735040061176e-05 -2.911502269853372127e-05 5.093113031762186438e-06 4.477179118111962453e-06
2.821000000000000000e+03 2.694823265075683594e+00 2.891814231872558594e+01 3.265110717620700598e-05 6.158862961456179619e-04 1.945612166309729218e-04 -9.861712896963581443e-05
2.822000000000000000e+03 3.533689737319946289e+00 2.958757781982421875e+01 2.498188950994517654e-05 6.059741717763245106e-04 1.892868167487904429e-04 -1.240944548044353724e-04
2.823000000000000000e+03 5.264627456665039062e+00 -3.085720825195312500e+01 5.293400608934462070e-04 4.187868762528523803e-05 1.713656238280236721e-04 2.555123937781900167e-04
2.824000000000000000e+03 8.963112831115722656e+00 -3.071585083007812500e+01 1.025467296130955219e-03 5.017981311539188027e-05 3.226941043976694345e-04 4.983179969713091850e-04
2.825000000000000000e+03 4.729014587402343750e+01 -6.824676513671875000e+00 -5.040073301643133163e-05 -3.382396971574053168e-05 -2.526740900066215545e-05 -3.732745244633406401e-05
2.826000000000000000e+03 7.594599914550781250e+01 3.281549072265625000e+01 -1.570989936590194702e-01 7.531276226043701172e+00 2.212253093719482422e+00 5.753926038742065430e-01
2.827000000000000000e+03 7.655399322509765625e+01 3.218320846557617188e+01 -1.010769382119178772e-01 7.618262290954589844e+00 2.255155563354492188e+00 5.967334508895874023e-01
2.828000000000000000e+03 6.675596618652343750e+01 -1.615590095520019531e+01 4.153473079204559326e-01 1.543148756027221680e+00 5.875488519668579102e-01 2.669562995433807373e-01
2.829000000000000000e+03 7.656208038330078125e+01 3.020132827758789062e+01 3.316483926028013229e-04 7.511417388916015625e+00 2.253524541854858398e+00 6.424039602279663086e-01
2.830000000000000000e+03 7.753576660156250000e+01 -2.908625984191894531e+01 2.193123996257781982e-01 8.214937210083007812e+00 2.530274868011474609e+00 -4.585409164428710938e-01
2.831000000000000000e+03 7.297223663330078125e+01 5.206000328063964844e+00 4.060882627964019775e-01 9.506011962890625000e+00 2.973629951477050781e+00 2.656619250774383545e-02
2.832000000000000000e+03 6.415626525878906250e+01 -1.798630332946777344e+01 -1.020993385463953018e-02 8.600781559944152832e-01 2.549604773521423340e-01 7.444090843200683594e-01
2.833000000000000000e+03 4.550929260253906250e+01 -6.630775928497314453e-01 -8.860007801558822393e-05 -7.443406502716243267e-05 -4.891024218522943556e-05 -6.363011925714090466e-05
2.834000000000000000e+03 4.579954528808593750e+01 -2.945694923400878906e+00 -5.585405597230419517e-05 -6.495722482213750482e-05 -3.624338569352403283e-05 -4.853955033468082547e-05
2.835000000000000000e+03 4.610069274902343750e+00 -3.191363716125488281e+01 4.457448958419263363e-04 1.321581512456759810e-04 1.733709068503230810e-04 3.088122466579079628e-04
2.836000000000000000e+03 4.414768218994140625e+01 -1.608825111389160156e+01 -6.405837666534353048e-06 -8.284474461106583476e-06 -4.407093456393340603e-06 -6.360477073030779138e-06
2.837000000000000000e+03 4.170119857788085938e+01 -1.706170463562011719e+01 -9.811745940169203095e-07 9.327150110038928688e-06 2.503792529751081020e-06 3.462447182300820714e-07
2.838000000000000000e+03 7.691962432861328125e+01 -3.047622680664062500e+01 7.452827692031860352e-02 8.338958740234375000e+00 2.524046182632446289e+00 -6.290630102157592773e-01
2.839000000000000000e+03 7.596350860595703125e+01 2.544143867492675781e+01 2.308937311172485352e-01 7.442963600158691406e+00 2.302157163619995117e+00 3.840976953506469727e-01
2.840000000000000000e+03 4.288586616516113281e+00 3.184593391418457031e+01 -1.328275993728311732e-05 6.028394564054906368e-04 1.768670044839382172e-04 -1.110471857828088105e-04
2.841000000000000000e+03 3.523183345794677734e+00 -3.037484741210937500e+01 -2.852210127457510680e-05 1.285297330468893051e-04 3.000229116878472269e-05 1.426810486009344459e-04
2.842000000000000000e+03 7.754813385009765625e+01 4.389905929565429688e+00 1.246134340763092041e-01 6.662826061248779297e+00 2.036231756210327148e+00 -4.373008012771606445e-02
2.843000000000000000e+03 7.242173004150390625e+01 2.493138504028320312e+01 5.610850453376770020e-01 8.748287200927734375e+00 2.792811870574951172e+00 -8.087404072284698486e-02
2.844000000000000000e+03 7.552085876464843750e+01 2.193830490112304688e+01 1.946024000644683838e-01 7.728047370910644531e+00 2.376794815063476562e+00 8.937735855579376221e-02
2.845000000000000000e+03 7.409435272216796875e+01 -2.396987533569335938e+01 5.968258976936340332e-01 8.786421775817871094e+00 2.814974308013916016e+00 5.998491048812866211e-01
2.846000000000000000e+03 7.255845642089843750e+01 1.902007293701171875e+01 7.442241162061691284e-02 9.221403121948242188e+00 2.788747787475585938e+00 -5.859283730387687683e-03
2.847000000000000000e+03 7.689054107666015625e+01 2.237142181396484375e+01 1.209926307201385498e-01 7.161030292510986328e+00 2.184607028961181641e+00 1.383570879697799683e-01
2.848000000000000000e+03 7.680606842041015625e+01 -2.496503829956054688e+01 4.137869477272033691e-01 8.301712036132812500e+00 2.614649772644042969e+00 4.565798640251159668e-01
2.849000000000000000e+03 7.671054077148437500e+01 -1.000644683837890625e+01 -6.807500869035720825e-02 7.809283256530761719e+00 2.322362422943115234e+00 -5.474715232849121094e-01
2.850000000000000000e+03 7.767687225341796875e+01 -2.032130813598632812e+01 -1.745824515819549561e-01 8.756499290466308594e+00 2.574575185775756836e+00 4.516064822673797607e-01
2.851000000000000000e+03 7.683449554443359375e+01 -2.336851310729980469e+01 1.478322148323059082e-01 8.427358627319335938e+00 2.572557210922241211e+00 6.746004223823547363e-01
2.852000000000000000e+03 7.607279205322265625e+01 -1.181828594207763672e+01 -1.060895621776580811e-01 7.653310298919677734e+00 2.264166116714477539e+00 -5.237524509429931641e-01
2.853000000000000000e+03 7.681044769287109375e+01 -1.484293365478515625e+01 -1.577692031860351562e-01 8.204169273376464844e+00 2.413919925689697266e+00 -3.129136562347412109e-01
2.854000000000000000e+03 7.686902618408203125e+01 -1.326084041595458984e+01 -1.108117401599884033e-01 8.088291168212890625e+00 2.393243789672851562e+00 -4.251075983047485352e-01
2.855000000000000000e+03 7.325959014892578125e+01 1.818664932250976562e+01 7.418990880250930786e-02 8.864994049072265625e+00 2.681755304336547852e+00 1.783503452315926552e-03
2.856000000000000000e+03 7.676342773437500000e+01 1.363788604736328125e+01 -6.670748442411422729e-02 7.250040531158447266e+00 2.154999971389770508e+00 1.894747139886021614e-03
2.857000000000000000e+03 7.677395629882812500e+01 1.607462120056152344e+01 -1.401909685228019953e-04 7.211631298065185547e+00 2.163447380065917969e+00 -3.380055725574493408e-02
2.858000000000000000e+03 7.645873260498046875e+01 -1.823846435546875000e+01 -4.050631225109100342e-01 8.344029426574707031e+00 2.381689786911010742e+00 8.081924915313720703e-02
2.859000000000000000e+03 7.616626739501953125e+01 -2.925491809844970703e+00 5.688294768333435059e-02 7.451954841613769531e+00 2.252651453018188477e+00 -6.976267695426940918e-01
2.860000000000000000e+03 7.691947937011718750e+01 -5.112873077392578125e+00 -2.805950865149497986e-02 7.496189117431640625e+00 2.240438938140869141e+00 -6.642311811447143555e-01
2.861000000000000000e+03 7.687697601318359375e+01 -6.678917407989501953e+00 -5.074268206954002380e-02 7.612934112548828125e+00 2.268657445907592773e+00 -6.376696228981018066e-01
2.862000000000000000e+03 7.749284362792968750e+01 -8.330120086669921875e+00 -4.649278894066810608e-02 7.883890151977539062e+00 2.351219177246093750e+00 -5.304927825927734375e-01
2.863000000000000000e+03 7.675904083251953125e+01 1.281147384643554688e+01 -8.348827809095382690e-02 7.249940872192382812e+00 2.149935722351074219e+00 3.678783401846885681e-02
2.864000000000000000e+03 7.263578796386718750e+01 8.704200744628906250e+00 1.516454294323921204e-02 9.398898124694824219e+00 2.824218750000000000e+00 1.929660737514495850e-01
2.865000000000000000e+03 7.747035980224609375e+01 2.700400352478027344e+01 9.157653152942657471e-02 7.167856693267822266e+00 2.177829980850219727e+00 4.557525813579559326e-01
2.866000000000000000e+03 7.730420684814453125e+01 3.023017883300781250e+01 3.390267724171280861e-03 7.529604434967041016e+00 2.259898424148559570e+00 5.829681754112243652e-01
2.867000000000000000e+03 7.668569946289062500e+01 5.866969108581542969e+00 1.639904975891113281e-01 7.173593044281005859e+00 2.201275110244750977e+00 8.624298125505447388e-02
2.868000000000000000e+03 7.670658111572265625e+01 8.740954399108886719e+00 -4.187976010143756866e-03 7.247032165527343750e+00 2.172853231430053711e+00 1.961218118667602539e-01
2.869000000000000000e+03 7.680571746826171875e+01 9.564561843872070312e+00 -4.653136432170867920e-02 7.204873561859130859e+00 2.147502660751342773e+00 1.730167567729949951e-01
2.870000000000000000e+03 7.326039886474609375e+01 2.148696780204772949e-02 5.289386510848999023e-01 8.633685111999511719e+00 2.748787164688110352e+00 -2.506495416164398193e-01
2.871000000000000000e+03 7.683981323242187500e+01 2.768974542617797852e+00 2.086648046970367432e-01 7.051950454711914062e+00 2.178184509277343750e+00 -2.218863666057586670e-01
2.872000000000000000e+03 7.687792968750000000e+01 3.579102993011474609e+00 2.068819403648376465e-01 7.032678604125976562e+00 2.171868324279785156e+00 -1.282507777214050293e-01
2.873000000000000000e+03 7.676845550537109375e+01 1.445420455932617188e+01 -4.424244165420532227e-02 7.231351852416992188e+00 2.156132936477661133e+00 -2.130578830838203430e-02
2.874000000000000000e+03 7.748848724365234375e+01 -3.638616800308227539e-01 1.107213422656059265e-01 6.940737247467041016e+00 2.115437507629394531e+00 -4.817990660667419434e-01
2.875000000000000000e+03 7.680442047119140625e+01 -2.254439926147460938e+01 -3.815711708739399910e-03 8.490889549255371094e+00 2.546122312545776367e+00 7.165988087654113770e-01
2.876000000000000000e+03 7.657649230957031250e+01 -1.917107391357421875e+01 -4.083773195743560791e-01 8.471301078796386719e+00 2.418877124786376953e+00 2.525769770145416260e-01
2.877000000000000000e+03 7.704590606689453125e+01 -1.724350357055664062e+01 -2.752336263656616211e-01 8.514426231384277344e+00 2.471757650375366211e+00 -4.208086803555488586e-02
2.878000000000000000e+03 7.565438842773437500e+01 -4.827302932739257812e+00 -3.600390627980232239e-02 7.492853164672851562e+00 2.237054824829101562e+00 -7.105065584182739258e-01
2.879000000000000000e+03 7.758473968505859375e+01 -4.334560394287109375e+00 -5.750363226979970932e-03 7.390038967132568359e+00 2.215286731719970703e+00 -6.020874977111816406e-01
2.880000000000000000e+03 7.695325469970703125e+01 -4.338608741760253906e+00 -9.061602875590324402e-03 7.431498527526855469e+00 2.226731061935424805e+00 -6.702024936676025391e-01
2.881000000000000000e+03 7.633807373046875000e+01 -3.628334522247314453e+00 2.195238322019577026e-02 7.446824073791503906e+00 2.240633010864257812e+00 -7.025325298309326172e-01
2.882000000000000000e+03 7.323756408691406250e+01 1.572788238525390625e+01 5.274276435375213623e-02 8.805830955505371094e+00 2.657572269439697266e+00 -4.440109059214591980e-02
2.883000000000000000e+03 7.748949432373046875e+01 1.755664825439453125e+01 1.722540706396102905e-02 6.874227523803710938e+00 2.067435741424560547e+00 -2.046397887170314789e-02
2.884000000000000000e+03 7.397427368164062500e+01 1.893683433532714844e+01 8.977469801902770996e-02 8.520141601562500000e+00 2.582974910736083984e+00 -5.439091939479112625e-03
2.885000000000000000e+03 7.679116821289062500e+01 1.848185157775878906e+01 4.207890108227729797e-02 7.197070121765136719e+00 2.171744585037231445e+00 -6.451034452766180038e-03
2.886000000000000000e+03 7.678303527832031250e+01 -1.168999862670898438e+01 -7.576198130846023560e-02 7.953923702239990234e+00 2.363448381423950195e+00 -4.834561645984649658e-01
2.887000000000000000e+03 7.749396514892578125e+01 -1.161268711090087891e+01 -5.079331994056701660e-02 8.240799903869628906e+00 2.457001924514770508e+00 -4.220533668994903564e-01
2.888000000000000000e+03 7.674227905273437500e+01 -1.086127758026123047e+01 -7.765547931194305420e-02 7.869409561157226562e+00 2.337526321411132812e+00 -5.156293511390686035e-01
2.889000000000000000e+03 7.750331878662109375e+01 2.383451271057128906e+01 1.050963997840881348e-01 6.948207378387451172e+00 2.115991115570068359e+00 2.300079613924026489e-01
2.890000000000000000e+03 7.482003021240234375e+01 2.214866256713867188e+01 2.380329072475433350e-01 8.027055740356445312e+00 2.479526519775390625e+00 6.946684420108795166e-02
2.891000000000000000e+03 7.613824462890625000e+01 -2.489478874206542969e+01 5.302832722663879395e-01 8.398022651672363281e+00 2.678491592407226562e+00 5.217618942260742188e-01
2.892000000000000000e+03 7.682927703857421875e+01 -2.416323280334472656e+01 2.815216183662414551e-01 8.364250183105468750e+00 2.593731641769409180e+00 6.110029220581054688e-01
2.893000000000000000e+03 7.548535156250000000e+01 -3.008762359619140625e+01 2.519407272338867188e-01 8.380056381225585938e+00 2.589599132537841797e+00 -6.102865338325500488e-01
2.894000000000000000e+03 7.624958038330078125e+01 6.486299037933349609e+00 1.487438976764678955e-01 7.422275543212890625e+00 2.271305799484252930e+00 1.232057884335517883e-01
2.895000000000000000e+03 7.607035827636718750e+01 1.203854370117187500e+01 -1.287601739168167114e-01 7.615419387817382812e+00 2.245997667312622070e+00 6.419922411441802979e-02
2.896000000000000000e+03 7.541107177734375000e+01 1.192940044403076172e+01 -1.732146292924880981e-01 7.935767650604248047e+00 2.328765869140625000e+00 6.705608218908309937e-02
2.897000000000000000e+03 7.684960937500000000e+01 1.961233973503112793e+00 2.010325342416763306e-01 7.068763732910156250e+00 2.180938959121704102e+00 -3.070240318775177002e-01
2.898000000000000000e+03 7.688765716552734375e+01 1.184629082679748535e+00 2.140407562255859375e-01 7.093739032745361328e+00 2.192333936691284180e+00 -3.854016065597534180e-01
2.899000000000000000e+03 7.686814880371093750e+01 4.363958537578582764e-01 1.800659298896789551e-01 7.120706081390380859e+00 2.190231561660766602e+00 -4.646151065826416016e-01
2.900000000000000000e+03 7.678292846679687500e+01 1.198471927642822266e+01 -9.383951127529144287e-02 7.239078044891357422e+00 2.143571615219116211e+00 6.513443589210510254e-02
2.901000000000000000e+03 7.687458038330078125e+01 5.116281986236572266e+00 1.582635045051574707e-01 7.035532951354980469e+00 2.158138990402221680e+00 1.755587570369243622e-02
2.902000000000000000e+03 7.691046142578125000e+01 4.359107494354248047e+00 1.842011809349060059e-01 7.013548374176025391e+00 2.159324884414672852e+00 -4.734100028872489929e-02
2.903000000000000000e+03 7.686195373535156250e+01 -2.172542953491210938e+01 -1.436128616333007812e-01 8.556592941284179688e+00 2.523894071578979492e+00 6.636716127395629883e-01
2.904000000000000000e+03 7.764289855957031250e+01 -2.108086585998535156e+01 -1.397435665130615234e-01 8.698563575744628906e+00 2.567646026611328125e+00 5.403799414634704590e-01
2.905000000000000000e+03 7.666334533691406250e+01 -1.967913389205932617e+00 1.007274389266967773e-01 7.323685169219970703e+00 2.227323770523071289e+00 -6.449090838432312012e-01
2.906000000000000000e+03 7.615048980712890625e+01 -1.576611995697021484e+01 -2.792774438858032227e-01 7.968626022338867188e+00 2.306804656982421875e+00 -3.035877346992492676e-01
2.907000000000000000e+03 7.751573181152343750e+01 1.994804191589355469e+01 4.840506240725517273e-02 6.862424850463867188e+00 2.073249101638793945e+00 2.972185797989368439e-02
2.908000000000000000e+03 7.684540557861328125e+01 2.085177993774414062e+01 8.835782110691070557e-02 7.162204742431640625e+00 2.175168752670288086e+00 6.561299413442611694e-02
2.909000000000000000e+03 7.682854461669921875e+01 -1.569298171997070312e+01 -2.191807776689529419e-01 8.282014846801757812e+00 2.418850183486938477e+00 -2.472561597824096680e-01
2.910000000000000000e+03 7.688387298583984375e+01 -1.653496360778808594e+01 -2.448548972606658936e-01 8.393173217773437500e+00 2.444495439529418945e+00 -1.368348896503448486e-01
2.911000000000000000e+03 7.589600372314453125e+01 -2.946972656250000000e+01 3.753671348094940186e-01 8.360600471496582031e+00 2.620790243148803711e+00 -5.654323101043701172e-01
2.912000000000000000e+03 7.679575347900390625e+01 -3.153341114521026611e-01 1.645782738924026489e-01 7.186331748962402344e+00 2.205272912979125977e+00 -5.317891240119934082e-01
2.913000000000000000e+03 7.667193603515625000e+01 -1.118868350982666016e+00 1.412460505962371826e-01 7.282304763793945312e+00 2.227065324783325195e+00 -6.001451611518859863e-01
2.914000000000000000e+03 7.679411315917968750e+01 -8.303380966186523438e+00 -6.770053505897521973e-02 7.710744857788085938e+00 2.292913436889648438e+00 -5.972163081169128418e-01
2.915000000000000000e+03 7.643241882324218750e+01 3.100565528869628906e+01 -4.113761335611343384e-02 7.557922840118408203e+00 2.255035638809204102e+00 6.490000486373901367e-01
2.916000000000000000e+03 7.685333251953125000e+01 -7.480218410491943359e+00 -5.975769832730293274e-02 7.667258262634277344e+00 2.282250165939331055e+00 -6.158911585807800293e-01
2.917000000000000000e+03 7.227337646484375000e+01 -3.214149093627929688e+01 -4.756011962890625000e-01 7.085618495941162109e+00 1.983005285263061523e+00 4.298335909843444824e-01
2.918000000000000000e+03 7.699929809570312500e+01 -3.466137695312500000e+01 -1.911409348249435425e-01 8.454463005065917969e+00 2.478996753692626953e+00 -3.581072986125946045e-01
2.919000000000000000e+03 7.334741973876953125e+01 -3.351036071777343750e+01 -5.858699083328247070e-01 7.247565269470214844e+00 1.998508572578430176e+00 7.610443234443664551e-02
2.920000000000000000e+03 7.744456481933593750e+01 -2.752399826049804688e+01 3.455418050289154053e-01 8.135660171508789062e+00 2.544360637664794922e+00 -1.601928323507308960e-01
2.921000000000000000e+03 7.677359771728515625e+01 -2.578871345520019531e+01 4.948928654193878174e-01 8.275042533874511719e+00 2.630980491638183594e+00 2.882685065269470215e-01
2.922000000000000000e+03 7.635346984863281250e+01 3.597209548950195312e+01 -2.034854143857955933e-01 7.688097476959228516e+00 2.245383501052856445e+00 3.602177500724792480e-01
2.923000000000000000e+03 7.674781036376953125e+01 2.463950538635253906e+01 1.750058382749557495e-01 7.225758075714111328e+00 2.220229148864746094e+00 3.192334473133087158e-01
2.924000000000000000e+03 7.687430572509765625e+01 2.783211898803710938e+01 9.453786164522171021e-02 7.333434581756591797e+00 2.228391647338867188e+00 5.541740059852600098e-01
2.925000000000000000e+03 2.631121253967285156e+01 -7.652545452117919922e+00 6.157268217066302896e-06 1.419577165506780148e-05 6.105911779741290957e-06 2.507144245100789703e-06
2.926000000000000000e+03 2.544393062591552734e+00 2.164912414550781250e+01 -3.599569026846438646e-05 3.751374897547066212e-04 1.017425383906811476e-04 -1.010701089398935437e-04
2.927000000000000000e+03 3.290071964263916016e+00 2.230200958251953125e+01 -3.978181848651729524e-05 3.802709106821566820e-04 1.021467251121066511e-04 -1.302599703194573522e-04
2.928000000000000000e+03 2.640446186065673828e+00 4.886924743652343750e+00 1.700016946415416896e-05 1.992648140003439039e-05 1.107799562305444852e-05 -1.860799966380000114e-05
2.929000000000000000e+03 6.698809814453125000e+01 -1.406574249267578125e+01 5.105302333831787109e-01 2.218143463134765625e+00 8.186020851135253906e-01 4.075746536254882812e-01
2.930000000000000000e+03 3.348672151565551758e+00 2.392396545410156250e+01 -3.973237107857130468e-05 4.288840864319354296e-04 1.167455120594240725e-04 -1.386707881465554237e-04
2.931000000000000000e+03 2.491424083709716797e+00 1.443586158752441406e+01 3.158348772558383644e-05 1.613942440599203110e-04 5.789331771666184068e-05 -6.505261990241706371e-05
2.932000000000000000e+03 3.221992492675781250e+00 1.510341453552246094e+01 3.749066308955661952e-05 1.699726999504491687e-04 6.223900709301233292e-05 -8.518104732502251863e-05
2.933000000000000000e+03 4.141213417053222656e+00 -4.786072254180908203e+00 1.520057412562891841e-05 1.204220779982279055e-06 4.921438630844932050e-06 6.188106453919317573e-06
2.934000000000000000e+03 3.229655981063842773e+00 1.751017379760742188e+01 -2.441896867821924388e-05 2.407731954008340836e-04 6.490627129096537828e-05 -9.403641161043196917e-05
2.935000000000000000e+03 3.183765649795532227e+00 1.271460247039794922e+01 -1.194141805171966553e-05 1.285034086322411895e-04 3.496859790175221860e-05 -6.701648089801892638e-05
2.936000000000000000e+03 3.244850635528564453e+00 -8.722948074340820312e+00 3.175478923367336392e-05 2.544273002058616839e-06 1.028971837513381615e-05 8.406187589571345598e-06
2.937000000000000000e+03 2.554052114486694336e+00 -2.651040840148925781e+01 -1.424896327080205083e-04 3.092874976573511958e-05 -3.346826633787713945e-05 -3.388393088243901730e-05
2.938000000000000000e+03 3.245233774185180664e+00 -2.160271835327148438e+01 1.078922796295955777e-04 1.362922944281308446e-06 3.277656287536956370e-05 1.216453529195860028e-05
2.939000000000000000e+03 3.969182729721069336e+00 -2.233010673522949219e+01 1.178838865598663688e-04 5.559449618885992095e-06 3.703300171764567494e-05 1.518332646810449660e-05
2.940000000000000000e+03 6.025447845458984375e+00 -2.347339820861816406e+01 2.261120698676677421e-06 1.567079307278618217e-04 4.769071529153734446e-05 1.394486316712573171e-04
2.941000000000000000e+03 3.041970729827880859e+00 6.968866348266601562e+00 4.570818418869748712e-06 3.720821041497401893e-05 1.253370828635524958e-05 -2.225321441073901951e-05
2.942000000000000000e+03 3.345474720001220703e+00 7.774604797363281250e+00 2.293742363690398633e-05 4.188878301647491753e-05 1.944786345120519400e-05 -3.468175054877065122e-05
2.943000000000000000e+03 3.209738254547119141e+00 -1.674748611450195312e+01 8.430260641034692526e-05 -6.451689387176884338e-07 2.509723162802401930e-05 1.820724355638958514e-05
2.944000000000000000e+03 3.211946964263916016e+00 -1.594540882110595703e+01 -8.087429887382313609e-05 -9.718347655507386662e-07 -2.455383946653455496e-05 -1.899820927064865828e-05
2.945000000000000000e+03 8.051914215087890625e+00 -1.679141235351562500e+01 -5.543854786083102226e-05 5.516162491403520107e-05 -8.307662824336148333e-08 8.155267096299212426e-06
2.946000000000000000e+03 3.896584749221801758e+00 -1.747434425354003906e+01 9.926055645337328315e-05 -3.059849177589057945e-06 2.886021320591680706e-05 1.881748721643816680e-05
2.947000000000000000e+03 2.522229433059692383e+00 -1.925535202026367188e+01 8.977558172773569822e-05 -1.254606331713148393e-06 2.655629214132204652e-05 1.408914704370545223e-05
2.948000000000000000e+03 7.572740077972412109e+00 -1.850408363342285156e+01 -4.985950909031089395e-06 -8.739070472074672580e-05 -2.771299659798387438e-05 -3.746506627066992223e-05
2.949000000000000000e+03 7.003260612487792969e+00 -1.897073173522949219e+01 8.206185157177969813e-05 6.863020826131105423e-05 4.520761649473570287e-05 5.743720612372271717e-05
2.950000000000000000e+03 2.446370601654052734e+00 1.126268672943115234e+01 2.534009217924904078e-05 9.875858813757076859e-05 3.722960536833852530e-05 -4.593361518345773220e-05
2.951000000000000000e+03 3.161340236663818359e+00 1.193120574951171875e+01 3.019414180016610771e-05 1.104459370253607631e-04 4.219202310196124017e-05 -6.238155037863180041e-05
2.952000000000000000e+03 3.137853860855102539e+00 1.115796089172363281e+01 -9.633748959458898753e-06 1.015033049043267965e-04 2.756086723820772022e-05 -5.910215622861869633e-05
2.953000000000000000e+03 3.218450069427490234e+00 -1.434610748291015625e+01 -6.576499436050653458e-05 -4.630031526176026091e-06 -2.111850699293427169e-05 -1.778793375706300139e-05
2.954000000000000000e+03 2.519777536392211914e+00 -1.122093963623046875e+01 4.236327004036866128e-05 2.379516672590398230e-06 1.342283576377667487e-05 9.007564585772342980e-06
2.955000000000000000e+03 2.553642988204956055e+00 -2.409850502014160156e+01 1.192736235680058599e-04 -9.801955457078292966e-06 3.284150079707615077e-05 -2.125450919265858829e-06
2.956000000000000000e+03 3.264937877655029297e+00 -2.484705162048339844e+01 1.283770834561437368e-04 -1.055333996191620827e-05 3.534712232067249715e-05 -1.250918739970074967e-05
2.957000000000000000e+03 3.357876539230346680e+00 -2.879509735107421875e+01 -8.802104275673627853e-05 8.544747106498107314e-05 -7.720716439507668838e-07 3.885406840709038079e-05
2.958000000000000000e+03 4.669192314147949219e+00 -8.576690673828125000e+00 3.089219899266026914e-05 4.852801339438883588e-06 1.072350005415501073e-05 1.219152909470722079e-05
2.959000000000000000e+03 3.966593503952026367e+00 -2.481563377380371094e+01 -1.635424123378470540e-04 8.724499639356508851e-05 -2.288922405568882823e-05 -1.614431494090240449e-05
2.960000000000000000e+03 2.764389038085937500e+00 6.383299827575683594e+00 1.953593346115667373e-05 3.682313035824336112e-05 1.690771932771895081e-05 -3.203094456694088876e-05
2.961000000000000000e+03 5.670142650604248047e+00 4.711474418640136719e+00 3.896959606208838522e-05 1.943097231560386717e-05 1.752017124090343714e-05 -3.832159200101159513e-05
2.962000000000000000e+03 3.238473653793334961e+00 1.989890480041503906e+01 5.221450919634662569e-05 2.828553842846304178e-04 1.005209633149206638e-04 -1.073203820851631463e-04
2.963000000000000000e+03 2.517240047454833984e+00 -1.202474403381347656e+01 -4.656898454413749278e-05 -2.691254167075385340e-06 -1.477807109040440992e-05 -9.746766409080009907e-06
2.964000000000000000e+03 3.219471454620361328e+00 -1.113398265838623047e+01 -4.409395114635117352e-05 -3.488648189886589535e-06 -1.427478036930551752e-05 -1.145056467066751793e-05
2.965000000000000000e+03 3.224900245666503906e+00 1.670400238037109375e+01 4.167924635112285614e-05 2.050353068625554442e-04 7.401436596410349011e-05 -9.466079063713550568e-05
2.966000000000000000e+03 3.216529846191406250e+00 -1.193688106536865234e+01 4.891540083917789161e-05 3.822533471975475550e-06 1.582138065714389086e-05 1.288455769099527970e-05
2.967000000000000000e+03 3.383206605911254883e+00 2.795788764953613281e+01 3.462235326878726482e-05 5.484155262820422649e-04 1.749113580444827676e-04 -1.160937390523031354e-04
2.968000000000000000e+03 4.101226329803466797e+00 2.779896163940429688e+01 -4.859288674197159708e-05 5.156866973266005516e-04 1.401281479047611356e-04 -1.750089286360889673e-04
2.969000000000000000e+03 3.115555524826049805e+00 -3.624464416503906250e+01 -1.490926370024681091e-04 6.791526684537529945e-04 1.590180036146193743e-04 5.506924353539943695e-04
2.970000000000000000e+03 3.230618953704833984e+00 -2.079975509643554688e+01 -1.215814627357758582e-04 6.092093826737254858e-06 -3.464681140030734241e-05 -2.499930087651591748e-05
2.971000000000000000e+03 6.664600372314453125e+00 -2.007942008972167969e+01 6.622676301049068570e-05 1.046879915520548820e-04 5.127442636876367033e-05 1.078358945960644633e-05
2.972000000000000000e+03 4.976136207580566406e+00 -4.014845848083496094e+00 1.174701537820510566e-05 1.921325974763021804e-06 4.100502337678335607e-06 6.308892807282973081e-06
2.973000000000000000e+03 2.582029104232788086e+00 -5.644033908843994141e+00 -1.840734512370545417e-05 -7.945779429974209052e-07 -5.760577096225460991e-06 -4.430028184287948534e-06
2.974000000000000000e+03 3.098056554794311523e+00 9.685292243957519531e+00 -6.594746992050204426e-06 7.920350617496296763e-05 2.178262730012647808e-05 -5.187580973142758012e-05
2.975000000000000000e+03 7.090359687805175781e+00 -2.614188766479492188e+01 1.053029336617328227e-04 1.385623909300193191e-04 7.315959373954683542e-05 1.068278579623438418e-04
2.976000000000000000e+03 3.949982881546020508e+00 1.975052833557128906e+01 -3.398075205041095614e-05 2.968307526316493750e-04 7.885500235715880990e-05 -1.318533904850482941e-04
2.977000000000000000e+03 2.530676364898681641e+00 2.084078216552734375e+01 4.577868094202131033e-05 3.305017889942973852e-04 1.128841468016617000e-04 -8.849013829603791237e-05
2.978000000000000000e+03 3.100435733795166016e+00 9.003981590270996094e+00 2.331952237000223249e-05 6.386606401065364480e-05 2.615567427710630000e-05 -4.070784416398964822e-05
2.979000000000000000e+03 3.116513490676879883e+00 1.040336799621582031e+01 2.676096664799842983e-05 8.481801341986283660e-05 3.347369420225732028e-05 -5.158702697372063994e-05
2.980000000000000000e+03 7.640454864501953125e+01 -3.365765380859375000e+01 -2.380786389112472534e-01 8.282070159912109375e+00 2.413197517395019531e+00 -4.573183357715606689e-01
2.981000000000000000e+03 3.218284368515014648e+00 -1.354421234130859375e+01 5.914356370340101421e-05 4.719814569398295134e-06 1.915901339089032263e-05 1.606292244105134159e-05
2.982000000000000000e+03 3.216843605041503906e+00 -1.274038124084472656e+01 -5.354586028261110187e-05 -4.596231519826687872e-06 -1.744262772263027728e-05 -1.401061854267027229e-05
2.983000000000000000e+03 2.802830934524536133e+00 -3.129641723632812500e+01 -5.820771912112832069e-05 1.472064323024824262e-04 2.669961395440623164e-05 1.705198083072900772e-04
2.984000000000000000e+03 4.172601222991943359e+00 -2.944782447814941406e+01 -3.424121314310468733e-05 1.164464702014811337e-04 2.466157820890657604e-05 8.788204286247491837e-05
2.985000000000000000e+03 8.346122741699218750e+00 -2.999734497070312500e+01 6.377347162924706936e-04 -2.086404711008071899e-04 1.287282793782651424e-04 3.765921064768917859e-05
2.986000000000000000e+03 4.448391914367675781e+00 3.025079536437988281e+01 7.167384410422528163e-06 5.876537179574370384e-04 1.784463383955881000e-04 -1.449657138437032700e-04
2.987000000000000000e+03 3.177791595458984375e+00 8.362699508666992188e+00 -1.447669205845159013e-06 6.546699296450242400e-05 1.920579597936011851e-05 -4.869094482273794711e-05
2.988000000000000000e+03 7.683444213867187500e+01 -3.554586029052734375e+01 -1.785608083009719849e-01 8.374362945556640625e+00 2.458740711212158203e+00 -2.986894845962524414e-01
2.989000000000000000e+03 3.993697166442871094e+00 -2.792471122741699219e+01 -9.985452925320714712e-05 1.043090742314234376e-04 1.336362629444920458e-06 9.084916200663428754e-06
2.990000000000000000e+03 2.649398326873779297e+00 2.809941482543945312e+01 -4.095560507266782224e-05 5.895156646147370338e-04 1.645680167712271214e-04 -1.125229246099479496e-04
2.991000000000000000e+03 3.222754716873168945e+00 1.590117359161376953e+01 -1.937915112648624927e-05 1.987722644116729498e-04 5.381793380365706980e-05 -8.438123768428340554e-05
2.992000000000000000e+03 6.954631805419921875e+01 -8.178510665893554688e+00 4.879045486450195312e-02 5.165589332580566406e+00 1.564314007759094238e+00 5.183390378952026367e-01
2.993000000000000000e+03 4.039945602416992188e+01 1.509889411926269531e+01 -1.400389155605807900e-04 3.936191496904939413e-04 7.607407314935699105e-05 3.593159199226647615e-04
2.994000000000000000e+03 4.126735687255859375e+01 1.597390556335449219e+01 -2.069871843559667468e-04 5.396733176894485950e-04 9.980583854485303164e-05 3.668190911412239075e-04
2.995000000000000000e+03 6.669862365722656250e+01 -1.241277980804443359e+01 5.045244097709655762e-01 2.400121927261352539e+00 8.713939189910888672e-01 6.473454833030700684e-01
2.996000000000000000e+03 7.183185577392578125e+01 1.738470458984375000e+01 5.659940093755722046e-02 9.565313339233398438e+00 2.886573791503906250e+00 3.838632255792617798e-02
2.997000000000000000e+03 7.185825347900390625e+01 2.062116241455078125e+01 9.919524192810058594e-02 9.573472023010253906e+00 2.901800394058227539e+00 -6.837525963783264160e-02
2.998000000000000000e+03 4.059301853179931641e+00 2.293222427368164062e+01 -4.639356484403833747e-05 3.813170478679239750e-04 1.004770456347614527e-04 -1.585919817443937063e-04
2.999000000000000000e+03 7.182315063476562500e+01 1.656566429138183594e+01 8.893305808305740356e-02 9.538713455200195312e+00 2.888293981552124023e+00 6.204103678464889526e-02
3.000000000000000000e+03 7.536285400390625000e+01 1.469830036163330078e+01 -5.085711181163787842e-02 7.878241539001464844e+00 2.348215341567993164e+00 -4.677724838256835938e-02
3.001000000000000000e+03 7.259170532226562500e+01 2.148068428039550781e+01 2.018817812204360962e-01 9.141429901123046875e+00 2.802993535995483398e+00 -9.208350628614425659e-02
3.002000000000000000e+03 7.610206604003906250e+01 1.941471099853515625e+01 7.687634229660034180e-02 7.511808395385742188e+00 2.276605367660522461e+00 1.291264221072196960e-02
3.003000000000000000e+03 7.183870697021484375e+01 1.819265937805175781e+01 5.289073660969734192e-02 9.576916694641113281e+00 2.888942241668701172e+00 2.243193425238132477e-02
3.004000000000000000e+03 3.319859743118286133e+00 2.311116600036621094e+01 5.084532676846720278e-05 3.822915896307677031e-04 1.299410650972276926e-04 -1.159829917014576495e-04
3.005000000000000000e+03 7.401894378662109375e+01 -3.379751968383789062e+01 -5.357344746589660645e-01 7.426153659820556641e+00 2.067125797271728516e+00 -6.938873231410980225e-02
3.006000000000000000e+03 4.378790664672851562e+01 -2.551215934753417969e+01 -3.050965443253517151e-02 -6.457976698875427246e-01 -2.028921991586685181e-01 -4.695643782615661621e-01
3.007000000000000000e+03 7.256787109375000000e+01 1.982426643371582031e+01 9.500675648450851440e-02 9.211915016174316406e+00 2.792076587677001953e+00 -2.911082282662391663e-02
3.008000000000000000e+03 7.606583404541015625e+01 1.458004856109619141e+01 -5.275379493832588196e-02 7.555577278137207031e+00 2.250847101211547852e+00 -3.430855646729469299e-02
3.009000000000000000e+03 4.833892822265625000e+01 -1.104267692565917969e+01 -3.805396045208908617e-05 -6.729522738169180229e-06 -1.343504482065327466e-05 -1.357918063149554655e-05
3.010000000000000000e+03 4.232463455200195312e+01 -1.703677940368652344e+01 -7.930547326395753771e-06 -6.544897132698679343e-06 -4.342633474152535200e-06 -5.973103270662249997e-06
3.011000000000000000e+03 3.804337024688720703e+00 -3.286814880371093750e+01 3.247589338570833206e-04 2.289952535647898912e-04 1.661262504057958722e-04 3.328038437757641077e-04
3.012000000000000000e+03 3.525156021118164062e+00 3.672940063476562500e+01 -6.920344458194449544e-05 7.815142162144184113e-04 2.136932307621464133e-04 -6.118246528785675764e-05
3.013000000000000000e+03 2.979620456695556641e+00 3.604133224487304688e+01 2.501978815416805446e-05 7.796268328092992306e-04 2.413939801044762135e-04 -1.024937882903032005e-04
3.014000000000000000e+03 7.639590454101562500e+01 3.511714553833007812e+01 -1.788799762725830078e-01 7.674323558807373047e+00 2.248633146286010742e+00 4.184491634368896484e-01
3.015000000000000000e+03 7.622326660156250000e+01 3.448627471923828125e+01 -1.842754483222961426e-01 7.618380069732666016e+00 2.230231285095214844e+00 4.658806622028350830e-01
3.016000000000000000e+03 7.610718536376953125e+01 3.168668746948242188e+01 -9.131108224391937256e-02 7.542000293731689453e+00 2.235206604003906250e+00 6.310562491416931152e-01
3.017000000000000000e+03 7.650181579589843750e+01 3.334737777709960938e+01 -1.313851326704025269e-01 7.674390792846679688e+00 2.262901782989501953e+00 5.286632180213928223e-01
3.018000000000000000e+03 3.372559309005737305e+00 -4.826537609100341797e+00 -1.553559741296339780e-05 -9.000552267934835982e-07 -4.930695922666927800e-06 -5.061638603365281597e-06
3.019000000000000000e+03 5.788611602783203125e+01 -2.318934440612792969e+01 -8.383320271968841553e-02 1.400591373443603516e+00 3.950274586677551270e-01 8.475692272186279297e-01
3.020000000000000000e+03 5.692777252197265625e+01 -2.251375007629394531e+01 -4.922842085361480713e-01 1.074325084686279297e+00 1.746122539043426514e-01 5.555636286735534668e-01
3.021000000000000000e+03 4.553292846679687500e+01 -1.632837867736816406e+01 2.965749956729268888e-07 8.413704563281498849e-06 2.613083779579028487e-06 3.256885065638925880e-06
3.022000000000000000e+03 3.625425100326538086e+00 3.041699790954589844e+01 -4.029887713841162622e-05 6.050507072359323502e-04 1.694255479378625751e-04 -1.196123994304798543e-04
3.023000000000000000e+03 5.596569061279296875e+00 -5.457649707794189453e+00 -1.537616481073200703e-05 -2.687301275727804750e-06 -5.419040007836883888e-06 -9.620994205761235207e-06
3.024000000000000000e+03 3.335581302642822266e+00 -5.586584568023681641e+00 1.848199281084816903e-05 1.002175281428208109e-06 5.845250143465818837e-06 5.566090749198338017e-06
3.025000000000000000e+03 3.305648803710937500e+00 -6.355684757232666016e+00 -2.152136585209518671e-05 -1.279360390071815345e-06 -6.840218247816665098e-06 -5.979241905151866376e-06
3.026000000000000000e+03 6.410761356353759766e+00 -4.691506862640380859e+00 -1.109694858314469457e-05 -4.137014002481009811e-06 -4.570188593788770959e-06 -8.605854418419767171e-06
3.027000000000000000e+03 4.160706996917724609e+00 -3.610573959350585938e+01 2.713498251978307962e-04 5.071156774647533894e-04 2.335396566195413470e-04 5.289500113576650620e-04
3.028000000000000000e+03 3.836144685745239258e+00 -3.370190811157226562e+01 -3.353489148594235303e-07 3.934996493626385927e-04 1.179492901428602636e-04 4.441856290213763714e-04
3.029000000000000000e+03 7.814980506896972656e+00 -4.678532600402832031e+00 -9.708702236821409315e-06 -5.889985914109274745e-06 -4.679606263380264863e-06 -6.943268090253695846e-06
3.030000000000000000e+03 7.126314640045166016e+00 -4.672712802886962891e+00 9.893854439724236727e-06 5.264757419354282320e-06 4.547583557723555714e-06 8.169538887159433216e-06
3.031000000000000000e+03 4.049776077270507812e+01 2.123437690734863281e+01 6.973191048018634319e-04 4.300095024518668652e-04 3.381985588930547237e-04 8.337604813277721405e-04
3.032000000000000000e+03 7.168359375000000000e+01 -8.634062409400939941e-01 4.598162174224853516e-01 9.084481239318847656e+00 2.863289356231689453e+00 2.152498513460159302e-01
3.033000000000000000e+03 8.323529243469238281e+00 -2.865073585510253906e+01 2.556902763899415731e-04 -1.248893386218696833e-04 3.924028351320885122e-05 -1.489314890932291746e-04
3.034000000000000000e+03 4.306447029113769531e+00 -3.022629356384277344e+01 3.821736900135874748e-04 5.643070107907988131e-05 1.315813133260235190e-04 1.433078286936506629e-04
3.035000000000000000e+03 3.563727951049804688e+01 -1.572466182708740234e+01 -8.357133992831222713e-06 1.177425201603909954e-05 1.025135475174465682e-06 2.614776576592703350e-06
3.036000000000000000e+03 7.593952941894531250e+01 -2.743476867675781250e+01 7.402066588401794434e-01 8.367328643798828125e+00 2.732260704040527344e+00 -1.646322309970855713e-01
3.037000000000000000e+03 4.008198547363281250e+01 1.858047294616699219e+01 9.097754373215138912e-04 5.458849482238292694e-04 4.366981156636029482e-04 6.354067008942365646e-04
3.038000000000000000e+03 3.992946624755859375e+01 1.771780776977539062e+01 1.787213841453194618e-04 3.529232344590127468e-04 1.594933855812996626e-04 5.916206282563507557e-04
3.039000000000000000e+03 4.487891006469726562e+01 -1.653678321838378906e+01 -4.230923423165222630e-06 -8.261604307335801423e-06 -3.747758228200837038e-06 -6.586995823454344645e-06
3.040000000000000000e+03 4.422938156127929688e+01 -1.670392417907714844e+01 4.399272768296214053e-07 8.203200195566751063e-06 2.592938244561082684e-06 8.790205470177170355e-07
3.041000000000000000e+03 6.777444458007812500e+01 -1.947062110900878906e+01 -6.361843347549438477e-01 5.501048564910888672e-01 -2.582384645938873291e-02 -3.920283317565917969e-01
3.042000000000000000e+03 6.562783813476562500e+01 -1.669076728820800781e+01 4.071559906005859375e-01 1.084709048271179199e+00 4.475595355033874512e-01 5.678969621658325195e-01
3.043000000000000000e+03 2.262337493896484375e+01 -3.536980056762695312e+01 1.693289377726614475e-03 -5.012059118598699570e-04 3.576250455807894468e-04 5.885920021682977676e-03
3.044000000000000000e+03 6.170414733886718750e+01 -2.072623062133789062e+01 -8.087014555931091309e-01 1.131522774696350098e+00 9.684640169143676758e-02 8.862738013267517090e-01
3.045000000000000000e+03 5.772543907165527344e+00 -1.757300949096679688e+01 1.680591667536646128e-04 -6.623896479140967131e-05 3.054606349905952811e-05 4.325548434280790389e-05
3.046000000000000000e+03 3.681718444824218750e+01 -1.639853477478027344e+01 -1.600625000719446689e-05 -4.990423349227057770e-06 -6.299002052401192486e-06 -1.511950813437579200e-06
3.047000000000000000e+03 3.640533065795898438e+01 -1.512647628784179688e+01 3.246908363507827744e-06 2.086829766767550609e-07 1.036677417687315028e-06 4.849654942518100142e-06
3.048000000000000000e+03 4.694159317016601562e+01 -1.347011089324951172e+01 1.773203075572382659e-05 -1.559875272505450994e-05 6.399835115189489443e-07 -1.264270304091041908e-05
3.049000000000000000e+03 3.773322677612304688e+01 -1.623804473876953125e+01 -4.092868039151653647e-06 -2.558710548328235745e-06 -1.995473667193436995e-06 1.106081981561146677e-06
3.050000000000000000e+03 7.205825805664062500e+01 7.801801681518554688e+00 2.963148355484008789e-01 9.797404289245605469e+00 3.028115749359130859e+00 8.078654110431671143e-02
3.051000000000000000e+03 7.341427612304687500e+01 8.058798789978027344e+00 1.310299336910247803e-01 9.049015045166015625e+00 2.754013299942016602e+00 2.096673995256423950e-01
3.052000000000000000e+03 2.681426048278808594e+01 -3.576109695434570312e+01 -3.914408385753631592e-03 -6.998107302933931351e-03 -3.273754613474011421e-03 3.213268064428120852e-04
3.053000000000000000e+03 4.748260498046875000e+01 -7.522066593170166016e+00 4.983902181265875697e-05 1.356400116492295638e-05 1.902090662042610347e-05 2.414900518488138914e-05
3.054000000000000000e+03 7.611659240722656250e+01 2.750804424285888672e+00 2.943900823593139648e-01 7.441818237304687500e+00 2.320862531661987305e+00 -2.239953130483627319e-01
3.055000000000000000e+03 4.171473312377929688e+01 2.518110466003417969e+01 1.212431117892265320e-03 1.082798626157455146e-04 3.962132905144244432e-04 1.185390283353626728e-03
3.056000000000000000e+03 4.340036010742187500e+01 2.804516983032226562e+01 2.274204744026064873e-03 -4.267838448868133128e-05 6.694578914903104305e-04 1.974629936739802361e-03
3.057000000000000000e+03 4.359326934814453125e+01 -1.683028793334960938e+01 -8.315263585245702416e-06 -6.143575319583760574e-06 -4.337651716923573986e-06 -6.029380983818555251e-06
3.058000000000000000e+03 4.185617828369140625e+01 -1.574922084808349609e+01 -6.286555276346916799e-08 8.186383638530969620e-06 2.437055627524387091e-06 3.002883488534280332e-07
3.059000000000000000e+03 4.023427581787109375e+01 1.944338226318359375e+01 3.856806433759629726e-04 4.157335497438907623e-04 2.404242550255730748e-04 7.138678920455276966e-04
3.060000000000000000e+03 4.217461776733398438e+01 5.674832344055175781e+00 1.615038781892508268e-04 2.906031295424327254e-05 5.716925807064399123e-05 1.047132973326370120e-04
3.061000000000000000e+03 4.269851303100585938e+01 3.131929397583007812e+00 9.360371768707409501e-05 5.253264316706918180e-05 4.384090789244510233e-05 8.276562584796920419e-05
3.062000000000000000e+03 6.985774993896484375e+01 -9.060322761535644531e+00 2.546475455164909363e-02 5.104446411132812500e+00 1.538973331451416016e+00 3.318688869476318359e-01
3.063000000000000000e+03 7.466426849365234375e+00 -2.239198112487792969e+01 8.195932605303823948e-05 -7.542784442193806171e-05 1.959443579835351557e-06 -1.932055783981923014e-05
3.064000000000000000e+03 3.263826847076416016e+00 -2.241254615783691406e+01 -1.319764560321345925e-04 1.331371458945795894e-05 -3.559882316039875150e-05 -3.134616054012440145e-05
3.065000000000000000e+03 4.078777313232421875e+01 6.928102970123291016e+00 -1.683041336946189404e-04 1.024641460389830172e-04 -1.975199666048865765e-05 -2.752478940237779170e-05
3.066000000000000000e+03 1.334145927429199219e+01 3.019445896148681641e+00 6.915762060089036822e-05 9.787775525182951242e-06 2.368361856497358531e-05 -4.018822073703631759e-05
3.067000000000000000e+03 1.479408264160156250e+01 2.223514795303344727e+00 7.920750795165076852e-05 1.566612581882509403e-06 2.423223668301943690e-05 -3.141149863949976861e-05
3.068000000000000000e+03 7.259571838378906250e+01 2.233038330078125000e+01 2.899600863456726074e-01 9.079921722412109375e+00 2.810964584350585938e+00 -1.058216914534568787e-01
3.069000000000000000e+03 7.178277587890625000e+01 1.410511016845703125e+01 4.870431125164031982e-02 9.333848953247070312e+00 2.814765930175781250e+00 -1.213122382760047913e-01
3.070000000000000000e+03 7.251683044433593750e+01 1.493423366546630859e+01 5.922707915306091309e-02 9.086419105529785156e+00 2.743693828582763672e+00 -6.907031685113906860e-02
3.071000000000000000e+03 7.399581146240234375e+01 -2.824191856384277344e+01 1.053247809410095215e+00 8.911152839660644531e+00 2.989320278167724609e+00 -1.642739772796630859e-01
3.072000000000000000e+03 4.809325790405273438e+01 -9.624894142150878906e+00 -4.198754322715103626e-05 -1.484168569731991738e-05 -1.704876922303810716e-05 -1.905671706481371075e-05
3.073000000000000000e+03 5.686988449096679688e+01 -2.381732177734375000e+01 1.314496695995330811e-01 1.409925460815429688e+00 4.624125361442565918e-01 6.654683351516723633e-01
3.074000000000000000e+03 2.539360046386718750e+01 -6.250365734100341797e+00 1.647821409278549254e-05 1.233806142408866435e-05 8.644882655062247068e-06 -2.094435330945998430e-06
3.075000000000000000e+03 6.646185302734375000e+01 3.466389846801757812e+01 -3.088603615760803223e-01 2.159721136093139648e+00 5.552582740783691406e-01 -5.282604694366455078e-01
3.076000000000000000e+03 6.632640838623046875e+01 -1.554792308807373047e+01 5.292314887046813965e-01 1.553250432014465332e+00 6.247445940971374512e-01 4.438605904579162598e-01
3.077000000000000000e+03 7.617716979980468750e+01 -5.872025966644287109e+00 -5.244081467390060425e-02 7.514401435852050781e+00 2.238588094711303711e+00 -6.919524669647216797e-01
3.078000000000000000e+03 4.619705200195312500e+01 -1.610056304931640625e+01 -5.148509899299824610e-06 -8.496209375152830034e-06 -4.093415554962120950e-06 -8.991351933218538761e-06
3.079000000000000000e+03 6.799375152587890625e+01 -1.076207351684570312e+01 2.922269701957702637e-01 3.511104106903076172e+00 1.140999317169189453e+00 5.873323678970336914e-01
3.080000000000000000e+03 7.261947631835937500e+01 -2.318833160400390625e+01 2.038938254117965698e-01 8.859865188598632812e+00 2.719127893447875977e+00 2.677927911281585693e-02
3.081000000000000000e+03 7.262146759033203125e+01 -2.165773391723632812e+01 -1.008748412132263184e+00 7.982167720794677734e+00 2.092025756835937500e+00 -1.826867461204528809e-01
3.082000000000000000e+03 1.468120670318603516e+01 -1.177934265136718750e+01 -5.628074859487242065e-07 9.571669579599983990e-06 2.702658548514591530e-06 -7.519157634305884130e-07
3.083000000000000000e+03 1.251667499542236328e+01 -1.120732402801513672e+01 -1.687025905994232744e-05 -1.354131472908193246e-05 -9.123472409555688500e-06 -7.274926247191615403e-06
3.084000000000000000e+03 4.058889389038085938e+01 2.223697280883789062e+01 1.717189559713006020e-03 3.354503714945167303e-04 6.157919415272772312e-04 9.690053993836045265e-04
3.085000000000000000e+03 4.188248443603515625e+01 2.295848846435546875e+01 2.094257390126585960e-03 8.851968450471758842e-04 8.938362589105963707e-04 1.165020978078246117e-03
3.086000000000000000e+03 7.018723297119140625e+01 -6.784658908843994141e+00 1.135920360684394836e-02 5.984844684600830078e+00 1.798861145973205566e+00 4.595139324665069580e-01
3.087000000000000000e+03 7.051991271972656250e+01 -6.052407741546630859e+00 1.496547367423772812e-02 6.412288188934326172e+00 1.928176164627075195e+00 4.159036278724670410e-01
3.088000000000000000e+03 2.673033332824707031e+01 -8.341068267822265625e+00 9.904759281198494136e-06 -1.573414010636042804e-05 -1.748814042912272271e-06 2.775620487227570266e-06
3.089000000000000000e+03 4.055325317382812500e+01 -1.689145278930664062e+01 1.305322825828625355e-06 9.625073289498686790e-06 3.279118800492142327e-06 -3.143635240121511742e-06
3.090000000000000000e+03 4.001382827758789062e+01 -1.673136901855468750e+01 -1.513726147095439956e-05 -6.417268195946235210e-06 -6.466358627221779898e-06 -3.053523869311902672e-06
3.091000000000000000e+03 4.037455368041992188e+01 2.032038497924804688e+01 1.211559632793068886e-03 5.162458401173353195e-04 5.183416651561856270e-04 8.352208533324301243e-04
3.092000000000000000e+03 2.438009262084960938e+01 -4.861899852752685547e+00 3.109827230218797922e-05 8.947105015977285802e-06 1.201361283165169880e-05 -7.422122962452704087e-06
3.093000000000000000e+03 5.626940155029296875e+01 -2.255646705627441406e+01 -5.291742682456970215e-01 9.216012358665466309e-01 1.177280917763710022e-01 3.890941739082336426e-01
3.094000000000000000e+03 5.548742294311523438e+01 -2.383878898620605469e+01 -2.794077992439270020e-02 1.113722920417785645e+00 3.257346451282501221e-01 2.612267136573791504e-01
3.095000000000000000e+03 1.946535301208496094e+01 6.468512862920761108e-02 1.076183471013791859e-04 -8.461747711407952011e-06 2.974698145408183336e-05 -3.012423803738784045e-05
3.096000000000000000e+03 2.889848518371582031e+01 -1.384341812133789062e+01 4.944053671351866797e-06 8.779718882578890771e-06 4.117131538805551827e-06 9.666899131843820214e-06
3.097000000000000000e+03 3.120656967163085938e+01 -1.503914070129394531e+01 -1.495023207098711282e-05 -6.463365025410894305e-06 -6.424078947020461783e-06 2.734722954755852697e-07
3.098000000000000000e+03 2.326600074768066406e+01 -3.520754337310791016e+00 4.941456791129894555e-05 4.122817244933685288e-06 1.606121622899081558e-05 -1.313902521360432729e-05
3.099000000000000000e+03 4.772940063476562500e+01 3.463715362548828125e+01 -5.307319574058055878e-03 -3.586139064282178879e-03 -2.668037544935941696e-03 5.242808256298303604e-03
3.100000000000000000e+03 4.422869110107421875e+01 2.768306732177734375e+01 4.436764400452375412e-03 7.480073836632072926e-04 1.555431517772376537e-03 1.360735273919999599e-03
3.101000000000000000e+03 4.258945465087890625e+01 2.670596885681152344e+01 1.590018509887158871e-03 1.020151903503574431e-04 5.076100933365523815e-04 1.620736322365701199e-03
3.102000000000000000e+03 1.806306648254394531e+01 1.089706778526306152e+00 1.189316099043935537e-04 -7.589684173581190407e-06 3.340257899253629148e-05 -3.554327849997207522e-05
3.103000000000000000e+03 7.222791290283203125e+01 6.107429027557373047e+00 4.138741791248321533e-01 1.002520847320556641e+01 3.131724596023559570e+00 -5.408435687422752380e-02
3.104000000000000000e+03 2.013826560974121094e+01 -4.811479151248931885e-01 7.937956979731097817e-05 -3.322746124467812479e-05 1.384563256578985602e-05 2.052918944173143245e-06
3.105000000000000000e+03 7.267839050292968750e+01 -2.394638061523437500e+01 8.230026364326477051e-01 9.366415977478027344e+00 3.056825399398803711e+00 4.830410331487655640e-02
3.106000000000000000e+03 1.370277118682861328e+01 3.692787408828735352e+00 1.144961133832111955e-04 1.581738979439251125e-05 3.909405131707899272e-05 -6.115937139838933945e-05
3.107000000000000000e+03 2.788357353210449219e+01 -1.030647850036621094e+01 -2.650185933816828765e-06 1.468238770030438900e-05 3.609660552683635615e-06 7.978068424563389271e-06
3.108000000000000000e+03 2.751482582092285156e+01 -9.673096656799316406e+00 2.807892997225280851e-06 -1.216953660332364962e-05 -2.808493036354775541e-06 2.501520384612376802e-06
3.109000000000000000e+03 6.610446929931640625e+01 -1.832718276977539062e+01 -1.093107163906097412e-01 7.268865704536437988e-01 1.852727532386779785e-01 4.343066215515136719e-01
3.110000000000000000e+03 3.954957962036132812e+01 1.415828323364257812e+01 -9.477142884861677885e-05 2.926183224190026522e-04 5.935406443313695490e-05 3.337018424645066261e-04
3.111000000000000000e+03 5.526538085937500000e+01 -2.751573562622070312e+01 1.042949318885803223e+00 2.392228126525878906e+00 1.030553221702575684e+00 6.199877858161926270e-01
3.112000000000000000e+03 5.585116577148437500e+01 -2.561829185485839844e+01 7.034609317779541016e-01 1.834661364555358887e+00 7.614367008209228516e-01 6.271402835845947266e-01
3.113000000000000000e+03 5.377268218994140625e+01 -2.433523368835449219e+01 5.031779780983924866e-02 7.116603255271911621e-01 2.285934239625930786e-01 -1.522264033555984497e-01
3.114000000000000000e+03 4.152910995483398438e+01 5.345698356628417969e+00 -1.232888171216472983e-04 3.799286059802398086e-05 -2.558878804848063737e-05 -6.766647129552438855e-05
3.115000000000000000e+03 4.114675521850585938e+01 6.126142978668212891e+00 1.468374830437824130e-04 2.759577000688295811e-05 5.232997864368371665e-05 1.079630164895206690e-04
3.116000000000000000e+03 9.512009620666503906e+00 -1.606760406494140625e+01 -1.659986264712642878e-05 -1.853908202065213118e-06 -5.536131538974586874e-06 -3.753107375814579427e-05
3.117000000000000000e+03 8.616876602172851562e+00 -1.547989368438720703e+01 -6.649367423960939050e-05 -3.527562512317672372e-05 -3.053078762604855001e-05 -1.408849311701487750e-05
3.118000000000000000e+03 5.491435241699218750e+01 -2.831543159484863281e+01 1.059492349624633789e+00 2.538756370544433594e+00 1.079474687576293945e+00 5.155955553054809570e-01
3.119000000000000000e+03 5.348371124267578125e+01 -2.928663635253906250e+01 1.020972251892089844e+00 1.628188729286193848e+00 7.947483062744140625e-01 2.267829626798629761e-01
3.120000000000000000e+03 6.572646331787109375e+01 3.504233551025390625e+01 -3.263668715953826904e-01 1.384542822837829590e+00 3.174527883529663086e-01 -4.433900117874145508e-01
3.121000000000000000e+03 7.666246795654296875e+01 2.629029273986816406e+01 1.605242192745208740e-01 7.291891098022460938e+00 2.235724687576293945e+00 4.593417346477508545e-01
3.122000000000000000e+03 8.469382286071777344e+00 -4.716128826141357422e+00 1.119862190535059199e-05 5.911995685892179608e-06 5.133185368322301656e-06 5.894814421480987221e-06
3.123000000000000000e+03 7.085537719726562500e+01 -3.444137573242187500e+00 1.641949713230133057e-01 7.736597061157226562e+00 2.370237588882446289e+00 5.491828918457031250e-01
3.124000000000000000e+03 7.117615509033203125e+01 -2.626744747161865234e+00 2.007329314947128296e-01 8.251511573791503906e+00 2.535673379898071289e+00 4.358327984809875488e-01
3.125000000000000000e+03 4.217221832275390625e+01 2.597594070434570312e+01 3.738755360245704651e-03 1.005334488581866026e-04 1.151786651462316513e-03 9.555004071444272995e-04
3.126000000000000000e+03 7.203437805175781250e+01 2.763723945617675781e+01 5.000496506690979004e-01 8.104527473449707031e+00 2.581373214721679688e+00 1.728016138076782227e-02
3.127000000000000000e+03 4.134352874755859375e+01 2.422492599487304688e+01 2.698627999052405357e-03 2.646333887241780758e-04 8.889783639460802078e-04 1.114672631956636906e-03
3.128000000000000000e+03 7.230257415771484375e+01 2.581423377990722656e+01 5.927354693412780762e-01 8.576902389526367188e+00 2.750891447067260742e+00 -4.079180583357810974e-02
3.129000000000000000e+03 6.925811767578125000e+01 -8.852367401123046875e+00 9.051778167486190796e-02 4.792341232299804688e+00 1.464857697486877441e+00 5.202797055244445801e-01
3.130000000000000000e+03 7.331850433349609375e+01 2.147204017639160156e+01 2.138941735029220581e-01 8.763930320739746094e+00 2.693347454071044922e+00 -4.127893969416618347e-02
3.131000000000000000e+03 7.257660675048828125e+01 2.318537521362304688e+01 4.015925526618957520e-01 8.981132507324218750e+00 2.814817428588867188e+00 -1.220189929008483887e-01
3.132000000000000000e+03 2.586537742614746094e+01 -6.952652931213378906e+00 1.932307350216433406e-05 -2.018398481595795602e-05 -2.582731326583598275e-07 3.606976406445028260e-06
3.133000000000000000e+03 1.460857677459716797e+01 -3.344787597656250000e+01 3.150103613734245300e-03 7.870133849792182446e-04 1.181135070510208607e-03 2.901065396144986153e-03
3.134000000000000000e+03 1.477414703369140625e+01 -3.711877822875976562e+01 -1.855495967902243137e-03 2.779329195618629456e-03 2.771499566733837128e-04 3.574756672605872154e-03
3.135000000000000000e+03 6.250864028930664062e+01 -2.130444717407226562e+01 -8.529182672500610352e-01 8.976782560348510742e-01 1.342800725251436234e-02 7.276501059532165527e-01
3.136000000000000000e+03 4.680156326293945312e+01 3.346879959106445312e+01 2.904176653828471899e-04 -1.923601841554045677e-03 -4.899552441202104092e-04 1.325246266787871718e-04
3.137000000000000000e+03 6.842425537109375000e+01 -1.988371658325195312e+01 -8.536329865455627441e-01 8.057250380516052246e-01 -1.437239069491624832e-02 -7.915381193161010742e-01
3.138000000000000000e+03 7.188717651367187500e+01 2.860998153686523438e+01 3.743629157543182373e-01 7.782490253448486328e+00 2.447056055068969727e+00 6.596147269010543823e-02
3.139000000000000000e+03 3.873126602172851562e+01 1.312942218780517578e+01 -6.556990410899743438e-05 2.274029247928410769e-04 4.854990766034461558e-05 2.908608876168727875e-04
3.140000000000000000e+03 7.249553680419921875e+01 1.331588935852050781e+01 -1.804371029138565063e-01 9.124650001525878906e+00 2.683263778686523438e+00 -1.727138012647628784e-01
3.141000000000000000e+03 1.439627456665039062e+01 3.279373884201049805e+00 7.510221621487289667e-05 -1.839462811403791420e-06 2.197882713517174125e-05 -3.938396184821613133e-05
3.142000000000000000e+03 6.261726760864257812e+01 -1.902536392211914062e+01 -4.542654156684875488e-01 1.068958759307861328e+00 1.844079941511154175e-01 8.027027249336242676e-01
3.143000000000000000e+03 6.245410537719726562e+01 -2.030391311645507812e+01 -7.990238070487976074e-01 1.036486148834228516e+00 7.123870402574539185e-02 8.282107710838317871e-01
3.144000000000000000e+03 7.190064239501953125e+01 9.298020005226135254e-01 7.390317916870117188e-01 9.698923110961914062e+00 3.131386280059814453e+00 1.905501931905746460e-01
3.145000000000000000e+03 2.383466529846191406e+01 -4.184442996978759766e+00 4.475356035982258618e-05 -3.078837471548467875e-05 4.189555056655080989e-06 5.956305358267854899e-06
3.146000000000000000e+03 1.659543037414550781e+01 2.027643442153930664e+00 1.232678041560575366e-04 -2.637136049088439904e-06 3.618920163717120886e-05 -4.178600283921696246e-05
3.147000000000000000e+03 3.995159912109375000e+01 9.530404090881347656e+00 2.357941702939569950e-04 1.272758236154913902e-04 1.089209981728345156e-04 1.417240709997713566e-04
3.148000000000000000e+03 4.051230239868164062e+01 1.065782737731933594e+01 2.913413627538830042e-04 1.702874142210930586e-04 1.384886272717267275e-04 1.476407051086425781e-04
3.149000000000000000e+03 7.458555603027343750e+01 2.439604282379150391e+00 4.690073132514953613e-01 8.268283843994140625e+00 2.621187448501586914e+00 -1.782230287790298462e-01
3.150000000000000000e+03 6.944584655761718750e+01 3.420849227905273438e+01 -5.254834294319152832e-01 4.944687366485595703e+00 1.325761079788208008e+00 -4.900784492492675781e-01
3.151000000000000000e+03 7.255534362792968750e+01 9.478034019470214844e+00 -2.229068279266357422e-01 9.416214942932128906e+00 2.757992267608642578e+00 1.869224756956100464e-01
3.152000000000000000e+03 2.143673324584960938e+01 -1.636052608489990234e+00 7.037255272734910250e-05 -3.560357072274200618e-05 1.043069551087683067e-05 5.776094894827110693e-06
3.153000000000000000e+03 2.079463005065917969e+01 -1.049023747444152832e+00 9.027768828673288226e-05 -5.734393653256120160e-06 2.536298779887147248e-05 -2.473923086654394865e-05
3.154000000000000000e+03 1.511476802825927734e+01 2.871922016143798828e+00 1.208482790389098227e-04 6.135767762316390872e-06 3.809521513176150620e-05 -4.991936293663457036e-05
3.155000000000000000e+03 7.657389068603515625e+01 -3.284823989868164062e+01 -1.771535575389862061e-01 8.365781784057617188e+00 2.456588268280029297e+00 -5.605993866920471191e-01
3.156000000000000000e+03 7.013549041748046875e+01 -1.892810440063476562e+01 -8.168753385543823242e-01 3.604970455169677734e+00 8.364285230636596680e-01 -1.263236284255981445e+00
3.157000000000000000e+03 6.687439727783203125e+01 -1.511686801910400391e+01 4.999329447746276855e-01 1.902182340621948242e+00 7.206345796585083008e-01 3.318965137004852295e-01
3.158000000000000000e+03 5.713777542114257812e+01 -2.441283035278320312e+01 4.540757834911346436e-01 1.623075127601623535e+00 6.231452822685241699e-01 8.363788723945617676e-01
3.159000000000000000e+03 5.684791564941406250e+01 -2.315513610839843750e+01 -2.297853678464889526e-01 1.203956842422485352e+00 2.922514379024505615e-01 5.769868493080139160e-01
3.160000000000000000e+03 3.217848300933837891e+00 -1.999236297607421875e+01 1.014944500639103353e-04 -1.062704129140001896e-07 3.041645322809927166e-05 1.579315903654787689e-05
3.161000000000000000e+03 7.406246948242187500e+01 -2.181932830810546875e+01 -5.278955101966857910e-01 8.382664680480957031e+00 2.356430768966674805e+00 4.575034081935882568e-01
3.162000000000000000e+03 1.499812221527099609e+01 -1.096780872344970703e+01 -1.943487768585328013e-05 3.883811587002128363e-06 -4.665319465857464820e-06 -1.957640597538556904e-05
3.163000000000000000e+03 1.530523777008056641e+01 -1.151812553405761719e+01 1.381777656206395477e-05 3.378242126927943900e-06 5.158805379323894158e-06 1.283803794649429619e-05
3.164000000000000000e+03 5.486221313476562500e+01 -2.333491134643554688e+01 -2.799067795276641846e-01 7.641607522964477539e-01 1.452762037515640259e-01 4.148719087243080139e-02
3.165000000000000000e+03 3.578228759765625000e+01 -1.473146724700927734e+01 -1.745924782881047577e-05 -6.459429187088971958e-07 -5.431557383417384699e-06 -3.890181233145995066e-06
3.166000000000000000e+03 3.682442092895507812e+01 -1.585775852203369141e+01 -7.545881430814915802e-07 6.025702532497234643e-06 1.581334345246432349e-06 5.036626589571824297e-06
3.167000000000000000e+03 4.449975204467773438e+01 -2.897429656982421875e+01 -2.419085800647735596e-01 -5.974115133285522461e-01 -2.517960369586944580e-01 -3.966626524925231934e-01
3.168000000000000000e+03 4.487640762329101562e+01 -2.839839553833007812e+01 -1.734191030263900757e-01 -5.667331814765930176e-01 -2.220456898212432861e-01 -4.640210866928100586e-01
3.169000000000000000e+03 4.046390151977539062e+01 7.757532596588134766e+00 1.933601888595148921e-04 6.252171442611142993e-05 7.676456880290061235e-05 1.090342484530992806e-04
3.170000000000000000e+03 4.089749145507812500e+01 8.893524169921875000e+00 2.327644906472414732e-04 9.138567111222073436e-05 9.724505071062594652e-05 1.125153430621139705e-04
3.171000000000000000e+03 1.213875198364257812e+01 -3.264991378784179688e+01 2.096503740176558495e-03 -8.056018123170360923e-05 6.047830684110522270e-04 1.417191699147224426e-03
3.172000000000000000e+03 7.297817993164062500e+01 7.040002822875976562e+00 3.251135051250457764e-01 9.325841903686523438e+00 2.895286560058593750e+00 1.146444380283355713e-01
3.173000000000000000e+03 7.253436279296875000e+01 -6.383165717124938965e-03 5.763756632804870605e-01 8.980938911437988281e+00 2.867194175720214844e+00 -8.051381260156631470e-02
3.174000000000000000e+03 7.259114074707031250e+01 8.916711807250976562e-01 6.717833280563354492e-01 9.201633453369140625e+00 2.962025165557861328e+00 -2.305459976196289062e-02
3.175000000000000000e+03 1.726428222656250000e+01 -1.108639812469482422e+01 6.887704785185633227e-06 -1.204154159495374188e-06 1.705065187707077712e-06 3.875213678838917986e-06
3.176000000000000000e+03 1.702643394470214844e+01 -8.946151733398437500e+00 -1.272372446692315862e-05 -5.198958206165116280e-06 -5.376804892875952646e-06 -2.941114644272602163e-06
3.177000000000000000e+03 6.511603546142578125e+01 -1.958553123474121094e+01 -7.455703020095825195e-01 5.462605953216552734e-01 -5.979290977120399475e-02 6.207210421562194824e-01
3.178000000000000000e+03 1.400704956054687500e+01 -3.462512969970703125e+01 1.634869026020169258e-03 1.003149896860122681e-03 7.914056768640875816e-04 3.303601406514644623e-03
3.179000000000000000e+03 1.571949768066406250e+01 -3.519805145263671875e+01 1.138214254751801491e-03 1.545438077300786972e-03 8.050957112573087215e-04 3.972281236201524734e-03
3.180000000000000000e+03 1.667725372314453125e+01 -3.451840972900390625e+01 2.818080130964517593e-03 1.636605011299252510e-03 1.336405519396066666e-03 4.902540706098079681e-03
3.181000000000000000e+03 1.221575927734375000e+01 -1.285856723785400391e+01 -3.060116432607173920e-05 8.805736797512508929e-07 -8.916176739148795605e-06 -2.799075991788413376e-05
3.182000000000000000e+03 1.017185878753662109e+01 3.840552568435668945e+00 6.371317431330680847e-05 1.212994447996607050e-05 2.275293627462815493e-05 -5.342054646462202072e-05
3.183000000000000000e+03 9.412635803222656250e+00 5.407178878784179688e+00 4.615867510437965393e-05 1.781715764082036912e-05 1.919275018735788763e-05 -5.196627171244472265e-05
3.184000000000000000e+03 5.873091888427734375e+01 -2.289590644836425781e+01 -1.791102886199951172e-01 1.411794900894165039e+00 3.698053956031799316e-01 9.458749294281005859e-01
3.185000000000000000e+03 1.165446567535400391e+01 -3.197225952148437500e+01 2.473893575370311737e-03 -1.595621724845841527e-04 6.942994077689945698e-04 1.245270250365138054e-03
3.186000000000000000e+03 5.043225479125976562e+01 -1.524602890014648438e+01 -1.317483565799193457e-05 1.249212800757959485e-06 -3.577687039069132879e-06 6.485900030384073034e-07
3.187000000000000000e+03 4.935448837280273438e+01 -1.330500698089599609e+01 -2.779660280793905258e-05 -3.786452907661441714e-06 -9.474916623730678111e-06 -1.384409733873326331e-05
3.188000000000000000e+03 7.205894470214843750e+01 -3.293635559082031250e+01 -6.326988339424133301e-01 6.680541992187500000e+00 1.814352989196777344e+00 5.208181738853454590e-01
3.189000000000000000e+03 7.257209014892578125e+01 2.976257133483886719e+01 8.941663801670074463e-02 7.413754463195800781e+00 2.250951290130615234e+00 3.343061208724975586e-01
3.190000000000000000e+03 7.097823333740234375e+01 -3.606972122192382812e+01 -4.006272554397583008e-01 4.867454528808593750e+00 1.340048193931579590e+00 6.511785984039306641e-01
3.191000000000000000e+03 7.172019195556640625e+01 -3.500661468505859375e+01 -5.410227179527282715e-01 5.539863586425781250e+00 1.499652266502380371e+00 5.924107432365417480e-01
3.192000000000000000e+03 4.158772659301757812e+01 -3.608481979370117188e+01 1.791886240243911743e-01 -5.313057899475097656e-01 -1.056351512670516968e-01 -9.288531541824340820e-02
3.193000000000000000e+03 4.433010482788085938e+01 -2.579092597961425781e+01 -9.434738755226135254e-02 -5.800765156745910645e-01 -2.023271620273590088e-01 -5.869824886322021484e-01
3.194000000000000000e+03 3.964370346069335938e+01 1.138292980194091797e+01 3.179060877300798893e-04 1.911295257741585374e-04 1.527106796856969595e-04 1.906465622596442699e-04
3.195000000000000000e+03 3.977141571044921875e+01 1.045341968536376953e+01 -1.701707951724529266e-04 1.835913717513903975e-04 4.026173428428592160e-06 1.102404057746753097e-04
3.196000000000000000e+03 1.777276039123535156e+01 -1.031392288208007812e+01 -7.224745104394969530e-07 3.421556300509109860e-07 -1.140956555900629610e-07 4.497481768339639530e-06
3.197000000000000000e+03 7.031159973144531250e+01 3.256653976440429688e+01 -4.555619359016418457e-01 5.916709899902343750e+00 1.638344407081604004e+00 -3.236407339572906494e-01
3.198000000000000000e+03 2.305992507934570312e+01 -3.355560302734375000e+01 1.065201498568058014e-02 -1.221464015543460846e-03 2.829165197908878326e-03 5.240286700427532196e-03
3.199000000000000000e+03 4.491162872314453125e+01 2.926322555541992188e+01 4.684372339397668839e-03 2.562634181231260300e-04 1.482190680690109730e-03 1.673473510891199112e-03
3.200000000000000000e+03 3.927567672729492188e+01 -1.712700462341308594e+01 -1.182625692308647558e-05 -8.159425306075718254e-06 -5.995704668748658150e-06 -4.904977686237543821e-06
3.201000000000000000e+03 9.909859657287597656e+00 -1.556706047058105469e+01 -1.326809342572232708e-05 -4.521041773841716349e-05 -1.754355434968601912e-05 1.799847609618154820e-06
3.202000000000000000e+03 1.236998367309570312e+01 4.601351261138916016e+00 1.052129664458334446e-04 2.520754605939146131e-05 3.912615284207277000e-05 -7.533077587140724063e-05
3.203000000000000000e+03 1.195110702514648438e+01 3.915980577468872070e+00 5.838495053467340767e-05 1.375192914565559477e-05 2.164106444979552180e-05 -4.580767563311383128e-05
3.204000000000000000e+03 4.397745895385742188e+01 -3.577017593383789062e+01 2.044866085052490234e-01 -3.505153357982635498e-01 -4.380862042307853699e-02 9.143034368753433228e-02
3.205000000000000000e+03 3.418989181518554688e+01 -3.923951721191406250e+01 4.375542700290679932e-02 -1.818979084491729736e-01 -4.144274443387985229e-02 -7.643947005271911621e-02
3.206000000000000000e+03 3.770550155639648438e+01 -3.745409393310546875e+01 8.792990446090698242e-02 -3.161866366863250732e-01 -6.847701966762542725e-02 -1.703860163688659668e-01
3.207000000000000000e+03 7.357367706298828125e+01 -3.079985237121582031e+01 -1.522762607783079147e-02 8.254928588867187500e+00 2.471910476684570312e+00 -2.636800408363342285e-01
3.208000000000000000e+03 7.288640594482421875e+01 -3.049171638488769531e+01 1.154962256550788879e-01 8.271797180175781250e+00 2.516187906265258789e+00 4.620667546987533569e-02
3.209000000000000000e+03 1.019186210632324219e+01 -1.492682170867919922e+01 4.219727634335868061e-05 3.058634320041164756e-05 2.183508695452474058e-05 1.135972343035973608e-05
3.210000000000000000e+03 8.476391792297363281e+00 -1.618050575256347656e+01 7.625159923918545246e-05 -3.920339077012613416e-05 1.111446181312203407e-05 -6.798542926844675094e-06
3.211000000000000000e+03 7.170895385742187500e+01 2.968257713317871094e+01 1.501772105693817139e-01 7.402431011199951172e+00 2.265782356262207031e+00 9.950152039527893066e-02
3.212000000000000000e+03 7.131909942626953125e+01 3.074308586120605469e+01 -8.117891103029251099e-02 6.980215549468994141e+00 2.069710969924926758e+00 3.597138822078704834e-02
3.213000000000000000e+03 3.316230010986328125e+01 -4.137899017333984375e+01 3.992722555994987488e-02 -1.531814932823181152e-01 -3.397628292441368103e-02 -1.850688643753528595e-02
3.214000000000000000e+03 4.018337631225585938e+01 8.626635551452636719e+00 -1.780542806955054402e-04 1.368884404655545950e-04 -1.234975388797465712e-05 3.731340621015988290e-05
3.215000000000000000e+03 1.200767135620117188e+01 -3.453163909912109375e+01 1.241794787347316742e-03 3.058193833567202091e-04 4.642842395696789026e-04 2.250262768939137459e-03
3.216000000000000000e+03 5.034053421020507812e+01 -1.460732555389404297e+01 2.038290222117211670e-05 -9.470638360653538257e-06 3.273679340054513887e-06 -1.225209985022956971e-06
3.217000000000000000e+03 7.613110351562500000e+01 -1.868507957458496094e+01 -4.811293184757232666e-01 8.270750045776367188e+00 2.336886167526245117e+00 1.180906593799591064e-01
3.218000000000000000e+03 7.215962982177734375e+01 -1.982252120971679688e+01 -1.272897362709045410e+00 6.412823200225830078e+00 1.541977643966674805e+00 -8.832384347915649414e-01
3.219000000000000000e+03 5.188105010986328125e+01 -2.898433685302734375e+01 8.256627917289733887e-01 7.605820298194885254e-01 4.758734405040740967e-01 -4.601805005222558975e-03
3.220000000000000000e+03 4.755484008789062500e+01 3.884905242919921875e+01 4.636512021534144878e-04 -1.315472740679979324e-02 -3.807323053479194641e-03 7.417608983814716339e-03
3.221000000000000000e+03 9.628646850585937500e+00 -3.144272422790527344e+01 1.210858463309705257e-03 -2.842223620973527431e-04 2.779908536467701197e-04 4.647392488550394773e-04
3.222000000000000000e+03 9.912783622741699219e+00 -1.344448471069335938e+01 -3.790957271121442318e-05 -4.347624053480103612e-05 -2.441574361000675708e-05 1.939069807121995836e-05
3.223000000000000000e+03 6.849018096923828125e+01 -3.832411956787109375e+01 3.083248138427734375e-01 2.233505487442016602e+00 7.625491023063659668e-01 4.605971574783325195e-01
3.224000000000000000e+03 9.888503074645996094e+00 4.648812294006347656e+00 6.804179429309442639e-05 4.145699131186120212e-05 3.284963531768880785e-05 -7.859228935558348894e-05
3.225000000000000000e+03 6.939370632171630859e+00 -2.884003448486328125e+01 3.940708702430129051e-04 -1.513981551397591829e-04 7.280181307578459382e-05 -4.116023410460911691e-05
3.226000000000000000e+03 7.859040737152099609e+00 -2.779974746704101562e+01 3.387671895325183868e-04 5.664103809976950288e-05 1.186224690172821283e-04 1.540882076369598508e-04
3.227000000000000000e+03 4.537181091308593750e+01 -2.774350357055664062e+01 -9.335850924253463745e-02 -4.865796566009521484e-01 -1.739814579486846924e-01 -5.243490338325500488e-01
3.228000000000000000e+03 6.534927368164062500e+01 4.029507827758789062e+01 2.500241696834564209e-01 1.681993365287780762e+00 5.796052217483520508e-01 -1.359970569610595703e-01
3.229000000000000000e+03 4.534873962402343750e+01 -3.098259353637695312e+01 -4.800616577267646790e-02 -4.335858225822448730e-01 -1.444775909185409546e-01 -8.474393188953399658e-02
3.230000000000000000e+03 2.877418327331542969e+01 -3.621118164062500000e+01 -1.184118632227182388e-02 -1.685694046318531036e-02 -8.609438315033912659e-03 -9.247153997421264648e-03
3.231000000000000000e+03 4.463949584960937500e+01 -3.007224655151367188e+01 -2.162199914455413818e-01 -5.545319318771362305e-01 -2.312255799770355225e-01 -2.280025631189346313e-01
3.232000000000000000e+03 3.870129108428955078e+00 4.157085800170898438e+01 -2.913788921432569623e-05 8.037826046347618103e-04 2.323934168089181185e-04 -6.042616587365046144e-05
3.233000000000000000e+03 5.243673324584960938e+01 -3.202796554565429688e+01 6.396110057830810547e-01 1.227627754211425781e+00 5.601716041564941406e-01 3.626436889171600342e-01
3.234000000000000000e+03 2.382582855224609375e+01 -3.389170074462890625e+01 9.603551588952541351e-03 -1.413141260854899883e-03 2.457123249769210815e-03 5.439714528620243073e-03
3.235000000000000000e+03 7.724607849121093750e+01 4.060560226440429688e+01 -6.959552317857742310e-02 8.056851387023925781e+00 2.396176576614379883e+00 3.018244728446006775e-02
3.236000000000000000e+03 5.365053558349609375e+01 -3.478462219238281250e+01 5.080616101622581482e-02 1.485402941703796387e+00 4.608627259731292725e-01 1.987662911415100098e-01
3.237000000000000000e+03 5.460760879516601562e+01 -3.415557479858398438e+01 8.559416234493255615e-02 1.767672419548034668e+00 5.559799671173095703e-01 7.359047234058380127e-02
3.238000000000000000e+03 1.867673635482788086e+00 -3.948789215087890625e+01 -6.436624971684068441e-05 1.107218558900058270e-03 3.128557000309228897e-04 1.463189837522804737e-04
3.239000000000000000e+03 4.493611335754394531e+00 -3.705276870727539062e+01 -2.648067311383783817e-04 9.134488063864409924e-04 1.945926196640357375e-04 5.737841129302978516e-04
3.240000000000000000e+03 2.478041648864746094e+01 -3.397180557250976562e+01 9.505062364041805267e-03 -2.592855365946888924e-03 2.073662122711539268e-03 4.635444376617670059e-03
3.241000000000000000e+03 4.043813705444335938e+00 -4.002698135375976562e+01 -2.364370011491701007e-04 1.074039610102772713e-03 2.512807841412723064e-04 1.685061870375648141e-04
3.242000000000000000e+03 2.990022087097167969e+01 -3.733787536621093750e+01 -1.568558439612388611e-02 -3.965091332793235779e-02 -1.660094968974590302e-02 -2.198365889489650726e-02
3.243000000000000000e+03 3.261175155639648438e+01 -3.690421295166015625e+01 -1.484206039458513260e-02 -8.720473200082778931e-02 -3.061403706669807434e-02 -6.906151771545410156e-02
3.244000000000000000e+03 4.604737472534179688e+01 3.223279190063476562e+01 7.394562708213925362e-04 -8.408869616687297821e-04 -3.042921161977574229e-05 1.750836730934679508e-03
3.245000000000000000e+03 5.238901138305664062e+00 3.667583084106445312e+01 -9.555902943247929215e-05 6.730154855176806450e-04 1.732369273668155074e-04 -6.754385685781016946e-05
3.246000000000000000e+03 4.541134834289550781e+00 3.986182022094726562e+01 -2.419114650820120005e-07 7.250602939166128635e-04 2.174455148633569479e-04 -4.074227945238817483e-06
3.247000000000000000e+03 1.948883056640625000e+01 -3.340495681762695312e+01 8.221074938774108887e-03 8.337435428984463215e-04 2.716445596888661385e-03 4.802579525858163834e-03
3.248000000000000000e+03 2.105429840087890625e+01 -3.586448287963867188e+01 6.239490467123687267e-04 6.194037850946187973e-04 3.730058379005640745e-04 5.741663277149200439e-03
3.249000000000000000e+03 1.949227142333984375e+01 -3.443395996093750000e+01 4.922255408018827438e-03 8.970503695309162140e-04 1.745791756547987461e-03 5.334592424333095551e-03
3.250000000000000000e+03 5.071767044067382812e+01 3.904372024536132812e+01 -1.076623331755399704e-03 -3.354609757661819458e-02 -1.038681622594594955e-02 3.614685311913490295e-02
3.251000000000000000e+03 5.040731430053710938e+01 3.718527221679687500e+01 -1.711161248385906219e-02 -6.831308710388839245e-04 -5.338422954082489014e-03 2.148621901869773865e-02
3.252000000000000000e+03 7.653926849365234375e+01 3.800371932983398438e+01 -1.150870174169540405e-01 7.851396083831787109e+00 2.320892810821533203e+00 1.662895679473876953e-01
3.253000000000000000e+03 1.069663715362548828e+01 -1.116549587249755859e+01 2.110754212480969727e-05 1.945977601280901581e-05 1.217019598698243499e-05 8.509487997798714787e-06
3.254000000000000000e+03 1.566170215606689453e+01 -7.655494213104248047e+00 1.098327720683300868e-05 5.994681941956514493e-06 5.093387699162121862e-06 2.187915924878325313e-06
3.255000000000000000e+03 9.497371673583984375e+00 -5.543745040893554688e+00 -1.597181653778534383e-05 -5.411140136857284233e-06 -6.414887138816993684e-06 -5.127673830429557711e-06
3.256000000000000000e+03 4.689969635009765625e+01 -2.616440582275390625e+01 -1.526048872619867325e-02 -3.385101556777954102e-01 -1.061311960220336914e-01 -6.538533568382263184e-01
3.257000000000000000e+03 1.236512470245361328e+01 -5.920112133026123047e+00 -1.326931032963329926e-05 -4.604351488524116576e-06 -5.362098818295635283e-06 -1.742076392474700697e-06
3.258000000000000000e+03 7.318943023681640625e+01 1.024995613098144531e+01 -3.150918483734130859e-01 9.092857360839843750e+00 2.633329629898071289e+00 1.485944837331771851e-01
3.259000000000000000e+03 7.247479248046875000e+01 1.100695896148681641e+01 -4.777219593524932861e-01 9.319844245910644531e+00 2.652636528015136719e+00 4.230955149978399277e-03
3.260000000000000000e+03 1.006308078765869141e+01 -5.649471282958984375e+00 1.517439704912248999e-05 4.705342234956333414e-06 5.963921921647852287e-06 4.879406787949847057e-06
3.261000000000000000e+03 3.800482940673828125e+01 -1.672765731811523438e+01 -1.227740813192212954e-05 5.613820121652679518e-06 -1.999076175707159564e-06 -4.834126229980029166e-06
3.262000000000000000e+03 3.750093460083007812e+01 -1.554825401306152344e+01 5.116363354318309575e-06 2.639412059579626657e-06 2.326732783330953680e-06 4.452168923307908699e-06
3.263000000000000000e+03 6.414017486572265625e+01 -2.031678009033203125e+01 -1.005795240402221680e+00 6.816907525062561035e-01 -9.723135083913803101e-02 6.701936125755310059e-01
3.264000000000000000e+03 4.122813034057617188e+01 -1.627051925659179688e+01 6.947624342501512729e-07 1.056082419381709769e-05 3.376675977051490918e-06 -2.626632976898690686e-06
3.265000000000000000e+03 4.014848709106445312e+01 -1.603019142150878906e+01 3.092431825280073099e-06 9.782925189938396215e-06 3.862607172777643427e-06 -2.188638518418883905e-06
3.266000000000000000e+03 3.275430679321289062e+01 -1.463553619384765625e+01 1.373020950268255547e-07 1.072239138011354953e-05 3.257908019804744981e-06 7.066715625114738941e-06
3.267000000000000000e+03 2.982624816894531250e+01 -1.182652378082275391e+01 -1.248270109499571845e-05 -8.498686838720459491e-06 -6.294416380114853382e-06 5.350147148419637233e-06
3.268000000000000000e+03 4.835912322998046875e+01 -2.639355087280273438e+01 1.337939053773880005e-01 -1.676518619060516357e-01 -1.015738770365715027e-02 -5.938796401023864746e-01
3.269000000000000000e+03 6.710302734375000000e+01 -1.304616737365722656e+01 4.738045930862426758e-01 2.503555059432983398e+00 8.932079076766967773e-01 5.052110552787780762e-01
3.270000000000000000e+03 6.715955352783203125e+01 -1.147263622283935547e+01 4.394284784793853760e-01 2.792395830154418945e+00 9.695472717285156250e-01 6.692053675651550293e-01
3.271000000000000000e+03 7.600350952148437500e+01 -3.054377365112304688e+01 1.154204830527305603e-01 8.338188171386718750e+00 2.536082506179809570e+00 -6.407482624053955078e-01
3.272000000000000000e+03 7.641354370117187500e+01 -3.006806373596191406e+01 1.912630200386047363e-01 8.347319602966308594e+00 2.561574935913085938e+00 -6.210331320762634277e-01
3.273000000000000000e+03 2.988398551940917969e+01 -1.476078414916992188e+01 -1.384917231916915625e-05 -8.703661478648427874e-06 -6.765850230294745415e-06 1.789011434993881267e-06
3.274000000000000000e+03 3.054168701171875000e+01 -1.490081787109375000e+01 -2.010939851970761083e-06 1.004587375064147636e-05 2.410480192338582128e-06 7.476601695088902488e-06
3.275000000000000000e+03 1.201790714263916016e+01 -6.514633178710937500e+00 1.655069536354858428e-05 3.067933448619442061e-06 5.885588507226202637e-06 1.509219487161317375e-07
3.276000000000000000e+03 1.186976814270019531e+01 -5.622533321380615234e+00 1.055542179528856650e-05 5.925166533415904269e-06 4.944176453136606142e-06 3.415136461626389064e-06
3.277000000000000000e+03 3.342790603637695312e+01 -1.473061275482177734e+01 -1.745519693940877914e-05 -4.648522917705122381e-06 -6.631116320932051167e-06 -2.654831405379809439e-06
3.278000000000000000e+03 5.449093246459960938e+01 -2.655079650878906250e+01 8.003629446029663086e-01 1.613230466842651367e+00 7.240779995918273926e-01 2.431934922933578491e-01
3.279000000000000000e+03 3.270488739013671875e+00 -2.723410797119140625e+01 -1.315367844654247165e-04 6.969615787966176867e-05 -1.855218579294160008e-05 -1.458902443118859082e-05
3.280000000000000000e+03 1.062305545806884766e+01 -5.768460750579833984e+00 -1.540616904094349593e-05 -2.756351477728458121e-06 -5.448756382975261658e-06 -4.862862169829895720e-06
3.281000000000000000e+03 4.417461013793945312e+01 3.385441005229949951e-01 7.852145790820941329e-05 5.675715874531306326e-05 4.058358535985462368e-05 6.539198511745780706e-05
3.282000000000000000e+03 4.451836776733398438e+01 -3.406122624874114990e-01 -6.798187678214162588e-05 -7.525136607000604272e-05 -4.296997212804853916e-05 -6.073377517168410122e-05
3.283000000000000000e+03 4.850036621093750000e+01 -2.508291625976562500e+01 -4.314478114247322083e-02 -1.939818859100341797e-01 -7.113800197839736938e-02 -6.781118512153625488e-01
3.284000000000000000e+03 7.688085174560546875e+01 -2.907630538940429688e+01 2.838643789291381836e-01 8.276224136352539062e+00 2.568026781082153320e+00 -5.001732110977172852e-01
3.285000000000000000e+03 7.359870910644531250e+01 -2.892091369628906250e+01 8.515056371688842773e-01 8.871973037719726562e+00 2.917043685913085938e+00 -1.839355677366256714e-01
3.286000000000000000e+03 1.523240566253662109e+01 -9.176894187927246094e+00 -1.721967782941646874e-05 -1.555363496663630940e-06 -5.632512511510867625e-06 -1.069964355338015594e-06
3.287000000000000000e+03 1.570463275909423828e+01 -8.663622856140136719e+00 1.432148110325215384e-05 6.694071544188773260e-06 6.304665930656483397e-06 1.721723037917399779e-06
3.288000000000000000e+03 4.985028457641601562e+01 -2.437649917602539062e+01 -1.496709287166595459e-01 -7.408869266510009766e-02 -6.712788343429565430e-02 -6.535676717758178711e-01
3.289000000000000000e+03 4.925328445434570312e+01 -2.444005393981933594e+01 -1.637353003025054932e-01 -1.398967653512954712e-01 -9.108962118625640869e-02 -6.800898909568786621e-01
3.290000000000000000e+03 4.517419815063476562e+01 -1.663596749305725098e+00 -6.128708628239110112e-05 -7.118573557818308473e-05 -3.974184437538497150e-05 -5.541307109524495900e-05
3.291000000000000000e+03 2.923774909973144531e+01 -1.462487792968750000e+01 8.533557149803527864e-08 9.121698894887231290e-06 2.762110398180084303e-06 9.064206096809357405e-06
3.292000000000000000e+03 4.610707473754882812e+01 -5.108693122863769531e+00 -3.485295383143238723e-05 -4.718089257949031889e-05 -2.461015355947893113e-05 -2.879703788494225591e-05
3.293000000000000000e+03 5.200503921508789062e+01 -2.411641693115234375e+01 -1.305405497550964355e-01 2.497621774673461914e-01 3.576648607850074768e-02 -4.685782194137573242e-01
3.294000000000000000e+03 6.586390686035156250e+01 -1.755152702331542969e+01 1.764000803232192993e-01 9.058679342269897461e-01 3.246803879737854004e-01 4.703041315078735352e-01
3.295000000000000000e+03 4.580360412597656250e+01 -4.507235050201416016e+00 4.114963303436525166e-05 3.880021904478780925e-05 2.398495416855439544e-05 3.239326542825438082e-05
3.296000000000000000e+03 4.909009552001953125e+01 -1.541433334350585938e+01 -1.259621058125048876e-05 -2.328923983441200107e-06 -4.477540187508566305e-06 -5.879778200323926285e-06
3.297000000000000000e+03 4.978490447998046875e+01 -1.532250976562500000e+01 1.370394693367416039e-05 -2.742936658250982873e-06 3.288303105364320800e-06 1.458924316466436721e-06
3.298000000000000000e+03 4.966517257690429688e+01 -1.466501808166503906e+01 -1.863888792286161333e-05 8.230493904193281196e-07 -5.344751571101369336e-06 -8.560860806028358638e-06
3.299000000000000000e+03 3.409780883789062500e+01 -1.483799076080322266e+01 2.720373231568373740e-06 7.779916813888121396e-06 3.150086968162213452e-06 4.785487362823914737e-06
3.300000000000000000e+03 3.509239959716796875e+01 -1.573073863983154297e+01 -1.254586732102325186e-05 -7.360781182796927169e-06 -5.971994596620788798e-06 1.794526269804919139e-06
3.301000000000000000e+03 5.215723800659179688e+01 -2.583182334899902344e+01 4.110546112060546875e-01 5.218420624732971191e-01 2.798690199851989746e-01 -3.337109982967376709e-01
3.302000000000000000e+03 4.990560531616210938e+01 -2.572840499877929688e+01 1.614219397306442261e-01 3.160997992381453514e-03 4.937488213181495667e-02 -5.736715793609619141e-01
3.303000000000000000e+03 5.163963317871093750e+01 -2.541378974914550781e+01 2.613794803619384766e-01 3.131364881992340088e-01 1.723548024892807007e-01 -4.291157424449920654e-01
3.304000000000000000e+03 4.700585556030273438e+01 -8.325836181640625000e+00 4.410962355905212462e-05 1.489501028117956594e-05 1.770138987922109663e-05 2.094347291858866811e-05
3.305000000000000000e+03 4.284754562377929688e+01 1.357276916503906250e+00 -5.159680949873290956e-05 -5.937253081356175244e-05 -3.329080209368839860e-05 -5.353685264708474278e-05
3.306000000000000000e+03 4.231115722656250000e+01 3.853323936462402344e+00 -9.537402365822345018e-05 -2.514631523808930069e-05 -3.615609966800548136e-05 -7.247264875331893563e-05
3.307000000000000000e+03 4.247832489013671875e+01 2.055867433547973633e+00 6.254371692193672061e-05 5.666676588589325547e-05 3.576314702513627708e-05 6.236444460228085518e-05
3.308000000000000000e+03 2.917178344726562500e+01 -1.088587856292724609e+01 -1.276144558914893423e-07 -1.065642027242574841e-05 -3.235210442653624341e-06 1.997099616346531548e-06
3.309000000000000000e+03 5.303218841552734375e+01 -2.637289619445800781e+01 6.315492391586303711e-01 8.874263763427734375e-01 4.556926786899566650e-01 -1.615434736013412476e-01
3.310000000000000000e+03 5.350236129760742188e+01 -2.377870941162109375e+01 -1.805133521556854248e-01 5.380682349205017090e-01 1.072664633393287659e-01 -2.410216331481933594e-01
3.311000000000000000e+03 4.824055099487304688e+01 -1.033289623260498047e+01 4.245746822562068701e-05 2.892332133797026472e-07 1.282401080970885232e-05 1.145052738138474524e-05
3.312000000000000000e+03 4.192023849487304688e+01 4.589649200439453125e+00 1.084972391254268587e-04 3.806158929364755750e-05 4.396764779812656343e-05 9.790574404178187251e-05
3.313000000000000000e+03 2.724353408813476562e+01 -7.850837707519531250e+00 5.922990567341912538e-06 1.723481000226456672e-05 6.947339898033533245e-06 4.073870059073669836e-06
3.314000000000000000e+03 4.762112045288085938e+01 -1.567685699462890625e+01 -9.485476766712963581e-06 -5.662380772264441475e-06 -4.544357125269016251e-06 -9.566022526996675879e-06
3.315000000000000000e+03 5.535645294189453125e+01 -2.437531280517578125e+01 1.599153131246566772e-01 1.199671030044555664e+00 4.078758955001831055e-01 2.640988528728485107e-01
3.316000000000000000e+03 5.615790557861328125e+01 -2.390149879455566406e+01 7.467117160558700562e-02 1.300364613533020020e+00 4.125107228755950928e-01 4.842376112937927246e-01
3.317000000000000000e+03 6.430968475341796875e+01 -1.961304092407226562e+01 -7.039965391159057617e-01 6.860858201980590820e-01 -5.373228341341018677e-03 7.300090193748474121e-01
3.318000000000000000e+03 3.010772514343261719e+01 -1.412917423248291016e+01 -6.955808089514903259e-07 1.156811231339816004e-05 3.261759502493077889e-06 8.453635018668137491e-06
3.319000000000000000e+03 5.268754196166992188e+01 -2.475588417053222656e+01 1.188968941569328308e-01 4.795081019401550293e-01 1.795215010643005371e-01 -3.358178138732910156e-01
3.320000000000000000e+03 5.520365905761718750e+01 -2.619507980346679688e+01 7.926066517829895020e-01 1.791335701942443848e+00 7.751827239990234375e-01 4.354435205459594727e-01
3.321000000000000000e+03 4.760611724853515625e+01 -1.167568397521972656e+01 -3.338810347486287355e-05 -4.209349299344466999e-06 -1.127923496824223548e-05 -1.413072641298640519e-05
3.322000000000000000e+03 4.667652130126953125e+01 -1.522694969177246094e+01 -8.459133823635056615e-06 -8.368720955331809819e-06 -5.048356342740589753e-06 -9.459013199375476688e-06
3.323000000000000000e+03 4.945401668548583984e+00 4.739416599273681641e+00 1.455372239433927462e-05 3.104005372733809054e-05 1.367813274555373937e-05 -3.975206345785409212e-05
3.324000000000000000e+03 4.820874023437500000e+01 -1.481717014312744141e+01 -1.389462613587966189e-05 -6.381378170772222802e-06 -6.082801064621889964e-06 -8.653491022414527833e-06
3.325000000000000000e+03 7.826006412506103516e+00 5.470180034637451172e+00 5.770187635789625347e-05 3.686417039716616273e-05 2.836981366272084415e-05 -7.567304419353604317e-05
3.326000000000000000e+03 4.649038696289062500e+01 -6.234922885894775391e+00 -7.424620707752183080e-05 -5.324145604390650988e-06 -2.387110544077586383e-05 -4.217699097353033721e-05
3.327000000000000000e+03 4.712901306152343750e+01 -6.151952266693115234e+00 6.783014396205544472e-05 1.122542016673833132e-05 2.371666960243601352e-05 4.407619053381495178e-05
3.328000000000000000e+03 4.510524749755859375e+00 3.107839012145996094e+01 -2.713751382543705404e-05 5.710438708774745464e-04 1.631719060242176056e-04 -1.592992193764075637e-04
3.329000000000000000e+03 7.539916992187500000e+01 3.053095626831054688e+01 -3.048346191644668579e-02 7.477560997009277344e+00 2.234123229980468750e+00 6.737794876098632812e-01
3.330000000000000000e+03 6.884928894042968750e+01 -1.018529415130615234e+01 1.721458733081817627e-01 4.189993381500244141e+00 1.308641672134399414e+00 4.593170881271362305e-01
3.331000000000000000e+03 7.691767120361328125e+01 -2.979288291931152344e+01 2.112863212823867798e-01 8.300818443298339844e+00 2.553631305694580078e+00 -5.722504854202270508e-01
3.332000000000000000e+03 7.628723907470703125e+01 -2.877653503417968750e+01 4.560186266899108887e-01 8.331624031066894531e+00 2.636292695999145508e+00 -4.653084874153137207e-01
3.333000000000000000e+03 5.707493782043457031e+00 5.439984321594238281e+00 1.572959263285156339e-05 3.902592288795858622e-05 1.642665483814198524e-05 -5.284522922011092305e-05
3.334000000000000000e+03 3.725728034973144531e+00 9.001478195190429688e+00 -5.114690679874911439e-07 7.070032734191045165e-05 2.105665771523490548e-05 -5.679849709849804640e-05
3.335000000000000000e+03 4.751580047607421875e+01 -1.230085563659667969e+01 3.136183659080415964e-05 -7.392471616185503080e-06 7.190808901214040816e-06 4.965675998391816393e-06
3.336000000000000000e+03 4.986809730529785156e+00 5.466041088104248047e+00 3.238553472328931093e-05 2.904339817177969962e-05 1.842868005041964352e-05 -3.784915315918624401e-05
3.337000000000000000e+03 7.042490482330322266e+00 4.623000144958496094e+00 5.249466266832314432e-05 1.841965604398865253e-05 2.127429615939036012e-05 -5.228215377428568900e-05
3.338000000000000000e+03 6.911751747131347656e+00 5.576491355895996094e+00 4.866968083661049604e-05 3.578728865250013769e-05 2.533709084673319012e-05 -6.380783452186733484e-05
3.339000000000000000e+03 4.063165187835693359e+00 -2.868700981140136719e+01 2.901511325035244226e-04 2.200519884354434907e-05 9.364690049551427364e-05 3.669647048809565604e-05
3.340000000000000000e+03 3.430682659149169922e+00 -2.958000183105468750e+01 2.844246337190270424e-04 4.107081258553080261e-05 9.764863352756947279e-05 7.013927097432315350e-05
3.341000000000000000e+03 4.233758449554443359e+00 5.484618186950683594e+00 9.926521670422516763e-06 3.369001569808460772e-05 1.308496121055213735e-05 -3.759351966436952353e-05
3.342000000000000000e+03 3.338792800903320312e+00 2.714391708374023438e+01 -4.424767394084483385e-05 5.318683106452226639e-04 1.462861982872709632e-04 -1.452643191441893578e-04
3.343000000000000000e+03 4.219328403472900391e+00 2.859607124328613281e+01 2.696740557439625263e-05 5.395995103754103184e-04 1.699700806057080626e-04 -1.368936791550368071e-04
3.344000000000000000e+03 7.391578674316406250e+01 8.848786354064941406e+00 -3.695989027619361877e-02 8.755455970764160156e+00 2.615548849105834961e+00 2.341279238462448120e-01
3.345000000000000000e+03 7.596796417236328125e+01 2.886582946777343750e+01 8.910178393125534058e-02 7.464946746826171875e+00 2.266214609146118164e+00 6.472960710525512695e-01
3.346000000000000000e+03 7.671873474121093750e+01 2.938518905639648438e+01 4.684969782829284668e-02 7.456240653991699219e+00 2.250926971435546875e+00 6.275941729545593262e-01
3.347000000000000000e+03 6.765889739990234375e+01 -1.363519001007080078e+01 4.181698858737945557e-01 2.699809312820434570e+00 9.353937506675720215e-01 3.031276762485504150e-01
3.348000000000000000e+03 4.906211853027343750e+00 -2.926392364501953125e+01 3.939460148103535175e-04 3.863697929773479700e-05 1.297748967772349715e-04 1.018081675283610821e-04
3.349000000000000000e+03 3.304685592651367188e+00 -2.801352310180664062e+01 2.185324119636788964e-04 6.602365829166956246e-06 6.754042988177388906e-05 2.481274123056209646e-06
3.350000000000000000e+03 7.275600433349609375e+01 3.084975242614746094e+01 -1.116399541497230530e-01 7.199923515319824219e+00 2.126485109329223633e+00 3.876613378524780273e-01
3.351000000000000000e+03 7.576036071777343750e+01 3.508346939086914062e+01 -2.257477045059204102e-01 7.464877605438232422e+00 2.171739101409912109e+00 4.180195927619934082e-01
3.352000000000000000e+03 3.262230873107910156e+00 2.149103355407714844e+01 5.252401751931756735e-05 3.305638674646615982e-04 1.149263625848107040e-04 -1.118360669352114201e-04
3.353000000000000000e+03 4.168375492095947266e+00 2.457895088195800781e+01 -4.105200423509813845e-05 4.257741093169897795e-04 1.154166311607696116e-04 -1.708162308204919100e-04
3.354000000000000000e+03 7.486260986328125000e+01 -3.142344284057617188e+01 -1.055598109960556030e-01 8.221211433410644531e+00 2.434695482254028320e+00 -5.322858095169067383e-01
3.355000000000000000e+03 7.680242919921875000e+01 -3.122473144531250000e+01 -4.638145037461072206e-04 8.371318817138671875e+00 2.511256456375122070e+00 -6.412031650543212891e-01
3.356000000000000000e+03 7.584403228759765625e+01 5.086933612823486328e+00 2.583846151828765869e-01 7.640701293945312500e+00 2.369725704193115234e+00 2.922421321272850037e-02
3.357000000000000000e+03 7.288282012939453125e+01 4.334950923919677734e+00 4.578593373298645020e-01 9.585119247436523438e+00 3.012893438339233398e+00 5.008307471871376038e-02
3.358000000000000000e+03 7.669251251220703125e+01 -2.753876686096191406e+01 5.179997682571411133e-01 8.262068748474121094e+00 2.634020805358886719e+00 -1.785425394773483276e-01
3.359000000000000000e+03 7.673449707031250000e+01 -2.664079666137695312e+01 5.670816302299499512e-01 8.240988731384277344e+00 2.642421007156372070e+00 5.800141766667366028e-02
3.360000000000000000e+03 7.411256408691406250e+01 -2.617819976806640625e+01 1.202965736389160156e+00 9.047754287719726562e+00 3.075216054916381836e+00 1.493952125310897827e-01
3.361000000000000000e+03 7.319332122802734375e+01 1.251321029663085938e+01 -3.075990378856658936e-01 8.937963485717773438e+00 2.589109420776367188e+00 -1.050985977053642273e-01
3.362000000000000000e+03 7.247802734375000000e+01 1.254327106475830078e+01 -3.378369212150573730e-01 9.179842948913574219e+00 2.652601718902587891e+00 -1.803130805492401123e-01
3.363000000000000000e+03 3.728043794631958008e+00 -3.202450561523437500e+01 2.362117811571806669e-05 2.247954835183918476e-04 7.452499994542449713e-05 3.008292696904391050e-04
3.364000000000000000e+03 7.670332336425781250e+01 2.545368576049804688e+01 1.728382855653762817e-01 7.262629032135009766e+00 2.230640172958374023e+00 3.877719044685363770e-01
3.365000000000000000e+03 7.615223693847656250e+01 2.099046134948730469e+01 1.226368471980094910e-01 7.468862533569335938e+00 2.277449846267700195e+00 6.356845796108245850e-02
3.366000000000000000e+03 7.687411499023437500e+01 2.161773300170898438e+01 9.578626602888107300e-02 7.154646873474121094e+00 2.175129890441894531e+00 1.062558069825172424e-01
3.367000000000000000e+03 7.338561248779296875e+01 -2.394784355163574219e+01 7.094442844390869141e-01 8.989887237548828125e+00 2.909799337387084961e+00 3.517706692218780518e-01
3.368000000000000000e+03 7.685168457031250000e+01 2.310767745971679688e+01 1.481388062238693237e-01 7.173149585723876953e+00 2.196386575698852539e+00 1.903796792030334473e-01
3.369000000000000000e+03 7.498783874511718750e+01 2.306225585937500000e+01 2.736521959304809570e-01 7.882260322570800781e+00 2.446773767471313477e+00 1.436569243669509888e-01
3.370000000000000000e+03 7.626578521728515625e+01 2.244126701354980469e+01 1.503035873174667358e-01 7.394269943237304688e+00 2.263372182846069336e+00 1.504119485616683960e-01
3.371000000000000000e+03 3.336604595184326172e+00 2.634164428710937500e+01 4.089657159056514502e-05 4.858881584368646145e-04 1.580354146426543593e-04 -1.148286319221369922e-04
3.372000000000000000e+03 4.341485977172851562e+00 2.941249275207519531e+01 -4.244695446686819196e-05 5.404651747085154057e-04 1.494054595241323113e-04 -1.653587823966518044e-04
3.373000000000000000e+03 7.254382324218750000e+01 1.739770317077636719e+01 7.102327048778533936e-02 9.202563285827636719e+00 2.782075881958007812e+00 2.392622269690036774e-02
3.374000000000000000e+03 7.682205200195312500e+01 2.007157516479492188e+01 7.105236500501632690e-02 7.178046226501464844e+00 2.174729585647583008e+00 3.554800897836685181e-02
3.375000000000000000e+03 7.675221252441406250e+01 2.708875465393066406e+01 1.388563960790634155e-01 7.312057495117187500e+00 2.235274076461791992e+00 5.147181749343872070e-01
3.376000000000000000e+03 7.635649108886718750e+01 2.789092636108398438e+01 1.181292012333869934e-01 7.390339374542236328e+00 2.252540588378906250e+00 5.829527378082275391e-01
3.377000000000000000e+03 7.602516937255859375e+01 -1.096881866455078125e+01 -9.494625777006149292e-02 7.597127914428710938e+00 2.250654458999633789e+00 -5.510411858558654785e-01
3.378000000000000000e+03 7.594217681884765625e+01 -1.006111049652099609e+01 -9.495245665311813354e-02 7.535941600799560547e+00 2.232296705245971680e+00 -5.762120485305786133e-01
3.379000000000000000e+03 7.620210266113281250e+01 -1.402799987792968750e+01 -1.994289606809616089e-01 7.812108039855957031e+00 2.283803701400756836e+00 -4.286736547946929932e-01
3.380000000000000000e+03 4.583539581298828125e+01 -1.325049042701721191e+00 8.780130156083032489e-05 3.926294448319822550e-05 3.811927308561280370e-05 6.156168819870799780e-05
3.381000000000000000e+03 4.485005187988281250e+01 -1.007200479507446289e+00 7.317780546145513654e-05 5.074337968835607171e-05 3.717635627253912389e-05 5.926937228650785983e-05
3.382000000000000000e+03 7.611314392089843750e+01 -1.485478973388671875e+01 -2.126693576574325562e-01 7.856030941009521484e+00 2.293008327484130859e+00 -3.791636526584625244e-01
3.383000000000000000e+03 7.684663391113281250e+01 -1.402988719940185547e+01 -1.540517956018447876e-01 8.161122322082519531e+00 2.402121305465698242e+00 -3.718810379505157471e-01
3.384000000000000000e+03 7.701429748535156250e+01 -2.097810935974121094e+01 -2.180564701557159424e-01 8.598261833190917969e+00 2.514061689376831055e+00 5.750849246978759766e-01
3.385000000000000000e+03 7.683046722412109375e+01 -1.248700141906738281e+01 -7.883651554584503174e-02 8.025971412658691406e+00 2.384140491485595703e+00 -4.446967542171478271e-01
3.386000000000000000e+03 7.537243652343750000e+01 -1.197960472106933594e+01 -1.255667805671691895e-01 7.354622364044189453e+00 2.168716669082641602e+00 -5.411741137504577637e-01
3.387000000000000000e+03 7.610063934326171875e+01 -1.743316459655761719e+01 -4.077398478984832764e-01 8.128196716308593750e+00 2.316137075424194336e+00 -8.970014750957489014e-02
3.388000000000000000e+03 7.680368041992187500e+01 1.927968025207519531e+01 5.777488648891448975e-02 7.188619613647460938e+00 2.173918485641479492e+00 1.058811694383621216e-02
3.389000000000000000e+03 7.395145416259765625e+01 1.404857349395751953e+01 -1.003211140632629395e-01 8.527406692504882812e+00 2.528125762939453125e+00 -1.019196063280105591e-01
3.390000000000000000e+03 7.677763366699218750e+01 1.688007926940917969e+01 1.399555988609790802e-02 7.206624507904052734e+00 2.166186094284057617e+00 -2.984961122274398804e-02
3.391000000000000000e+03 7.253531646728515625e+01 1.657891464233398438e+01 8.379632979631423950e-02 9.165736198425292969e+00 2.774859666824340820e+00 1.301420014351606369e-02
3.392000000000000000e+03 7.325164031982421875e+01 1.737143516540527344e+01 7.164362072944641113e-02 8.847689628601074219e+00 2.675799846649169922e+00 -2.161056501790881157e-03
3.393000000000000000e+03 7.664576721191406250e+01 -1.763259887695312500e+01 -3.324190378189086914e-01 8.374868392944335938e+00 2.412734746932983398e+00 -8.074332028627395630e-03
3.394000000000000000e+03 7.691934204101562500e+01 -3.567652702331542969e+00 1.759431324899196625e-02 7.374869823455810547e+00 2.217739105224609375e+00 -6.700140833854675293e-01
3.395000000000000000e+03 7.681017303466796875e+01 -2.790344953536987305e+00 5.306035652756690979e-02 7.339690685272216797e+00 2.217825412750244141e+00 -6.671615242958068848e-01
3.396000000000000000e+03 7.688500976562500000e+01 -5.892612934112548828e+00 -3.923289850354194641e-02 7.554074287414550781e+00 2.254452466964721680e+00 -6.534304022789001465e-01
3.397000000000000000e+03 7.602615356445312500e+01 1.291370582580566406e+01 -1.165491342544555664e-01 7.620252132415771484e+00 2.251111030578613281e+00 1.593754254281520844e-02
3.398000000000000000e+03 7.577163696289062500e+01 -2.203044128417968750e+01 -1.866138428449630737e-01 8.494384765625000000e+00 2.492331266403198242e+00 7.078838944435119629e-01
3.399000000000000000e+03 7.418697357177734375e+01 -3.546234130859375000e+00 4.727345705032348633e-02 7.691825389862060547e+00 2.321729660034179688e+00 -5.889476537704467773e-01
3.400000000000000000e+03 7.622266387939453125e+01 1.044073295593261719e+01 -1.060871109366416931e-01 7.529656887054443359e+00 2.227071046829223633e+00 1.539214551448822021e-01
3.401000000000000000e+03 7.663173675537109375e+01 7.058916091918945312e+00 9.730783104896545410e-02 7.206079006195068359e+00 2.191015958786010742e+00 1.547357738018035889e-01
3.402000000000000000e+03 7.531064605712890625e+01 5.348877906799316406e+00 2.948168516159057617e-01 7.962203025817871094e+00 2.477106094360351562e+00 6.204152852296829224e-02
3.403000000000000000e+03 7.606069946289062500e+01 1.376255226135253906e+01 -8.415005356073379517e-02 7.574004173278808594e+00 2.246956348419189453e+00 -1.774169877171516418e-02
3.404000000000000000e+03 7.492540740966796875e+01 3.888669967651367188e+00 3.957177102565765381e-01 8.153631210327148438e+00 2.564804553985595703e+00 -5.525601655244827271e-02
3.405000000000000000e+03 7.271972656250000000e+01 2.626929759979248047e+00 6.127637624740600586e-01 9.510390281677246094e+00 3.036946296691894531e+00 9.673092514276504517e-02
3.406000000000000000e+03 7.666058349609375000e+01 7.884170532226562500e+00 4.703552648425102234e-02 7.224285125732421875e+00 2.181396245956420898e+00 1.937388330698013306e-01
3.407000000000000000e+03 7.684587860107421875e+01 1.036434745788574219e+01 -7.402024418115615845e-02 7.202366352081298828e+00 2.138503789901733398e+00 1.503340750932693481e-01
3.408000000000000000e+03 7.531725311279296875e+01 7.127715587615966797e+00 1.628325730562210083e-01 7.980364322662353516e+00 2.442959070205688477e+00 1.836576014757156372e-01
3.409000000000000000e+03 7.334144592285156250e+01 2.233862113952636719e+01 2.911308705806732178e-01 8.678602218627929688e+00 2.690919876098632812e+00 -4.218169674277305603e-02
3.410000000000000000e+03 7.599359130859375000e+01 8.975702285766601562e+00 -2.807312831282615662e-02 7.613957881927490234e+00 2.275765419006347656e+00 2.003371715545654297e-01
3.411000000000000000e+03 7.385061645507812500e+01 -2.730093002319335938e+01 1.209718227386474609e+00 9.265892982482910156e+00 3.142683506011962891e+00 2.229081280529499054e-02
3.412000000000000000e+03 7.473691558837890625e+01 -2.626702690124511719e+01 1.054031491279602051e+00 8.768351554870605469e+00 2.946714878082275391e+00 1.719085127115249634e-01
3.413000000000000000e+03 7.498699951171875000e+01 1.258602428436279297e+01 -1.865830868482589722e-01 8.129509925842285156e+00 2.382878065109252930e+00 -5.905159050598740578e-04
3.414000000000000000e+03 7.618423461914062500e+01 1.120677471160888672e+01 -1.293373405933380127e-01 7.546033859252929688e+00 2.225008964538574219e+00 1.111265048384666443e-01
3.415000000000000000e+03 7.346631622314453125e+01 3.397160768508911133e+00 5.308220386505126953e-01 9.070549011230468750e+00 2.880411386489868164e+00 7.486800663173198700e-03
3.416000000000000000e+03 7.630042266845703125e+01 4.359682559967041016e+00 2.370073348283767700e-01 7.347495555877685547e+00 2.275350809097290039e+00 -5.089865624904632568e-02
3.417000000000000000e+03 7.696951293945312500e+01 -1.853933334350585938e+01 -3.142406344413757324e-01 8.574903488159179688e+00 2.478198766708374023e+00 1.665641367435455322e-01
3.418000000000000000e+03 7.616915130615234375e+01 -2.144334602355957031e+01 -2.554759979248046875e-01 8.476055145263671875e+00 2.466173887252807617e+00 6.475580930709838867e-01
3.419000000000000000e+03 7.582896423339843750e+01 -2.042800712585449219e+01 -4.815949797630310059e-01 8.385656356811523438e+00 2.371218442916870117e+00 4.513444900512695312e-01
3.420000000000000000e+03 7.711820983886718750e+01 -2.030806159973144531e+01 -2.476573139429092407e-01 8.658042907714843750e+00 2.523115634918212891e+00 4.775989651679992676e-01
3.421000000000000000e+03 7.663224029541015625e+01 -2.013825035095214844e+01 -3.580420017242431641e-01 8.518920898437500000e+00 2.448263645172119141e+00 4.471898674964904785e-01
3.422000000000000000e+03 7.627455139160156250e+01 1.135078191757202148e+00 2.574268579483032227e-01 7.350893497467041016e+00 2.282496213912963867e+00 -4.059733152389526367e-01
3.423000000000000000e+03 7.622367858886718750e+01 4.865759611129760742e-01 2.555778622627258301e-01 7.388903617858886719e+00 2.293344497680664062e+00 -4.779889583587646484e-01
3.424000000000000000e+03 7.147183227539062500e+01 -1.766551971435546875e+00 3.081955611705780029e-01 8.706204414367675781e+00 2.704320192337036133e+00 2.982927262783050537e-01
3.425000000000000000e+03 7.552936553955078125e+01 -3.396620750427246094e-01 2.643051445484161377e-01 7.640862941741943359e+00 2.371550559997558594e+00 -5.500296354293823242e-01
3.426000000000000000e+03 7.597364807128906250e+01 -8.861545920372009277e-01 1.923296302556991577e-01 7.477647304534912109e+00 2.300992965698242188e+00 -6.007878780364990234e-01
3.427000000000000000e+03 7.549665832519531250e+01 -1.584694480895996094e+01 -3.487907052040100098e-01 7.650722980499267578e+00 2.190579652786254883e+00 -3.480051159858703613e-01
3.428000000000000000e+03 7.559930419921875000e+01 2.959325599670410156e+01 4.976785182952880859e-02 7.485204219818115234e+00 2.260491609573364258e+00 6.765975952148437500e-01
3.429000000000000000e+03 7.403758239746093750e+01 2.141007804870605469e+01 2.120301574468612671e-01 8.414417266845703125e+00 2.587934255599975586e+00 1.082629547454416752e-03
3.430000000000000000e+03 7.617362976074218750e+01 -1.663030242919921875e+01 -3.550056815147399902e-01 8.076746940612792969e+00 2.316522359848022461e+00 -1.954133361577987671e-01
3.431000000000000000e+03 7.459330749511718750e+01 -1.965502548217773438e+01 -8.143596053123474121e-01 7.915315628051757812e+00 2.130286931991577148e+00 4.095581173896789551e-02
3.432000000000000000e+03 7.187641906738281250e+01 -2.908929347991943359e+00 1.465614587068557739e-01 8.056406021118164062e+00 2.460890293121337891e+00 6.564310193061828613e-02
3.433000000000000000e+03 7.612222290039062500e+01 2.020914840698242188e+01 9.813953191041946411e-02 7.494822502136230469e+00 2.277888536453247070e+00 3.336495906114578247e-02
3.434000000000000000e+03 7.622190093994140625e+01 -6.667289733886718750e+00 -7.096592336893081665e-02 7.538514614105224609e+00 2.240264654159545898e+00 -6.693860888481140137e-01
3.435000000000000000e+03 7.621878051757812500e+01 -7.435947895050048828e+00 -7.502499967813491821e-02 7.554005146026611328e+00 2.243694067001342773e+00 -6.472715735435485840e-01
3.436000000000000000e+03 7.217205047607421875e+01 2.671084594726562500e+01 5.670958757400512695e-01 8.378376007080078125e+00 2.683641672134399414e+00 -1.488151680678129196e-02
3.437000000000000000e+03 7.612345123291015625e+01 -8.238805770874023438e+00 -8.562966436147689819e-02 7.553745746612548828e+00 2.240434885025024414e+00 -6.284875869750976562e-01
3.438000000000000000e+03 7.671263122558593750e+01 -3.204753112792968750e+01 -1.073005497455596924e-01 8.377073287963867188e+00 2.480931997299194336e+00 -6.091406345367431641e-01
3.439000000000000000e+03 3.358670473098754883e+00 2.554364585876464844e+01 -4.194225039100274444e-05 4.835664294660091400e-04 1.324872573604807258e-04 -1.449237461201846600e-04
3.440000000000000000e+03 7.617558288574218750e+01 2.736629295349121094e+01 1.669240444898605347e-01 7.407264232635498047e+00 2.272256374359130859e+00 5.555863380432128906e-01
3.441000000000000000e+03 3.216784238815307617e+00 1.430472278594970703e+01 -1.474187411076854914e-05 1.610102481208741665e-04 4.388051456771790981e-05 -7.527954585384577513e-05
3.442000000000000000e+03 3.951071023941040039e+00 1.576645755767822266e+01 4.433483627508394420e-05 1.746315101627260447e-04 6.568990647792816162e-05 -1.047845144057646394e-04
3.443000000000000000e+03 3.457371473312377930e+00 5.537797927856445312e+00 2.110299283231142908e-05 2.964330451504793018e-05 1.522388902230886742e-05 -2.931462404376361519e-05
3.444000000000000000e+03 3.244020462036132812e+00 2.068792152404785156e+01 -3.653430030681192875e-05 3.335132205393165350e-04 8.909367170417681336e-05 -1.183908243547193706e-04
3.445000000000000000e+03 3.962157964706420898e+00 2.132044601440429688e+01 -3.975425715907476842e-05 3.383359289728105068e-04 8.957450336311012506e-05 -1.445249363314360380e-04
3.446000000000000000e+03 7.476156616210937500e+01 2.849059867858886719e+01 1.796240508556365967e-01 7.551422595977783203e+00 2.319314002990722656e+00 6.030883789062500000e-01
3.447000000000000000e+03 5.504218578338623047e+00 -6.970325469970703125e+00 -2.113726986863184720e-05 -3.606144900913932361e-06 -7.423024726449511945e-06 -1.088024782802676782e-05
3.448000000000000000e+03 3.772706985473632812e+00 3.126388168334960938e+01 1.557601899548899382e-05 6.615200545638799667e-04 2.031288167927414179e-04 -1.437832834199070930e-04
3.449000000000000000e+03 3.232861757278442383e+00 -9.524554252624511719e+00 -3.555492003215476871e-05 -2.828235892593511380e-06 -1.151494689111132175e-05 -9.301021236751694232e-06
3.450000000000000000e+03 3.979125976562500000e+00 -7.857005119323730469e+00 2.796461922116577625e-05 3.064416205234010704e-06 9.308711014455184340e-06 9.146571755991317332e-06
3.451000000000000000e+03 3.203313827514648438e+00 1.350650501251220703e+01 3.341383126098662615e-05 1.391362020513042808e-04 5.176500781089998782e-05 -7.421687041642144322e-05
3.452000000000000000e+03 4.091872692108154297e+00 -5.538842678070068359e+00 -1.810857611417304724e-05 -1.252652850780577864e-06 -5.808368769066873938e-06 -6.711830337735591456e-06
3.453000000000000000e+03 3.224932432174682617e+00 -1.032931613922119141e+01 3.973099228460341692e-05 3.069231070185196586e-06 1.284006702917395160e-05 1.046255056280642748e-05
3.454000000000000000e+03 3.794231414794921875e+00 8.494825363159179688e+00 2.283605317643377930e-05 5.198664803174324334e-05 2.244681127194780856e-05 -4.030507261632010341e-05
3.455000000000000000e+03 3.253200531005859375e+00 -2.645079612731933594e+01 1.643055002205073833e-04 -4.487196747504640371e-06 4.794549022335559130e-05 -1.897961919894441962e-05
3.456000000000000000e+03 5.245669841766357422e+00 -2.204952430725097656e+01 1.039208509610034525e-04 6.121014303062111139e-05 4.953929601470008492e-05 7.960193761391565204e-05
3.457000000000000000e+03 4.619138717651367188e+00 -1.015551280975341797e+01 3.944891432183794677e-05 5.803904514323221520e-06 1.357584551442414522e-05 1.563389196235220879e-05
3.458000000000000000e+03 3.932826519012451172e+00 -9.441939353942871094e+00 3.588842082535848022e-05 4.022797838842961937e-06 1.197336496261414140e-05 1.174507997347973287e-05
3.459000000000000000e+03 3.952599048614501953e+00 -8.646357536315917969e+00 -3.171564458170905709e-05 -3.653794692581868730e-06 -1.061083185049938038e-05 -1.031129977491218597e-05
3.460000000000000000e+03 4.290499210357666016e+00 8.810122489929199219e+00 3.007278064615093172e-05 7.106825796654447913e-05 3.034231122001074255e-05 -7.041583012323826551e-05
3.461000000000000000e+03 3.931026697158813477e+00 -2.152022743225097656e+01 -1.453353179385885596e-04 1.692707337497267872e-05 -3.852247391478158534e-05 -2.937205499620176852e-05
3.462000000000000000e+03 3.958027124404907227e+00 1.737112426757812500e+01 4.973543764208443463e-05 2.080744015984237194e-04 7.734294922556728125e-05 -1.165729481726884842e-04
3.463000000000000000e+03 4.641439914703369141e+00 -2.222122192382812500e+01 -1.785985223250463605e-04 2.265246985189151019e-05 -4.678381810663267970e-05 -4.701498983195051551e-05
3.464000000000000000e+03 3.212413072586059570e+00 -1.836282157897949219e+01 9.385322482557967305e-05 -2.997339379362529144e-06 2.725676495174411684e-05 1.691765100986231118e-05
3.465000000000000000e+03 3.211443662643432617e+00 -1.917704200744628906e+01 -1.036981120705604553e-04 3.844927505269879475e-06 -2.995595423271879554e-05 -1.982795765798073262e-05
3.466000000000000000e+03 5.206063270568847656e+00 -1.655124855041503906e+01 -1.284323225263506174e-04 2.240562571387272328e-05 -3.180800922564230859e-05 -4.351967436377890408e-05
3.467000000000000000e+03 3.216142177581787109e+00 -1.514623641967773438e+01 7.314234972000122070e-05 2.588255711089004762e-06 2.271918128826655447e-05 1.912887455546297133e-05
3.468000000000000000e+03 3.923078536987304688e+00 -1.425686168670654297e+01 6.686002598144114017e-05 7.032794655970064923e-06 2.216784560005180538e-05 2.311510070285294205e-05
3.469000000000000000e+03 4.786058902740478516e+00 -2.307747840881347656e+01 1.475937460782006383e-04 1.314396922680316493e-05 4.822131450055167079e-05 3.836413088720291853e-05
3.470000000000000000e+03 3.234485626220703125e+00 1.831349372863769531e+01 4.736012488137930632e-05 2.423055411782115698e-04 8.689970127306878567e-05 -1.028114711516536772e-04
3.471000000000000000e+03 4.004837036132812500e+00 2.212487030029296875e+01 6.299909000517800450e-05 3.261364181526005268e-04 1.167406517197377980e-04 -1.348810474155470729e-04
3.472000000000000000e+03 3.963838338851928711e+00 1.496513557434082031e+01 -1.223853269038954750e-05 1.717573468340560794e-04 4.785564306075684726e-05 -9.490145021118223667e-05
3.473000000000000000e+03 3.867057323455810547e+00 1.180306625366210938e+01 -7.867732165323104709e-06 1.115844133892096579e-04 3.111500336672179401e-05 -7.489159179385751486e-05
3.474000000000000000e+03 3.897040367126464844e+00 -1.666189956665039062e+01 -9.952724212780594826e-05 4.762891421705717221e-06 -2.842930553015321493e-05 -2.210530874435789883e-05
3.475000000000000000e+03 3.910869121551513672e+00 -1.586001014709472656e+01 8.979572885436937213e-05 -2.356546019655070268e-06 2.623175350890960544e-05 2.655741627677343786e-05
3.476000000000000000e+03 3.922457933425903320e+00 -1.506042194366455078e+01 -7.707800978096202016e-05 -4.822138180315960199e-06 -2.457004484313074499e-05 -2.648516237968578935e-05
3.477000000000000000e+03 6.663686275482177734e+00 -1.829447937011718750e+01 -5.586665793089196086e-05 -6.649488204857334495e-05 -3.670846126624383032e-05 -5.582698940997943282e-05
3.478000000000000000e+03 3.907400608062744141e+00 -2.072553062438964844e+01 1.155050340457819402e-04 1.867134869826259091e-06 3.521165126585401595e-05 2.066623346763662994e-05
3.479000000000000000e+03 3.883884191513061523e+00 -1.992498016357421875e+01 -1.231488713528960943e-04 4.995337349100736901e-06 -3.544606079231016338e-05 -2.168450373574160039e-05
3.480000000000000000e+03 5.034750461578369141e+00 6.182806015014648438e+00 1.360367241431958973e-05 4.226193777867592871e-05 1.675968269410077482e-05 -5.218454316491261125e-05
3.481000000000000000e+03 3.963320732116699219e+00 1.817234230041503906e+01 -2.440852040308527648e-05 2.515584055799990892e-04 6.814496737206354737e-05 -1.171398835140280426e-04
3.482000000000000000e+03 4.633005142211914062e+00 2.115652847290039062e+01 7.055735477479174733e-05 2.775252796709537506e-04 1.044247837853617966e-04 -1.474855962442234159e-04
3.483000000000000000e+03 3.934035778045654297e+00 -2.562025260925292969e+01 1.435887679690495133e-04 -2.880744432331994176e-06 4.221240669721737504e-05 -2.993723137478809804e-05
3.484000000000000000e+03 3.786964416503906250e+00 9.602060317993164062e+00 2.869571471819654107e-05 7.387821096926927567e-05 3.077217843383550644e-05 -5.757062172051519156e-05
3.485000000000000000e+03 3.631313323974609375e+00 3.517406082153320312e+01 -2.815938751155044883e-05 7.339840522035956383e-04 2.117473923135548830e-04 -7.215544610517099500e-05
3.486000000000000000e+03 3.891189813613891602e+00 3.270141601562500000e+01 -2.442513323330786079e-05 6.769643514417111874e-04 1.957617641892284155e-04 -1.316838606726378202e-04
3.487000000000000000e+03 3.932471275329589844e+00 1.336299705505371094e+01 -7.434507551806746051e-06 1.372741244267672300e-04 3.895188274327665567e-05 -8.432233880739659071e-05
3.488000000000000000e+03 7.431964874267578125e+01 -3.295413589477539062e+01 -4.275747835636138916e-01 7.798660755157470703e+00 2.211325883865356445e+00 -2.671375870704650879e-01
3.489000000000000000e+03 7.569072723388671875e+01 -3.345605850219726562e+01 -3.128352761268615723e-01 8.118149757385253906e+00 2.341594219207763672e+00 -4.447827339172363281e-01
3.490000000000000000e+03 3.939709424972534180e+00 -2.640113449096679688e+01 -1.343058393104001880e-04 8.263837662525475025e-05 -1.550024171592667699e-05 -1.586829239386133850e-05
3.491000000000000000e+03 3.911534786224365234e+00 -1.184452819824218750e+01 -4.948152854922227561e-05 -5.770090865553356707e-06 -1.657548637012951076e-05 -1.595842695678584278e-05
3.492000000000000000e+03 4.060586452484130859e+00 2.623182106018066406e+01 -4.699478449765592813e-05 4.828032979276031256e-04 1.307425554841756821e-04 -1.804534986149519682e-04
3.493000000000000000e+03 3.366293191909790039e+00 2.473626708984375000e+01 4.655525117414072156e-05 4.331510863266885281e-04 1.439118932466953993e-04 -1.193819189211353660e-04
3.494000000000000000e+03 3.993927240371704102e+00 -3.523983383178710938e+01 -1.325108169112354517e-04 6.156531162559986115e-04 1.449426927138119936e-04 5.135365063324570656e-04
3.495000000000000000e+03 5.722805500030517578e+00 -3.272478485107421875e+01 6.171324639581143856e-04 1.384620263706892729e-04 2.266783558297902346e-04 4.986523999832570553e-04
3.496000000000000000e+03 3.811959981918334961e+00 1.030044460296630859e+01 -3.910330178769072518e-06 8.907901792554184794e-05 2.555060746090020984e-05 -6.326832954073324800e-05
3.497000000000000000e+03 3.919013977050781250e+00 -1.345217704772949219e+01 -6.030971053405664861e-05 -7.456416369677754119e-06 -2.032983866229187697e-05 -1.993510340980719775e-05
3.498000000000000000e+03 3.912792444229125977e+00 -1.104390048980712891e+01 4.495128450798802078e-05 4.722211542684817687e-06 1.490204795118188486e-05 1.450686886528274044e-05
3.499000000000000000e+03 7.326840209960937500e+01 1.899858665466308594e+01 8.720961958169937134e-02 8.862545967102050781e+00 2.684926748275756836e+00 -8.762226440012454987e-03
3.500000000000000000e+03 7.255149841308593750e+01 1.820870399475097656e+01 6.561677157878875732e-02 9.215070724487304688e+00 2.784206390380859375e+00 8.764276280999183655e-03
3.501000000000000000e+03 7.607745361328125000e+01 1.781251144409179688e+01 4.160910472273826599e-02 7.528958320617675781e+00 2.271170139312744141e+00 -1.883595809340476990e-02
3.502000000000000000e+03 3.948446035385131836e+00 1.656840515136718750e+01 -1.749183320498559624e-05 2.083663421217352152e-04 5.726235394831746817e-05 -1.053516971296630800e-04
3.503000000000000000e+03 7.329646301269531250e+01 2.062594604492187500e+01 1.564539968967437744e-01 8.818490982055664062e+00 2.692483425140380859e+00 -3.444477543234825134e-02
3.504000000000000000e+03 7.578779602050781250e+01 3.399496078491210938e+01 -2.092675119638442993e-01 7.507670879364013672e+00 2.189521074295043945e+00 4.916423857212066650e-01
3.505000000000000000e+03 7.607091522216796875e+01 1.700873184204101562e+01 2.708279713988304138e-02 7.531109333038330078e+00 2.267457485198974609e+00 -3.082783520221710205e-02
3.506000000000000000e+03 7.323357391357421875e+01 1.490851783752441406e+01 5.189655930735170841e-04 8.806297302246093750e+00 2.642044782638549805e+00 -8.909375220537185669e-02
3.507000000000000000e+03 4.902607440948486328e+00 2.353030014038085938e+01 -5.562148362514562905e-05 3.765007713809609413e-04 9.626378596294671297e-05 -1.841031044023111463e-04
3.508000000000000000e+03 4.120452404022216797e+00 2.374938964843750000e+01 5.762638102169148624e-05 3.738436207640916109e-04 1.294410030823200941e-04 -1.386008225381374359e-04
3.509000000000000000e+03 6.669816493988037109e+00 -3.244991302490234375e+01 2.908997703343629837e-04 2.303887304151430726e-04 1.563865516800433397e-04 4.849512188229709864e-04
3.510000000000000000e+03 7.454595184326171875e+01 -3.038431358337402344e+01 1.784688979387283325e-01 8.378655433654785156e+00 2.567137241363525391e+00 -5.181244611740112305e-01
3.511000000000000000e+03 7.118227386474609375e+01 -4.527018070220947266e+00 5.016019195318222046e-02 7.271425724029541016e+00 2.196475744247436523e+00 2.881523966789245605e-01
3.512000000000000000e+03 6.798542785644531250e+01 -1.140855789184570312e+01 3.155986964702606201e-01 3.392515182495117188e+00 1.112434148788452148e+00 5.059882402420043945e-01
3.513000000000000000e+03 4.908481597900390625e+00 -4.751815319061279297e+00 -1.425935988663695753e-05 -1.814465576899237931e-06 -4.822147730010328814e-06 -7.251983788592042401e-06
3.514000000000000000e+03 3.622648239135742188e+01 -1.572555446624755859e+01 -1.526342930446844548e-05 -7.755165825074072927e-06 -6.905578629812225699e-06 -4.089307822141563520e-06
3.515000000000000000e+03 3.475286865234375000e+01 -1.499702548980712891e+01 -1.910124956339132041e-05 -1.722657998470822349e-06 -6.247172223083907738e-06 -7.044116046017734334e-07
3.516000000000000000e+03 6.326005935668945312e+00 -5.414510726928710938e+00 1.270150369236944243e-05 4.581268967740470544e-06 5.184831934457179159e-06 1.064201478584436700e-05
3.517000000000000000e+03 6.518215179443359375e+01 -1.789727592468261719e+01 4.645317047834396362e-02 8.187767863273620605e-01 2.595689892768859863e-01 6.390050053596496582e-01
3.518000000000000000e+03 6.466687774658203125e+01 -1.837227821350097656e+01 -1.092821359634399414e-01 7.647804021835327148e-01 1.966494768857955933e-01 6.943966150283813477e-01
3.519000000000000000e+03 4.011569023132324219e+00 -7.074932575225830078e+00 -2.437741568428464234e-05 -2.321825149920186959e-06 -8.009772500372491777e-06 -8.010174497030675411e-06
3.520000000000000000e+03 7.429457092285156250e+01 3.219315719604492188e+01 -2.272611409425735474e-01 7.277230262756347656e+00 2.114990711212158203e+00 5.495963692665100098e-01
3.521000000000000000e+03 4.677919006347656250e+01 -7.625575542449951172e+00 -4.180585165158845484e-05 -3.131732228212058544e-05 -2.193695218011271209e-05 -2.992378176713827997e-05
3.522000000000000000e+03 6.462080478668212891e+00 3.109709548950195312e+01 -5.602789678960107267e-05 4.981425008736550808e-04 1.326343772234395146e-04 -2.106447500409558415e-04
3.523000000000000000e+03 4.806012153625488281e+00 -3.376565551757812500e+01 3.458916035015136003e-04 3.158330800943076611e-04 1.985174021683633327e-04 4.712609224952757359e-04
3.524000000000000000e+03 4.645184040069580078e+00 -3.469617462158203125e+01 1.325911289313808084e-04 5.133837694302201271e-04 1.937924680532887578e-04 6.959581514820456505e-04
3.525000000000000000e+03 7.345577239990234375e+01 -2.546855926513671875e+01 1.237257361412048340e+00 9.497347831726074219e+00 3.220381736755371094e+00 1.726264655590057373e-01
3.526000000000000000e+03 1.653403854370117188e+01 3.738686561584472656e+00 8.475477807223796844e-05 -2.489877442712895572e-05 1.795680145733058453e-05 -3.366967212059535086e-05
3.527000000000000000e+03 8.188164710998535156e+00 -6.043836593627929688e+00 1.422011519025545567e-05 6.712201411573914811e-06 6.279694844124605879e-06 6.725917955918703228e-06
3.528000000000000000e+03 7.566466522216796875e+01 -2.828491210937500000e+01 6.773724555969238281e-01 8.415194511413574219e+00 2.727770090103149414e+00 -3.538106083869934082e-01
3.529000000000000000e+03 4.060631179809570312e+01 1.683904457092285156e+01 -3.749671668629162014e-05 4.781798343174159527e-04 1.322049356531351805e-04 4.902845248579978943e-04
3.530000000000000000e+03 7.265067291259765625e+01 1.763860940933227539e+00 6.756918430328369141e-01 9.379359245300292969e+00 3.016515254974365234e+00 4.896899685263633728e-02
3.531000000000000000e+03 7.622074890136718750e+01 3.605376958847045898e+00 2.787494063377380371e-01 7.393728256225585938e+00 2.301743268966674805e+00 -1.254604905843734741e-01
3.532000000000000000e+03 4.534933090209960938e+01 -1.571990585327148438e+01 -2.930212986029800959e-06 -1.088695807993644848e-05 -4.145151251577772200e-06 -9.842496183409821242e-06
3.533000000000000000e+03 4.292088699340820312e+01 -1.623504257202148438e+01 -8.662807886139489710e-06 -6.935284545761533082e-06 -4.679428002418717369e-06 -8.607239578850567341e-06
3.534000000000000000e+03 6.999625396728515625e+01 -1.963585281372070312e+01 -9.853664636611938477e-01 3.268714189529418945e+00 6.850042939186096191e-01 -1.451742410659790039e+00
3.535000000000000000e+03 6.714311218261718750e+01 -1.678927230834960938e+01 3.107637763023376465e-01 1.503330230712890625e+00 5.442281961441040039e-01 8.554752916097640991e-02
3.536000000000000000e+03 7.015062713623046875e+01 -8.450999259948730469e+00 -1.039283163845539093e-02 5.438044071197509766e+00 1.628295421600341797e+00 3.148429393768310547e-01
3.537000000000000000e+03 3.960024261474609375e+01 1.506610584259033203e+01 5.489686736837029457e-04 3.541016776580363512e-04 2.709210966713726521e-04 3.365399024914950132e-04
3.538000000000000000e+03 7.603731536865234375e+01 2.381290626525878906e+01 2.265032678842544556e-01 7.470557689666748047e+00 2.309118270874023438e+00 2.401674836874008179e-01
3.539000000000000000e+03 6.951190948486328125e+01 -1.027900600433349609e+01 9.033658355474472046e-02 4.586846351623535156e+00 1.403154850006103516e+00 2.948172688484191895e-01
3.540000000000000000e+03 7.356925201416015625e+01 -2.683807182312011719e+01 1.245102167129516602e+00 9.493023872375488281e+00 3.221437931060791016e+00 9.600311517715454102e-02
3.541000000000000000e+03 1.767662811279296875e+01 2.199370861053466797e+00 1.323385804425925016e-04 -8.905075446818955243e-06 3.703005131683312356e-05 -3.979810207965783775e-05
3.542000000000000000e+03 4.721836471557617188e+01 -9.009191513061523438e+00 -3.879527139361016452e-05 -2.290569864271674305e-05 -1.851029082899913192e-05 -2.390201552771031857e-05
3.543000000000000000e+03 4.739785385131835938e+01 -9.686619758605957031e+00 4.073580930707976222e-05 7.112627827154938132e-06 1.435453123121988028e-05 1.457083271816372871e-05
3.544000000000000000e+03 7.250794982910156250e+01 1.411523818969726562e+01 -4.398907721042633057e-02 9.099594116210937500e+00 2.716681480407714844e+00 -1.445221751928329468e-01
3.545000000000000000e+03 7.323276519775390625e+01 1.409449195861816406e+01 -7.929743081331253052e-02 8.809538841247558594e+00 2.619072675704956055e+00 -1.157536357641220093e-01
3.546000000000000000e+03 7.248665618896484375e+01 -9.908862113952636719e-01 4.090795814990997314e-01 8.675181388854980469e+00 2.725278377532958984e+00 -1.319988816976547241e-01
3.547000000000000000e+03 2.636303329467773438e+01 -6.463237285614013672e+00 1.522151251265313476e-05 1.613097083463799208e-05 9.405745004187338054e-06 2.309262896460495540e-07
3.548000000000000000e+03 2.485277175903320312e+01 -4.350276470184326172e+00 4.278664710000157356e-05 -3.067935540457256138e-05 3.632186917457147501e-06 7.063013072183821350e-06
3.549000000000000000e+03 3.979385757446289062e+01 1.684662437438964844e+01 7.043281220830976963e-04 4.595438658725470304e-04 3.491615934763103724e-04 4.563160764519125223e-04
3.550000000000000000e+03 4.511007690429687500e+01 -2.589590072631835938e+01 -8.160864561796188354e-02 -5.069028735160827637e-01 -1.765534579753875732e-01 -6.323698759078979492e-01
3.551000000000000000e+03 4.480602264404296875e+01 -2.678663253784179688e+01 -1.127733439207077026e-01 -5.594430565834045410e-01 -2.016649097204208374e-01 -5.813232064247131348e-01
3.552000000000000000e+03 4.471522140502929688e+01 -2.619898986816406250e+01 -7.945739477872848511e-02 -5.809388160705566406e-01 -1.981188654899597168e-01 -5.831497907638549805e-01
3.553000000000000000e+03 4.752949905395507812e+01 -1.036012077331542969e+01 -3.677962013171054423e-05 -1.271801738766953349e-05 -1.484929180151084438e-05 -1.811508809623774141e-05
3.554000000000000000e+03 4.176301956176757812e+01 -1.636567497253417969e+01 -9.450312063563615084e-06 -7.094414741004584357e-06 -4.963418177794665098e-06 -6.072159067116444930e-06
3.555000000000000000e+03 4.296042251586914062e+01 -1.694330215454101562e+01 -1.231892365893827446e-08 8.585645446146372706e-06 2.571998038547462784e-06 2.403377948212437332e-06
3.556000000000000000e+03 3.956068801879882812e+01 2.122682952880859375e+01 1.197157427668571472e-03 2.612950629554688931e-04 4.375357530079782009e-04 8.076957310549914837e-04
3.557000000000000000e+03 4.087404632568359375e+01 2.326536941528320312e+01 8.912885678000748158e-04 8.863475522957742214e-05 2.939770056400448084e-04 9.130381513386964798e-04
3.558000000000000000e+03 7.306125640869140625e+01 6.118632316589355469e+00 3.844536542892456055e-01 9.366746902465820312e+00 2.925359964370727539e+00 4.705374687910079956e-02
3.559000000000000000e+03 7.371899414062500000e+01 5.074384212493896484e+00 4.205144047737121582e-01 8.978605270385742188e+00 2.819735765457153320e+00 3.983497619628906250e-02
3.560000000000000000e+03 2.249404907226562500e+01 -1.681723833084106445e+00 6.951574323466047645e-05 -4.015400918433442712e-05 8.808519851299934089e-06 9.483434951107483357e-06
3.561000000000000000e+03 2.267545700073242188e+01 -2.872359991073608398e+00 5.853243055753409863e-05 -3.450912481639534235e-05 7.206992449937388301e-06 6.577578915312187746e-06
3.562000000000000000e+03 2.120088195800781250e+01 -4.659723937511444092e-01 7.917395123513415456e-05 -4.066602923558093607e-05 1.155237532657338306e-05 7.342912795138545334e-06
3.563000000000000000e+03 1.692659378051757812e+01 2.662117481231689453e+00 8.556592365493997931e-05 -2.184151526307687163e-05 1.911732215376105160e-05 -2.369500907661858946e-05
3.564000000000000000e+03 7.217570495605468750e+01 -4.094181060791015625e+00 2.912869490683078766e-02 7.599323272705078125e+00 2.288535594940185547e+00 -8.748223632574081421e-02
3.565000000000000000e+03 7.151956939697265625e+01 -3.738106489181518555e+00 8.327143639326095581e-02 7.695044517517089844e+00 2.333494663238525391e+00 1.942104548215866089e-01
3.566000000000000000e+03 6.393797874450683594e+00 -1.931850433349609375e+01 -9.973946725949645042e-05 -6.399799895007163286e-05 -4.912123768008314073e-05 -3.126419323962181807e-05
3.567000000000000000e+03 2.843411636352539062e+01 -9.782251358032226562e+00 2.190721033912268467e-06 -1.018924922391306609e-05 -2.399558297838666476e-06 1.668521804276679177e-06
3.568000000000000000e+03 2.947924423217773438e+01 -1.398417472839355469e+01 -1.388362034049350768e-05 -9.236984624294564128e-06 -6.936181762284832075e-06 3.131219273200258613e-06
3.569000000000000000e+03 3.141682434082031250e+01 -1.440714931488037109e+01 -5.178975470698787831e-07 1.146885369962546974e-05 3.285286993559566326e-06 7.695440217503346503e-06
3.570000000000000000e+03 6.495775604248046875e+01 -1.888134574890136719e+01 -3.573977053165435791e-01 6.885672211647033691e-01 9.935086220502853394e-02 7.010293602943420410e-01
3.571000000000000000e+03 3.936629486083984375e+01 1.946892738342285156e+01 1.012935303151607513e-03 3.972125414293259382e-04 4.230443446431308985e-04 6.916351849213242531e-04
3.572000000000000000e+03 3.817184829711914062e+01 1.775064277648925781e+01 3.909980587195605040e-04 3.888660285156220198e-05 1.289654028369113803e-04 6.405247258953750134e-04
3.573000000000000000e+03 4.598639297485351562e+01 -1.546056079864501953e+01 3.304344545540516265e-06 7.784374247421510518e-06 3.326615569676505402e-06 5.425489689514506608e-06
3.574000000000000000e+03 7.047589111328125000e+01 -7.803149223327636719e+00 -4.042438417673110962e-02 5.791089057922363281e+00 1.725199341773986816e+00 2.737468481063842773e-01
3.575000000000000000e+03 6.985947418212890625e+01 -7.494496345520019531e+00 2.356338500976562500e-02 5.565456390380859375e+00 1.676705956459045410e+00 5.013259053230285645e-01
3.576000000000000000e+03 6.978481292724609375e+01 3.334197616577148438e+01 -5.249789953231811523e-01 5.395585536956787109e+00 1.461181998252868652e+00 -4.744990468025207520e-01
3.577000000000000000e+03 7.079055023193359375e+01 3.481876373291015625e+01 -5.553938746452331543e-01 5.604532718658447266e+00 1.514741659164428711e+00 -2.566024959087371826e-01
3.578000000000000000e+03 4.165515899658203125e+01 2.681719589233398438e+01 2.062917686998844147e-03 -7.977161440066993237e-04 3.795604570768773556e-04 1.026300597004592419e-03
3.579000000000000000e+03 4.046926498413085938e+01 5.756277084350585938e+00 -9.600484190741553903e-05 8.701014303369447589e-05 -2.698410753509961069e-06 -4.799803355126641691e-05
3.580000000000000000e+03 4.363095092773437500e+01 -1.544760799407958984e+01 -1.336699097009841353e-05 -1.058623411154258065e-06 -4.327684109739493579e-06 -5.926625362917548046e-06
3.581000000000000000e+03 6.622476196289062500e+01 -1.653602790832519531e+01 4.020723998546600342e-01 1.244415998458862305e+00 4.939465224742889404e-01 3.999026715755462646e-01
3.582000000000000000e+03 7.022084236145019531e+00 -5.375686645507812500e+00 -1.049317597789922729e-05 -6.384860625985311344e-06 -5.063411208539037034e-06 -9.958686860045418143e-06
3.583000000000000000e+03 3.948851013183593750e+01 2.033829116821289062e+01 7.367943180724978447e-04 1.803378108888864517e-04 2.751396386884152889e-04 7.479849155060946941e-04
3.584000000000000000e+03 6.772634887695312500e+01 -1.636349105834960938e+01 2.902303934097290039e-01 1.991214394569396973e+00 6.844334602355957031e-01 -7.692103087902069092e-02
3.585000000000000000e+03 7.066583251953125000e+01 -1.974085426330566406e+01 -1.294676661491394043e+00 4.445872306823730469e+00 9.453586339950561523e-01 -1.467757105827331543e+00
3.586000000000000000e+03 7.085119628906250000e+01 -5.298993110656738281e+00 2.280478738248348236e-02 6.854521274566650391e+00 2.063197851181030273e+00 3.560452163219451904e-01
3.587000000000000000e+03 3.873061370849609375e+01 1.408192062377929688e+01 4.981590900570154190e-04 2.397037751507014036e-04 2.213588595623150468e-04 2.982563455589115620e-04
3.588000000000000000e+03 7.616366577148437500e+01 -2.334756278991699219e+01 1.786042600870132446e-01 8.454030990600585938e+00 2.589790582656860352e+00 7.404883503913879395e-01
3.589000000000000000e+03 1.067838478088378906e+01 -1.359332942962646484e+01 4.776455170940607786e-05 3.840405042865313590e-05 2.585057882242836058e-05 -1.735521618684288114e-05
3.590000000000000000e+03 5.675313472747802734e+00 -1.717578315734863281e+01 -1.149102536146529019e-04 1.707482988422270864e-05 -2.935062730102799833e-05 4.478559105791646289e-07
3.591000000000000000e+03 9.425013542175292969e+00 -1.470389842987060547e+01 -5.253494964563287795e-05 -3.089103120146319270e-05 -2.502779352653305978e-05 -2.163210228900425136e-05
3.592000000000000000e+03 5.620653152465820312e+01 -2.321150207519531250e+01 -2.412047684192657471e-01 1.100258708000183105e+00 2.577161788940429688e-01 4.228405356407165527e-01
3.593000000000000000e+03 4.209639739990234375e+01 2.764452219009399414e+00 -5.411230813479050994e-05 -3.251165253459475935e-05 -2.598718856461346149e-05 -5.578187119681388140e-05
3.594000000000000000e+03 7.152250766754150391e+00 -1.686050415039062500e+01 -5.627838618238456547e-05 6.975884025450795889e-05 4.044135039293905720e-06 1.069852714863372967e-05
3.595000000000000000e+03 7.616758823394775391e+00 -1.737059020996093750e+01 4.049858398502692580e-05 -6.979054160183295608e-05 -8.787586921243928373e-06 -1.468241953261895105e-05
3.596000000000000000e+03 4.007574844360351562e+01 6.563388347625732422e+00 1.430508855264633894e-04 3.252871465520001948e-05 5.267387678031809628e-05 1.152377735706977546e-04
3.597000000000000000e+03 7.255003356933593750e+01 -3.286599636077880859e+00 9.200990200042724609e-02 7.902038574218750000e+00 2.398214578628540039e+00 -1.914207786321640015e-01
3.598000000000000000e+03 6.913506317138671875e+01 -2.017930221557617188e+01 -1.126672267913818359e+00 1.623518228530883789e+00 1.490537673234939575e-01 -1.408999323844909668e+00
3.599000000000000000e+03 3.994882965087890625e+01 2.380780029296875000e+01 2.223232993856072426e-03 3.477807622402906418e-04 7.713041268289089203e-04 8.663065964356064796e-04
3.600000000000000000e+03 7.554773712158203125e+01 -1.946969795227050781e+01 -6.158583760261535645e-01 8.212358474731445312e+00 2.278949975967407227e+00 2.164653986692428589e-01
3.601000000000000000e+03 7.115345001220703125e+01 -6.387842655181884766e+00 -5.797751992940902710e-02 6.555766582489013672e+00 1.949336767196655273e+00 1.520220488309860229e-01
3.602000000000000000e+03 7.149641418457031250e+01 -5.638848781585693359e+00 -4.249330237507820129e-02 6.924102306365966797e+00 2.064482688903808594e+00 8.339519798755645752e-02
3.603000000000000000e+03 6.874300384521484375e+01 -1.081479358673095703e+01 2.098374366760253906e-01 3.949477672576904297e+00 1.247794508934020996e+00 4.206254780292510986e-01
3.604000000000000000e+03 7.071989440917968750e+01 -8.802811622619628906e+00 -5.326534062623977661e-02 5.628604888916015625e+00 1.672601819038391113e+00 1.376981139183044434e-01
3.605000000000000000e+03 3.796025848388671875e+01 1.200121498107910156e+01 -5.002198304282501340e-05 1.841519260779023170e-04 4.023898509331047535e-05 2.352569281356409192e-04
3.606000000000000000e+03 3.956615447998046875e+01 1.231277084350585938e+01 -1.510953879915177822e-04 2.393594622844830155e-04 2.647922337928321213e-05 2.090893540298566222e-04
3.607000000000000000e+03 3.952798461914062500e+01 2.218464660644531250e+01 1.451343297958374023e-03 1.201981503982096910e-04 4.714624374173581600e-04 8.396285702474415302e-04
3.608000000000000000e+03 2.804947280883789062e+01 -9.166104316711425781e+00 9.704187959869159386e-07 1.682849506323691458e-05 5.339674316928721964e-06 6.788069640606408939e-06
3.609000000000000000e+03 2.713039398193359375e+01 -9.015294075012207031e+00 2.209554850196582265e-07 1.483047890360467136e-05 4.515430191531777382e-06 5.913248060096520931e-06
3.610000000000000000e+03 2.150381660461425781e+01 -3.757857131958007812e+01 -5.981573369354009628e-03 -4.115176561754196882e-04 -1.917927409522235394e-03 4.863415844738483429e-03
3.611000000000000000e+03 5.389454269409179688e+01 -2.866534233093261719e+01 1.046718239784240723e+00 1.797647476196289062e+00 8.533096909523010254e-01 2.785798609256744385e-01
3.612000000000000000e+03 7.027989959716796875e+01 3.399311828613281250e+01 -5.614339113235473633e-01 5.532705307006835938e+00 1.491381406784057617e+00 -3.245950341224670410e-01
3.613000000000000000e+03 8.944575309753417969e+00 -3.216517257690429688e+01 1.141023240052163601e-03 1.362344046356156468e-04 3.831773065030574799e-04 9.502545581199228764e-04
3.614000000000000000e+03 2.538091468811035156e+01 -5.049658775329589844e+00 2.879745443351566792e-05 1.342319683317327872e-05 1.266619528905721381e-05 -4.315136266086483374e-06
3.615000000000000000e+03 7.333779144287109375e+01 -2.247054672241210938e+01 -3.319892585277557373e-01 8.525070190429687500e+00 2.457924127578735352e+00 3.475852012634277344e-01
3.616000000000000000e+03 7.259033203125000000e+01 -2.243565177917480469e+01 -4.588219821453094482e-01 8.339039802551269531e+00 2.364065408706665039e+00 3.709651529788970947e-02
3.617000000000000000e+03 7.276850891113281250e+01 7.900839328765869141e+00 1.921096146106719971e-01 9.395618438720703125e+00 2.876318454742431641e+00 1.532360762357711792e-01
3.618000000000000000e+03 7.468146514892578125e+01 7.392874717712402344e+00 1.735271513462066650e-01 8.334865570068359375e+00 2.552517652511596680e+00 2.074701637029647827e-01
3.619000000000000000e+03 6.152958869934082031e+00 -2.473695755004882812e+01 2.192864667449612170e-05 1.771739771356806159e-04 5.973078441456891596e-05 9.847854380495846272e-05
3.620000000000000000e+03 6.559118747711181641e+00 -2.281024551391601562e+01 2.197140202042646706e-05 -1.457082544220611453e-04 -3.712105899467132986e-05 -4.674149386119097471e-05
3.621000000000000000e+03 4.170337677001953125e+01 3.484809875488281250e+00 6.651926378253847361e-05 4.781178358825854957e-05 3.429931530263274908e-05 7.766760973026975989e-05
3.622000000000000000e+03 5.243073654174804688e+01 -2.937487602233886719e+01 9.146057963371276855e-01 1.109954595565795898e+00 6.073681116104125977e-01 1.306980550289154053e-01
3.623000000000000000e+03 8.373983383178710938e+00 5.823783397674560547e+00 3.202187144779600203e-05 2.688582026166841388e-05 1.767230787663720548e-05 -5.439034066512249410e-05
3.624000000000000000e+03 1.841577339172363281e+01 1.711649656295776367e+00 8.712297858437523246e-05 -3.046275196538772434e-05 1.699806853139307350e-05 -9.834535376285202801e-06
3.625000000000000000e+03 2.429801750183105469e+01 -3.661212921142578125e+00 4.687049658969044685e-05 8.747186257096473128e-06 1.668530421738978475e-05 -9.737017535371705890e-06
3.626000000000000000e+03 2.311656188964843750e+01 -2.322898864746093750e+00 6.793068314436823130e-05 2.748189217527396977e-06 2.120366116287186742e-05 -1.548454747535288334e-05
3.627000000000000000e+03 1.408526802062988281e+01 4.362853050231933594e+00 7.277613622136414051e-05 -7.170643129938980564e-06 1.968164724530652165e-05 -4.783064287039451301e-05
3.628000000000000000e+03 1.877321815490722656e+01 5.873989462852478027e-01 8.434304618276655674e-05 -2.738270450208801776e-05 1.708810304990038276e-05 -5.348426384443882853e-06
3.629000000000000000e+03 1.913909912109375000e+01 1.200070023536682129e+00 1.250388595508411527e-04 -1.091753620130475610e-05 3.423639645916409791e-05 -3.353615102241747081e-05
3.630000000000000000e+03 7.534822082519531250e+01 2.461459159851074219e+01 2.833365499973297119e-01 7.630150318145751953e+00 2.374046087265014648e+00 2.892499268054962158e-01
3.631000000000000000e+03 7.602848815917968750e+01 2.462848854064941406e+01 2.390855401754379272e-01 7.458686351776123047e+00 2.309331655502319336e+00 3.139731585979461670e-01
3.632000000000000000e+03 7.226445007324218750e+01 -1.998594045639038086e+00 2.570892274379730225e-01 8.393551826477050781e+00 2.595192193984985352e+00 -7.677980512380599976e-02
3.633000000000000000e+03 4.570726394653320312e+01 -2.612157249450683594e+01 -6.048916280269622803e-02 -4.347997009754180908e-01 -1.485866606235504150e-01 -6.271657347679138184e-01
3.634000000000000000e+03 7.169044494628906250e+00 -2.799207878112792969e+01 3.603641744120977819e-05 1.338402798864990473e-04 5.096300810691900551e-05 -4.077930498169735074e-05
3.635000000000000000e+03 6.955736637115478516e+00 -2.726977348327636719e+01 2.213902480434626341e-04 9.935291745932772756e-05 9.622294601285830140e-05 6.154689617687836289e-05
3.636000000000000000e+03 7.707790374755859375e+00 -2.930235862731933594e+01 4.448272520676255226e-04 1.736133126541972160e-04 1.855321752373129129e-04 2.115195675287395716e-04
3.637000000000000000e+03 5.645427227020263672e+00 -2.898091697692871094e+01 3.361047492944635451e-05 6.280480010900646448e-05 2.892458178394008428e-05 -1.051741855917498469e-05
3.638000000000000000e+03 2.185500526428222656e+01 -1.063810467720031738e+00 9.008560300571843982e-05 -3.316787342555471696e-06 2.603064422146417201e-05 -2.175339977839030325e-05
3.639000000000000000e+03 7.263505554199218750e+01 2.869011116027832031e+01 2.994789183139801025e-01 7.696190834045410156e+00 2.398700952529907227e+00 2.884553074836730957e-01
3.640000000000000000e+03 3.693060684204101562e+01 -1.537820053100585938e+01 -2.118738120771013200e-05 3.616165713538066484e-07 -6.247729743336094543e-06 -1.120137312682345510e-05
3.641000000000000000e+03 3.611463928222656250e+01 -1.408545589447021484e+01 6.222828687896253541e-06 9.633849003876093775e-06 4.757003353006439283e-06 4.001338311354629695e-06
3.642000000000000000e+03 1.578062057495117188e+01 -1.031479549407958984e+01 -1.020845593302510679e-05 -6.093615866120671853e-06 -4.890621312370058149e-06 -9.862028491625096649e-06
3.643000000000000000e+03 1.413170909881591797e+01 -1.036801242828369141e+01 -3.007863961101975292e-05 -1.072733266482828185e-05 -1.224179231940070167e-05 -1.139221058110706508e-05
3.644000000000000000e+03 3.998520278930664062e+01 2.520233535766601562e+01 2.164733828976750374e-03 2.566928160376846790e-04 7.264279993250966072e-04 1.096342224627733231e-03
3.645000000000000000e+03 4.079584884643554688e+01 2.545495414733886719e+01 2.276739338412880898e-03 -3.589723201002925634e-04 5.753301084041595459e-04 9.912070818245410919e-04
3.646000000000000000e+03 6.630083465576171875e+01 3.561134338378906250e+01 -2.698032557964324951e-01 2.089324474334716797e+00 5.458563566207885742e-01 -5.421003103256225586e-01
3.647000000000000000e+03 1.666127204895019531e+01 -3.653306198120117188e+01 -1.328969257883727551e-03 2.756390487775206566e-03 4.282263398636132479e-04 5.129345227032899857e-03
3.648000000000000000e+03 7.286408233642578125e+01 2.679889678955078125e+01 5.072216391563415527e-01 8.121277809143066406e+00 2.588549852371215820e+00 1.806449890136718750e-01
3.649000000000000000e+03 7.299934387207031250e+01 2.590994644165039062e+01 5.318647027015686035e-01 8.277311325073242188e+00 2.642752885818481445e+00 1.250978857278823853e-01
3.650000000000000000e+03 4.824897384643554688e+01 -1.413181686401367188e+01 1.355688982584979385e-05 -4.541228918242268264e-06 2.704698317756992765e-06 1.244998998117807787e-06
3.651000000000000000e+03 3.888123273849487305e+00 -1.829179000854492188e+01 -1.087483615265227854e-04 7.565268788312096149e-06 -3.035492954950314015e-05 -1.955961488420143723e-05
3.652000000000000000e+03 7.159227371215820312e+00 -1.788257217407226562e+01 -1.035172954289009795e-05 8.087039168458431959e-05 2.115559800586197525e-05 3.913004184141755104e-05
3.653000000000000000e+03 1.475462150573730469e+01 3.937308788299560547e+00 1.259455602848902345e-04 8.564524250687099993e-06 4.035302845295518637e-05 -5.852388858329504728e-05
3.654000000000000000e+03 3.877463150024414062e+01 1.216526889801025391e+01 3.699922235682606697e-04 1.844289363361895084e-04 1.663263392401859164e-04 2.348438865737989545e-04
3.655000000000000000e+03 4.437272071838378906e+00 3.583667755126953125e+01 7.410326816170709208e-06 6.801614654250442982e-04 2.062715357169508934e-04 -1.328947400907054543e-04
3.656000000000000000e+03 1.524755859375000000e+01 -8.185274124145507812e+00 -1.349903141090180725e-05 -4.998157692170934752e-06 -5.549156867346027866e-06 -2.695675902941729873e-06
3.657000000000000000e+03 1.353542137145996094e+01 -7.389925003051757812e+00 -1.390195029671303928e-05 -3.394390205357922241e-06 -5.188902377994963899e-06 -4.823351446248125285e-06
3.658000000000000000e+03 1.611170196533203125e+01 -9.601676940917968750e+00 1.036416688293684274e-05 -5.358543603506404907e-06 1.501686938354396261e-06 1.955085053850780241e-06
3.659000000000000000e+03 7.322550964355468750e+01 1.328876781463623047e+01 -1.943509578704833984e-01 8.864480018615722656e+00 2.601038694381713867e+00 -1.370500475168228149e-01
3.660000000000000000e+03 7.521627044677734375e+01 -3.516169738769531250e+01 -3.818002939224243164e-01 7.722383499145507812e+00 2.202174901962280273e+00 -1.992443948984146118e-01
3.661000000000000000e+03 7.399787139892578125e+01 2.510750770568847656e+00 5.318347215652465820e-01 8.613819122314453125e+00 2.743696212768554688e+00 -1.157114505767822266e-01
3.662000000000000000e+03 7.328885650634765625e+01 8.848215341567993164e-01 6.003676652908325195e-01 8.782972335815429688e+00 2.815001964569091797e+00 -1.752052754163742065e-01
3.663000000000000000e+03 1.448106288909912109e+01 -3.565449905395507812e+01 8.537711692042648792e-04 1.318783848546445370e-03 6.517664878629148006e-04 3.918536473065614700e-03
3.664000000000000000e+03 7.338162231445312500e+01 2.865853118896484375e+01 2.424428015947341919e-01 7.626285076141357422e+00 2.360618352890014648e+00 4.538138210773468018e-01
3.665000000000000000e+03 1.024777317047119141e+01 -5.009120464324951172e+00 -1.404221347911516204e-05 -4.207880010653752834e-06 -5.475028046930674464e-06 -5.187566785025410354e-06
3.666000000000000000e+03 6.925900459289550781e+00 -2.218350219726562500e+01 -9.248883725376799703e-05 1.214956209878437221e-04 8.702035302121657878e-06 2.199444861616939306e-05
3.667000000000000000e+03 7.296685791015625000e+01 -3.444172668457031250e+01 -6.332719922065734863e-01 6.663103580474853516e+00 1.808949470520019531e+00 3.247769474983215332e-01
3.668000000000000000e+03 9.306571006774902344e+00 -1.546016025543212891e+01 5.332041109795682132e-05 4.345517299952916801e-05 2.903267522924579680e-05 2.860577114915940911e-05
3.669000000000000000e+03 7.048241138458251953e+00 -1.584877490997314453e+01 -5.772013901150785387e-05 5.599255746346898377e-05 -5.182745894671825226e-07 1.248303760803537443e-05
3.670000000000000000e+03 3.943048477172851562e+01 8.318323135375976562e+00 1.891901629278436303e-04 9.582321945345029235e-05 8.550401253160089254e-05 1.271221553906798363e-04
3.671000000000000000e+03 4.105075073242187500e+01 -3.902050399780273438e+01 2.317879348993301392e-01 -3.579630255699157715e-01 -3.785252198576927185e-02 -3.849010169506072998e-02
3.672000000000000000e+03 7.080237579345703125e+01 3.169152259826660156e+01 -3.069804906845092773e-01 6.430623531341552734e+00 1.837092876434326172e+00 -1.527926027774810791e-01
3.673000000000000000e+03 7.547412872314453125e+01 -3.169969367980957031e+01 -1.256968379020690918e-01 8.235506057739257812e+00 2.432942867279052734e+00 -5.789750218391418457e-01
3.674000000000000000e+03 7.299103546142578125e+01 -3.238837051391601562e+01 -4.934330284595489502e-01 7.481498718261718750e+00 2.096419572830200195e+00 1.040513813495635986e-01
3.675000000000000000e+03 2.797579765319824219e+01 -3.517074203491210938e+01 -3.259091405197978020e-03 -8.759979158639907837e-03 -3.605721052736043930e-03 -2.405866282060742378e-03
3.676000000000000000e+03 1.321477413177490234e+01 -3.535635757446289062e+01 6.762075354345142841e-04 1.469081733375787735e-03 6.435867981053888798e-04 3.362279850989580154e-03
3.677000000000000000e+03 7.524398803710937500e+01 -2.719265937805175781e+01 9.495888352394104004e-01 8.567461013793945312e+00 2.855114936828613281e+00 -5.647869035601615906e-02
3.678000000000000000e+03 6.995289611816406250e+01 -3.722764968872070312e+01 -7.868796586990356445e-02 3.675841569900512695e+00 1.079146027565002441e+00 4.668533205986022949e-01
3.679000000000000000e+03 7.326123809814453125e+01 -3.717697906494140625e+01 -2.731979191303253174e-01 6.269401550292968750e+00 1.798861145973205566e+00 2.867611944675445557e-01
3.680000000000000000e+03 6.934491729736328125e+01 -1.945726013183593750e+01 -8.345439434051513672e-01 2.346533536911010742e+00 4.535969197750091553e-01 -1.224691867828369141e+00
3.681000000000000000e+03 6.748690032958984375e+01 -1.469560241699218750e+01 4.507411122322082520e-01 2.320796251296997070e+00 8.314612507820129395e-01 2.226635813713073730e-01
3.682000000000000000e+03 6.104219818115234375e+01 -2.111661911010742188e+01 -7.646529078483581543e-01 1.210239410400390625e+00 1.336759328842163086e-01 9.785348773002624512e-01
3.683000000000000000e+03 3.919145202636718750e+01 9.262757301330566406e+00 -1.270087668672204018e-04 1.468354894313961267e-04 5.948016678303247318e-06 8.668944064993411303e-05
3.684000000000000000e+03 7.341075897216796875e+01 2.959992599487304688e+01 9.081269800662994385e-02 7.474980354309082031e+00 2.269737958908081055e+00 5.085645914077758789e-01
3.685000000000000000e+03 7.572981262207031250e+01 3.115524673461914062e+01 -6.973207741975784302e-02 7.494233131408691406e+00 2.227350234985351562e+00 6.561961770057678223e-01
3.686000000000000000e+03 4.888623809814453125e+01 -1.413436889648437500e+01 -1.604630233487114310e-05 -6.147286512714345008e-06 -6.658076472376706079e-06 -1.954240724444389343e-05
3.687000000000000000e+03 3.886553573608398438e+01 1.119668388366699219e+01 -1.133837140514515340e-04 1.928267301991581917e-04 2.383290666330140084e-05 1.726910995785146952e-04
3.688000000000000000e+03 3.900432586669921875e+01 1.022691154479980469e+01 2.634327393025159836e-04 1.406504015903919935e-04 1.212249480886384845e-04 1.802780316211283207e-04
3.689000000000000000e+03 6.578595733642578125e+01 -1.928413772583007812e+01 -6.215114593505859375e-01 4.748810529708862305e-01 -4.398911446332931519e-02 5.349571704864501953e-01
3.690000000000000000e+03 7.568231201171875000e+01 -3.103660774230957031e+01 1.714204996824264526e-02 8.322814941406250000e+00 2.501987218856811523e+00 -6.380233764648437500e-01
3.691000000000000000e+03 7.326885223388671875e+01 -3.158883285522460938e+01 -3.025856316089630127e-01 7.865342617034912109e+00 2.268827199935913086e+00 -6.128432229161262512e-02
3.692000000000000000e+03 1.037432956695556641e+01 -3.214683151245117188e+01 1.583125093020498753e-03 1.124262053053826094e-04 5.086653982289135456e-04 1.145555521361529827e-03
3.693000000000000000e+03 7.103557586669921875e+01 3.318837356567382812e+01 -4.983446598052978516e-01 6.145668029785156250e+00 1.694197058677673340e+00 -1.088801622390747070e-01
3.694000000000000000e+03 2.728560066223144531e+01 -3.701943969726562500e+01 -1.159511972218751907e-02 -1.413966435939073563e-02 -7.720435038208961487e-03 -5.032240878790616989e-03
3.695000000000000000e+03 4.550094604492187500e+01 -2.887411499023437500e+01 -8.917088806629180908e-02 -4.510225057601928711e-01 -1.620580255985260010e-01 -3.872080445289611816e-01
3.696000000000000000e+03 8.963697433471679688e+00 6.076235294342041016e+00 6.060468876967206597e-05 4.453339715837500989e-05 3.154142541461624205e-05 -9.491603123024106026e-05
3.697000000000000000e+03 2.573089599609375000e+01 -3.413924026489257812e+01 8.909687399864196777e-03 -1.833737827837467194e-03 2.122784731909632683e-03 4.395348951220512390e-03
3.698000000000000000e+03 2.373858070373535156e+01 -3.487809753417968750e+01 4.140479024499654770e-03 -2.886300440877676010e-03 3.762534761335700750e-04 5.895912181586027145e-03
3.699000000000000000e+03 3.754788208007812500e+01 -4.150122833251953125e+01 1.678392738103866577e-01 -3.288123607635498047e-01 -4.829192534089088440e-02 -3.365993872284889221e-02
3.700000000000000000e+03 1.344130325317382812e+01 4.807919502258300781e+00 1.175541183329187334e-04 1.919676469697151333e-05 4.102526509086601436e-05 -7.304418977582827210e-05
3.701000000000000000e+03 1.171555900573730469e+01 5.120455265045166016e+00 5.631025851471349597e-05 8.674996934132650495e-06 1.949557736224960536e-05 -5.449461605167016387e-05
3.702000000000000000e+03 9.740163803100585938e+00 -3.297140502929687500e+01 1.117056119255721569e-03 -5.670528116752393544e-05 3.181052452418953180e-04 9.645905811339616776e-04
3.703000000000000000e+03 1.077953433990478516e+01 -3.373238754272460938e+01 1.283879624679684639e-03 5.320406053215265274e-04 5.447760922834277153e-04 1.883119810372591019e-03
3.704000000000000000e+03 4.427464675903320312e+01 -3.428691101074218750e+01 1.472680270671844482e-01 -4.004185497760772705e-01 -7.594515383243560791e-02 1.031176224350929260e-01
3.705000000000000000e+03 4.388467788696289062e+01 -3.320899200439453125e+01 9.914594888687133789e-02 -5.481138825416564941e-01 -1.346903741359710693e-01 3.165899962186813354e-02
3.706000000000000000e+03 4.437228393554687500e+01 3.298438644409179688e+01 1.195783726871013641e-03 -2.517679473385214806e-03 -3.965687064919620752e-04 -4.059953789692372084e-04
3.707000000000000000e+03 4.661118698120117188e+01 3.588820266723632812e+01 -3.125257091596722603e-03 -4.527892451733350754e-03 -2.295944839715957642e-03 2.090995665639638901e-03
3.708000000000000000e+03 7.154791259765625000e+01 3.728895568847656250e+01 -3.669226467609405518e-01 5.606760978698730469e+00 1.571951508522033691e+00 -1.249779909849166870e-01
3.709000000000000000e+03 7.527281188964843750e+01 -3.751090621948242188e+01 -2.027933895587921143e-01 7.312197685241699219e+00 2.132821321487426758e+00 1.195140182971954346e-02
3.710000000000000000e+03 5.073411178588867188e+01 -3.193744659423828125e+01 5.298123955726623535e-01 6.561206579208374023e-01 3.557799160480499268e-01 2.683715522289276123e-01
3.711000000000000000e+03 1.922225761413574219e+01 -3.585316085815429688e+01 4.495256871450692415e-04 1.203816267661750317e-03 4.960026126354932785e-04 6.038257386535406113e-03
3.712000000000000000e+03 4.629018020629882812e+01 -3.037771987915039062e+01 6.204054877161979675e-02 -2.811227440834045410e-01 -6.572465598583221436e-02 -1.419271379709243774e-01
3.713000000000000000e+03 2.817301177978515625e+01 -3.849502944946289062e+01 -1.369999255985021591e-02 -2.745566330850124359e-02 -1.234669703990221024e-02 -1.029604300856590271e-02
3.714000000000000000e+03 4.559503936767578125e+01 -3.285155105590820312e+01 1.329060643911361694e-01 -3.174348771572113037e-01 -5.535864084959030151e-02 1.111017987132072449e-01
3.715000000000000000e+03 4.699760437011718750e+01 -3.128585433959960938e+01 1.697883754968643188e-01 -1.431794017553329468e-01 7.982693612575531006e-03 -1.215477241203188896e-04
3.716000000000000000e+03 2.526437187194824219e+01 -3.738770675659179688e+01 -8.999143727123737335e-03 -7.691716309636831284e-03 -5.007258150726556778e-03 7.443081121891736984e-04
3.717000000000000000e+03 2.641613960266113281e+01 -3.471421813964843750e+01 3.545867977663874626e-03 -3.158868756145238876e-03 1.160997271654196084e-04 2.545896219089627266e-03
3.718000000000000000e+03 7.608851623535156250e+01 3.972128295898437500e+01 -1.162700057029724121e-01 7.715317726135253906e+00 2.279714345932006836e+00 7.460290193557739258e-02
3.719000000000000000e+03 7.547064208984375000e+01 3.598521804809570312e+01 -2.606064081192016602e-01 7.339351177215576172e+00 2.123623371124267578e+00 3.580303788185119629e-01
3.720000000000000000e+03 4.398035430908203125e+01 2.957430458068847656e+01 2.960737794637680054e-03 -1.008385093882679939e-03 5.857057985849678516e-04 4.455925954971462488e-04
3.721000000000000000e+03 2.432655906677246094e+01 -3.566912460327148438e+01 -1.209919340908527374e-03 -3.921711817383766174e-03 -1.539489370770752430e-03 4.079581703990697861e-03
3.722000000000000000e+03 4.394807052612304688e+01 3.154708099365234375e+01 2.006266964599490166e-03 1.646535820327699184e-04 6.512761465273797512e-04 -5.979192792437970638e-04
3.723000000000000000e+03 4.365542602539062500e+01 2.880922317504882812e+01 3.440149128437042236e-03 5.058728274889290333e-04 1.183806569315493107e-03 8.129347115755081177e-04
3.724000000000000000e+03 7.089314937591552734e+00 -4.135430526733398438e+01 -8.009214652702212334e-04 1.434749457985162735e-03 1.901483919937163591e-04 8.247684309026226401e-05
3.725000000000000000e+03 5.157109069824218750e+01 -3.294979476928710938e+01 4.348122775554656982e-01 9.614021182060241699e-01 4.188643097877502441e-01 3.625074923038482666e-01
3.726000000000000000e+03 5.262315750122070312e+01 -3.387590026855468750e+01 2.748019695281982422e-01 1.281558036804199219e+00 4.669080078601837158e-01 3.577739000320434570e-01
3.727000000000000000e+03 7.487458801269531250e+01 4.074633789062500000e+01 -1.456118375062942505e-01 7.086517810821533203e+00 2.082271814346313477e+00 1.002591922879219055e-01
3.728000000000000000e+03 7.217404174804687500e+01 4.142103958129882812e+01 -1.937015652656555176e-01 5.823791980743408203e+00 1.689027190208435059e+00 -1.357255410403013229e-02
3.729000000000000000e+03 5.281043243408203125e+01 -3.614994430541992188e+01 1.710684387944638729e-03 1.155716419219970703e+00 3.472281098365783691e-01 2.180501073598861694e-01
3.730000000000000000e+03 5.652428436279296875e+01 -3.901842117309570312e+01 -4.191185534000396729e-02 8.458340167999267578e-01 2.411766499280929565e-01 -3.123595118522644043e-01
3.731000000000000000e+03 7.120153808593750000e+01 -3.837045288085937500e+01 -1.018720343708992004e-01 4.901413440704345703e+00 1.439862370491027832e+00 4.408983886241912842e-01
3.732000000000000000e+03 5.173925781250000000e+01 4.127878570556640625e+01 4.006754234433174133e-02 -5.845495685935020447e-02 -5.516225006431341171e-03 1.388609874993562698e-02
3.733000000000000000e+03 4.540190124511718750e+01 3.446371841430664062e+01 -2.778437687084078789e-03 -1.627138699404895306e-03 -1.321672927588224411e-03 1.633175183087587357e-03
3.734000000000000000e+03 5.230945110321044922e+00 -3.809693527221679688e+01 1.196806169900810346e-05 8.243828779086470604e-04 2.509052865207195282e-04 6.962300394661724567e-04
3.735000000000000000e+03 1.090185070037841797e+01 -7.643520832061767578e+00 -2.025109643000178039e-05 -8.572344086132943630e-06 -8.647031791042536497e-06 -6.391064175659266766e-07
3.736000000000000000e+03 4.489934539794921875e+01 -4.233809471130371094e+00 3.117245069006457925e-05 5.157231498742476106e-05 2.482343006704468280e-05 3.351636405568569899e-05
3.737000000000000000e+03 4.653641891479492188e+01 -9.102821350097656250e+00 3.684972034534439445e-05 1.608956517884507775e-05 1.588178565725684166e-05 1.763305954227689654e-05
3.738000000000000000e+03 4.769086456298828125e+01 -2.625654411315917969e+01 5.950620770454406738e-02 -2.337529510259628296e-01 -5.227402225136756897e-02 -6.177303194999694824e-01
3.739000000000000000e+03 1.212984371185302734e+01 -1.222982978820800781e+01 3.087435106863267720e-05 1.875239649962168187e-05 1.488802354288054630e-05 2.785892320389393717e-05
3.740000000000000000e+03 5.409008979797363281e+00 -8.515048980712890625e+00 -2.930368282250128686e-05 -5.938352387602208182e-06 -1.057261033565737307e-05 -1.374544444843195379e-05
3.741000000000000000e+03 7.692013263702392578e+00 -5.364148139953613281e+00 1.035085460898699239e-05 6.725830644427333027e-06 5.123005394125357270e-06 7.921609721961431205e-06
3.742000000000000000e+03 9.314283370971679688e+00 -6.206785678863525391e+00 1.815188807086087763e-05 6.889540145493810996e-06 7.512428510381141677e-06 5.187650913285324350e-06
3.743000000000000000e+03 3.208330154418945312e+01 -1.452922821044921875e+01 -1.537378375360276550e-05 -6.237689376575872302e-06 -6.483441666205180809e-06 -1.194011474581202492e-06
3.744000000000000000e+03 3.020388603210449219e+01 -1.092254924774169922e+01 -4.594308393279789016e-06 9.829703230934683233e-06 1.570618451296468265e-06 3.031685537280282006e-06
3.745000000000000000e+03 8.599143028259277344e+00 -1.465295124053955078e+01 5.426845018519088626e-05 3.707205905811861157e-05 2.740215313679073006e-05 3.027243292308412492e-05
3.746000000000000000e+03 1.156332397460937500e+01 -6.167397975921630859e+00 -9.334412425232585520e-06 -2.704357484617503360e-06 -3.611631200328702107e-06 -2.286798689965507947e-06
3.747000000000000000e+03 9.891492843627929688e+00 -6.292922496795654297e+00 -1.586424696142785251e-05 -6.175326234370004386e-06 -6.611871867789886892e-06 -5.571776910073822364e-06
3.748000000000000000e+03 1.076585578918457031e+01 -1.231225776672363281e+01 4.431512570590712130e-05 1.050292303261812776e-05 1.644541407586075366e-05 -1.334960870735812932e-06
3.749000000000000000e+03 1.354843521118164062e+01 -8.229528427124023438e+00 -1.024240191327407956e-05 -3.455381374806165695e-06 -4.109334895474603400e-06 3.969779299950459972e-06
3.750000000000000000e+03 1.660877227783203125e+01 -9.398492813110351562e+00 7.994921361387241632e-06 8.589297067373991013e-06 4.975265710527310148e-06 1.198823269987769891e-06
3.751000000000000000e+03 1.619073867797851562e+01 -9.028071403503417969e+00 -1.689371674729045480e-05 -6.146969099063426256e-06 -6.912205662956694141e-06 -6.295104412856744602e-06
3.752000000000000000e+03 7.532322692871093750e+01 1.311810588836669922e+01 -1.381471604108810425e-01 7.932457447052001953e+00 2.338293075561523438e+00 -8.171604014933109283e-03
3.753000000000000000e+03 7.324415588378906250e+01 1.655289268493652344e+01 6.496854871511459351e-02 8.833860397338867188e+00 2.669648647308349609e+00 -1.191868074238300323e-02
3.754000000000000000e+03 7.315906524658203125e+01 1.175561237335205078e+01 -3.772863149642944336e-01 8.991993904113769531e+00 2.584412336349487305e+00 -4.427683725953102112e-02
3.755000000000000000e+03 7.315931701660156250e+01 1.099624252319335938e+01 -3.860085606575012207e-01 9.072355270385742188e+00 2.605903863906860352e+00 4.914141446352005005e-02
3.756000000000000000e+03 4.760641479492187500e+01 -2.695549392700195312e+01 1.283073276281356812e-01 -2.337939143180847168e-01 -3.164597228169441223e-02 -5.558241605758666992e-01
3.757000000000000000e+03 1.049154472351074219e+01 -6.370215415954589844e+00 1.519475154054816812e-05 5.969961421214975417e-06 6.349413524731062353e-06 3.211111334167071618e-06
3.758000000000000000e+03 4.320434570312500000e+01 6.657624840736389160e-01 6.106004730099812150e-05 6.023470632499083877e-05 3.638842463260516524e-05 5.547355976887047291e-05
3.759000000000000000e+03 4.388538360595703125e+01 -6.932275891304016113e-01 5.852933463756926358e-05 5.745030648540705442e-05 3.479389124549925327e-05 5.245712236501276493e-05
3.760000000000000000e+03 4.549083328247070312e+01 -2.309523820877075195e+00 6.630674033658578992e-05 4.498768612393178046e-05 3.338832539157010615e-05 5.181482993066310883e-05
3.761000000000000000e+03 7.323091125488281250e+01 9.516923904418945312e+00 -1.807030290365219116e-01 9.097691535949707031e+00 2.675096750259399414e+00 1.998277008533477783e-01
3.762000000000000000e+03 7.328876495361328125e+01 8.789121627807617188e+00 -3.489862009882926941e-02 9.096835136413574219e+00 2.718580961227416992e+00 2.234460264444351196e-01
3.763000000000000000e+03 4.863547897338867188e+01 -2.587590408325195312e+01 8.842176198959350586e-02 -1.474656015634536743e-01 -1.771315187215805054e-02 -6.124741435050964355e-01
3.764000000000000000e+03 4.901379394531250000e+01 -2.533578681945800781e+01 2.389429509639739990e-02 -1.251134872436523438e-01 -3.036575950682163239e-02 -6.471375226974487305e-01
3.765000000000000000e+03 4.108954620361328125e+01 1.768245398998260498e-01 3.568794636521488428e-05 3.813253351836465299e-05 2.214614505646750331e-05 2.209788362961262465e-05
3.766000000000000000e+03 3.075677871704101562e+01 -1.427229118347167969e+01 -1.416014765709405765e-05 -7.499312687286874279e-06 -6.497838057839544490e-06 3.765203473449219018e-07
3.767000000000000000e+03 4.988129806518554688e+01 -2.525074195861816406e+01 6.049659103155136108e-02 -1.931054890155792236e-02 1.235581282526254654e-02 -6.037225723266601562e-01
3.768000000000000000e+03 4.945108795166015625e+01 -2.561813926696777344e+01 1.052384972572326660e-01 -5.702647939324378967e-02 1.446360629051923752e-02 -5.982785820960998535e-01
3.769000000000000000e+03 5.056896591186523438e+01 -2.508868408203125000e+01 7.343985885381698608e-02 6.806843727827072144e-02 4.245248809456825256e-02 -5.631111264228820801e-01
3.770000000000000000e+03 7.599943542480468750e+01 -3.538339233398437500e+01 -2.697370350360870361e-01 8.024415016174316406e+00 2.326403379440307617e+00 -2.287547886371612549e-01
3.771000000000000000e+03 4.558607864379882812e+01 -5.402364730834960938e+00 1.123823403759161010e-05 5.127843542140908539e-05 1.875500129244755954e-05 2.216167013102676719e-05
3.772000000000000000e+03 4.189078521728515625e+01 1.670599341392517090e+00 -3.086857032030820847e-05 -3.313341585453599691e-05 -1.920059548865538090e-05 -3.847365223919041455e-05
3.773000000000000000e+03 4.524233627319335938e+01 -4.817512035369873047e+00 -1.621071533008944243e-05 -6.458636198658496141e-05 -2.423912337690126151e-05 -3.676158667076379061e-05
3.774000000000000000e+03 4.638815689086914062e+01 -5.675932884216308594e+00 5.738752588513307273e-05 7.020757948339451104e-06 1.932248596858698875e-05 2.221983231720514596e-05
3.775000000000000000e+03 4.225518035888671875e+01 9.798610806465148926e-01 4.620502659236080945e-05 5.529542613658122718e-05 3.045013727387413383e-05 4.392529081087559462e-05
3.776000000000000000e+03 2.937353706359863281e+01 -9.805000305175781250e+00 7.972798812261316925e-07 -8.476595212414395064e-06 -2.303794644831214100e-06 8.746013122618023772e-07
3.777000000000000000e+03 5.050215911865234375e+01 -2.576703071594238281e+01 2.493937611579895020e-01 1.303747594356536865e-01 1.139305531978607178e-01 -5.057553052902221680e-01
3.778000000000000000e+03 5.131278228759765625e+01 -2.491732215881347656e+01 7.557184994220733643e-02 1.916389763355255127e-01 8.016324788331985474e-02 -5.060468316078186035e-01
3.779000000000000000e+03 1.479752349853515625e+01 -7.730812549591064453e+00 1.305640580540057272e-05 4.555375653580995277e-06 5.283534392219735309e-06 2.355844799240003340e-06
3.780000000000000000e+03 1.396074676513671875e+01 -7.786789417266845703e+00 1.236971002072095871e-05 4.397440534376073629e-06 5.030145075579639524e-06 1.905058979900786653e-06
3.781000000000000000e+03 4.589976787567138672e+00 -2.143046951293945312e+01 1.346350472886115313e-04 -3.636470637502497993e-06 3.929957165382802486e-05 4.663952131522819400e-05
3.782000000000000000e+03 6.234882354736328125e+00 -2.116279411315917969e+01 6.147515705379191786e-06 1.487692643422633410e-04 4.647503374144434929e-05 4.556381827569566667e-05
3.783000000000000000e+03 3.789696884155273438e+01 1.300036430358886719e+01 4.464149242267012596e-04 1.491878356318920851e-04 1.786808279575780034e-04 2.704158832784742117e-04
3.784000000000000000e+03 5.360705566406250000e+01 -2.620174026489257812e+01 6.723808646202087402e-01 1.113943457603454590e+00 5.358973145484924316e-01 -1.677248254418373108e-02
3.785000000000000000e+03 5.379964065551757812e+01 -2.536953163146972656e+01 3.678341209888458252e-01 9.500803351402282715e-01 3.953743577003479004e-01 -5.607741698622703552e-02
3.786000000000000000e+03 5.333539199829101562e+01 -2.488840103149414062e+01 1.972186416387557983e-01 7.000396251678466797e-01 2.691774964332580566e-01 -2.035149186849594116e-01
3.787000000000000000e+03 5.187105655670166016e+00 2.921036148071289062e+01 1.828995482355821878e-05 5.174632533453404903e-04 1.607259619049727917e-04 -1.593412598595023155e-04
3.788000000000000000e+03 5.486943435668945312e+01 -2.387055969238281250e+01 -7.779565453529357910e-02 9.045071601867675781e-01 2.480134516954421997e-01 8.162788301706314087e-02
3.789000000000000000e+03 5.486514663696289062e+01 -2.435962677001953125e+01 1.142110452055931091e-01 1.054801940917968750e+00 3.507038950920104980e-01 1.379753500223159790e-01
3.790000000000000000e+03 4.596315002441406250e+01 -5.975654602050781250e+00 1.892442378448322415e-05 -5.890859029022976756e-05 -1.199525013362290338e-05 -7.620940777997020632e-06
3.791000000000000000e+03 1.555329513549804688e+01 -9.757721900939941406e+00 8.847398021316621453e-06 3.086633114435244352e-06 3.580209295250824653e-06 4.688424269261304289e-06
3.792000000000000000e+03 5.169033432006835938e+01 -2.639741706848144531e+01 4.840924441814422607e-01 4.293502569198608398e-01 2.740328013896942139e-01 -3.313602805137634277e-01
3.793000000000000000e+03 5.478884887695312500e+01 -2.559178352355957031e+01 5.485771894454956055e-01 1.387182593345642090e+00 5.807279348373413086e-01 2.240735143423080444e-01
3.794000000000000000e+03 5.430517959594726562e+01 -2.449198532104492188e+01 1.334103047847747803e-01 9.006353616714477539e-01 3.102137148380279541e-01 -1.765286922454833984e-02
3.795000000000000000e+03 3.097946357727050781e+01 -1.363764286041259766e+01 1.015704015117080417e-06 1.303550834563793615e-05 4.215363787807291374e-06 8.495654583384748548e-06
3.796000000000000000e+03 6.817325592041015625e+01 -1.427249145507812500e+01 3.624498546123504639e-01 2.858586549758911133e+00 9.663109183311462402e-01 1.083721444010734558e-01
3.797000000000000000e+03 7.504212188720703125e+01 2.990658760070800781e+01 2.715011313557624817e-02 7.482080459594726562e+00 2.252769231796264648e+00 6.626995801925659180e-01
3.798000000000000000e+03 7.611508941650390625e+01 2.939904212951660156e+01 5.358051136136054993e-02 7.479968070983886719e+00 2.260064601898193359e+00 6.533728837966918945e-01
3.799000000000000000e+03 4.679444122314453125e+01 -1.216703128814697266e+01 -3.195472527295351028e-05 5.605820661003235728e-07 -9.418242370884399861e-06 -1.860923293861560524e-05
3.800000000000000000e+03 4.760447692871093750e+01 -1.102556228637695312e+01 3.774041761062107980e-05 -2.717763152304542018e-07 1.124059235735330731e-05 9.754825441632419825e-06
3.801000000000000000e+03 5.246655941009521484e+00 -2.778600502014160156e+01 -3.065452256123535335e-05 1.497764169471338391e-04 3.573656795197166502e-05 2.425447382847778499e-05
3.802000000000000000e+03 7.401226520538330078e+00 5.962158679962158203e+00 2.516102176741696894e-05 3.866693441523239017e-05 1.914838685479480773e-05 -5.207267167861573398e-05
3.803000000000000000e+03 4.644306182861328125e+01 -1.460011386871337891e+01 1.317674104939214885e-05 2.309888714080443606e-06 4.645988610718632117e-06 2.750321300482028164e-06
3.804000000000000000e+03 4.742202758789062500e+01 -1.497608089447021484e+01 7.756171726214233786e-06 7.656070920347701758e-06 4.623672793968580663e-06 5.975300609861733392e-06
3.805000000000000000e+03 3.433523178100585938e+01 -1.419727230072021484e+01 -1.946245356521103531e-05 -3.691519850690383464e-06 -6.946192115719895810e-06 -5.098283054394414648e-06
3.806000000000000000e+03 6.655692291259765625e+01 -1.723404121398925781e+01 2.440104037523269653e-01 1.146759986877441406e+00 4.172311127185821533e-01 2.830564677715301514e-01
3.807000000000000000e+03 6.721099853515625000e+01 -1.896299934387207031e+01 -3.358790576457977295e-01 5.514120459556579590e-01 6.465990096330642700e-02 -5.004422739148139954e-03
3.808000000000000000e+03 4.453196048736572266e+00 -3.104696273803710938e+01 5.794169555883854628e-05 1.778598380042240024e-04 7.074046152411028743e-05 2.424807607894763350e-04
3.809000000000000000e+03 7.390580749511718750e+01 -3.003316116333007812e+01 3.330606222152709961e-01 8.456922531127929688e+00 2.636995077133178711e+00 -3.740210533142089844e-01
3.810000000000000000e+03 3.959531402587890625e+01 -1.597108650207519531e+01 -1.114462429541163146e-05 -7.975518201419617981e-06 -5.736042567150434479e-06 -1.346608883068256546e-06
3.811000000000000000e+03 4.069532775878906250e+01 -1.613825225830078125e+01 -1.524612252978840843e-05 -6.887195013405289501e-06 -6.639995262958109379e-06 -1.775434952833165880e-06
3.812000000000000000e+03 4.129854583740234375e+01 4.220008373260498047e+00 -6.266652053454890847e-05 1.509159937995718792e-05 -1.427247661922592670e-05 -6.005075920256786048e-05
3.813000000000000000e+03 5.388049602508544922e+00 3.110192871093750000e+01 -4.235763299220707268e-06 5.501366103999316692e-04 1.637702516745775938e-04 -1.525916304672136903e-04
3.814000000000000000e+03 6.367659091949462891e+00 5.391021728515625000e+00 4.843594433623366058e-05 2.161614611395634711e-05 2.101562677125912160e-05 -4.811479811905883253e-05
3.815000000000000000e+03 5.025396823883056641e+00 6.875449180603027344e+00 3.150354677927680314e-05 3.841436773655004799e-05 2.097537435474805534e-05 -4.634694778360426426e-05
3.816000000000000000e+03 4.516953659057617188e+01 -3.281835317611694336e+00 4.775409252033568919e-05 4.830766192753799260e-05 2.881852560676634312e-05 4.158563751843757927e-05
3.817000000000000000e+03 6.502972126007080078e+00 6.019953727722167969e+00 1.470423103455686942e-05 3.713052137754857540e-05 1.555042581458110362e-05 -5.793936361442320049e-05
3.818000000000000000e+03 7.295144557952880859e+00 5.119172096252441406e+00 2.596336707938462496e-05 3.028652827197220176e-05 1.687496842350810766e-05 -4.735442416858859360e-05
3.819000000000000000e+03 7.230350494384765625e+01 3.229425430297851562e+01 -3.538030087947845459e-01 6.798859119415283203e+00 1.933516860008239746e+00 2.562107741832733154e-01
3.820000000000000000e+03 7.514542388916015625e+01 -3.072561454772949219e+01 6.997369974851608276e-02 8.313693046569824219e+00 2.515100002288818359e+00 -5.875843763351440430e-01
3.821000000000000000e+03 4.691089630126953125e+00 8.269978523254394531e+00 2.245465657324530184e-05 4.978905053576454520e-05 2.167311140510719270e-05 -5.104850788484327495e-05
3.822000000000000000e+03 4.278603553771972656e+00 6.160500526428222656e+00 2.666440559551119804e-05 3.573815047275274992e-05 1.872076609288342297e-05 -3.765334986383095384e-05
3.823000000000000000e+03 6.033605575561523438e+00 -2.595138549804687500e+01 8.514573710272088647e-05 1.535657647764310241e-04 7.161345274653285742e-05 6.304440466919913888e-05
3.824000000000000000e+03 7.542478942871093750e+01 2.903961372375488281e+01 9.342784434556961060e-02 7.499874591827392578e+00 2.277990818023681641e+00 6.546316742897033691e-01
3.825000000000000000e+03 4.747636795043945312e+00 -3.282068252563476562e+01 1.081605878425762057e-04 3.142075438518077135e-04 1.267104380531236529e-04 4.910560091957449913e-04
3.826000000000000000e+03 4.632319641113281250e+01 -8.437634468078613281e+00 -3.339735485496930778e-05 -3.196060788468457758e-05 -1.960738882189616561e-05 -2.865464193746447563e-05
3.827000000000000000e+03 4.696287155151367188e+00 2.193527603149414062e+01 -4.642736530513502657e-05 3.387476317584514618e-04 8.769607666181400418e-05 -1.677691325312480330e-04
3.828000000000000000e+03 5.029606342315673828e+00 2.440347671508789062e+01 6.777443195460364223e-05 3.551700501702725887e-04 1.268833439098671079e-04 -1.618877577129751444e-04
3.829000000000000000e+03 7.498463439941406250e+01 -2.793865585327148438e+01 9.251782298088073730e-01 8.592151641845703125e+00 2.855199098587036133e+00 -2.551346421241760254e-01
3.830000000000000000e+03 7.534880828857421875e+01 2.842851448059082031e+01 1.516733169555664062e-01 7.512683868408203125e+00 2.299307107925415039e+00 6.264778971672058105e-01
3.831000000000000000e+03 7.585142517089843750e+01 2.839333343505859375e+01 1.318829059600830078e-01 7.468027114868164062e+00 2.279973030090332031e+00 6.294416189193725586e-01
3.832000000000000000e+03 7.459546661376953125e+01 -3.216592788696289062e+01 -2.896298468112945557e-01 8.020309448242187500e+00 2.319203853607177734e+00 -4.066230952739715576e-01
3.833000000000000000e+03 7.604889678955078125e+01 -2.654554939270019531e+01 7.222361564636230469e-01 8.375689506530761719e+00 2.729377508163452148e+00 1.127610653638839722e-01
3.834000000000000000e+03 7.538211059570312500e+01 -2.640517616271972656e+01 9.032164812088012695e-01 8.523197174072265625e+00 2.827924251556396484e+00 1.312344819307327271e-01
3.835000000000000000e+03 3.944397687911987305e+00 2.052822685241699219e+01 6.108729576226323843e-05 2.800172369461506605e-04 1.023313525365665555e-04 -1.274555397685617208e-04
3.836000000000000000e+03 4.790024280548095703e+00 2.271918869018554688e+01 7.549363363068550825e-05 3.163494111504405737e-04 1.175529177999123931e-04 -1.606930745765566826e-04
3.837000000000000000e+03 4.727458477020263672e+00 1.484149932861328125e+01 4.675319723901338875e-05 1.459408231312409043e-04 5.780820356449112296e-05 -1.132686884375289083e-04
3.838000000000000000e+03 7.632906341552734375e+01 5.015902042388916016e+00 2.147140204906463623e-01 7.347795486450195312e+00 2.268752813339233398e+00 1.489675883203744888e-02
3.839000000000000000e+03 7.358251953125000000e+01 4.228127479553222656e+00 4.629440903663635254e-01 9.053005218505859375e+00 2.854784727096557617e+00 2.595186233520507812e-02
3.840000000000000000e+03 7.616299438476562500e+01 2.308266067504882812e+01 1.932122260332107544e-01 7.438359260559082031e+00 2.289471387863159180e+00 1.839976459741592407e-01
3.841000000000000000e+03 7.619961547851562500e+01 2.174796295166015625e+01 1.408830434083938599e-01 7.424175262451171875e+00 2.269517421722412109e+00 1.049779132008552551e-01
3.842000000000000000e+03 7.334041595458984375e+01 2.322696685791015625e+01 3.855929374694824219e-01 8.586896896362304688e+00 2.691746950149536133e+00 -7.771284785121679306e-03
3.843000000000000000e+03 7.479621887207031250e+01 -2.400647163391113281e+01 5.301902294158935547e-01 8.603243827819824219e+00 2.740030050277709961e+00 6.423660516738891602e-01
3.844000000000000000e+03 7.615837860107421875e+01 -2.410989379882812500e+01 3.735378086566925049e-01 8.415618896484375000e+00 2.636746883392333984e+00 6.397761106491088867e-01
3.845000000000000000e+03 7.544401550292968750e+01 -2.561273384094238281e+01 8.118656277656555176e-01 8.517079353332519531e+00 2.798683404922485352e+00 3.599334061145782471e-01
3.846000000000000000e+03 7.406707000732421875e+01 -2.251338958740234375e+01 -1.846185922622680664e-01 8.492418289184570312e+00 2.492340087890625000e+00 6.027073264122009277e-01
3.847000000000000000e+03 4.749854564666748047e+00 -7.022592544555664062e+00 2.331452924408949912e-05 2.990463599417125806e-06 7.891497261880431324e-06 9.542197403789032251e-06
3.848000000000000000e+03 7.326963043212890625e+01 2.412598228454589844e+01 4.606309533119201660e-01 8.494534492492675781e+00 2.686549663543701172e+00 2.300685457885265350e-02
3.849000000000000000e+03 7.610572052001953125e+01 -2.570641136169433594e+01 6.661432981491088867e-01 8.367729187011718750e+00 2.710161685943603516e+00 3.110653460025787354e-01
3.850000000000000000e+03 4.030743598937988281e+00 2.701028060913085938e+01 4.094651376362890005e-05 4.815849533770233393e-04 1.567594445077702403e-04 -1.274123496841639280e-04
3.851000000000000000e+03 4.805968761444091797e+00 2.759786605834960938e+01 3.860985452774912119e-05 4.766765050590038300e-04 1.545859122416004539e-04 -1.522974489489570260e-04
3.852000000000000000e+03 7.524651336669921875e+01 -8.890993118286132812e+00 -1.164251789450645447e-01 7.327714443206787109e+00 2.163386821746826172e+00 -6.025352478027343750e-01
3.853000000000000000e+03 7.122967529296875000e+01 -9.286535263061523438e+00 -6.958375126123428345e-02 5.740761280059814453e+00 1.701353311538696289e+00 -3.247331455349922180e-02
3.854000000000000000e+03 7.538330078125000000e+01 1.874100685119628906e+01 7.324787229299545288e-02 7.850005626678466797e+00 2.376976013183593750e+00 -3.876189235597848892e-03
3.855000000000000000e+03 7.395751190185546875e+01 -1.204997730255126953e+01 -1.436687409877777100e-01 6.696464061737060547e+00 1.965838551521301270e+00 -5.150947570800781250e-01
3.856000000000000000e+03 7.514041137695312500e+01 -1.429395008087158203e+01 -2.381749600172042847e-01 7.310497283935546875e+00 2.121696710586547852e+00 -4.942778050899505615e-01
3.857000000000000000e+03 7.640981292724609375e+01 -2.075720214843750000e+01 -3.271457254886627197e-01 8.511602401733398438e+00 2.455336809158325195e+00 5.479456186294555664e-01
3.858000000000000000e+03 7.473374176025390625e+01 -2.186063575744628906e+01 -3.612202107906341553e-01 8.405045509338378906e+00 2.413147687911987305e+00 6.103606224060058594e-01
3.859000000000000000e+03 7.545581054687500000e+01 -1.498469066619873047e+01 -2.570231854915618896e-01 7.559667587280273438e+00 2.190793275833129883e+00 -4.197968840599060059e-01
3.860000000000000000e+03 7.624990081787109375e+01 -1.335340309143066406e+01 -1.341421306133270264e-01 7.818968296051025391e+00 2.305447816848754883e+00 -4.492920339107513428e-01
3.861000000000000000e+03 7.569138336181640625e+01 -1.367687416076660156e+01 -1.870248019695281982e-01 7.536842823028564453e+00 2.204945564270019531e+00 -4.636792540550231934e-01
3.862000000000000000e+03 7.614000701904296875e+01 -1.263197612762451172e+01 -1.106523424386978149e-01 7.740690231323242188e+00 2.289011478424072266e+00 -4.867221415042877197e-01
3.863000000000000000e+03 7.533974456787109375e+01 -1.112604522705078125e+01 -1.130779981613159180e-01 7.333695888519287109e+00 2.166185379028320312e+00 -5.572659969329833984e-01
3.864000000000000000e+03 7.606564331054687500e+01 1.539036655426025391e+01 -1.904464326798915863e-02 7.544565200805664062e+00 2.257656335830688477e+00 -3.928924351930618286e-02
3.865000000000000000e+03 7.606703948974609375e+01 1.620088386535644531e+01 2.911238465458154678e-03 7.538087844848632812e+00 2.262299776077270508e+00 -3.837538138031959534e-02
3.866000000000000000e+03 7.535996246337890625e+01 1.550495433807373047e+01 -1.747974567115306854e-02 7.867958068847656250e+00 2.355143547058105469e+00 -4.878472536802291870e-02
3.867000000000000000e+03 7.597120666503906250e+01 -9.119439125061035156e+00 -9.326434135437011719e-02 7.528936386108398438e+00 2.230701446533203125e+00 -6.048568487167358398e-01
3.868000000000000000e+03 7.020207214355468750e+01 -9.778243064880371094e+00 1.113924570381641388e-02 5.093424797058105469e+00 1.531369209289550781e+00 1.825785040855407715e-01
3.869000000000000000e+03 7.290068054199218750e+01 -1.999477577209472656e+01 -1.216827511787414551e+00 7.187779903411865234e+00 1.791285753250122070e+00 -4.628567695617675781e-01
3.870000000000000000e+03 7.608757781982421875e+01 1.861443138122558594e+01 6.016040220856666565e-02 7.521008491516113281e+00 2.274350643157958984e+00 -6.325482390820980072e-03
3.871000000000000000e+03 7.465956115722656250e+01 1.722907638549804688e+01 5.270276963710784912e-02 8.181953430175781250e+00 2.470396757125854492e+00 -2.564024925231933594e-02
3.872000000000000000e+03 7.465491485595703125e+01 1.478979396820068359e+01 -5.094044283032417297e-02 8.199140548706054688e+00 2.444459915161132812e+00 -6.538832932710647583e-02
3.873000000000000000e+03 7.636985015869140625e+01 -4.326027870178222656e+00 -1.032591983675956726e-02 7.466589927673339844e+00 2.236879110336303711e+00 -7.047051787376403809e-01
3.874000000000000000e+03 7.625062561035156250e+01 -5.066983699798583984e+00 -3.629010170698165894e-02 7.491268157958984375e+00 2.236493349075317383e+00 -7.015063166618347168e-01
3.875000000000000000e+03 7.614467620849609375e+01 5.540839672088623047e+00 2.120117545127868652e-01 7.470627784729003906e+00 2.304791688919067383e+00 6.446918100118637085e-02
3.876000000000000000e+03 7.598963165283203125e+01 7.096773147583007812e+00 1.423577815294265747e-01 7.598096847534179688e+00 2.322136402130126953e+00 1.651747971773147583e-01
3.877000000000000000e+03 7.586589050292968750e+01 -4.251041412353515625e+00 -6.160637363791465759e-03 7.492705821990966797e+00 2.245963573455810547e+00 -7.133724093437194824e-01
3.878000000000000000e+03 7.546549224853515625e+01 -3.988416433334350586e+00 5.755214951932430267e-03 7.529620647430419922e+00 2.260612726211547852e+00 -7.091190814971923828e-01
3.879000000000000000e+03 7.570292663574218750e+01 4.452229976654052734e+00 3.010214269161224365e-01 7.712576389312744141e+00 2.404079437255859375e+00 -2.944204397499561310e-02
3.880000000000000000e+03 7.390268707275390625e+01 5.957322597503662109e+00 3.402278423309326172e-01 8.818717002868652344e+00 2.747683525085449219e+00 9.898035228252410889e-02
3.881000000000000000e+03 7.612699127197265625e+01 -1.977375984191894531e+01 -4.856147766113281250e-01 8.397545814514160156e+00 2.373579263687133789e+00 3.477048575878143311e-01
3.882000000000000000e+03 7.524185943603515625e+01 -2.160295677185058594e+01 -3.571525216102600098e-01 8.409076690673828125e+00 2.415577411651611328e+00 6.174593567848205566e-01
3.883000000000000000e+03 7.387049865722656250e+01 1.024686241149902344e+01 -2.437552362680435181e-01 8.771495819091796875e+00 2.558322191238403320e+00 1.627489626407623291e-01
3.884000000000000000e+03 7.613568115234375000e+01 1.879462718963623047e+00 2.903850972652435303e-01 7.418605804443359375e+00 2.312697410583496094e+00 -3.247830569744110107e-01
3.885000000000000000e+03 7.615487670898437500e+01 9.711314201354980469e+00 -6.671235710382461548e-02 7.545866966247558594e+00 2.243746519088745117e+00 1.889592409133911133e-01
3.886000000000000000e+03 7.459695434570312500e+01 9.499423027038574219e+00 -1.095035895705223083e-01 8.372467041015625000e+00 2.478889226913452148e+00 2.094321250915527344e-01
3.887000000000000000e+03 7.529988861083984375e+01 9.310115814208984375e+00 -6.548639386892318726e-02 8.008789062500000000e+00 2.382990837097167969e+00 2.083175629377365112e-01
3.888000000000000000e+03 7.557615661621093750e+01 3.713074922561645508e+00 3.331050276756286621e-01 7.746722221374511719e+00 2.423948287963867188e+00 -9.704174846410751343e-02
3.889000000000000000e+03 7.337159729003906250e+01 2.569397926330566406e+00 5.782427191734313965e-01 9.028323173522949219e+00 2.881969690322875977e+00 -2.438681386411190033e-02
3.890000000000000000e+03 7.539746093750000000e+01 1.954547500610351562e+01 9.704686701297760010e-02 7.836488246917724609e+00 2.380060672760009766e+00 7.496405858546495438e-03
3.891000000000000000e+03 7.487857818603515625e+01 1.169367790222167969e+01 -2.132614105939865112e-01 8.210774421691894531e+00 2.399253845214843750e+00 6.065794080495834351e-02
3.892000000000000000e+03 7.455622863769531250e+01 1.024963760375976562e+01 -1.857897192239761353e-01 8.403003692626953125e+00 2.465164184570312500e+00 1.655444055795669556e-01
3.893000000000000000e+03 7.508708953857421875e+01 4.640088558197021484e+00 3.510324656963348389e-01 8.072410583496093750e+00 2.527033090591430664e+00 9.913654066622257233e-03
3.894000000000000000e+03 7.555830383300781250e+01 -2.104403305053710938e+01 -4.397030174732208252e-01 8.431543350219726562e+00 2.397552013397216797e+00 5.548712015151977539e-01
3.895000000000000000e+03 7.573957824707031250e+01 8.469148874282836914e-01 3.062023222446441650e-01 7.579328536987304688e+00 2.365659236907958984e+00 -4.391696453094482422e-01
3.896000000000000000e+03 7.545136260986328125e+01 -1.818840408325195312e+01 -5.507519841194152832e-01 7.973240852355957031e+00 2.226746797561645508e+00 -4.992908611893653870e-02
3.897000000000000000e+03 7.513643646240234375e+01 3.584292829036712646e-01 3.526940345764160156e-01 7.829713344573974609e+00 2.454722166061401367e+00 -4.698823094367980957e-01
3.898000000000000000e+03 7.599822235107421875e+01 -1.811236953735351562e+01 -4.897800981998443604e-01 8.147576332092285156e+00 2.297338724136352539e+00 -3.824083250947296619e-04
3.899000000000000000e+03 7.272534942626953125e+01 -2.084342384338378906e+01 -1.216634035110473633e+00 7.469401359558105469e+00 1.875830292701721191e+00 -3.711129426956176758e-01
3.900000000000000000e+03 7.590201568603515625e+01 -2.168826103210449219e+00 1.220878213644027710e-01 7.499081134796142578e+00 2.286350727081298828e+00 -6.762369275093078613e-01
3.901000000000000000e+03 7.612731170654296875e+01 -1.971869468688964844e-01 2.210226207971572876e-01 7.421972274780273438e+00 2.292898416519165039e+00 -5.383993387222290039e-01
3.902000000000000000e+03 7.312930297851562500e+01 -1.443544292449951172e+01 -2.414526790380477905e-01 6.182479381561279297e+00 1.782307982444763184e+00 -5.498390197753906250e-01
3.903000000000000000e+03 7.468740844726562500e+01 -4.003288745880126953e+00 6.628156173974275589e-03 7.593313217163085938e+00 2.279982328414916992e+00 -6.514249444007873535e-01
3.904000000000000000e+03 7.546762847900390625e+01 -1.452389121055603027e+00 1.966085135936737061e-01 7.613358497619628906e+00 2.342990159988403320e+00 -6.334169507026672363e-01
3.905000000000000000e+03 7.471221160888671875e+01 2.046971321105957031e+01 1.439542770385742188e-01 8.140229225158691406e+00 2.485255002975463867e+00 1.193764340132474899e-02
3.906000000000000000e+03 7.586721801757812500e+01 2.627393150329589844e+01 2.363738268613815308e-01 7.456448078155517578e+00 2.307846546173095703e+00 4.691733419895172119e-01
3.907000000000000000e+03 7.453589630126953125e+01 2.525786209106445312e+01 3.896984755992889404e-01 7.880250930786132812e+00 2.480984687805175781e+00 2.978750169277191162e-01
3.908000000000000000e+03 7.541661834716796875e+01 2.775922393798828125e+01 2.042350023984909058e-01 7.516050815582275391e+00 2.316085815429687500e+00 5.871949195861816406e-01
3.909000000000000000e+03 7.629720306396484375e+01 2.847935676574707031e+01 9.905304759740829468e-02 7.434550762176513672e+00 2.260081291198730469e+00 6.250199079513549805e-01
3.910000000000000000e+03 7.522384643554687500e+01 -1.027394485473632812e+01 -1.086366772651672363e-01 7.289416313171386719e+00 2.154233932495117188e+00 -5.739545822143554688e-01
3.911000000000000000e+03 7.557947540283203125e+01 -6.731908321380615234e+00 -8.584839105606079102e-02 7.458451747894287109e+00 2.211781024932861328e+00 -6.743971109390258789e-01
3.912000000000000000e+03 7.489504241943359375e+01 -7.811715126037597656e+00 -1.138008832931518555e-01 7.290466308593750000e+00 2.152999639511108398e+00 -6.145696640014648438e-01
3.913000000000000000e+03 4.795186042785644531e+00 -6.254681110382080078e+00 -1.999636515392921865e-05 -2.014337269429233856e-06 -6.603210749744903296e-06 -8.626800081401597708e-06
3.914000000000000000e+03 4.049129962921142578e+00 -6.301601409912109375e+00 2.117065560014452785e-05 1.629444341233465821e-06 6.840029982413398102e-06 7.342271601373795420e-06
3.915000000000000000e+03 7.510697937011718750e+01 2.617125320434570312e+01 3.142511248588562012e-01 7.641596794128417969e+00 2.386754512786865234e+00 4.360413551330566406e-01
3.916000000000000000e+03 7.565010833740234375e+01 2.705653381347656250e+01 2.165817320346832275e-01 7.492751121520996094e+00 2.312799930572509766e+00 5.358278155326843262e-01
3.917000000000000000e+03 4.674282550811767578e+00 1.565423011779785156e+01 -1.069874360837275162e-05 1.812430127756670117e-04 5.116328247822821140e-05 -1.163716224255040288e-04
3.918000000000000000e+03 7.313932800292968750e+01 2.502354431152343750e+01 5.136198401451110840e-01 8.389736175537109375e+00 2.671006679534912109e+00 7.988063991069793701e-02
3.919000000000000000e+03 3.528791904449462891e+00 6.200124740600585938e+00 3.787291461776476353e-06 3.701007881318219006e-05 1.223921117343707010e-05 -3.340320836286991835e-05
3.920000000000000000e+03 7.590264129638671875e+01 -3.266357040405273438e+01 -2.257632613182067871e-01 8.218819618225097656e+00 2.397917032241821289e+00 -5.376210212707519531e-01
3.921000000000000000e+03 5.681154727935791016e+00 -2.529656791687011719e+01 -8.893829362932592630e-05 -4.984486440662294626e-05 -4.163494668318890035e-05 -6.243535608518868685e-05
3.922000000000000000e+03 3.919791221618652344e+00 -1.024236869812011719e+01 -4.014013393316417933e-05 -4.422304755280492827e-06 -1.336873174295760691e-05 -1.301457996305543929e-05
3.923000000000000000e+03 4.707494258880615234e+00 -7.796217441558837891e+00 -2.698349089769180864e-05 -4.064264430780895054e-06 -9.314326234743930399e-06 -1.067799803422531113e-05
3.924000000000000000e+03 7.524558258056640625e+01 -3.243458938598632812e+01 -2.610703110694885254e-01 8.134661674499511719e+00 2.362077474594116211e+00 -5.003426074981689453e-01
3.925000000000000000e+03 7.423113250732421875e+01 -3.111697769165039062e+01 -7.580196857452392578e-02 8.194231986999511719e+00 2.435528993606567383e+00 -4.162980020046234131e-01
3.926000000000000000e+03 5.272124290466308594e+00 9.382142066955566406e+00 3.535975338309071958e-05 6.070091694709844887e-05 2.881820000766310841e-05 -7.022517092991620302e-05
3.927000000000000000e+03 1.074523067474365234e+01 -1.171620273590087891e+01 -3.406687392271123827e-05 -1.280547348869731650e-05 -1.406170395057415590e-05 -7.222743647616880480e-07
3.928000000000000000e+03 4.198880195617675781e+00 7.399567127227783203e+00 2.556395520514342934e-05 4.078077108715660870e-05 1.990341661439742893e-05 -4.139110751566477120e-05
3.929000000000000000e+03 4.018803596496582031e+00 -2.316040229797363281e+01 -1.523385872133076191e-04 3.025151272595394403e-05 -3.662612289190292358e-05 -3.309304156573489308e-05
3.930000000000000000e+03 5.515017509460449219e+00 -2.277848243713378906e+01 -1.030983621603809297e-04 -8.110740600386634469e-05 -5.526173117686994374e-05 -9.753309132065623999e-05
3.931000000000000000e+03 4.586271762847900391e+00 -2.559885597229003906e+01 -1.291980734094977379e-04 8.364154200535267591e-05 -1.366696051263716072e-05 1.893390981422271580e-05
3.932000000000000000e+03 4.018725395202636719e+00 -2.399288940429687500e+01 1.253843802260234952e-04 -1.440467531210742891e-05 3.329391256556846201e-05 2.731339918682351708e-06
3.933000000000000000e+03 5.532855510711669922e+00 -2.421429252624511719e+01 -3.236443035348202102e-06 -7.775621634209528565e-05 -2.429779851809144020e-05 -8.452738984487950802e-05
3.934000000000000000e+03 5.228927135467529297e+00 -2.136657142639160156e+01 -1.465205277781933546e-04 4.621375774149782956e-05 -3.009203101100865752e-05 -5.184976544114761055e-05
3.935000000000000000e+03 4.569213867187500000e+00 -1.658728599548339844e+01 1.173708878923207521e-04 -1.435611648048507050e-05 3.090443351538851857e-05 3.629235288826748729e-05
3.936000000000000000e+03 3.833190202713012695e+00 1.104459857940673828e+01 3.393229053472168744e-05 9.323936683358624578e-05 3.815149830188602209e-05 -6.769347965018823743e-05
3.937000000000000000e+03 3.873926639556884766e+00 -1.911116600036621094e+01 1.067634657374583185e-04 -4.988479304302018136e-06 3.053249747608788311e-05 1.685373536020051688e-05
3.938000000000000000e+03 6.366211414337158203e+00 -1.774006652832031250e+01 3.395149178686551750e-05 6.558701716130599380e-05 2.986155232065357268e-05 6.339757965179160237e-05
3.939000000000000000e+03 3.899832725524902344e+00 1.257406044006347656e+01 3.605933306971564889e-05 1.189913455164059997e-04 4.651520066545344889e-05 -7.892044231994077563e-05
3.940000000000000000e+03 3.959764003753662109e+00 1.896793174743652344e+01 5.627819700748659670e-05 2.407167194178327918e-04 8.909847383620217443e-05 -1.237026299349963665e-04
3.941000000000000000e+03 4.694818019866943359e+00 1.884307670593261719e+01 -2.481520823494065553e-05 2.611757954582571983e-04 7.090817234711721539e-05 -1.419648178853094578e-04
3.942000000000000000e+03 4.572717666625976562e+00 -2.065088081359863281e+01 -1.222607243107631803e-04 -5.913162567594554275e-06 -3.845216633635573089e-05 -3.601676871767267585e-05
3.943000000000000000e+03 4.525799274444580078e+00 -1.986171150207519531e+01 9.989072714233770967e-05 1.582701952429488301e-05 3.471532181720249355e-05 8.820577932056039572e-06
3.944000000000000000e+03 4.639567375183105469e+00 -1.415906620025634766e+01 -6.661614315817132592e-05 -1.114555834647035226e-05 -2.332850999664515257e-05 -2.838603177224285901e-05
3.945000000000000000e+03 5.775852203369140625e+00 -1.959899711608886719e+01 6.642594962613657117e-05 7.754239777568727732e-05 4.319050276535563171e-05 3.325479337945580482e-05
3.946000000000000000e+03 4.619033336639404297e+00 -1.578741264343261719e+01 -9.621328354114666581e-05 3.443476771280984394e-06 -2.783094168989919126e-05 -3.906499841832555830e-05
3.947000000000000000e+03 4.647540569305419922e+00 -1.497591495513916016e+01 7.488054689019918442e-05 9.351677363156341016e-06 2.526966818550135940e-05 3.355224180268123746e-05
3.948000000000000000e+03 4.286188602447509766e+00 6.793312072753906250e+00 7.601295237691374496e-06 4.971602538716979325e-05 1.719519605103414506e-05 -4.906091635348275304e-05
3.949000000000000000e+03 3.914345264434814453e+00 -1.264738559722900391e+01 5.461214459501206875e-05 6.233215117390500382e-06 1.825360777729656547e-05 1.792881994333583862e-05
3.950000000000000000e+03 4.639140129089355469e+00 -9.363867759704589844e+00 -3.492569885565899312e-05 -5.590614364336943254e-06 -1.215489373862510547e-05 -1.383479866490233690e-05
3.951000000000000000e+03 4.626307487487792969e+00 -1.335075759887695312e+01 5.942093775956891477e-05 1.059473743225680664e-05 2.100470192090142518e-05 2.539495108067058027e-05
3.952000000000000000e+03 4.731998920440673828e+00 1.401116085052490234e+01 -1.188866576740110759e-06 1.438617764506489038e-04 4.280187204130925238e-05 -1.022759242914617062e-04
3.953000000000000000e+03 4.670789718627929688e+00 1.643834114074707031e+01 5.354432141757570207e-05 1.798455923562869430e-04 7.001696940278634429e-05 -1.253834925591945648e-04
3.954000000000000000e+03 4.703313350677490234e+00 1.722852325439453125e+01 -1.526545202068518847e-05 2.160372969228774309e-04 6.023155219736509025e-05 -1.256387913599610329e-04
3.955000000000000000e+03 7.369290161132812500e+01 -3.472579956054687500e+01 -5.290669202804565430e-01 7.028050899505615234e+00 1.949695110321044922e+00 1.119148209691047668e-01
3.956000000000000000e+03 3.960008144378662109e+00 -2.716422653198242188e+01 1.962788082892075181e-04 4.739485120808240026e-06 6.030549047864042222e-05 -9.693787433207035065e-06
3.957000000000000000e+03 4.652285099029541016e+00 -2.783657455444335938e+01 2.547654730733484030e-04 -2.431821258142008446e-06 7.570009620394557714e-05 1.234983847098192200e-05
3.958000000000000000e+03 4.503026008605957031e+00 9.434745788574218750e+00 -4.050713471315248171e-07 7.826105866115540266e-05 2.335679528187029064e-05 -6.126644439063966274e-05
3.959000000000000000e+03 5.590338897705078125e+01 -2.459264183044433594e+01 3.234631717205047607e-01 1.453185081481933594e+00 5.329945087432861328e-01 4.865077137947082520e-01
3.960000000000000000e+03 1.281857013702392578e+01 -7.561900615692138672e+00 -2.083818617393262684e-05 -1.819495651034230832e-06 -6.797304649808211252e-06 -9.912577297654934227e-06
3.961000000000000000e+03 1.399459934234619141e+01 -1.108848285675048828e+01 3.244491745135746896e-05 9.643863450037315488e-06 1.262663499801419675e-05 1.300376516155665740e-05
3.962000000000000000e+03 4.624078750610351562e+00 2.038853836059570312e+01 -3.708240546984598041e-05 3.040512383449822664e-04 8.009064913494512439e-05 -1.591285690665245056e-04
3.963000000000000000e+03 4.589617729187011719e+00 1.165818881988525391e+01 4.110656300326809287e-05 1.001374621409922838e-04 4.237320899846963584e-05 -8.351566066266968846e-05
3.964000000000000000e+03 4.498360157012939453e+00 1.019034767150878906e+01 4.022265784442424774e-05 7.442972855642437935e-05 3.439571810304187238e-05 -7.094474131008610129e-05
3.965000000000000000e+03 4.523118972778320312e+00 1.092301559448242188e+01 -3.090351583523442969e-06 9.768647578312084079e-05 2.837883585016243160e-05 -7.956370973261073232e-05
3.966000000000000000e+03 7.536464691162109375e+01 1.712952041625976562e+01 3.633729368448257446e-02 7.859148025512695312e+00 2.368645668029785156e+00 -2.882842719554901123e-02
3.967000000000000000e+03 6.026529312133789062e+00 -2.730092048645019531e+01 9.390460036229342222e-05 1.779930607881397009e-04 8.156929834512993693e-05 7.379356702585937455e-06
3.968000000000000000e+03 7.541716003417968750e+01 2.034861564636230469e+01 1.227863281965255737e-01 7.816411972045898438e+00 2.381759405136108398e+00 2.942596934735774994e-02
3.969000000000000000e+03 7.328033447265625000e+01 1.980366897583007812e+01 1.108258590102195740e-01 8.853650093078613281e+00 2.689342975616455078e+00 -1.933271810412406921e-02
3.970000000000000000e+03 4.145579814910888672e+00 2.542175865173339844e+01 4.393157360027544200e-05 4.200527037028223276e-04 1.391952828271314502e-04 -1.376889558741822839e-04
3.971000000000000000e+03 4.994064807891845703e+00 2.837463951110839844e+01 -5.546258034883067012e-05 4.870148841291666031e-04 1.294656831305474043e-04 -1.983939146157354116e-04
3.972000000000000000e+03 4.744728088378906250e+00 2.621927070617675781e+01 1.198790414491668344e-05 4.231881175655871630e-04 1.305527985095977783e-04 -1.241218706127256155e-04
3.973000000000000000e+03 7.395587158203125000e+01 1.731036186218261719e+01 6.185230612754821777e-02 8.516045570373535156e+00 2.573369264602661133e+00 -1.441866997629404068e-02
3.974000000000000000e+03 7.465452575683593750e+01 1.641360855102539062e+01 2.793518826365470886e-02 8.184117317199707031e+00 2.463615894317626953e+00 -3.919117152690887451e-02
3.975000000000000000e+03 5.388129711151123047e+00 1.629290771484375000e+01 -1.114828046411275864e-05 1.762184547260403633e-04 4.952105155098251998e-05 -1.296828704653307796e-04
3.976000000000000000e+03 7.516964721679687500e+01 3.475499725341796875e+01 -2.555842697620391846e-01 7.323752880096435547e+00 2.120450496673583984e+00 4.301461577415466309e-01
3.977000000000000000e+03 4.687284088134765625e+01 -1.160322093963623047e+01 3.557351737981662154e-05 -3.177013695676578209e-06 9.718951332615688443e-06 1.179775244963821024e-05
3.978000000000000000e+03 7.545914459228515625e+01 -3.429068756103515625e+01 -3.521309792995452881e-01 7.909992694854736328e+00 2.267358541488647461e+00 -3.041338026523590088e-01
3.979000000000000000e+03 5.687291145324707031e+00 2.321738052368164062e+01 8.251288090832531452e-05 3.013677487615495920e-04 1.151641845353879035e-04 -1.975842315005138516e-04
3.980000000000000000e+03 7.311811065673828125e+01 3.184700775146484375e+01 -2.579976022243499756e-01 7.055752754211425781e+00 2.039326667785644531e+00 4.343756437301635742e-01
3.981000000000000000e+03 7.545771026611328125e+01 3.226449966430664062e+01 -1.640038788318634033e-01 7.472598075866699219e+00 2.192578315734863281e+00 6.045053005218505859e-01
3.982000000000000000e+03 7.744059085845947266e+00 -3.061466979980468750e+01 7.434237049892544746e-04 9.932579268934205174e-05 2.528248587623238564e-04 4.118877986911684275e-04
3.983000000000000000e+03 6.766381072998046875e+01 -1.272001075744628906e+01 4.194473624229431152e-01 2.822433233261108398e+00 9.725642204284667969e-01 4.185670614242553711e-01
3.984000000000000000e+03 5.480628490447998047e+00 -3.174897956848144531e+01 1.527712593087926507e-04 2.250930701848119497e-04 1.133592959376983345e-04 3.738182131201028824e-04
3.985000000000000000e+03 7.463206481933593750e+01 -2.862730216979980469e+01 7.874087691307067871e-01 8.630242347717285156e+00 2.825295209884643555e+00 -3.590573370456695557e-01
3.986000000000000000e+03 5.207502365112304688e+00 3.211368560791015625e+01 -3.736798316822387278e-05 5.933451466262340546e-04 1.667931501287966967e-04 -1.759674778440967202e-04
3.987000000000000000e+03 6.267048358917236328e+00 -6.143783092498779297e+00 -1.414664347976213321e-05 -4.746178092318587005e-06 -5.667846380674745888e-06 -1.287560917262453586e-05
3.988000000000000000e+03 4.847408294677734375e+00 -5.497393608093261719e+00 1.722876004350837320e-05 1.639910692574630957e-06 5.660601345880422741e-06 8.155744581017643213e-06
3.989000000000000000e+03 5.540591239929199219e+00 -6.207219600677490234e+00 1.819384851842187345e-05 2.405656005066703074e-06 6.179850970511324704e-06 1.049156708177179098e-05
3.990000000000000000e+03 5.968780517578125000e+00 -2.039919471740722656e+01 -5.728003816329874098e-05 -1.006181410048156977e-04 -4.736945265904068947e-05 -4.154149792157113552e-05
3.991000000000000000e+03 6.100739955902099609e+00 -1.859033012390136719e+01 1.021645439323037863e-04 3.821917925961315632e-05 4.211511622997932136e-05 5.869238884770311415e-05
3.992000000000000000e+03 7.474764251708984375e+01 2.129563903808593750e+01 1.844427585601806641e-01 8.097008705139160156e+00 2.484435558319091797e+00 3.897684440016746521e-02
3.993000000000000000e+03 7.127238750457763672e+00 -3.359476089477539062e+01 7.617769879288971424e-04 2.407002029940485954e-04 3.007431514561176300e-04 9.232278680428862572e-04
3.994000000000000000e+03 7.394171905517578125e+01 -3.187900543212890625e+01 -2.951410412788391113e-01 7.979847431182861328e+00 2.305412054061889648e+00 -2.881701886653900146e-01
3.995000000000000000e+03 7.489337921142578125e+01 -2.968900108337402344e+01 4.023724794387817383e-01 8.437098503112792969e+00 2.651841163635253906e+00 -5.324302315711975098e-01
3.996000000000000000e+03 7.545235443115234375e+01 -1.744778442382812500e+01 -5.315424799919128418e-01 7.843979358673095703e+00 2.193731069564819336e+00 -1.793667227029800415e-01
3.997000000000000000e+03 5.193995475769042969e+00 -3.628049468994140625e+01 9.629914711695164442e-05 6.745524005964398384e-04 2.312554715899750590e-04 8.948316099122166634e-04
3.998000000000000000e+03 5.727683544158935547e+00 -3.514617156982421875e+01 2.114841190632432699e-04 4.816836444661021233e-04 2.079503319691866636e-04 5.939223337918519974e-04
3.999000000000000000e+03 7.465262603759765625e+01 1.559659957885742188e+01 -8.027498261071741581e-04 8.183733940124511719e+00 2.454879283905029297e+00 -5.472385138273239136e-02
4.000000000000000000e+03 7.183455657958984375e+01 -4.873932361602783203e+00 -2.116797864437103271e-02 7.285565376281738281e+00 2.179319143295288086e+00 5.374656524509191513e-03
4.001000000000000000e+03 1.339449977874755859e+01 -1.091464614868164062e+01 -2.873188896046485752e-05 -1.443448218196863309e-05 -1.294991125178057700e-05 2.250693341920850798e-06
4.002000000000000000e+03 7.461647796630859375e+01 3.575030517578125000e+01 -3.137750327587127686e-01 7.070323944091796875e+00 2.026964664459228516e+00 3.146362602710723877e-01
4.003000000000000000e+03 1.764442634582519531e+01 3.926288127899169922e+00 8.895112114259973168e-05 -3.553221540641970932e-05 1.602567317604552954e-05 -2.764948840194847435e-05
4.004000000000000000e+03 7.170440673828125000e+01 3.406536865234375000e+01 -4.979683756828308105e-01 6.217436790466308594e+00 1.715840458869934082e+00 2.419332042336463928e-03
4.005000000000000000e+03 7.527187347412109375e+01 3.348440551757812500e+01 -2.190217822790145874e-01 7.414315223693847656e+00 2.158587932586669922e+00 5.304520130157470703e-01
4.006000000000000000e+03 3.693024444580078125e+01 -1.489227199554443359e+01 2.608351678645703942e-06 8.299020919366739690e-06 3.272211642979527824e-06 2.539165734560810961e-06
4.007000000000000000e+03 3.691129684448242188e+01 -1.429432010650634766e+01 -1.801943653845228255e-05 -6.598547315661562607e-06 -7.385394837911007926e-06 -7.253724561451235786e-06
4.008000000000000000e+03 1.622536277770996094e+01 -1.019452857971191406e+01 -1.615479777683503926e-05 3.486701643851120025e-06 -3.800428885369910859e-06 4.477646143641322851e-06
4.009000000000000000e+03 1.700070381164550781e+01 -9.852658271789550781e+00 -1.671470636210869998e-05 -3.669316583909676410e-06 -6.115206815593410283e-06 6.679524176433915272e-06
4.010000000000000000e+03 2.972249412536621094e+01 -1.331710338592529297e+01 1.678181504871645302e-08 1.437992159480927512e-05 4.319011168263386935e-06 8.625981536170002073e-06
4.011000000000000000e+03 3.162858390808105469e+01 -1.377310466766357422e+01 -1.458166570955654606e-05 -7.119880137906875461e-06 -6.510463663289556280e-06 -1.032883801599382423e-06
4.012000000000000000e+03 2.637781333923339844e+01 -5.258432388305664062e+00 2.621791281853802502e-05 1.735037039907183498e-05 1.307048478338401765e-05 -1.300892222388938535e-06
4.013000000000000000e+03 2.681630134582519531e+01 -7.164646148681640625e+00 1.808329943742137402e-05 -1.837814306782092899e-05 -8.845265142554126214e-08 3.129935294055030681e-06
4.014000000000000000e+03 6.948743343353271484e+00 -6.719043731689453125e+00 -1.905403479440792580e-07 -1.134318426920799538e-05 -3.460117341091972776e-06 -1.231548594660125673e-05
4.015000000000000000e+03 4.671107864379882812e+01 -9.751850128173828125e+00 -3.353575812070630491e-05 -2.166739977838005871e-05 -1.656094718782696873e-05 -2.277461680932901800e-05
4.016000000000000000e+03 4.683076095581054688e+01 -1.038595199584960938e+01 3.600035415729507804e-05 6.786523954360745847e-06 1.283606343349674717e-05 1.211254675581585616e-05
4.017000000000000000e+03 5.022162246704101562e+01 -2.701903152465820312e+01 4.172216951847076416e-01 1.652229726314544678e-01 1.747334003448486328e-01 -4.038631916046142578e-01
4.018000000000000000e+03 4.173429107666015625e+01 -1.486350059509277344e+01 9.069611223821993917e-06 -3.708974190885783173e-06 1.608191155355598312e-06 -4.198675924271810800e-06
4.019000000000000000e+03 8.298065185546875000e+00 -3.136447906494140625e+01 7.571764290332794189e-04 -1.159592939075082541e-04 1.923651434481143951e-04 3.444324247539043427e-04
4.020000000000000000e+03 7.407344818115234375e+01 -2.680277252197265625e+01 1.188978314399719238e+00 9.142576217651367188e+00 3.099466323852539062e+00 5.354684963822364807e-02
4.021000000000000000e+03 4.474383926391601562e+01 -1.594911766052246094e+01 -9.685425084171583876e-07 1.038012760545825586e-05 2.823475597324431874e-06 2.235411557194311172e-06
4.022000000000000000e+03 7.369651794433593750e+01 7.318641185760498047e+00 2.393698543310165405e-01 8.889318466186523438e+00 2.738606691360473633e+00 1.719815284013748169e-01
4.023000000000000000e+03 7.426425933837890625e+01 6.745361804962158203e+00 2.646809220314025879e-01 8.606833457946777344e+00 2.661454200744628906e+00 1.593803763389587402e-01
4.024000000000000000e+03 7.107911682128906250e+01 -8.177356719970703125e+00 -7.051348686218261719e-02 5.960096836090087891e+00 1.766875028610229492e+00 6.718202680349349976e-02
4.025000000000000000e+03 4.232262802124023438e+01 -1.636300849914550781e+01 -6.489975135082204361e-07 9.794055586098693311e-06 2.743517370618064888e-06 2.291915279784006998e-06
4.026000000000000000e+03 6.944288730621337891e+00 -6.061560153961181641e+00 9.594598850526381284e-06 8.199007424991577864e-06 5.338081791705917567e-06 1.253210939466953278e-05
4.027000000000000000e+03 7.582200527191162109e+00 -6.017060279846191406e+00 -1.062168030330212787e-05 -7.591520443384069949e-06 -5.463960405904799700e-06 -8.398729733016807586e-06
4.028000000000000000e+03 7.558754730224609375e+01 -3.173539161682128906e+00 5.576507747173309326e-02 7.544857501983642578e+00 2.280186653137207031e+00 -7.036281824111938477e-01
4.029000000000000000e+03 2.293098640441894531e+01 -1.112520933151245117e+00 8.820639050099998713e-05 3.411512352613499388e-07 2.656426295288838446e-05 -1.797190452634822577e-05
4.030000000000000000e+03 6.732408905029296875e+01 -1.574349212646484375e+01 4.155778586864471436e-01 1.944258093833923340e+00 7.079507708549499512e-01 1.286993622779846191e-01
4.031000000000000000e+03 4.547557067871093750e+01 -1.148614215850830078e+01 4.052985968883149326e-05 -2.088186920445878059e-05 5.894397418160224333e-06 2.160854364774422720e-06
4.032000000000000000e+03 3.884088897705078125e+01 1.594073581695556641e+01 6.425563478842377663e-04 3.084175696130841970e-04 2.852921898011118174e-04 3.831621143035590649e-04
4.033000000000000000e+03 4.229404067993164062e+01 -1.577464771270751953e+01 -7.803321750543545932e-06 -7.416134394588880241e-06 -4.565836661640787497e-06 -1.255746974493376911e-05
4.034000000000000000e+03 6.634811401367187500e+00 -2.966582489013671875e+01 2.205776545451954007e-04 1.826039515435695648e-04 1.209544861922040582e-04 1.786595676094293594e-04
4.035000000000000000e+03 7.796089649200439453e+00 6.400077819824218750e+00 7.441621710313484073e-05 3.379894769750535488e-05 3.246454798500053585e-05 -7.614966307301074266e-05
4.036000000000000000e+03 8.013198852539062500e+00 -1.574533271789550781e+01 -3.475185803836211562e-05 6.280755769694224000e-05 8.416710443270858377e-06 9.837190617645319435e-08
4.037000000000000000e+03 7.342073059082031250e+01 -2.471018409729003906e+01 1.028181552886962891e+00 9.321571350097656250e+00 3.104925870895385742e+00 2.802544832229614258e-01
4.038000000000000000e+03 7.478137207031250000e+01 -2.552622985839843750e+01 9.783299565315246582e-01 8.688740730285644531e+00 2.900121212005615234e+00 3.373266160488128662e-01
4.039000000000000000e+03 3.824186325073242188e+01 2.260635185241699219e+01 1.715046702884137630e-03 8.430356683675199747e-05 5.398050998337566853e-04 3.793435462284833193e-04
4.040000000000000000e+03 6.941857910156250000e+01 -1.090066337585449219e+01 1.336886435747146606e-01 4.401953697204589844e+00 1.360692620277404785e+00 2.306167483329772949e-01
4.041000000000000000e+03 7.350092315673828125e+01 -1.114317131042480469e+01 -1.233743429183959961e-01 6.550165653228759766e+00 1.928037405014038086e+00 -4.856397807598114014e-01
4.042000000000000000e+03 7.569126892089843750e+01 2.268791198730468750e+01 2.013562619686126709e-01 7.619422435760498047e+00 2.346233606338500977e+00 1.455646008253097534e-01
4.043000000000000000e+03 1.545484638214111328e+01 3.520144701004028320e+00 8.037704537855461240e-05 -1.367427830700762570e-05 2.001083157665561885e-05 -3.731163087650202215e-05
4.044000000000000000e+03 3.859073257446289062e+01 2.192814064025878906e+01 1.214537885971367359e-03 -2.544245508033782244e-04 2.880340034607797861e-04 4.092118178959935904e-04
4.045000000000000000e+03 3.907422256469726562e+01 1.773168945312500000e+01 8.035753271542489529e-04 3.957569424528628588e-04 3.597996837925165892e-04 5.007263389416038990e-04
4.046000000000000000e+03 7.143028259277343750e+01 -7.489855289459228516e+00 -9.770230948925018311e-02 6.319860935211181641e+00 1.866647481918334961e+00 -2.099578967317938805e-03
4.047000000000000000e+03 7.081195831298828125e+01 -7.111622810363769531e+00 -4.851346090435981750e-02 6.164032459259033203e+00 1.834655761718750000e+00 2.183479517698287964e-01
4.048000000000000000e+03 4.574103927612304688e+01 -1.481254482269287109e+01 -5.616191629087552428e-06 -9.889445209410041571e-06 -4.651690687751397491e-06 -1.362604871246730909e-05
4.049000000000000000e+03 7.331461334228515625e+01 1.732762455940246582e+00 6.094332337379455566e-01 8.915389060974121094e+00 2.857446670532226562e+00 -9.119374305009841919e-02
4.050000000000000000e+03 7.541736602783203125e+01 2.889459371566772461e+00 3.791832625865936279e-01 7.805599689483642578e+00 2.455434799194335938e+00 -1.887320727109909058e-01
4.051000000000000000e+03 3.806787490844726562e+01 -1.585643100738525391e+01 -1.681142020970582962e-05 -7.456023922713939101e-07 -5.267107098916312680e-06 -7.112470029824180529e-06
4.052000000000000000e+03 3.760728836059570312e+01 -1.502855014801025391e+01 -1.590668216522317380e-05 -7.450747943948954344e-06 -7.007228759903227910e-06 -5.473525106935994700e-06
4.053000000000000000e+03 1.454612445831298828e+01 -1.113241577148437500e+01 -1.021424304781248793e-05 -1.640322989260312170e-05 -7.985241609276272357e-06 -7.786990863678511232e-06
4.054000000000000000e+03 6.233920574188232422e+00 -2.844241714477539062e+01 1.952070888364687562e-04 2.037706290138885379e-04 1.196933153551071882e-04 1.069919526344165206e-04
4.055000000000000000e+03 2.588315010070800781e+01 -5.755642890930175781e+00 2.949505687865894288e-05 -2.429095729894470423e-05 1.561229851176904049e-06 4.857466592511627823e-06
4.056000000000000000e+03 2.686250305175781250e+01 -5.970280170440673828e+00 2.722157660173252225e-05 -2.190151644754223526e-05 1.596018137206556275e-06 4.778169568453449756e-06
4.057000000000000000e+03 3.972506713867187500e+01 7.412907600402832031e+00 -1.315073022851720452e-04 1.209258334711194038e-04 -3.174440280417911708e-06 2.164727629860863090e-05
4.058000000000000000e+03 4.035470962524414062e+01 1.494697690010070801e+00 3.188581831636838615e-05 3.035054942301940173e-05 1.867091123131103814e-05 2.761447649390902370e-05
4.059000000000000000e+03 4.803277587890625000e+01 -1.317733478546142578e+01 1.618620808585546911e-05 -1.430715201422572136e-05 5.637167532768216915e-07 -1.186598910862812772e-05
4.060000000000000000e+03 7.335865020751953125e+01 -2.173605537414550781e+01 -7.114795446395874023e-01 8.187402725219726562e+00 2.242777109146118164e+00 2.285458296537399292e-01
4.061000000000000000e+03 1.984506988525390625e+01 6.676559448242187500e-01 8.482796692987903953e-05 -3.713108162628486753e-05 1.430906650057295337e-05 1.006347360998915974e-06
4.062000000000000000e+03 1.727386856079101562e+01 3.296626329421997070e+00 1.437574101146310568e-04 -1.027182770485524088e-05 4.004567381343804300e-05 -4.537519635050557554e-05
4.063000000000000000e+03 6.761531352996826172e+00 -1.734742164611816406e+01 3.038835529878269881e-05 -7.408910460071638227e-05 -1.311022515437798575e-05 -2.912062154791783541e-05
4.064000000000000000e+03 6.977278900146484375e+01 3.737656784057617188e+01 -3.365014195442199707e-01 4.608632087707519531e+00 1.281639218330383301e+00 -3.669293224811553955e-01
4.065000000000000000e+03 7.178463745117187500e+01 -6.773902893066406250e+00 -9.926958382129669189e-02 6.655555725097656250e+00 1.966885805130004883e+00 -6.682840734720230103e-02
4.066000000000000000e+03 2.817572021484375000e+01 -8.016993522644042969e+00 5.815512849949300289e-06 1.931586302816867828e-05 7.539412763435393572e-06 5.490975127031560987e-06
4.067000000000000000e+03 7.466626739501953125e+01 -3.012457609176635742e+00 8.382873982191085815e-02 7.702134132385253906e+00 2.335788965225219727e+00 -6.373276710510253906e-01
4.068000000000000000e+03 4.058877563476562500e+01 2.653104972839355469e+01 2.565492643043398857e-03 -1.238118711626157165e-04 7.325041806325316429e-04 5.541326827369630337e-04
4.069000000000000000e+03 2.371883010864257812e+01 -2.984335899353027344e+00 5.684528514393605292e-05 -3.638646012404933572e-05 6.137648142612306401e-06 8.870526471582707018e-06
4.070000000000000000e+03 2.417997550964355469e+01 -2.442509412765502930e+00 6.468648643931373954e-05 7.456743787770392373e-06 2.164296893170103431e-05 -1.161127238447079435e-05
4.071000000000000000e+03 2.586915969848632812e+01 -4.544815063476562500e+00 4.036738027934916317e-05 -2.917780875577591360e-05 3.356871729920385405e-06 7.591355370095698163e-06
4.072000000000000000e+03 2.533299255371093750e+01 -3.835826873779296875e+00 4.349253867985680699e-05 1.352905928797554225e-05 1.710648029984440655e-05 -6.193229637574404478e-06
4.073000000000000000e+03 7.408969879150390625e+01 -5.192437171936035156e+00 -6.484055519104003906e-02 7.448905944824218750e+00 2.215219736099243164e+00 -5.757029652595520020e-01
4.074000000000000000e+03 2.775755882263183594e+01 -7.355775833129882812e+00 1.660501038713846356e-05 -1.612530468264594674e-05 1.439118335611055954e-07 2.625872411954333074e-06
4.075000000000000000e+03 7.390638732910156250e+01 1.243090057373046875e+01 -2.676579058170318604e-01 8.618500709533691406e+00 2.505252838134765625e+00 -4.892493411898612976e-02
4.076000000000000000e+03 4.265425109863281250e+01 2.918018913269042969e+01 2.709474880248308182e-03 -1.665936666540801525e-03 3.130614641122519970e-04 1.173863420262932777e-03
4.077000000000000000e+03 4.013866424560546875e+01 2.783394622802734375e+01 1.575461705215275288e-03 -1.598764676600694656e-03 -6.990866495470982045e-06 1.585275895195081830e-04
4.078000000000000000e+03 2.161132812500000000e+01 1.240905374288558960e-01 1.109882432501763105e-04 -6.642200332862557843e-06 3.130381082883104682e-05 -2.473839595040772110e-05
4.079000000000000000e+03 3.504644393920898438e+01 -1.439778614044189453e+01 5.321824119164375588e-06 6.847137228760402650e-06 3.650688313427963294e-06 4.238935616740491241e-06
4.080000000000000000e+03 4.955290985107421875e+01 -1.399915313720703125e+01 2.423839578113984317e-05 -5.919352588534820825e-06 5.495713139680447057e-06 1.026268000714480877e-05
4.081000000000000000e+03 4.150953292846679688e+01 2.370593547821044922e+00 4.257986074662767351e-05 4.930068462272174656e-05 2.756416324700694531e-05 5.301139754010364413e-05
4.082000000000000000e+03 6.896237182617187500e+01 -1.329144287109375000e+01 2.513837814331054688e-01 3.520289421081542969e+00 1.131502032279968262e+00 7.745783030986785889e-02
4.083000000000000000e+03 7.408815002441406250e+01 -1.126349067687988281e+01 -1.262528002262115479e-01 6.802765369415283203e+00 2.002953767776489258e+00 -5.173756480216979980e-01
4.084000000000000000e+03 3.977284240722656250e+01 5.310882091522216797e+00 6.300445966189727187e-05 2.944648440461605787e-05 2.773528285615611821e-05 1.207867899211123586e-04
4.085000000000000000e+03 4.093165206909179688e+01 1.947269797325134277e+00 -1.396550305798882619e-05 -2.052354830084368587e-06 -4.805357548320898786e-06 -2.156486334570217878e-05
4.086000000000000000e+03 7.137329101562500000e+01 -1.902353286743164062e+01 -1.029918551445007324e+00 5.263104915618896484e+00 1.269955873489379883e+00 -1.149015307426452637e+00
4.087000000000000000e+03 6.667973327636718750e+01 -1.846012115478515625e+01 -1.561661958694458008e-01 7.426919937133789062e-01 1.759577393531799316e-01 2.344035804271697998e-01
4.088000000000000000e+03 9.980169296264648438e+00 5.793956279754638672e+00 7.833001291146501899e-05 4.295703547541052103e-05 3.638611451606266201e-05 -9.053634857991710305e-05
4.089000000000000000e+03 1.054828739166259766e+01 5.088488101959228516e+00 5.375266482587903738e-05 1.026077461574459448e-05 1.920403155963867903e-05 -5.396493725129403174e-05
4.090000000000000000e+03 3.922064208984375000e+01 1.860359001159667969e+01 4.365687782410532236e-04 1.616523368284106255e-04 1.794663403416052461e-04 6.596303428523242474e-04
4.091000000000000000e+03 4.609765625000000000e+01 -2.831691360473632812e+01 -3.114837408065795898e-02 -3.885422646999359131e-01 -1.259071826934814453e-01 -4.565016329288482666e-01
4.092000000000000000e+03 4.054007339477539062e+01 2.461059761047363281e+01 1.131045166403055191e-03 -3.101276524830609560e-04 2.462752454448491335e-04 7.764620240777730942e-04
4.093000000000000000e+03 2.337388229370117188e+01 -5.395472645759582520e-01 7.767087663523852825e-05 -4.927163899992592633e-05 8.519769835402257740e-06 1.713100027700420469e-05
4.094000000000000000e+03 3.923368072509765625e+01 2.460489845275878906e+01 1.538777607493102551e-03 -1.199837541207671165e-03 1.016820096992887557e-04 4.766534257214516401e-04
4.095000000000000000e+03 4.573840618133544922e+00 -1.740796279907226562e+01 -1.320907904300838709e-04 1.078068271453958005e-05 -3.639303031377494335e-05 -2.754257548076566309e-05
4.096000000000000000e+03 2.356584930419921875e+01 -1.766492962837219238e+00 6.809291517129167914e-05 -4.250307392794638872e-05 7.676951099711004645e-06 1.271064320462755859e-05
4.097000000000000000e+03 2.765332221984863281e+01 -8.519624710083007812e+00 9.165255505649838597e-06 -1.364713170914910734e-05 -1.344562633676105179e-06 2.075590145977912471e-06
4.098000000000000000e+03 2.858183860778808594e+01 -8.650270462036132812e+00 8.386532499571330845e-06 -1.167378468380775303e-05 -9.861756780082941987e-07 1.107758066609676462e-06
4.099000000000000000e+03 1.877562904357910156e+01 2.333015918731689453e+00 1.412838319083675742e-04 -1.405227521900087595e-05 3.816946627921424806e-05 -3.791468770941719413e-05
4.100000000000000000e+03 6.214309692382812500e+00 -3.711368942260742188e+01 -2.928237372543662786e-04 9.799790568649768829e-04 2.061465929728001356e-04 7.106797420419752598e-04
4.101000000000000000e+03 3.653487443923950195e+00 -3.758279418945312500e+01 1.242439175257459283e-04 6.837131804786622524e-04 2.423871337668970227e-04 5.453071789816021919e-04
4.102000000000000000e+03 7.523724365234375000e+01 2.537741088867187500e+01 3.120837211608886719e-01 7.639662742614746094e+00 2.385523796081542969e+00 3.592994213104248047e-01
4.103000000000000000e+03 1.582059955596923828e+01 4.166255950927734375e+00 1.388248783769086003e-04 -9.912897667163633741e-07 4.135007475269958377e-05 -5.540243000723421574e-05
4.104000000000000000e+03 4.144437026977539062e+01 2.808379745483398438e+01 2.567034447565674782e-03 -3.033707907889038324e-04 6.790990591980516911e-04 2.735200396273285151e-04
4.105000000000000000e+03 1.172193527221679688e+01 -7.172041893005371094e+00 -1.772299583535641432e-05 -6.674583801213884726e-06 -7.319274118344765157e-06 8.838339340400125366e-07
4.106000000000000000e+03 7.330589294433593750e+01 -9.071334600448608398e-01 3.766649663448333740e-01 8.380048751831054688e+00 2.627014160156250000e+00 -3.399631679058074951e-01
4.107000000000000000e+03 1.514061927795410156e+01 4.593085289001464844e+00 7.982110400917008519e-05 -1.868080653366632760e-05 1.834209069784265012e-05 -4.732771049020811915e-05
4.108000000000000000e+03 3.952112197875976562e+01 2.610876083374023438e+01 1.770341652445495129e-03 -1.446742564439773560e-03 9.707972640171647072e-05 1.724043395370244980e-04
4.109000000000000000e+03 7.355502319335937500e+01 2.685778999328613281e+01 4.310382902622222900e-01 7.928378105163574219e+00 2.507824897766113281e+00 3.248777687549591064e-01
4.110000000000000000e+03 3.703213119506835938e+01 1.284770965576171875e+01 2.461634176142979413e-05 1.524029794381931424e-04 5.310579581419005990e-05 2.930632908828556538e-04
4.111000000000000000e+03 7.457744598388671875e+01 1.824338912963867188e+00 4.783255159854888916e-01 8.214882850646972656e+00 2.607962608337402344e+00 -2.550386488437652588e-01
4.112000000000000000e+03 7.416339111328125000e+01 2.941207313537597656e+01 9.673086553812026978e-02 7.507416725158691406e+00 2.281244277954101562e+00 5.949711203575134277e-01
4.113000000000000000e+03 7.396138000488281250e+01 8.229072570800781250e+00 7.578478753566741943e-02 8.728500366210937500e+00 2.641285657882690430e+00 2.403448671102523804e-01
4.114000000000000000e+03 6.047477722167968750e+00 -1.597056579589843750e+01 -8.044456626521423459e-05 4.023404471809044480e-05 -1.206315755553077906e-05 -9.426269571122247726e-06
4.115000000000000000e+03 3.852548217773437500e+01 -1.641511726379394531e+01 -3.480987288639880717e-06 -6.878469321236480027e-06 -3.107837073912378401e-06 2.312763399459072389e-06
4.116000000000000000e+03 3.876760482788085938e+01 1.501875495910644531e+01 3.427707997616380453e-05 2.374210889684036374e-04 8.150945359375327826e-05 4.274428647477179766e-04
4.117000000000000000e+03 7.501778411865234375e+01 6.388792991638183594e+00 2.352200299501419067e-01 8.119831085205078125e+00 2.506515264511108398e+00 1.367218941450119019e-01
4.118000000000000000e+03 7.339502716064453125e+01 -3.581241607666015625e+01 -4.911392331123352051e-01 6.585023880004882812e+00 1.828165411949157715e+00 2.922157049179077148e-01
4.119000000000000000e+03 5.357583999633789062e+01 -2.773075866699218750e+01 9.488472342491149902e-01 1.397748589515686035e+00 7.039787769317626953e-01 1.128836348652839661e-01
4.120000000000000000e+03 5.451807403564453125e+01 -2.728052330017089844e+01 9.375437498092651367e-01 1.855684280395507812e+00 8.379684090614318848e-01 3.115227818489074707e-01
4.121000000000000000e+03 7.426002502441406250e+01 -2.931045532226562500e+01 6.125861406326293945e-01 8.598254203796386719e+00 2.763252258300781250e+00 -3.957974910736083984e-01
4.122000000000000000e+03 7.526995086669921875e+01 -2.901185417175292969e+01 5.825279355049133301e-01 8.459375381469726562e+00 2.712570905685424805e+00 -4.915314018726348877e-01
4.123000000000000000e+03 1.451128292083740234e+01 -3.905358505249023438e+01 -3.001677105203270912e-03 2.269904129207134247e-03 -2.195318666053935885e-04 2.328103873878717422e-03
4.124000000000000000e+03 1.326466560363769531e+01 5.969523906707763672e+00 1.214070143760181963e-04 2.277033490827307105e-05 4.325320333009585738e-05 -8.730300032766535878e-05
4.125000000000000000e+03 4.544960975646972656e+00 -1.824838447570800781e+01 1.335324341198429465e-04 -3.006821862072683871e-05 3.103926428593695164e-05 3.674381332530174404e-06
4.126000000000000000e+03 1.802778816223144531e+01 2.828212976455688477e+00 8.839285146677866578e-05 -3.297785588074475527e-05 1.662449722061865032e-05 -1.739886829454917461e-05
4.127000000000000000e+03 7.152047729492187500e+01 3.223299407958984375e+01 -3.728139698505401611e-01 6.572860717773437500e+00 1.860013961791992188e+00 5.175762623548507690e-02
4.128000000000000000e+03 3.295505142211914062e+01 -1.399428272247314453e+01 -1.519863963039824739e-05 -6.928975835762685165e-06 -6.638284958171425387e-06 -3.399073193577351049e-06
4.129000000000000000e+03 7.461862945556640625e+01 -2.697269821166992188e+01 1.101081967353820801e+00 8.807056427001953125e+00 2.972441434860229492e+00 2.303878078237175941e-03
4.130000000000000000e+03 4.299754714965820312e+01 2.740490531921386719e+01 4.150659311562776566e-03 1.635687658563256264e-04 1.294268411584198475e-03 8.544320007786154747e-04
4.131000000000000000e+03 7.444898223876953125e+01 -3.494136428833007812e+01 -4.421476423740386963e-01 7.332049846649169922e+00 2.066970586776733398e+00 -5.825883895158767700e-02
4.132000000000000000e+03 6.717404174804687500e+01 3.619868850708007812e+01 -2.837411463260650635e-01 2.908180236816406250e+00 7.873317003250122070e-01 -5.294507145881652832e-01
4.133000000000000000e+03 3.806723022460937500e+01 1.099615859985351562e+01 3.201150684617459774e-04 1.263290469069033861e-04 1.339332375209778547e-04 2.195088745793327689e-04
4.134000000000000000e+03 7.027516365051269531e+00 -2.156017875671386719e+01 5.483666609507054090e-05 7.431345147779211402e-05 3.874503454426303506e-05 4.639282633434049785e-05
4.135000000000000000e+03 2.548978424072265625e+01 -3.597969055175781250e+01 -3.006300423294305801e-03 -4.192319698631763458e-03 -2.159586176276206970e-03 2.440757816657423973e-03
4.136000000000000000e+03 7.499420166015625000e+01 -3.321958923339843750e+01 -3.767063319683074951e-01 7.920398235321044922e+00 2.263107538223266602e+00 -3.648724257946014404e-01
4.137000000000000000e+03 8.129520416259765625e+00 -3.290055465698242188e+01 6.109987152740359306e-04 1.350024394923821092e-04 2.238003507954999804e-04 6.870030774734914303e-04
4.138000000000000000e+03 7.466497039794921875e+01 3.096486854553222656e+01 -8.618305623531341553e-02 7.413133621215820312e+00 2.198085069656372070e+00 6.366945505142211914e-01
4.139000000000000000e+03 4.648320198059082031e+00 -2.709943771362304688e+01 -9.630648128222674131e-05 1.135773054556921124e-04 5.181246706342790276e-06 -1.297459220950258896e-05
4.140000000000000000e+03 6.481523513793945312e+00 -2.664848136901855469e+01 -6.029105497873388231e-05 -2.630368362588342279e-05 -2.597842103568837047e-05 -7.042001379886642098e-05
4.141000000000000000e+03 9.467284202575683594e+00 6.369207382202148438e+00 4.081241786479949951e-05 2.037268677668180317e-05 1.835553121054545045e-05 -6.429065251722931862e-05
4.142000000000000000e+03 4.355006790161132812e+01 -1.920975744724273682e-02 -4.954905671183951199e-05 -7.026343519100919366e-05 -3.594374720705673099e-05 -5.326913742464967072e-05
4.143000000000000000e+03 4.453294754028320312e+01 -2.012544155120849609e+00 5.360614886740222573e-05 5.202803731663152575e-05 3.169025512761436403e-05 4.790091043105348945e-05
4.144000000000000000e+03 7.251729583740234375e+01 -3.552383041381835938e+01 -5.119414329528808594e-01 6.176382064819335938e+00 1.699332118034362793e+00 4.068027436733245850e-01
4.145000000000000000e+03 6.794006347656250000e+01 -1.533897399902343750e+01 3.497778773307800293e-01 2.440357208251953125e+00 8.370405435562133789e-01 7.512641604989767075e-03
4.146000000000000000e+03 6.739054870605468750e+01 -1.214607715606689453e+01 4.334576129913330078e-01 2.816870927810668945e+00 9.750986099243164062e-01 5.328184366226196289e-01
4.147000000000000000e+03 6.808298492431640625e+01 -1.693993568420410156e+01 1.788790822029113770e-01 1.978971123695373535e+00 6.473550796508789062e-01 -2.781197428703308105e-01
4.148000000000000000e+03 1.074435901641845703e+01 -1.294193458557128906e+01 -4.887752220383845270e-05 -2.181111813115421683e-05 -2.120659155480097979e-05 1.264255570276873186e-05
4.149000000000000000e+03 4.569515609741210938e+01 -2.691769409179687500e+01 -5.438993871212005615e-02 -4.759292602539062500e-01 -1.590957641601562500e-01 -5.991237163543701172e-01
4.150000000000000000e+03 3.821545028686523438e+01 9.987735748291015625e+00 -8.537257963325828314e-05 1.528172288089990616e-04 2.023339402512647212e-05 1.309657527599483728e-04
4.151000000000000000e+03 5.060743331909179688e+01 -3.086361122131347656e+01 6.096333861351013184e-01 5.622656941413879395e-01 3.515697419643402100e-01 1.538540869951248169e-01
4.152000000000000000e+03 5.228257751464843750e+01 -3.052147293090820312e+01 8.262627720832824707e-01 1.093189477920532227e+00 5.758356451988220215e-01 2.506662011146545410e-01
4.153000000000000000e+03 7.366053771972656250e+01 -3.267036819458007812e+01 -4.783649444580078125e-01 7.612617015838623047e+00 2.140275478363037109e+00 -9.624756127595901489e-02
4.154000000000000000e+03 7.198623657226562500e+01 3.136812019348144531e+01 -2.019675076007843018e-01 6.977199554443359375e+00 2.032569646835327148e+00 2.115419954061508179e-01
4.155000000000000000e+03 7.400261688232421875e+01 3.359452819824218750e+01 -3.261653184890747070e-01 7.097808837890625000e+00 2.031493186950683594e+00 4.322271943092346191e-01
4.156000000000000000e+03 1.219028759002685547e+01 5.802989482879638672e+00 1.073873718269169331e-04 2.978789052576757967e-05 4.115257979719899595e-05 -8.962870197137817740e-05
4.157000000000000000e+03 7.435883331298828125e+01 3.021865463256835938e+01 -5.860410630702972412e-03 7.441055774688720703e+00 2.230558633804321289e+00 6.273369789123535156e-01
4.158000000000000000e+03 7.503046417236328125e+01 3.165069770812988281e+01 -1.359788626432418823e-01 7.422228336334228516e+00 2.185874938964843750e+00 6.370460987091064453e-01
4.159000000000000000e+03 4.323084259033203125e+01 -3.758679580688476562e+01 2.303661704063415527e-01 -3.019095957279205322e-01 -2.146302349865436554e-02 3.390689939260482788e-02
4.160000000000000000e+03 4.834380626678466797e+00 3.314443588256835938e+01 -1.631202212593052536e-05 6.042393506504595280e-04 1.763781910995021462e-04 -1.181119805551134050e-04
4.161000000000000000e+03 5.238838672637939453e+00 3.477780914306640625e+01 -4.484986129682511091e-05 6.229375139810144901e-04 1.734263059915974736e-04 -9.372209751745685935e-05
4.162000000000000000e+03 7.396490478515625000e+01 3.886221694946289062e+01 -2.564274668693542480e-01 6.583104133605957031e+00 1.898002982139587402e+00 1.689320206642150879e-01
4.163000000000000000e+03 8.937198638916015625e+00 -3.386038970947265625e+01 9.554339339956641197e-04 3.714546619448810816e-04 3.980665642302483320e-04 1.403628382831811905e-03
4.164000000000000000e+03 9.993638038635253906e+00 -3.481871414184570312e+01 5.424213013611733913e-04 5.019505624659359455e-04 3.133115824311971664e-04 1.416380284354090691e-03
4.165000000000000000e+03 4.917123794555664062e+01 -3.488388442993164062e+01 2.276629358530044556e-01 4.307335913181304932e-01 1.975189596414566040e-01 2.963273823261260986e-01
4.166000000000000000e+03 5.018859481811523438e+01 -3.638716888427734375e+01 1.060169711709022522e-01 6.672512888908386230e-01 2.319804728031158447e-01 2.655786275863647461e-01
4.167000000000000000e+03 1.808644866943359375e+01 -3.948297500610351562e+01 -6.986580323427915573e-03 4.217915236949920654e-03 -8.305995143018662930e-04 3.419345943257212639e-03
4.168000000000000000e+03 1.865604591369628906e+01 -3.751871109008789062e+01 -4.213708918541669846e-03 1.637451932765543461e-03 -7.728771306574344635e-04 5.361375864595174789e-03
4.169000000000000000e+03 6.718051910400390625e+01 3.852736282348632812e+01 -5.056516081094741821e-02 2.894557952880859375e+00 8.531978130340576172e-01 -3.317131400108337402e-01
4.170000000000000000e+03 6.601309204101562500e+01 3.748869705200195312e+01 -2.819893509149551392e-02 1.994499087333679199e+00 5.898900628089904785e-01 -3.598043024539947510e-01
4.171000000000000000e+03 4.609819412231445312e+01 -3.189468765258789062e+01 9.771092981100082397e-02 -2.652311027050018311e-01 -5.025605112314224243e-02 6.057451292872428894e-02
4.172000000000000000e+03 8.137814521789550781e+00 -3.691271591186523438e+01 -3.170155396219342947e-04 1.079432666301727295e-03 2.287251554662361741e-04 1.117693027481436729e-03
4.173000000000000000e+03 2.348446273803710938e+01 -3.673420715332031250e+01 -4.480477888137102127e-03 -3.247794229537248611e-03 -2.318481681868433952e-03 4.800283815711736679e-03
4.174000000000000000e+03 5.167935180664062500e+01 -3.784424209594726562e+01 -4.142806306481361389e-02 9.146783947944641113e-01 2.619750797748565674e-01 1.906068474054336548e-01
4.175000000000000000e+03 5.302866744995117188e+01 -4.121090698242187500e+01 -8.839747309684753418e-02 8.293262720108032227e-01 2.222786396741867065e-01 2.631131932139396667e-02
4.176000000000000000e+03 5.157969665527343750e+01 -3.126059913635253906e+01 6.963337659835815430e-01 8.908848762512207031e-01 4.761656224727630615e-01 2.611211240291595459e-01
4.177000000000000000e+03 4.562601470947265625e+01 -3.430043411254882812e+01 1.808296591043472290e-01 -2.506822347640991211e-01 -2.095577120780944824e-02 1.627817898988723755e-01
4.178000000000000000e+03 6.715456008911132812e+00 3.924990463256835938e+01 -1.603324344614520669e-04 6.443662568926811218e-04 1.452101423637941480e-04 -7.135511987144127488e-05
4.179000000000000000e+03 5.708728408813476562e+01 -4.128544235229492188e+01 1.103952601552009583e-01 6.924066543579101562e-01 2.408405691385269165e-01 -1.197145283222198486e-01
4.180000000000000000e+03 6.987361907958984375e+01 -4.020222854614257812e+01 3.167186379432678223e-01 3.532397747039794922e+00 1.154734969139099121e+00 1.326690316200256348e-01
4.181000000000000000e+03 7.542066192626953125e+01 -4.080197143554687500e+01 -4.668974503874778748e-02 7.424761295318603516e+00 2.213421583175659180e+00 -1.538277119398117065e-01
4.182000000000000000e+03 8.984582901000976562e+00 -3.823080825805664062e+01 -2.530238416511565447e-04 1.138172694481909275e-03 2.655446587596088648e-04 1.255008275620639324e-03
4.183000000000000000e+03 7.045408725738525391e+00 -7.713885784149169922e+00 3.045701851078774780e-05 1.309272079197398853e-06 9.529886483505833894e-06 1.196517132484586909e-05
4.184000000000000000e+03 4.885881805419921875e+01 -2.663173103332519531e+01 2.264971286058425903e-01 -8.554279059171676636e-02 4.228630289435386658e-02 -5.311858654022216797e-01
4.185000000000000000e+03 7.074040985107421875e+01 -1.902635002136230469e+01 -9.247382283210754395e-01 4.401637554168701172e+00 1.043069839477539062e+00 -1.249555945396423340e+00
4.186000000000000000e+03 7.381137084960937500e+01 1.170120334625244141e+01 -3.105788826942443848e-01 8.732966423034667969e+00 2.526716470718383789e+00 1.552989240735769272e-02
4.187000000000000000e+03 7.381883239746093750e+01 1.097398471832275391e+01 -3.044729232788085938e-01 8.761694908142089844e+00 2.537166833877563477e+00 9.325489401817321777e-02
4.188000000000000000e+03 3.863199996948242188e+01 7.974301815032958984e+00 -8.498771785525605083e-05 1.105533519876189530e-04 7.669691513001453131e-06 6.389723421307280660e-05
4.189000000000000000e+03 1.318264484405517578e+01 -9.449678421020507812e+00 1.247486216016113758e-05 1.574125781189650297e-05 8.464836355415172875e-06 -1.526440087218361441e-06
4.190000000000000000e+03 1.109179496765136719e+01 -6.420054435729980469e+00 -1.436049205949530005e-05 -3.109417548330384307e-06 -5.240972768660867587e-06 -4.188912043900927529e-06
4.191000000000000000e+03 1.356141757965087891e+01 -1.022706604003906250e+01 2.549476266722194850e-05 1.503975545347202569e-05 1.216035525430925190e-05 5.408224296843400225e-06
4.192000000000000000e+03 1.204073619842529297e+01 -1.074385738372802734e+01 2.149770443793386221e-05 8.696509212313685566e-06 9.058264367922674865e-06 7.186511084000812843e-06
4.193000000000000000e+03 4.734386444091796875e+00 -2.855244827270507812e+01 -5.709920878871344030e-05 1.165686044259928167e-04 1.784081905498169363e-05 2.903693348343949765e-05
4.194000000000000000e+03 6.573117733001708984e+00 -2.775334358215332031e+01 1.748935319483280182e-04 -7.906858809292316437e-05 2.874748497561085969e-05 1.858325958892237395e-05
4.195000000000000000e+03 1.438583183288574219e+01 -8.222344398498535156e+00 -1.475866520195268095e-05 -3.071311994062853046e-06 -5.348993454390438274e-06 1.101733118957781699e-06
4.196000000000000000e+03 4.456359481811523438e+01 -3.631065368652343750e+00 -2.615881930978503078e-05 -6.717577343806624413e-05 -2.800037691486068070e-05 -4.220722621539607644e-05
4.197000000000000000e+03 1.108252716064453125e+01 5.706543445587158203e+00 9.115287684835493565e-05 3.724101770785637200e-05 3.851816654787398875e-05 -9.061218588612973690e-05
4.198000000000000000e+03 1.157254219055175781e+01 6.364027500152587891e+00 5.891822002013213933e-05 2.987448851854423992e-06 1.857170173025224358e-05 -6.614927406189963222e-05
4.199000000000000000e+03 6.813750457763671875e+01 -1.884128189086914062e+01 -3.113257884979248047e-01 1.206827521324157715e+00 2.686505317687988281e-01 -5.571167469024658203e-01
4.200000000000000000e+03 4.867486572265625000e+01 -2.811472129821777344e+01 3.281902968883514404e-01 -2.218632958829402924e-02 9.180118888616561890e-02 -3.717462718486785889e-01
4.201000000000000000e+03 4.918590927124023438e+01 -2.612901878356933594e+01 1.861321032047271729e-01 -7.451771199703216553e-02 3.348431736230850220e-02 -5.798697471618652344e-01
4.202000000000000000e+03 5.086200237274169922e+00 -3.002361488342285156e+01 5.629685983876697719e-05 1.347957440884783864e-04 5.732778299716301262e-05 1.316467969445511699e-04
4.203000000000000000e+03 6.846363830566406250e+01 -1.826539993286132812e+01 -1.887750327587127686e-01 1.813588380813598633e+00 4.874439835548400879e-01 -6.714429259300231934e-01
4.204000000000000000e+03 7.038120269775390625e+01 -9.306511878967285156e+00 -1.113781053572893143e-02 5.344919681549072266e+00 1.600134611129760742e+00 1.752310544252395630e-01
4.205000000000000000e+03 6.824728393554687500e+01 -1.258912181854248047e+01 3.235729634761810303e-01 3.268270492553710938e+00 1.077553033828735352e+00 3.079277873039245605e-01
4.206000000000000000e+03 4.139498138427734375e+01 -1.555340385437011719e+01 -1.266221897822106257e-05 -4.238659585098503157e-06 -5.070263341622194275e-06 -4.871703822573181242e-06
4.207000000000000000e+03 4.021623229980468750e+01 -1.524977970123291016e+01 -1.267609331989660859e-05 -1.065583546733250841e-05 -6.999578999966615811e-06 -6.385074357240227982e-06
4.208000000000000000e+03 4.433202743530273438e+01 -4.587461471557617188e+00 -1.372463430016068742e-05 -6.371596100507304072e-05 -2.323217995581217110e-05 -3.610050407587550581e-05
4.209000000000000000e+03 7.390402984619140625e+01 9.530927658081054688e+00 -1.540911644697189331e-01 8.764979362487792969e+00 2.583266496658325195e+00 2.170785516500473022e-01
4.210000000000000000e+03 3.363751602172851562e+01 -1.408533000946044922e+01 3.207636154911597259e-06 1.202921430376591161e-05 4.571055342239560559e-06 8.247770892921835184e-06
4.211000000000000000e+03 4.423819732666015625e+01 -3.002850294113159180e+00 3.836809628410264850e-05 5.439161759568378329e-05 2.782791489153169096e-05 3.889712024829350412e-05
4.212000000000000000e+03 3.034334945678710938e+01 -1.348591423034667969e+01 -1.319501916441367939e-05 -8.303469257953111082e-06 -6.449546617659507319e-06 4.191695097688352689e-07
4.213000000000000000e+03 1.306499004364013672e+01 -8.610222816467285156e+00 6.975234100536908954e-06 2.853689011317328550e-06 2.948676865344168618e-06 -1.359343423246173188e-05
4.214000000000000000e+03 5.021959304809570312e+01 -2.631478118896484375e+01 3.526959717273712158e-01 1.260190755128860474e-01 1.436145156621932983e-01 -4.779267907142639160e-01
4.215000000000000000e+03 7.479467010498046875e+01 -2.476463127136230469e+01 7.905004024505615234e-01 8.663707733154296875e+00 2.836262464523315430e+00 5.420861840248107910e-01
4.216000000000000000e+03 7.548950195312500000e+01 -2.331564712524414062e+01 2.051333189010620117e-01 8.492265701293945312e+00 2.609219789505004883e+00 7.293549776077270508e-01
4.217000000000000000e+03 4.131237792968750000e+01 1.263833761215209961e+00 3.561625271686352789e-05 4.433431968209333718e-05 2.398517244728282094e-05 3.358217873028479517e-05
4.218000000000000000e+03 5.349709987640380859e+00 3.012041854858398438e+01 -4.450774576980620623e-05 5.088249454274773598e-04 1.392951526213437319e-04 -1.935152686201035976e-04
4.219000000000000000e+03 1.307450485229492188e+01 -7.062482833862304688e+00 1.732815871946513653e-05 2.273941390740219504e-06 5.880629942112136632e-06 5.857988526258850470e-06
4.220000000000000000e+03 9.879963874816894531e+00 -8.481960296630859375e+00 2.372426752117462456e-05 3.214282514818478376e-06 8.081565283646341413e-06 -1.551302943880727980e-06
4.221000000000000000e+03 4.911800765991210938e+01 -2.913897705078125000e+01 4.387408494949340820e-01 1.109649538993835449e-01 1.649117469787597656e-01 -1.851641535758972168e-01
4.222000000000000000e+03 5.111244964599609375e+01 -2.604961967468261719e+01 3.747423589229583740e-01 2.599086463451385498e-01 1.903953105211257935e-01 -4.301382601261138916e-01
4.223000000000000000e+03 5.180802154541015625e+01 -2.974889564514160156e+01 8.005188107490539551e-01 8.315790891647338867e-01 4.896293580532073975e-01 1.058178469538688660e-01
4.224000000000000000e+03 4.514728927612304688e+01 -7.217581272125244141e+00 2.175538611481897533e-05 3.939786984119564295e-05 1.834597605920862406e-05 1.331576550001045689e-05
4.225000000000000000e+03 4.583776092529296875e+01 -7.023341178894042969e+00 -2.267747549922205508e-05 -5.435525963548570871e-05 -2.310982017661444843e-05 -3.702016692841425538e-05
4.226000000000000000e+03 4.294307708740234375e+01 -3.816438615322113037e-01 4.768658618559129536e-05 5.741370114265009761e-05 3.153008583467453718e-05 4.204190190648660064e-05
4.227000000000000000e+03 7.422743225097656250e+01 -3.588306808471679688e+01 -4.245952665805816650e-01 6.975440025329589844e+00 1.965253353118896484e+00 5.728686600923538208e-02
4.228000000000000000e+03 7.472370910644531250e+01 -3.405655670166015625e+01 -4.507255256175994873e-01 7.689105987548828125e+00 2.171514272689819336e+00 -2.178056240081787109e-01
4.229000000000000000e+03 3.034387969970703125e+01 -9.754354476928710938e+00 -2.617558266138075851e-06 -7.840400030545424670e-06 -3.137387238894007169e-06 2.222391003670054488e-06
4.230000000000000000e+03 2.976299476623535156e+01 -1.032306003570556641e+01 5.446576665235625114e-07 1.970051198441069573e-05 6.073551048757508397e-06 5.417484771896852180e-06
4.231000000000000000e+03 5.329338073730468750e+00 -2.836949729919433594e+01 3.177899343427270651e-04 6.019818465574644506e-05 1.133964397013187408e-04 8.693739800946787000e-05
4.232000000000000000e+03 5.326341629028320312e+01 -2.830706405639648438e+01 9.593881964683532715e-01 1.321738839149475098e+00 6.843380928039550781e-01 8.970845490694046021e-02
4.233000000000000000e+03 2.732206535339355469e+01 -6.671674728393554688e+00 1.378834622300928459e-05 1.910690843942575157e-05 9.868575943983159959e-06 2.571301138232229277e-06
4.234000000000000000e+03 2.636585998535156250e+01 -4.039636135101318359e+00 3.948913581552915275e-05 1.793034061847720295e-05 1.722584238450508565e-05 -2.489695361873600632e-06
4.235000000000000000e+03 4.068680572509765625e+01 3.805346012115478516e+00 3.996783925686031580e-05 4.122618338442407548e-05 2.435820715618319809e-05 7.631052721990272403e-05
4.236000000000000000e+03 5.222009277343750000e+01 -2.720018577575683594e+01 6.909651756286621094e-01 7.178636193275451660e-01 4.226486384868621826e-01 -1.760966181755065918e-01
4.237000000000000000e+03 5.280238342285156250e+01 -2.540169715881347656e+01 3.423120677471160889e-01 6.273841261863708496e-01 2.909088730812072754e-01 -2.679166197776794434e-01
4.238000000000000000e+03 4.661943817138671875e+01 -2.907834434509277344e+01 7.503462582826614380e-02 -2.715616226196289062e-01 -5.895809456706047058e-02 -3.145307898521423340e-01
4.239000000000000000e+03 4.586844253540039062e+01 -2.952359771728515625e+01 -5.576723441481590271e-02 -3.710882663726806641e-01 -1.280566453933715820e-01 -2.858757972717285156e-01
4.240000000000000000e+03 5.442271041870117188e+01 -2.503626823425292969e+01 3.502046763896942139e-01 1.090892434120178223e+00 4.323291182518005371e-01 5.306115001440048218e-02
4.241000000000000000e+03 7.444078826904296875e+01 8.217708587646484375e+00 5.157288163900375366e-02 8.438780784606933594e+00 2.547106266021728516e+00 2.227996289730072021e-01
4.242000000000000000e+03 5.177921676635742188e+01 -1.559442996978759766e+01 8.862826689437497407e-06 9.663423270467319526e-07 2.948750761788687669e-06 -6.492356305898283608e-07
4.243000000000000000e+03 3.184449768066406250e+01 -1.313185405731201172e+01 3.608572114899288863e-06 1.418348983861505985e-05 5.337618858902715147e-06 7.644014658580999821e-06
4.244000000000000000e+03 3.014660644531250000e+01 -1.141545391082763672e+01 -4.285291765881993342e-07 2.220766327809542418e-05 6.533740361192030832e-06 -3.763472705031745136e-06
4.245000000000000000e+03 4.191961669921875000e+01 -1.304056358337402344e+01 -1.914008862513583153e-05 4.689760316978208721e-06 -4.335098765295697376e-06 -1.227041502716019750e-05
4.246000000000000000e+03 4.602226257324218750e+01 -9.824247360229492188e+00 3.037038186448626220e-05 1.704843816696666181e-05 1.422564582753693685e-05 1.539591539767570794e-05
4.247000000000000000e+03 5.417475891113281250e+01 -2.592026901245117188e+01 6.142387986183166504e-01 1.259292840957641602e+00 5.620594620704650879e-01 8.891179412603378296e-02
4.248000000000000000e+03 7.359260559082031250e+01 3.052905082702636719e+01 -4.646665975451469421e-02 7.362432956695556641e+00 2.194789886474609375e+00 5.439470410346984863e-01
4.249000000000000000e+03 7.483396911621093750e+01 2.922091674804687500e+01 9.863303601741790771e-02 7.509638309478759766e+00 2.282481431961059570e+00 6.441873908042907715e-01
4.250000000000000000e+03 5.878447055816650391e+00 -2.976357078552246094e+01 5.272855632938444614e-04 -1.299355972150806338e-05 1.542875979794189334e-04 1.803700870368629694e-04
4.251000000000000000e+03 7.549072265625000000e+01 -1.666793060302734375e+01 -4.352984130382537842e-01 7.729220390319824219e+00 2.188176631927490234e+00 -2.822842895984649658e-01
4.252000000000000000e+03 7.486740112304687500e+01 -1.507688903808593750e+01 -3.205405473709106445e-01 7.188614845275878906e+00 2.060422420501708984e+00 -4.668855965137481689e-01
4.253000000000000000e+03 4.116172409057617188e+01 -1.452499675750732422e+01 -1.693175545369740576e-05 3.006163069585454650e-06 -4.177677510597277433e-06 -7.057230050122598186e-06
4.254000000000000000e+03 6.793831348419189453e+00 7.193288803100585938e+00 3.268316504545509815e-05 3.957136505050584674e-05 2.167635830119252205e-05 -6.263475370360538363e-05
4.255000000000000000e+03 4.709664154052734375e+01 -1.436622333526611328e+01 -2.969540844333096175e-07 -1.218000306835165247e-05 -3.743087290786206722e-06 -1.067631728801643476e-05
4.256000000000000000e+03 6.065217018127441406e+00 2.894188690185546875e+01 -6.965298234717920423e-05 4.538501380011439323e-04 1.152591430582106113e-04 -2.255238214274868369e-04
4.257000000000000000e+03 2.999655532836914062e+01 -1.266711902618408203e+01 -1.358066947432234883e-05 -8.579152563470415771e-06 -6.647946520388359204e-06 -2.565521413089300040e-07
4.258000000000000000e+03 4.910736083984375000e+00 7.563089847564697266e+00 1.620519105927087367e-05 6.140600453363731503e-05 2.328335904167033732e-05 -6.540204049088060856e-05
4.259000000000000000e+03 2.992527580261230469e+01 -9.249985694885253906e+00 4.319470917835133150e-06 1.934459942276589572e-05 7.099221420503454283e-06 8.534087100997567177e-06
4.260000000000000000e+03 2.898031234741210938e+01 -9.248465538024902344e+00 2.136072907887864858e-06 1.832136877055745572e-05 6.137232503533596173e-06 7.611794444528641179e-06
4.261000000000000000e+03 3.618815660476684570e+00 6.764009475708007812e+00 2.425246930215507746e-05 3.896352427545934916e-05 1.896479807328432798e-05 -3.578699033823795617e-05
4.262000000000000000e+03 5.831931114196777344e+00 6.197412490844726562e+00 4.317367347539402544e-05 3.596434180508367717e-05 2.374140422034543008e-05 -4.985524719813838601e-05
4.263000000000000000e+03 7.552885437011718750e+01 9.924350738525390625e+00 -1.063491031527519226e-01 7.900907039642333984e+00 2.338367462158203125e+00 1.834646612405776978e-01
4.264000000000000000e+03 4.608870697021484375e+01 -1.210832214355468750e+01 3.444287358433939517e-05 -4.456941042008111253e-06 8.995779353426769376e-06 1.864769546955358237e-05
4.265000000000000000e+03 4.688639450073242188e+01 -1.100679779052734375e+01 -3.377315078978426754e-05 -8.509264262102078646e-06 -1.268472351512173191e-05 -1.833964233810547739e-05
4.266000000000000000e+03 5.916415691375732422e+00 2.403594017028808594e+01 -5.954701555310748518e-05 3.534696006681770086e-04 8.817677735351026058e-05 -1.929664867930114269e-04
4.267000000000000000e+03 7.424935913085937500e+01 2.690155410766601562e+01 3.651860356330871582e-01 7.765867710113525391e+00 2.439316034317016602e+00 4.300723671913146973e-01
4.268000000000000000e+03 5.365410804748535156e+00 2.172845840454101562e+01 7.936459587654098868e-05 2.761909272521734238e-04 1.066666591214016080e-04 -1.733221579343080521e-04
4.269000000000000000e+03 3.248823547363281250e+01 -1.324993038177490234e+01 -1.426236212864750996e-05 -7.882385034463368356e-06 -6.643424057983793318e-06 -1.384527877235086635e-06
4.270000000000000000e+03 6.180847644805908203e+00 -8.465271949768066406e+00 2.952866816485766321e-05 5.611261258309241384e-06 1.054197855410166085e-05 1.413402333128033206e-05
4.271000000000000000e+03 5.491972446441650391e+00 1.706343078613281250e+01 6.000022040097974241e-05 1.730152289383113384e-04 6.990463589318096638e-05 -1.498019555583596230e-04
4.272000000000000000e+03 5.515551567077636719e+00 1.477950000762939453e+01 6.129743724159197882e-06 1.584330020705237985e-04 4.936882396577857435e-05 -1.250458590220659971e-04
4.273000000000000000e+03 4.660148143768310547e+00 2.689262390136718750e+01 -4.595398058881983161e-05 4.687884647864848375e-04 1.268503547180444002e-04 -2.039119426626712084e-04
4.274000000000000000e+03 7.390559387207031250e+01 3.139937973022460938e+01 -1.688227355480194092e-01 7.293028354644775391e+00 2.137261629104614258e+00 5.657567381858825684e-01
4.275000000000000000e+03 5.462248802185058594e+00 -7.740545272827148438e+00 2.510913691367022693e-05 5.032451099395984784e-06 9.042476449394598603e-06 1.224039078806526959e-05
4.276000000000000000e+03 7.398749542236328125e+01 1.974532127380371094e+01 1.179262325167655945e-01 8.502964019775390625e+00 2.586266994476318359e+00 -1.008546072989702225e-02
4.277000000000000000e+03 7.545152282714843750e+01 2.114725303649902344e+01 1.538336127996444702e-01 7.783681392669677734e+00 2.381254434585571289e+00 5.077666789293289185e-02
4.278000000000000000e+03 7.525333404541015625e+01 2.389393043518066406e+01 2.959567010402679443e-01 7.739087581634521484e+00 2.410513162612915039e+00 2.080149054527282715e-01
4.279000000000000000e+03 3.826556015014648438e+01 -1.526690673828125000e+01 -6.023339551575190853e-07 1.207920377055415884e-05 3.443060904828598723e-06 1.774100439888570691e-07
4.280000000000000000e+03 7.547113037109375000e+01 -2.482545089721679688e+01 6.682655215263366699e-01 8.491654396057128906e+00 2.747975826263427734e+00 5.227430462837219238e-01
4.281000000000000000e+03 7.469261932373046875e+01 1.965620422363281250e+01 1.094157770276069641e-01 8.167702674865722656e+00 2.483135461807250977e+00 4.141296725720167160e-03
4.282000000000000000e+03 7.473748016357421875e+01 2.442888832092285156e+01 3.448669910430908203e-01 7.885546207427978516e+00 2.469123840332031250e+00 2.286762446165084839e-01
4.283000000000000000e+03 5.514508724212646484e+00 2.245308303833007812e+01 -4.897283361060544848e-05 3.273809852544218302e-04 8.352244913112372160e-05 -1.825022773118689656e-04
4.284000000000000000e+03 7.457467651367187500e+01 -1.385266971588134766e+01 -2.123031765222549438e-01 7.014132499694824219e+00 2.040548801422119141e+00 -5.016468167304992676e-01
4.285000000000000000e+03 7.404302215576171875e+01 -1.444509220123291016e+01 -2.567332386970520020e-01 6.752068519592285156e+00 1.948600530624389648e+00 -5.202726125717163086e-01
4.286000000000000000e+03 7.482553863525390625e+01 -9.583908081054687500e+00 -1.204563081264495850e-01 7.179614543914794922e+00 2.117747545242309570e+00 -5.699931979179382324e-01
4.287000000000000000e+03 7.436821746826171875e+01 -1.007404613494873047e+01 -1.178446561098098755e-01 6.984514713287353516e+00 2.060000896453857422e+00 -5.410600900650024414e-01
4.288000000000000000e+03 7.466766357421875000e+01 1.803921890258789062e+01 6.575775891542434692e-02 8.186967849731445312e+00 2.475817680358886719e+00 -1.272697560489177704e-02
4.289000000000000000e+03 4.625424861907958984e+00 -2.635083198547363281e+01 1.420680782757699490e-04 3.211438524886034429e-05 5.225474160397425294e-05 -1.980747583729680628e-05
4.290000000000000000e+03 5.765454769134521484e+00 2.808087921142578125e+01 4.635957520804367959e-05 4.470292769838124514e-04 1.480166538385674357e-04 -1.836366864154115319e-04
4.291000000000000000e+03 7.356604766845703125e+01 -1.482486534118652344e+01 -2.992479503154754639e-01 6.451448440551757812e+00 1.845660090446472168e+00 -5.429344773292541504e-01
4.292000000000000000e+03 7.465915679931640625e+01 1.399446582794189453e+01 -1.051058992743492126e-01 8.235034942626953125e+00 2.438978672027587891e+00 -6.041574478149414062e-02
4.293000000000000000e+03 7.469587707519531250e+01 -1.126254558563232422e+01 -1.254733800888061523e-01 7.056896209716796875e+00 2.079426765441894531e+00 -5.412204861640930176e-01
4.294000000000000000e+03 7.536042022705078125e+01 1.631782913208007812e+01 1.696631126105785370e-02 7.859248638153076172e+00 2.362864494323730469e+00 -4.075595363974571228e-02
4.295000000000000000e+03 7.474478149414062500e+01 -2.128603553771972656e+01 -5.790113210678100586e-01 8.334095001220703125e+00 2.326524972915649414e+00 4.916884005069732666e-01
4.296000000000000000e+03 7.537225341796875000e+01 1.793582344055175781e+01 5.741245672106742859e-02 7.853529930114746094e+00 2.373282670974731445e+00 -1.835856027901172638e-02
4.297000000000000000e+03 7.487743377685546875e+01 -1.591131877899169922e+01 -3.953757584095001221e-01 7.299798488616943359e+00 2.071326971054077148e+00 -4.196874797344207764e-01
4.298000000000000000e+03 7.559529113769531250e+01 -1.886507034301757812e+01 -5.798474550247192383e-01 8.123095512390136719e+00 2.262974500656127930e+00 7.632020860910415649e-02
4.299000000000000000e+03 7.407526397705078125e+01 -1.840105628967285156e+01 -8.217704892158508301e-01 7.346004962921142578e+00 1.957270383834838867e+00 -3.244482576847076416e-01
4.300000000000000000e+03 7.396391296386718750e+01 1.812524032592773438e+01 7.487387210130691528e-02 8.517807960510253906e+00 2.577804565429687500e+00 -9.475345723330974579e-03
4.301000000000000000e+03 7.467161560058593750e+01 1.322144412994384766e+01 -1.643077880144119263e-01 8.267121315002441406e+00 2.430844068527221680e+00 -4.627104103565216064e-02
4.302000000000000000e+03 7.583889007568359375e+01 -3.729135990142822266e+00 1.912229321897029877e-02 7.501064300537109375e+00 2.256056070327758789e+00 -7.136536836624145508e-01
4.303000000000000000e+03 7.317842102050781250e+01 -5.676519393920898438e+00 -9.546214342117309570e-02 7.272905349731445312e+00 2.153232812881469727e+00 -4.052352011203765869e-01
4.304000000000000000e+03 7.438503265380859375e+01 1.162526798248291016e+01 -2.532176375389099121e-01 8.482567787170410156e+00 2.468805074691772461e+00 4.614204913377761841e-02
4.305000000000000000e+03 7.468986511230468750e+01 -5.378387451171875000e+00 -6.464861333370208740e-02 7.450625896453857422e+00 2.215793132781982422e+00 -6.489404439926147461e-01
4.306000000000000000e+03 7.524609375000000000e+01 -5.290941238403320312e+00 -5.608614534139633179e-02 7.478103160858154297e+00 2.226605176925659180e+00 -6.933730840682983398e-01
4.307000000000000000e+03 7.443964385986328125e+01 1.097675704956054688e+01 -2.478029727935791016e-01 8.473034858703613281e+00 2.467569589614868164e+00 1.004693284630775452e-01
4.308000000000000000e+03 7.558263397216796875e+01 1.117190742492675781e+01 -1.555857062339782715e-01 7.834556579589843750e+00 2.303691387176513672e+00 1.212638393044471741e-01
4.309000000000000000e+03 7.493676757812500000e+01 8.023272514343261719e+00 6.517032533884048462e-02 8.163229942321777344e+00 2.468519926071166992e+00 2.192210108041763306e-01
4.310000000000000000e+03 7.501533508300781250e+01 1.106077194213867188e+01 -1.955602020025253296e-01 8.168311119079589844e+00 2.391825199127197266e+00 1.142101660370826721e-01
4.311000000000000000e+03 7.509698486328125000e+01 2.179183959960937500e+00 4.156348705291748047e-01 7.937561511993408203e+00 2.505959033966064453e+00 -2.509303689002990723e-01
4.312000000000000000e+03 7.419734954833984375e+01 7.743008613586425781e+00 1.321706175804138184e-01 8.574843406677246094e+00 2.612104177474975586e+00 2.101646214723587036e-01
4.313000000000000000e+03 7.514592742919921875e+01 1.038791179656982422e+01 -1.567050367593765259e-01 8.100918769836425781e+00 2.383264064788818359e+00 1.644752919673919678e-01
4.314000000000000000e+03 7.452545928955078125e+01 8.813579559326171875e+00 -2.502334862947463989e-02 8.393763542175292969e+00 2.510622024536132812e+00 2.399898767471313477e-01
4.315000000000000000e+03 7.512316894531250000e+01 8.646663665771484375e+00 -1.538730692118406296e-02 8.081533432006835938e+00 2.419843673706054688e+00 2.125088125467300415e-01
4.316000000000000000e+03 7.477294921875000000e+01 1.117914438247680664e+00 4.494652748107910156e-01 8.062774658203125000e+00 2.553671836853027344e+00 -3.516685664653778076e-01
4.317000000000000000e+03 7.545115661621093750e+01 1.565426707267761230e+00 3.646580278873443604e-01 7.734923839569091797e+00 2.429874658584594727e+00 -3.424774706363677979e-01
4.318000000000000000e+03 7.476315307617187500e+01 3.127622842788696289e+00 4.562762081623077393e-01 8.227894783020019531e+00 2.605251312255859375e+00 -1.272159218788146973e-01
4.319000000000000000e+03 7.398370361328125000e+01 9.017744660377502441e-02 4.561294913291931152e-01 8.272075653076171875e+00 2.618461608886718750e+00 -3.766202032566070557e-01
4.320000000000000000e+03 7.350066375732421875e+01 -1.743139457702636719e+01 -6.880687475204467773e-01 6.748798847198486328e+00 1.818218946456909180e+00 -5.502970814704895020e-01
4.321000000000000000e+03 7.484799194335937500e+01 -1.670891380310058594e+01 -5.018739700317382812e-01 7.409005165100097656e+00 2.072139501571655273e+00 -3.595286309719085693e-01
4.322000000000000000e+03 7.313616943359375000e+01 -1.912819862365722656e+01 -1.061995148658752441e+00 6.969696044921875000e+00 1.772310256958007812e+00 -5.389404892921447754e-01
4.323000000000000000e+03 7.467888641357421875e+01 1.884854125976562500e+01 8.692485094070434570e-02 8.178893089294433594e+00 2.479745388031005859e+00 -7.479038555175065994e-03
4.324000000000000000e+03 7.480567169189453125e+01 -1.929522633552551270e+00 1.908338069915771484e-01 7.788192749023437500e+00 2.393707990646362305e+00 -6.257954239845275879e-01
4.325000000000000000e+03 7.300767517089843750e+01 -2.439790725708007812e+00 1.889031678438186646e-01 8.098066329956054688e+00 2.486090660095214844e+00 -3.243870735168457031e-01
4.326000000000000000e+03 7.523660278320312500e+01 -2.560975313186645508e+00 1.135254278779029846e-01 7.642015933990478516e+00 2.326662302017211914e+00 -6.772132515907287598e-01
4.327000000000000000e+03 7.436283874511718750e+01 -1.289306282997131348e+00 2.758870124816894531e-01 7.995765686035156250e+00 2.481495857238769531e+00 -5.406323075294494629e-01
4.328000000000000000e+03 7.498040008544921875e+01 -8.130770325660705566e-01 2.817662954330444336e-01 7.813673496246337891e+00 2.428632020950317383e+00 -5.718854665756225586e-01
4.329000000000000000e+03 7.466980743408203125e+01 -6.062665462493896484e+00 -9.088373184204101562e-02 7.391583442687988281e+00 2.190209865570068359e+00 -6.411596536636352539e-01
4.330000000000000000e+03 7.564082336425781250e+01 -7.374645709991455078e+00 -9.211067855358123779e-02 7.459575176239013672e+00 2.210239410400390625e+00 -6.529622077941894531e-01
4.331000000000000000e+03 7.513475799560546875e+01 -7.129690647125244141e+00 -1.075219735503196716e-01 7.384332180023193359e+00 2.183043003082275391e+00 -6.485092043876647949e-01
4.332000000000000000e+03 7.548744201660156250e+01 -8.082537651062011719e+00 -9.660150110721588135e-02 7.425206184387207031e+00 2.198581457138061523e+00 -6.357988715171813965e-01
4.333000000000000000e+03 7.384135437011718750e+01 -9.749929428100585938e+00 -1.256569623947143555e-01 6.819500923156738281e+00 2.008153200149536133e+00 -5.057045221328735352e-01
4.334000000000000000e+03 7.438689422607421875e+01 2.608236312866210938e+01 3.871496915817260742e-01 7.826170444488525391e+00 2.463996171951293945e+00 3.607293963432312012e-01
4.335000000000000000e+03 7.455699157714843750e+01 -6.821168422698974609e+00 -1.114879772067070007e-01 7.309601783752441406e+00 2.159434080123901367e+00 -6.168716549873352051e-01
4.336000000000000000e+03 7.433661651611328125e+01 -7.516953468322753906e+00 -1.337695121765136719e-01 7.169790744781494141e+00 2.110806465148925781e+00 -5.699005126953125000e-01
4.337000000000000000e+03 7.421157836914062500e+01 -9.112996101379394531e+00 -1.377977281808853149e-01 6.984328269958496094e+00 2.053959131240844727e+00 -5.357191562652587891e-01
4.338000000000000000e+03 4.608876228332519531e+00 -1.094951534271240234e+01 -4.402842387207783759e-05 -6.366358775267144665e-06 -1.511843493062769994e-05 -1.720220279821660370e-05
4.339000000000000000e+03 5.366487503051757812e+00 -9.291322708129882812e+00 3.357719833729788661e-05 6.851249054307118058e-06 1.212853476317832246e-05 1.542198879178613424e-05
4.340000000000000000e+03 7.414076995849609375e+01 2.773210906982421875e+01 3.010930716991424561e-01 7.682728767395019531e+00 2.395146608352661133e+00 4.949647784233093262e-01
4.341000000000000000e+03 7.495034790039062500e+01 2.695246696472167969e+01 2.912861704826354980e-01 7.620394706726074219e+00 2.373504161834716797e+00 4.972482621669769287e-01
4.342000000000000000e+03 4.670127391815185547e+00 1.320388984680175781e+01 4.409693428897298872e-05 1.259700366063043475e-04 5.102009163238108158e-05 -9.654118912294507027e-05
4.343000000000000000e+03 5.346629142761230469e+00 1.560463619232177734e+01 5.340200368664227426e-05 1.446756941732019186e-04 5.942330972175113857e-05 -1.250319037353619933e-04
4.344000000000000000e+03 4.635976314544677734e+00 -2.482746315002441406e+01 1.206655215355567634e-04 -3.653370367828756571e-05 2.523954572097864002e-05 -6.838064291514456272e-05
4.345000000000000000e+03 4.661138057708740234e+00 1.962596702575683594e+01 6.670787843177095056e-05 2.338166814297437668e-04 9.015737305162474513e-05 -1.401922927470877767e-04
4.346000000000000000e+03 5.182031154632568359e+00 -2.556200981140136719e+01 1.049346319632604718e-04 5.272365888231433928e-05 4.729748616227880120e-05 -4.910565257887355983e-05
4.347000000000000000e+03 5.262966156005859375e+00 -2.058656120300292969e+01 7.758257561363279819e-05 4.664193693315610290e-05 3.726735303644090891e-05 4.382225961307995021e-05
4.348000000000000000e+03 8.885012626647949219e+00 6.688047885894775391e+00 8.251597319031134248e-05 2.937555473181419075e-05 3.356745583005249500e-05 -7.225911394925788045e-05
4.349000000000000000e+03 4.608180522918701172e+00 -1.174563598632812500e+01 4.848584649153053761e-05 7.331197593885008246e-06 1.674511258897837251e-05 1.873475048341788352e-05
4.350000000000000000e+03 5.336582660675048828e+00 -1.007004070281982422e+01 -3.749832467292435467e-05 -7.625417310919146985e-06 -1.353712286800146103e-05 -1.742967288009822369e-05
4.351000000000000000e+03 4.787398338317871094e+00 -2.398066902160644531e+01 -1.876635215012356639e-04 1.234470255440101027e-04 -1.926494951476342976e-05 1.259257078345399350e-05
4.352000000000000000e+03 7.430622863769531250e+01 -2.040511322021484375e+01 -8.635977506637573242e-01 8.030755996704101562e+00 2.150147438049316406e+00 1.762263625860214233e-01
4.353000000000000000e+03 6.718141555786132812e+00 -3.039925765991210938e+01 6.784268771298229694e-04 1.114545739255845547e-05 2.068717003567144275e-04 2.793229068629443645e-04
4.354000000000000000e+03 6.084175109863281250e+00 -9.988604545593261719e+00 3.497226134641095996e-05 8.932433956942986697e-06 1.317140777246095240e-05 1.822606282075867057e-05
4.355000000000000000e+03 4.494559288024902344e+00 -1.906706047058105469e+01 -1.269667991437017918e-04 1.204937416332541034e-05 -3.447522976784966886e-05 4.730654382001375780e-06
4.356000000000000000e+03 6.642790794372558594e+00 -1.639271545410156250e+01 7.054579327814280987e-05 -6.042372842784970999e-05 3.036619091290049255e-06 2.059888629446504638e-06
4.357000000000000000e+03 5.920753002166748047e+00 -1.798727798461914062e+01 -1.781735045369714499e-04 1.595079629623796791e-05 -4.866681410931050777e-05 -6.112288247095420957e-05
4.358000000000000000e+03 5.154674053192138672e+00 -1.838772392272949219e+01 -5.971467544441111386e-05 4.371548129711300135e-05 -4.799758244189433753e-06 6.077776561141945422e-05
4.359000000000000000e+03 5.351281642913818359e+00 -1.576326942443847656e+01 1.060515569406561553e-04 -1.640031587157864124e-05 2.689537359401583672e-05 4.273720696801319718e-05
4.360000000000000000e+03 5.155328750610351562e+00 -1.977770805358886719e+01 -8.979990525403991342e-05 -4.224490112392231822e-05 -3.961344191338866949e-05 -9.524608685751445591e-06
4.361000000000000000e+03 5.559715747833251953e+00 -1.887882995605468750e+01 -5.311097629601135850e-05 -7.062868826324120164e-05 -3.712189936777576804e-05 -3.968616147176362574e-05
4.362000000000000000e+03 5.408938407897949219e+00 -1.490070056915283203e+01 -7.175215432653203607e-05 -1.861213058873545378e-05 -2.710928492888342589e-05 -4.363715197541750968e-05
4.363000000000000000e+03 7.258003997802734375e+01 2.064039611816406250e+01 1.345349252223968506e-01 9.193656921386718750e+00 2.798457622528076172e+00 -5.886777117848396301e-02
4.364000000000000000e+03 4.708281517028808594e+00 1.803784370422363281e+01 5.825956759508699179e-05 2.040690887952223420e-04 7.869859837228432298e-05 -1.375277643091976643e-04
4.365000000000000000e+03 5.382286548614501953e+00 1.956735801696777344e+01 -2.413086622254922986e-05 2.750856801867485046e-04 7.528645073762163520e-05 -1.785604254109784961e-04
4.366000000000000000e+03 7.400652313232421875e+01 2.056759643554687500e+01 1.535209417343139648e-01 8.473712921142578125e+00 2.588170289993286133e+00 -4.809621721506118774e-03
4.367000000000000000e+03 4.991302013397216797e+00 2.536812210083007812e+01 -2.917828351201023906e-05 4.244438605383038521e-04 1.185796718345955014e-04 -2.160401345463469625e-04
4.368000000000000000e+03 5.211410045623779297e+00 2.659507369995117188e+01 5.296049130265600979e-05 4.284402821213006973e-04 1.444202353013679385e-04 -1.922723458847030997e-04
4.369000000000000000e+03 4.614817142486572266e+00 -1.254676246643066406e+01 -5.259505633148364723e-05 -1.000133033812744543e-05 -1.877891554613597691e-05 -2.134438545908778906e-05
4.370000000000000000e+03 4.625288963317871094e+00 1.242160034179687500e+01 -4.520956736087100580e-06 1.187253874377347529e-04 3.426133116590790451e-05 -9.124926873482763767e-05
4.371000000000000000e+03 8.125701904296875000e+00 -1.255819606781005859e+01 -3.214133175788447261e-05 -2.290347038069739938e-05 -1.651344064157456160e-05 -8.290772711916361004e-06
4.372000000000000000e+03 5.126846313476562500e+00 1.013945484161376953e+01 5.489389423019019887e-06 9.221990330843254924e-05 2.931278686446603388e-05 -8.264375355793163180e-05
4.373000000000000000e+03 5.261887073516845703e+00 2.101523590087890625e+01 -3.892865788657218218e-05 3.030781808774918318e-04 7.924485544208437204e-05 -1.811547117540612817e-04
4.374000000000000000e+03 4.833135604858398438e+01 -2.689474487304687500e+01 2.001296877861022949e-01 -1.348386853933334351e-01 1.958730071783065796e-02 -5.347619652748107910e-01
4.375000000000000000e+03 5.363334178924560547e+00 -2.706934356689453125e+01 1.590499741723760962e-04 -9.916031558532267809e-06 4.474017987377010286e-05 -1.001850432658102363e-05
4.376000000000000000e+03 5.366340637207031250e+00 -1.404669189453125000e+01 6.159531039884313941e-05 1.781926039257086813e-05 2.382437196501996368e-05 3.855977047351188958e-05
4.377000000000000000e+03 5.345549583435058594e+00 -1.323734664916992188e+01 -5.244787098490633070e-05 -1.953987339220475405e-05 -2.159632276743650436e-05 -2.945354390249121934e-05
4.378000000000000000e+03 7.394546508789062500e+01 1.567046642303466797e+01 1.705848798155784607e-02 8.501268386840820312e+00 2.555497884750366211e+00 -5.559372901916503906e-02
4.379000000000000000e+03 5.363951683044433594e+00 1.148071193695068359e+01 3.090887048529111780e-06 9.990095713874325156e-05 3.089755409746430814e-05 -9.306093124905601144e-05
4.380000000000000000e+03 5.951441287994384766e+00 1.249455070495605469e+01 4.238112160237506032e-05 1.167660084320232272e-04 4.774413901031948626e-05 -1.165673165814951062e-04
4.381000000000000000e+03 5.316822052001953125e+00 -1.085261344909667969e+01 4.191242987872101367e-05 7.788635230099316686e-06 1.491031980549450964e-05 1.954883373400662094e-05
4.382000000000000000e+03 5.459909439086914062e+00 1.792429351806640625e+01 -1.523755145171890035e-05 2.267958479933440685e-04 6.346748705254867673e-05 -1.491132425144314766e-04
4.383000000000000000e+03 7.228037261962890625e+01 3.518470764160156250e+01 -4.656075835227966309e-01 6.173913478851318359e+00 1.712491750717163086e+00 5.418717116117477417e-02
4.384000000000000000e+03 5.771971702575683594e+00 2.548330116271972656e+01 4.903670358658018813e-08 3.626674879342317581e-04 1.088149583665654063e-04 -1.638122485019266605e-04
4.385000000000000000e+03 7.426092529296875000e+01 4.072399616241455078e+00 4.470376968383789062e-01 8.591530799865722656e+00 2.711570501327514648e+00 -1.925873942673206329e-02
4.386000000000000000e+03 7.397122192382812500e+01 1.321979713439941406e+01 -1.847204118967056274e-01 8.551320075988769531e+00 2.509979724884033203e+00 -8.207935094833374023e-02
4.387000000000000000e+03 7.442781066894531250e+01 4.865787506103515625e+00 3.918260335922241211e-01 8.487767219543457031e+00 2.663877964019775391e+00 3.594205528497695923e-02
4.388000000000000000e+03 6.345783710479736328e+00 2.474143791198730469e+01 7.739773718640208244e-05 3.298612427897751331e-04 1.221776910824701190e-04 -2.448203158564865589e-04
4.389000000000000000e+03 3.382718276977539062e+01 -1.342566108703613281e+01 -1.344917654932942241e-05 -1.003716715786140412e-05 -7.045903203106718138e-06 -7.406635177176212892e-06
4.390000000000000000e+03 3.535579299926757812e+01 -1.525471210479736328e+01 -8.639265161036746576e-07 2.432952442177338526e-06 4.707077891907829326e-07 -1.021647676680004224e-06
4.391000000000000000e+03 6.307664394378662109e+00 -3.149822807312011719e+01 7.215526420623064041e-04 4.331734453444369137e-05 2.294610021635890007e-04 4.399222380015999079e-04
4.392000000000000000e+03 3.059284019470214844e+01 -1.285434913635253906e+01 2.713319190661422908e-06 1.497346693213330582e-05 5.306035745888948441e-06 9.564661013428121805e-06
4.393000000000000000e+03 4.477452468872070312e+01 -1.467904376983642578e+01 5.535416676138993353e-06 -1.125015478464774787e-05 -1.714421273391053546e-06 -1.329019596596481279e-05
4.394000000000000000e+03 4.480626678466796875e+01 -1.380265045166015625e+01 4.233831077726790681e-06 -1.233449802384711802e-05 -2.430200083836098202e-06 -2.216322718595620245e-05
4.395000000000000000e+03 7.407967376708984375e+01 -2.323056983947753906e+01 2.078557014465332031e-01 8.646220207214355469e+00 2.656222820281982422e+00 6.034954190254211426e-01
4.396000000000000000e+03 7.640300273895263672e+00 8.261203765869140625e+00 4.874992373515851796e-05 4.955526310368441045e-05 2.949155714304652065e-05 -8.588848140789195895e-05
4.397000000000000000e+03 8.155787467956542969e+00 6.947560787200927734e+00 1.771962161001283675e-05 4.554581755655817688e-05 1.897963193187024444e-05 -7.541306695202365518e-05
4.398000000000000000e+03 4.023885726928710938e+01 4.545704364776611328e+00 -2.266123738081660122e-05 5.144830720382742584e-05 8.636120583105366677e-06 -4.318514766055159271e-05
4.399000000000000000e+03 4.052454376220703125e+01 2.637616634368896484e+00 2.754447996267117560e-05 3.738849045475944877e-05 1.947989039763342589e-05 4.619278115569613874e-05
4.400000000000000000e+03 5.941817760467529297e+00 -3.387842941284179688e+01 1.619100949028506875e-04 4.648568574339151382e-04 1.880300842458382249e-04 7.785963825881481171e-04
4.401000000000000000e+03 7.534584045410156250e+00 -3.196834754943847656e+01 8.638888830319046974e-04 1.061902730725705624e-04 2.910237526521086693e-04 6.927060312591493130e-04
4.402000000000000000e+03 3.330820083618164062e+01 -1.273106288909912109e+01 -1.131627868744544685e-05 -9.328717169410083443e-06 -6.193498848006129265e-06 1.877409317785350140e-06
4.403000000000000000e+03 6.883792114257812500e+01 -1.191996669769287109e+01 2.320158183574676514e-01 3.821617841720581055e+00 1.216090083122253418e+00 2.540807127952575684e-01
4.404000000000000000e+03 7.475759887695312500e+01 3.289139938354492188e+01 -2.274550646543502808e-01 7.312771320343017578e+00 2.125594854354858398e+00 5.484905242919921875e-01
4.405000000000000000e+03 7.457363128662109375e+01 3.426429748535156250e+01 -3.009097576141357422e-01 7.169939517974853516e+00 2.060708999633789062e+00 4.224045574665069580e-01
4.406000000000000000e+03 4.511977005004882812e+01 -1.515818595886230469e+01 -2.707395879042451270e-06 1.122660796681884676e-05 2.555763785494491458e-06 4.662702849600464106e-06
4.407000000000000000e+03 6.810535430908203125e+01 -1.201900577545166016e+01 3.404014110565185547e-01 3.274946451187133789e+00 1.084604382514953613e+00 4.076961576938629150e-01
4.408000000000000000e+03 3.894434356689453125e+01 1.684556007385253906e+01 1.972654572455212474e-04 2.167338243452832103e-04 1.241997815668582916e-04 5.630578380078077316e-04
4.409000000000000000e+03 3.789445114135742188e+01 1.495513248443603516e+01 5.933368811383843422e-04 1.838162424974143505e-04 2.331459400011226535e-04 3.249300934839993715e-04
4.410000000000000000e+03 7.249681091308593750e+01 -5.266757965087890625e+00 -6.161249056458473206e-02 7.264253616333007812e+00 2.160792350769042969e+00 -2.244007736444473267e-01
4.411000000000000000e+03 6.835489654541015625e+01 -1.597494411468505859e+01 2.445517480373382568e-01 2.530926704406738281e+00 8.326435685157775879e-01 -2.194177061319351196e-01
4.412000000000000000e+03 7.070847034454345703e+00 -3.112902259826660156e+01 4.014248843304812908e-04 4.262070069671608508e-05 1.332136744167655706e-04 2.626854402478784323e-04
4.413000000000000000e+03 4.759473800659179688e+01 -1.382992649078369141e+01 -9.747399417392443866e-06 6.108721663622418419e-06 -1.091603394343110267e-06 2.431372195133008063e-06
4.414000000000000000e+03 4.687877655029296875e+01 -2.785983085632324219e+01 6.012191995978355408e-02 -2.984174191951751709e-01 -7.148864865303039551e-02 -4.777709245681762695e-01
4.415000000000000000e+03 7.492305755615234375e+00 -6.601781845092773438e+00 1.680583045526873320e-05 1.866302227426785976e-06 5.601639713859185576e-06 6.656600817223079503e-06
4.416000000000000000e+03 8.757573127746582031e+00 -6.114840984344482422e+00 -1.671503014222253114e-05 -7.224255114124389365e-06 -7.181785349530400708e-06 -5.835956471855752170e-06
4.417000000000000000e+03 3.787469100952148438e+01 1.398579406738281250e+01 3.277876021456904709e-05 1.845489168772473931e-04 6.519830640172585845e-05 3.674476465675979853e-04
4.418000000000000000e+03 3.614480972290039062e+01 1.266776752471923828e+01 4.833915154449641705e-04 1.930152939166873693e-05 1.508079149061813951e-04 2.652439579833298922e-04
4.419000000000000000e+03 4.424116516113281250e+01 -8.819940567016601562e+00 2.616811616462655365e-05 2.616267738630995154e-05 1.569923733768519014e-05 1.203441934194415808e-05
4.420000000000000000e+03 7.368045806884765625e+01 -8.579795837402343750e+00 -1.446395516395568848e-01 6.890632629394531250e+00 2.023797988891601562e+00 -4.750246703624725342e-01
4.421000000000000000e+03 7.402694702148437500e+01 9.080603718757629395e-01 5.236998796463012695e-01 8.376178741455078125e+00 2.669963598251342773e+00 -2.973683476448059082e-01
4.422000000000000000e+03 7.408621978759765625e+01 2.228775596618652344e+01 2.669671177864074707e-01 8.323380470275878906e+00 2.577104091644287109e+00 2.901951782405376434e-02
4.423000000000000000e+03 7.224177837371826172e+00 -1.449221134185791016e+01 1.006170259643113241e-05 5.006996070733293891e-05 1.803949999157339334e-05 2.260641304019372910e-05
4.424000000000000000e+03 7.411605834960937500e+01 3.284348726272583008e+00 4.991514682769775391e-01 8.625449180603027344e+00 2.737380266189575195e+00 -6.102417036890983582e-02
4.425000000000000000e+03 3.840114974975585938e+01 8.977250099182128906e+00 2.157069684471935034e-04 1.099603396141901612e-04 9.770019096322357655e-05 1.651306956773623824e-04
4.426000000000000000e+03 1.732087516784667969e+01 4.994718551635742188e+00 8.908914605854079127e-05 -3.942840339732356369e-05 1.489822261646622792e-05 -3.933468178729526699e-05
4.427000000000000000e+03 7.013546752929687500e+01 -1.033025074005126953e+01 3.650410100817680359e-02 4.948019504547119141e+00 1.495357036590576172e+00 1.582064330577850342e-01
4.428000000000000000e+03 7.464776611328125000e+01 -1.055854129791259766e+01 -1.243998557329177856e-01 7.063141345977783203e+00 2.081622600555419922e+00 -5.478347539901733398e-01
4.429000000000000000e+03 4.337614440917968750e+01 -1.458654975891113281e+01 -1.582427285029552877e-05 4.350478775450028479e-06 -3.442137995079974644e-06 -8.461704965156968683e-06
4.430000000000000000e+03 6.988600921630859375e+01 -1.747229003906250000e+01 -2.816345989704132080e-01 3.515901327133178711e+00 9.702799916267395020e-01 -8.757952451705932617e-01
4.431000000000000000e+03 1.395579814910888672e+01 -8.703717231750488281e+00 1.581083597557153553e-05 7.524612897213955875e-07 4.968988832843024284e-06 -6.751691671524895355e-06
4.432000000000000000e+03 2.911223602294921875e+01 -8.130510330200195312e+00 5.679350124410120770e-06 2.089545159833505750e-05 7.972440471348818392e-06 6.604230293305590749e-06
4.433000000000000000e+03 1.839631080627441406e+01 3.452578067779541016e+00 1.558110234327614307e-04 -1.767170215316582471e-05 4.144179547438398004e-05 -4.335520497988909483e-05
4.434000000000000000e+03 1.000752830505371094e+01 -1.283250331878662109e+01 3.808057954302057624e-05 3.179504346917383373e-05 2.096268690365832299e-05 -8.610499207861721516e-06
4.435000000000000000e+03 9.573759078979492188e+00 -1.212318706512451172e+01 1.774667180143296719e-05 3.762659252970479429e-05 1.661197893554344773e-05 -2.506360033294185996e-05
4.436000000000000000e+03 7.202925109863281250e+01 -7.913568496704101562e+00 -1.201246231794357300e-01 6.452354431152343750e+00 1.899668931961059570e+00 -1.728975176811218262e-01
4.437000000000000000e+03 2.869936370849609375e+01 -7.509746074676513672e+00 1.521436661278130487e-05 -1.365752450510626659e-05 4.670527289363235468e-07 2.053088792308699340e-06
4.438000000000000000e+03 4.586412429809570312e+01 -1.368310737609863281e+01 1.442791108274832368e-05 -1.414026246493449435e-05 8.629465497733690427e-08 -1.162516855401918292e-05
4.439000000000000000e+03 4.533792114257812500e+01 -1.424295902252197266e+01 -5.727899406338110566e-06 8.780822099652141333e-06 9.158767966255254578e-07 8.995843927550595254e-06
4.440000000000000000e+03 4.584970474243164062e+01 -9.205155372619628906e+00 -2.684095670701935887e-05 -2.898907223425339907e-05 -1.674900886428076774e-05 -2.590622898424044251e-05
4.441000000000000000e+03 7.282627105712890625e+01 -4.495435714721679688e+00 -2.223189361393451691e-02 7.531261920928955078e+00 2.252708911895751953e+00 -3.041998445987701416e-01
4.442000000000000000e+03 7.434623718261718750e+01 -4.551368236541748047e+00 -2.505340985953807831e-02 7.545041084289550781e+00 2.255996465682983398e+00 -6.166912913322448730e-01
4.443000000000000000e+03 6.704480743408203125e+01 -1.787624740600585938e+01 8.906007558107376099e-02 1.018645405769348145e+00 3.323116302490234375e-01 7.735501974821090698e-02
4.444000000000000000e+03 4.614191818237304688e+01 -1.041854953765869141e+01 -2.781792682071682066e-05 -1.935621912707574666e-05 -1.415224414813565090e-05 -2.041978586930781603e-05
4.445000000000000000e+03 4.413964462280273438e+01 -1.553481864929199219e+01 3.761737616514437832e-06 6.521901468659052625e-06 3.085091748289414681e-06 1.088697786144621205e-06
4.446000000000000000e+03 6.954891967773437500e+01 -1.877074813842773438e+01 -5.538079142570495605e-01 2.802130937576293945e+00 6.744968891143798828e-01 -1.161636114120483398e+00
4.447000000000000000e+03 3.765106964111328125e+01 -1.442944622039794922e+01 4.124713541386881843e-06 1.143483495980035514e-05 4.667864686780376360e-06 2.803400320772198029e-07
4.448000000000000000e+03 3.534302139282226562e+01 -1.374678897857666016e+01 -1.778940895746927708e-05 -4.339226961747044697e-06 -6.638590548391221091e-06 -6.546404620166867971e-06
4.449000000000000000e+03 6.087903499603271484e+00 -2.225713348388671875e+01 -3.941893010050989687e-05 1.791538234101608396e-04 4.192046617390587926e-05 6.097270306781865656e-05
4.450000000000000000e+03 7.237316608428955078e+00 -2.998682975769042969e+01 4.693157970905303955e-04 -1.272688386961817741e-04 1.026140889734961092e-04 9.075746493181213737e-05
4.451000000000000000e+03 4.260578155517578125e+01 2.954846322536468506e-01 -3.393291262909770012e-05 -5.361558578442782164e-05 -2.626454988785553724e-05 -4.091474693268537521e-05
4.452000000000000000e+03 4.365451812744140625e+01 -3.343597650527954102e+00 -1.726272421365138143e-05 -6.585393566638231277e-05 -2.493499778211116791e-05 -4.308349889470264316e-05
4.453000000000000000e+03 2.402215576171875000e+01 -1.207228064537048340e+00 8.464301208732649684e-05 5.168220468476647511e-06 2.694336944841779768e-05 -1.362398052151547745e-05
4.454000000000000000e+03 3.847429656982421875e+01 1.950039291381835938e+01 7.071764557622373104e-04 -9.672807209426537156e-05 1.831345143727958202e-04 6.832576473243534565e-04
4.455000000000000000e+03 3.775105285644531250e+01 2.038151931762695312e+01 9.234605240635573864e-04 -3.835190727841109037e-04 1.619824324734508991e-04 6.171914283186197281e-04
4.456000000000000000e+03 1.047428798675537109e+01 6.326965332031250000e+00 5.130510544404387474e-05 1.131126828113337979e-05 1.878491275419946760e-05 -6.556675361935049295e-05
4.457000000000000000e+03 2.448259735107421875e+01 -6.467760801315307617e-01 7.570155139546841383e-05 -5.022359255235642195e-05 7.643387107236776501e-06 2.115991992468480021e-05
4.458000000000000000e+03 2.227913856506347656e+01 -4.831629693508148193e-01 7.872301648603752255e-05 -4.601030741469003260e-05 9.813812539505306631e-06 1.239855009771417826e-05
4.459000000000000000e+03 7.280757141113281250e+01 -6.468304634094238281e+00 -1.175499632954597473e-01 7.025110721588134766e+00 2.072268247604370117e+00 -3.308903872966766357e-01
4.460000000000000000e+03 3.931484603881835938e+01 6.112244606018066406e+00 -7.333885878324508667e-05 1.254351664101704955e-04 1.562889156048186123e-05 -1.666964271862525493e-05
4.461000000000000000e+03 2.951875305175781250e+01 -8.711852073669433594e+00 7.753801583021413535e-06 -1.014412919175811112e-05 -7.170981461968040094e-07 -2.974006747535895556e-07
4.462000000000000000e+03 7.394552612304687500e+01 1.485683441162109375e+01 -3.007861785590648651e-02 8.504779815673828125e+00 2.542410373687744141e+00 -7.963867485523223877e-02
4.463000000000000000e+03 7.409661865234375000e+01 -1.333233833312988281e+01 -2.102665901184082031e-01 6.705443382263183594e+00 1.948552966117858887e+00 -5.219120383262634277e-01
4.464000000000000000e+03 6.815225219726562500e+01 -1.313895988464355469e+01 3.585278987884521484e-01 3.073965072631835938e+00 1.029747843742370605e+00 2.577883601188659668e-01
4.465000000000000000e+03 7.402437591552734375e+01 -6.288437247276306152e-01 3.765577077865600586e-01 8.160910606384277344e+00 2.561240434646606445e+00 -4.512024521827697754e-01
4.466000000000000000e+03 7.318917083740234375e+01 -3.736422777175903320e+00 4.054970666766166687e-02 7.740619182586669922e+00 2.334350585937500000e+00 -4.015986323356628418e-01
4.467000000000000000e+03 7.214870452880859375e+01 -6.031206607818603516e+00 -9.416966140270233154e-02 6.985858440399169922e+00 2.067506551742553711e+00 -1.435251086950302124e-01
4.468000000000000000e+03 3.839407348632812500e+01 2.399363517761230469e+01 1.962726935744285583e-03 -6.491663225460797548e-05 5.693430430255830288e-04 3.628775011748075485e-04
4.469000000000000000e+03 3.863816070556640625e+01 2.115358924865722656e+01 1.028844271786510944e-03 9.210538109982735477e-07 3.089295933023095131e-04 8.726963424123823643e-04
4.470000000000000000e+03 4.773522186279296875e+01 -2.762396812438964844e+01 1.726213842630386353e-01 -1.852501928806304932e-01 -3.788643283769488335e-03 -4.772532284259796143e-01
4.471000000000000000e+03 7.414385986328125000e+01 2.323138809204101562e+01 3.379201292991638184e-01 8.211403846740722656e+00 2.564797401428222656e+00 7.638939470052719116e-02
4.472000000000000000e+03 2.736921691894531250e+01 -5.477262020111083984e+00 2.360105281695723534e-05 2.043702261289581656e-05 1.321142281085485592e-05 1.472704866500862408e-06
4.473000000000000000e+03 3.697994613647460938e+01 1.386779022216796875e+01 5.438319640234112740e-04 8.347721450263634324e-05 1.881927601061761379e-04 2.870259631890803576e-04
4.474000000000000000e+03 5.381958770751953125e+01 -2.668557739257812500e+01 7.580246329307556152e-01 1.284383535385131836e+00 6.127224564552307129e-01 3.211437165737152100e-02
4.475000000000000000e+03 1.691633033752441406e+01 4.370856761932373047e+00 1.544628757983446121e-04 -1.161485579359577969e-05 4.285440809326246381e-05 -5.254869392956607044e-05
4.476000000000000000e+03 3.795510101318359375e+01 1.590841579437255859e+01 1.760335435392335057e-04 1.393314596498385072e-04 9.460949513595551252e-05 5.070595070719718933e-04
4.477000000000000000e+03 4.008404922485351562e+01 3.335321426391601562e+00 1.913509322548634373e-06 3.720848326338455081e-05 1.173659802589099854e-05 -1.945179428730625659e-05
4.478000000000000000e+03 6.319697856903076172e+00 -1.691766929626464844e+01 -5.547102409764192998e-05 4.929577335133217275e-05 -1.852574882832414005e-06 8.385424735024571419e-06
4.479000000000000000e+03 7.417849731445312500e+01 -2.428788185119628906e+00 1.496461927890777588e-01 7.861976146697998047e+00 2.403486728668212891e+00 -5.652403831481933594e-01
4.480000000000000000e+03 7.364515686035156250e+01 -1.760396599769592285e+00 2.594205737113952637e-01 8.118808746337890625e+00 2.513468980789184570e+00 -4.416851699352264404e-01
4.481000000000000000e+03 1.950946807861328125e+01 1.812328696250915527e+00 8.846091805025935173e-05 -4.067854024469852448e-05 1.433471334166824818e-05 -2.524474894016748294e-06
4.482000000000000000e+03 2.476944541931152344e+01 -3.134086370468139648e+00 5.442127803689800203e-05 -3.641943112597800791e-05 5.400553163781296462e-06 1.071559199772309512e-05
4.483000000000000000e+03 2.582237625122070312e+01 -3.319064855575561523e+00 5.131649959366768599e-05 -3.485031993477605283e-05 4.939853170071728528e-06 1.192762101709377021e-05
4.484000000000000000e+03 2.524900817871093750e+01 -2.603847980499267578e+00 6.039419531589373946e-05 1.262296882487135008e-05 2.190514896938111633e-05 -7.578123131679603830e-06
4.485000000000000000e+03 4.084504318237304688e+01 -1.532797050476074219e+01 4.898959105048561469e-06 9.901304110826458782e-06 4.440079010237241164e-06 -2.384223535045748577e-06
4.486000000000000000e+03 7.396485137939453125e+01 1.734839558601379395e+00 5.362578630447387695e-01 8.531935691833496094e+00 2.720458030700683594e+00 -1.968824714422225952e-01
4.487000000000000000e+03 7.438236999511718750e+01 -3.687703704833984375e+01 -2.804366946220397949e-01 6.980589389801025391e+00 2.010045766830444336e+00 1.093516871333122253e-01
4.488000000000000000e+03 7.452940368652343750e+01 1.218320846557617188e+01 -2.342974990606307983e-01 8.367806434631347656e+00 2.440052747726440430e+00 1.519826985895633698e-02
4.489000000000000000e+03 7.405147552490234375e+01 2.420261192321777344e+01 4.080516099929809570e-01 8.149197578430175781e+00 2.567174911499023438e+00 1.403239071369171143e-01
4.490000000000000000e+03 6.142086505889892578e+00 -1.472410583496093750e+01 2.306150236108805984e-05 5.603352474281564355e-05 2.372850940446369350e-05 4.952509334543719888e-05
4.491000000000000000e+03 1.135772705078125000e+01 -1.169361400604248047e+01 3.018662027898244560e-05 9.703617251943796873e-06 1.196707125927787274e-05 1.346354383713332936e-05
4.492000000000000000e+03 3.830287170410156250e+01 -1.458594703674316406e+01 -1.548443651699926704e-05 -8.414522199018392712e-06 -7.169688160502118990e-06 -4.389524747239192948e-06
4.493000000000000000e+03 2.270766830444335938e+01 1.016428098082542419e-01 1.100686786230653524e-04 -3.136315172014292330e-06 3.207970803487114608e-05 -2.098603727063164115e-05
4.494000000000000000e+03 1.988976287841796875e+01 2.422565698623657227e+00 1.492704614065587521e-04 -1.700028587947599590e-05 3.968105011153966188e-05 -3.579971962608397007e-05
4.495000000000000000e+03 1.481662559509277344e+01 -8.676752090454101562e+00 2.021255204454064369e-05 -4.795431323145749047e-07 5.919902832829393446e-06 -2.541030141856026603e-07
4.496000000000000000e+03 1.106723976135253906e+01 -7.018924713134765625e+00 1.613200947758741677e-05 7.926663784019183367e-06 7.217602160380920395e-06 2.586923756098258309e-06
4.497000000000000000e+03 7.123764801025390625e+01 3.582809829711914062e+01 -4.735376238822937012e-01 5.650654792785644531e+00 1.553135037422180176e+00 -1.622553914785385132e-01
4.498000000000000000e+03 1.554930686950683594e+01 5.239295005798339844e+00 1.462222135160118341e-04 8.180778081623429898e-07 4.411208647070452571e-05 -6.539283640449866652e-05
4.499000000000000000e+03 7.384711456298828125e+01 2.512464714050292969e+01 4.512169063091278076e-01 8.110161781311035156e+00 2.568413496017456055e+00 1.939405947923660278e-01
4.500000000000000000e+03 2.314030265808105469e+01 6.867670416831970215e-01 8.551520295441150665e-05 -5.643347321893088520e-05 8.724518920644186437e-06 2.095422132697422057e-05
4.501000000000000000e+03 2.092786788940429688e+01 7.095505595207214355e-01 8.546321623725816607e-05 -4.549526784103363752e-05 1.199038433696841821e-05 7.725399882474448532e-06
4.502000000000000000e+03 3.885968780517578125e+01 2.717898941040039062e+01 2.083054976537823677e-03 -2.589184441603720188e-04 5.472409538924694061e-04 1.376087020616978407e-04
4.503000000000000000e+03 7.369132232666015625e+01 2.599555397033691406e+01 4.673468768596649170e-01 8.032704353332519531e+00 2.550015211105346680e+00 2.616010904312133789e-01
4.504000000000000000e+03 4.485250854492187500e+01 -2.653928756713867188e+00 -4.159329182584770024e-05 -6.900602602399885654e-05 -3.317979644634760916e-05 -4.871198325417935848e-05
4.505000000000000000e+03 4.421105957031250000e+01 -1.358014702796936035e+00 -4.650385380955412984e-05 -7.113110041245818138e-05 -3.529048626660369337e-05 -5.268446693662554026e-05
4.506000000000000000e+03 6.910849571228027344e+00 1.319084453582763672e+01 4.659898695535957813e-05 1.265569007955491543e-04 5.194676850805990398e-05 -1.331699459115043283e-04
4.507000000000000000e+03 6.988593578338623047e+00 -3.588844299316406250e+01 2.441626857034862041e-04 7.099417271092534065e-04 2.862313122022897005e-04 1.200952217914164066e-03
4.508000000000000000e+03 4.666024017333984375e+01 -1.269666862487792969e+01 2.395379306108225137e-05 -7.302823632926447317e-06 4.995290510123595595e-06 2.369858293604920618e-06
4.509000000000000000e+03 8.926878929138183594e+00 -5.453859806060791016e+00 1.469955441280035302e-05 6.266490800044266507e-06 6.289813427429180592e-06 5.038663857703795657e-06
4.510000000000000000e+03 1.432239723205566406e+01 6.151846885681152344e+00 1.354405103484168649e-04 1.450719264539657161e-05 4.498431371757760644e-05 -8.327751129399985075e-05
4.511000000000000000e+03 1.449107837677001953e+01 5.027751922607421875e+00 1.307457860093563795e-04 1.105636329157277942e-05 4.254064697306603193e-05 -6.946756911929696798e-05
4.512000000000000000e+03 3.832151794433593750e+01 1.863526916503906250e+01 9.056872222572565079e-04 3.040767333004623652e-04 3.629291895776987076e-04 4.860802728217095137e-04
4.513000000000000000e+03 7.344637298583984375e+01 -2.097492599487304688e+01 -1.001469492912292480e+00 7.969994068145751953e+00 2.090557336807250977e+00 4.269917681813240051e-02
4.514000000000000000e+03 3.712429046630859375e+01 1.181757354736328125e+01 3.948898811358958483e-04 8.610505756223574281e-05 1.442984794266521931e-04 2.494141808710992336e-04
4.515000000000000000e+03 7.826660156250000000e+00 -1.462233448028564453e+01 -3.540336911100894213e-05 -3.719895175890997052e-05 -2.178069735236931592e-05 -1.684738890617154539e-05
4.516000000000000000e+03 3.751506805419921875e+01 2.331895065307617188e+01 1.096340245567262173e-03 -9.811627678573131561e-04 3.455323894741013646e-05 6.890352233313024044e-04
4.517000000000000000e+03 4.223601150512695312e+01 3.107580947875976562e+01 8.145823376253247261e-04 -2.789721125736832619e-03 -5.925416480749845505e-04 -2.797594934236258268e-04
4.518000000000000000e+03 1.012497043609619141e+01 -1.223709487915039062e+01 -3.744794230442494154e-05 -1.771704592101741582e-05 -1.654949664953164756e-05 1.772477480699308217e-05
4.519000000000000000e+03 1.200053405761718750e+01 -1.157984352111816406e+01 -1.042683197738369927e-05 -1.091576723410980776e-05 -6.402779945346992463e-06 -1.536895979370456189e-05
4.520000000000000000e+03 3.892669677734375000e+01 6.999951839447021484e+00 1.485867542214691639e-04 6.541202310472726822e-05 6.419963028747588396e-05 1.080035508493892848e-04
4.521000000000000000e+03 3.960370254516601562e+01 4.041493892669677734e+00 1.676917599979788065e-05 2.991569090227130800e-05 1.400545988872181624e-05 7.556384662166237831e-05
4.522000000000000000e+03 2.827502250671386719e+01 -6.856291294097900391e+00 1.267168863705592230e-05 2.103436054312624037e-05 1.011181484500411898e-05 4.385124611872015521e-06
4.523000000000000000e+03 3.392504501342773438e+01 -1.273089218139648438e+01 -4.595807240548310801e-06 2.195348679379094392e-05 5.207304184295935556e-06 5.776218131359200925e-06
4.524000000000000000e+03 7.273991394042968750e+01 2.771890830993652344e+01 4.251171350479125977e-01 7.927846431732177734e+00 2.505889177322387695e+00 2.359268218278884888e-01
4.525000000000000000e+03 5.740035533905029297e+00 -2.797186660766601562e+01 1.257372205145657063e-04 -4.881492350250482559e-05 2.307669092260766774e-05 -7.702315087954048067e-06
4.526000000000000000e+03 3.725328826904296875e+01 1.078394317626953125e+01 -4.266781252226792276e-05 1.500758808106184006e-04 3.222242230549454689e-05 1.766897621564567089e-04
4.527000000000000000e+03 7.318960571289062500e+01 3.436671447753906250e+01 -3.979077339172363281e-01 6.708411693572998047e+00 1.893151164054870605e+00 2.981182336807250977e-01
4.528000000000000000e+03 1.386789417266845703e+01 5.483675956726074219e+00 7.334545807680115104e-05 -1.431533655704697594e-05 1.770903509168419987e-05 -5.712457277695648372e-05
4.529000000000000000e+03 1.315078926086425781e+01 7.178935050964355469e+00 1.267933985218405724e-04 2.507320277800317854e-05 4.555998020805418491e-05 -1.025710662361234426e-04
4.530000000000000000e+03 2.022732925415039062e+01 1.271221041679382324e+00 1.301251177210360765e-04 -1.229570716532180086e-05 3.534882125677540898e-05 -3.140769331366755068e-05
4.531000000000000000e+03 5.880696296691894531e+00 3.359008407592773438e+01 -4.186893056612461805e-05 5.896398797631263733e-04 1.643312716623768210e-04 -1.849800755735486746e-04
4.532000000000000000e+03 4.267905712127685547e+00 3.417184829711914062e+01 -1.095608695322880521e-05 6.806811434216797352e-04 2.009175077546387911e-04 -1.423916546627879143e-04
4.533000000000000000e+03 7.941074371337890625e+00 -3.478165435791015625e+01 2.274472644785419106e-04 5.396390915848314762e-04 2.301259082742035389e-04 9.429029887542128563e-04
4.534000000000000000e+03 7.350418853759765625e+01 3.277066421508789062e+01 -3.069165647029876709e-01 7.051975250244140625e+00 2.023517608642578125e+00 4.504275619983673096e-01
4.535000000000000000e+03 7.262062072753906250e+01 3.335577392578125000e+01 -4.018980264663696289e-01 6.672103404998779297e+00 1.881061673164367676e+00 2.471117377281188965e-01
4.536000000000000000e+03 6.276660442352294922e+00 3.551016235351562500e+01 -2.556730032665655017e-05 5.893354536965489388e-04 1.691304496489465237e-04 -1.751774834701791406e-04
4.537000000000000000e+03 4.277520751953125000e+01 3.402798843383789062e+01 -1.606827136129140854e-03 -2.289976924657821655e-03 -1.169041148386895657e-03 -4.705296305473893881e-04
4.538000000000000000e+03 4.580580520629882812e+01 -3.825532531738281250e+01 2.053628414869308472e-01 -3.557178750634193420e-02 5.093731731176376343e-02 1.582043766975402832e-01
4.539000000000000000e+03 4.839337158203125000e+01 -3.760153579711914062e+01 1.387864947319030762e-01 3.289439678192138672e-01 1.403191387653350830e-01 2.114242464303970337e-01
4.540000000000000000e+03 7.446459770202636719e+00 -3.817744064331054688e+01 -3.464075562078505754e-04 1.190541661344468594e-03 2.532402286306023598e-04 1.181589672341942787e-03
4.541000000000000000e+03 4.665406036376953125e+01 -4.099357604980468750e+01 1.439986079931259155e-01 1.664485335350036621e-01 9.313414245843887329e-02 5.572899058461189270e-02
4.542000000000000000e+03 5.047581481933593750e+01 -3.390810012817382812e+01 3.138125240802764893e-01 7.003523111343383789e-01 3.042494654655456543e-01 3.380876183509826660e-01
4.543000000000000000e+03 1.273030662536621094e+01 -3.667248153686523438e+01 -4.860510816797614098e-04 1.150267897173762321e-03 1.992650504689663649e-04 2.631729934364557266e-03
4.544000000000000000e+03 2.673390197753906250e+01 -4.136540985107421875e+01 -1.181668415665626526e-02 -3.259938210248947144e-02 -1.332482043653726578e-02 -2.562197158113121986e-03
4.545000000000000000e+03 4.391408920288085938e+01 3.548425674438476562e+01 -1.195722608827054501e-03 -4.900855012238025665e-03 -1.828973297961056232e-03 -3.246150154154747725e-04
4.546000000000000000e+03 4.092276382446289062e+01 3.271570205688476562e+01 1.145966933108866215e-03 -9.813260985538363457e-04 4.939224527333863080e-05 -9.608443942852318287e-04
4.547000000000000000e+03 6.026526451110839844e+00 3.776131439208984375e+01 1.028879614750621840e-05 6.015212275087833405e-04 1.835430011851713061e-04 -1.172961929114535451e-04
4.548000000000000000e+03 7.014296722412109375e+01 3.583946990966796875e+01 -4.695468842983245850e-01 5.096460342407226562e+00 1.388074040412902832e+00 -3.496049940586090088e-01
4.549000000000000000e+03 4.840558242797851562e+01 -3.348412322998046875e+01 2.945938408374786377e-01 2.011802494525909424e-01 1.487322300672531128e-01 2.460106164216995239e-01
4.550000000000000000e+03 1.033123207092285156e+01 -3.707678985595703125e+01 -7.559569203294813633e-04 1.497400342486798763e-03 2.224330237368121743e-04 1.346724224276840687e-03
4.551000000000000000e+03 7.404302978515625000e+01 3.710849761962890625e+01 -2.906230986118316650e-01 6.684762001037597656e+00 1.918241620063781738e+00 2.178946435451507568e-01
4.552000000000000000e+03 1.769952964782714844e+01 -4.152210235595703125e+01 -7.614349480718374252e-03 3.408827586099505424e-03 -1.261656638234853745e-03 9.094094275496900082e-05
4.553000000000000000e+03 2.231540679931640625e+01 -4.154614639282226562e+01 -1.419882383197546005e-02 -6.809105398133397102e-04 -4.463920369744300842e-03 2.339827129617333412e-03
4.554000000000000000e+03 4.247360992431640625e+01 4.104483032226562500e+01 -3.513111965730786324e-03 -3.400685265660285950e-03 -2.074139192700386047e-03 -7.358393631875514984e-04
4.555000000000000000e+03 7.304911804199218750e+01 -3.897165298461914062e+01 -7.424108684062957764e-02 5.822084903717041016e+00 1.724353075027465820e+00 3.860853314399719238e-01
4.556000000000000000e+03 4.668078231811523438e+01 -3.281250381469726562e+01 2.065002024173736572e-01 -1.265901178121566772e-01 2.397302538156509399e-02 1.434184014797210693e-01
4.557000000000000000e+03 2.553226470947265625e+01 -3.921695709228515625e+01 -1.294385734945535660e-02 -1.415160950273275375e-02 -8.128640241920948029e-03 -2.070494927465915680e-03
4.558000000000000000e+03 3.084398269653320312e+01 -1.021154403686523438e+01 1.137331855716183782e-05 1.811397487472277135e-05 8.846188393363263458e-06 -1.345049582823776291e-07
4.559000000000000000e+03 3.120908737182617188e+01 -1.300199222564697266e+01 -1.403328133164905012e-05 -7.399116384476656094e-06 -6.429719178413506597e-06 -1.494951675340416841e-06
4.560000000000000000e+03 4.786787414550781250e+01 -2.928941535949707031e+01 2.652591466903686523e-01 -9.725267440080642700e-02 5.040194466710090637e-02 -2.318458110094070435e-01
4.561000000000000000e+03 6.035240173339843750e+00 -3.063085937500000000e+01 1.727238268358632922e-04 1.523951505078002810e-04 9.753569611348211765e-05 2.122025325661525130e-04
4.562000000000000000e+03 4.670417404174804688e+01 -2.699356460571289062e+01 2.933475002646446228e-02 -3.285540640354156494e-01 -8.976579457521438599e-02 -5.749809741973876953e-01
4.563000000000000000e+03 4.731711196899414062e+01 -2.861587142944335938e+01 1.422277092933654785e-01 -2.034709155559539795e-01 -1.837296225130558014e-02 -3.605134189128875732e-01
4.564000000000000000e+03 1.319979000091552734e+01 -7.820347309112548828e+00 9.496850907453335822e-06 3.625970293796854094e-06 3.936846496799262241e-06 3.853215275739785284e-06
4.565000000000000000e+03 6.754838562011718750e+01 -1.737390899658203125e+01 1.657290607690811157e-01 1.514001369476318359e+00 5.039191246032714844e-01 -1.247756704688072205e-01
4.566000000000000000e+03 6.898898315429687500e+01 -1.855560684204101562e+01 -3.821118772029876709e-01 2.224150180816650391e+00 5.526114702224731445e-01 -9.016346335411071777e-01
4.567000000000000000e+03 4.926359558105468750e+01 -2.710944938659667969e+01 3.251701593399047852e-01 7.862766273319721222e-03 9.990987926721572876e-02 -4.590249061584472656e-01
4.568000000000000000e+03 4.376264953613281250e+01 -4.980152606964111328e+00 1.145463011198444292e-05 5.683611379936337471e-05 2.048722308245487511e-05 1.945168332895264030e-05
4.569000000000000000e+03 4.327122116088867188e+01 -1.047660112380981445e+00 -3.479681618046015501e-05 -6.194088200572878122e-05 -2.902131018345244229e-05 -4.498632188187912107e-05
4.570000000000000000e+03 1.231132030487060547e+01 -7.394299983978271484e+00 2.117934127454645932e-05 2.356458935537375510e-06 7.060740244924090803e-06 2.733307155722286552e-06
4.571000000000000000e+03 1.280368423461914062e+01 -1.060397815704345703e+01 1.264828279090579599e-05 2.475118162692524493e-05 1.121983950724825263e-05 6.884792469463718589e-07
4.572000000000000000e+03 4.201606750488281250e+01 -8.622778952121734619e-02 3.905797348124906421e-05 4.939072459819726646e-05 2.653460978763177991e-05 3.047450081794522703e-05
4.573000000000000000e+03 4.167244720458984375e+01 5.861151218414306641e-01 -2.169839535781648010e-05 -2.915141885750927031e-05 -1.525494371890090406e-05 -2.619415135995950550e-05
4.574000000000000000e+03 1.472930908203125000e+01 -9.576751708984375000e+00 1.757749669195618480e-05 -6.741578545188531280e-06 3.250775307606090792e-06 2.668981778697343543e-06
4.575000000000000000e+03 4.652884292602539062e+01 -1.401561832427978516e+01 -2.135844442818779498e-05 1.227738448505988345e-05 -2.724317937463638373e-06 2.434775296933366917e-06
4.576000000000000000e+03 6.759408569335937500e+01 -1.839264678955078125e+01 -1.271797716617584229e-01 1.059117794036865234e+00 2.795814275741577148e-01 -2.456895858049392700e-01
4.577000000000000000e+03 5.206309127807617188e+01 -2.790951728820800781e+01 7.689145803451538086e-01 7.207946181297302246e-01 4.469127655029296875e-01 -1.274867951869964600e-01
4.578000000000000000e+03 1.039961147308349609e+01 -6.956241130828857422e+00 -1.459542272641556337e-05 -1.073836119758198038e-05 -7.600135177199263126e-06 -2.540007471907301806e-06
4.579000000000000000e+03 4.470388031005859375e+01 -8.035221099853515625e+00 2.565686736488714814e-05 3.063750409637577832e-05 1.688831252977252007e-05 1.093481932912254706e-05
4.580000000000000000e+03 4.471341705322265625e+01 -5.143381595611572266e+00 1.535280352982226759e-05 5.198721919441595674e-05 2.020200736296828836e-05 3.266868225182406604e-05
4.581000000000000000e+03 5.057207870483398438e+01 -2.782302856445312500e+01 5.761029720306396484e-01 3.085512518882751465e-01 2.653962671756744385e-01 -2.738656103610992432e-01
4.582000000000000000e+03 5.077893066406250000e+01 -2.712200164794921875e+01 4.922452867031097412e-01 2.953291237354278564e-01 2.362723201513290405e-01 -3.424676060676574707e-01
4.583000000000000000e+03 6.893036651611328125e+01 -1.400005340576171875e+01 2.622013986110687256e-01 3.383764743804931641e+00 1.093789935111999512e+00 -2.039116993546485901e-02
4.584000000000000000e+03 5.147296142578125000e+01 -2.713248825073242188e+01 5.845079421997070312e-01 4.381278753280639648e-01 3.067907392978668213e-01 -2.860512733459472656e-01
4.585000000000000000e+03 6.859369659423828125e+01 -1.495389556884765625e+01 2.766567468643188477e-01 2.979345798492431641e+00 9.768007993698120117e-01 -1.190578043460845947e-01
4.586000000000000000e+03 4.341729736328125000e+01 -4.312636375427246094e+00 -7.493662451452109963e-06 -6.958894664421677589e-05 -2.312478136445861310e-05 -4.100654768990352750e-05
4.587000000000000000e+03 5.329260253906250000e+01 -2.691613197326660156e+01 7.434893250465393066e-01 1.059514522552490234e+00 5.409011244773864746e-01 -3.862135484814643860e-02
4.588000000000000000e+03 5.235713958740234375e+01 -2.646349334716796875e+01 5.787956118583679199e-01 6.637388467788696289e-01 3.727603554725646973e-01 -2.360199391841888428e-01
4.589000000000000000e+03 1.367467689514160156e+01 -9.601291656494140625e+00 -2.109190063492860645e-05 -1.206516299134818837e-05 -9.947118996933568269e-06 -1.085834537661867216e-05
4.590000000000000000e+03 3.087681961059570312e+01 -9.186153411865234375e+00 1.024907760438509285e-05 2.084880907204933465e-05 9.329366548627149314e-06 7.391965937131317332e-06
4.591000000000000000e+03 5.292095565795898438e+01 -2.740471076965332031e+01 8.006786704063415527e-01 9.973852038383483887e-01 5.394191741943359375e-01 -7.921253889799118042e-02
4.592000000000000000e+03 7.409911346435546875e+01 2.857550811767578125e+01 2.068399041891098022e-01 7.593096256256103516e+00 2.339980840682983398e+00 5.561107397079467773e-01
4.593000000000000000e+03 4.157583999633789062e+01 -1.377701282501220703e+01 1.122461071645375341e-05 -9.968766789825167507e-07 3.068320211241370998e-06 -1.256313879594017635e-07
4.594000000000000000e+03 4.213904953002929688e+01 -1.527055931091308594e+01 -7.420448582706740126e-06 1.166679612651932985e-05 1.273904331355879549e-06 2.760602228590869345e-06
4.595000000000000000e+03 4.549207687377929688e+01 -6.328680992126464844e+00 1.115638133342145011e-05 4.953596362611278892e-05 1.820770376070868224e-05 2.497539935575332493e-05
4.596000000000000000e+03 4.398234176635742188e+01 -3.981496810913085938e+00 2.409628541499841958e-05 5.831717135151848197e-05 2.472403684805613011e-05 3.061509414692409337e-05
4.597000000000000000e+03 4.797784042358398438e+01 -2.824796104431152344e+01 2.145331948995590210e-01 -1.421758383512496948e-01 2.170720882713794708e-02 -3.862996399402618408e-01
4.598000000000000000e+03 3.083775520324707031e+01 -1.224467754364013672e+01 -1.314209475822281092e-05 -8.461219294986221939e-06 -6.480994215962709859e-06 -1.473603333579376340e-06
4.599000000000000000e+03 3.029364395141601562e+01 -1.208599567413330078e+01 5.505748504219809547e-06 1.571281427459325641e-05 6.365568879118654877e-06 8.157257980201393366e-06
4.600000000000000000e+03 6.954899787902832031e+00 2.855004310607910156e+01 4.443056241143494844e-05 4.101240192539989948e-04 1.363663759548217058e-04 -2.194584376411512494e-04
4.601000000000000000e+03 5.485350131988525391e+00 2.731066894531250000e+01 -6.576558371307328343e-05 4.420942277647554874e-04 1.128985895775258541e-04 -2.048872702289372683e-04
4.602000000000000000e+03 5.857382297515869141e+00 6.969176292419433594e+00 2.048530950560234487e-05 5.435949788079597056e-05 2.245344330731313676e-05 -6.989498797338455915e-05
4.603000000000000000e+03 3.314386367797851562e+01 -1.335548686981201172e+01 1.329597012045269366e-06 1.730109943309798837e-05 5.589208740275353193e-06 6.969196874706540257e-06
4.604000000000000000e+03 3.457270812988281250e+01 -1.350563144683837891e+01 6.714268693031044677e-06 1.353924471914069727e-05 6.076053978176787496e-06 8.912895282264798880e-06
4.605000000000000000e+03 6.446350097656250000e+00 2.281675148010253906e+01 -4.709554195869714022e-05 3.058289294131100178e-04 7.762001769151538610e-05 -1.939185749506577849e-04
4.606000000000000000e+03 7.481159210205078125e+01 2.772573280334472656e+01 2.447721660137176514e-01 7.592895984649658203e+00 2.351300477981567383e+00 5.604496002197265625e-01
4.607000000000000000e+03 1.299845123291015625e+01 -9.994695663452148438e+00 -1.524960225651739165e-05 -1.962119131349027157e-05 -1.046123816195176914e-05 -2.093854391205240972e-06
4.608000000000000000e+03 1.152157115936279297e+01 -7.846397399902343750e+00 2.083230174321215600e-05 7.361146344919689000e-06 8.458034244540613145e-06 -1.891263082143268548e-06
4.609000000000000000e+03 2.783321380615234375e+01 -6.177092552185058594e+00 2.490754377504345030e-05 -1.909200000227428973e-05 1.744663222780218348e-06 4.299175088817719370e-06
4.610000000000000000e+03 2.840645408630371094e+01 -4.481937408447265625e+00 3.167384420521557331e-05 2.385956759098917246e-05 1.666002390265930444e-05 3.945543994632316753e-06
4.611000000000000000e+03 3.994345092773437500e+01 2.153405189514160156e+00 -1.360093165203579701e-06 3.180650674039497972e-05 9.133923413173761219e-06 -5.511510153155541047e-06
4.612000000000000000e+03 7.503304290771484375e+01 -1.907605171203613281e+01 -7.354155778884887695e-01 7.935557842254638672e+00 2.160042762756347656e+00 2.272577583789825439e-02
4.613000000000000000e+03 6.724168777465820312e+00 2.351866722106933594e+01 9.863200830295681953e-05 2.727858081925660372e-04 1.114253464038483799e-04 -2.385889820288866758e-04
4.614000000000000000e+03 4.434403991699218750e+01 -1.508323383331298828e+01 -1.294519552175188437e-05 9.119034984905738384e-06 -1.147848252003313974e-06 -5.776358591447205981e-08
4.615000000000000000e+03 4.214307785034179688e+01 -1.413097095489501953e+01 -1.893199805635958910e-05 5.167817107576411217e-06 -4.129254193685483187e-06 -9.324416168965399265e-06
4.616000000000000000e+03 6.236687660217285156e+00 2.211477851867675781e+01 8.219395385822281241e-05 2.679727331269532442e-04 1.050500068231485784e-04 -2.108048647642135620e-04
4.617000000000000000e+03 4.276280975341796875e+01 -1.438793849945068359e+01 1.455912024539429694e-05 -2.643489551701350138e-06 3.574689117158413865e-06 3.796487817453453317e-06
4.618000000000000000e+03 3.697634506225585938e+01 1.487570285797119141e+01 1.399774191668257117e-04 1.023982476908713579e-04 7.271269714692607522e-05 4.292896483093500137e-04
4.619000000000000000e+03 3.804691696166992188e+01 1.684181022644042969e+01 7.534069009125232697e-04 2.245721407234668732e-04 2.933937066700309515e-04 3.905210469383746386e-04
4.620000000000000000e+03 2.132829666137695312e+01 1.308019995689392090e+00 1.331505191046744585e-04 -1.121242530643939972e-05 3.658142668427899480e-05 -2.871720971597824246e-05
4.621000000000000000e+03 5.911612987518310547e+00 1.581758403778076172e+01 3.186690446455031633e-05 1.836381707107648253e-04 6.465151818701997399e-05 -1.481692015659064054e-04
4.622000000000000000e+03 6.276294708251953125e+00 -6.901136875152587891e+00 1.625315780984237790e-05 5.020566277380567044e-06 6.382117589964764193e-06 1.399042321281740442e-05
4.623000000000000000e+03 4.248823547363281250e+01 -1.337304496765136719e+01 1.578618321218527853e-05 -4.594753136188955978e-06 3.357429022798896767e-06 1.544464453218097333e-06
4.624000000000000000e+03 5.558419704437255859e+00 1.383141803741455078e+01 4.826502481591887772e-05 1.308942300966009498e-04 5.374777538236230612e-05 -1.187317102449014783e-04
4.625000000000000000e+03 6.239487648010253906e+00 1.497746849060058594e+01 3.325074430904351175e-05 1.179579630843363702e-04 4.536261258181184530e-05 -1.378609886160120368e-04
4.626000000000000000e+03 7.479426574707031250e+01 -2.326541709899902344e+01 2.155333310365676880e-01 8.560301780700683594e+00 2.632750511169433594e+00 7.351261973381042480e-01
4.627000000000000000e+03 5.777623176574707031e+00 2.625397109985351562e+01 -6.144012877484783530e-05 4.096241027582436800e-04 1.044551900122314692e-04 -2.161190204787999392e-04
4.628000000000000000e+03 7.495600128173828125e+01 -2.069597816467285156e+01 -6.347098350524902344e-01 8.253812789916992188e+00 2.285730838775634766e+00 3.926931023597717285e-01
4.629000000000000000e+03 7.472843933105468750e+01 -1.302287673950195312e+01 -1.796863973140716553e-01 7.061772823333740234e+00 2.064625978469848633e+00 -5.272881984710693359e-01
4.630000000000000000e+03 7.357945251464843750e+01 -1.390813827514648438e+01 -2.062122076749801636e-01 6.429011344909667969e+00 1.866839766502380371e+00 -5.275967717170715332e-01
4.631000000000000000e+03 7.415552520751953125e+01 -1.060017871856689453e+01 -1.339489370584487915e-01 6.866259574890136719e+00 2.019693136215209961e+00 -5.207056999206542969e-01
4.632000000000000000e+03 7.429003906250000000e+01 -1.514687633514404297e+01 -3.452469706535339355e-01 6.920753955841064453e+00 1.972652196884155273e+00 -5.193410515785217285e-01
4.633000000000000000e+03 7.183936309814453125e+01 -1.863193702697753906e+01 -1.025983572006225586e+00 5.680780887603759766e+00 1.396439194679260254e+00 -1.015623807907104492e+00
4.634000000000000000e+03 7.465843963623046875e+01 -1.211332893371582031e+01 -1.390064656734466553e-01 7.023955345153808594e+00 2.065484762191772461e+00 -5.294787287712097168e-01
4.635000000000000000e+03 7.253520202636718750e+01 -1.301550579071044922e+01 -1.255461275577545166e-01 5.868351459503173828e+00 1.722841620445251465e+00 -4.493879675865173340e-01
4.636000000000000000e+03 7.522927856445312500e+01 -2.007114791870117188e+01 -6.365528702735900879e-01 8.246444702148437500e+00 2.282967567443847656e+00 3.100238740444183350e-01
4.637000000000000000e+03 7.412760925292968750e+01 -2.112352943420410156e+01 -7.430686354637145996e-01 8.167484283447265625e+00 2.227324485778808594e+00 3.064030408859252930e-01
4.638000000000000000e+03 7.362128448486328125e+01 -2.017627906799316406e+01 -1.043912053108215332e+00 7.691024780273437500e+00 1.994133710861206055e+00 -1.283262073993682861e-01
4.639000000000000000e+03 7.479882049560546875e+01 -1.834827613830566406e+01 -7.052882313728332520e-01 7.707302093505859375e+00 2.100604295730590820e+00 -1.587414145469665527e-01
4.640000000000000000e+03 7.335074615478515625e+01 -1.826384353637695312e+01 -8.887904882431030273e-01 6.837791919708251953e+00 1.784700393676757812e+00 -5.395805835723876953e-01
4.641000000000000000e+03 7.485342407226562500e+01 -4.870616912841796875e+00 -4.169814288616180420e-02 7.503563880920410156e+00 2.238559722900390625e+00 -6.669865846633911133e-01
4.642000000000000000e+03 7.509408569335937500e+01 -3.537685871124267578e+00 3.804896399378776550e-02 7.596145629882812500e+00 2.290258407592773438e+00 -6.856446862220764160e-01
4.643000000000000000e+03 7.378927612304687500e+01 -4.174295425415039062e+00 -1.274978625588119030e-03 7.613040924072265625e+00 2.283529758453369141e+00 -5.290163159370422363e-01
4.644000000000000000e+03 7.388660430908203125e+01 -1.932103157043457031e+01 -9.694460630416870117e-01 7.522594928741455078e+00 1.965944647789001465e+00 -2.188933193683624268e-01
4.645000000000000000e+03 7.362335968017578125e+01 -1.665806388854980469e+01 -5.628301501274108887e-01 6.690637111663818359e+00 1.838342070579528809e+00 -5.463773608207702637e-01
4.646000000000000000e+03 7.480104827880859375e+01 -1.750546455383300781e+01 -6.162416934967041016e-01 7.512439727783203125e+00 2.068859338760375977e+00 -3.031401038169860840e-01
4.647000000000000000e+03 7.455974578857421875e+01 -1.861574500799179077e-01 3.759030401706695557e-01 8.033201217651367188e+00 2.522731065750122070e+00 -4.814657270908355713e-01
4.648000000000000000e+03 7.461473083496093750e+01 -8.498509407043457031e+00 -1.278100907802581787e-01 7.163543224334716797e+00 2.110719919204711914e+00 -5.770660638809204102e-01
4.649000000000000000e+03 7.165122985839843750e+01 -8.611872673034667969e+00 -9.698948264122009277e-02 6.123970508575439453e+00 1.808094263076782227e+00 -1.187497228384017944e-01
4.650000000000000000e+03 7.390946197509765625e+01 -5.944215297698974609e+00 -9.709328413009643555e-02 7.308805942535400391e+00 2.163513660430908203e+00 -5.393422245979309082e-01
4.651000000000000000e+03 7.387609100341796875e+01 -6.683579921722412109e+00 -1.248652413487434387e-01 7.199099540710449219e+00 2.122270107269287109e+00 -5.231509804725646973e-01
4.652000000000000000e+03 7.313047790527343750e+01 -8.917381286621093750e+00 -1.315528154373168945e-01 6.664237022399902344e+00 1.959805250167846680e+00 -4.189541041851043701e-01
4.653000000000000000e+03 7.379898834228515625e+01 -7.302939414978027344e+00 -1.269447803497314453e-01 7.072591781616210938e+00 2.083693981170654297e+00 -5.157052278518676758e-01
4.654000000000000000e+03 7.356824493408203125e+01 -7.923882961273193359e+00 -1.429009139537811279e-01 6.928294658660888672e+00 2.035618066787719727e+00 -4.790193736553192139e-01
4.655000000000000000e+03 5.265577316284179688e+00 2.030897521972656250e+01 7.304032624233514071e-05 2.304742229171097279e-04 9.105436038225889206e-05 -1.468578702770173550e-04
4.656000000000000000e+03 6.017521381378173828e+00 2.146674919128417969e+01 -3.625833414844237268e-05 2.817456552293151617e-04 7.364619523286819458e-05 -1.859797775978222489e-04
4.657000000000000000e+03 7.410853576660156250e+01 -2.472353935241699219e+01 9.321655035018920898e-01 8.886848449707031250e+00 2.945704221725463867e+00 4.443381130695343018e-01
4.658000000000000000e+03 5.671957969665527344e+00 7.722025871276855469e+00 3.188097616657614708e-05 4.368507507024332881e-05 2.266981573484372348e-05 -5.412427344708703458e-05
4.659000000000000000e+03 7.671777725219726562e+00 7.505012035369873047e+00 4.988006912753917277e-05 5.211611642153002322e-05 3.059885420952923596e-05 -8.521191193722188473e-05
4.660000000000000000e+03 5.310667037963867188e+00 -1.164055442810058594e+01 -4.597804581862874329e-05 -9.249389222532045096e-06 -1.656823042139876634e-05 -2.119142845913302153e-05
4.661000000000000000e+03 6.128659248352050781e+00 -9.224796295166015625e+00 -3.178891347488388419e-05 -8.468522537441458553e-06 -1.207723107654601336e-05 -1.569041887705679983e-05
4.662000000000000000e+03 6.704336166381835938e+00 1.422470188140869141e+01 5.546612737816758454e-05 1.412757410435006022e-04 5.902256452827714384e-05 -1.421125343767926097e-04
4.663000000000000000e+03 5.394014835357666016e+00 1.301223754882812500e+01 -4.921642812405480072e-06 1.181286788778379560e-04 3.396211104700341821e-05 -1.095659026759676635e-04
4.664000000000000000e+03 6.494533061981201172e+00 -1.537480735778808594e+01 3.717258005053736269e-05 -5.773629163741134107e-05 -6.169113476062193513e-06 -3.587746687117032707e-05
4.665000000000000000e+03 5.322012901306152344e+00 -1.243710136413574219e+01 4.884667578153312206e-05 1.286929636989952996e-05 1.851479100878350437e-05 2.269395736220758408e-05
4.666000000000000000e+03 6.034122467041015625e+00 -1.231701278686523438e+01 -4.435870141605846584e-05 -1.493739182478748262e-05 -1.778882688086014241e-05 -2.389773362665437162e-05
4.667000000000000000e+03 9.849775314331054688e+00 6.892901897430419922e+00 8.676399011164903641e-05 4.085650289198383689e-05 3.828614717349410057e-05 -9.667985432315617800e-05
4.668000000000000000e+03 5.451512336730957031e+00 1.875714492797851562e+01 7.106279372237622738e-05 1.969020813703536987e-04 8.038945816224440932e-05 -1.570560561958700418e-04
4.669000000000000000e+03 5.826468467712402344e+00 2.088527297973632812e+01 7.751400698907673359e-05 2.437495422782376409e-04 9.637906623538583517e-05 -1.776690187398344278e-04
4.670000000000000000e+03 6.100946426391601562e+00 -1.391776371002197266e+01 -4.598370287567377090e-05 -3.175262827426195145e-05 -2.332089934498071671e-05 -4.161452670814469457e-05
4.671000000000000000e+03 3.363057327270507812e+01 -1.214707660675048828e+01 1.262934165424667299e-05 6.759709322068374604e-06 5.816715201945044100e-06 2.940176102583791362e-07
4.672000000000000000e+03 5.353867530822753906e+00 1.228815841674804688e+01 4.921290019410662353e-05 9.641550423111766577e-05 4.368852023617364466e-05 -9.632368164602667093e-05
4.673000000000000000e+03 5.833974838256835938e+00 2.034194564819335938e+01 -3.636400833784136921e-06 2.774637541733682156e-04 8.214820263674482703e-05 -2.089002809952944517e-04
4.674000000000000000e+03 8.332968711853027344e+00 -1.316075706481933594e+01 3.553565693437121809e-05 2.619811493786983192e-05 1.852013156167231500e-05 1.005127160169649869e-05
4.675000000000000000e+03 6.091014862060546875e+00 -1.311168098449707031e+01 4.323962639318779111e-05 2.655721073097083718e-05 2.093905095534864813e-05 2.558609230618458241e-05
4.676000000000000000e+03 6.739092350006103516e+00 -1.218479347229003906e+01 3.762490450753830373e-05 1.730768417473882437e-05 1.647977660468313843e-05 2.295122430950868875e-05
4.677000000000000000e+03 6.327122688293457031e+00 1.359809398651123047e+01 1.871940912678837776e-05 1.032836080412380397e-04 3.660090442281216383e-05 -1.239857374457642436e-04
4.678000000000000000e+03 6.534151077270507812e+00 1.615629005432128906e+01 4.566236020764335990e-05 1.270333013962954283e-04 5.180869629839435220e-05 -1.483712549088522792e-04
4.679000000000000000e+03 6.164833545684814453e+00 1.059730243682861328e+01 2.351661714783404022e-05 9.506280184723436832e-05 3.557382660801522434e-05 -1.055809698300436139e-04
4.680000000000000000e+03 6.462055683135986328e+00 1.285839748382568359e+01 3.400160858291201293e-05 9.298879012931138277e-05 3.809711779467761517e-05 -1.094415420084260404e-04
4.681000000000000000e+03 6.137670993804931641e+00 2.694921875000000000e+01 6.058180952095426619e-05 3.969571553170681000e-04 1.372616970911622047e-04 -2.092683134833350778e-04
4.682000000000000000e+03 3.569202423095703125e+01 -1.318489646911621094e+01 9.115036846196744591e-06 4.964547315466916189e-06 4.223875293973833323e-06 5.873942541256838012e-07
4.683000000000000000e+03 6.325609683990478516e+00 2.588538742065429688e+01 2.932930692622903734e-05 3.852630907204002142e-04 1.243777223862707615e-04 -2.309518167749047279e-04
4.684000000000000000e+03 7.359604835510253906e+00 2.598525047302246094e+01 3.117271990049630404e-05 3.546822990756481886e-04 1.157565129688009620e-04 -2.606022171676158905e-04
4.685000000000000000e+03 4.533699798583984375e+01 -1.204714775085449219e+01 -3.285100683569908142e-05 8.369494253201992251e-07 -9.604216756997630000e-06 -2.358025813009589911e-05
4.686000000000000000e+03 7.406334400177001953e+00 2.305627441406250000e+01 -6.334394856821745634e-05 2.823328541126102209e-04 6.569668039446696639e-05 -2.085883315885439515e-04
4.687000000000000000e+03 4.632812500000000000e+01 -1.315205574035644531e+01 -8.699403224454727024e-06 1.112744121201103553e-05 7.284115213224140462e-07 1.294758840231224895e-05
4.688000000000000000e+03 7.363147735595703125e+01 -1.045557308197021484e+01 -1.275232285261154175e-01 6.661263942718505859e+00 1.960122227668762207e+00 -4.837321937084197998e-01
4.689000000000000000e+03 4.369194030761718750e+01 -1.394175148010253906e+01 2.163401222787797451e-05 -1.359411271550925449e-05 2.411969944660086185e-06 1.043913812281971332e-06
4.690000000000000000e+03 4.388027572631835938e+01 -1.273198127746582031e+01 1.684986455074977130e-05 1.269273343496024609e-05 8.862779395713005215e-06 1.793224691937211901e-05
4.691000000000000000e+03 3.891809463500976562e+01 -1.536903858184814453e+01 -9.117428817262407392e-06 -1.334719308943022043e-05 -6.739386662957258523e-06 -4.500273917074082419e-06
4.692000000000000000e+03 3.890489959716796875e+01 -1.467785549163818359e+01 2.909883050961070694e-06 1.341827010037377477e-05 4.898446150036761537e-06 -2.906916506617562845e-06
4.693000000000000000e+03 6.929221343994140625e+01 -1.153089618682861328e+01 1.666513085365295410e-01 4.158271312713623047e+00 1.297476887702941895e+00 1.991902291774749756e-01
4.694000000000000000e+03 7.333843994140625000e+01 -6.959686756134033203e+00 -1.307234913110733032e-01 7.056989669799804688e+00 2.077879905700683594e+00 -4.365164041519165039e-01
4.695000000000000000e+03 3.005154991149902344e+01 -8.181167602539062500e+00 4.842663201998220757e-06 2.311711796210147440e-05 8.387934940401464701e-06 7.617318715347209945e-06
4.696000000000000000e+03 6.991625308990478516e+00 -1.494686317443847656e+01 -2.660989775904454291e-05 3.416199979255907238e-05 2.265630655529093929e-06 1.309852450503967702e-05
4.697000000000000000e+03 3.467073059082031250e+01 -1.271310615539550781e+01 -1.369714664178900421e-05 -8.957778845797292888e-06 -6.796477464376948774e-06 -4.583032023219857365e-06
4.698000000000000000e+03 7.344407653808593750e+01 2.774197196960449219e+01 3.665966987609863281e-01 7.793681621551513672e+00 2.448083400726318359e+00 3.880400657653808594e-01
4.699000000000000000e+03 6.981711387634277344e+00 -8.427379608154296875e+00 -2.926667184510733932e-05 -5.190555384615436196e-06 -1.033716762322001159e-05 -1.277445517189335078e-05
4.700000000000000000e+03 9.106992721557617188e+00 -6.878780364990234375e+00 -2.089344525302294642e-05 -8.747376341489143670e-06 -8.892247024050448090e-06 -7.726258445472922176e-06
4.701000000000000000e+03 3.543994903564453125e+01 -1.208778381347656250e+01 -8.372963748115580529e-06 -1.334784428763668984e-05 -6.516242592624621466e-06 -4.305684797145659104e-06
4.702000000000000000e+03 7.073228454589843750e+01 -9.717267990112304688e+00 -3.701345995068550110e-02 5.423738002777099609e+00 1.616017460823059082e+00 5.453857779502868652e-02
4.703000000000000000e+03 7.135984039306640625e+01 -1.844255638122558594e+01 -8.504789471626281738e-01 5.039043903350830078e+00 1.256569504737854004e+00 -1.033455133438110352e+00
4.704000000000000000e+03 7.267263031005859375e+01 -1.807844352722167969e+01 -8.553060293197631836e-01 6.285932540893554688e+00 1.629187941551208496e+00 -7.264811992645263672e-01
4.705000000000000000e+03 9.163320541381835938e+00 7.312855720520019531e+00 2.627790672704577446e-05 4.094316682312637568e-05 2.016632242884952575e-05 -8.150092617142945528e-05
4.706000000000000000e+03 1.914870452880859375e+01 2.949767351150512695e+00 9.058220894075930119e-05 -4.374933996587060392e-05 1.404986051056766883e-05 -9.225627763953525573e-06
4.707000000000000000e+03 5.446033954620361328e+00 -1.785187911987304688e+01 -1.286054794036317617e-05 -2.765277349681127816e-05 -1.215399606735445559e-05 -8.037273073568940163e-05
4.708000000000000000e+03 5.057225227355957031e+00 -1.905072402954101562e+01 7.612416084157302976e-05 2.451074942655395716e-05 3.019047289853915572e-05 -2.673856579349376261e-05
4.709000000000000000e+03 8.548721313476562500e+00 -1.384346485137939453e+01 -4.041000283905304968e-05 -3.924387056031264365e-05 -2.389616201980970800e-05 -1.353742845822125673e-05
4.710000000000000000e+03 8.956168174743652344e+00 -1.293431282043457031e+01 -1.032690579449990764e-05 -2.550516182964202017e-05 -1.074961983249522746e-05 -9.349346328235697001e-06
4.711000000000000000e+03 1.804020881652832031e+01 4.546494960784912109e+00 1.693151425570249557e-04 -2.152286469936370850e-05 4.433768117451108992e-05 -5.010331733501516283e-05
4.712000000000000000e+03 5.381874465942382812e+01 -2.718452644348144531e+01 8.548652529716491699e-01 1.370975255966186523e+00 6.677521467208862305e-01 9.020964056253433228e-02
4.713000000000000000e+03 3.045133399963378906e+01 -8.707018852233886719e+00 7.467629984603263438e-06 -9.807371498027350754e-06 -7.019224881332775112e-07 -2.824001967383082956e-06
4.714000000000000000e+03 3.756266784667968750e+01 1.958979225158691406e+01 9.961192263290286064e-04 2.423677506158128381e-04 3.715460770763456821e-04 4.036699538119137287e-04
4.715000000000000000e+03 4.390696716308593750e+01 -1.482813930511474609e+01 1.060808699548942968e-05 -5.302397312334505841e-06 1.591706791259639431e-06 -3.923660642612958327e-06
4.716000000000000000e+03 4.532899856567382812e+01 -9.914550781250000000e+00 -2.271151060995180160e-05 -2.779030546662397683e-05 -1.515054464107379317e-05 -2.724615660554263741e-05
4.717000000000000000e+03 7.299002838134765625e+01 -7.660535335540771484e+00 -1.425520032644271851e-01 6.831587314605712891e+00 2.006710529327392578e+00 -3.653692901134490967e-01
4.718000000000000000e+03 4.521724319458007812e+01 -1.333311843872070312e+01 -2.483437492628581822e-05 1.018372040562098846e-05 -4.395196356199448928e-06 -6.619750820391345769e-06
4.719000000000000000e+03 4.161592864990234375e+01 -1.198307037353515625e+01 -2.029445568041410297e-05 2.550680846979958005e-06 -5.323132427292875946e-06 -1.792484545148909092e-05
4.720000000000000000e+03 7.075386047363281250e+01 -1.029449081420898438e+01 -1.392326317727565765e-02 5.324785709381103516e+00 1.593258738517761230e+00 1.626216061413288116e-02
4.721000000000000000e+03 7.097568511962890625e+01 -1.230687618255615234e+01 -3.679157933220267296e-03 5.038579940795898438e+00 1.510470151901245117e+00 -2.129391282796859741e-01
4.722000000000000000e+03 7.145151519775390625e+01 -1.782625007629394531e+01 -6.972220540046691895e-01 5.039707660675048828e+00 1.302745699882507324e+00 -9.814043641090393066e-01
4.723000000000000000e+03 2.686993408203125000e+01 -3.532289028167724609e+00 4.767735299537889659e-05 -3.202243169653229415e-05 4.696476935350801796e-06 1.231045189342694357e-05
4.724000000000000000e+03 1.599157428741455078e+01 5.870552062988281250e+00 8.840858936309814453e-05 -3.580916018108837306e-05 1.577982766320928931e-05 -5.683572089765220881e-05
4.725000000000000000e+03 3.949163055419921875e+01 2.809834003448486328e+00 2.052774834737647325e-05 1.898293157864827663e-05 1.185320434160530567e-05 4.468906263355165720e-05
4.726000000000000000e+03 7.363219451904296875e+01 -3.026797533035278320e+00 1.013741344213485718e-01 7.841787338256835938e+00 2.382948398590087891e+00 -4.858505129814147949e-01
4.727000000000000000e+03 2.494647979736328125e+01 -8.310524374246597290e-02 1.021624120767228305e-04 7.531866685894783586e-06 3.290828317403793335e-05 -1.092250022338703275e-05
4.728000000000000000e+03 2.739091300964355469e+01 -4.262778759002685547e+00 3.542896229191683233e-05 2.146041697415057570e-05 1.706681359792128205e-05 9.479832101533247624e-07
4.729000000000000000e+03 7.346459197998046875e+01 -4.885824203491210938e+00 -4.785198718309402466e-02 7.475549697875976562e+00 2.228309392929077148e+00 -4.719575941562652588e-01
4.730000000000000000e+03 3.741104888916015625e+01 9.746729850769042969e+00 2.784203388728201389e-04 9.136990411207079887e-05 1.109370714402757585e-04 2.018769591813907027e-04
4.731000000000000000e+03 3.758898162841796875e+01 8.700119018554687500e+00 -7.103646203177049756e-05 1.149917952716350555e-04 1.318659906246466562e-05 9.310932364314794540e-05
4.732000000000000000e+03 3.702119445800781250e+01 1.586987495422363281e+01 7.110917940735816956e-04 9.635964670451357961e-05 2.422354300506412983e-04 3.208927519153803587e-04
4.733000000000000000e+03 3.859964370727539062e+01 2.034115219116210938e+01 1.122655230574309826e-03 1.506678381701931357e-04 3.819969133473932743e-04 6.563309580087661743e-04
4.734000000000000000e+03 3.771667480468750000e+01 2.112286376953125000e+01 1.401608344167470932e-03 -5.887203151360154152e-04 2.438664232613518834e-04 4.280658322386443615e-04
4.735000000000000000e+03 3.907624053955078125e+01 4.766911983489990234e+00 2.773243795672897249e-05 8.192643144866451621e-05 3.289766027592122555e-05 -1.973845974134746939e-05
4.736000000000000000e+03 3.936565780639648438e+01 1.639560222625732422e+00 3.434879909036681056e-05 1.336197237833403051e-05 1.431323107681237161e-05 2.796824264805763960e-05
4.737000000000000000e+03 2.464829444885253906e+01 -1.898142933845520020e+00 6.562871567439287901e-05 -4.291925870347768068e-05 6.812836090830387548e-06 1.551220520923379809e-05
4.738000000000000000e+03 2.512113571166992188e+01 -1.351672768592834473e+00 7.968791760504245758e-05 1.092438469640910625e-05 2.718368887144606560e-05 -9.041703378898091614e-06
4.739000000000000000e+03 2.631810760498046875e+01 -2.799668550491333008e+00 5.527108078240416944e-05 1.784742380550596863e-05 2.193555155827198178e-05 -3.461972710283589549e-06
4.740000000000000000e+03 1.093736457824707031e+01 6.957548141479492188e+00 9.666774712968617678e-05 3.939160887966863811e-05 4.081780571141280234e-05 -1.006967795547097921e-04
4.741000000000000000e+03 4.729722213745117188e+01 -1.290332412719726562e+01 -2.296284765179734677e-05 8.136481483234092593e-06 -4.447909759619506076e-06 -1.441561835235916078e-06
4.742000000000000000e+03 4.604659271240234375e+01 -1.268138980865478516e+01 -2.232269616797566414e-05 -9.147821401711553335e-06 -9.441155270906165242e-06 -2.690333894861396402e-05
4.743000000000000000e+03 1.878748130798339844e+01 4.068101882934570312e+00 9.253963071387261152e-05 -4.690531568485312164e-05 1.369029541820054874e-05 -1.893388071039225906e-05
4.744000000000000000e+03 2.573361206054687500e+01 -2.071099519729614258e+00 6.215617759153246880e-05 -4.160617027082480490e-05 6.165000741020776331e-06 1.765187880664598197e-05
4.745000000000000000e+03 1.663494300842285156e+01 5.430722713470458984e+00 1.627908641239628196e-04 -1.335209526587277651e-05 4.483163138502277434e-05 -6.063502223696559668e-05
4.746000000000000000e+03 1.621490287780761719e+01 4.804032802581787109e+00 8.547844481654465199e-05 -2.913101707235909998e-05 1.690422868705354631e-05 -4.515990804065950215e-05
4.747000000000000000e+03 9.738495826721191406e+00 -6.928841114044189453e+00 1.449063529435079545e-05 1.130702003138139844e-05 7.739296961517538875e-06 7.806985195202287287e-06
4.748000000000000000e+03 3.771179199218750000e+01 2.500777626037597656e+01 1.668660552240908146e-03 -1.555413240566849709e-03 3.397417458472773433e-05 2.891745243687182665e-04
4.749000000000000000e+03 3.664197921752929688e+01 2.432638931274414062e+01 1.522759324871003628e-03 -1.201104605570435524e-04 4.207946476526558399e-04 -7.852323324186727405e-05
4.750000000000000000e+03 2.382029914855957031e+01 3.430911898612976074e-02 1.071148290066048503e-04 1.664409182922099717e-06 3.263377220719121397e-05 -1.630963015486486256e-05
4.751000000000000000e+03 3.510407257080078125e+01 1.356060504913330078e+01 5.879887612536549568e-04 -7.690277561778202653e-05 1.533258036943152547e-04 2.655267016962170601e-04
4.752000000000000000e+03 1.420861339569091797e+01 -9.680367469787597656e+00 2.444600249873474240e-05 8.156208423315547407e-06 9.780663276615086943e-06 4.880270353169180453e-06
4.753000000000000000e+03 1.439337825775146484e+01 -9.124616622924804688e+00 -3.140109402011148632e-05 5.280431651044636965e-06 -7.836199074517935514e-06 3.009430656675249338e-06
4.754000000000000000e+03 3.956261825561523438e+01 -1.531214332580566406e+01 -4.770978648593882099e-06 1.529787732579279691e-05 3.158069603159674443e-06 -5.017659077566349879e-06
4.755000000000000000e+03 2.887841796875000000e+01 -5.179282665252685547e+00 3.033583561773411930e-05 -1.846077975642401725e-05 3.562516667443560436e-06 6.890229087730403990e-06
4.756000000000000000e+03 3.796893310546875000e+01 2.842843246459960938e+01 1.255804789252579212e-03 -2.273332793265581131e-03 -3.052583779208362103e-04 -1.725574547890573740e-04
4.757000000000000000e+03 3.834118270874023438e+01 -1.394294357299804688e+01 7.916901267890352756e-06 9.834488992055412382e-06 5.325417077983729541e-06 -8.001493370102252811e-07
4.758000000000000000e+03 3.651716613769531250e+01 -1.278100395202636719e+01 1.130926830228418112e-05 1.161284853878896683e-05 6.876635325170354918e-06 3.835741608781972900e-06
4.759000000000000000e+03 5.091109466552734375e+01 -2.977989578247070312e+01 7.023814320564270020e-01 5.629756450653076172e-01 3.796071112155914307e-01 4.244217649102210999e-02
4.760000000000000000e+03 4.716570281982421875e+01 -2.984906959533691406e+01 1.687058657407760620e-01 -1.724313944578170776e-01 -1.117656123824417591e-03 -1.896349787712097168e-01
4.761000000000000000e+03 3.863604736328125000e+01 2.547176361083984375e+01 1.683712936937808990e-03 1.203434221679344773e-04 5.412169266492128372e-04 5.762944929301738739e-04
4.762000000000000000e+03 3.848709106445312500e+01 5.547786712646484375e+00 5.220255116000771523e-05 1.209489255415974185e-05 1.928923302330076694e-05 1.368131052004173398e-04
4.763000000000000000e+03 3.899306869506835938e+01 3.460039615631103516e+00 2.620535633468534797e-05 7.849504618206992745e-05 3.141011984553188086e-05 -5.839129926243913360e-07
4.764000000000000000e+03 3.737986755371093750e+01 1.871385765075683594e+01 5.822856910526752472e-04 -1.976642524823546410e-04 1.153864359366707504e-04 7.098183850757777691e-04
4.765000000000000000e+03 3.664919662475585938e+01 1.982178497314453125e+01 7.625352009199559689e-04 -5.705808289349079132e-04 5.758631959906779230e-05 7.960263756103813648e-04
4.766000000000000000e+03 1.055444335937500000e+01 -9.569704055786132812e+00 -2.452664557495154440e-05 7.497514616261469200e-06 -5.108739514980698004e-06 1.395888830302283168e-05
4.767000000000000000e+03 3.782111740112304688e+01 2.616639518737792969e+01 1.484911772422492504e-03 -1.649578218348324299e-03 -4.939993232255801558e-05 2.686619118321686983e-04
4.768000000000000000e+03 1.538912677764892578e+01 6.325359344482421875e+00 1.518787757959216833e-04 1.044909026859386358e-06 4.587710645864717662e-05 -7.709133205935359001e-05
4.769000000000000000e+03 1.492208099365234375e+01 5.684078693389892578e+00 8.180224540410563350e-05 -2.575123107817489654e-05 1.681530557107180357e-05 -5.812215385958552361e-05
4.770000000000000000e+03 3.949422836303710938e+01 -1.466391563415527344e+01 -1.028853330353740603e-05 -1.066424010787159204e-05 -6.285832114372169599e-06 -1.402752559442888014e-06
4.771000000000000000e+03 6.870918273925781250e+01 -1.660251808166503906e+01 9.920340776443481445e-02 2.620201826095581055e+00 8.158215880393981934e-01 -4.483880698680877686e-01
4.772000000000000000e+03 4.267061233520507812e+01 -1.406401038169860840e+00 3.946679862565360963e-05 5.113993393024429679e-05 2.718201903917361051e-05 3.333701897645369172e-05
4.773000000000000000e+03 4.391571044921875000e+01 -2.359952688217163086e+00 -3.035668305528815836e-05 -6.568976095877587795e-05 -2.881393265852238983e-05 -4.649788388633169234e-05
4.774000000000000000e+03 7.466230773925781250e+01 5.646191120147705078e+00 3.130537867546081543e-01 8.330709457397460938e+00 2.593128919601440430e+00 8.625826984643936157e-02
4.775000000000000000e+03 2.922882080078125000e+01 -6.999093532562255859e+00 1.189917929877992719e-05 2.208947989856824279e-05 1.019659794110339135e-05 5.430048531707143411e-06
4.776000000000000000e+03 2.788400077819824219e+01 -4.983211040496826172e+00 3.395528983674012125e-05 -2.278196006955113262e-05 3.351998657308286056e-06 7.319112228287849575e-06
4.777000000000000000e+03 8.279520988464355469e+00 -7.372219562530517578e+00 -2.423889782221522182e-05 4.828517376154195517e-06 -5.823113951919367537e-06 -4.064174390805419534e-06
4.778000000000000000e+03 2.101649475097656250e+01 2.480497837066650391e+00 1.556256902404129505e-04 -1.739067556627560407e-05 4.147050276515074074e-05 -3.300263415439985693e-05
4.779000000000000000e+03 6.874856567382812500e+01 -1.774790763854980469e+01 -1.120591163635253906e-01 2.271756172180175781e+00 6.479091048240661621e-01 -6.716795563697814941e-01
4.780000000000000000e+03 6.887281799316406250e+01 -1.721081352233886719e+01 1.500651851529255509e-04 2.557571172714233398e+00 7.673164010047912598e-01 -6.064444780349731445e-01
4.781000000000000000e+03 5.112903594970703125e+01 -2.879558372497558594e+01 7.301971316337585449e-01 5.404998660087585449e-01 3.812091052532196045e-01 -8.526215702295303345e-02
4.782000000000000000e+03 4.855526733398437500e+01 -2.745686912536621094e+01 2.740540206432342529e-01 -8.179099857807159424e-02 5.767890810966491699e-02 -4.508707523345947266e-01
4.783000000000000000e+03 4.859170532226562500e+01 -2.993080902099609375e+01 3.628016114234924316e-01 5.757628381252288818e-02 1.261133700609207153e-01 -1.052748411893844604e-01
4.784000000000000000e+03 3.772450637817382812e+01 2.192261505126953125e+01 9.481338202022016048e-04 -4.932875744998455048e-04 1.364538766210898757e-04 9.338633390143513680e-04
4.785000000000000000e+03 7.384836578369140625e+01 3.520717620849609375e+01 -3.552073538303375244e-01 6.904065132141113281e+00 1.964657306671142578e+00 3.059409260749816895e-01
4.786000000000000000e+03 7.296685028076171875e+01 3.639064407348632812e+01 -3.496814668178558350e-01 6.316977024078369141e+00 1.790188670158386230e+00 1.247905939817428589e-01
4.787000000000000000e+03 6.345870018005371094e+00 2.994167709350585938e+01 7.668973012187052518e-06 4.835602885577827692e-04 1.473687734687700868e-04 -1.830512919696047902e-04
4.788000000000000000e+03 7.475056648254394531e+00 2.962494850158691406e+01 -8.913369674701243639e-05 4.108434368390589952e-04 9.651292202761396766e-05 -2.468783350195735693e-04
4.789000000000000000e+03 4.982981109619140625e+01 -2.757589149475097656e+01 4.424395561218261719e-01 1.344858407974243164e-01 1.730776131153106689e-01 -3.624463379383087158e-01
4.790000000000000000e+03 4.509336090087890625e+01 -5.706925392150878906e+00 4.725129656435456127e-07 -6.988151289988309145e-05 -2.082269929815083742e-05 -4.064212771481834352e-05
4.791000000000000000e+03 7.494547271728515625e+01 -3.606152725219726562e+01 -3.011071383953094482e-01 7.471186161041259766e+00 2.151023626327514648e+00 -7.270689308643341064e-02
4.792000000000000000e+03 7.070236682891845703e+00 3.410675430297851562e+01 -5.808302739751525223e-05 5.174953839741647243e-04 1.378237066091969609e-04 -1.318293507210910320e-04
4.793000000000000000e+03 3.627386474609375000e+01 1.161213779449462891e+01 1.484076346969231963e-05 1.301901356782764196e-04 4.350926974439062178e-05 2.155615657102316618e-04
4.794000000000000000e+03 3.642739105224609375e+01 1.056220436096191406e+01 3.422919835429638624e-04 5.374959800974465907e-05 1.188124733744189143e-04 2.288056275574490428e-04
4.795000000000000000e+03 4.771996307373046875e+01 -3.228075408935546875e+01 2.715061306953430176e-01 3.425960242748260498e-02 9.172971546649932861e-02 1.559009402990341187e-01
4.796000000000000000e+03 7.179834747314453125e+01 3.923735809326171875e+01 -2.659884989261627197e-01 5.506295204162597656e+00 1.572092056274414062e+00 -7.328274101018905640e-02
4.797000000000000000e+03 1.192638778686523438e+01 -3.826184463500976562e+01 -1.529428642243146896e-03 2.405270235612988472e-03 2.627524663694202900e-04 2.676094649359583855e-03
4.798000000000000000e+03 4.707300186157226562e+01 -3.408427047729492188e+01 2.283145487308502197e-01 -3.585398895666003227e-03 6.741874665021896362e-02 2.255129516124725342e-01
4.799000000000000000e+03 9.097189903259277344e+00 -3.589584350585937500e+01 3.635234897956252098e-04 8.400586666539311409e-04 3.610746352933347225e-04 1.737165148369967937e-03
4.800000000000000000e+03 3.160778427124023438e+01 -3.848715209960937500e+01 -2.133646979928016663e-03 -8.713760972023010254e-02 -2.678137645125389099e-02 -3.950294479727745056e-02
4.801000000000000000e+03 1.005710506439208984e+01 3.557203292846679688e+01 -1.608425518497824669e-04 4.213476786389946938e-04 7.815154094714671373e-05 -1.427119568688794971e-04
4.802000000000000000e+03 7.259259223937988281e+00 4.130918502807617188e+01 -5.596117625827901065e-05 5.593944806605577469e-04 1.510299916844815016e-04 4.060388528159819543e-05
4.803000000000000000e+03 3.966780853271484375e+01 2.946252059936523438e+01 1.990291289985179901e-03 -4.268098855391144753e-04 4.690444329753518105e-04 -2.907935995608568192e-04
4.804000000000000000e+03 4.729423904418945312e+01 4.121846389770507812e+01 -1.634861982893198729e-04 -1.881589554250240326e-02 -5.693814717233181000e-03 2.578800544142723083e-03
4.805000000000000000e+03 1.276921939849853516e+01 -8.089744567871093750e+00 1.078275818144902587e-05 3.592773055061115883e-06 4.312659257266204804e-06 8.030970093386713415e-06
4.806000000000000000e+03 1.217018127441406250e+01 -8.062401771545410156e+00 -2.264292379550170153e-05 -4.766330675920471549e-06 -8.222777069022413343e-06 4.753755149522476131e-07
4.807000000000000000e+03 1.222758674621582031e+01 -1.025394248962402344e+01 -1.548605177958961576e-05 -2.171787309634964913e-05 -1.116117709898389876e-05 -7.792814358253963292e-06
4.808000000000000000e+03 1.198581695556640625e+01 -8.743034362792968750e+00 2.523979856050573289e-05 4.367411747807636857e-06 8.882162546797189862e-06 -1.897073730106058065e-06
4.809000000000000000e+03 6.902815246582031250e+01 -1.254809951782226562e+01 2.348293066024780273e-01 3.726321220397949219e+00 1.188345193862915039e+00 1.614090502262115479e-01
4.810000000000000000e+03 4.546427154541015625e+01 -1.047939872741699219e+01 2.247719930892344564e-05 2.063911779259797186e-05 1.293489549425430596e-05 1.437879473087377846e-05
4.811000000000000000e+03 3.302569961547851562e+01 -1.113340282440185547e+01 4.008468749816529453e-06 1.750473711581435055e-05 6.453961759689263999e-06 1.093964056053664535e-05
4.812000000000000000e+03 4.234561538696289062e+01 -7.513558268547058105e-01 -2.531927930249366909e-05 -4.627343150787055492e-05 -2.147781378880608827e-05 -3.284487684140913188e-05
4.813000000000000000e+03 4.235087203979492188e+01 -5.399158477783203125e+00 2.809125180647242814e-05 5.407315620686858892e-05 2.464932185830548406e-05 9.497861356067005545e-06
4.814000000000000000e+03 4.445444869995117188e+01 -7.370517253875732422e+00 -2.081674938381183892e-05 -4.108497887500561774e-05 -1.857051756815053523e-05 -1.840099321270827204e-05
4.815000000000000000e+03 4.946916580200195312e+01 -2.831600952148437500e+01 4.509948790073394775e-01 1.127609983086585999e-01 1.691267639398574829e-01 -2.910975813865661621e-01
4.816000000000000000e+03 4.050308227539062500e+01 -2.439172267913818359e-01 -1.638338108023162931e-05 -1.337709250037733000e-07 -4.955145413987338543e-06 -9.895768926071468741e-06
4.817000000000000000e+03 4.073361968994140625e+01 8.358262181282043457e-01 -1.415465703757945448e-05 -1.158494683295430150e-06 -4.593945504893781617e-06 -1.241058635059744120e-05
4.818000000000000000e+03 4.515326690673828125e+01 -9.316140174865722656e+00 2.658815355971455574e-05 2.287717325089033693e-05 1.483959749748464674e-05 1.570095082570333034e-05
4.819000000000000000e+03 5.029259109497070312e+01 -2.861446762084960938e+01 6.002199053764343262e-01 3.152836859226226807e-01 2.746510803699493408e-01 -1.778503060340881348e-01
4.820000000000000000e+03 3.142906761169433594e+01 -1.236330318450927734e+01 4.694625204137992114e-06 1.685348979663103819e-05 6.464434136432828382e-06 8.159274329955223948e-06
4.821000000000000000e+03 1.265038299560546875e+01 -9.084097862243652344e+00 -1.713432538963388652e-05 -9.207017683365847915e-06 -7.902403012849390507e-06 4.875130798609461635e-06
4.822000000000000000e+03 3.977495193481445312e+01 1.018483638763427734e+00 -1.038938717101700604e-05 2.793496969388797879e-05 5.263674665911821648e-06 -8.382969554077135399e-07
4.823000000000000000e+03 5.133899688720703125e+01 -2.793541336059570312e+01 6.919559836387634277e-01 5.103963613510131836e-01 3.607057034969329834e-01 -1.707884967327117920e-01
4.824000000000000000e+03 7.429493713378906250e+01 -1.594502639770507812e+01 -4.340249598026275635e-01 7.000690460205078125e+00 1.969999670982360840e+00 -4.862692058086395264e-01
4.825000000000000000e+03 3.778987121582031250e+01 7.635846614837646484e+00 1.883222867036238313e-04 9.062381286639720201e-05 8.368382987100630999e-05 1.493730087531730533e-04
4.826000000000000000e+03 3.803605651855468750e+01 6.528483390808105469e+00 -5.447684816317632794e-05 7.693874067626893520e-05 6.738568117725662887e-06 4.625945803127251565e-05
4.827000000000000000e+03 3.044949531555175781e+01 -1.066374778747558594e+01 -1.497742414358071983e-05 -1.454299763281596825e-05 -8.856126441969536245e-06 1.579116906214039773e-05
4.828000000000000000e+03 3.140159797668457031e+01 -9.606740951538085938e+00 -1.296238588111009449e-05 -3.602466449592611752e-06 -4.969455403625033796e-06 5.780634182883659378e-06
4.829000000000000000e+03 8.543976783752441406e+00 -8.223604202270507812e+00 -2.163195313187316060e-05 -1.279328625969355926e-05 -1.032757154462160543e-05 -2.015077552641741931e-05
4.830000000000000000e+03 6.020145416259765625e+00 -1.153383350372314453e+01 4.209670078125782311e-05 1.091173999157035723e-05 1.590253305039368570e-05 2.285048503836151212e-05
4.831000000000000000e+03 6.985583782196044922e+00 2.171398925781250000e+01 -3.414269667700864375e-05 2.509819169063121080e-04 6.505176133941859007e-05 -1.935597392730414867e-04
4.832000000000000000e+03 7.624769210815429688e+00 2.485342407226562500e+01 9.283901454182341695e-05 2.757634210865944624e-04 1.105807314161211252e-04 -2.514762163627892733e-04
4.833000000000000000e+03 3.160803794860839844e+01 -1.169860267639160156e+01 -9.954087545338552445e-06 -1.189361955766798928e-05 -6.554312221851432696e-06 1.037103061207744759e-06
4.834000000000000000e+03 3.102179336547851562e+01 -1.163306522369384766e+01 2.998188165292958729e-06 2.025241883529815823e-05 6.975182259338907897e-06 4.899023224425036460e-06
4.835000000000000000e+03 4.494022750854492188e+01 -8.687080383300781250e+00 -2.164754005207214504e-05 -3.359062247909605503e-05 -1.657144821365363896e-05 -2.470507206453476101e-05
4.836000000000000000e+03 4.049431610107421875e+01 -1.301658439636230469e+01 1.371303824271308258e-05 -9.352680194751883391e-07 3.833330993074923754e-06 3.192144959029974416e-06
4.837000000000000000e+03 6.879107475280761719e+00 1.534318923950195312e+01 3.669376019388437271e-05 1.590779284015297890e-04 5.873150803381577134e-05 -1.537052885396406054e-04
4.838000000000000000e+03 8.068356513977050781e+00 1.659723854064941406e+01 6.769352330593392253e-05 1.001146447379142046e-04 5.034244895796291530e-05 -1.810860703699290752e-04
4.839000000000000000e+03 6.897753715515136719e+00 2.534514999389648438e+01 -4.026521492050960660e-05 3.299289091955870390e-04 8.689911192050203681e-05 -2.185176999773830175e-04
4.840000000000000000e+03 6.042635917663574219e+00 -1.075942802429199219e+01 -3.872611705446615815e-05 -9.502381544734816998e-06 -1.446854912501294166e-05 -2.060090264421887696e-05
4.841000000000000000e+03 6.787389278411865234e+00 -1.068852233886718750e+01 3.742306580534204841e-05 9.314142516814172268e-06 1.402116231474792585e-05 2.071513699775096029e-05
4.842000000000000000e+03 6.630213737487792969e+00 2.109315490722656250e+01 7.826311048120260239e-05 2.440315001877024770e-04 9.668838174548000097e-05 -2.284574584336951375e-04
4.843000000000000000e+03 7.411776733398437500e+01 -2.547102165222167969e+01 1.114132642745971680e+00 9.023381233215332031e+00 3.041254043579101562e+00 3.160893321037292480e-01
4.844000000000000000e+03 7.278411102294921875e+01 -1.500294685363769531e+01 -2.980235815048217773e-01 5.976534366607666016e+00 1.703553199768066406e+00 -5.833978056907653809e-01
4.845000000000000000e+03 7.281543731689453125e+01 -1.163150691986083984e+01 -1.311483681201934814e-01 6.171921730041503906e+00 1.812232017517089844e+00 -4.099878966808319092e-01
4.846000000000000000e+03 7.224800872802734375e+01 -1.096111011505126953e+01 -1.002001166343688965e-01 5.957728385925292969e+00 1.757258415222167969e+00 -3.180847167968750000e-01
4.847000000000000000e+03 7.328799438476562500e+01 -1.525972270965576172e+01 -3.505004346370697021e-01 6.302655220031738281e+00 1.785646438598632812e+00 -5.774405002593994141e-01
4.848000000000000000e+03 7.375792694091796875e+01 -1.531288146972656250e+01 -3.685306310653686523e-01 6.608266353607177734e+00 1.871920704841613770e+00 -5.414574146270751953e-01
4.849000000000000000e+03 7.359392547607421875e+01 -1.281437206268310547e+01 -1.670396476984024048e-01 6.476329803466796875e+00 1.892786979675292969e+00 -4.970720112323760986e-01
4.850000000000000000e+03 7.219165802001953125e+01 -9.048322677612304688e+00 -1.156894117593765259e-01 6.271845817565917969e+00 1.846846938133239746e+00 -2.467235475778579712e-01
4.851000000000000000e+03 5.456973075866699219e+00 8.528119087219238281e+00 1.812653317756485194e-05 7.095983164617791772e-05 2.672591108421329409e-05 -7.609365275129675865e-05
4.852000000000000000e+03 7.415180969238281250e+01 -1.751376533508300781e+01 -6.674491763114929199e-01 7.165492057800292969e+00 1.949412941932678223e+00 -4.122086167335510254e-01
4.853000000000000000e+03 7.423426055908203125e+01 -1.671297264099121094e+01 -5.432065725326538086e-01 7.065716743469238281e+00 1.956753134727478027e+00 -4.577485918998718262e-01
4.854000000000000000e+03 3.703174209594726562e+01 -1.362621498107910156e+01 1.005806279863463715e-05 8.153439921443350613e-06 5.463450634124455974e-06 2.160373469450860284e-06
4.855000000000000000e+03 3.771124267578125000e+01 -1.378747272491455078e+01 -1.766800596669781953e-05 -4.368793725006980821e-06 -6.611039680137764663e-06 -6.537285571539541706e-06
4.856000000000000000e+03 6.401917934417724609e+00 9.142372131347656250e+00 2.212668186984956264e-05 5.376162880565971136e-05 2.276649320265278220e-05 -7.049627311062067747e-05
4.857000000000000000e+03 7.408753204345703125e+01 -8.133569717407226562e+00 -1.237719729542732239e-01 7.069883823394775391e+00 2.083833456039428711e+00 -5.489370822906494141e-01
4.858000000000000000e+03 1.025199222564697266e+01 7.540144920349121094e+00 4.509695645538158715e-05 1.823063212214037776e-05 1.899827657325658947e-05 -7.948067650431767106e-05
4.859000000000000000e+03 9.276045799255371094e+00 -7.712731838226318359e+00 -1.871966560429427773e-05 -1.619236627448117360e-06 -6.101670805946923792e-06 -1.530342342448420823e-05
4.860000000000000000e+03 7.720497608184814453e+00 -9.895298957824707031e+00 3.472824391792528331e-05 8.525463272235356271e-06 1.297611197514925152e-05 1.580390198796521872e-05
4.861000000000000000e+03 6.725024223327636719e+00 -1.450869178771972656e+01 -5.226595931162592024e-06 -7.381578325293958187e-05 -2.371271330048330128e-05 -2.854891863535158336e-05
4.862000000000000000e+03 6.189762115478515625e+00 1.787280082702636719e+01 6.487199425464496017e-05 1.654421357670798898e-04 6.909423973411321640e-05 -1.646569435251876712e-04
4.863000000000000000e+03 6.515349864959716797e+00 9.996325492858886719e+00 3.702430331031791866e-05 5.452604091260582209e-05 2.746510290307924151e-05 -7.845929212635383010e-05
4.864000000000000000e+03 6.105863571166992188e+00 1.124949836730957031e+01 5.391996819525957108e-05 9.073847468243911862e-05 4.339753286330960691e-05 -1.028459373628720641e-04
4.865000000000000000e+03 9.117024421691894531e+00 -1.215203475952148438e+01 4.387355147628113627e-06 -4.706480467575602233e-05 -1.280323522223625332e-05 1.904200416902313009e-06
4.866000000000000000e+03 6.722788810729980469e+00 -1.392590045928955078e+01 2.061819213849958032e-05 4.583582267514429986e-05 1.993620389839634299e-05 3.349811595398932695e-05
4.867000000000000000e+03 6.480337142944335938e+00 1.180382061004638672e+01 1.264554612134816125e-05 8.573834202252328396e-05 2.951516580651514232e-05 -1.011723870760761201e-04
4.868000000000000000e+03 6.273152828216552734e+00 2.060435676574707031e+01 2.521464921301230788e-06 2.279799227835610509e-04 6.915041740285232663e-05 -1.618488022359088063e-04
4.869000000000000000e+03 6.062880039215087891e+00 1.972974395751953125e+01 3.985630610259249806e-05 2.007875300478190184e-04 7.219315011752769351e-05 -1.451570278732106090e-04
4.870000000000000000e+03 6.444404602050781250e+00 1.916375350952148438e+01 5.125825191498734057e-05 2.245433424832299352e-04 8.274048013845458627e-05 -2.208735095337033272e-04
4.871000000000000000e+03 6.913565635681152344e+00 1.794702720642089844e+01 2.204057636845391244e-05 2.010710450122132897e-04 6.693348404951393604e-05 -1.822924969019368291e-04
4.872000000000000000e+03 7.068510055541992188e+00 -1.349248409271240234e+01 1.647411409066990018e-05 2.546905670897103846e-05 1.258295105799334124e-05 1.526480627944692969e-05
4.873000000000000000e+03 7.079462528228759766e+00 1.718026924133300781e+01 5.811304072267375886e-05 1.315073604928329587e-04 5.688611781806685030e-05 -1.745537447277456522e-04
4.874000000000000000e+03 6.979127407073974609e+00 1.222041893005371094e+01 5.866893479833379388e-05 1.027723483275622129e-04 4.843238275498151779e-05 -1.310931111220270395e-04
4.875000000000000000e+03 6.902909851074218750e+01 -1.559947204589843750e+01 1.575081050395965576e-01 3.075353622436523438e+00 9.698585271835327148e-01 -3.419136703014373779e-01
4.876000000000000000e+03 7.082714843750000000e+01 -1.838036918640136719e+01 -7.494071125984191895e-01 4.467788219451904297e+00 1.115514278411865234e+00 -1.125545620918273926e+00
4.877000000000000000e+03 6.765522003173828125e+00 2.650095367431640625e+01 -5.546051033888943493e-05 3.592454595491290092e-04 9.113548730965703726e-05 -2.116962423315271735e-04
4.878000000000000000e+03 7.866569995880126953e+00 2.363058471679687500e+01 1.093466780730523169e-04 2.453543711453676224e-04 1.064103125827386975e-04 -2.725682861637324095e-04
4.879000000000000000e+03 2.061656570434570312e+01 1.874832510948181152e+00 8.921490370994433761e-05 -4.981025267625227571e-05 1.182139476441079751e-05 5.783215328847290948e-06
4.880000000000000000e+03 9.045271873474121094e+00 3.290980148315429688e+01 -7.587717118440195918e-05 4.042687651235610247e-04 9.851747745415195823e-05 -1.929567952174693346e-04
4.881000000000000000e+03 7.824528694152832031e+00 -7.213778972625732422e+00 2.401461460976861417e-05 -4.825243195227812976e-06 5.756811788160121068e-06 1.527236236142925918e-05
4.882000000000000000e+03 7.270571231842041016e+00 -7.116430759429931641e+00 -3.432486118981614709e-05 1.080128549801884219e-05 -7.057072707539191470e-06 -2.520461748645175248e-06
4.883000000000000000e+03 4.464496994018554688e+01 -1.003396129608154297e+01 2.215517633885610849e-05 2.375002804910764098e-05 1.377156149828806520e-05 1.906843317556194961e-05
4.884000000000000000e+03 7.072044372558593750e+01 -1.087287807464599609e+01 1.032799948006868362e-02 5.115369796752929688e+00 1.537709355354309082e+00 -2.969707734882831573e-02
4.885000000000000000e+03 3.605060195922851562e+01 1.583347415924072266e+01 2.360410726396366954e-04 -4.171078217041213065e-06 6.956099969102069736e-05 4.675813834182918072e-04
4.886000000000000000e+03 3.722109222412109375e+01 1.779774475097656250e+01 8.884025737643241882e-04 1.235757808899506927e-04 3.035935224033892155e-04 3.396137326490134001e-04
4.887000000000000000e+03 4.306370925903320312e+01 -1.368093872070312500e+01 -2.249733552162069827e-05 9.963308912119828165e-06 -3.760208301173406653e-06 -1.347479428659426048e-05
4.888000000000000000e+03 7.007517242431640625e+01 -1.095305347442626953e+01 5.549444630742073059e-02 4.791423797607421875e+00 1.454075455665588379e+00 1.185622513294219971e-01
4.889000000000000000e+03 7.000998687744140625e+01 -1.250662231445312500e+01 1.020179390907287598e-01 4.397239685058593750e+00 1.349777340888977051e+00 -6.570965051651000977e-02
4.890000000000000000e+03 3.891548919677734375e+01 2.248152732849121094e+00 7.835169526515528560e-06 6.577943713637068868e-05 2.208438127127010375e-05 3.418152573431143537e-06
4.891000000000000000e+03 2.893605804443359375e+01 -3.968181371688842773e+00 3.900795854860916734e-05 -2.178024442400783300e-05 5.168314601178281009e-06 1.131221324612852186e-05
4.892000000000000000e+03 3.947160339355468750e+01 -1.367016124725341797e+01 -2.449696876283269376e-05 5.350887022359529510e-06 -5.743824658566154540e-06 -8.486648766847793013e-06
4.893000000000000000e+03 3.899079895019531250e+01 -1.349161148071289062e+01 1.490972681494895369e-05 4.369996986497426406e-06 5.783917458757059649e-06 5.288202373776584864e-07
4.894000000000000000e+03 8.443147659301757812e+00 9.163606643676757812e+00 4.951120718033052981e-05 3.579390977392904460e-05 2.559153472247999161e-05 -8.716494630789384246e-05
4.895000000000000000e+03 8.026648521423339844e+00 -6.660893917083740234e+00 -1.824025639507453889e-05 -2.579981583039625548e-06 -6.246071279747411609e-06 -9.575061994837597013e-06
4.896000000000000000e+03 2.879893302917480469e+01 -6.354715824127197266e+00 2.260026303702034056e-05 -1.548820182506460696e-05 2.133618181687779725e-06 3.650148073575110175e-06
4.897000000000000000e+03 2.964577102661132812e+01 -7.609535694122314453e+00 1.431819055142113939e-05 -1.140749282058095559e-05 8.732093306207389105e-07 1.752517960085242521e-06
4.898000000000000000e+03 4.656244659423828125e+01 -6.896799564361572266e+00 4.926465044263750315e-05 2.038115235336590558e-05 2.089373992930632085e-05 2.854336707969196141e-05
4.899000000000000000e+03 3.130303573608398438e+01 -8.693046569824218750e+00 5.195400717639131472e-06 -8.918307685235049576e-06 -1.116872113016142976e-06 -4.066481778863817453e-06
4.900000000000000000e+03 3.096286773681640625e+01 -8.213094711303710938e+00 1.495033188803063240e-06 2.362046143389306962e-05 7.534648830187506974e-06 9.370678526465781033e-06
4.901000000000000000e+03 7.056343555450439453e+00 6.478377342224121094e+00 4.876964885625056922e-05 3.865304097416810691e-05 2.622680767672136426e-05 -7.927644037408754230e-05
4.902000000000000000e+03 7.175605773925781250e+01 -9.818565368652343750e+00 -8.766517788171768188e-02 5.888673305511474609e+00 1.740302443504333496e+00 -1.849034428596496582e-01
4.903000000000000000e+03 7.835820674896240234e+00 -1.392558670043945312e+01 3.856746843666769564e-05 3.939491216442547739e-05 2.338871308893430978e-05 7.155599632824305445e-06
4.904000000000000000e+03 4.063331604003906250e+01 -1.407326984405517578e+01 5.019602667744038627e-06 -3.946769993490306661e-06 3.218497681700682733e-07 2.623941384172212565e-07
4.905000000000000000e+03 1.170715808868408203e+01 -1.102129936218261719e+01 9.574703653925098479e-06 8.807071935734711587e-06 5.514532404049532488e-06 2.332770418433938175e-05
4.906000000000000000e+03 3.788043975830078125e+01 3.387714624404907227e+00 4.013066791230812669e-05 1.288472267333418131e-04 5.069336839369498193e-05 -8.829551916278433055e-06
4.907000000000000000e+03 7.127585601806640625e+01 -1.051133537292480469e+01 -4.492229223251342773e-02 5.526776313781738281e+00 1.644556283950805664e+00 -1.300874948501586914e-01
4.908000000000000000e+03 7.269966888427734375e+01 -9.423658370971679688e+00 -1.347902417182922363e-01 6.386974334716796875e+00 1.875655174255371094e+00 -3.362245559692382812e-01
4.909000000000000000e+03 7.261755371093750000e+01 -8.367324829101562500e+00 -1.320498585700988770e-01 6.584083080291748047e+00 1.935609936714172363e+00 -3.157072663307189941e-01
4.910000000000000000e+03 7.217666625976562500e+01 -1.707968711853027344e+01 -6.158935427665710449e-01 5.661024570465087891e+00 1.513539314270019531e+00 -7.900938391685485840e-01
4.911000000000000000e+03 4.429543685913085938e+01 -1.426179695129394531e+01 -1.761159001034684479e-05 1.473414431529818103e-05 -8.632336516711802687e-07 3.060637027374468744e-06
4.912000000000000000e+03 4.457430648803710938e+01 -1.267696189880371094e+01 -2.634471820783801377e-05 -4.278678261471213773e-06 -9.187018804368562996e-06 -2.804932955768890679e-05
4.913000000000000000e+03 2.932998657226562500e+01 -5.847199916839599609e+00 1.915781285788398236e-05 2.347486770304385573e-05 1.278980380448047072e-05 5.411935035226633772e-06
4.914000000000000000e+03 1.846110534667968750e+01 5.157377719879150391e+00 9.477874846197664738e-05 -5.090102058602496982e-05 1.316331872658338398e-05 -3.013202149304561317e-05
4.915000000000000000e+03 4.354167938232421875e+01 -8.966080665588378906e+00 -2.181835407100152224e-05 -2.809317811625078321e-05 -1.497345965617569163e-05 -2.264646354888100177e-05
4.916000000000000000e+03 3.843561172485351562e+01 4.105347633361816406e+00 1.926415279740467668e-06 -6.280044090090086684e-06 -1.306088620367518160e-06 7.361289317486807704e-05
4.917000000000000000e+03 1.953946876525878906e+01 3.560829162597656250e+00 1.673583174124360085e-04 -2.261225017718970776e-05 4.342382089816965163e-05 -4.095487747690640390e-05
4.918000000000000000e+03 1.920122146606445312e+01 4.677639484405517578e+00 1.825368090067058802e-04 -2.807677810778841376e-05 4.633800926967523992e-05 -4.705297396867536008e-05
4.919000000000000000e+03 2.790752029418945312e+01 -3.756932497024536133e+00 4.347408685134723783e-05 -2.760242023214232177e-05 4.761499440064653754e-06 1.194643209601053968e-05
4.920000000000000000e+03 9.710486412048339844e+00 -7.455752849578857422e+00 -1.194852575281402096e-05 -1.200018778035882860e-05 -7.184613878052914515e-06 -6.809898422943660989e-06
4.921000000000000000e+03 6.258635044097900391e+00 -7.687854290008544922e+00 -2.476109330018516630e-05 -4.395875293994322419e-06 -8.747090760152786970e-06 -1.453649929317180067e-05
4.922000000000000000e+03 2.681687355041503906e+01 -2.276037454605102539e+00 5.812809104099869728e-05 -3.855333852698095143e-05 5.872425845154793933e-06 1.861284727056045085e-05
4.923000000000000000e+03 2.427136802673339844e+01 6.121338009834289551e-01 8.429045556113123894e-05 -5.808718560729175806e-05 7.860980986151844263e-06 2.657946242834441364e-05
4.924000000000000000e+03 3.601937484741210938e+01 1.478389549255371094e+01 6.550657562911510468e-04 2.865724809453240596e-06 1.973794423975050449e-04 2.804201794788241386e-04
4.925000000000000000e+03 2.028372573852539062e+01 3.030756473541259766e+00 9.209498966811224818e-05 -5.398363282438367605e-05 1.143340614362386987e-05 4.473162391605001176e-07
4.926000000000000000e+03 1.775299835205078125e+01 5.606516361236572266e+00 1.821041514631360769e-04 -2.606716407171916217e-05 4.681109930970706046e-05 -5.907699232921004295e-05
4.927000000000000000e+03 3.940781402587890625e+01 -1.411927890777587891e+01 8.071822776400949806e-06 9.228408089256845415e-06 5.190069259697338566e-06 -4.527139935817103833e-06
4.928000000000000000e+03 3.525168609619140625e+01 1.245843887329101562e+01 8.454897761112079024e-05 9.434592357138171792e-05 5.366847108234651387e-05 2.307866379851475358e-04
4.929000000000000000e+03 2.622136306762695312e+01 -1.534551262855529785e+00 7.376630674116313457e-05 1.685941060713957995e-05 2.718771611398551613e-05 -4.456664555618772283e-06
4.930000000000000000e+03 2.559757423400878906e+01 -8.015079498291015625e-01 7.250708586070686579e-05 -4.923428059555590153e-05 6.981841124797938392e-06 2.435955684632062912e-05
4.931000000000000000e+03 4.332965850830078125e+01 -2.698405027389526367e+00 3.336368899908848107e-05 5.461655746330507100e-05 2.639407466631382704e-05 3.749948518816381693e-05
4.932000000000000000e+03 3.659188842773437500e+01 9.513406753540039062e+00 -3.853964153677225113e-05 1.152626500697806478e-04 2.301690255990251899e-05 1.334752741968259215e-04
4.933000000000000000e+03 3.513977813720703125e+01 1.691380310058593750e+01 2.869578311219811440e-04 -1.058713532984256744e-04 5.432594844023697078e-05 4.868938121944665909e-04
4.934000000000000000e+03 6.442951679229736328e+00 7.914882183074951172e+00 4.031729986309073865e-05 6.108139496063813567e-05 3.041960735572502017e-05 -8.543665899196639657e-05
4.935000000000000000e+03 8.430124282836914062e+00 7.555673599243164062e+00 7.528432615799829364e-05 3.255016417824663222e-05 3.235034819226711988e-05 -8.427431748714298010e-05
4.936000000000000000e+03 3.716013717651367188e+01 -1.292281818389892578e+01 -1.936532316904049367e-05 -2.102669895975850523e-06 -6.440398010454373434e-06 -6.191033207869622856e-06
4.937000000000000000e+03 3.634117889404296875e+01 -1.344383525848388672e+01 -2.086700988002121449e-05 -1.396969196321151685e-06 -6.679193575109820813e-06 -5.929308372287778184e-06
4.938000000000000000e+03 2.244489669799804688e+01 1.312763810157775879e+00 1.336455025011673570e-04 -8.245427125075366348e-06 3.762002233997918665e-05 -2.466829755576327443e-05
4.939000000000000000e+03 2.173646545410156250e+01 1.910253643989562988e+00 9.017599222715944052e-05 -5.772116855951026082e-05 9.736447282193694264e-06 1.444111057935515419e-05
4.940000000000000000e+03 3.018877410888671875e+01 -7.095699787139892578e+00 1.152198910858714953e-05 2.225109165010508150e-05 1.013192468235502020e-05 5.293069534673122689e-06
4.941000000000000000e+03 2.976527976989746094e+01 -6.486717224121093750e+00 2.026066067628562450e-05 -1.169044480775482953e-05 2.571064669609768316e-06 3.211829607607796788e-06
4.942000000000000000e+03 1.204944515228271484e+01 7.049026012420654297e+00 1.113071193685755134e-04 3.287589424871839583e-05 4.325490590417757630e-05 -1.026111640385352075e-04
4.943000000000000000e+03 4.359436798095703125e+01 -1.707083225250244141e+00 4.485066529014147818e-05 5.501082705450244248e-05 2.995844806719105691e-05 4.215576336719095707e-05
4.944000000000000000e+03 4.208700180053710938e+01 -1.776934385299682617e+00 -2.184625009249430150e-05 -3.634641325334087014e-05 -1.745779991324525326e-05 -3.006090628332458436e-05
4.945000000000000000e+03 3.270333480834960938e+01 -1.258827018737792969e+01 7.551350336143514141e-06 1.395456911268411204e-05 6.451775789173552766e-06 5.863087153556989506e-06
4.946000000000000000e+03 6.979020595550537109e+00 8.967407226562500000e+00 4.797298606717959046e-05 5.424540358944796026e-05 3.066551653319038451e-05 -8.806270489003509283e-05
4.947000000000000000e+03 6.798430633544921875e+01 -1.787160301208496094e+01 1.167556270956993103e-02 1.550472497940063477e+00 4.686444401741027832e-01 -3.641476929187774658e-01
4.948000000000000000e+03 1.820795822143554688e+01 6.212603569030761719e+00 9.791499178390949965e-05 -5.588455314864404500e-05 1.260913086298387498e-05 -3.919122900697402656e-05
4.949000000000000000e+03 3.640735626220703125e+01 1.887122344970703125e+01 1.045581651851534843e-03 1.271428845939226449e-05 3.174887679051607847e-04 1.970728626474738121e-04
4.950000000000000000e+03 3.710134506225585938e+01 1.684725952148437500e+01 3.120800829492509365e-04 6.137584023235831410e-06 9.546530054649338126e-05 5.708328098990023136e-04
4.951000000000000000e+03 3.662272262573242188e+01 2.700444030761718750e+01 1.555787981487810612e-03 -5.380359361879527569e-04 3.053256077691912651e-04 -6.798064569011330605e-04
4.952000000000000000e+03 4.374993515014648438e+01 -7.491809368133544922e+00 2.941395177913364023e-05 3.056777131860144436e-05 1.799451638362370431e-05 5.753048753831535578e-06
4.953000000000000000e+03 4.399977493286132812e+01 -8.169106483459472656e+00 -2.191129715356510133e-05 -3.251675298088230193e-05 -1.632841485843528062e-05 -1.996862192754633725e-05
4.954000000000000000e+03 6.973451232910156250e+01 -1.811322975158691406e+01 -4.559092521667480469e-01 3.246858119964599609e+00 8.372846245765686035e-01 -9.843711853027343750e-01
4.955000000000000000e+03 7.090162658691406250e+01 -1.653450202941894531e+01 -3.103549182415008545e-01 4.490862846374511719e+00 1.254152417182922363e+00 -7.588462233543395996e-01
4.956000000000000000e+03 6.938659667968750000e+01 -1.732484626770019531e+01 -1.461243778467178345e-01 2.984042644500732422e+00 8.513755202293395996e-01 -7.026749849319458008e-01
4.957000000000000000e+03 3.541942596435546875e+01 1.138615894317626953e+01 3.994246362708508968e-04 1.731218048917071428e-06 1.203467545565217733e-04 2.511536877136677504e-04
4.958000000000000000e+03 3.675685119628906250e+01 8.456539154052734375e+00 2.554829698055982590e-04 7.089009159244596958e-05 9.791192132979631424e-05 1.698586129350587726e-04
4.959000000000000000e+03 1.589675712585449219e+01 6.942778110504150391e+00 9.616769966669380665e-05 -4.615175203070975840e-05 1.500478447269415483e-05 -6.767304148524999619e-05
4.960000000000000000e+03 1.481719875335693359e+01 6.809595108032226562e+00 8.750380948185920715e-05 -3.556188676157034934e-05 1.558257645228877664e-05 -6.863068119855597615e-05
4.961000000000000000e+03 4.995904541015625000e+01 -2.952383232116699219e+01 5.739687085151672363e-01 3.009993731975555420e-01 2.624904215335845947e-01 -7.091808319091796875e-02
4.962000000000000000e+03 3.559012222290039062e+01 1.033555412292480469e+01 2.363370185776147991e-05 9.626230166759341955e-05 3.596880196710117161e-05 1.646685414016246796e-04
4.963000000000000000e+03 3.678307723999023438e+01 2.238153076171875000e+01 1.421984634362161160e-03 -9.433575542061589658e-06 4.237653047312051058e-04 5.648664682667003945e-06
4.964000000000000000e+03 7.257573604583740234e+00 2.717469215393066406e+01 6.300258246483281255e-05 3.589075640775263309e-04 1.265730534214526415e-04 -2.525454328861087561e-04
4.965000000000000000e+03 4.961140441894531250e+01 -3.264319992065429688e+01 4.004772305488586426e-01 4.373490810394287109e-01 2.513478994369506836e-01 2.552836537361145020e-01
4.966000000000000000e+03 4.787324142456054688e+01 -3.065131568908691406e+01 2.731688916683197021e-01 -2.659946307539939880e-02 7.397082448005676270e-02 -4.807717725634574890e-02
4.967000000000000000e+03 3.874695968627929688e+01 3.136157608032226562e+01 3.387793258298188448e-04 -2.571007702499628067e-03 -6.696685450151562691e-04 -6.326049915514886379e-04
4.968000000000000000e+03 4.951079940795898438e+01 -3.055508995056152344e+01 4.984498620033264160e-01 2.785169482231140137e-01 2.330900430679321289e-01 4.521606490015983582e-02
4.969000000000000000e+03 4.759615325927734375e+01 -3.569494247436523438e+01 2.090668231248855591e-01 1.272476911544799805e-01 1.008943542838096619e-01 2.492664754390716553e-01
4.970000000000000000e+03 8.442195892333984375e+00 3.476211547851562500e+01 -7.800438470439985394e-05 4.908232367597520351e-04 1.238456461578607559e-04 -2.276462328154593706e-04
4.971000000000000000e+03 2.991782379150390625e+01 -4.027039337158203125e+01 -5.532484501600265503e-03 -6.446482986211776733e-02 -2.099919505417346954e-02 -1.575188152492046356e-02
4.972000000000000000e+03 1.328542900085449219e+01 -4.130435180664062500e+01 -3.435236867517232895e-03 3.102857386693358421e-03 -9.971380495699122548e-05 1.428889227099716663e-03
4.973000000000000000e+03 4.212621688842773438e+01 -4.128568649291992188e+01 2.580893337726593018e-01 -2.892844676971435547e-01 -9.358535520732402802e-03 -4.817663691937923431e-03
4.974000000000000000e+03 7.501612091064453125e+01 -3.901021575927734375e+01 -8.682537823915481567e-02 6.938611030578613281e+00 2.055535793304443359e+00 -6.847571581602096558e-02
4.975000000000000000e+03 3.997463989257812500e+01 -3.708881759643554688e+01 1.580206155776977539e-01 -4.420219659805297852e-01 -8.520039916038513184e-02 -1.264337301254272461e-01
4.976000000000000000e+03 6.975579833984375000e+01 -1.688426017761230469e+01 -1.452262848615646362e-01 3.453731060028076172e+00 9.925514459609985352e-01 -7.311329841613769531e-01
4.977000000000000000e+03 6.940610408782958984e+00 -9.162430763244628906e+00 2.895261786761693656e-05 9.652029802964534611e-06 1.158139457402285188e-05 1.423916182829998434e-05
4.978000000000000000e+03 6.874697208404541016e+00 -9.921771049499511719e+00 -3.200787978130392730e-05 -1.065772266883868724e-05 -1.279968091694172472e-05 -1.801855069061275572e-05
4.979000000000000000e+03 4.142838287353515625e+01 -4.802693724632263184e-01 -1.854665060818661004e-05 -2.392131318629253656e-05 -1.274038913834374398e-05 -1.987257928703911602e-05
4.980000000000000000e+03 4.243437576293945312e+01 -2.402780771255493164e+00 3.417941115912981331e-05 4.392897244542837143e-05 2.343251617276109755e-05 3.233176175854168832e-05
4.981000000000000000e+03 4.103218078613281250e+01 -1.339895439147949219e+01 -1.625281220185570419e-05 4.601231921697035432e-06 -3.495474174997070804e-06 -1.137060462497174740e-05
4.982000000000000000e+03 3.994528198242187500e+01 -1.267871379852294922e+01 -2.256413426948711276e-05 4.212821750115836039e-06 -5.505393801286118105e-06 -1.398648782924283296e-05
4.983000000000000000e+03 6.992897796630859375e+01 -1.337876510620117188e+01 1.192713752388954163e-01 4.188695907592773438e+00 1.292390227317810059e+00 -1.700865328311920166e-01
4.984000000000000000e+03 7.306964111328125000e+01 -1.344669532775878906e+01 -1.895247697830200195e-01 6.149414539337158203e+00 1.787966847419738770e+00 -5.080325007438659668e-01
4.985000000000000000e+03 1.240515136718750000e+01 -9.680776596069335938e+00 1.707891715341247618e-05 1.690924000286031514e-05 1.019644696498289704e-05 1.485611846874235198e-06
4.986000000000000000e+03 1.029953098297119141e+01 -7.501187324523925781e+00 1.844166763476096094e-05 1.117028477892745286e-05 8.883585906005464494e-06 1.958495431608753279e-06
4.987000000000000000e+03 3.461887359619140625e+01 -1.099727439880371094e+01 2.016242433455772698e-05 7.663694304937962443e-06 8.347835319000296295e-06 -6.747593488398706540e-06
4.988000000000000000e+03 3.415505981445312500e+01 -1.155349636077880859e+01 -2.022451008087955415e-05 7.250125690916320309e-06 -3.892315362463705242e-06 2.280868784509948455e-06
4.989000000000000000e+03 7.801109313964843750e+00 -8.332976341247558594e+00 2.200267590524163097e-05 8.362635526282247156e-06 9.109593520406633615e-06 1.809178320399951190e-05
4.990000000000000000e+03 4.456660079956054688e+01 -1.329317855834960938e+01 2.164579200325533748e-05 1.027708336209798290e-07 6.524568561872001737e-06 1.902099393191747367e-05
4.991000000000000000e+03 4.481089401245117188e+01 -1.060643959045410156e+01 -1.394517403241479769e-05 -3.236057818867266178e-05 -1.389172575727570802e-05 -3.204409586032852530e-05
4.992000000000000000e+03 6.729921340942382812e+00 -1.144048881530761719e+01 -4.032366996398195624e-05 -1.191934188682353124e-05 -1.567290382809005678e-05 -2.211596620327327400e-05
4.993000000000000000e+03 3.879335403442382812e+01 1.114924550056457520e+00 -8.616559171059634537e-06 5.434706690721213818e-05 1.371915186609840021e-05 6.520027000078698620e-06
4.994000000000000000e+03 7.802577018737792969e+00 -9.091790199279785156e+00 -2.676748408703133464e-05 -9.901737939799204469e-06 -1.100076678994810209e-05 -1.607884951226878911e-05
4.995000000000000000e+03 4.134516525268554688e+01 -1.269807815551757812e+01 1.441163112758658826e-05 9.838911552151330397e-08 4.353005806478904560e-06 3.470329374977154657e-06
4.996000000000000000e+03 4.532915878295898438e+01 -1.270549869537353516e+01 2.608822069305460900e-05 -2.289647682118811645e-06 7.139572062442312017e-06 1.023845106828957796e-05
4.997000000000000000e+03 4.343760299682617188e+01 -1.092588233947753906e+01 -1.597085611138027161e-05 -2.650886744959279895e-05 -1.274391706829192117e-05 -3.059274968109093606e-05
4.998000000000000000e+03 7.372204589843750000e+01 -1.594651412963867188e+01 -4.436177611351013184e-01 6.656361579895019531e+00 1.863823056221008301e+00 -5.502981543540954590e-01
4.999000000000000000e+03 4.459473419189453125e+01 -5.971327781677246094e+00 5.223985226621152833e-06 5.739372136304154992e-05 1.878531293186824769e-05 2.339367711101658642e-05
5.000000000000000000e+03 4.332790374755859375e+01 -6.039250373840332031e+00 3.769109389395453036e-05 4.052523217978887260e-05 2.346489782212302089e-05 1.268239975615870208e-05
5.001000000000000000e+03 3.206021499633789062e+01 -1.247570419311523438e+01 -1.363922910968540236e-05 -7.085974175424780697e-06 -6.217560894583584741e-06 -2.972656602651113644e-06
5.002000000000000000e+03 7.284392356872558594e+00 1.363223266601562500e+01 2.716300514293834567e-05 8.388049172936007380e-05 3.331304833409376442e-05 -1.413947320543229580e-04
5.003000000000000000e+03 7.815656185150146484e+00 1.494158840179443359e+01 4.528122008196078241e-05 1.396940060658380389e-04 5.549256820813752711e-05 -1.635166117921471596e-04
5.004000000000000000e+03 7.183612823486328125e+00 2.242691230773925781e+01 9.838480036705732346e-05 2.212729305028915405e-04 9.589731780579313636e-05 -2.336857724003493786e-04
5.005000000000000000e+03 9.186639785766601562e+00 2.369767379760742188e+01 1.004220903269015253e-04 2.212035469710826874e-04 9.648768900660797954e-05 -3.179231716785579920e-04
5.006000000000000000e+03 3.135890579223632812e+01 -1.067481231689453125e+01 -5.074558430351316929e-06 -8.406056622334290296e-06 -4.044184152007801458e-06 2.331586983927991241e-06
5.007000000000000000e+03 4.310443878173828125e+01 -3.660661697387695312e+00 2.508083707652986050e-05 5.940739356447011232e-05 2.534646955609787256e-05 3.744999412447214127e-05
5.008000000000000000e+03 3.225273132324218750e+01 -1.181503963470458984e+01 2.476540203133481555e-06 2.200852213718462735e-05 7.345518952206475660e-06 1.024777884595096111e-05
5.009000000000000000e+03 3.094932746887207031e+01 -1.111198234558105469e+01 -2.839349690475501120e-06 2.082474566122982651e-05 5.395618700276827440e-06 2.056541461570304818e-06
5.010000000000000000e+03 4.015050506591796875e+01 3.904226422309875488e-01 3.842093792627565563e-05 2.488468089723028243e-05 1.899168637464754283e-05 1.841885568865109235e-05
5.011000000000000000e+03 3.520220947265625000e+01 -1.123741531372070312e+01 -2.573234087321907282e-05 4.072913270647404715e-06 -6.497828508145175874e-06 3.575917617126833647e-06
5.012000000000000000e+03 3.537564468383789062e+01 -1.270494747161865234e+01 -5.794705884909490123e-06 2.495313128747511655e-05 5.747527666244423017e-06 6.099323854868998751e-07
5.013000000000000000e+03 3.175602722167968750e+01 -8.990656852722167969e+00 3.006594488397240639e-05 1.744301334838382900e-05 1.425268692401004955e-05 3.010705640349442547e-08
5.014000000000000000e+03 4.445817947387695312e+01 -9.439114570617675781e+00 -2.085352753056213260e-05 -2.878150553442537785e-05 -1.489051010139519349e-05 -2.705919723666738719e-05
5.015000000000000000e+03 4.284911727905273438e+01 -1.266658782958984375e+01 -2.288539144501555711e-05 1.086254815163556486e-05 -3.606852942539262585e-06 -1.420601893187267706e-05
5.016000000000000000e+03 8.705162048339843750e+00 1.959532165527343750e+01 5.903031342313624918e-05 1.968329452211037278e-04 7.675898086745291948e-05 -2.531962236389517784e-04
5.017000000000000000e+03 7.288311958312988281e+00 1.638854980468750000e+01 2.906606096075847745e-05 1.712640951154753566e-04 6.009904609527438879e-05 -1.709145581116899848e-04
5.018000000000000000e+03 3.842082595825195312e+01 2.835474491119384766e+00 2.275213955726940185e-05 -9.280921403842512518e-06 4.041365173179656267e-06 5.783145752502605319e-05
5.019000000000000000e+03 3.835793685913085938e+01 1.681955933570861816e+00 3.983123315265402198e-05 -4.679726316680898890e-06 1.054545191436773166e-05 3.888236096827313304e-05
5.020000000000000000e+03 6.923349761962890625e+01 -1.459821510314941406e+01 1.971549838781356812e-01 3.439749002456665039e+00 1.091071128845214844e+00 -1.953780949115753174e-01
5.021000000000000000e+03 6.975352478027343750e+01 -1.518456554412841797e+01 6.377391517162322998e-02 3.724119663238525391e+00 1.136368036270141602e+00 -3.888640403747558594e-01
5.022000000000000000e+03 7.035851478576660156e+00 1.952565574645996094e+01 2.996575858560390770e-05 1.753763935994356871e-04 6.160264456411823630e-05 -1.621620176592841744e-04
5.023000000000000000e+03 8.508707046508789062e+00 2.299891281127929688e+01 -2.432963992760051042e-05 2.044203574769198895e-04 5.402721581049263477e-05 -2.090869820676743984e-04
5.024000000000000000e+03 7.231472015380859375e+01 -1.164225864410400391e+01 -1.032273769378662109e-01 5.884996891021728516e+00 1.734530806541442871e+00 -3.539690375328063965e-01
5.025000000000000000e+03 7.219236755371093750e+01 -1.466882801055908203e+01 -2.181011140346527100e-01 5.565647602081298828e+00 1.604263901710510254e+00 -5.611013770103454590e-01
5.026000000000000000e+03 7.324161529541015625e+01 -9.592607498168945312e+00 -1.317083835601806641e-01 6.611910343170166016e+00 1.944060564041137695e+00 -4.335673451423645020e-01
5.027000000000000000e+03 7.238689422607421875e+01 -1.015906906127929688e+01 -9.646712243556976318e-02 6.123136043548583984e+00 1.808000683784484863e+00 -3.142066895961761475e-01
5.028000000000000000e+03 7.255811309814453125e+01 -1.210446643829345703e+01 -1.101459115743637085e-01 5.971081256866455078e+00 1.758280634880065918e+00 -4.062508046627044678e-01
5.029000000000000000e+03 7.334112548828125000e+01 -1.182385349273681641e+01 -1.385508477687835693e-01 6.393860816955566406e+00 1.876592993736267090e+00 -4.651312232017517090e-01
5.030000000000000000e+03 7.290289306640625000e+01 -1.101268386840820312e+01 -1.169527471065521240e-01 6.286506175994873047e+00 1.850866079330444336e+00 -4.126182198524475098e-01
5.031000000000000000e+03 7.314224243164062500e+01 -1.584772872924804688e+01 -4.207133650779724121e-01 6.248131752014160156e+00 1.748225569725036621e+00 -6.053139567375183105e-01
5.032000000000000000e+03 8.079289436340332031e+00 2.567311477661132812e+01 -4.693411392509005964e-05 3.020010190084576607e-04 7.652006752323359251e-05 -2.909425529651343822e-04
5.033000000000000000e+03 7.380636692047119141e+00 1.887471771240234375e+01 3.914095213986001909e-05 2.089965564664453268e-04 7.444125367328524590e-05 -2.167830389225855470e-04
5.034000000000000000e+03 6.844470977783203125e+00 9.475947380065917969e+00 3.851491055684164166e-05 8.062102278927341104e-05 3.574078073143027723e-05 -1.093942555598914623e-04
5.035000000000000000e+03 7.870357990264892578e+00 2.246950721740722656e+01 5.948396938038058579e-05 2.598924038466066122e-04 9.581290942151099443e-05 -2.778756606858223677e-04
5.036000000000000000e+03 9.919758796691894531e+00 8.853386878967285156e+00 3.741003820323385298e-05 2.720959855651017278e-05 1.938589048222638667e-05 -9.313505142927169800e-05
5.037000000000000000e+03 7.065205097198486328e+00 1.029029083251953125e+01 4.911655196337960660e-05 8.405021071666851640e-05 3.995002771262079477e-05 -1.171206749859265983e-04
5.038000000000000000e+03 7.536396503448486328e+00 -1.068172168731689453e+01 -3.896149064530618489e-05 -9.178485015581827611e-06 -1.444199278921587393e-05 -1.736227204673923552e-05
5.039000000000000000e+03 7.596641063690185547e+00 1.062404060363769531e+01 2.736928581725805998e-05 5.965652235317975283e-05 2.610774208733346313e-05 -9.932144894264638424e-05
5.040000000000000000e+03 8.242041587829589844e+00 2.038440322875976562e+01 2.766270154097583145e-05 1.466687390347942710e-04 5.229943053564056754e-05 -1.937422784976661205e-04
5.041000000000000000e+03 6.834687709808349609e+00 -1.291594600677490234e+01 -2.928772119048517197e-05 -3.055212437175214291e-05 -1.795195385057013482e-05 -1.871804488473571837e-05
5.042000000000000000e+03 7.977323532104492188e+00 -1.199068069458007812e+01 3.678676512208767235e-05 1.804291969165205956e-05 1.644890653551556170e-05 5.308714207785669714e-06
5.043000000000000000e+03 7.695187091827392578e+00 -1.330870342254638672e+01 -4.521513619692996144e-05 -2.159823998226784170e-05 -2.004401358135510236e-05 -6.901800588821060956e-06
5.044000000000000000e+03 7.438437461853027344e+00 1.263385677337646484e+01 3.215807737433351576e-05 7.394765998469665647e-05 3.183172157150693238e-05 -1.245774765266105533e-04
5.045000000000000000e+03 7.635005950927734375e+00 1.992863845825195312e+01 5.080538903712294996e-05 2.270310942549258471e-04 8.335094025824218988e-05 -2.444311103317886591e-04
5.046000000000000000e+03 1.014664363861083984e+01 -1.166759109497070312e+01 2.599176696094218642e-05 2.461742769810371101e-05 1.518275803391588852e-05 -1.103680915548466146e-05
5.047000000000000000e+03 7.814419269561767578e+00 2.796652793884277344e+01 -7.929393177619203925e-05 3.579884069040417671e-04 8.360834181075915694e-05 -2.523680741433054209e-04
5.048000000000000000e+03 7.946486949920654297e+00 2.650316047668457031e+01 -6.103558553149923682e-05 3.115558065474033356e-04 7.515606557717546821e-05 -2.144885947927832603e-04
5.049000000000000000e+03 8.420484542846679688e+00 2.434691619873046875e+01 -6.604879308724775910e-05 2.651149407029151917e-04 5.971984501229599118e-05 -2.367544948356226087e-04
5.050000000000000000e+03 4.414828109741210938e+01 -1.077427005767822266e+01 1.652631726756226271e-05 2.576225233497098088e-05 1.268657069886103272e-05 2.186384335800539702e-05
5.051000000000000000e+03 4.501345062255859375e+01 -1.115889549255371094e+01 -3.027804041266790591e-06 3.518468656693585217e-05 9.647063961892854422e-06 1.493432409915840253e-05
5.052000000000000000e+03 4.454468536376953125e+01 -1.204015064239501953e+01 2.659876554389484227e-05 7.231612016767030582e-06 1.014911322272382677e-05 2.248753662570379674e-05
5.053000000000000000e+03 7.000621032714843750e+01 -1.166791057586669922e+01 9.322480112314224243e-02 4.564663887023925781e+00 1.397366523742675781e+00 5.171201750636100769e-02
5.054000000000000000e+03 4.175561904907226562e+01 -1.133458614349365234e+00 3.699731678352691233e-05 4.325022746343165636e-05 2.407426291028968990e-05 2.246388976345770061e-05
5.055000000000000000e+03 7.202815246582031250e+01 -1.787386322021484375e+01 -7.771301865577697754e-01 5.660373687744140625e+00 1.464973092079162598e+00 -8.704458475112915039e-01
5.056000000000000000e+03 3.173596191406250000e+01 -8.404516220092773438e+00 -1.719264582789037377e-05 1.681387402641121298e-05 -1.136315219696371059e-07 -5.228635927778668702e-06
5.057000000000000000e+03 3.236944961547851562e+01 -1.118915176391601562e+01 -3.797105591729632579e-06 -9.891190529742743820e-06 -4.106488631805405021e-06 -5.679539299308089539e-06
5.058000000000000000e+03 3.612605285644531250e+01 1.686795425415039062e+01 8.598196436651051044e-04 -3.061850293306633830e-05 2.487603342160582542e-04 2.717828901950269938e-04
5.059000000000000000e+03 3.702223587036132812e+01 2.070652770996093750e+01 1.043831231072545052e-03 4.399213066790252924e-04 4.451257700566202402e-04 2.672815462574362755e-04
5.060000000000000000e+03 8.659649848937988281e+00 -1.235834121704101562e+01 2.095953959724283777e-06 3.870575892506167293e-05 1.224051447934471071e-05 8.850996891851536930e-06
5.061000000000000000e+03 7.859181404113769531e+00 1.307755088806152344e+01 7.028970139799639583e-05 1.067288976628333330e-04 5.310558117344044149e-05 -1.411237608408555388e-04
5.062000000000000000e+03 3.153299140930175781e+01 -7.812520980834960938e+00 1.812904338294174522e-05 7.033333531580865383e-06 7.548713256255723536e-06 3.485906518108095042e-06
5.063000000000000000e+03 3.059587287902832031e+01 -7.672221183776855469e+00 1.483163941884413362e-05 -9.884937753668054938e-06 1.484010681451763958e-06 2.211721493949880823e-06
5.064000000000000000e+03 3.778265762329101562e+01 4.748331069946289062e+00 9.580790356267243624e-05 1.585541904205456376e-04 7.630862819496542215e-05 -2.597845877971849404e-06
5.065000000000000000e+03 2.215695953369140625e+01 2.520748138427734375e+00 1.592083135619759560e-04 -1.542874451843090355e-05 4.313387034926563501e-05 -2.877745464502368122e-05
5.066000000000000000e+03 9.460000038146972656e+00 8.066322326660156250e+00 9.047108324011787772e-05 4.073189120390452445e-05 3.936089342460036278e-05 -1.042255316860973835e-04
5.067000000000000000e+03 2.789318466186523438e+01 -2.496808528900146484e+00 5.362624870031140745e-05 -3.363977157277986407e-05 5.995942501613171771e-06 1.847446037572808564e-05
5.068000000000000000e+03 4.338291168212890625e+01 -1.305655193328857422e+01 2.141688491974491626e-05 -2.106533975165802985e-05 1.054636413755360991e-07 2.478485384926898405e-06
5.069000000000000000e+03 1.994963073730468750e+01 4.170951366424560547e+00 9.529205271974205971e-05 -5.864023478352464736e-05 1.099554538086522371e-05 -8.807948688627220690e-06
5.070000000000000000e+03 3.788132476806640625e+01 2.220332622528076172e+00 1.915515167638659477e-05 9.110477549256756902e-05 3.307797669549472630e-05 -5.599160431302152574e-06
5.071000000000000000e+03 3.694936752319335938e+01 5.136036872863769531e+00 -1.184443026431836188e-04 -2.014682195294881240e-06 -3.613769513322040439e-05 8.208311191992834210e-05
5.072000000000000000e+03 7.043083190917968750e+01 -1.759027099609375000e+01 -4.662724435329437256e-01 4.036817550659179688e+00 1.071163535118103027e+00 -9.645517468452453613e-01
5.073000000000000000e+03 7.027696228027343750e+01 -1.825644683837890625e+01 -5.755192041397094727e-01 3.773766994476318359e+00 9.594743847846984863e-01 -1.132258653640747070e+00
5.074000000000000000e+03 6.940033721923828125e+01 -1.626714324951171875e+01 3.471976146101951599e-02 3.217893362045288086e+00 9.757839441299438477e-01 -5.060514211654663086e-01
5.075000000000000000e+03 2.843089485168457031e+01 -3.241981983184814453e+00 4.424430153449065983e-05 2.472492633387446404e-05 2.069076799671165645e-05 4.509103746386244893e-06
5.076000000000000000e+03 2.737857818603515625e+01 -3.018697500228881836e+00 4.969902875018306077e-05 2.230605969089083374e-05 2.160152689612004906e-05 6.847077997917949688e-07
5.077000000000000000e+03 7.684262275695800781e+00 2.113533020019531250e+01 7.256151002366095781e-05 2.397277421550825238e-04 9.368677274323999882e-05 -2.624623302835971117e-04
5.078000000000000000e+03 1.266238498687744141e+01 6.489254474639892578e+00 6.658235361101105809e-05 -7.992586688487790525e-06 1.757693098625168204e-05 -6.666409899480640888e-05
5.079000000000000000e+03 1.368561553955078125e+01 7.874534130096435547e+00 8.084256114671006799e-05 -2.759473863989114761e-05 1.597434675204567611e-05 -7.906406244728714228e-05
5.080000000000000000e+03 4.364993667602539062e+01 -1.155782413482666016e+01 1.184207303595030680e-05 2.038797174463979900e-05 9.669013707025442272e-06 1.352641720586689189e-05
5.081000000000000000e+03 7.572188377380371094e+00 3.258314895629882812e+01 -7.532781455665826797e-05 4.939078935422003269e-04 1.255740207852795720e-04 -2.343253436265513301e-04
5.082000000000000000e+03 1.536336231231689453e+01 7.443245887756347656e+00 1.587968290550634265e-04 1.426282210559293162e-06 4.806692959391511977e-05 -9.300107194576412439e-05
5.083000000000000000e+03 1.373827075958251953e+01 6.648919105529785156e+00 7.641249976586550474e-05 -2.161017982871271670e-05 1.644069561734795570e-05 -6.746334838680922985e-05
5.084000000000000000e+03 7.239710998535156250e+01 -7.204645156860351562e+00 -1.299556791782379150e-01 6.733265399932861328e+00 1.980992913246154785e+00 -2.397943586111068726e-01
5.085000000000000000e+03 1.890423774719238281e+01 5.765338420867919922e+00 1.943271345226094127e-04 -3.179390478180721402e-05 4.875996819464489818e-05 -5.644202246912755072e-05
5.086000000000000000e+03 3.541111755371093750e+01 1.909339332580566406e+01 5.066915764473378658e-04 -3.578190517146140337e-04 4.466175232664681971e-05 6.698343204334378242e-04
5.087000000000000000e+03 4.841665267944335938e+01 -2.873459053039550781e+01 3.188694119453430176e-01 -3.676668554544448853e-02 8.463081717491149902e-02 -2.827159464359283447e-01
5.088000000000000000e+03 2.037814331054687500e+01 4.789354801177978516e+00 1.962397946044802666e-04 -3.187037145835347474e-05 4.931082366965711117e-05 -4.097050259588286281e-05
5.089000000000000000e+03 1.867466163635253906e+01 6.828935146331787109e+00 2.035998477367684245e-04 -3.383938746992498636e-05 5.092813808005303144e-05 -7.456981256837025285e-05
5.090000000000000000e+03 3.503652954101562500e+01 1.468666839599609375e+01 1.819906319724395871e-04 -2.953425337182125077e-06 5.371116276364773512e-05 3.616134345065802336e-04
5.091000000000000000e+03 3.605309677124023438e+01 1.372657966613769531e+01 1.047189871314913034e-04 9.629286068957298994e-05 6.030355507391504943e-05 3.377135435584932566e-04
5.092000000000000000e+03 1.171047496795654297e+01 -9.385309219360351562e+00 -2.816766027535777539e-05 -6.148041393316816539e-06 -1.029471059155184776e-05 -3.723931513377465308e-06
5.093000000000000000e+03 1.129210567474365234e+01 -8.469997406005859375e+00 -2.350468093936797231e-05 -6.778512215532828122e-06 -9.084958037419710308e-06 1.451335606361681130e-06
5.094000000000000000e+03 9.089940071105957031e+00 -8.188217163085937500e+00 1.316368889092700556e-05 2.138211129931733012e-05 1.036374032992171124e-05 1.953018363565206528e-05
5.095000000000000000e+03 2.287348556518554688e+01 1.916147112846374512e+00 9.155395673587918282e-05 -6.340202526189386845e-05 8.445577805105131119e-06 2.249026692879851907e-05
5.096000000000000000e+03 2.143054389953613281e+01 3.093971729278564453e+00 9.360100375488400459e-05 -6.312895857263356447e-05 9.141613190877251327e-06 1.066538243321701884e-05
5.097000000000000000e+03 1.009621429443359375e+01 1.210914516448974609e+01 1.055552784237079322e-04 5.500379120348952711e-05 4.816771979676559567e-05 -1.422161294613033533e-04
5.098000000000000000e+03 7.696294784545898438e+00 1.403469085693359375e+01 6.463224417530000210e-05 1.239417615579441190e-04 5.657220026478171349e-05 -1.511763693997636437e-04
5.099000000000000000e+03 2.671600151062011719e+01 -9.899800419807434082e-01 6.811590719735249877e-05 -4.598292798618786037e-05 6.639894763793563470e-06 2.652226248756051064e-05
5.100000000000000000e+03 2.608109092712402344e+01 -2.438383251428604126e-01 9.553867857903242111e-05 1.397048436047043651e-05 3.285274942754767835e-05 -5.304648766468744725e-06
5.101000000000000000e+03 3.593526458740234375e+01 -1.267931842803955078e+01 -7.411486876662820578e-06 -1.281589811696903780e-05 -6.068215498089557514e-06 -4.329063358454732224e-06
5.102000000000000000e+03 2.541842842102050781e+01 4.893663227558135986e-01 8.159084973158314824e-05 -5.707102900487370789e-05 7.355946763709653169e-06 3.131024641334079206e-05
5.103000000000000000e+03 8.787100791931152344e+00 -7.553119659423828125e+00 2.833280086633749306e-05 8.207507562474347651e-07 8.746065759623888880e-06 1.149513263953849673e-05
5.104000000000000000e+03 1.803037452697753906e+01 7.240921497344970703e+00 9.669377323007211089e-05 -5.387915371102280915e-05 1.284438712900737301e-05 -4.610135874827392399e-05
5.105000000000000000e+03 1.646494483947753906e+01 6.479516983032226562e+00 1.713807723717764020e-04 -1.477571458963211626e-05 4.698151678894646466e-05 -7.011169509496539831e-05
5.106000000000000000e+03 4.186557388305664062e+01 -1.128474521636962891e+01 2.444098208798095584e-05 -6.290037504186329897e-07 7.143593393266201019e-06 1.424228685209527612e-05
5.107000000000000000e+03 3.575161743164062500e+01 9.293600082397460938e+00 2.925907028838992119e-04 4.279555651010014117e-05 1.006158854579553008e-04 1.895410969154909253e-04
5.108000000000000000e+03 3.617668914794921875e+01 2.128389739990234375e+01 8.857997017912566662e-04 -8.141166181303560734e-04 2.150492946384474635e-05 7.537562632933259010e-04
5.109000000000000000e+03 3.569423294067382812e+01 2.018504524230957031e+01 1.200772006995975971e-03 -1.082419476006180048e-04 3.277590149082243443e-04 -9.442555892746895552e-06
5.110000000000000000e+03 1.051820468902587891e+01 9.596586227416992188e+00 1.094525723601691425e-04 4.363025436759926379e-05 4.592484765453264117e-05 -1.304823817918077111e-04
5.111000000000000000e+03 7.516756534576416016e+00 -1.271280097961425781e+01 4.010988777736201882e-05 2.092207432724535465e-05 1.830958899518009275e-05 7.981930139067117125e-06
5.112000000000000000e+03 2.473320579528808594e+01 1.200319528579711914e+00 1.280569413211196661e-04 1.775662212821771391e-06 3.894978362950496376e-05 -1.288268595089903101e-05
5.113000000000000000e+03 2.357933998107910156e+01 1.278889894485473633e+00 1.320512383244931698e-04 -3.842817022814415395e-06 3.846252729999832809e-05 -1.929998688865453005e-05
5.114000000000000000e+03 2.896256446838378906e+01 -2.715658426284790039e+00 4.846175579586997628e-05 -2.634409429447259754e-05 6.635298177570803091e-06 1.747068563417997211e-05
5.115000000000000000e+03 3.524506759643554688e+01 1.800139617919921875e+01 1.046275370754301548e-03 -1.926640106830745935e-04 2.560834109317511320e-04 1.518688222859054804e-04
5.116000000000000000e+03 3.624019241333007812e+01 1.788251113891601562e+01 4.236338718328624964e-04 -1.668334880378097296e-04 7.704011659370735288e-05 6.243679672479629517e-04
5.117000000000000000e+03 4.486762237548828125e+01 -6.563917636871337891e+00 -1.116637304221512750e-05 -5.406810669228434563e-05 -1.957034328370355070e-05 -2.001331813517026603e-05
5.118000000000000000e+03 4.402806854248046875e+01 -6.038341522216796875e+00 -2.518331166356801987e-05 -4.485883619054220617e-05 -2.101264362863730639e-05 -1.484404310758691281e-05
5.119000000000000000e+03 9.010441780090332031e+00 2.529635429382324219e+01 1.040468632709234953e-04 2.330986171728000045e-04 1.011436397675424814e-04 -2.910287003032863140e-04
5.120000000000000000e+03 3.456791305541992188e+01 1.114569091796875000e+01 1.052449661074206233e-04 6.223734089871868491e-05 5.024469282943755388e-05 1.816527947084978223e-04
5.121000000000000000e+03 3.437702178955078125e+01 1.221483325958251953e+01 4.313436802476644516e-04 -6.119130557635799050e-05 1.110457087634131312e-04 2.659254532773047686e-04
5.122000000000000000e+03 6.889865875244140625e+00 8.367665290832519531e+00 2.712114655878394842e-05 4.775384149979799986e-05 2.246249641757458448e-05 -7.370589446509256959e-05
5.123000000000000000e+03 8.552816390991210938e+00 8.307462692260742188e+00 4.245744275976903737e-05 4.807036020793020725e-05 2.715834125410765409e-05 -9.692003368400037289e-05
5.124000000000000000e+03 4.258270263671875000e+01 -3.931332588195800781e+00 -1.485504981246776879e-05 -5.744142981711775064e-05 -2.168894388887565583e-05 -4.801133036380633712e-05
5.125000000000000000e+03 3.547580337524414062e+01 2.544067382812500000e+01 9.341079276055097580e-04 -1.326787983998656273e-03 -1.178040183731354773e-04 2.642436011228710413e-04
5.126000000000000000e+03 3.073174667358398438e+01 -6.595811843872070312e+00 1.745245390338823199e-05 -8.435752533841878176e-06 2.705010501813376322e-06 2.626844434416852891e-06
5.127000000000000000e+03 3.030327415466308594e+01 -5.979153633117675781e+00 1.714360951154958457e-05 2.427061190246604383e-05 1.242426606040680781e-05 6.173057954583782703e-06
5.128000000000000000e+03 1.483913040161132812e+01 7.989648818969726562e+00 9.489192598266527057e-05 -4.314988109399564564e-05 1.552261346660088748e-05 -8.028942102100700140e-05
5.129000000000000000e+03 4.874557876586914062e+01 -3.152789878845214844e+01 3.855106532573699951e-01 1.910511702299118042e-01 1.729685515165328979e-01 1.196412667632102966e-01
5.130000000000000000e+03 1.070469665527343750e+01 8.244677543640136719e+00 1.036400353768840432e-04 4.048792834510095417e-05 4.323838948039337993e-05 -1.116955536417663097e-04
5.131000000000000000e+03 7.546432495117187500e+00 1.162948989868164062e+01 2.382930870226118714e-05 7.003926293691620231e-05 2.816057167365215719e-05 -1.123378096963278949e-04
5.132000000000000000e+03 3.691490554809570312e+01 7.378258228302001953e+00 -8.726006490178406239e-05 8.403677929891273379e-05 -9.669845439930213615e-07 8.373041055165231228e-05
5.133000000000000000e+03 3.705467987060546875e+01 6.249292850494384766e+00 2.255942381452769041e-04 9.082745236810296774e-05 9.492650860920548439e-05 8.108057227218523622e-05
5.134000000000000000e+03 3.589513397216796875e+01 8.251476287841796875e+00 -2.714393849601037800e-05 7.691892824368551373e-05 1.493249783379724249e-05 1.192726849694736302e-04
5.135000000000000000e+03 8.734795570373535156e+00 3.773448562622070312e+01 -5.594208414549939334e-05 4.936218610964715481e-04 1.313039392698556185e-04 -1.618355890968814492e-04
5.136000000000000000e+03 7.421404838562011719e+00 3.645684814453125000e+01 -1.167053924291394651e-04 5.588144413195550442e-04 1.326327183051034808e-04 -9.003992454381659627e-05
5.137000000000000000e+03 1.074033546447753906e+01 3.330878067016601562e+01 -1.342655887128785253e-04 3.657399793155491352e-04 6.944231427041813731e-05 -3.144002694170922041e-04
5.138000000000000000e+03 3.956550598144531250e+01 3.491868591308593750e+01 -1.510678790509700775e-03 -3.067638957872986794e-03 -1.373495324514806271e-03 -1.358007080852985382e-03
5.139000000000000000e+03 7.755360603332519531e+00 3.101731109619140625e+01 -1.199706639454234391e-05 4.238342517055571079e-04 1.235511590493842959e-04 -2.099937846651300788e-04
5.140000000000000000e+03 7.267023468017578125e+01 -4.124904632568359375e+01 1.163260489702224731e-01 5.453455448150634766e+00 1.670934557914733887e+00 1.697084456682205200e-01
5.141000000000000000e+03 3.755824661254882812e+01 -3.943660354614257812e+01 1.424952596426010132e-01 -3.108973801136016846e-01 -5.052063614130020142e-02 -1.051402613520622253e-01
5.142000000000000000e+03 3.721265029907226562e+01 3.341231536865234375e+01 -2.977922558784484863e-04 -9.006013860926032066e-04 -3.595181042328476906e-04 -1.695884042419493198e-03
5.143000000000000000e+03 3.520246124267578125e+01 2.823892211914062500e+01 5.786480614915490150e-04 -1.431680284440517426e-03 -2.559096610639244318e-04 -1.439340849174186587e-04
5.144000000000000000e+03 4.576387405395507812e+01 -3.606342315673828125e+01 2.165950834751129150e-01 -1.294250488281250000e-01 2.615100704133510590e-02 1.973063200712203979e-01
5.145000000000000000e+03 3.449134063720703125e+01 -3.747784042358398438e+01 1.490077469497919083e-02 -1.669013798236846924e-01 -4.560017958283424377e-02 -1.218637600541114807e-01
5.146000000000000000e+03 6.815495300292968750e+01 4.137502288818359375e+01 7.221354544162750244e-02 3.162426471710205078e+00 9.703919887542724609e-01 -8.797032386064529419e-02
5.147000000000000000e+03 7.095072174072265625e+01 -1.779276084899902344e+01 -6.066604852676391602e-01 4.491387367248535156e+00 1.165418028831481934e+00 -1.004261016845703125e+00
5.148000000000000000e+03 7.033290863037109375e+01 -1.660473060607910156e+01 -2.140964716672897339e-01 3.999418973922729492e+00 1.135596752166748047e+00 -7.259822487831115723e-01
5.149000000000000000e+03 1.099202919006347656e+01 -9.064908027648925781e+00 2.827310163411311805e-05 2.279973159602377564e-06 9.165922165266238153e-06 -1.753105607349425554e-06
5.150000000000000000e+03 7.236325073242187500e+01 -1.632764816284179688e+01 -4.511988162994384766e-01 5.726478099822998047e+00 1.582583785057067871e+00 -6.973657608032226562e-01
5.151000000000000000e+03 4.351491928100585938e+01 -6.791774749755859375e+00 -2.745307574514299631e-05 -3.514926720527000725e-05 -1.878070361271966249e-05 -1.668599725235253572e-05
5.152000000000000000e+03 4.303245544433593750e+01 -7.612647533416748047e+00 -2.411164859950076789e-05 -2.961189238703809679e-05 -1.611706284165848047e-05 -1.931640326802153140e-05
5.153000000000000000e+03 7.767443656921386719e+00 -7.716656208038330078e+00 -1.533623435534536839e-05 -7.881752026150934398e-06 -6.965396096347831190e-06 -2.126521212630905211e-05
5.154000000000000000e+03 1.254860687255859375e+01 7.748847961425781250e+00 6.814148218836635351e-05 -1.019364026433322579e-05 1.738435275910887867e-05 -7.992488099262118340e-05
5.155000000000000000e+03 1.425508594512939453e+01 7.324294567108154297e+00 1.413384889019653201e-04 1.502936447650426999e-05 4.691035792347975075e-05 -9.877957199933007360e-05
5.156000000000000000e+03 3.284430313110351562e+01 -1.038416481018066406e+01 -1.182071741823165212e-06 4.846744445785589051e-07 -2.092191948577237781e-07 -7.086659934429917485e-06
5.157000000000000000e+03 3.861690521240234375e+01 3.968407586216926575e-02 -2.070811933663208038e-05 4.922793232253752649e-05 8.555944077670574188e-06 4.392683877085801214e-06
5.158000000000000000e+03 9.597056388854980469e+00 -1.103998279571533203e+01 1.951845115399919450e-05 3.070760067203082144e-05 1.506781518401112407e-05 6.997610739745141473e-07
5.159000000000000000e+03 7.415080547332763672e+00 -1.139364624023437500e+01 4.475722380448132753e-05 9.756751751410774887e-06 1.635419357626233250e-05 2.023142405960243195e-05
5.160000000000000000e+03 3.822770309448242188e+01 5.986368656158447266e-01 5.630620944430120289e-05 -5.976402462692931294e-06 1.509894264017930254e-05 2.299414336448535323e-05
5.161000000000000000e+03 3.992131042480468750e+01 -6.726055145263671875e-01 4.150243694311939180e-05 2.165209116355981678e-05 1.894635897770058364e-05 1.489384703745599836e-05
5.162000000000000000e+03 3.919319915771484375e+01 5.301511287689208984e-01 4.597182123688980937e-05 9.357279850519262254e-06 1.659872941672801971e-05 1.921858165587764233e-05
5.163000000000000000e+03 1.109431934356689453e+01 -1.057940673828125000e+01 1.231938131240895018e-05 1.840851291490253061e-05 9.218368177243974060e-06 2.717290408327244222e-05
5.164000000000000000e+03 9.481436729431152344e+00 -8.274243354797363281e+00 -1.182737651106435806e-05 -1.110918856284115463e-05 -6.880969522171653807e-06 -1.048795820679515600e-05
5.165000000000000000e+03 9.091820716857910156e+00 2.224874305725097656e+01 7.637486851308494806e-05 2.212191320722922683e-04 8.927819726523011923e-05 -3.064985212404280901e-04
5.166000000000000000e+03 3.658668518066406250e+01 -1.202564334869384766e+01 -1.388095915899612010e-05 -9.909869731927756220e-06 -7.137248758226633072e-06 -1.090121349989203736e-05
5.167000000000000000e+03 3.637089538574218750e+01 -1.124310111999511719e+01 9.160767149296589196e-06 1.216377131640911102e-05 6.397361630661180243e-06 2.743284085227060132e-06
5.168000000000000000e+03 8.465567588806152344e+00 1.254405212402343750e+01 3.681686575873754919e-05 5.961189890513196588e-05 2.892862903536297381e-05 -1.334316330030560493e-04
5.169000000000000000e+03 4.283792495727539062e+01 -4.573774814605712891e+00 2.972297806991264224e-05 5.932813655817881227e-05 2.671533547982107848e-05 3.156075035803951323e-05
5.170000000000000000e+03 4.254331207275390625e+01 -6.134758949279785156e+00 -1.843108111643232405e-05 -4.325717236497439444e-05 -1.850647458923049271e-05 -1.578254523337818682e-05
5.171000000000000000e+03 4.278026580810546875e+01 -3.024767637252807617e+00 -1.666538446443155408e-05 -5.181014421395957470e-05 -2.054265860351733863e-05 -4.396850999910384417e-05
5.172000000000000000e+03 4.220671844482421875e+01 -4.717794418334960938e+00 -2.156861228286288679e-05 -4.807818186236545444e-05 -2.089403824356850237e-05 -2.933731775556225330e-05
5.173000000000000000e+03 7.868116378784179688e+00 1.737786865234375000e+01 3.585418744478374720e-05 1.749527873471379280e-04 6.324209243757650256e-05 -1.930263533722609282e-04
5.174000000000000000e+03 3.183266830444335938e+01 -1.106723976135253906e+01 5.415603936853585765e-06 2.258747554151341319e-05 8.400924343732185662e-06 6.275881787587422878e-06
5.175000000000000000e+03 7.284560394287109375e+01 -1.727875900268554688e+01 -6.806091070175170898e-01 6.251639842987060547e+00 1.671309232711791992e+00 -6.750056147575378418e-01
5.176000000000000000e+03 7.035439300537109375e+01 -1.456943798065185547e+01 1.943361200392246246e-02 4.246687412261962891e+00 1.279836297035217285e+00 -3.949039876461029053e-01
5.177000000000000000e+03 3.190375518798828125e+01 -1.009232902526855469e+01 5.321021944837411866e-06 1.452212654839968309e-05 5.952944775344803929e-06 1.188614788816266810e-07
5.178000000000000000e+03 3.295342636108398438e+01 -1.188800430297851562e+01 -1.880202216852921993e-05 -4.041872671223245561e-06 -6.853168088127858937e-06 -8.925131623982451856e-06
5.179000000000000000e+03 7.540835857391357422e+00 1.562781429290771484e+01 5.841698657604865730e-05 9.904388571158051491e-05 4.723826350527815521e-05 -1.612618361832574010e-04
5.180000000000000000e+03 8.668407440185546875e+00 1.760779190063476562e+01 7.046035170787945390e-05 9.421578579349443316e-05 4.940283906762488186e-05 -1.941640803124755621e-04
5.181000000000000000e+03 3.428048324584960938e+01 -1.056483173370361328e+01 1.734331135594402440e-06 1.491361672378843650e-05 4.994384198653278872e-06 5.009817982681852300e-07
5.182000000000000000e+03 3.916567230224609375e+01 -1.294243717193603516e+01 -2.479657450749073178e-05 3.774320703087141737e-06 -6.306675913947401568e-06 -1.211077778862090781e-05
5.183000000000000000e+03 4.223303985595703125e+01 -1.231785964965820312e+01 1.995410275412723422e-05 -3.599564934120280668e-06 4.906361482426291332e-06 5.381580649554962292e-06
5.184000000000000000e+03 7.173213195800781250e+01 -1.191369915008544922e+01 -6.919414550065994263e-02 5.578337669372558594e+00 1.652743101119995117e+00 -3.072802126407623291e-01
5.185000000000000000e+03 7.301921081542968750e+01 -1.245140552520751953e+01 -1.410465389490127563e-01 6.183429241180419922e+00 1.812714815139770508e+00 -4.557735025882720947e-01
5.186000000000000000e+03 7.169142913818359375e+01 -1.606886100769042969e+01 -3.555819690227508545e-01 5.237756729125976562e+00 1.464652419090270996e+00 -6.867083907127380371e-01
5.187000000000000000e+03 8.045886993408203125e+00 -1.144637393951416016e+01 -4.790943421539850533e-05 -3.789444917856599204e-06 -1.550966408103704453e-05 -1.084451014321530238e-05
5.188000000000000000e+03 7.639522075653076172e+00 9.009850502014160156e+00 4.051734504173509777e-05 6.935127748874947429e-05 3.296058639534749091e-05 -9.985866927308961749e-05
5.189000000000000000e+03 4.227393341064453125e+01 -3.338749170303344727e+00 2.720207157835830003e-05 4.267336043994873762e-05 2.096263051498681307e-05 3.923341864719986916e-05
5.190000000000000000e+03 7.403575897216796875e+00 -1.206860065460205078e+01 -3.983633359894156456e-05 -1.633463762118481100e-05 -1.685129063844215125e-05 -1.578582487127278000e-05
5.191000000000000000e+03 9.563750267028808594e+00 -1.159423160552978516e+01 -1.760179657139815390e-05 -3.461355663603171706e-05 -1.566460559843108058e-05 1.238866298081120476e-05
5.192000000000000000e+03 7.080314159393310547e+00 1.123013877868652344e+01 6.394185038516297936e-05 8.614028774900361896e-05 4.502464071265421808e-05 -1.190893890452571213e-04
5.193000000000000000e+03 4.398014450073242188e+01 -1.017181968688964844e+01 -1.921008879435248673e-05 -2.631281313369981945e-05 -1.365687057841569185e-05 -3.476757410680875182e-05
5.194000000000000000e+03 8.446086883544921875e+00 -1.178969764709472656e+01 8.757397154113277793e-06 -3.450718213571235538e-05 -7.724935130681842566e-06 4.040557996631832793e-06
5.195000000000000000e+03 8.038592338562011719e+00 1.920749855041503906e+01 4.555537452688440681e-05 1.349287485936656594e-04 5.414523548097349703e-05 -1.891404535854235291e-04
5.196000000000000000e+03 7.647783279418945312e+00 1.814891624450683594e+01 5.609123763861134648e-05 1.302137097809463739e-04 5.589148349827155471e-05 -1.846443192334845662e-04
5.197000000000000000e+03 9.951051712036132812e+00 2.456881141662597656e+01 -4.991235982743091881e-05 1.946834381669759750e-04 4.343132241046987474e-05 -2.501509734429419041e-04
5.198000000000000000e+03 7.112169647216796875e+01 -1.502269554138183594e+01 -1.392274349927902222e-01 4.778629302978515625e+00 1.391820549964904785e+00 -5.260404348373413086e-01
5.199000000000000000e+03 1.068031501770019531e+01 -8.211593627929687500e+00 2.389260043855756521e-05 7.752777491987217218e-06 9.493613106315024197e-06 -3.989429160355939530e-07
5.200000000000000000e+03 9.666802406311035156e+00 -7.873958587646484375e+00 1.623216303414665163e-05 6.880300588818499818e-06 6.933739314263220876e-06 1.351782793790334836e-05
5.201000000000000000e+03 8.692918777465820312e+00 2.720397567749023438e+01 6.084523920435458422e-05 3.023574536200612783e-04 1.089608049369417131e-04 -2.770811552181839943e-04
5.202000000000000000e+03 3.225688552856445312e+01 -8.278135299682617188e+00 3.575572554836980999e-05 -6.326752099994337186e-06 8.828692443785257638e-06 1.186065401270752773e-05
5.203000000000000000e+03 7.155754089355468750e+01 -1.117002296447753906e+01 -6.308671087026596069e-02 5.570483684539794922e+00 1.652219176292419434e+00 -2.228307574987411499e-01
5.204000000000000000e+03 8.444911003112792969e+00 1.513214492797851562e+01 7.444658695021644235e-05 7.661322888452559710e-05 4.531794547801837325e-05 -1.645539596211165190e-04
5.205000000000000000e+03 3.969672393798828125e+01 -1.321504306793212891e+01 1.724182584439404309e-05 -1.771601432665192988e-06 4.641067334887338802e-06 2.283280309711699374e-06
5.206000000000000000e+03 3.982550430297851562e+01 -1.397989177703857422e+01 3.095739884884096682e-06 -8.991863978735636920e-06 -1.768837250892829616e-06 -4.271747002349002287e-06
5.207000000000000000e+03 3.600851440429687500e+01 7.207808971405029297e+00 2.237798325950279832e-04 7.179354724939912558e-05 8.867201540851965547e-05 1.153787889052182436e-04
5.208000000000000000e+03 3.737205505371093750e+01 2.715100049972534180e+00 2.145214602933265269e-05 -3.229312642361037433e-05 -3.252294163758051582e-06 1.046630495693534613e-04
5.209000000000000000e+03 3.736508560180664062e+01 1.651835083961486816e+00 3.588505569496192038e-05 -1.409064498147927225e-05 6.538323304994264618e-06 6.409976049326360226e-05
5.210000000000000000e+03 1.122295093536376953e+01 -1.112254524230957031e+01 -2.284179390699137002e-05 -1.145186888606986031e-05 -1.028809856506995857e-05 -1.995586535485927016e-05
5.211000000000000000e+03 1.158176803588867188e+01 -1.000158500671386719e+01 2.385593688813969493e-05 1.267801781068556011e-05 1.096018604584969580e-05 1.213553423440316692e-05
5.212000000000000000e+03 3.220204544067382812e+01 -7.648949623107910156e+00 -2.436764953017700464e-05 9.393538107360654976e-07 -7.028489108051871881e-06 -1.421107072019367479e-06
5.213000000000000000e+03 4.314525222778320312e+01 -9.761582374572753906e+00 -1.128592521126847714e-05 -2.398252217972185463e-05 -1.058053476299392059e-05 -2.918177233368624002e-05
5.214000000000000000e+03 4.254133605957031250e+01 -1.160511302947998047e+01 -2.817179665726143867e-05 5.392634648160310462e-06 -6.833748557255603373e-06 -2.086536005663219839e-05
5.215000000000000000e+03 3.757349777221679688e+01 -1.144643592834472656e+01 -1.500561938883038238e-05 6.305346232693409547e-06 -2.610081992315826938e-06 -7.387684945570072159e-06
5.216000000000000000e+03 3.859166717529296875e+01 -1.269967937469482422e+01 1.610972685739398003e-05 4.680438451032387093e-06 6.237049547053175047e-06 3.563284508345532231e-06
5.217000000000000000e+03 3.843434524536132812e+01 -1.331035137176513672e+01 -1.913129563035909086e-05 -1.953047558345133439e-06 -6.325302820187062025e-06 -8.693890777067281306e-06
5.218000000000000000e+03 1.695937347412109375e+01 7.053459167480468750e+00 9.661911462899297476e-05 -4.676307798945344985e-05 1.495681044616503641e-05 -6.603808287763968110e-05
5.219000000000000000e+03 2.941253662109375000e+01 -4.664951801300048828e+00 2.855927959899418056e-05 2.466125260980334133e-05 1.596615948074031621e-05 5.726354174839798361e-06
5.220000000000000000e+03 1.963498687744140625e+01 5.288758277893066406e+00 1.020719282678328454e-04 -6.590784323634579778e-05 1.084922587324399501e-05 -2.118335214618127793e-05
5.221000000000000000e+03 2.069381904602050781e+01 3.643193006515502930e+00 1.772294635884463787e-04 -2.473415406711865216e-05 4.574859485728666186e-05 -3.730649041244760156e-05
5.222000000000000000e+03 3.423586273193359375e+01 1.813569641113281250e+01 3.207721456419676542e-04 -1.916161272674798965e-04 3.874680260196328163e-05 5.020137759856879711e-04
5.223000000000000000e+03 2.403171730041503906e+01 1.883440852165222168e+00 9.154702274827286601e-05 -6.600450433325022459e-05 7.662756615900434554e-06 3.013974856003187597e-05
5.224000000000000000e+03 8.242720603942871094e+00 1.353246212005615234e+01 3.099809691775590181e-05 7.478443876607343554e-05 3.173475852236151695e-05 -1.486763212596997619e-04
5.225000000000000000e+03 8.920352935791015625e+00 1.308953666687011719e+01 9.283254621550440788e-05 8.471887849736958742e-05 5.326543032424524426e-05 -1.557831710670143366e-04
5.226000000000000000e+03 4.084141921997070312e+01 -8.838283419609069824e-01 3.693566759466193616e-05 3.364972508279606700e-05 2.117561780323740095e-05 1.637699460843577981e-05
5.227000000000000000e+03 1.140498638153076172e+01 7.642090320587158203e+00 5.682853225152939558e-05 4.499882834352320060e-06 1.839852484408766031e-05 -8.048029121709987521e-05
5.228000000000000000e+03 3.539200973510742188e+01 -1.053880023956298828e+01 2.381714330113027245e-05 1.646064265514723957e-05 1.208333651447901502e-05 -7.495062618545489386e-06
5.229000000000000000e+03 7.303879547119140625e+01 -1.031160163879394531e+01 -1.146472692489624023e-01 6.436196327209472656e+00 1.896464705467224121e+00 -4.215455353260040283e-01
5.230000000000000000e+03 2.783931159973144531e+01 -1.197201371192932129e+00 6.350377225317060947e-05 -4.036867539980448782e-05 6.940530056454008445e-06 2.694402974157128483e-05
5.231000000000000000e+03 2.841882324218750000e+01 -1.963012695312500000e+00 5.943277210462838411e-05 2.541918547649402171e-05 2.545558709243778139e-05 5.234760010353056714e-06
5.232000000000000000e+03 4.273107147216796875e+01 -1.088219547271728516e+01 2.457034315739292651e-05 1.346118096989812329e-05 1.140945732913678512e-05 8.248128324339631945e-06
5.233000000000000000e+03 6.966644287109375000e+01 -1.411434173583984375e+01 1.338429898023605347e-01 3.866747617721557617e+00 1.200177192687988281e+00 -2.039420902729034424e-01
5.234000000000000000e+03 3.506574249267578125e+01 1.581308650970458984e+01 7.952297455631196499e-04 -1.081244772649370134e-04 2.061315899481996894e-04 2.519057015888392925e-04
5.235000000000000000e+03 3.402471160888671875e+01 1.459749221801757812e+01 7.086084806360304356e-04 -1.283262099605053663e-04 1.740846782922744751e-04 2.634155098348855972e-04
5.236000000000000000e+03 3.409615707397460938e+01 1.582342624664306641e+01 1.776707213139161468e-04 -6.547514931298792362e-05 3.365867087268270552e-05 3.384593874216079712e-04
5.237000000000000000e+03 7.013423919677734375e+01 -1.590030574798583984e+01 -7.236371934413909912e-02 3.916517734527587891e+00 1.153246164321899414e+00 -5.812426209449768066e-01
5.238000000000000000e+03 8.333198547363281250e+00 2.169745254516601562e+01 1.024633638735394925e-05 1.754111144691705704e-04 5.569723361986689270e-05 -1.959114597411826253e-04
5.239000000000000000e+03 1.936433982849121094e+01 6.378026008605957031e+00 1.153970879386179149e-04 -7.952825399115681648e-05 1.076064927474362776e-05 -3.214074968127533793e-05
5.240000000000000000e+03 1.914431571960449219e+01 7.453479766845703125e+00 1.304964680457487702e-04 -1.017666872940026224e-04 8.618933861725963652e-06 -3.176927202730439603e-05
5.241000000000000000e+03 2.082179069519042969e+01 5.428371906280517578e+00 1.037045512930490077e-04 -7.751161319902166724e-05 7.857879609218798578e-06 -1.321691706834826618e-05
5.242000000000000000e+03 7.138506317138671875e+01 -1.304208469390869141e+01 -3.721388801932334900e-02 5.170125961303710938e+00 1.539873600006103516e+00 -3.343893289566040039e-01
5.243000000000000000e+03 7.205255889892578125e+01 -1.252645206451416016e+01 -9.411691874265670776e-02 5.668038368225097656e+00 1.672176480293273926e+00 -3.734943866729736328e-01
5.244000000000000000e+03 2.986696434020996094e+01 -5.334567070007324219e+00 2.710674561967607588e-05 -1.359851648885523900e-05 4.052468739246251062e-06 6.615528491238364950e-06
5.245000000000000000e+03 3.084059524536132812e+01 -5.485263347625732422e+00 2.497189234418328851e-05 -9.626024620956741273e-06 4.603760771715315059e-06 7.300770903384545818e-06
5.246000000000000000e+03 2.732127189636230469e+01 -1.743263602256774902e+00 6.673509778920561075e-05 2.198280162701848894e-05 2.661537109815981239e-05 4.251634493357414613e-07
5.247000000000000000e+03 2.657955169677734375e+01 3.289108276367187500e-01 7.745999755570665002e-05 -5.328298357198946178e-05 7.253103376569924876e-06 3.484826811472885311e-05
5.248000000000000000e+03 2.590694808959960938e+01 1.078122973442077637e+00 1.218065517605282366e-04 8.163331585819832981e-06 3.899096554960124195e-05 -5.886980943614616990e-06
5.249000000000000000e+03 8.109170913696289062e+00 1.101392078399658203e+01 7.786500646034255624e-05 7.676977838855236769e-05 4.639043618226423860e-05 -1.261028664885088801e-04
5.250000000000000000e+03 4.420921325683593750e+01 -6.704356193542480469e+00 2.970558307424653322e-05 3.684979310492053628e-05 1.996661376324482262e-05 3.052963847949285991e-06
5.251000000000000000e+03 9.164658546447753906e+00 -8.592504501342773438e+00 -1.781485025276197121e-06 -7.975223525136243552e-06 -2.927012474174262024e-06 -9.272905117541085929e-06
5.252000000000000000e+03 4.152050018310546875e+01 -2.171411275863647461e+00 3.696548810694366693e-05 3.261641904828138649e-05 2.087457141897175461e-05 1.722663910186383873e-05
5.253000000000000000e+03 4.026527023315429688e+01 -1.291094064712524414e+00 -1.876067108241841197e-05 -7.260843517542525660e-07 -5.846026851941132918e-06 -9.329396561952307820e-06
5.254000000000000000e+03 3.437281417846679688e+01 1.932859039306640625e+01 1.196601893752813339e-03 -3.778485697694122791e-04 2.456259971950203180e-04 -9.510353265795856714e-06
5.255000000000000000e+03 2.331740760803222656e+01 2.534023523330688477e+00 1.592689222889021039e-04 -1.213767245644703507e-05 4.413937494973652065e-05 -2.220981514255981892e-05
5.256000000000000000e+03 2.259419631958007812e+01 3.146978378295898438e+00 9.604426304576918483e-05 -7.042298966553062201e-05 7.686382559768389910e-06 2.066831984848249704e-05
5.257000000000000000e+03 3.474051666259765625e+01 1.011185741424560547e+01 3.258996293880045414e-04 3.473036258583306335e-06 9.881180449156090617e-05 2.064536674879491329e-04
5.258000000000000000e+03 7.069270324707031250e+01 -1.704380989074707031e+01 -3.426250815391540527e-01 4.243718624114990234e+00 1.170328021049499512e+00 -8.531146049499511719e-01
5.259000000000000000e+03 4.438231277465820312e+01 -1.139378356933593750e+01 -1.495356082159560174e-05 -2.184508412028662860e-05 -1.103959311876678839e-05 -2.804874748107977211e-05
5.260000000000000000e+03 1.038060569763183594e+01 -8.737589836120605469e+00 -2.961320751637686044e-05 -4.188949844774469966e-07 -9.009630048240069300e-06 2.722502586038899608e-06
5.261000000000000000e+03 3.167726898193359375e+01 -6.687624454498291016e+00 1.393423008266836405e-05 -1.835579132603015751e-05 -1.326468122897495050e-06 5.008171228837454692e-06
5.262000000000000000e+03 3.040968704223632812e+01 -4.831019401550292969e+00 2.527819924580398947e-05 2.434815178276039660e-05 1.488790530856931582e-05 5.581391178566263989e-06
5.263000000000000000e+03 4.189811706542968750e+01 -2.771639108657836914e+00 -1.858151154010556638e-05 -2.239677633042447269e-05 -1.229348617926007137e-05 -3.657192064565606415e-05
5.264000000000000000e+03 1.764293479919433594e+01 8.897799491882324219e+00 1.960298686753958464e-04 -1.105154224205762148e-04 2.565433715062681586e-05 -5.294011134537868202e-05
5.265000000000000000e+03 3.463936614990234375e+01 2.056722068786621094e+01 5.827317945659160614e-04 -5.233772681094706059e-04 1.780635648174211383e-05 6.073857657611370087e-04
5.266000000000000000e+03 3.416181182861328125e+01 1.698179435729980469e+01 1.015832298435270786e-03 -3.049701626878231764e-04 2.132586232619360089e-04 1.636179367778822780e-04
5.267000000000000000e+03 7.299980926513671875e+01 -1.652987289428710938e+01 -5.375893115997314453e-01 6.238595008850097656e+00 1.710301637649536133e+00 -6.500334739685058594e-01
5.268000000000000000e+03 8.601979255676269531e+00 1.147227382659912109e+01 3.395299791009165347e-05 5.264446008368395269e-05 2.597923776193056256e-05 -1.231290661962702870e-04
5.269000000000000000e+03 3.663394546508789062e+01 4.197292327880859375e+00 1.937599154189229012e-04 9.974995919037610292e-05 8.805296238278970122e-05 7.041969183774199337e-06
5.270000000000000000e+03 3.606297683715820312e+01 6.181051254272460938e+00 -3.486372588668018579e-05 1.221939328388543800e-05 -6.793299689888954163e-06 9.318186494056135416e-05
5.271000000000000000e+03 3.729288101196289062e+01 3.866968631744384766e+00 -2.261627196276094764e-05 -4.962786988471634686e-05 -2.167324237234424800e-05 1.366763317491859198e-04
5.272000000000000000e+03 3.306057739257812500e+01 2.465982055664062500e+01 5.544532905332744122e-04 -7.770305965095758438e-04 -6.677319470327347517e-05 8.056439401116222143e-05
5.273000000000000000e+03 3.573370742797851562e+01 2.313689422607421875e+01 9.996464941650629044e-04 -1.100673573091626167e-03 -3.030812149518169463e-05 6.017884006723761559e-04
5.274000000000000000e+03 3.328476715087890625e+01 1.297552204132080078e+01 3.887054335791617632e-04 -2.075518859783187509e-04 5.434606646304018795e-05 2.454984642099589109e-04
5.275000000000000000e+03 3.371435928344726562e+01 1.089936542510986328e+01 3.515976422931998968e-04 -4.922076550428755581e-05 9.071306703845039010e-05 2.094187802867963910e-04
5.276000000000000000e+03 3.488831710815429688e+01 9.092438697814941406e+00 3.812769500655122101e-05 5.900101314182393253e-05 2.913861317210830748e-05 1.422234054189175367e-04
5.277000000000000000e+03 8.440642356872558594e+00 2.894174385070800781e+01 1.011634776659775525e-05 3.824805025942623615e-04 1.177790545625612140e-04 -2.650019887369126081e-04
5.278000000000000000e+03 9.289891242980957031e+00 3.105508995056152344e+01 -8.606413757661357522e-05 3.815792151726782322e-04 8.865451673045754433e-05 -2.943073923233896494e-04
5.279000000000000000e+03 9.401960372924804688e+00 2.003120613098144531e+01 5.038241943111643195e-05 1.034564702422358096e-04 4.615166471921838820e-05 -2.113633818225935102e-04
5.280000000000000000e+03 3.508604431152343750e+01 2.185323333740234375e+01 1.339993788860738277e-03 -3.266500134486705065e-04 3.040031297132372856e-04 -1.731977972667664289e-04
5.281000000000000000e+03 3.451876449584960938e+01 2.392131233215332031e+01 1.440152875147759914e-03 -5.788808921352028847e-04 2.583816240075975657e-04 -4.342198371887207031e-04
5.282000000000000000e+03 3.525265884399414062e+01 3.153211212158203125e+01 -2.483309945091605186e-04 -1.291360356844961643e-03 -4.619073879439383745e-04 -5.529777263291180134e-04
5.283000000000000000e+03 1.099565887451171875e+01 3.117607116699218750e+01 -4.569955126498825848e-05 2.573312667664140463e-04 6.348951137624680996e-05 -2.585823531262576580e-04
5.284000000000000000e+03 3.394816589355468750e+01 2.647436332702636719e+01 1.299178227782249451e-03 -8.058486855588853359e-04 1.479988568462431431e-04 -7.403939962387084961e-04
5.285000000000000000e+03 4.217571640014648438e+01 3.819402313232421875e+01 -3.795198397710919380e-03 -5.480605643242597580e-03 -2.782741328701376915e-03 -2.582044398877769709e-04
5.286000000000000000e+03 8.594804763793945312e+00 -8.884244918823242188e+00 6.612600373046007007e-06 1.494656771683366969e-05 6.467750608862843364e-06 1.705975410004612058e-05
5.287000000000000000e+03 1.015875911712646484e+01 -1.113571643829345703e+01 -2.084260086121503264e-05 -2.719269468798302114e-05 -1.441058884665835649e-05 1.531475618321564980e-06
5.288000000000000000e+03 1.022505855560302734e+01 -1.066053771972656250e+01 2.100758501910604537e-05 2.006121940212324262e-05 1.232064187206560746e-05 1.926226559589849785e-06
5.289000000000000000e+03 1.014036178588867188e+01 -8.006231307983398438e+00 -2.237363696622196585e-05 -7.373882453975966200e-06 -8.924255780584644526e-06 -3.015514266735408455e-06
5.290000000000000000e+03 3.766730499267578125e+01 1.017864644527435303e-01 -2.637356374179944396e-05 6.858931737951934338e-05 1.266472554561914876e-05 1.174043791252188385e-05
5.291000000000000000e+03 4.021438980102539062e+01 -4.218949794769287109e+00 2.895724537665955722e-05 4.458843977772630751e-05 2.206370481871999800e-05 -2.077694261970464140e-06
5.292000000000000000e+03 8.965363502502441406e+00 -1.158996677398681641e+01 1.512157632532762364e-05 3.454599573160521686e-05 1.490027170802932233e-05 6.463081376750778873e-07
5.293000000000000000e+03 7.259251403808593750e+01 -1.403841304779052734e+01 -1.738432049751281738e-01 5.844527244567871094e+00 1.701205253601074219e+00 -5.264584422111511230e-01
5.294000000000000000e+03 4.259062576293945312e+01 -8.462757110595703125e+00 -2.328080154256895185e-05 -2.489839425834361464e-05 -1.445375892217271030e-05 -2.316312202310655266e-05
5.295000000000000000e+03 9.876502037048339844e+00 2.290320968627929688e+01 2.669007926670019515e-06 1.445242669433355331e-04 4.415798321133479476e-05 -2.304570516571402550e-04
5.296000000000000000e+03 8.012976646423339844e+00 1.206353282928466797e+01 7.320941949728876352e-05 9.187991963699460030e-05 4.952680319547653198e-05 -1.347266661468893290e-04
5.297000000000000000e+03 3.225348281860351562e+01 -1.063803291320800781e+01 -2.438281853756052442e-06 6.216321708052419126e-06 1.133412069975747727e-06 7.271929462149273604e-06
5.298000000000000000e+03 3.575128936767578125e+01 -1.157444095611572266e+01 3.979676876042503864e-06 4.594266556523507461e-06 2.572182893345598131e-06 -3.386722482900950126e-06
5.299000000000000000e+03 4.076355361938476562e+01 -1.236561203002929688e+01 -1.967465323104988784e-05 2.044679831669782288e-06 -5.288991815177723765e-06 -1.548970976728014648e-05
5.300000000000000000e+03 4.117469024658203125e+01 -1.529261231422424316e+00 -1.733168028295040131e-05 -1.915186840051319450e-05 -1.094506478693801910e-05 -1.665684612817130983e-05
5.301000000000000000e+03 4.122208404541015625e+01 -1.091929817199707031e+01 -1.834438444348052144e-05 -4.017043011117493734e-06 -6.708428372803609818e-06 -2.565502654761075974e-05
5.302000000000000000e+03 8.658048629760742188e+00 1.034023284912109375e+01 3.198999547748826444e-05 4.580236418405547738e-05 2.333770862605888397e-05 -1.066141048795543611e-04
5.303000000000000000e+03 3.371173858642578125e+01 -1.089983272552490234e+01 6.598771960852900520e-06 -5.015393071516882628e-06 4.750136497477797093e-07 -3.849787390208803117e-06
5.304000000000000000e+03 4.153919982910156250e+01 -5.426600456237792969e+00 -2.615967969177290797e-05 -4.152269684709608555e-05 -2.030471296166069806e-05 -1.660447378526441753e-05
5.305000000000000000e+03 3.348917388916015625e+01 -1.013501167297363281e+01 6.155776759442233015e-07 1.810190588003024459e-05 5.615245299850357696e-06 6.776997906854376197e-06
5.306000000000000000e+03 3.687112426757812500e+01 2.123375892639160156e+00 5.552044603973627090e-05 8.764664380578324199e-05 4.295012695365585387e-05 -4.246450771461240947e-05
5.307000000000000000e+03 3.688335418701171875e+01 1.151204824447631836e+00 2.326105823158286512e-05 7.503294909838587046e-05 2.948820110759697855e-05 -1.635025114410382230e-06
5.308000000000000000e+03 8.260127067565917969e+00 1.583893013000488281e+01 4.184994395473040640e-05 1.409762917319312692e-04 5.484787106979638338e-05 -1.790423848433420062e-04
5.309000000000000000e+03 8.513493537902832031e+00 -1.003925418853759766e+01 -3.521821054164320230e-05 -7.283023933268850669e-06 -1.275037084269570187e-05 -2.655221123859519139e-06
5.310000000000000000e+03 4.172305297851562500e+01 -6.218507766723632812e+00 3.262233803980052471e-05 3.828389890259131789e-05 2.127186962752602994e-05 -4.014306114186183549e-07
5.311000000000000000e+03 8.963040351867675781e+00 -1.094223117828369141e+01 -2.728968684095889330e-05 -2.538716398703400046e-05 -1.580305433890316635e-05 -9.713020517665427178e-06
5.312000000000000000e+03 8.382431983947753906e+00 1.842850494384765625e+01 4.882439316133968532e-05 1.810913963709026575e-04 6.897473940625786781e-05 -2.250900579383596778e-04
5.313000000000000000e+03 3.257744979858398438e+01 -9.675407409667968750e+00 8.540816452295985073e-06 7.597717285534599796e-06 4.841559984924970195e-06 6.931490133865736425e-06
5.314000000000000000e+03 1.007905387878417969e+01 -1.000373363494873047e+01 2.702380334085319191e-05 -2.935203838205779903e-06 7.226579782582120970e-06 -9.948908882506657392e-06
5.315000000000000000e+03 8.595781326293945312e+00 1.451239299774169922e+01 3.809026748058386147e-05 1.159666717285290360e-04 4.621708285412751138e-05 -1.681429712334647775e-04
5.316000000000000000e+03 3.796828079223632812e+01 -1.244053840637207031e+01 -1.756783603923395276e-05 -1.557881660119164735e-06 -5.737715582654345781e-06 -1.104325565393082798e-05
5.317000000000000000e+03 3.605961227416992188e+01 -1.048104858398437500e+01 -1.511741902504581958e-05 -4.538220309768803418e-06 -5.896691618545446545e-06 -4.852182883041677997e-06
5.318000000000000000e+03 4.329028320312500000e+01 -8.307794570922851562e+00 2.643169500515796244e-05 2.815757943608332425e-05 1.637678178667556494e-05 8.578356755606364459e-06
5.319000000000000000e+03 4.280354690551757812e+01 -1.019388294219970703e+01 -2.213494553870987147e-05 -1.258610063814558089e-05 -1.041631367115769535e-05 -1.835497096180915833e-05
5.320000000000000000e+03 8.876783370971679688e+00 1.678057479858398438e+01 4.835480285692028701e-05 1.419760956196114421e-04 5.709926699637435377e-05 -1.986894349101930857e-04
5.321000000000000000e+03 9.017991065979003906e+00 1.597990036010742188e+01 8.033686754060909152e-05 7.919038034742698073e-05 4.785817509400658309e-05 -1.821350451791658998e-04
5.322000000000000000e+03 7.254568481445312500e+01 -1.563649559020996094e+01 -3.644380569458007812e-01 5.837254047393798828e+00 1.641844749450683594e+00 -6.302641034126281738e-01
5.323000000000000000e+03 9.498152732849121094e+00 -8.917299270629882812e+00 -2.083831532218027860e-05 1.936329908858169802e-06 -5.670595328410854563e-06 1.375243027723627165e-05
5.324000000000000000e+03 1.016862487792968750e+01 2.051031494140625000e+01 7.398876186925917864e-05 1.680025161476805806e-04 7.259738777065649629e-05 -2.931862545665353537e-04
5.325000000000000000e+03 7.151573944091796875e+01 -1.679381752014160156e+01 -4.547574818134307861e-01 5.018076419830322266e+00 1.368995666503906250e+00 -7.935719490051269531e-01
5.326000000000000000e+03 7.189119720458984375e+01 -1.535063457489013672e+01 -2.695677876472473145e-01 5.368838310241699219e+00 1.529781103134155273e+00 -6.276343464851379395e-01
5.327000000000000000e+03 4.145490646362304688e+01 -9.053560256958007812e+00 1.223576873599085957e-05 1.007137871056329459e-05 6.692144324915716425e-06 1.081266509572742507e-05
5.328000000000000000e+03 4.017762374877929688e+01 -1.206544494628906250e+01 1.790371970855630934e-05 4.490847459237556905e-06 6.718370059388689697e-06 5.917640919506084174e-06
5.329000000000000000e+03 3.640281677246093750e+01 1.600078463554382324e+00 -1.555380367790348828e-05 -1.286889300899929367e-06 -5.052207598055247217e-06 1.007216778816655278e-04
5.330000000000000000e+03 3.225866317749023438e+01 -6.948498249053955078e+00 3.616009053075686097e-05 2.330177085241302848e-05 1.783855805115308613e-05 1.053767118719406426e-05
5.331000000000000000e+03 3.118578529357910156e+01 -7.194877624511718750e+00 1.213267205457668751e-05 2.207893157901708037e-05 1.026348127197707072e-05 3.588603021853487007e-06
5.332000000000000000e+03 3.728630065917968750e+01 6.412978768348693848e-01 6.353250500978901982e-05 -1.439768129785079509e-05 1.474044620408676565e-05 2.650663918757345527e-05
5.333000000000000000e+03 4.336706924438476562e+01 -1.029181098937988281e+01 2.224663330707699060e-05 2.337963269383180887e-05 1.368787980027263984e-05 2.797120214381720871e-05
5.334000000000000000e+03 2.008558654785156250e+01 5.909030437469482422e+00 2.072618808597326279e-04 -3.537592419888824224e-05 5.156578845344483852e-05 -4.452898792806081474e-05
5.335000000000000000e+03 2.112106895446777344e+01 4.270458698272705078e+00 9.704211697680875659e-05 -6.911990203661844134e-05 8.376664482057094574e-06 1.899672611216374207e-06
5.336000000000000000e+03 9.462324142456054688e+00 2.946110534667968750e+01 -1.624488686502445489e-05 3.010386426467448473e-04 8.543812873540446162e-05 -2.419745287625119090e-04
5.337000000000000000e+03 7.152157592773437500e+01 -1.426136779785156250e+01 -1.080792546272277832e-01 5.153903961181640625e+00 1.513747453689575195e+00 -4.778113067150115967e-01
5.338000000000000000e+03 2.450457763671875000e+01 2.504441976547241211e+00 1.574601192260161042e-04 -7.079810984578216448e-06 4.511409497354179621e-05 -1.426576272933743894e-05
5.339000000000000000e+03 1.672695541381835938e+01 8.586509704589843750e+00 1.683060545474290848e-04 -7.630786967638414353e-06 4.820257890969514847e-05 -1.139854139182716608e-04
5.340000000000000000e+03 1.598483562469482422e+01 8.038423538208007812e+00 1.078126369975507259e-04 -5.996622348902747035e-05 1.435392459825379774e-05 -7.015666778897866607e-05
5.341000000000000000e+03 2.889380645751953125e+01 1.355896711349487305e+00 6.904234760440886021e-05 -4.420160257723182440e-05 7.452224053849931806e-06 5.438564039650373161e-05
5.342000000000000000e+03 2.722518920898437500e+01 -4.313988089561462402e-01 8.780277858022600412e-05 1.995429556700401008e-05 3.232712333556264639e-05 1.266831333168738638e-07
5.343000000000000000e+03 2.947201538085937500e+01 -3.444576501846313477e+00 3.960269532399252057e-05 2.522198155929800123e-05 1.944740324688609689e-05 7.216643552965251729e-06
5.344000000000000000e+03 2.950708198547363281e+01 -2.182236671447753906e+00 5.271243935567326844e-05 2.550572025938890874e-05 2.346544715692289174e-05 9.526433132123202085e-06
5.345000000000000000e+03 9.207393646240234375e+00 1.085421466827392578e+01 9.189861157210543752e-05 6.550352554768323898e-05 4.722064113593660295e-05 -1.305282494286075234e-04
5.346000000000000000e+03 3.508236312866210938e+01 7.073884487152099609e+00 9.101992873183917254e-06 2.677762677194550633e-05 1.076388616638723761e-05 1.046791076078079641e-04
5.347000000000000000e+03 3.328182601928710938e+01 1.952472877502441406e+01 3.968355886172503233e-04 -2.955771633423864841e-04 3.037752139789517969e-05 4.069149144925177097e-04
5.348000000000000000e+03 3.230442047119140625e+01 1.603252792358398438e+01 1.987917057704180479e-04 -8.503489516442641616e-05 3.412704245420172811e-05 3.120285982731729746e-04
5.349000000000000000e+03 2.995321655273437500e+01 -4.149523735046386719e+00 3.426705734455026686e-05 -1.471037830924615264e-05 5.867003892490174621e-06 1.140505628427490592e-05
5.350000000000000000e+03 3.001494789123535156e+01 -2.925908088684082031e+00 4.225533484714105725e-05 -1.634852924325969070e-05 7.772041499265469611e-06 1.723598325042985380e-05
5.351000000000000000e+03 3.600968551635742188e+01 5.203962326049804688e+00 1.687732437858358026e-04 1.152741897385567427e-04 8.521423296770080924e-05 9.831161878537386656e-05
5.352000000000000000e+03 3.297476196289062500e+01 1.471460628509521484e+01 9.555669385008513927e-05 -1.161981344921514392e-04 -6.192431101226247847e-06 2.972301736008375883e-04
5.353000000000000000e+03 2.838114738464355469e+01 -6.357394456863403320e-01 7.846196240279823542e-05 2.487007441231980920e-05 3.099961031693965197e-05 5.498951395566109568e-06
5.354000000000000000e+03 2.896477699279785156e+01 -1.415555596351623535e+00 5.858715667272917926e-05 -3.226639455533586442e-05 7.896229362813755870e-06 2.574521022324915975e-05
5.355000000000000000e+03 2.186162757873535156e+01 3.724399089813232422e+00 1.846852537710219622e-04 -2.461441181367263198e-05 4.802125476999208331e-05 -3.220171493012458086e-05
5.356000000000000000e+03 2.156500434875488281e+01 4.925318717956542969e+00 2.095764066325500607e-04 -3.478352664387784898e-05 5.243786290520802140e-05 -3.411369834793731570e-05
5.357000000000000000e+03 3.348727798461914062e+01 2.091370201110839844e+01 1.274760463275015354e-03 -5.835396004840731621e-04 2.073662617476657033e-04 -1.440940250176936388e-04
5.358000000000000000e+03 8.052230834960937500e+00 9.952654838562011719e+00 6.735308852512389421e-05 7.003079372225329280e-05 4.121516394661739469e-05 -1.217748140334151685e-04
5.359000000000000000e+03 2.378181266784667969e+01 3.171168565750122070e+00 9.801490523386746645e-05 -7.438975444529205561e-05 7.087545782269444317e-06 2.996285729750525206e-05
5.360000000000000000e+03 1.846444129943847656e+01 7.909890651702880859e+00 2.254422288388013840e-04 -4.450528285815380514e-05 5.428108488558791578e-05 -1.043681404553353786e-04
5.361000000000000000e+03 1.744104766845703125e+01 7.585711956024169922e+00 2.078515681205317378e-04 -4.993472975911572576e-05 4.737505150842480361e-05 -7.195728539954870939e-05
5.362000000000000000e+03 3.125226593017578125e+01 -6.109762668609619141e+00 1.364461422781459987e-05 2.698733260331209749e-05 1.218958368554012850e-05 5.760946351074380800e-06
5.363000000000000000e+03 3.138590240478515625e+01 -5.021165847778320312e+00 2.071271592285484076e-05 2.286750714119989425e-05 1.307406637351959944e-05 2.354344360355753452e-06
5.364000000000000000e+03 9.216179847717285156e+00 9.572950363159179688e+00 8.585915202274918556e-05 6.193898298079147935e-05 4.433944195625372231e-05 -1.209317197208292782e-04
5.365000000000000000e+03 3.319757843017578125e+01 1.705156707763671875e+01 2.021871914621442556e-04 -8.618399442639201880e-05 3.480095620034262538e-05 3.692040918394923210e-04
5.366000000000000000e+03 2.641771316528320312e+01 1.688511729240417480e+00 8.562784205423668027e-05 -6.114982534199953079e-05 7.343406196014257148e-06 4.293628808227367699e-05
5.367000000000000000e+03 2.304979133605957031e+01 3.799396753311157227e+00 1.882224460132420063e-04 -2.236506225017365068e-05 4.975721458322368562e-05 -2.460965515638235956e-05
5.368000000000000000e+03 2.231036186218261719e+01 4.384243011474609375e+00 1.007795654004439712e-04 -7.818546873750165105e-05 6.778229817427927628e-06 1.346935005130944774e-05
5.369000000000000000e+03 4.277909469604492188e+01 -6.886479377746582031e+00 3.217023186152800918e-05 3.148597170365974307e-05 1.909686034196056426e-05 6.287681571848224849e-06
5.370000000000000000e+03 4.231930923461914062e+01 -7.750550270080566406e+00 2.905425208155065775e-05 3.044300319743342698e-05 1.784917731129098684e-05 6.941837455087807029e-06
5.371000000000000000e+03 8.906023025512695312e+00 2.087635612487792969e+01 6.747323641320690513e-05 2.082770224660634995e-04 8.272507693618535995e-05 -2.805168041959404945e-04
5.372000000000000000e+03 9.655146598815917969e+00 2.140661048889160156e+01 3.412487421883270144e-05 1.202387647936120629e-04 4.630909097613766789e-05 -2.198758447775617242e-04
5.373000000000000000e+03 1.843996047973632812e+01 9.784689903259277344e+00 2.191745152231305838e-04 -7.493279554182663560e-05 4.327251735958270729e-05 -9.412190411239862442e-05
5.374000000000000000e+03 1.702794647216796875e+01 7.996838569641113281e+00 1.290943619096651673e-04 -6.679067155346274376e-05 1.869110747065860778e-05 -7.522761006839573383e-05
5.375000000000000000e+03 7.421834945678710938e+00 9.683517456054687500e+00 3.981121335527859628e-05 4.848240860155783594e-05 2.648808549565728754e-05 -8.321803761646151543e-05
5.376000000000000000e+03 4.099777221679687500e+01 -1.166263771057128906e+01 1.812660411815159023e-05 4.990531124349217862e-06 6.935140390851302072e-06 7.789506526023615152e-06
5.377000000000000000e+03 3.413378906250000000e+01 1.336128997802734375e+01 1.871045242296531796e-04 5.085377779323607683e-05 7.138749060686677694e-05 2.059479011222720146e-04
5.378000000000000000e+03 3.352677917480468750e+01 1.193025684356689453e+01 2.052077761618420482e-04 2.720709380810149014e-05 6.972446135478094220e-05 1.980617380468174815e-04
5.379000000000000000e+03 4.060951232910156250e+01 -1.927516460418701172e+00 3.972323247580789030e-05 2.906176086980849504e-05 2.063549800368491560e-05 1.308683931711129844e-05
5.380000000000000000e+03 4.139400100708007812e+01 -3.204750537872314453e+00 1.390179477311903611e-05 1.401071585860336199e-05 8.373753189516719431e-06 2.547248550399672240e-05
5.381000000000000000e+03 3.049702835083007812e+01 -3.647998571395874023e+00 3.546412335708737373e-05 2.336897705390583724e-05 1.764993066899478436e-05 6.857399966975208372e-06
5.382000000000000000e+03 1.430144405364990234e+01 8.580777168273925781e+00 1.488358393544331193e-04 1.328363396169152111e-05 4.863584399572573602e-05 -1.171488620457239449e-04
5.383000000000000000e+03 1.122647571563720703e+01 8.976464271545410156e+00 5.445807255455292761e-05 1.112614791054511443e-05 1.967526623047888279e-05 -9.519515879219397902e-05
5.384000000000000000e+03 9.068985939025878906e+00 1.199549293518066406e+01 8.461034303763881326e-05 8.228636579588055611e-05 5.006901119486428797e-05 -1.414241123711690307e-04
5.385000000000000000e+03 3.214581298828125000e+01 1.827363204956054688e+01 3.467543283477425575e-04 -1.657585671637207270e-04 5.429872544482350349e-05 2.416103816358372569e-04
5.386000000000000000e+03 3.211856842041015625e+01 -6.283897876739501953e+00 1.815216137401876040e-06 1.999951928155496716e-05 6.544420557474950328e-06 -7.685933269385714084e-06
5.387000000000000000e+03 1.503291606903076172e+01 9.289375305175781250e+00 1.094550243578851223e-04 -5.348297781893052161e-05 1.679161323409061879e-05 -9.705976117402315140e-05
5.388000000000000000e+03 1.551407527923583984e+01 8.612355232238769531e+00 1.734687539283186197e-04 -1.186735971714369953e-05 4.848041862715035677e-05 -1.114361657528206706e-04
5.389000000000000000e+03 2.521352958679199219e+01 1.805373787879943848e+00 8.957226236816495657e-05 -6.538611341966316104e-05 7.255845957843121141e-06 3.704510527313686907e-05
5.390000000000000000e+03 3.637116241455078125e+01 2.562501192092895508e+00 1.364195759379072115e-05 -2.394741932221222669e-05 -3.091638291152776219e-06 1.606751175131648779e-04
5.391000000000000000e+03 3.685569763183593750e+01 3.146796226501464844e+00 8.675912249600514770e-05 1.255929964827373624e-04 6.370563642121851444e-05 -5.987637996440753341e-05
5.392000000000000000e+03 3.500585174560546875e+01 8.078246116638183594e+00 2.451103355269879103e-04 4.454780719242990017e-05 8.689744572620838881e-05 1.450409763492643833e-04
5.393000000000000000e+03 1.093912124633789062e+01 2.929326438903808594e+01 -1.141715401900000870e-04 2.893378841690719128e-04 5.254990537650883198e-05 -3.420349967200309038e-04
5.394000000000000000e+03 1.459566116333007812e+01 3.689741897583007812e+01 -2.493014617357403040e-04 1.872917491709813476e-04 -1.860291376942768693e-05 -1.075186737580224872e-04
5.395000000000000000e+03 3.359078216552734375e+01 2.955151748657226562e+01 8.775030728429555893e-04 -1.009739935398101807e-03 -3.967106385971419513e-05 -1.139543601311743259e-03
5.396000000000000000e+03 9.733062744140625000e+00 2.643049049377441406e+01 -1.026571553666144609e-04 2.648147055879235268e-04 4.864726361120119691e-05 -2.940415870398283005e-04
5.397000000000000000e+03 9.322743415832519531e+00 2.824315643310546875e+01 -9.269308065995573997e-05 3.015632100868970156e-04 6.266103446250781417e-05 -3.123735659755766392e-04
5.398000000000000000e+03 1.483330345153808594e+01 3.098984146118164062e+01 -3.609638952184468508e-05 4.865100709139369428e-05 3.766385589187848382e-06 -3.338831593282520771e-04
5.399000000000000000e+03 1.266134548187255859e+01 3.364523315429687500e+01 -1.303528988501057029e-04 2.200323942815884948e-04 2.690385008463636041e-05 -2.076749660773202777e-04
5.400000000000000000e+03 7.079563140869140625e+01 -1.375344753265380859e+01 -1.109369285404682159e-02 4.724104404449462891e+00 1.413903236389160156e+00 -3.284968733787536621e-01
5.401000000000000000e+03 3.248612213134765625e+01 -4.192183494567871094e+00 2.109632623614743352e-05 2.032286283792927861e-05 1.242575672222301364e-05 -5.324191079125739634e-06
5.402000000000000000e+03 3.998259735107421875e+01 -4.868591785430908203e+00 -7.935977009765338153e-06 -2.567997034930158406e-05 -1.008478466246742755e-05 -2.301654376424266957e-06
5.403000000000000000e+03 1.179496574401855469e+01 9.740877151489257812e+00 1.215922820847481489e-04 3.363720315974205732e-05 4.656884630094282329e-05 -1.352256804239004850e-04
5.404000000000000000e+03 1.309938335418701172e+01 8.464045524597167969e+00 1.344659685855731368e-04 2.240092726424336433e-05 4.706007166532799602e-05 -1.185001383419148624e-04
5.405000000000000000e+03 9.230083465576171875e+00 1.448733520507812500e+01 9.830963244894519448e-05 5.723931826651096344e-05 4.666468521463684738e-05 -1.590685424162074924e-04
5.406000000000000000e+03 7.200048065185546875e+01 -1.359491157531738281e+01 -1.220985129475593567e-01 5.499511241912841797e+00 1.613223910331726074e+00 -4.597575068473815918e-01
5.407000000000000000e+03 1.064218997955322266e+01 -1.067776775360107422e+01 -7.810416718712076545e-06 -2.399734148639254272e-05 -9.542327461531385779e-06 -1.621068076929077506e-05
5.408000000000000000e+03 1.094186592102050781e+01 -1.003923320770263672e+01 1.334754301751672756e-06 -1.802623228286392987e-05 -5.007443633076036349e-06 -2.103297993016894907e-05
5.409000000000000000e+03 3.473084640502929688e+01 -9.013837814331054688e+00 -2.239245259261224419e-05 -7.780688065395224839e-06 -9.051942470250651240e-06 9.024591236084233969e-06
5.410000000000000000e+03 3.534897994995117188e+01 -9.807652473449707031e+00 -1.861782948253676295e-05 -6.442678568419069052e-06 -7.518152415286749601e-06 8.586121111875399947e-06
5.411000000000000000e+03 3.976877593994140625e+01 -1.116937255859375000e+01 1.454449284210568294e-05 1.383787821396254003e-05 8.514711225870996714e-06 7.364436896750703454e-06
5.412000000000000000e+03 8.539409637451171875e+00 1.399497318267822266e+01 8.531186176696792245e-05 9.480930020799860358e-05 5.403634713729843497e-05 -1.592886255821213126e-04
5.413000000000000000e+03 9.521341323852539062e+00 1.256122684478759766e+01 5.639775554300285876e-05 3.592710709199309349e-05 2.769745879049878567e-05 -1.399037573719397187e-04
5.414000000000000000e+03 9.181533813476562500e+00 -1.029028701782226562e+01 3.245265907025896013e-05 7.224389719340251759e-06 1.190311468235449865e-05 3.302925961179425940e-06
5.415000000000000000e+03 7.093143463134765625e+01 -1.582962417602539062e+01 -1.916477680206298828e-01 4.546708106994628906e+00 1.306518077850341797e+00 -6.338994503021240234e-01
5.416000000000000000e+03 4.153684234619140625e+01 -4.703136444091796875e+00 3.526037107803858817e-05 4.384070052765309811e-05 2.373032111790962517e-05 1.773868461896199733e-06
5.417000000000000000e+03 1.181145763397216797e+01 2.455984306335449219e+01 -4.332234311732463539e-06 1.020450072246603668e-04 2.931383096438366920e-05 -2.690050459932535887e-04
5.418000000000000000e+03 3.728967666625976562e+01 -1.215091419219970703e+01 1.196599805552978069e-05 1.299418272537877783e-05 7.488054507120978087e-06 1.026776544676977210e-06
5.419000000000000000e+03 3.704302597045898438e+01 -1.087491226196289062e+01 -1.088120029635319952e-07 1.140118186526706268e-07 1.559944284856840113e-09 3.082010948673996609e-07
5.420000000000000000e+03 3.374895858764648438e+01 -8.277259826660156250e+00 2.361907036174670793e-06 9.156468877336010337e-06 3.455512796790571883e-06 -4.994118171453010291e-06
5.421000000000000000e+03 3.239045715332031250e+01 -8.949710845947265625e+00 -1.043951124302111566e-05 5.396037522586993873e-06 -1.513042093392868992e-06 6.895406272633408662e-07
5.422000000000000000e+03 4.380078125000000000e+01 -1.214709186553955078e+01 -2.338679405511356890e-05 -1.240396250068442896e-05 -1.073722705768886954e-05 -3.669485158752650023e-05
5.423000000000000000e+03 3.899242782592773438e+01 -5.283832550048828125e-01 5.115193926030769944e-05 6.447728992498014122e-06 1.727990093058906496e-05 1.754848926793783903e-05
5.424000000000000000e+03 1.060061550140380859e+01 1.601503562927246094e+01 1.184075808851048350e-04 5.563668310060165823e-05 5.221327955950982869e-05 -2.021122927544638515e-04
5.425000000000000000e+03 9.741703987121582031e+00 1.693480491638183594e+01 8.829688886180520058e-05 7.347004429902881384e-05 4.853008067584596574e-05 -2.043843996943905950e-04
5.426000000000000000e+03 1.091624355316162109e+01 1.779552459716796875e+01 1.381183683406561613e-04 6.921635940670967102e-05 6.220042268978431821e-05 -2.338118938496336341e-04
5.427000000000000000e+03 9.112643241882324219e+00 1.876479530334472656e+01 5.941477138549089432e-05 9.665267134550958872e-05 4.682023427449166775e-05 -2.062049170490354300e-04
5.428000000000000000e+03 9.138622283935546875e+00 1.521865177154541016e+01 4.756077396450564265e-05 1.122264729929156601e-04 4.793617335963062942e-05 -1.913804298965260386e-04
5.429000000000000000e+03 9.795794486999511719e+00 1.605249786376953125e+01 5.776807665824890137e-05 9.944423800334334373e-05 4.716369221569038928e-05 -2.082994178635999560e-04
5.430000000000000000e+03 4.284141159057617188e+01 -9.162648200988769531e+00 2.217343899246770889e-05 2.988720916619058698e-05 1.561819408379960805e-05 1.381130186928203329e-05
5.431000000000000000e+03 3.329877471923828125e+01 -7.530673027038574219e+00 3.124900331386015750e-06 9.528126611257903278e-06 3.795908241954748519e-06 1.172321208287030458e-05
5.432000000000000000e+03 3.306605148315429688e+01 -8.654732704162597656e+00 1.226282802235800773e-05 8.401077138842083514e-06 6.199171366461087018e-06 -1.998757959142949403e-08
5.433000000000000000e+03 9.700825691223144531e+00 1.145660114288330078e+01 4.368491863715462387e-05 3.872534216498024762e-05 2.472307824064046144e-05 -1.328341895714402199e-04
5.434000000000000000e+03 3.644735336303710938e+01 7.385936975479125977e-01 5.869344386155717075e-05 -1.168066864920547232e-05 1.410383265465497971e-05 3.160716732963919640e-05
5.435000000000000000e+03 3.274971389770507812e+01 -7.977818489074707031e+00 1.123449419537791982e-05 2.310543095518369228e-05 1.030197745421901345e-05 2.309733275751568726e-07
5.436000000000000000e+03 1.046810531616210938e+01 -1.030115318298339844e+01 -1.547314786876086146e-05 9.251472874893806875e-06 -1.866502771008526906e-06 1.305663863604422659e-05
5.437000000000000000e+03 3.709846878051757812e+01 -3.736530542373657227e-01 9.046118066180497408e-05 -2.736557144089601934e-05 1.892868385766632855e-05 2.331769792363047600e-05
5.438000000000000000e+03 4.071534347534179688e+01 -5.229034423828125000e+00 2.693552960408851504e-05 4.091193113708868623e-05 2.035423858615104109e-05 -2.376608335907803848e-06
5.439000000000000000e+03 4.183708572387695312e+01 -3.652048349380493164e+00 5.451835022540763021e-06 -2.288767427671700716e-05 -5.230751867202343419e-06 -3.742698754649609327e-05
5.440000000000000000e+03 9.987715721130371094e+00 -9.218750000000000000e+00 3.048791950277518481e-05 -7.368679234787123278e-06 6.935772034921683371e-06 -1.134237663791282102e-05
5.441000000000000000e+03 8.968165397644042969e+00 -9.387583732604980469e+00 2.721290366025641561e-05 -7.274611562024801970e-06 5.981487902317894623e-06 -1.410204822605010122e-05
5.442000000000000000e+03 1.246943378448486328e+01 9.090376853942871094e+00 7.113951141946017742e-05 -8.250703103840351105e-06 1.886664176709018648e-05 -9.707174467621371150e-05
5.443000000000000000e+03 1.038955116271972656e+01 1.094557094573974609e+01 1.185175497084856033e-04 4.463138247956521809e-05 4.894467929261736572e-05 -1.411570992786437273e-04
5.444000000000000000e+03 3.016199684143066406e+01 -3.130481541156768799e-01 6.415123789338395000e-05 -2.571648656157776713e-05 1.153042649093549699e-05 3.248265784350223839e-05
5.445000000000000000e+03 1.191026687622070312e+01 8.355499267578125000e+00 1.171396070276387036e-04 3.222598388674668968e-05 4.480967618292197585e-05 -1.166094589279964566e-04
5.446000000000000000e+03 3.007450103759765625e+01 -1.657552838325500488e+00 5.201630119699984789e-05 -1.907659498101565987e-05 9.881911864795256406e-06 2.365788895986042917e-05
5.447000000000000000e+03 3.588350677490234375e+01 4.324295997619628906e+00 -5.562420483329333365e-05 3.253556315030436963e-06 -1.571119537402410060e-05 2.894576209655497223e-05
5.448000000000000000e+03 2.954214859008789062e+01 -8.623105287551879883e-01 6.798718095524236560e-05 2.663559826032724231e-05 2.838683212758041918e-05 1.158291888714302331e-05
5.449000000000000000e+03 1.143454933166503906e+01 2.263756942749023438e+01 3.737582665053196251e-05 7.777967402944341302e-05 3.454665056779049337e-05 -2.606907219160348177e-04
5.450000000000000000e+03 3.510734939575195312e+01 6.098628520965576172e+00 1.808419910958036780e-04 8.656288264319300652e-05 8.022146357689052820e-05 1.103631366277113557e-04
5.451000000000000000e+03 4.204156112670898438e+01 -7.005581378936767578e+00 -2.061513077933341265e-05 -3.257114076404832304e-05 -1.595588037162087858e-05 -1.822076410462614149e-05
5.452000000000000000e+03 3.935673904418945312e+01 -1.103795170783996582e+00 -1.892358341137878597e-05 2.022198532358743250e-05 3.895205793469358468e-07 -6.045737336535239592e-06
5.453000000000000000e+03 3.303069305419921875e+01 -3.782827138900756836e+00 3.296952127129770815e-05 1.300060603171004914e-06 1.028087535814847797e-05 3.166098758811131120e-05
5.454000000000000000e+03 9.947409629821777344e+00 1.448342227935791016e+01 5.225981294643133879e-05 9.303652768721804023e-05 4.358890146249905229e-05 -2.015369682339951396e-04
5.455000000000000000e+03 2.127329635620117188e+01 6.105401992797851562e+00 2.286342787556350231e-04 -4.348225775174796581e-05 5.554560630116611719e-05 -3.065542841795831919e-05
5.456000000000000000e+03 2.053915214538574219e+01 6.547245025634765625e+00 1.237518299603834748e-04 -9.458216663915663958e-05 8.750896995479706675e-06 -3.280535747762769461e-05
5.457000000000000000e+03 3.401102066040039062e+01 8.911255836486816406e+00 2.766765537671744823e-04 6.625807145610451698e-06 8.499070827383548021e-05 1.586295547895133495e-04
5.458000000000000000e+03 3.410894393920898438e+01 7.931988716125488281e+00 5.235577555140480399e-05 2.567614319559652358e-05 2.340957689739298075e-05 1.207228051498532295e-04
5.459000000000000000e+03 3.180377960205078125e+01 1.365653324127197266e+01 2.622613101266324520e-04 -3.647099583758972585e-05 6.773709901608526707e-05 5.402596434578299522e-05
5.460000000000000000e+03 1.964441299438476562e+01 8.068849563598632812e+00 2.082433347823098302e-04 -1.906319994304794818e-05 5.675403735949657857e-05 -9.094148845179006457e-05
5.461000000000000000e+03 1.901037216186523438e+01 8.555355072021484375e+00 1.355678978143259883e-04 -1.117580613936297596e-04 7.142949016269994900e-06 -1.937932393047958612e-05
5.462000000000000000e+03 2.277865791320800781e+01 5.083669662475585938e+00 2.168731298297643661e-04 -3.437637496972456574e-05 5.474902718560770154e-05 -2.660640348040033132e-05
5.463000000000000000e+03 4.161443710327148438e+01 -7.918097496032714844e+00 -1.807696753530763090e-05 -2.956763091788161546e-05 -1.429337953595677391e-05 -1.529301698610652238e-05
5.464000000000000000e+03 3.095610809326171875e+01 -4.347120761871337891e+00 2.965896965179126710e-05 -7.511069725296692923e-06 6.644369932473637164e-06 1.323429569310974330e-05
5.465000000000000000e+03 3.056619262695312500e+01 -2.427805900573730469e+00 4.780251401825807989e-05 2.128082815033849329e-05 2.072500319627579302e-05 1.005539434117963538e-05
5.466000000000000000e+03 2.571609878540039062e+01 2.431532382965087891e+00 1.535542978672310710e-04 -5.125279471940302756e-07 4.591253309627063572e-05 -5.923558092035818845e-06
5.467000000000000000e+03 2.499915695190429688e+01 3.145627737045288086e+00 9.578479512128978968e-05 -7.465499220415949821e-05 6.338942057482199743e-06 3.962413757108151913e-05
5.468000000000000000e+03 2.171439743041992188e+01 6.850269317626953125e+00 1.180415929411537945e-04 -9.683769894763827324e-05 6.361169653246179223e-06 -3.077244036830961704e-05
5.469000000000000000e+03 1.852396011352539062e+01 9.116918563842773438e+00 1.786259672371670604e-04 -1.170768791780574247e-05 5.007548315916210413e-05 -1.275256654480472207e-04
5.470000000000000000e+03 2.426792144775390625e+01 3.829458713531494141e+00 1.903483789646998048e-04 -1.863264697021804750e-05 5.151471850695088506e-05 -1.407055970048531890e-05
5.471000000000000000e+03 2.352795982360839844e+01 4.478631973266601562e+00 1.057566405506804585e-04 -8.557389810448512435e-05 6.054823643353302032e-06 2.458606832078658044e-05
5.472000000000000000e+03 3.879248046875000000e+01 -1.212254810333251953e+01 -2.453192973916884512e-05 4.335775429353816435e-06 -6.058846338419243693e-06 -1.303348381043178961e-05
5.473000000000000000e+03 3.937708663940429688e+01 -1.238908767700195312e+01 1.943228744494263083e-05 2.327365564269712195e-06 6.527895948238437995e-06 4.438606538315070793e-06
5.474000000000000000e+03 4.086462783813476562e+01 -4.511313438415527344e+00 -1.406155479344306514e-05 -3.045863195438869298e-05 -1.335605611529899761e-05 2.802556537062628195e-06
5.475000000000000000e+03 3.285220336914062500e+01 1.065932559967041016e+01 1.855782466009259224e-04 -8.226460522564593703e-06 5.320553827914409339e-05 1.697288098512217402e-04
5.476000000000000000e+03 2.764507675170898438e+01 1.539757847785949707e+00 7.913754961919039488e-05 -5.391596641857177019e-05 7.566475233033997938e-06 4.877717583440244198e-05
5.477000000000000000e+03 3.026507759094238281e+01 1.659318161010742188e+01 5.342987715266644955e-04 -4.737621056847274303e-04 1.816098847484681755e-05 1.624919095775112510e-04
5.478000000000000000e+03 3.412743759155273438e+01 -9.901667594909667969e+00 -8.686728506290819496e-06 -2.817474523908458650e-06 -3.451260909059783444e-06 -1.920189106385805644e-06
5.479000000000000000e+03 9.840052604675292969e+00 1.022276115417480469e+01 4.147338768234476447e-05 2.943940125987865031e-05 2.127383595507126302e-05 -1.070543512469157577e-04
5.480000000000000000e+03 3.150073814392089844e+01 -3.891358613967895508e+00 3.041421041416469961e-05 2.105934436258394271e-05 1.544206679682247341e-05 1.623507159820292145e-06
5.481000000000000000e+03 3.213431930541992188e+01 1.963700675964355469e+01 1.098945504054427147e-03 -6.300525856204330921e-04 1.406678638886660337e-04 -1.359910947940079495e-05
5.482000000000000000e+03 3.125811195373535156e+01 1.693711853027343750e+01 4.453595611266791821e-04 -1.175451325252652168e-04 9.834432421484962106e-05 1.040008137351833284e-04
5.483000000000000000e+03 3.581722640991210938e+01 2.027189254760742188e+00 1.130119271692819893e-04 5.881466859136708081e-05 5.154798054718412459e-05 -7.128846482373774052e-05
5.484000000000000000e+03 1.048957252502441406e+01 2.199540519714355469e+01 7.927956903586164117e-05 1.777451689122244716e-04 7.710741920163854957e-05 -3.210055001545697451e-04
5.485000000000000000e+03 3.252557754516601562e+01 1.267518424987792969e+01 1.114620972657576203e-04 4.193706445221323520e-06 3.469673902145586908e-05 1.446108944946900010e-04
5.486000000000000000e+03 4.209325408935546875e+01 -1.065537261962890625e+01 -3.351733903400599957e-05 6.981948899920098484e-06 -7.960617040225770324e-06 -2.171890264435205609e-05
5.487000000000000000e+03 2.895400428771972656e+01 -5.924127250909805298e-02 6.669892172794789076e-05 -3.912320971721783280e-05 8.272712875623255968e-06 3.797388126258738339e-05
5.488000000000000000e+03 2.831665802001953125e+01 7.432443499565124512e-01 1.037484180415049195e-04 2.182908428949303925e-05 3.767325324588455260e-05 5.957790108368499205e-06
5.489000000000000000e+03 3.103951835632324219e+01 -3.170516967773437500e+00 3.473010292509570718e-05 -4.798959253093926236e-06 8.979343874671030790e-06 2.018610393861308694e-05
5.490000000000000000e+03 1.982619667053222656e+01 6.996086597442626953e+00 2.070618211291730404e-04 -2.886061520257499069e-05 5.346036050468683243e-05 -5.675041757058352232e-05
5.491000000000000000e+03 1.372165870666503906e+01 9.192621231079101562e+00 8.320329652633517981e-05 -2.816582127707079053e-05 1.651124330237507820e-05 -9.391007915837690234e-05
5.492000000000000000e+03 1.085310459136962891e+01 2.562117195129394531e+01 1.147875373135320842e-04 1.739894796628504992e-04 8.663311018608510494e-05 -3.572105779312551022e-04
5.493000000000000000e+03 3.508815383911132812e+01 5.166610240936279297e+00 -2.437587909298599698e-06 -9.204713933286257088e-06 -3.492690666462294757e-06 5.053820132161490619e-05
5.494000000000000000e+03 3.300119400024414062e+01 9.688509941101074219e+00 3.040122392121702433e-04 -3.606089376262389123e-05 8.038540545385330915e-05 1.508079003542661667e-04
5.495000000000000000e+03 3.387771224975585938e+01 9.897283554077148438e+00 1.089319339371286333e-04 3.090706377406604588e-05 4.195169822196476161e-05 1.602772099431604147e-04
5.496000000000000000e+03 1.049773502349853516e+01 2.771904563903808594e+01 7.042671495582908392e-05 2.186032361350953579e-04 8.670898387208580971e-05 -2.965259191114455462e-04
5.497000000000000000e+03 3.267158889770507812e+01 1.362849426269531250e+01 8.028756128624081612e-04 -1.644756266614422202e-04 1.915199973154813051e-04 1.845693041104823351e-04
5.498000000000000000e+03 1.265535545349121094e+01 2.881977844238281250e+01 5.397322820499539375e-05 1.181605985038913786e-04 5.164014874026179314e-05 -3.363590221852064133e-04
5.499000000000000000e+03 3.336565399169921875e+01 3.315417098999023438e+01 -3.955510692321695387e-05 -1.155117992311716080e-03 -3.584019141271710396e-04 -1.208704547025263309e-03
5.500000000000000000e+03 9.757206916809082031e+00 -1.049479389190673828e+01 -2.774514359771274030e-05 -1.175481065729400143e-05 -1.184998654935043305e-05 -2.068531557597452775e-06
5.501000000000000000e+03 1.087391090393066406e+01 1.179704666137695312e+01 4.526503835222683847e-05 3.643876334535889328e-05 2.451114050927571952e-05 -1.387476513627916574e-04
5.502000000000000000e+03 3.674585723876953125e+01 2.039996981620788574e-01 -3.319477036711759865e-05 6.841053982498124242e-05 1.056473138305591419e-05 3.080634633079171181e-05
5.503000000000000000e+03 3.208871078491210938e+01 -2.337520599365234375e+00 3.296515569672919810e-05 1.301190332014812157e-05 1.379311743221478537e-05 4.513631574809551239e-05
5.504000000000000000e+03 9.851745605468750000e+00 1.525401878356933594e+01 9.868361667031422257e-05 5.655942004523240030e-05 4.657291356124915183e-05 -1.655885134823620319e-04
5.505000000000000000e+03 9.207417488098144531e+00 1.375358200073242188e+01 3.495417331578209996e-05 8.292948768939822912e-05 3.536509757395833731e-05 -1.572409964865073562e-04
5.506000000000000000e+03 1.239844608306884766e+01 1.050889778137207031e+01 7.755424303468316793e-05 -1.095428160624578595e-05 1.997998879232909530e-05 -1.156830912805162370e-04
5.507000000000000000e+03 3.329273986816406250e+01 -9.382739067077636719e+00 -2.454132527418551035e-06 1.530600457044783980e-06 -2.770596267964720028e-07 1.048713897944253404e-06
5.508000000000000000e+03 3.585454940795898438e+01 -9.082060813903808594e+00 -1.589934527146397159e-06 -1.933286512212362140e-05 -6.276839940255740657e-06 -1.039801281876862049e-05
5.509000000000000000e+03 3.540798950195312500e+01 -6.375333786010742188e+00 1.030988300954049919e-06 -1.048785179591504857e-05 -2.837059128069086000e-06 -4.253703991707880050e-06
5.510000000000000000e+03 3.805300140380859375e+01 -4.467425346374511719e-01 6.519303133245557547e-05 -1.104574675991898403e-05 1.624418655410408974e-05 2.179203875130042434e-05
5.511000000000000000e+03 1.066350269317626953e+01 1.689630889892578125e+01 4.726657425635494292e-05 8.499069372192025185e-05 3.967717930208891630e-05 -2.091773785650730133e-04
5.512000000000000000e+03 3.844783782958984375e+01 -1.130653667449951172e+01 -2.365300133533310145e-05 8.870008969097398221e-06 -4.434897618921240792e-06 -6.406868578778812662e-06
5.513000000000000000e+03 3.666398239135742188e+01 -1.021059036254882812e+01 4.045479727210476995e-06 1.731187148834578693e-05 6.407205091818468645e-06 -4.487957539822673425e-06
5.514000000000000000e+03 1.182495212554931641e+01 1.898995780944824219e+01 8.848478319123387337e-05 2.608002068882342428e-05 3.436944098211824894e-05 -2.238981687696650624e-04
5.515000000000000000e+03 9.507395744323730469e+00 1.787260818481445312e+01 6.680069054709747434e-05 1.459324121242389083e-04 6.381992716342210770e-05 -2.332326985197141767e-04
5.516000000000000000e+03 4.101217269897460938e+01 -6.438534736633300781e+00 -2.135790509782964364e-06 -2.877405859180726111e-05 -9.272955139749683440e-06 -1.875383986771339551e-06
5.517000000000000000e+03 4.136724090576171875e+01 -7.166045188903808594e+00 2.081673301290720701e-05 4.130056549911387265e-05 1.863518991740420461e-05 9.404239449395390693e-07
5.518000000000000000e+03 4.216155242919921875e+01 -1.001800823211669922e+01 2.653809133335016668e-05 2.323812077520415187e-05 1.493286345066735521e-05 4.218654794385656714e-06
5.519000000000000000e+03 2.298728942871093750e+01 7.289654254913330078e+00 1.356713764835149050e-04 -1.243836886715143919e-04 3.386306161701213568e-06 -5.913984182370768394e-07
5.520000000000000000e+03 4.044448852539062500e+01 -3.563945531845092773e+00 -4.164563142694532871e-05 -1.503381372458534315e-05 -1.700383290881291032e-05 -1.028249334922293201e-05
5.521000000000000000e+03 3.899987030029296875e+01 -1.154851150512695312e+01 1.840138429543003440e-05 6.137605851108673960e-06 7.361697043961612508e-06 1.873755422820977401e-06
5.522000000000000000e+03 4.038456726074218750e+01 -1.139533519744873047e+01 -2.034600584011059254e-05 -4.808903668163111433e-06 -7.546473170805256814e-06 -2.017496262851636857e-05
5.523000000000000000e+03 4.056392288208007812e+01 -1.067708015441894531e+01 1.537028765596915036e-05 2.341757317481096834e-05 1.163635806733509526e-05 1.402698217134457082e-05
5.524000000000000000e+03 4.096273422241210938e+01 -2.604799985885620117e+00 -1.836520095821470022e-05 -1.284058998862747103e-05 -9.361737284052651376e-06 -1.479842831031419337e-05
5.525000000000000000e+03 4.048393249511718750e+01 -6.749097824096679688e+00 1.654589323152322322e-05 2.512769242457579821e-05 1.250207606062758714e-05 -2.420181590423453599e-05
5.526000000000000000e+03 3.474681472778320312e+01 -9.802293777465820312e+00 2.578411113063339144e-05 1.699921631370671093e-05 1.283499841520097107e-05 -1.058985708368709311e-05
5.527000000000000000e+03 3.761003875732421875e+01 -1.036282444000244141e+01 -2.464597628204501234e-06 8.948839422373566777e-06 1.945272515513352118e-06 -8.647480171930510551e-06
5.528000000000000000e+03 1.307996082305908203e+01 9.826762199401855469e+00 1.427377719664946198e-04 1.753495416778605431e-05 4.808181984117254615e-05 -1.340579037787392735e-04
5.529000000000000000e+03 3.580151748657226562e+01 3.584171772003173828e+00 1.475048629799857736e-04 5.845975829288363457e-05 6.178938929224386811e-05 1.000841803033836186e-04
5.530000000000000000e+03 1.587256526947021484e+01 9.777089118957519531e+00 1.478899939684197307e-04 -1.834480099205393344e-05 3.886355625581927598e-05 -1.172468328149989247e-04
5.531000000000000000e+03 1.442841243743896484e+01 9.952012062072753906e+00 1.680204150034114718e-04 5.805101750411267858e-07 5.058027818449772894e-05 -1.347042853012681007e-04
5.532000000000000000e+03 1.771314239501953125e+01 1.064139747619628906e+01 2.324589295312762260e-04 -8.238293230533599854e-05 4.502279625739902258e-05 -1.275726972380653024e-04
5.533000000000000000e+03 1.772298812866210938e+01 8.171852111816406250e+00 1.109378499677404761e-04 -3.085549542447552085e-05 2.402470636297948658e-05 -8.235769200837239623e-05
5.534000000000000000e+03 3.084395790100097656e+01 2.246116250753402710e-01 6.638998456764966249e-05 1.863933903223369271e-05 2.550879617047030479e-05 2.125389983120840043e-05
5.535000000000000000e+03 3.067355918884277344e+01 -1.163905143737792969e+00 6.016654151608236134e-05 1.808492197596933693e-05 2.347543886571656913e-05 1.627927849767729640e-05
5.536000000000000000e+03 3.326763916015625000e+01 6.872941970825195312e+00 5.750599666498601437e-05 -1.048871013153984677e-06 1.693713784334249794e-05 9.260216756956651807e-05
5.537000000000000000e+03 1.966272735595703125e+01 9.161772727966308594e+00 2.255740109831094742e-04 -2.611784839245956391e-05 5.983684604871086776e-05 -1.312182575929909945e-04
5.538000000000000000e+03 3.223196411132812500e+01 1.707378005981445312e+01 9.364279685541987419e-04 -4.873835423495620489e-04 1.347133365925401449e-04 1.058213383657857776e-04
5.539000000000000000e+03 3.112669754028320312e+01 -1.969839692115783691e+00 4.093608367838896811e-05 9.766295079316478223e-07 1.257381336472462863e-05 2.751973806880414486e-05
5.540000000000000000e+03 3.533941650390625000e+01 -9.131187438964843750e+00 1.664997216721531004e-05 3.167487011523917317e-05 1.449745286663528532e-05 -1.104131843021605164e-05
5.541000000000000000e+03 3.416253280639648438e+01 6.961587905883789062e+00 2.113082737196236849e-04 4.892149445367977023e-05 7.806892972439527512e-05 1.255039824172854424e-04
5.542000000000000000e+03 3.792425537109375000e+01 -1.470386385917663574e+00 4.963175524608232081e-05 -5.273774604575010017e-06 1.330739360128063709e-05 2.371360460529103875e-05
5.543000000000000000e+03 3.605440902709960938e+01 1.096116423606872559e+00 1.232518261531367898e-04 6.000551729812286794e-05 5.497720485436730087e-05 -3.007547638844698668e-05
5.544000000000000000e+03 2.202236175537109375e+01 5.628070831298828125e+00 1.055801039910875261e-04 -8.679489110363647342e-05 5.635564320982666686e-06 -9.397216444995137863e-07
5.545000000000000000e+03 2.477406311035156250e+01 4.501895904541015625e+00 1.008486651699058712e-04 -8.599140710430219769e-05 4.457179329619975761e-06 3.562121128197759390e-05
5.546000000000000000e+03 4.039538574218750000e+01 -2.929456710815429688e+00 6.776028749300166965e-05 1.787892506399657577e-05 2.569176467659417540e-05 -1.703348175396968145e-06
5.547000000000000000e+03 3.750523376464843750e+01 -9.313032627105712891e-01 -2.742085052886977792e-05 6.300331006059423089e-05 1.067473749571945518e-05 -8.750941560720093548e-06
5.548000000000000000e+03 3.177775382995605469e+01 -5.670623779296875000e+00 2.643199513840954751e-05 -4.565299150272039697e-06 6.560008841915987432e-06 1.181976858788402751e-05
5.549000000000000000e+03 3.391722869873046875e+01 -7.063416481018066406e+00 1.702708323136903346e-05 1.364607305731624365e-05 9.201947250403463840e-06 -4.819072273676283658e-06
5.550000000000000000e+03 3.058934020996093750e+01 1.257767105102539062e+01 5.026872386224567890e-04 -3.956701038987375796e-05 1.389360695611685514e-04 1.028139813570305705e-04
5.551000000000000000e+03 3.182927131652832031e+01 1.137133884429931641e+01 2.958069962915033102e-04 -3.086257129325531423e-05 7.948333222884684801e-05 1.624408469069749117e-04
5.552000000000000000e+03 9.840764999389648438e+00 1.917025566101074219e+01 6.683963147224858403e-05 1.638760440982878208e-04 6.921470048837363720e-05 -2.588474308140575886e-04
5.553000000000000000e+03 3.322198486328125000e+01 7.805638790130615234e+00 2.480970870237797499e-04 4.909423751087160781e-06 7.590195309603586793e-05 1.309660292463377118e-04
5.554000000000000000e+03 2.403123474121093750e+01 5.175721168518066406e+00 2.235719439340755343e-04 -2.989160020661074668e-05 5.810410220874473453e-05 -1.133430760091869161e-05
5.555000000000000000e+03 2.677567481994628906e+01 3.752726078033447266e+00 1.853028807090595365e-04 -3.991126050095772371e-06 5.439352753455750644e-05 3.922636551578762010e-06
5.556000000000000000e+03 2.327398872375488281e+01 5.823530673980712891e+00 1.187526067951694131e-04 -1.017696922644972801e-04 5.094873813504818827e-06 1.277960927836829796e-05
5.557000000000000000e+03 3.207065963745117188e+01 1.516267204284667969e+01 7.806470384821295738e-04 -1.301348529523238540e-04 1.951536542037501931e-04 4.873320358456112444e-05
5.558000000000000000e+03 3.154462051391601562e+01 1.591155147552490234e+01 5.261761252768337727e-04 -3.936742723453789949e-04 3.975056461058557034e-05 2.066858723992481828e-04
5.559000000000000000e+03 4.191487121582031250e+01 -8.630082130432128906e+00 2.751699867076240480e-05 1.781505125109106302e-05 1.359961515845498070e-05 7.479708528990158811e-06
5.560000000000000000e+03 3.193657302856445312e+01 -4.595261573791503906e+00 2.671704896783921868e-05 -4.419451045123423683e-07 7.882531463110353798e-06 1.656280255701858550e-05
5.561000000000000000e+03 3.157354545593261719e+01 -2.730479955673217773e+00 4.305678521632216871e-05 1.537909884063992649e-05 1.753076503518968821e-05 4.064764027589262696e-07
5.562000000000000000e+03 2.983712577819824219e+01 1.791965675354003906e+01 5.404487019404768944e-04 -1.907728728838264942e-04 1.049027559929527342e-04 -1.314011205977294594e-05
5.563000000000000000e+03 3.232534027099609375e+01 -5.290583610534667969e+00 1.664931369305122644e-05 1.663303191890008748e-05 9.984703865484334528e-06 -3.878144525515381247e-06
5.564000000000000000e+03 3.203513336181640625e+01 -3.465932607650756836e+00 2.981345824082382023e-05 2.815592551996815018e-06 9.788715033209882677e-06 2.813563696690835059e-05
5.565000000000000000e+03 1.015834903717041016e+01 1.283883666992187500e+01 5.555165625992231071e-05 7.735503459116443992e-05 3.987200761912390590e-05 -1.643369323574006557e-04
5.566000000000000000e+03 1.068036651611328125e+01 1.458502864837646484e+01 8.379911741940304637e-05 3.014987851202022284e-05 3.418470078031532466e-05 -1.392646809108555317e-04
5.567000000000000000e+03 2.820293807983398438e+01 2.170218706130981445e+00 1.405078219249844551e-04 1.400188011757563800e-05 4.635291043086908758e-05 9.220759238814935088e-06
5.568000000000000000e+03 1.025445461273193359e+01 1.830515480041503906e+01 7.283828017534688115e-05 5.194160257815383375e-05 3.743396155186928809e-05 -2.167298080166801810e-04
5.569000000000000000e+03 1.910345458984375000e+01 9.598312377929687500e+00 1.575956703163683414e-04 -1.361592876492068172e-04 6.430912435462232679e-06 -2.541155481594614685e-05
5.570000000000000000e+03 1.670366668701171875e+01 9.813168525695800781e+00 2.238969609607011080e-04 -7.234201621031388640e-05 4.546648051473312080e-05 -1.264504389837384224e-04
5.571000000000000000e+03 1.626760292053222656e+01 9.157360076904296875e+00 9.543968917569145560e-05 -4.964132313034497201e-05 1.373950908600818366e-05 -7.042509969323873520e-05
5.572000000000000000e+03 3.113948059082031250e+01 9.263319015502929688e+00 3.049211809411644936e-04 -6.740523531334474683e-05 7.125478441594168544e-05 8.366263500647619367e-05
5.573000000000000000e+03 3.312843322753906250e+01 8.741659164428710938e+00 1.006422317004762590e-04 1.625346158107277006e-05 3.506870780256576836e-05 1.406693190801888704e-04
5.574000000000000000e+03 3.056706619262695312e+01 1.400927734375000000e+01 4.974083276465535164e-04 -5.014097405364736915e-05 1.341802126262336969e-04 4.827612065128050745e-05
5.575000000000000000e+03 1.076341533660888672e+01 2.367348289489746094e+01 8.877737127477303147e-05 1.837814197642728686e-04 8.176763367373496294e-05 -3.492644464131444693e-04
5.576000000000000000e+03 1.191958045959472656e+01 2.694432830810546875e+01 -1.213014766108244658e-04 1.882461074274033308e-04 2.008339106396306306e-05 -3.140568151138722897e-04
5.577000000000000000e+03 1.101828098297119141e+01 2.101852989196777344e+01 5.835924457642249763e-05 6.891612429171800613e-05 3.818261029664427042e-05 -2.433561166981235147e-04
5.578000000000000000e+03 1.309467887878417969e+01 2.557153701782226562e+01 6.933342228876426816e-05 1.327282370766624808e-04 6.061849853722378612e-05 -4.129314329475164413e-04
5.579000000000000000e+03 3.991084671020507812e+01 -1.054017353057861328e+01 -7.715791070950217545e-06 -1.636134584259707481e-05 -7.223140983114717528e-06 -1.711219374556094408e-05
5.580000000000000000e+03 3.958640289306640625e+01 -1.179749584197998047e+01 -2.067065179289784282e-05 -3.264914880674041342e-07 -6.299143024079967290e-06 -1.521337708254577592e-05
5.581000000000000000e+03 1.103450298309326172e+01 1.278577327728271484e+01 1.300097210332751274e-04 5.441669145511696115e-06 4.063541928189806640e-05 -1.487642148276790977e-04
5.582000000000000000e+03 1.168002605438232422e+01 1.124515819549560547e+01 1.273961534025147557e-04 4.078533675055950880e-05 5.045444777351804078e-05 -1.607173762749880552e-04
5.583000000000000000e+03 3.591384887695312500e+01 -9.756464004516601562e+00 1.645594238652847707e-05 2.369439971516840160e-05 1.204510317620588467e-05 3.520919790389598347e-06
5.584000000000000000e+03 3.559171295166015625e+01 -8.564645767211914062e+00 -1.400096061843214557e-05 7.096251010807463899e-06 -2.071413064186344855e-06 3.529746209096629173e-06
5.585000000000000000e+03 4.000724411010742188e+01 -9.973943710327148438e+00 6.069157279853243381e-06 2.475501787557732314e-05 9.247252819477580488e-06 -3.257144726376282051e-06
5.586000000000000000e+03 3.640789031982421875e+01 -9.624567985534667969e+00 -1.041703944792971015e-05 -5.716661689803004265e-06 -4.840110250370344147e-06 -5.101024271425558254e-06
5.587000000000000000e+03 3.614741134643554688e+01 -1.378365755081176758e-01 1.347595680272206664e-04 -1.381711535941576585e-05 3.628273407230153680e-05 1.871696554189838935e-06
5.588000000000000000e+03 1.109481716156005859e+01 1.037929439544677734e+01 5.407142816693522036e-05 1.572980727360118181e-05 2.094037154165562242e-05 -1.083199094864539802e-04
5.589000000000000000e+03 3.323117828369140625e+01 4.980138301849365234e+00 3.646876575658097863e-05 -1.946920929185580462e-05 5.099866484670201316e-06 5.235962817096151412e-05
5.590000000000000000e+03 3.417303466796875000e+01 6.007241725921630859e+00 3.049564656976144761e-05 -6.501512871182058007e-06 7.198240382422227412e-06 7.291707879630848765e-05
5.591000000000000000e+03 4.041299819946289062e+01 -5.863881587982177734e+00 -1.301981319556944072e-05 7.563259259768528864e-06 -1.636966089790803380e-06 1.090038722395547666e-06
5.592000000000000000e+03 1.155655288696289062e+01 1.667016220092773438e+01 1.425567461410537362e-04 3.914924673154018819e-05 5.451179822557605803e-05 -2.343304367968812585e-04
5.593000000000000000e+03 1.145837402343750000e+01 2.001252555847167969e+01 9.440486610401421785e-05 1.144544294220395386e-04 6.265778938541188836e-05 -3.040698647964745760e-04
5.594000000000000000e+03 3.650104522705078125e+01 -8.392609357833862305e-01 -4.637472375179640949e-05 7.935969915706664324e-05 9.895493349176831543e-06 -1.483377309341449291e-05
5.595000000000000000e+03 3.802241516113281250e+01 -1.091439914703369141e+01 4.860165972786489874e-06 -6.341570951917674392e-06 -4.444214596333040390e-07 -1.173767032014438882e-06
5.596000000000000000e+03 3.971131515502929688e+01 -1.696690201759338379e+00 4.101816375623457134e-05 2.240034518763422966e-05 1.902555231936275959e-05 9.531449904898181558e-06
5.597000000000000000e+03 3.844119644165039062e+01 -9.936233162879943848e-01 -2.352751289436127990e-05 4.353595068096183240e-05 6.002530881232814863e-06 -4.398486453283112496e-06
5.598000000000000000e+03 4.211632537841796875e+01 -9.311194419860839844e+00 -2.625942943268455565e-05 -2.438485898892395198e-05 -1.519328634458361194e-05 -2.779873466352000833e-05
5.599000000000000000e+03 3.626956558227539062e+01 -4.195629119873046875e+00 4.094432733836583793e-05 1.138515381171600893e-05 1.569884443597402424e-05 9.799456165637820959e-06
5.600000000000000000e+03 3.533471679687500000e+01 2.641063928604125977e+00 9.070003579836338758e-05 1.500830990153190214e-06 2.766026045719627291e-05 1.255954848602414131e-04
5.601000000000000000e+03 3.320929718017578125e+01 -5.662141799926757812e+00 1.727837116050068289e-05 4.343587988842045888e-06 6.486587608378613368e-06 -9.579823654348729178e-07
5.602000000000000000e+03 2.604371452331542969e+01 4.494008541107177734e+00 9.147421951638534665e-05 -7.932600419735535979e-05 3.644464641183731146e-06 5.395796324592083693e-05
5.603000000000000000e+03 2.694931602478027344e+01 2.322159767150878906e+00 1.469715643906965852e-04 5.938141384831396863e-06 4.587291186908259988e-05 2.170468178519513458e-06
5.604000000000000000e+03 1.252105808258056641e+01 2.329335594177246094e+01 8.270375838037580252e-05 1.250388013431802392e-04 6.232276791706681252e-05 -3.658003406599164009e-04
5.605000000000000000e+03 3.598271179199218750e+01 5.433000326156616211e-01 -8.976044045994058251e-05 6.044667679816484451e-05 -8.794128007139079273e-06 7.392171391984447837e-05
5.606000000000000000e+03 3.495720672607421875e+01 -7.038806915283203125e+00 2.062059138552285731e-05 2.297386708960402757e-05 1.307833736063912511e-05 -2.412608864688081667e-06
5.607000000000000000e+03 3.933828353881835938e+01 -6.128577232360839844e+00 -2.744390258158091456e-05 1.261888201042893343e-06 -7.854604518797714263e-06 1.180804520117817447e-05
5.608000000000000000e+03 3.150048446655273438e+01 1.534836411476135254e+00 6.407371074601542205e-06 -3.410397403058595955e-05 -8.308980795845855027e-06 5.528182737180031836e-05
5.609000000000000000e+03 1.054569339752197266e+01 1.525980186462402344e+01 6.927307549631223083e-05 6.608451803913339972e-05 4.060727951582521200e-05 -2.088859764626249671e-04
5.610000000000000000e+03 1.119389724731445312e+01 1.504662418365478516e+01 1.437095925211906433e-04 5.046677324571646750e-05 5.825291009387001395e-05 -2.108011685777455568e-04
5.611000000000000000e+03 3.169763183593750000e+01 -1.582690596580505371e+00 4.932521551381796598e-05 5.490235253091668710e-07 1.496227196184918284e-05 1.376666318719799165e-06
5.612000000000000000e+03 3.131353378295898438e+01 -7.398660778999328613e-01 5.586721817962825298e-05 7.372654636128572747e-06 1.897196307254489511e-05 3.445207767072133720e-05
5.613000000000000000e+03 1.588681888580322266e+01 1.062425327301025391e+01 1.827672531362622976e-04 -4.966564665664918721e-05 3.993048449046909809e-05 -1.295076071983203292e-04
5.614000000000000000e+03 3.020492362976074219e+01 1.152236580848693848e+00 5.278106618789024651e-05 -3.453396493569016457e-05 5.474130375660024583e-06 5.900680116610601544e-05
5.615000000000000000e+03 2.956151008605957031e+01 5.330384373664855957e-01 9.027088526636362076e-05 2.920922270277515054e-05 3.584403384593315423e-05 9.182150279229972512e-06
5.616000000000000000e+03 1.061315822601318359e+01 1.959275245666503906e+01 7.833109702914953232e-05 5.691215119441039860e-05 4.057297337567433715e-05 -2.223275951109826565e-04
5.617000000000000000e+03 1.097465801239013672e+01 1.867677879333496094e+01 6.156067684059962630e-05 1.247320469701662660e-04 5.588782005361281335e-05 -2.751483698375523090e-04
5.618000000000000000e+03 3.990238189697265625e+01 -3.274854898452758789e+00 9.105805474973749369e-06 2.327512993360869586e-05 9.714281077322084457e-06 2.014900201174896210e-05
5.619000000000000000e+03 3.698963928222656250e+01 -1.428149223327636719e+00 5.267482993076555431e-05 -1.610368053661659360e-05 1.097134554584044963e-05 4.789546437677927315e-05
5.620000000000000000e+03 3.175612449645996094e+01 1.277992439270019531e+01 6.281609530560672283e-04 -1.105188639485277236e-04 1.552926405565813184e-04 2.203927870141342282e-04
5.621000000000000000e+03 2.551321983337402344e+01 3.806135177612304688e+00 1.925012620631605387e-04 -1.292716569878393784e-05 5.387223063735291362e-05 -4.163111498201033100e-06
5.622000000000000000e+03 2.623827743530273438e+01 3.080301523208618164e+00 9.112100815400481224e-05 -7.065941463224589825e-05 6.138478056527674198e-06 4.912003714707680047e-05
5.623000000000000000e+03 3.401157760620117188e+01 -9.093242645263671875e+00 1.546334533486515284e-05 2.069913170998916030e-05 1.084874293155735359e-05 2.691909685381688178e-06
5.624000000000000000e+03 2.749538421630859375e+01 2.972781419754028320e+00 8.501922275172546506e-05 -6.379029946401715279e-05 6.368677532009314746e-06 5.662746116286143661e-05
5.625000000000000000e+03 2.096714019775390625e+01 7.210041046142578125e+00 2.200674207415431738e-04 -3.772645868593826890e-05 5.470229007187299430e-05 -2.649165071488823742e-05
5.626000000000000000e+03 2.529419517517089844e+01 5.181029319763183594e+00 2.449280582368373871e-04 -3.493083568173460662e-05 6.299917004071176052e-05 4.868702035309979692e-06
5.627000000000000000e+03 2.456358909606933594e+01 5.867199420928955078e+00 1.128446892835199833e-04 -1.060409849742427468e-04 2.041111656581051648e-06 1.789518137229606509e-05
5.628000000000000000e+03 1.090713500976562500e+01 1.378175354003906250e+01 6.629539711866527796e-05 7.544361142208799720e-05 4.252170037943869829e-05 -1.961225643754005432e-04
5.629000000000000000e+03 4.010894012451171875e+01 -7.419392585754394531e+00 2.762048097793012857e-05 2.322249747521709651e-05 1.525289371784310788e-05 -2.993047201016452163e-05
5.630000000000000000e+03 4.106835174560546875e+01 -9.662578582763671875e+00 -1.674081249802839011e-05 2.379041870881337672e-05 2.114881681336555630e-06 -1.445673569833161309e-05
5.631000000000000000e+03 3.092870330810546875e+01 1.963304519653320312e+01 4.776447021868079901e-04 -2.896930382121354342e-04 5.638549555442295969e-05 5.804729516967199743e-05
5.632000000000000000e+03 3.351670074462890625e+01 -6.381642341613769531e+00 9.377415153721813112e-06 1.384919960401020944e-05 6.967984518269076943e-06 1.064354546542745084e-05
5.633000000000000000e+03 4.028212738037109375e+01 -7.938379287719726562e+00 -1.468214122724020854e-05 -2.021444197453092784e-05 -1.046897523337975144e-05 2.430568656563991681e-06
5.634000000000000000e+03 3.289011764526367188e+01 -4.925622940063476562e+00 2.540725654398556799e-05 7.734573955531232059e-06 9.942548786057159305e-06 1.474162309023085982e-05
5.635000000000000000e+03 3.378424453735351562e+01 -5.337993144989013672e+00 3.265996929258108139e-05 2.793207204376813024e-05 1.817761221900582314e-05 1.048557078320300207e-05
5.636000000000000000e+03 3.223984527587890625e+01 8.572682380676269531e+00 2.847289724741131067e-04 -5.699255416402593255e-05 6.832092185504734516e-05 1.241173158632591367e-04
5.637000000000000000e+03 2.027995300292968750e+01 9.826135635375976562e+00 1.672636426519602537e-04 -1.606881123734638095e-04 1.972655354620655999e-06 -2.287882489326875657e-05
5.638000000000000000e+03 2.071993255615234375e+01 8.191852569580078125e+00 1.965480187209323049e-04 -1.533185786684043705e-05 5.436484570964239538e-05 -6.640385254286229610e-05
5.639000000000000000e+03 1.228139495849609375e+01 1.556862735748291016e+01 1.621002447791397572e-04 1.377867829432943836e-05 5.276367664919234812e-05 -2.082829159917309880e-04
5.640000000000000000e+03 3.235481262207031250e+01 7.690254211425781250e+00 9.590254194336012006e-05 -5.493277967616450042e-06 2.712278001126833260e-05 1.105198534787632525e-04
5.641000000000000000e+03 3.133380889892578125e+01 1.201975440979003906e+01 8.638879808131605387e-05 -1.362580369459465146e-04 -1.496077220508595929e-05 1.892873406177386642e-04
5.642000000000000000e+03 3.025376701354980469e+01 1.025053024291992188e+01 3.682668320834636688e-04 -7.071163418004289269e-05 8.926656300900503993e-05 5.687943848897702992e-05
5.643000000000000000e+03 1.786422157287597656e+01 1.159471321105957031e+01 1.268142223125323653e-04 -7.210412150016054511e-05 1.641303242649883032e-05 -8.636584971100091934e-05
5.644000000000000000e+03 1.757253837585449219e+01 9.743648529052734375e+00 1.358758745482191443e-04 -4.958210047334432602e-05 2.588813549664337188e-05 -1.054606618708930910e-04
5.645000000000000000e+03 3.103357696533203125e+01 1.817806625366210938e+01 8.425575797446072102e-04 -5.854454939253628254e-04 7.713361992500722408e-05 8.834499749355018139e-05
5.646000000000000000e+03 3.137952804565429688e+01 1.454444599151611328e+01 3.327995073050260544e-04 -2.966143365483731031e-04 1.085555049940012395e-05 3.437403647694736719e-04
5.647000000000000000e+03 1.282782268524169922e+01 3.114107894897460938e+01 -1.856944872997701168e-04 2.736960595939308405e-04 2.640047387103550136e-05 -3.906105121131986380e-04
5.648000000000000000e+03 2.922578239440917969e+01 1.601188850402832031e+01 5.567427142523229122e-04 -1.360852911602705717e-04 1.261972211068496108e-04 -1.760240047588013113e-05
5.649000000000000000e+03 3.968710708618164062e+01 -5.488481044769287109e+00 3.035810914298053831e-05 1.740098377922549844e-05 1.432772751286393031e-05 -1.632956809771712869e-05
5.650000000000000000e+03 4.156528472900390625e+01 -1.026358222961425781e+01 2.455953290336765349e-05 -2.568393756519071758e-05 -3.373212109636369860e-07 6.267896424105856568e-06
5.651000000000000000e+03 3.866574478149414062e+01 -1.012107944488525391e+01 -1.260966291738441214e-05 -7.793491931806784123e-06 -6.120946636656299233e-06 -8.451019311905838549e-06
5.652000000000000000e+03 3.499894332885742188e+01 -8.218975067138671875e+00 3.362938878126442432e-05 1.818877717596478760e-05 1.554544905957300216e-05 -6.368041340465424582e-06
5.653000000000000000e+03 1.238494777679443359e+01 1.199389266967773438e+01 8.966403402155265212e-05 -1.818682721932418644e-05 2.144316204066853970e-05 -1.236243406310677528e-04
5.654000000000000000e+03 1.370804405212402344e+01 1.054948139190673828e+01 9.104086348088458180e-05 -3.051389830943662673e-05 1.815808900573756546e-05 -1.159068706328980625e-04
5.655000000000000000e+03 3.855786132812500000e+01 -1.075987052917480469e+01 1.452786818845197558e-05 2.081895945593714714e-05 1.060404792951885611e-05 -5.864652393938740715e-06
5.656000000000000000e+03 3.712949752807617188e+01 -8.868998527526855469e+00 2.305320231243968010e-05 -3.147914185319677927e-06 5.971586688247043639e-06 1.579857053002342582e-05
5.657000000000000000e+03 3.916095352172851562e+01 -1.094826316833496094e+01 -1.249679553438909352e-05 -9.582786333339754492e-06 -6.623874924116535112e-06 -1.079801404557656497e-05
5.658000000000000000e+03 3.998188018798828125e+01 -8.785469055175781250e+00 -3.043963806703686714e-05 1.719359897833783180e-05 -3.973811999458121136e-06 -1.160322062787599862e-05
5.659000000000000000e+03 4.083012390136718750e+01 -8.625099182128906250e+00 -2.675194264156743884e-05 -1.809140371733519714e-06 -8.568325029045809060e-06 -1.690926546871196479e-05
5.660000000000000000e+03 3.229922103881835938e+01 -1.312331438064575195e+00 8.222046017181128263e-05 3.598245893954299390e-05 3.546087464201264083e-05 5.191769378143362701e-05
5.661000000000000000e+03 3.488118743896484375e+01 -5.891882896423339844e+00 6.389676855178549886e-06 4.316340346122160554e-05 1.486592373112216592e-05 3.285995489932247438e-06
5.662000000000000000e+03 3.745374679565429688e+01 -1.958132863044738770e+00 8.646483365737367421e-06 3.883976387442089617e-05 1.424587389919906855e-05 -1.283663459616946056e-05
5.663000000000000000e+03 3.425793457031250000e+01 -1.039359807968139648e+00 1.200995102408342063e-04 1.563050682307220995e-05 4.071900548296980560e-05 -1.732623422867618501e-05
5.664000000000000000e+03 3.918867111206054688e+01 -2.089786767959594727e+00 -1.251253070222446695e-05 9.082171345653478056e-06 -1.029107806971296668e-06 -7.016546078375540674e-06
5.665000000000000000e+03 3.882325363159179688e+01 -1.534129023551940918e+00 4.839483517571352422e-05 6.891336852277163416e-06 1.658585279074031860e-05 1.907863406813703477e-05
5.666000000000000000e+03 4.019935989379882812e+01 -9.540926933288574219e+00 -1.679920387687161565e-05 1.370508834952488542e-05 -9.282347832595405634e-07 3.862609787574911024e-07
5.667000000000000000e+03 4.003538513183593750e+01 -6.365206241607666016e+00 2.137892442988231778e-05 1.470159713790053502e-05 1.082415656128432602e-05 -1.012220218399306759e-05
5.668000000000000000e+03 1.303088951110839844e+01 1.121718120574951172e+01 1.435223821317777038e-04 2.394860166532453150e-05 5.024129495723173022e-05 -1.582592376507818699e-04
5.669000000000000000e+03 1.376122760772705078e+01 2.387134742736816406e+01 5.324469020706601441e-05 -3.683115323838137556e-07 1.586291364219505340e-05 -2.993846428580582142e-04
5.670000000000000000e+03 3.545133972167968750e+01 1.345696091651916504e+00 -8.393728057853877544e-05 1.969713230209890753e-05 -1.927204539242666215e-05 9.585128282196819782e-05
5.671000000000000000e+03 3.540732192993164062e+01 5.589590668678283691e-01 1.660609414102509618e-04 3.081055183429270983e-06 5.074260116089135408e-05 -2.588841925899032503e-05
5.672000000000000000e+03 2.730757522583007812e+01 1.401715660095214844e+01 5.077600362710654736e-04 -1.420928601874038577e-04 1.097001586458645761e-04 -9.380903793498873711e-05
5.673000000000000000e+03 3.959195327758789062e+01 -3.873121261596679688e+00 2.639506192281260155e-06 -3.798006946453824639e-05 -1.060216891346499324e-05 -1.362451894237892702e-05
5.674000000000000000e+03 3.511629104614257812e+01 3.446793794631958008e+00 -6.503835265903035179e-06 2.747809412539936602e-05 6.292277703323634341e-06 -8.898907253751531243e-06
5.675000000000000000e+03 3.454164505004882812e+01 2.353055238723754883e+00 -3.830997593468055129e-05 5.727197276428341866e-05 5.688599230779800564e-06 8.727128602004086133e-07
5.676000000000000000e+03 1.243526172637939453e+01 1.648664474487304688e+01 8.061178232310339808e-05 3.498691512504592538e-05 3.467961141723208129e-05 -2.248776145279407501e-04
5.677000000000000000e+03 1.246953678131103516e+01 1.734469604492187500e+01 1.278499694308266044e-04 1.157200404122704640e-05 4.182659176876768470e-05 -2.175679692300036550e-04
5.678000000000000000e+03 3.506613540649414062e+01 4.286357402801513672e+00 1.472282892791554332e-04 7.673663640161976218e-05 6.718947406625375152e-05 1.145885253208689392e-04
5.679000000000000000e+03 2.947064208984375000e+01 1.978847980499267578e+00 1.372843980789184570e-04 2.319214581802953035e-05 4.814296698896214366e-05 1.634300315345171839e-05
5.680000000000000000e+03 3.355218887329101562e+01 -3.316152334213256836e+00 2.541417416068725288e-05 3.153148645651526749e-05 1.708369745756499469e-05 -1.191029423353029415e-05
5.681000000000000000e+03 1.236647415161132812e+01 2.043870735168457031e+01 7.967971032485365868e-05 2.424861122563015670e-05 3.117849701084196568e-05 -2.551057550590485334e-04
5.682000000000000000e+03 3.291109085083007812e+01 1.916352510452270508e+00 5.434425111161544919e-05 -1.837150534811371472e-06 1.575212991156149656e-05 8.885232091415673494e-06
5.683000000000000000e+03 3.203542327880859375e+01 -4.390134811401367188e-01 2.738706825766712427e-05 6.603908332181163132e-06 1.019729279505554587e-05 7.941302101244218647e-06
5.684000000000000000e+03 1.953526306152343750e+01 1.030333805084228516e+01 2.449118765071034431e-04 -4.443720172275789082e-05 6.014240716467611492e-05 -1.236458483617752790e-04
5.685000000000000000e+03 3.162404823303222656e+01 5.688714981079101562e-01 1.096099585993215442e-04 1.171481744677294046e-05 3.639743226813152432e-05 3.647684570751152933e-05
5.686000000000000000e+03 3.440506362915039062e+01 -7.724564552307128906e+00 -1.626639004825847223e-06 2.179416469516581856e-06 1.658332564602460479e-07 5.468034942168742418e-06
5.687000000000000000e+03 1.500339508056640625e+01 1.078606414794921875e+01 1.002128847176209092e-04 -4.499755596043542027e-05 1.656459971854928881e-05 -1.063193049049004912e-04
5.688000000000000000e+03 3.936809921264648438e+01 -4.534653663635253906e+00 1.448754665034357458e-05 5.106293247081339359e-05 1.966514355444815010e-05 -6.905053851369302720e-06
5.689000000000000000e+03 3.416777801513671875e+01 5.075411319732666016e+00 1.617972302483394742e-04 7.244534936035051942e-05 7.027277024462819099e-05 1.111786696128547192e-04
5.690000000000000000e+03 3.326107788085937500e+01 5.934226036071777344e+00 1.946478296304121614e-04 4.855301085626706481e-05 7.296025432879105210e-05 1.167034861282445490e-04
5.691000000000000000e+03 3.445318603515625000e+01 -6.507597446441650391e+00 9.564892025082372129e-06 -2.782832780212629586e-06 2.034617637036717497e-06 5.397166660259244964e-06
5.692000000000000000e+03 2.210552024841308594e+01 8.783437728881835938e+00 2.130203210981562734e-04 -7.058375922497361898e-05 4.273096783435903490e-05 -5.110722486278973520e-05
5.693000000000000000e+03 3.254914093017578125e+01 -3.056421756744384766e+00 3.241087688365951180e-05 1.969757067854516208e-05 1.563253499625716358e-05 -1.627759593247901648e-05
5.694000000000000000e+03 3.303710174560546875e+01 -2.622463703155517578e+00 3.405292954994365573e-05 -3.766443569475086406e-06 9.085945748665835708e-06 4.633876233128830791e-05
5.695000000000000000e+03 4.090948104858398438e+01 -7.979151725769042969e+00 2.492851308488752693e-05 3.264337647124193609e-05 1.727156814013142139e-05 -8.369832357857376337e-06
5.696000000000000000e+03 4.023398208618164062e+01 -8.379843711853027344e+00 3.776802986976690590e-05 1.042340159074228723e-06 1.164311106549575925e-05 8.171581612259615213e-06
5.697000000000000000e+03 2.581052589416503906e+01 5.876348972320556641e+00 6.391724309651181102e-05 -7.030955748632550240e-05 -1.917695271913544275e-06 2.537888394726905972e-05
5.698000000000000000e+03 2.733003234863281250e+01 4.436535358428955078e+00 9.546738147037103772e-05 -7.922148506622761488e-05 4.873767920798854902e-06 7.077724148984998465e-05
5.699000000000000000e+03 2.594777297973632812e+01 6.759427547454833984e+00 2.732543507590889931e-04 -1.055758475558832288e-04 5.030355168855749071e-05 4.528292265604250133e-05
5.700000000000000000e+03 2.876968383789062500e+01 2.806170701980590820e+00 7.537351484643295407e-05 -5.628053622785955667e-05 5.727893949369899929e-06 6.057693099137395620e-05
5.701000000000000000e+03 1.427009868621826172e+01 1.125388336181640625e+01 1.671043282840400934e-04 3.072254912694916129e-06 5.105297532281838357e-05 -1.605833676876500249e-04
5.702000000000000000e+03 2.381563377380371094e+01 6.576845645904541016e+00 2.501505077816545963e-04 -3.771773481275886297e-05 6.372982898028567433e-05 -7.232892130559775978e-06
5.703000000000000000e+03 2.515084075927734375e+01 6.520261764526367188e+00 2.475580258760601282e-04 -3.940486931242048740e-05 6.244594260351732373e-05 1.731634984025731683e-05
5.704000000000000000e+03 3.265388488769531250e+01 -5.998751640319824219e+00 1.883213190012611449e-05 1.372816223010886461e-05 9.768087693373672664e-06 1.668749246164225042e-05
5.705000000000000000e+03 3.327561187744140625e+01 4.017082691192626953e+00 1.545495615573599935e-04 3.703815673361532390e-05 5.747631439589895308e-05 8.966606401372700930e-05
5.706000000000000000e+03 2.805177688598632812e+01 3.627452850341796875e+00 1.744441688060760498e-04 7.767487659293692559e-06 5.466349466587416828e-05 1.302035798289580271e-05
5.707000000000000000e+03 3.111426544189453125e+01 1.026852035522460938e+01 1.868386316346004605e-04 -6.584627408301457763e-05 3.629770799307152629e-05 1.663075381657108665e-04
5.708000000000000000e+03 1.194239521026611328e+01 1.292867660522460938e+01 9.300187957705929875e-05 5.918610622757114470e-05 4.565639756037853658e-05 -1.830581022659316659e-04
5.709000000000000000e+03 1.173533439636230469e+01 1.388928222656250000e+01 1.395984145347028971e-04 -1.314302153332391754e-05 3.793661744566634297e-05 -1.582759432494640350e-04
5.710000000000000000e+03 3.113862609863281250e+01 1.324882125854492188e+01 3.196856123395264149e-04 -3.025326004717499018e-04 5.145907834958052263e-06 1.715489925118163228e-04
5.711000000000000000e+03 2.989809417724609375e+01 1.493028736114501953e+01 3.696535131894052029e-04 -3.621389914769679308e-04 2.254355422337539494e-06 1.951219892362132668e-04
5.712000000000000000e+03 2.209881019592285156e+01 7.738014221191406250e+00 2.470589533913880587e-04 -6.534448039019480348e-05 5.451434481074102223e-05 -1.108776450564619154e-05
5.713000000000000000e+03 1.490545082092285156e+01 3.376007843017578125e+01 -3.096889704465866089e-04 2.756957255769520998e-04 -1.019797218759777024e-05 -4.029901465401053429e-04
5.714000000000000000e+03 1.461064529418945312e+01 2.846898841857910156e+01 -1.174982680822722614e-04 1.515550684416666627e-04 1.021703792503103614e-05 -4.328869399614632130e-04
5.715000000000000000e+03 3.239835739135742188e+01 5.923263549804687500e+00 4.464230732992291451e-05 -2.509242949599865824e-05 5.864963441126747057e-06 7.848394307075068355e-05
5.716000000000000000e+03 1.172849845886230469e+01 1.751717185974121094e+01 5.405169576988555491e-05 4.307038761908188462e-05 2.913662683567963541e-05 -2.100999990943819284e-04
5.717000000000000000e+03 1.339870548248291016e+01 1.640932846069335938e+01 1.641191920498386025e-04 -2.963068254757672548e-05 4.034655285067856312e-05 -1.967273565242066979e-04
5.718000000000000000e+03 3.076205253601074219e+01 1.549119281768798828e+01 5.937845562584698200e-04 -1.320428273174911737e-04 1.385225186822935939e-04 2.426908031338825822e-05
5.719000000000000000e+03 3.105098533630371094e+01 2.317645454406738281e+01 4.708619671873748302e-04 -4.333290562499314547e-04 1.125987000705208629e-05 -1.638524554437026381e-04
5.720000000000000000e+03 2.928481674194335938e+01 2.542043685913085938e+01 4.689097113441675901e-04 -3.785374865401536226e-04 2.711166416702326387e-05 -5.529937916435301304e-04
5.721000000000000000e+03 2.862041473388671875e+01 1.728761863708496094e+01 5.147447227500379086e-04 -5.570512148551642895e-04 -1.269193762709619477e-05 3.443420428084209561e-05
5.722000000000000000e+03 2.964636230468750000e+01 2.129118347167968750e+01 5.558805423788726330e-04 -3.800143604166805744e-04 5.275986040942370892e-05 -1.786747598089277744e-04
5.723000000000000000e+03 1.417639255523681641e+01 2.236779785156250000e+01 9.937299182638525963e-05 4.918413105770014226e-05 4.456713577383197844e-05 -3.769218747038394213e-04
5.724000000000000000e+03 1.647361183166503906e+01 2.617297363281250000e+01 -4.796742359758354723e-05 4.369054295239038765e-05 -1.283064079871110152e-06 -4.540379159152507782e-04
5.725000000000000000e+03 3.894993209838867188e+01 -2.976774692535400391e+00 -9.344365139440924395e-07 -4.487644764594733715e-05 -1.374326529912650585e-05 1.206910042128583882e-06
5.726000000000000000e+03 3.839630126953125000e+01 -9.178159713745117188e+00 -9.879287972580641508e-06 -1.726758341646927875e-06 -3.481814019323792309e-06 -5.577119736699387431e-06
5.727000000000000000e+03 3.929714202880859375e+01 -1.033759593963623047e+01 9.130523721978534013e-06 2.080704689433332533e-05 8.981271093944087625e-06 1.122186745305953082e-06
5.728000000000000000e+03 4.053907775878906250e+01 -1.000233650207519531e+01 -1.070086227628053166e-06 -2.870849311875645071e-05 -8.933574463299009949e-06 -1.364567378914216533e-05
5.729000000000000000e+03 3.715935516357421875e+01 -9.818510055541992188e+00 6.768008915969403461e-06 6.904398901497188490e-07 2.237534545201924630e-06 6.054777713870862499e-06
5.730000000000000000e+03 3.602508544921875000e+01 -6.773243427276611328e+00 3.836331234197132289e-05 2.501998642401304096e-05 1.901498944789636880e-05 2.912991703851730563e-06
5.731000000000000000e+03 2.168159103393554688e+01 9.836523056030273438e+00 2.062648127321153879e-04 -1.815657742554321885e-04 7.409709724015556276e-06 -2.579210195108316839e-05
5.732000000000000000e+03 3.776202774047851562e+01 -7.309954166412353516e+00 -6.642140760959591717e-06 2.307897739228792489e-05 4.931051080347970128e-06 -1.133912064688047394e-05
5.733000000000000000e+03 3.596363830566406250e+01 -1.427087426185607910e+00 4.127200736547820270e-05 -2.675554060260765254e-05 4.354940301709575579e-06 5.800336293759755790e-05
5.734000000000000000e+03 3.897231674194335938e+01 -8.000254631042480469e+00 -9.058771865966264158e-06 3.334692792122950777e-06 -1.717223653940891381e-06 -8.694016287336125970e-06
5.735000000000000000e+03 3.636233901977539062e+01 -9.046134948730468750e+00 2.402337304374668747e-05 2.740171476034447551e-05 1.542752579553052783e-05 1.220077865582425147e-05
5.736000000000000000e+03 3.327352523803710938e+01 -9.441757798194885254e-01 7.633556379005312920e-05 2.111565299856010824e-05 2.923536521848291159e-05 1.733943577164609451e-06
5.737000000000000000e+03 3.403496551513671875e+01 -2.773935794830322266e+00 2.199986374762374908e-05 -7.270546120707876980e-06 4.418795469973701984e-06 3.826418833341449499e-05
5.738000000000000000e+03 3.551538467407226562e+01 -7.501009464263916016e+00 -1.800981408450752497e-05 2.496890374459326267e-06 -4.653876658267108724e-06 5.904903900955105200e-06
5.739000000000000000e+03 3.469213485717773438e+01 1.428251981735229492e+00 1.659299305174499750e-04 1.277851151826325804e-05 5.361253352020867169e-05 5.007489016861654818e-05
5.740000000000000000e+03 3.970664978027343750e+01 -9.231799125671386719e+00 2.240625872218515724e-05 3.678994289657566696e-06 7.825576176401227713e-06 -3.151676082779886201e-06
5.741000000000000000e+03 3.994089889526367188e+01 -6.871949672698974609e+00 -1.363512092211749405e-05 -2.363211388001218438e-05 -1.118017007684102282e-05 1.869899278972297907e-05
5.742000000000000000e+03 3.858818435668945312e+01 -4.739196300506591797e+00 -1.539809090900234878e-06 1.759530096023809165e-05 4.816647106054006144e-06 -8.616654668003320694e-06
5.743000000000000000e+03 3.791643905639648438e+01 -8.849761009216308594e+00 2.327128822798840702e-05 2.458194785504019819e-07 7.055132300592958927e-06 -1.976465910047409125e-06
5.744000000000000000e+03 3.518889999389648438e+01 -4.071880817413330078e+00 3.099465538980439305e-05 -1.237925062014255673e-05 5.584621703746961430e-06 2.668638626346364617e-05
5.745000000000000000e+03 3.694822692871093750e+01 -5.869021892547607422e+00 2.643461994011886418e-05 3.290585300419479609e-05 1.780214188329409808e-05 9.806268280954100192e-06
5.746000000000000000e+03 3.402315139770507812e+01 -5.974502086639404297e+00 1.210627669934183359e-05 2.063354622805491090e-05 9.821947060117963701e-06 -1.032708860293496400e-05
5.747000000000000000e+03 3.907075881958007812e+01 -5.130865573883056641e+00 7.365079454757506028e-06 -9.804530236579012126e-06 -7.318352572838193737e-07 1.193028219859115779e-05
5.748000000000000000e+03 3.628811645507812500e+01 -6.017428398132324219e+00 -2.175814915972296149e-05 -1.817779411794617772e-05 -1.198078280140180141e-05 -2.831068741215858608e-06
5.749000000000000000e+03 3.951303100585937500e+01 -2.711624622344970703e+00 2.692785710678435862e-05 3.501897663227282465e-05 1.858404903032351285e-05 -1.292671277042245492e-05
5.750000000000000000e+03 3.833120346069335938e+01 -1.985127329826354980e+00 -1.494799289503134787e-05 3.866090628434903920e-05 7.113873380149016157e-06 -5.947016688878647983e-06
5.751000000000000000e+03 3.014716148376464844e+01 9.231304168701171875e+00 1.532207825221121311e-04 -1.092247985070571303e-04 1.319879538641544059e-05 1.825616200221702456e-04
5.752000000000000000e+03 3.150767517089843750e+01 7.563312053680419922e+00 2.191492676502093673e-04 1.718108615023083985e-05 7.089910650392994285e-05 9.479601430939510465e-05
5.753000000000000000e+03 1.422905349731445312e+01 1.238902091979980469e+01 1.575715432409197092e-04 1.257271651411429048e-05 5.104327647131867707e-05 -1.849896361818537116e-04
5.754000000000000000e+03 3.241549682617187500e+01 6.816109180450439453e+00 2.328825939912348986e-04 9.061029231816064566e-06 7.258309051394462585e-05 1.066608383553102612e-04
5.755000000000000000e+03 3.345263290405273438e+01 3.072070121765136719e+00 4.999238626623991877e-06 3.281855970271863043e-05 1.134533977165119722e-05 2.337898149562533945e-05
5.756000000000000000e+03 3.350510025024414062e+01 -4.555612564086914062e+00 6.266316177061526105e-06 2.040716390183661133e-05 8.002043614396825433e-06 -3.418916094233281910e-06
5.757000000000000000e+03 3.435420989990234375e+01 -5.412924289703369141e+00 1.028971382766030729e-05 -2.492348903615493327e-05 -4.390132289699977264e-06 1.964280636457260698e-05
5.758000000000000000e+03 3.469230651855468750e+01 -4.720640182495117188e+00 1.654468178458046168e-05 4.210568658891133964e-05 1.759510996635071933e-05 -8.124978194246068597e-06
5.759000000000000000e+03 4.052443313598632812e+01 -9.143545150756835938e+00 3.182237924193032086e-05 -1.197957408294314519e-05 5.952841092948801816e-06 -2.579944975877879187e-06
5.760000000000000000e+03 1.681950950622558594e+01 1.066600799560546875e+01 1.280080614378675818e-04 -4.646665911423042417e-05 2.446242069709114730e-05 -1.077303895726799965e-04
5.761000000000000000e+03 1.606931877136230469e+01 1.149908828735351562e+01 1.205554362968541682e-04 -2.273713107570074499e-05 2.934549047495238483e-05 -1.287567574763670564e-04
5.762000000000000000e+03 3.241862869262695312e+01 7.833117842674255371e-01 5.244783824309706688e-05 -7.707212716923095286e-06 1.342218820354901254e-05 4.048259870614856482e-05
5.763000000000000000e+03 3.419933700561523438e+01 4.166872978210449219e+00 6.946987468836596236e-06 6.077555099182063714e-06 3.907362952304538339e-06 2.911079900513868779e-05
5.764000000000000000e+03 3.074972724914550781e+01 1.916519880294799805e+00 1.442005013814195991e-04 4.068245470989495516e-05 5.546488682739436626e-05 1.620210605324245989e-05
5.765000000000000000e+03 2.096450996398925781e+01 1.058404350280761719e+01 3.020298609044402838e-04 -7.478542829630896449e-05 6.817332905484363437e-05 -9.329927706858143210e-05
5.766000000000000000e+03 3.431702041625976562e+01 3.266596078872680664e+00 1.447451068088412285e-04 2.398473588982596993e-05 5.061895353719592094e-05 1.054425229085609317e-04
5.767000000000000000e+03 3.476391220092773438e+01 5.508770346641540527e-01 -6.459878932218998671e-05 4.308548886911012232e-05 -6.453990408772369847e-06 2.410150227660778910e-05
5.768000000000000000e+03 3.390520858764648438e+01 1.280360817909240723e+00 -5.332472028385382146e-06 1.820039506128523499e-05 3.860377091768896207e-06 1.621303272258955985e-05
5.769000000000000000e+03 2.128271102905273438e+01 8.582012176513671875e+00 2.192658866988494992e-04 -1.492068258812651038e-04 2.101771679008379579e-05 -4.276384788681752980e-05
5.770000000000000000e+03 1.693819427490234375e+01 1.161967086791992188e+01 2.139864955097436905e-04 -9.905322076519951224e-05 3.447998460615053773e-05 -1.331149251200258732e-04
5.771000000000000000e+03 2.986606788635253906e+01 1.334724712371826172e+01 2.987595507875084877e-04 -3.159058105666190386e-04 -5.143881480762502179e-06 1.602734555490314960e-04
5.772000000000000000e+03 3.806637573242187500e+01 -9.791660308837890625e+00 9.836593562795314938e-06 1.097093718271935359e-05 6.242259132704930380e-06 2.044940174528164789e-06
5.773000000000000000e+03 3.947230529785156250e+01 -9.752153396606445312e+00 -1.123308811656897888e-05 -6.121509613876696676e-06 -5.206379228184232488e-06 -7.995545274752657861e-06
5.774000000000000000e+03 2.928684806823730469e+01 6.363092422485351562e+00 2.425840502837672830e-04 7.986678838278749026e-07 7.301481673493981361e-05 1.574158341099973768e-05
5.775000000000000000e+03 1.830177497863769531e+01 1.402935791015625000e+01 2.737364266067743301e-04 -6.954310083528980613e-05 6.125799700384959579e-05 -2.384040271863341331e-04
5.776000000000000000e+03 3.276167297363281250e+01 -1.309947669506072998e-01 5.481571133714169264e-05 1.994589183595962822e-05 2.242848131572827697e-05 3.138719330308958888e-05
5.777000000000000000e+03 1.195889377593994141e+01 2.153473281860351562e+01 9.267240966437384486e-05 1.190637194667942822e-04 6.352084164973348379e-05 -3.297166549600660801e-04
5.778000000000000000e+03 3.000090980529785156e+01 1.195670032501220703e+01 2.450572501402348280e-04 -2.384746621828526258e-04 1.974775159396813251e-06 2.175482659367844462e-04
5.779000000000000000e+03 3.107216453552246094e+01 1.122079086303710938e+01 4.353050026111304760e-04 -1.193353236885741353e-04 9.479090658714994788e-05 9.489794319961220026e-05
5.780000000000000000e+03 2.792062187194824219e+01 5.105684280395507812e+00 2.029378083534538746e-04 -1.942624294315464795e-06 6.029855649103410542e-05 7.555356660304823890e-06
5.781000000000000000e+03 3.031667137145996094e+01 1.119505214691162109e+01 2.475777873769402504e-04 -1.036149551509879529e-04 4.318885112297721207e-05 1.458881306461989880e-04
5.782000000000000000e+03 2.795800971984863281e+01 8.690773963928222656e+00 3.190550196450203657e-04 -5.567978587350808084e-05 7.901257049525156617e-05 -6.322366516542388126e-06
5.783000000000000000e+03 2.766380119323730469e+01 6.660528659820556641e+00 2.647347864694893360e-04 -3.642872616183012724e-05 6.849181954748928547e-05 -7.007925432844785973e-06
5.784000000000000000e+03 2.659446907043457031e+01 5.244316101074218750e+00 2.422847610432654619e-04 -2.625824890856165439e-05 6.480795127572491765e-05 -1.131306589741143398e-06
5.785000000000000000e+03 2.684735679626464844e+01 6.757561683654785156e+00 1.542779064038768411e-04 -6.609735282836481929e-05 2.645416861923877150e-05 2.600100924610160291e-05
5.786000000000000000e+03 2.143562507629394531e+01 1.158694076538085938e+01 1.978560903808102012e-04 -1.390442630508914590e-04 1.764354965416714549e-05 -6.249429134186357260e-05
5.787000000000000000e+03 2.589464950561523438e+01 7.822185516357421875e+00 1.310731458943337202e-04 -8.134878589771687984e-05 1.491730836278293282e-05 1.328410962742054835e-05
5.788000000000000000e+03 1.276939678192138672e+01 1.333515453338623047e+01 1.292194501729682088e-04 -4.335174526204355061e-05 2.576030965428799391e-05 -1.529785658931359649e-04
5.789000000000000000e+03 1.321136188507080078e+01 1.454750442504882812e+01 1.422153291059657931e-04 -5.037992741563357413e-05 2.755062087089754641e-05 -1.541566452942788601e-04
5.790000000000000000e+03 2.903419113159179688e+01 4.914327144622802734e+00 2.505776647012680769e-04 -1.494374282628996298e-05 7.069017738103866577e-05 -1.525456809758907184e-05
5.791000000000000000e+03 2.862121009826660156e+01 4.274178028106689453e+00 7.893595466157421470e-05 -6.535850843647494912e-05 4.073235231771832332e-06 8.880062523530796170e-05
5.792000000000000000e+03 1.898507881164550781e+01 1.213254547119140625e+01 1.897961483336985111e-04 -1.573566987644881010e-04 9.731836144055705518e-06 -1.032102954923175275e-04
5.793000000000000000e+03 1.864432334899902344e+01 1.057111740112304688e+01 1.629246980883181095e-04 -1.066125478246249259e-04 1.689364580670371652e-05 -7.580097735626623034e-05
5.794000000000000000e+03 1.222822093963623047e+01 1.811387062072753906e+01 1.404461363563314080e-04 5.875256101717241108e-05 5.975960812065750360e-05 -2.976676914840936661e-04
5.795000000000000000e+03 2.965737533569335938e+01 1.952021408081054688e+01 7.365292403846979141e-04 -5.660470342263579369e-04 5.114465966471470892e-05 -2.097406832035630941e-05
5.796000000000000000e+03 2.842852973937988281e+01 1.960920524597167969e+01 4.896137979812920094e-04 -4.427144885994493961e-04 1.406979208695702255e-05 -5.496099402080290020e-05
5.797000000000000000e+03 2.952313613891601562e+01 2.320294570922851562e+01 7.759541040286421776e-04 -8.498380193486809731e-04 -2.216518259956501424e-05 -1.874146983027458191e-04
5.798000000000000000e+03 1.300986480712890625e+01 2.200934028625488281e+01 7.412788545479997993e-05 1.188580972666386515e-05 2.580410728114657104e-05 -2.831498277373611927e-04
5.799000000000000000e+03 2.958280944824218750e+01 1.129531383514404297e+01 3.853488888125866652e-04 -5.049720130045898259e-05 1.004555088002234697e-04 -1.130642067437293008e-05
5.800000000000000000e+03 1.926257896423339844e+01 2.989821624755859375e+01 -1.878301759461464826e-06 -1.379587047267705202e-04 -4.195110159344039857e-05 -5.149653297848999500e-04
5.801000000000000000e+03 3.608601760864257812e+01 -7.968215942382812500e+00 2.419649536022916436e-05 1.322235402767546475e-05 1.122565481637138873e-05 1.153778043772035744e-06
5.802000000000000000e+03 3.981996917724609375e+01 -8.072159767150878906e+00 -4.646377874450990930e-06 2.442221557430457324e-05 5.932751264481339604e-06 -1.221009006258100271e-05
5.803000000000000000e+03 3.678740692138671875e+01 -9.335061073303222656e+00 -5.432665147964144126e-06 9.433458217245060951e-06 1.200237988996377680e-06 -2.010690150200389326e-05
5.804000000000000000e+03 3.837296295166015625e+01 -2.908244132995605469e+00 1.687641452008392662e-05 7.257468678290024400e-05 2.683533239178359509e-05 7.262461622303817421e-06
5.805000000000000000e+03 3.653237152099609375e+01 -2.001748085021972656e+00 1.496794084232533351e-05 5.959765258012339473e-05 2.236967884527985007e-05 -2.710627086344175041e-05
5.806000000000000000e+03 3.489059066772460938e+01 -1.521582722663879395e+00 1.670018150434771087e-06 -6.202561507961945608e-06 -1.359763018626836129e-06 6.250105798244476318e-05
5.807000000000000000e+03 3.533085250854492188e+01 -8.866864442825317383e-01 5.424602204584516585e-05 5.294474249240010977e-05 3.215722972527146339e-05 -6.053501419955864549e-05
5.808000000000000000e+03 3.892369461059570312e+01 -9.487021446228027344e+00 1.529962901258841157e-05 1.420627722836798057e-05 8.851771781337447464e-06 -2.584524736448656768e-06
5.809000000000000000e+03 3.574444961547851562e+01 -5.760086536407470703e+00 2.270465529363718815e-06 4.804723357665352523e-05 1.509530920884571970e-05 7.958723472256679088e-06
5.810000000000000000e+03 3.666174316406250000e+01 -5.026696681976318359e+00 -8.780893949733581394e-06 6.269772256928263232e-07 -2.446174903525388800e-06 -1.180100935016525909e-05
5.811000000000000000e+03 3.815029907226562500e+01 -5.117674827575683594e+00 2.328865411982405931e-05 2.299027983099222183e-05 1.388368036714382470e-05 7.583194019389338791e-06
5.812000000000000000e+03 3.376878356933593750e+01 -5.301919579505920410e-01 3.660986476461403072e-05 1.746879570418968797e-05 1.622359741304535419e-05 3.318813469377346337e-05
5.813000000000000000e+03 3.490969085693359375e+01 -2.646462023258209229e-01 1.071723672794178128e-04 8.938242899603210390e-06 3.483318141661584377e-05 4.028484545415267348e-05
5.814000000000000000e+03 2.431945419311523438e+01 8.600224494934082031e+00 2.114698581863194704e-04 -1.752358948579058051e-04 1.087018972611986101e-05 2.187458085245452821e-05
5.815000000000000000e+03 2.445289802551269531e+01 7.287603378295898438e+00 1.206002925755456090e-04 -1.166143483715131879e-04 1.195785102936497424e-06 1.986203824344556779e-05
5.816000000000000000e+03 3.759814071655273438e+01 -5.499091625213623047e+00 -1.020633408188587055e-05 -4.268284556019352749e-06 -4.342385636846302077e-06 -1.158304348791716620e-05
5.817000000000000000e+03 3.833351898193359375e+01 -4.242064476013183594e+00 2.224317177024204284e-05 6.225438846740871668e-05 2.534926716180052608e-05 -5.513310270544025116e-07
5.818000000000000000e+03 3.865593719482421875e+01 -5.723517417907714844e+00 4.644574346457375214e-06 1.650406193220987916e-05 6.344590929074911401e-06 -1.646724558668211102e-05
5.819000000000000000e+03 3.894615173339843750e+01 -3.643769979476928711e+00 1.583180164743680507e-05 7.938384806038811803e-05 2.856469473044853657e-05 6.126424977992428467e-06
5.820000000000000000e+03 3.788526153564453125e+01 -2.504086732864379883e+00 2.327000947843771428e-05 1.050813764891245228e-07 7.012527021288406104e-06 -4.207576694170711562e-06
5.821000000000000000e+03 3.369353103637695312e+01 2.161326646804809570e+00 1.293992536375299096e-04 1.143265035352669656e-05 4.224956865073181689e-05 7.669828482903540134e-05
5.822000000000000000e+03 2.925982666015625000e+01 1.258539009094238281e+01 4.703968588728457689e-04 -6.313107587629929185e-05 1.221797283506020904e-04 1.784765663614962250e-05
5.823000000000000000e+03 1.365442276000976562e+01 1.184468650817871094e+01 1.042371950461529195e-04 -4.014000660390593112e-05 1.922915544128045440e-05 -1.239627745235338807e-04
5.824000000000000000e+03 3.290597915649414062e+01 -1.506233096122741699e+00 1.195351251226384193e-05 -1.956679989234544337e-05 -2.283986304973950610e-06 4.120831363252364099e-05
5.825000000000000000e+03 2.266202926635742188e+01 1.030174446105957031e+01 2.497961395420134068e-04 -7.895962335169315338e-05 5.125095049152150750e-05 -6.760248652426525950e-05
5.826000000000000000e+03 3.073295593261718750e+01 7.772322654724121094e+00 1.808585948310792446e-04 -1.876965397968888283e-04 -2.051385308732278645e-06 1.644803414819762111e-04
5.827000000000000000e+03 2.935788154602050781e+01 3.451776266098022461e+00 1.451165881007909775e-04 2.964556188089773059e-05 5.242864426691085100e-05 2.230006793979555368e-05
5.828000000000000000e+03 3.756652450561523438e+01 -9.337152481079101562e+00 -1.243638689629733562e-05 1.272394001716747880e-05 8.626582115311975940e-08 -1.533455542812589556e-05
5.829000000000000000e+03 3.918907546997070312e+01 -8.918700218200683594e+00 -1.392317426507361233e-05 4.195877068013942335e-07 -4.051075848110485822e-06 -9.437958397029433399e-06
5.830000000000000000e+03 3.003309631347656250e+01 2.624219417572021484e+00 6.363985448842868209e-05 -4.743560566566884518e-05 4.861274192080600187e-06 5.552278526010923088e-05
5.831000000000000000e+03 3.185900878906250000e+01 2.320331573486328125e+00 1.521643716841936111e-04 1.805285137379541993e-05 5.106516618980094790e-05 8.750848792260512710e-06
5.832000000000000000e+03 2.362371635437011719e+01 8.072484016418457031e+00 2.854488848242908716e-04 -5.978437548037618399e-05 6.769935134798288345e-05 -2.822795613610651344e-05
5.833000000000000000e+03 2.304214477539062500e+01 9.101701736450195312e+00 2.047346642939373851e-04 -1.511410664534196258e-04 1.607808007975108922e-05 -8.593076017859857529e-06
5.834000000000000000e+03 3.410095214843750000e+01 4.367762207984924316e-01 1.105975898099131882e-04 1.651044294703751802e-05 3.813240982708521187e-05 4.624970824806950986e-05
5.835000000000000000e+03 1.414539909362792969e+01 1.768007850646972656e+01 1.110709854401648045e-04 -3.867641498800367117e-05 2.171837149944622070e-05 -1.751796808093786240e-04
5.836000000000000000e+03 3.447916412353515625e+01 -2.184301376342773438e+00 4.606486982083879411e-05 4.103790342924185097e-05 2.613083233882207423e-05 -2.117975418514106423e-05
5.837000000000000000e+03 2.869032478332519531e+01 7.474297046661376953e+00 2.859253727365285158e-04 -2.899722130678128451e-05 7.707844633841887116e-05 1.819141289161052555e-05
5.838000000000000000e+03 3.387779998779296875e+01 -1.584629774093627930e+00 -5.803388830827316269e-06 6.976122676860541105e-06 3.518201481256255647e-07 4.993446782464161515e-05
5.839000000000000000e+03 1.322803401947021484e+01 1.540868759155273438e+01 8.076516678556799889e-05 8.359392268175724894e-06 2.673736889846622944e-05 -2.208427176810801029e-04
5.840000000000000000e+03 1.676727676391601562e+01 1.254654407501220703e+01 1.925285323522984982e-04 -1.001291548163862899e-05 5.475468424265272915e-05 -1.994354533962905407e-04
5.841000000000000000e+03 1.385507965087890625e+01 1.302404022216796875e+01 1.408867246937006712e-04 -6.707866123178973794e-05 2.214241976616904140e-05 -1.464435626985505223e-04
5.842000000000000000e+03 1.533606147766113281e+01 1.157952690124511719e+01 2.165616169804707170e-04 -5.391188824432902038e-05 4.879492189502343535e-05 -1.718488638289272785e-04
5.843000000000000000e+03 2.584823799133300781e+01 1.924254035949707031e+01 5.641329917125403881e-04 -3.406060568522661924e-04 6.705807754769921303e-05 -2.241546171717345715e-04
5.844000000000000000e+03 2.736918640136718750e+01 1.646126174926757812e+01 4.443526268005371094e-04 -1.464956440031528473e-04 8.935709047364071012e-05 -7.220594852697104216e-05
5.845000000000000000e+03 2.854685401916503906e+01 5.553360939025878906e+00 2.069961483357474208e-04 -9.614462760509923100e-05 3.325545549159869552e-05 7.200551044661551714e-05
5.846000000000000000e+03 2.916191291809082031e+01 9.445390701293945312e+00 3.234400937799364328e-04 -3.381610804353840649e-05 8.688719390193000436e-05 6.468122592195868492e-06
5.847000000000000000e+03 2.717959213256835938e+01 1.003263378143310547e+01 3.840913122985512018e-04 -9.306307038059458137e-05 8.730847912374883890e-05 -4.566252027871087193e-05
5.848000000000000000e+03 1.441419315338134766e+01 2.104565811157226562e+01 1.351837854599580169e-04 -4.283668386051431298e-05 2.770413266262039542e-05 -2.746600366663187742e-04
5.849000000000000000e+03 1.334699440002441406e+01 2.080499076843261719e+01 1.196802477352321148e-04 5.099817281006835401e-05 5.120352579979225993e-05 -3.336752706672996283e-04
5.850000000000000000e+03 1.545787048339843750e+01 2.253952789306640625e+01 1.687070907792076468e-04 -9.827294707065448165e-05 2.113024129357654601e-05 -2.929636975750327110e-04
5.851000000000000000e+03 1.472075843811035156e+01 1.189462947845458984e+01 9.805228182813152671e-05 -4.300300861359573901e-05 1.651478123676497489e-05 -1.098014909075573087e-04
5.852000000000000000e+03 1.246468448638916016e+01 1.417458057403564453e+01 1.230607449542731047e-04 5.172636883798986673e-05 5.243613122729584575e-05 -2.040828694589436054e-04
5.853000000000000000e+03 2.813077545166015625e+01 1.518547725677490234e+01 3.755961952265352011e-04 -4.209655453450977802e-04 -1.361080194328678772e-05 1.172944175777956843e-04
5.854000000000000000e+03 2.905863189697265625e+01 1.419720363616943359e+01 5.166335613466799259e-04 -9.239603241439908743e-05 1.272712688660249114e-04 1.246738247573375702e-05
5.855000000000000000e+03 3.227909088134765625e+01 3.847091674804687500e+00 2.934224357886705548e-05 6.639260845986427739e-06 1.079445155482972041e-05 4.590908793034031987e-05
5.856000000000000000e+03 3.163353729248046875e+01 6.024413108825683594e+00 2.117189578711986542e-04 5.212273390498012304e-05 7.915250898804515600e-05 8.519645052729174495e-05
5.857000000000000000e+03 3.160292243957519531e+01 6.768474578857421875e+00 8.829774014884606004e-05 7.348723556788172573e-06 2.869393938453868032e-05 1.152473414549604058e-04
5.858000000000000000e+03 2.989465904235839844e+01 8.193717002868652344e+00 2.854944032151252031e-04 2.104899431287776679e-05 9.196301834890618920e-05 2.744413905020337552e-05
5.859000000000000000e+03 2.936945152282714844e+01 1.041445732116699219e+01 2.169533108826726675e-04 -1.689669734332710505e-04 1.439590323570882902e-05 1.860808697529137135e-04
5.860000000000000000e+03 2.064243698120117188e+01 1.257770347595214844e+01 2.112634829245507717e-04 -6.712993490509688854e-05 4.324006658862344921e-05 -1.022888391162268817e-04
5.861000000000000000e+03 2.009264183044433594e+01 1.106048870086669922e+01 1.979568914975970984e-04 -1.772493851603940129e-04 6.212252174009336159e-06 -8.438262011623010039e-05
5.862000000000000000e+03 2.841309547424316406e+01 2.120192909240722656e+01 6.691002054139971733e-04 -6.713120965287089348e-04 -6.635589215875370428e-07 -1.377845183014869690e-04
5.863000000000000000e+03 1.701837730407714844e+01 3.064457702636718750e+01 -2.252670237794518471e-04 1.186207300634123385e-04 -3.199388811481185257e-05 -4.368196823634207249e-04
5.864000000000000000e+03 3.035054016113281250e+01 2.894642448425292969e+01 5.281357443891465664e-04 -6.909403018653392792e-04 -4.884137160843238235e-05 -9.402277646586298943e-04
5.865000000000000000e+03 2.698806571960449219e+01 1.884378623962402344e+01 5.358842317946255207e-04 -5.021600518375635147e-04 1.011724270938429981e-05 -1.814594434108585119e-04
5.866000000000000000e+03 3.703554153442382812e+01 -2.439930200576782227e+00 -1.004972318696673028e-06 2.129551148755126633e-06 3.373736774392455118e-07 4.564442861010320485e-05
5.867000000000000000e+03 3.827041625976562500e+01 -3.573836565017700195e+00 6.639944331254810095e-06 -5.372057421482168138e-05 -1.412418987456476316e-05 5.008669631934026256e-06
5.868000000000000000e+03 1.754483985900878906e+01 1.319752025604248047e+01 1.582442346261814237e-04 -1.410103141097351909e-04 5.170176336832810193e-06 -9.740982932271435857e-05
5.869000000000000000e+03 1.353946876525878906e+01 1.375810337066650391e+01 1.187560774269513786e-04 4.694025847129523754e-05 4.970890222466550767e-05 -2.024333080044016242e-04
5.870000000000000000e+03 3.552434539794921875e+01 -2.132903337478637695e+00 2.947570828837342560e-05 5.674299609381705523e-05 2.586561095085926354e-05 -2.283496905874926597e-05
5.871000000000000000e+03 3.833705902099609375e+01 -7.686372280120849609e+00 4.384880230645649135e-05 9.271350791095755994e-06 1.593604611116461456e-05 5.246550244919490069e-06
5.872000000000000000e+03 3.780785369873046875e+01 -4.437954425811767578e+00 -7.734313840046525002e-06 -1.834083013818599284e-05 -7.822543011570814997e-06 1.323460310231894255e-06
5.873000000000000000e+03 3.739538955688476562e+01 -2.939514398574829102e+00 1.123754918808117509e-05 -1.748589966155122966e-05 -1.874505187515751459e-06 1.650473677727859467e-05
5.874000000000000000e+03 2.594067382812500000e+01 8.915536880493164062e+00 3.452391247265040874e-04 -1.675540697760879993e-04 5.330552085069939494e-05 3.210083013982512057e-05
5.875000000000000000e+03 2.394272422790527344e+01 9.487456321716308594e+00 2.228116500191390514e-04 -5.338212940841913223e-05 5.082885763840749860e-05 -3.515170465107075870e-05
5.876000000000000000e+03 3.432211685180664062e+01 -3.660140633583068848e-01 -4.586867362377233803e-05 3.578334144549444318e-05 -3.025600108230719343e-06 2.553688136686105281e-05
5.877000000000000000e+03 3.226981735229492188e+01 4.944059848785400391e+00 2.009628951782360673e-04 4.461253774934448302e-05 7.367262878688052297e-05 9.049315849551931024e-05
5.878000000000000000e+03 3.132785224914550781e+01 3.642158746719360352e+00 1.822378981159999967e-04 -2.915763798227999359e-05 4.592408004100434482e-05 6.292434409260749817e-05
5.879000000000000000e+03 3.664386749267578125e+01 -8.429509162902832031e+00 -1.821203477447852492e-05 7.980260306794662029e-06 -3.069531885557807982e-06 -1.506213357060914859e-05
5.880000000000000000e+03 3.867065811157226562e+01 -8.589354515075683594e+00 1.804098246793728322e-05 1.769682603480760008e-05 1.072134273272240534e-05 -6.188618044689064845e-07
5.881000000000000000e+03 2.687292289733886719e+01 7.787384033203125000e+00 3.053789841942489147e-04 -8.847265416989102960e-05 6.507189391413703561e-05 2.218857662228401750e-05
5.882000000000000000e+03 2.779846763610839844e+01 7.664864063262939453e+00 1.334249391220510006e-04 -1.010018604574725032e-04 9.726923963171429932e-06 1.091466619982384145e-04
5.883000000000000000e+03 3.409490966796875000e+01 -4.058242797851562500e+00 2.769088496279437095e-05 -7.268028639373369515e-06 6.126856533228419721e-06 2.078955731121823192e-05
5.884000000000000000e+03 3.613165283203125000e+01 -5.330539703369140625e+00 4.121015081182122231e-05 5.573124781221849844e-06 1.403498208674136549e-05 7.035663657006807625e-06
5.885000000000000000e+03 3.257796478271484375e+01 2.811354160308837891e+00 1.165820867754518986e-04 9.327315524387813639e-07 3.525444481056183577e-05 1.035948298522271216e-04
5.886000000000000000e+03 3.947787857055664062e+01 -8.432944297790527344e+00 2.423063779133372009e-05 -1.669194716669153422e-06 6.768432740500429645e-06 5.030281954532256350e-06
5.887000000000000000e+03 3.922006607055664062e+01 -6.878468990325927734e+00 4.170652027823962271e-05 2.694123759283684194e-05 2.059432699752505869e-05 -1.493756735726492479e-05
5.888000000000000000e+03 3.347605895996093750e+01 -2.120343685150146484e+00 4.778587390319444239e-05 3.915341585525311530e-05 2.608178692753426731e-05 -7.967819328769110143e-06
5.889000000000000000e+03 2.836897850036621094e+01 1.327342224121093750e+01 3.075362474191933870e-04 -3.275062481407076120e-04 -5.990994850435527042e-06 1.483444939367473125e-04
5.890000000000000000e+03 3.122212219238281250e+01 2.755777359008789062e+00 -9.131995284406002611e-06 -1.194361811940325424e-05 -6.322683930193306878e-06 6.354428478516638279e-05
5.891000000000000000e+03 2.496418571472167969e+01 8.019344329833984375e+00 3.182578657288104296e-04 -8.091008930932730436e-05 7.120433292584493756e-05 -6.310825483524240553e-06
5.892000000000000000e+03 2.482817840576171875e+01 9.713701248168945312e+00 3.379706176929175854e-04 -2.160220756195485592e-04 3.658456262201070786e-05 3.236405973439104855e-05
5.893000000000000000e+03 3.035584068298339844e+01 6.886571884155273438e+00 2.067181048914790154e-04 8.009720477275550365e-05 8.604459435446187854e-05 3.222829036531038582e-05
5.894000000000000000e+03 2.971499252319335938e+01 4.757281303405761719e+00 4.031100252177566290e-05 1.496860659244703129e-05 1.658388282521627843e-05 4.794735650648362935e-05
5.895000000000000000e+03 1.507688045501708984e+01 1.241194248199462891e+01 2.368270943406969309e-04 -6.077819125493988395e-05 5.281467383611015975e-05 -2.000995591515675187e-04
5.896000000000000000e+03 1.459987640380859375e+01 1.892226982116699219e+01 1.222258433699607849e-04 -2.672207119758240879e-05 2.865113128791563213e-05 -2.333999145776033401e-04
5.897000000000000000e+03 3.718137359619140625e+01 -7.846487998962402344e+00 2.319736086064949632e-05 -4.212861313135363162e-06 5.695349955203710124e-06 2.517660959711065516e-06
5.898000000000000000e+03 3.730963897705078125e+01 -6.656217575073242188e+00 2.319909299330902286e-06 3.039263674509129487e-06 1.607751869414641988e-06 -4.866958533966680989e-06
5.899000000000000000e+03 1.826521301269531250e+01 1.255002880096435547e+01 2.711183624342083931e-04 -7.038620242383331060e-05 6.021964873070828617e-05 -1.877906033769249916e-04
5.900000000000000000e+03 1.538922214508056641e+01 1.358975791931152344e+01 2.376619813730940223e-04 -9.915087139233946800e-05 4.155333226663060486e-05 -1.644846197450533509e-04
5.901000000000000000e+03 3.460778808593750000e+01 -3.434209346771240234e+00 1.691245233814697713e-05 4.169294697931036353e-05 1.758162034093402326e-05 -1.501213591836858541e-05
5.902000000000000000e+03 1.895530319213867188e+01 1.338282966613769531e+01 1.788913941709324718e-04 -1.729842479107901454e-04 1.772145196810015477e-06 -7.828214438632130623e-05
5.903000000000000000e+03 1.875629615783691406e+01 1.140085887908935547e+01 2.544056915212422609e-04 -1.117055217036977410e-04 4.281005021766759455e-05 -1.544725382700562477e-04
5.904000000000000000e+03 1.327833938598632812e+01 1.745142364501953125e+01 1.260702556464821100e-04 2.707364001253154129e-05 4.594316851580515504e-05 -2.918682585004717112e-04
5.905000000000000000e+03 3.804983520507812500e+01 -6.226825237274169922e+00 3.464381734374910593e-05 1.084465566236758605e-05 1.364654235658235848e-05 9.232451702700927854e-06
5.906000000000000000e+03 3.811172103881835938e+01 -8.313518524169921875e+00 -1.926475852087605745e-05 -1.239857283508172259e-05 -9.498999133938923478e-06 -8.682085535838268697e-06
5.907000000000000000e+03 3.315927886962890625e+01 1.050936102867126465e+00 7.526828267145901918e-05 3.524178464431315660e-05 3.315302092232741416e-05 4.627690577763132751e-05
5.908000000000000000e+03 2.917204666137695312e+01 5.590181827545166016e+00 5.433431579149328172e-05 -2.438558112771715969e-05 8.984620762930717319e-06 1.326997735304757953e-04
5.909000000000000000e+03 2.844850349426269531e+01 1.073499488830566406e+01 3.812081995420157909e-04 -7.308444037334993482e-05 9.243711974704638124e-05 -3.290989116067066789e-05
5.910000000000000000e+03 1.452783775329589844e+01 1.989799690246582031e+01 1.247776963282376528e-04 -6.929054052307037637e-06 3.535459109116345644e-05 -3.288719162810593843e-04
5.911000000000000000e+03 1.359878635406494141e+01 1.970615196228027344e+01 9.950935054803267121e-05 -5.712967777071753517e-06 2.813891478581354022e-05 -2.451329492032527924e-04
5.912000000000000000e+03 1.528164577484130859e+01 1.290330791473388672e+01 5.008353036828339100e-05 2.079245859931688756e-05 2.126279650838114321e-05 -1.566610153531655669e-04
5.913000000000000000e+03 1.554140281677246094e+01 1.219858360290527344e+01 6.079956074245274067e-05 5.092211267765378579e-06 1.976753082999493927e-05 -1.069307545549236238e-04
5.914000000000000000e+03 2.878648757934570312e+01 1.170827102661132812e+01 2.422277175355702639e-04 -2.298261970281600952e-04 3.720454060385236517e-06 1.968629367183893919e-04
5.915000000000000000e+03 2.465754699707031250e+01 1.593088150024414062e+01 3.349792968947440386e-04 -1.778289879439398646e-04 4.714509123004972935e-05 -8.953874930739402771e-05
5.916000000000000000e+03 2.246827697753906250e+01 1.289813995361328125e+01 2.535437524784356356e-04 -1.248870103154331446e-04 3.859702337649650872e-05 -9.351317567052319646e-05
5.917000000000000000e+03 3.005780982971191406e+01 3.993497848510742188e+00 1.647242606850340962e-04 -8.338831685250625014e-05 2.440078424115199596e-05 8.935897494666278362e-05
5.918000000000000000e+03 2.954465675354003906e+01 7.235448360443115234e+00 1.265275059267878532e-04 -1.174295102828182280e-04 2.729397920120391063e-06 1.318463764619082212e-04
5.919000000000000000e+03 3.138016319274902344e+01 5.203213214874267578e+00 8.422070823144167662e-05 -9.347587183583527803e-05 -2.776550672933808528e-06 9.766050789039582014e-05
5.920000000000000000e+03 1.656270790100097656e+01 2.430652427673339844e+01 1.833587739383801818e-04 -1.432050048606470227e-04 1.204613454319769517e-05 -3.218763740733265877e-04
5.921000000000000000e+03 2.893046569824218750e+01 8.457772254943847656e+00 1.625208242330700159e-04 -1.373010454699397087e-04 7.565933628939092159e-06 1.376021828036755323e-04
5.922000000000000000e+03 2.568586158752441406e+01 1.773174476623535156e+01 3.548579406924545765e-04 -2.349211426917463541e-04 3.598104012780822814e-05 -1.369529782095924020e-04
5.923000000000000000e+03 2.503802108764648438e+01 8.834597587585449219e+00 1.338719594059512019e-04 -3.049007682420779020e-05 3.101456604781560600e-05 9.525388122710864991e-07
5.924000000000000000e+03 1.383200931549072266e+01 1.868534088134765625e+01 1.689853816060349345e-04 -3.272707999713020399e-06 4.971380258211866021e-05 -3.274580813013017178e-04
5.925000000000000000e+03 2.731169509887695312e+01 2.099876022338867188e+01 5.273818969726562500e-04 -3.172347787767648697e-04 6.304414273472502828e-05 -2.453569031786173582e-04
5.926000000000000000e+03 2.599743652343750000e+01 1.605803108215332031e+01 5.282583879306912422e-04 -4.146578721702098846e-04 3.408015254535712302e-05 -4.744564284919761121e-05
5.927000000000000000e+03 2.211992835998535156e+01 2.567116355895996094e+01 4.533408718998543918e-05 -3.197064215783029795e-04 -8.231170068029314280e-05 -3.438982239458709955e-04
5.928000000000000000e+03 1.860296630859375000e+01 2.773085403442382812e+01 -1.148880692198872566e-04 -3.548570748534984887e-05 -4.511213410296477377e-05 -4.500550858210772276e-04
5.929000000000000000e+03 2.015200805664062500e+01 3.233539199829101562e+01 -3.711075987666845322e-04 4.938454367220401764e-05 -9.651691652834415436e-05 -4.160430107731372118e-04
5.930000000000000000e+03 3.128182601928710938e+01 2.532740211486816406e+01 1.077045802958309650e-03 -1.040311646647751331e-03 1.102027181332232431e-05 -4.984205588698387146e-04
5.931000000000000000e+03 2.807483291625976562e+01 2.290820121765136719e+01 5.435215425677597523e-04 -3.479269507806748152e-04 5.867837899131700397e-05 -3.665050899144262075e-04
5.932000000000000000e+03 3.756589508056640625e+01 -8.411481857299804688e+00 -1.496952336310641840e-05 3.952928454964421690e-05 7.367928446910809726e-06 -3.760896561288973317e-06
5.933000000000000000e+03 3.723860168457031250e+01 -4.716704368591308594e+00 3.783426654990762472e-05 3.300400567241013050e-05 2.125148057530168444e-05 8.776549293543212116e-06
5.934000000000000000e+03 1.395151710510253906e+01 1.498000431060791016e+01 1.604740537004545331e-04 3.003166966664139181e-05 5.715171573683619499e-05 -2.409786393400281668e-04
5.935000000000000000e+03 3.615539550781250000e+01 -2.725475788116455078e+00 1.660050838836468756e-05 -2.835365921782795340e-05 -3.525945203364244662e-06 3.704974369611591101e-05
5.936000000000000000e+03 3.508493804931640625e+01 -2.802883863449096680e+00 2.132552981493063271e-05 -1.208183766721049324e-05 2.773107553366571665e-06 4.022842040285468102e-05
5.937000000000000000e+03 1.475775718688964844e+01 1.279395294189453125e+01 1.499731879448518157e-04 -7.311691297218203545e-05 2.305688212800305337e-05 -1.324517506873235106e-04
5.938000000000000000e+03 3.947149658203125000e+01 -7.578663825988769531e+00 -1.737445199978537858e-05 -8.107219855446601287e-07 -5.455552582134259865e-06 -2.451368800393538550e-06
5.939000000000000000e+03 3.760153579711914062e+01 -3.664804220199584961e+00 2.421561111987102777e-05 6.407168257283046842e-05 2.648618828970938921e-05 -1.073874591384083033e-05
5.940000000000000000e+03 3.526221084594726562e+01 -5.269249439239501953e+00 2.504961958038620651e-05 -1.713889651000499725e-05 2.373216602791217156e-06 4.470783096621744335e-06
5.941000000000000000e+03 3.691586303710937500e+01 -3.869630336761474609e+00 -2.706443228817079216e-05 -5.771233190898783505e-06 -9.850699825619813055e-06 1.475334101996850222e-05
5.942000000000000000e+03 2.787526702880859375e+01 1.221234226226806641e+01 4.420662880875170231e-04 -1.004583100439049304e-04 1.024823941406793892e-04 -6.083817788749001920e-05
5.943000000000000000e+03 2.553667449951171875e+01 1.074197387695312500e+01 3.770510083995759487e-04 -1.755402045091614127e-04 6.045324334991164505e-05 7.103549705789191648e-06
5.944000000000000000e+03 3.664422225952148438e+01 -7.252625465393066406e+00 -9.906469131237827241e-06 8.628682735434267670e-06 -3.833361006400082260e-07 -5.548196895688306540e-06
5.945000000000000000e+03 3.101553535461425781e+01 6.393395423889160156e+00 1.760782615747302771e-04 -1.566351274959743023e-04 5.832943315908778459e-06 8.714928844710811973e-05
5.946000000000000000e+03 3.571762847900390625e+01 -3.443396091461181641e+00 9.750147910381201655e-06 4.467034159461036325e-05 1.632614657864905894e-05 -1.706718467175960541e-05
5.947000000000000000e+03 1.315049457550048828e+01 1.254319572448730469e+01 1.267139887204393744e-04 4.159137097303755581e-05 5.049160972703248262e-05 -1.870415289886295795e-04
5.948000000000000000e+03 3.220499420166015625e+01 1.626401424407958984e+00 5.234285345068201423e-05 5.527078974409960210e-05 3.228409332223236561e-05 4.326586349634453654e-05
5.949000000000000000e+03 3.066097068786621094e+01 5.697094917297363281e+00 1.605515280971303582e-04 9.139614849118515849e-05 7.558430661447346210e-05 6.109455716796219349e-05
5.950000000000000000e+03 2.848655509948730469e+01 6.475586891174316406e+00 9.961921023204922676e-05 -6.408444460248574615e-05 1.066042750608175993e-05 9.213013981934636831e-05
5.951000000000000000e+03 1.657412910461425781e+01 1.641580581665039062e+01 2.027541340794414282e-04 -1.587196311447769403e-04 1.321034869761206210e-05 -1.849968393798917532e-04
5.952000000000000000e+03 1.532605648040771484e+01 1.888924980163574219e+01 4.603711568051949143e-05 -1.890337262011598796e-05 8.140123100019991398e-06 -2.634419943206012249e-04
5.953000000000000000e+03 3.679867553710937500e+01 -3.052305221557617188e+00 6.252358434721827507e-05 6.137542368378490210e-05 3.716970240930095315e-05 -1.995090497075580060e-05
5.954000000000000000e+03 1.834322738647460938e+01 1.547404479980468750e+01 3.305308055132627487e-04 -1.180555846076458693e-04 6.374256918206810951e-05 -2.499808033462613821e-04
5.955000000000000000e+03 2.469199562072753906e+01 1.307717514038085938e+01 2.753711014520376921e-04 -1.788601657608523965e-04 2.895328179874923080e-05 -2.909680370066780597e-05
5.956000000000000000e+03 2.249145317077636719e+01 1.157316970825195312e+01 2.921755658462643623e-04 -1.734570687403902411e-04 3.561554694897495210e-05 -5.751076241722330451e-05
5.957000000000000000e+03 1.972527694702148438e+01 1.411852931976318359e+01 2.909930481109768152e-04 -7.551409362349659204e-05 6.464368925662711263e-05 -2.359873033128678799e-04
5.958000000000000000e+03 1.955320739746093750e+01 1.278277969360351562e+01 2.414032060187309980e-04 -4.571196041069924831e-05 5.870737368240952492e-05 -1.612389605725184083e-04
5.959000000000000000e+03 3.343101119995117188e+01 2.127658128738403320e-01 2.959803168778307736e-05 1.513578808953752741e-05 1.342014638794353232e-05 2.866901377274189144e-05
5.960000000000000000e+03 2.976599884033203125e+01 5.426035404205322266e+00 2.551108191255480051e-04 -8.867496035236399621e-06 7.387300138361752033e-05 4.117545904591679573e-05
5.961000000000000000e+03 3.027606582641601562e+01 5.086075782775878906e+00 1.305001642322167754e-04 -9.632415458327159286e-05 1.025280198518885300e-05 6.762162956874817610e-05
5.962000000000000000e+03 3.083735847473144531e+01 4.480865955352783203e+00 1.166682122857309878e-04 6.237184425117447972e-05 5.371201768866740167e-05 3.059339724131859839e-05
5.963000000000000000e+03 2.594231414794921875e+01 2.391629409790039062e+01 4.151935572735965252e-04 -2.859724336303770542e-04 3.876633491017855704e-05 -5.372948944568634033e-04
5.964000000000000000e+03 1.684059524536132812e+01 1.402139472961425781e+01 2.445915888529270887e-04 -4.897041071671992540e-05 5.868634980288334191e-05 -2.328099508304148912e-04
5.965000000000000000e+03 1.619223022460937500e+01 1.328996658325195312e+01 9.631196735426783562e-05 -7.501077925553545356e-05 6.390356247720774263e-06 -1.036343455780297518e-04
5.966000000000000000e+03 1.442599964141845703e+01 1.657843017578125000e+01 1.432997232768684626e-04 5.838003289682092145e-06 4.474131856113672256e-05 -2.777447807602584362e-04
5.967000000000000000e+03 2.562512588500976562e+01 2.143038749694824219e+01 4.720075521618127823e-04 -2.715592272579669952e-04 6.013450183672830462e-05 -3.918855218216776848e-04
5.968000000000000000e+03 2.364949798583984375e+01 1.916388893127441406e+01 4.353458352852612734e-04 -1.986602292163297534e-04 7.100568473106250167e-05 -3.256630734540522099e-04
5.969000000000000000e+03 2.695237159729003906e+01 8.893156051635742188e+00 1.335270644631236792e-04 -9.731545287650078535e-05 1.086348311218898743e-05 9.473865793552249670e-05
5.970000000000000000e+03 2.817555046081542969e+01 9.721697807312011719e+00 1.888475526357069612e-04 -1.629856706131249666e-04 7.758564606774598360e-06 1.467074180254712701e-04
5.971000000000000000e+03 2.351881790161132812e+01 1.436726284027099609e+01 2.908640890382230282e-04 -1.584867131896317005e-04 3.971321712015196681e-05 -7.226045272545889020e-05
5.972000000000000000e+03 2.436902809143066406e+01 1.756029701232910156e+01 4.367788496892899275e-04 -4.441694472916424274e-04 -2.217180963270948268e-06 -1.352326071355491877e-04
5.973000000000000000e+03 2.343124961853027344e+01 1.573866271972656250e+01 3.983701462857425213e-04 -3.339390968903899193e-04 1.932931263581849635e-05 -1.521445956313982606e-04
5.974000000000000000e+03 1.815321922302246094e+01 2.586417388916015625e+01 1.939126814249902964e-04 -1.722068409435451031e-04 6.511751962534617633e-06 -4.346347413957118988e-04
5.975000000000000000e+03 2.465424919128417969e+01 2.281184577941894531e+01 3.460033040028065443e-04 -5.763905937783420086e-04 -6.911618402227759361e-05 -2.242939081043004990e-04
5.976000000000000000e+03 2.355538749694824219e+01 2.163117980957031250e+01 4.071076109539717436e-04 -2.368000568822026253e-04 5.109226549393497407e-05 -4.505776159930974245e-04
5.977000000000000000e+03 1.791219139099121094e+01 2.427379608154296875e+01 3.800091872108168900e-05 -5.085968950879760087e-05 -3.857631327264243737e-06 -4.333194228820502758e-04
5.978000000000000000e+03 3.213551330566406250e+01 2.752314186096191406e+01 2.366330008953809738e-04 -8.503712597303092480e-04 -1.841214689193293452e-04 -3.231469599995762110e-04
5.979000000000000000e+03 1.559333324432373047e+01 2.109217834472656250e+01 7.608833402628079057e-05 -5.961847364233108237e-06 2.103794577124062926e-05 -3.530327521730214357e-04
5.980000000000000000e+03 1.687519645690917969e+01 2.254154968261718750e+01 5.640506060444749892e-05 4.902539785689441487e-06 1.839228025346528739e-05 -4.194341308902949095e-04
5.981000000000000000e+03 3.571898651123046875e+01 -4.702535629272460938e+00 -3.949075562559301034e-06 3.287832441856153309e-05 8.678774975123815238e-06 -3.595529051381163299e-06
5.982000000000000000e+03 2.631174087524414062e+01 1.046654129028320312e+01 2.014794008573517203e-04 -2.106993197230622172e-04 -2.765975750662619248e-06 1.319467992288991809e-04
5.983000000000000000e+03 2.571215248107910156e+01 9.878995895385742188e+00 1.879525079857558012e-04 -1.142875044024549425e-05 5.295712617225944996e-05 -6.150624540168792009e-05
5.984000000000000000e+03 2.604516792297363281e+01 1.443953132629394531e+01 2.748493570834398270e-04 -2.243473572889342904e-04 1.515060466772411019e-05 1.092879301722859964e-05
5.985000000000000000e+03 3.000506401062011719e+01 6.102341175079345703e+00 1.153943085228092968e-04 -1.136009668698534369e-04 5.380038601288106292e-07 1.269037747988477349e-04
5.986000000000000000e+03 1.572058105468750000e+01 1.589742946624755859e+01 1.669687044341117144e-04 1.302218493037798908e-06 5.048127786722034216e-05 -2.734631125349551439e-04
5.987000000000000000e+03 1.739952087402343750e+01 1.704816818237304688e+01 1.785412605386227369e-04 -2.024547393375542015e-05 4.748873470816761255e-05 -2.709903055801987648e-04
5.988000000000000000e+03 1.552940464019775391e+01 1.766904830932617188e+01 4.205266304779797792e-05 -2.405476698186248541e-05 5.399369001679588109e-06 -2.207642974099144340e-04
5.989000000000000000e+03 2.369613647460937500e+01 1.055473423004150391e+01 2.961048739962279797e-04 -1.920382783282548189e-04 3.121997360722161829e-05 -1.401649751642253250e-05
5.990000000000000000e+03 2.028789520263671875e+01 1.337016963958740234e+01 2.684264618437737226e-04 -2.434934285702183843e-04 7.479914984287461266e-06 -8.150871872203424573e-05
5.991000000000000000e+03 2.147052574157714844e+01 1.275142478942871094e+01 3.129063697997480631e-04 -2.188163489336147904e-04 2.822700480464845896e-05 -9.562299237586557865e-05
5.992000000000000000e+03 1.904719352722167969e+01 1.485696125030517578e+01 1.780124730430543423e-04 -1.859584153862670064e-04 -2.383781520620686933e-06 -9.086287172976881266e-05
5.993000000000000000e+03 2.466107559204101562e+01 1.070142650604248047e+01 2.067376481136307120e-04 -9.065313497558236122e-05 3.482535248622298241e-05 -2.687181768123991787e-05
5.994000000000000000e+03 1.489869976043701172e+01 1.814283943176269531e+01 2.584586327429860830e-04 -5.396384221967309713e-05 6.134843715699389577e-05 -3.192029544152319431e-04
5.995000000000000000e+03 2.223555564880371094e+01 1.559846115112304688e+01 2.440398675389587879e-04 -1.493866584496572614e-04 2.839596345438621938e-05 -1.129999218392185867e-04
5.996000000000000000e+03 1.551717567443847656e+01 1.987477684020996094e+01 2.431599132250994444e-04 -9.033069363795220852e-05 4.584876660373993218e-05 -2.770885766949504614e-04
5.997000000000000000e+03 2.751922225952148438e+01 1.112706661224365234e+01 1.974497572518885136e-04 -1.922834489960223436e-04 1.549892431285115890e-06 1.668064505793154240e-04
5.998000000000000000e+03 2.581006622314453125e+01 1.299220275878906250e+01 4.611770855262875557e-04 -2.138430136255919933e-04 7.420022302540019155e-05 -4.416913725435733795e-05
5.999000000000000000e+03 2.474217224121093750e+01 1.445292758941650391e+01 4.195812216494232416e-04 -2.767913683783262968e-04 4.283695307094603777e-05 -8.902097033569589257e-05
6.000000000000000000e+03 2.466673851013183594e+01 2.023384284973144531e+01 3.685968986246734858e-04 -5.097896791994571686e-04 -4.235782762407325208e-05 -1.473463635193184018e-04
6.001000000000000000e+03 2.090093612670898438e+01 1.850884056091308594e+01 2.102145808748900890e-04 -2.703013888094574213e-04 -1.802603946998715401e-05 -1.314213295700028539e-04
6.002000000000000000e+03 2.659312438964843750e+01 1.151378917694091797e+01 4.315372789278626442e-04 -1.334490953013300896e-04 8.942645945353433490e-05 -7.668320176890119910e-05
6.003000000000000000e+03 2.046628570556640625e+01 2.685135841369628906e+01 2.157923881895840168e-04 -2.424434351269155741e-04 -7.995315172593109310e-06 -5.557533004321157932e-04
6.004000000000000000e+03 1.693812370300292969e+01 2.089513969421386719e+01 3.089350066147744656e-04 -1.610104955034330487e-04 4.437734969542361796e-05 -3.266903222538530827e-04
6.005000000000000000e+03 2.643215560913085938e+01 2.699745178222656250e+01 3.676005871966481209e-04 -3.395945532247424126e-04 8.401811101066414267e-06 -7.406267686747014523e-04
6.006000000000000000e+03 2.328515625000000000e+01 2.728648185729980469e+01 2.781022922135889530e-04 -3.472965327091515064e-04 -2.075827069347724319e-05 -6.754226633347570896e-04
6.007000000000000000e+03 1.524623489379882812e+01 1.450286197662353516e+01 1.408635289408266544e-04 1.192470881505869329e-05 4.583647023537196219e-05 -2.335641474928706884e-04
6.008000000000000000e+03 2.260711860656738281e+01 1.841064453125000000e+01 3.268789732828736305e-04 -3.962452756240963936e-04 -2.080989179376047105e-05 -1.203744905069470406e-04
6.009000000000000000e+03 2.687920570373535156e+01 1.268995761871337891e+01 2.207784418715164065e-04 -2.254139690194278955e-04 -1.390661395817005541e-06 1.236183452419936657e-04
6.010000000000000000e+03 2.358794403076171875e+01 1.174090576171875000e+01 2.525425807107239962e-04 -1.307507336605340242e-04 3.653754902188666165e-05 -4.638499012799002230e-05
6.011000000000000000e+03 1.619984436035156250e+01 1.493416786193847656e+01 1.679645502008497715e-04 -1.241610152646899223e-04 1.314106248173629865e-05 -1.450121199013665318e-04
6.012000000000000000e+03 1.536739253997802734e+01 1.681854438781738281e+01 2.299624611623585224e-04 -1.307278289459645748e-04 2.977039002871606499e-05 -1.841529883677139878e-04
6.013000000000000000e+03 1.976592254638671875e+01 1.555986309051513672e+01 3.013020032085478306e-04 -8.619634900242090225e-05 6.453169044107198715e-05 -2.966423926409333944e-04
6.014000000000000000e+03 1.612307167053222656e+01 1.718915557861328125e+01 1.850351836765184999e-04 -8.304992661578580737e-06 5.301905548549257219e-05 -2.901298576034605503e-04
6.015000000000000000e+03 1.656107330322265625e+01 1.955369377136230469e+01 3.715565253514796495e-05 -5.828731082146987319e-05 -6.339496849250281230e-06 -2.544138405937701464e-04
6.016000000000000000e+03 1.681735610961914062e+01 1.791602516174316406e+01 1.546979765407741070e-04 -1.478707417845726013e-04 2.048171836577239446e-06 -1.744435576256364584e-04
6.017000000000000000e+03 2.564002799987792969e+01 1.176555252075195312e+01 2.065862790914252400e-04 -1.565754646435379982e-04 1.500324378866935149e-05 3.384407682460732758e-05
6.018000000000000000e+03 2.120117378234863281e+01 1.390741825103759766e+01 2.507600001990795135e-04 -6.478853174485266209e-05 5.579143908107653260e-05 -1.659403496887534857e-04
6.019000000000000000e+03 1.433368587493896484e+01 1.416578292846679688e+01 1.625358709134161472e-04 -8.835795597406104207e-05 2.225337630079593509e-05 -1.578551600687205791e-04
6.020000000000000000e+03 1.478026390075683594e+01 1.549157619476318359e+01 1.515940966783091426e-04 -8.650546078570187092e-05 1.952658931259065866e-05 -1.521074882475659251e-04
6.021000000000000000e+03 1.607886505126953125e+01 1.852009391784667969e+01 3.118311578873544931e-04 -1.053832456818781793e-04 6.193437729962170124e-05 -3.199691127520054579e-04
6.022000000000000000e+03 2.021605682373046875e+01 2.282558631896972656e+01 1.101642337744124234e-04 -2.564700262155383825e-04 -4.389174137031659484e-05 -2.435745409457013011e-04
6.023000000000000000e+03 2.230964088439941406e+01 1.424292373657226562e+01 3.684073453769087791e-04 -2.864461275748908520e-04 2.458836934238206595e-05 -1.203721039928495884e-04
6.024000000000000000e+03 1.908250999450683594e+01 2.379562759399414062e+01 2.617594727780669928e-04 -1.609309838386252522e-04 3.024854413524735719e-05 -4.990941961295902729e-04
6.025000000000000000e+03 2.319866752624511719e+01 1.712024307250976562e+01 3.198957419954240322e-04 -1.448837429052218795e-04 5.250359754427336156e-05 -1.910859864437952638e-04
6.026000000000000000e+03 2.481894111633300781e+01 2.564485740661621094e+01 1.916106411954388022e-04 -5.774286692030727863e-04 -1.157454025815241039e-04 -3.125356743112206459e-04
6.027000000000000000e+03 1.972264862060546875e+01 2.519211387634277344e+01 5.988829798297956586e-06 -1.664702140260487795e-04 -4.814441490452736616e-05 -3.571320849005132914e-04
6.028000000000000000e+03 2.469021415710449219e+01 2.901001548767089844e+01 -1.583318808116018772e-04 -4.140068194828927517e-04 -1.717016129987314343e-04 -5.200031446292996407e-04
6.029000000000000000e+03 2.138978385925292969e+01 2.872553062438964844e+01 -1.652586215641349554e-04 -1.734990364639088511e-04 -1.016272944980300963e-04 -4.771976091433316469e-04
6.030000000000000000e+03 1.939352989196777344e+01 1.648130035400390625e+01 3.497667494229972363e-04 -2.456493093632161617e-04 3.123522765235975385e-05 -2.061557170236483216e-04
6.031000000000000000e+03 2.056224250793457031e+01 1.485337638854980469e+01 2.167366619687527418e-04 -2.435206260997802019e-04 -8.035189239308238029e-06 -5.672143015544861555e-05
6.032000000000000000e+03 1.705528259277343750e+01 1.554724121093750000e+01 2.184193290304392576e-04 -4.180717951385304332e-05 5.298364339978434145e-05 -2.478374226484447718e-04
6.033000000000000000e+03 1.781536293029785156e+01 1.613047599792480469e+01 2.221167669631540775e-04 -1.871179701993241906e-04 1.049964066623942927e-05 -1.992462639464065433e-04
6.034000000000000000e+03 2.136572647094726562e+01 1.693425178527832031e+01 2.140425494872033596e-04 -2.073229552479460835e-04 2.015878180827712640e-06 -7.172759796958416700e-05
6.035000000000000000e+03 2.356196594238281250e+01 1.302353763580322266e+01 3.505008644424378872e-04 -2.255060971947386861e-04 3.749842653633095324e-05 -7.234337681438773870e-05
6.036000000000000000e+03 1.763810539245605469e+01 1.474214839935302734e+01 1.571515167597681284e-04 -1.414155849488452077e-04 4.720781362266279757e-06 -1.232667273143306375e-04
6.037000000000000000e+03 1.761321640014648438e+01 1.883157539367675781e+01 2.904521825257688761e-04 -8.246765355579555035e-05 6.239536014618352056e-05 -3.755708457902073860e-04
6.038000000000000000e+03 1.835651779174804688e+01 2.015526580810546875e+01 9.715574560686945915e-05 -1.573610643390566111e-04 -1.806159707484766841e-05 -2.071070048259571195e-04
6.039000000000000000e+03 2.463586616516113281e+01 1.182285213470458984e+01 3.663802635855972767e-04 -1.980222587008029222e-04 5.050739855505526066e-05 -2.057472738670185208e-05
6.040000000000000000e+03 2.350986862182617188e+01 2.428275299072265625e+01 3.579744952730834484e-04 -2.796850749291479588e-04 2.348682210140395910e-05 -5.866412539035081863e-04
6.041000000000000000e+03 1.819837951660156250e+01 2.283960151672363281e+01 1.570928579894825816e-04 -2.223509218310937285e-04 -1.957741733349394053e-05 -2.507582830730825663e-04
6.042000000000000000e+03 2.240222740173339844e+01 2.296736526489257812e+01 1.926832192111760378e-04 -3.971168189309537411e-04 -6.133007991593331099e-05 -2.387031272519379854e-04
6.043000000000000000e+03 2.165004920959472656e+01 1.953075599670410156e+01 4.084781685378402472e-04 -2.007073053391650319e-04 6.233125895960256457e-05 -3.884375619236379862e-04
6.044000000000000000e+03 1.921242332458496094e+01 2.157615089416503906e+01 3.261526580899953842e-04 -1.490727736381813884e-04 5.312396388035267591e-05 -4.730457731056958437e-04
6.045000000000000000e+03 2.045232772827148438e+01 1.740758132934570312e+01 3.736810176633298397e-04 -2.061795530607923865e-04 5.025044083595275879e-05 -3.355884109623730183e-04
6.046000000000000000e+03 1.857490921020507812e+01 1.640249061584472656e+01 1.409316319040954113e-04 -5.298454925650730729e-05 2.638412297528702766e-05 -2.170799562009051442e-04
6.047000000000000000e+03 2.113508987426757812e+01 1.583728694915771484e+01 3.801493439823389053e-04 -1.946101401699706912e-04 5.566176332649774849e-05 -2.893720520660281181e-04
6.048000000000000000e+03 2.048998260498046875e+01 2.053330039978027344e+01 1.425941882189363241e-04 -2.610152005217969418e-04 -3.552630369085818529e-05 -1.887026155600324273e-04
6.049000000000000000e+03 2.113205146789550781e+01 2.418192100524902344e+01 3.191615105606615543e-04 -2.345955290365964174e-04 2.536979809519834816e-05 -5.542676080949604511e-04
6.050000000000000000e+03 2.179428863525390625e+01 1.774601936340332031e+01 3.552840207703411579e-04 -1.467743568355217576e-04 6.255289918044582009e-05 -3.275997878517955542e-04
6.051000000000000000e+03 2.256267547607421875e+01 2.053381347656250000e+01 2.513987128622829914e-04 -4.021090862806886435e-04 -4.521311348071321845e-05 -1.808280649129301310e-04
6.052000000000000000e+03 1.971541595458984375e+01 1.923226737976074219e+01 3.911160456482321024e-04 -1.996456994675099850e-04 5.744110603700391948e-05 -3.725705028045922518e-04
6.053000000000000000e+03 1.938110733032226562e+01 1.779455566406250000e+01 1.173864584416151047e-04 -9.195768507197499275e-05 7.628633738931966946e-06 -1.970593293663114309e-04
6.054000000000000000e+03 1.830953407287597656e+01 1.765460586547851562e+01 2.790899889077991247e-04 -2.451068139635026455e-04 1.019494629872497171e-05 -2.009264135267585516e-04
6.055000000000000000e+03 2.222166633605957031e+01 1.681358718872070312e+01 4.007457464467734098e-04 -3.560247423592954874e-04 1.341630104434443638e-05 -1.882915239548310637e-04
6.056000000000000000e+03 2.021990394592285156e+01 1.633664131164550781e+01 1.929730206029489636e-04 -1.850653789006173611e-04 2.372290509811136872e-06 -7.719959830865263939e-05
6.057000000000000000e+03 2.140768241882324219e+01 2.173136711120605469e+01 3.784603613894432783e-04 -2.135597314918413758e-04 4.947018896928057075e-05 -4.786600475199520588e-04
6.058000000000000000e+03 2.378997039794921875e+01 3.271592712402343750e+01 -4.519603971857577562e-04 -2.111903449986129999e-04 -1.989452284760773182e-04 -3.943545161746442318e-04
6.059000000000000000e+03 1.022208404541015625e+01 -4.009442520141601562e+01 -2.027860842645168304e-03 2.540535992011427879e-03 1.538025680929422379e-04 7.759102154523134232e-04
6.060000000000000000e+03 6.301309204101562500e+01 -4.131953430175781250e+01 7.100511193275451660e-01 3.233599066734313965e-01 3.100233078002929688e-01 -1.006901264190673828e-01
6.061000000000000000e+03 3.179438781738281250e+01 3.093647384643554688e+01 -2.105036546709015965e-04 -7.882816134952008724e-04 -2.996355760842561722e-04 -6.854903767816722393e-04
6.062000000000000000e+03 3.522404479980468750e+01 3.571873092651367188e+01 -1.578266150318086147e-03 -8.241583127528429031e-04 -7.207273156382143497e-04 -5.628538783639669418e-04
6.063000000000000000e+03 2.836519813537597656e+01 3.027153015136718750e+01 -9.611479617888107896e-05 -5.070940824225544930e-04 -1.809626701287925243e-04 -7.672721985727548599e-04
6.064000000000000000e+03 3.105946159362792969e+01 3.442006301879882812e+01 -7.939031929709017277e-04 -3.701915265992283821e-04 -3.492284158710390329e-04 -9.386313613504171371e-04
6.065000000000000000e+03 1.340604019165039062e+01 4.053698730468750000e+01 -2.465527504682540894e-04 3.301910182926803827e-04 2.509148362150881439e-05 -1.981650566449388862e-04
6.066000000000000000e+03 3.202893066406250000e+01 3.731907272338867188e+01 -1.405441202223300934e-03 -1.148968352936208248e-03 -7.663228316232562065e-04 -7.918600458651781082e-04
6.067000000000000000e+03 2.578365135192871094e+01 3.388154983520507812e+01 -5.305205704644322395e-04 -6.010768629494123161e-05 -1.771884708432480693e-04 -8.334126323461532593e-04
6.068000000000000000e+03 2.417859268188476562e+01 3.698215866088867188e+01 -7.915963069535791874e-04 -1.586070720804855227e-04 -2.850610180757939816e-04 -1.985259150387719274e-04
6.069000000000000000e+03 2.850104713439941406e+01 2.781580543518066406e+01 2.572956145741045475e-04 -9.335797512903809547e-04 -2.028852322837337852e-04 -3.439347201492637396e-04
6.070000000000000000e+03 2.147982597351074219e+01 3.505688476562500000e+01 -3.094741259701550007e-04 -1.549456355860456824e-04 -1.393259299220517278e-04 -5.603302852250635624e-04
6.071000000000000000e+03 5.845201492309570312e+01 -1.592261886596679688e+01 -7.409676982206292450e-06 -1.570741369505412877e-05 -6.935127203178126365e-06 -6.777508133382070810e-06
6.072000000000000000e+03 5.899195480346679688e+01 -1.566721534729003906e+01 -2.601852656880510040e-06 6.859725999674992636e-06 1.277362116525182500e-06 2.165548949051299132e-06
6.073000000000000000e+03 2.172034454345703125e+01 -1.349890422821044922e+01 9.463393325859215111e-06 -2.317162461906718818e-08 2.832066456903703511e-06 2.572494395280955359e-07
6.074000000000000000e+03 9.182483673095703125e+00 -1.883071184158325195e+00 4.523821189650334418e-06 4.892837750958278775e-06 2.824997636707848869e-06 3.896407633874332532e-06
6.075000000000000000e+03 7.857411193847656250e+01 4.198857116699218750e+01 -2.322666719555854797e-02 8.946748733520507812e+00 2.677056789398193359e+00 6.361851841211318970e-02
6.076000000000000000e+03 4.335611724853515625e+01 -2.465499877929687500e+01 -2.596966736018657684e-02 -5.377367734909057617e-01 -1.691119372844696045e-01 -3.747300207614898682e-01
6.077000000000000000e+03 6.919443511962890625e+01 3.923811721801757812e+01 -1.352164745330810547e-01 4.077170848846435547e+00 1.182586312294006348e+00 -2.924571633338928223e-01
6.078000000000000000e+03 2.861620712280273438e+01 -1.449034118652343750e+01 -1.530602821731008589e-05 -8.604646609455812722e-06 -7.173202448029769585e-06 1.637019408917694818e-07
6.079000000000000000e+03 7.542793273925781250e+01 3.846232604980468750e+01 -1.828541755676269531e-01 7.445853710174560547e+00 2.178900003433227539e+00 2.171166241168975830e-01
6.080000000000000000e+03 2.042970657348632812e+00 -3.868664932250976562e+01 -1.267613115487620234e-04 8.469785097986459732e-04 2.160651492886245251e-04 3.588980762287974358e-04
6.081000000000000000e+03 6.383518600463867188e+01 3.513866424560546875e+01 -5.435128211975097656e-01 1.277907043695449829e-01 -1.247166395187377930e-01 -2.320780232548713684e-02
6.082000000000000000e+03 1.957285499572753906e+01 -9.967535018920898438e+00 -1.112850532081210986e-05 -2.219470616182661615e-06 -4.004392849310534075e-06 -3.412021669646492228e-06
6.083000000000000000e+03 2.986723661422729492e+00 -3.708438873291015625e+01 6.664980901405215263e-05 7.002396741881966591e-04 2.300668420502915978e-04 2.930826449301093817e-04
6.084000000000000000e+03 4.419219970703125000e+01 -2.619517135620117188e+01 -1.050606891512870789e-01 -6.111104488372802734e-01 -2.148513346910476685e-01 -5.557687878608703613e-01
6.085000000000000000e+03 5.424427413940429688e+01 -2.800777816772460938e+01 1.042684674263000488e+00 1.874450087547302246e+00 8.751404285430908203e-01 2.715659439563751221e-01
6.086000000000000000e+03 5.748988723754882812e+01 -2.355893325805664062e+01 7.663414627313613892e-02 1.458626866340637207e+00 4.605782926082611084e-01 7.969610095024108887e-01
6.087000000000000000e+03 2.006063842773437500e+01 -1.184639358520507812e+01 -1.368592984363203868e-05 -2.016299958995659836e-06 -4.710668690677266568e-06 -5.591656645265175030e-06
6.088000000000000000e+03 1.882197952270507812e+01 -1.107223510742187500e+01 1.123615493270335719e-05 5.424536198006535415e-07 3.533582685122382827e-06 -6.511078481707954779e-06
6.089000000000000000e+03 3.947131729125976562e+01 -1.654382514953613281e+01 4.715426769053010503e-07 4.877008905168622732e-06 1.604565454726980533e-06 9.664221352068125270e-07
6.090000000000000000e+03 7.335441589355468750e+01 -2.320170402526855469e+01 1.942725479602813721e-01 8.743058204650878906e+00 2.681199312210083008e+00 4.725234806537628174e-01
6.091000000000000000e+03 3.683666992187500000e+01 -3.464506912231445312e+01 -1.142331957817077637e-01 -2.105803787708282471e-01 -9.744407236576080322e-02 -2.277346253395080566e-01
6.092000000000000000e+03 5.755267715454101562e+01 -2.252609062194824219e+01 -4.495944976806640625e-01 1.210973501205444336e+00 2.284137159585952759e-01 7.015160322189331055e-01
6.093000000000000000e+03 6.347679519653320312e+01 -2.113624572753906250e+01 -1.037165880203247070e+00 6.757210493087768555e-01 -1.084334477782249451e-01 5.466904044151306152e-01
6.094000000000000000e+03 3.822169780731201172e+00 -3.449540710449218750e+01 3.017033741343766451e-04 3.294718044344335794e-04 1.893525477498769760e-04 4.311059019528329372e-04
6.095000000000000000e+03 4.501836395263671875e+01 -1.716152572631835938e+01 -1.100107525076055026e-07 7.031963377812644467e-06 2.076585815302678384e-06 1.793315846043697093e-06
6.096000000000000000e+03 1.908995032310485840e+00 3.602845764160156250e+01 6.478201976278796792e-05 8.530761697329580784e-04 2.753574517555534840e-04 -7.344187179114669561e-05
6.097000000000000000e+03 2.851165390014648438e+01 -3.301398468017578125e+01 1.889151707291603088e-02 -3.003740916028618813e-03 4.766332916915416718e-03 -1.656913082115352154e-04
6.098000000000000000e+03 4.881481552124023438e+01 3.232046890258789062e+01 2.567698014900088310e-03 4.164490848779678345e-03 2.019656589254736900e-03 7.568166474811732769e-04
6.099000000000000000e+03 1.303172111511230469e+01 4.128232479095458984e+00 6.542261689901351929e-05 4.093556981388246641e-06 2.085485357383731753e-05 -4.735987749882042408e-05
6.100000000000000000e+03 1.810678672790527344e+01 -3.268621444702148438e+01 8.724455721676349640e-03 5.820746300742030144e-04 2.791959093883633614e-03 3.663504263386130333e-03
6.101000000000000000e+03 5.287746810913085938e+01 -2.885565185546875000e+01 9.553629159927368164e-01 1.201339006423950195e+00 6.470105648040771484e-01 1.190041452646255493e-01
6.102000000000000000e+03 3.905836105346679688e+01 -1.609105300903320312e+01 -9.377505193697288632e-06 1.000898919301107526e-05 1.894451600037427852e-07 -6.516073881357442588e-06
6.103000000000000000e+03 5.230207443237304688e+01 -2.845192909240722656e+01 8.429610133171081543e-01 8.833603262901306152e-01 5.178964138031005859e-01 -2.114096097648143768e-02
6.104000000000000000e+03 6.921830749511718750e+01 -1.794167709350585938e+01 -2.306002229452133179e-01 2.632928609848022461e+00 7.206985354423522949e-01 -8.546912074089050293e-01
6.105000000000000000e+03 1.281105136871337891e+01 5.285511970520019531e+00 6.471798405982553959e-05 -1.736440594868327025e-06 1.889446321001742035e-05 -5.608184073935262859e-05
6.106000000000000000e+03 4.313470077514648438e+01 -1.522670650482177734e+01 3.763752602026215754e-06 1.569745450069603976e-06 1.600049358785327058e-06 -3.275262088209274225e-07
6.107000000000000000e+03 5.538611984252929688e+01 -2.516746902465820312e+01 4.948971271514892578e-01 1.487961411476135254e+00 5.948575735092163086e-01 3.630323708057403564e-01
6.108000000000000000e+03 5.500928878784179688e+01 -2.477339363098144531e+01 3.062118589878082275e-01 1.204503774642944336e+00 4.532147049903869629e-01 2.042185515165328979e-01
6.109000000000000000e+03 8.617334365844726562e+00 -4.028378963470458984e+00 -9.930618034559302032e-06 -5.284349299472523853e-06 -4.564490154734812677e-06 -5.634874469251371920e-06
6.110000000000000000e+03 4.354093170166015625e+01 -1.613569831848144531e+01 4.029125193483196199e-06 7.526102763222297654e-06 3.466568387011648156e-06 4.394461257106740959e-07
6.111000000000000000e+03 1.660125541687011719e+01 -1.094999694824218750e+01 -1.760819395713042468e-05 -7.830698450561612844e-06 -7.631667358509730548e-06 7.365360033873002976e-06
6.112000000000000000e+03 1.724041557312011719e+01 -1.038428878784179688e+01 2.380942078161751851e-06 -1.906976194732123986e-06 1.421897195541532710e-07 -5.365030119719449431e-06
6.113000000000000000e+03 1.609978866577148438e+01 -1.069562530517578125e+01 1.626973971724510193e-05 1.572743894939776510e-05 9.599153599992860109e-06 -5.798704592052672524e-07
6.114000000000000000e+03 1.279003906250000000e+01 -1.243416213989257812e+01 -2.829492768796626478e-05 -1.592696753505151719e-05 -1.326656820310745388e-05 1.707436751985369483e-07
6.115000000000000000e+03 1.143987655639648438e+01 -1.231118011474609375e+01 -4.040232306579127908e-05 -1.112449717766139656e-05 -1.545804661873262376e-05 -1.335112392553128302e-05
6.116000000000000000e+03 5.267252349853515625e+01 -2.799078369140625000e+01 8.664881587028503418e-01 9.882524013519287109e-01 5.564221739768981934e-01 -2.351200580596923828e-02
6.117000000000000000e+03 4.009955596923828125e+01 -1.451711463928222656e+01 -1.740981133480090648e-06 1.338418223895132542e-05 3.492960559015045874e-06 -4.300465661799535155e-06
6.118000000000000000e+03 7.241594696044921875e+01 -1.892211341857910156e+01 -1.074306845664978027e+00 6.289585113525390625e+00 1.564583539962768555e+00 -7.871688604354858398e-01
6.119000000000000000e+03 3.052468490600585938e+01 -1.159434223175048828e+01 -1.101742600440047681e-05 -8.790972970018628985e-06 -5.942519692325731739e-06 7.054396064631873742e-06
6.120000000000000000e+03 1.367341423034667969e+01 -3.368706893920898438e+01 3.049539867788553238e-03 1.569596788613125682e-04 9.619498741813004017e-04 2.800680929794907570e-03
6.121000000000000000e+03 3.733518600463867188e+01 -1.639863777160644531e+01 -5.260493708192370832e-06 4.799494490725919604e-06 -1.382997254495421657e-07 -1.132841703110898379e-06
6.122000000000000000e+03 5.428709411621093750e+01 -2.400378417968750000e+01 -8.128132671117782593e-02 7.334483861923217773e-01 1.956501305103302002e-01 -4.357875883579254150e-02
6.123000000000000000e+03 5.325133132934570312e+01 -2.581377220153808594e+01 4.739527404308319092e-01 8.455808758735656738e-01 3.958600759506225586e-01 -1.736140996217727661e-01
6.124000000000000000e+03 6.542589664459228516e+00 -2.178506469726562500e+01 1.803178747650235891e-05 -1.673510705586522818e-04 -4.479578637983649969e-05 -3.350605038576759398e-05
6.125000000000000000e+03 6.838793945312500000e+01 -1.743376731872558594e+01 3.786491230130195618e-02 2.073878049850463867e+00 6.335229277610778809e-01 -4.647513628005981445e-01
6.126000000000000000e+03 3.623162460327148438e+01 -1.636595726013183594e+01 -4.537599579634843394e-06 5.969264748273417354e-06 4.294994937481533270e-07 2.049789372904342599e-06
6.127000000000000000e+03 7.436774444580078125e+01 -2.762364959716796875e+01 1.127352356910705566e+00 8.904046058654785156e+00 3.009419441223144531e+00 -9.157404303550720215e-02
6.128000000000000000e+03 3.224821090698242188e+01 2.117609024047851562e+01 4.646701272577047348e-04 -3.878522547893226147e-04 2.304535701114218682e-05 1.755344273988157511e-04
6.129000000000000000e+03 3.253226852416992188e+01 2.286760520935058594e+01 1.276580151170492172e-03 -8.324465015903115273e-04 1.332400861429050565e-04 -2.947567554656416178e-04
6.130000000000000000e+03 2.647183036804199219e+01 2.038192939758300781e+01 4.489116836339235306e-04 -5.896265502087771893e-04 -4.221446215524338186e-05 -1.523143291706219316e-04
6.131000000000000000e+03 4.563623428344726562e+01 -8.558955192565917969e+00 3.013217065017670393e-05 2.480572038621176034e-05 1.648136822041124105e-05 1.794570744095835835e-05
6.132000000000000000e+03 4.619499206542968750e+01 -1.099774932861328125e+01 3.401075809961184859e-05 2.033369810305885039e-06 1.081323807738954201e-05 9.807944479689467698e-06
6.133000000000000000e+03 7.560645580291748047e+00 -1.631533050537109375e+01 5.615711779682897031e-05 -6.278572254814207554e-05 -1.988580834222375415e-06 -2.217430164819234051e-06
6.134000000000000000e+03 3.037607002258300781e+01 -1.113177394866943359e+01 8.905843060347251594e-06 -2.415169547020923346e-05 -4.573755632009124383e-06 6.647715053986757994e-06
6.135000000000000000e+03 7.712427520751953125e+01 -1.785280418395996094e+01 -2.469965517520904541e-01 8.615572929382324219e+00 2.510572910308837891e+00 6.623695045709609985e-02
6.136000000000000000e+03 5.722747802734375000e+00 -2.164815521240234375e+01 2.376880729570984840e-05 -1.447563554393127561e-04 -3.629626371548511088e-05 -5.148041964275762439e-06
6.137000000000000000e+03 5.342741489410400391e+00 -2.627107048034667969e+01 -8.449586312053725123e-05 5.463048000819981098e-05 -8.959616025094874203e-06 -1.459733812225749716e-05
6.138000000000000000e+03 1.539063167572021484e+01 -1.062959480285644531e+01 2.191319617850240320e-05 2.189033239119453356e-06 7.230668870761292055e-06 1.737563979986589402e-05
6.139000000000000000e+03 7.549947357177734375e+01 -2.260682106018066406e+01 -3.985857963562011719e-02 8.473255157470703125e+00 2.530019044876098633e+00 7.558295130729675293e-01
6.140000000000000000e+03 2.991219711303710938e+01 -1.107966518402099609e+01 1.275567774428054690e-05 6.601935638173017651e-06 5.807284196635009721e-06 -8.078795872279442847e-06
6.141000000000000000e+03 3.003808212280273438e+01 -1.069044303894042969e+01 -9.109652637562248856e-06 5.187321789890120272e-07 -2.577276063675526530e-06 4.211201485304627568e-06
6.142000000000000000e+03 3.062166976928710938e+01 -1.123295116424560547e+01 1.977546526177320629e-05 -8.915910143514338415e-07 5.665162461809813976e-06 2.489182861609151587e-06
6.143000000000000000e+03 4.277715682983398438e+01 -1.562805652618408203e+01 3.031761025340529159e-06 6.012280209688469768e-06 2.713212325033964589e-06 5.351466370484558865e-06
6.144000000000000000e+03 6.061172962188720703e+00 -1.733751869201660156e+01 8.034739948925562203e-06 -4.397533120936714113e-05 -1.078217701433459297e-05 -5.555823008762672544e-05
6.145000000000000000e+03 4.263725280761718750e+01 -1.507072353363037109e+01 -1.637087189010344446e-05 -4.190814252069685608e-06 -6.168505933601409197e-06 -1.436964703316334635e-05
6.146000000000000000e+03 3.064339828491210938e+01 -1.095493698120117188e+01 -1.959222936420701444e-05 6.180598120408831164e-06 -4.023489509563660249e-06 5.523716026800684631e-06
6.147000000000000000e+03 3.890617370605468750e+01 -1.406421661376953125e+01 -1.832101042964495718e-05 -5.748599505750462413e-06 -7.220883162517566234e-06 -5.252387836662819609e-06
6.148000000000000000e+03 3.781465911865234375e+01 -1.311348819732666016e+01 9.826765563047956675e-06 8.771177817834541202e-06 5.579383014264749363e-06 4.623204290510329884e-07
6.149000000000000000e+03 4.981382369995117188e+01 -2.668545532226562500e+01 3.585320711135864258e-01 7.549759000539779663e-02 1.302088946104049683e-01 -4.590131044387817383e-01
6.150000000000000000e+03 4.973068618774414062e+01 -2.623431015014648438e+01 2.680395543575286865e-01 3.440605476498603821e-02 9.073367714881896973e-02 -5.217502713203430176e-01
6.151000000000000000e+03 4.616410064697265625e+01 -1.155751228332519531e+01 -3.760155232157558203e-05 1.688909605945809744e-06 -1.077379238267894834e-05 -2.212613981100730598e-05
6.152000000000000000e+03 7.082727813720703125e+01 -1.151608562469482422e+01 5.669776815921068192e-03 5.043356895446777344e+00 1.514708042144775391e+00 -1.112431585788726807e-01
6.153000000000000000e+03 4.540098190307617188e+01 -7.891949653625488281e+00 -2.098239201586693525e-05 -4.178193194093182683e-05 -1.882929791463539004e-05 -2.725580634432844818e-05
6.154000000000000000e+03 4.017807006835937500e+01 -1.357934951782226562e+01 -1.902369695017114282e-05 9.144571777142118663e-06 -2.963737415484501980e-06 -1.049123238772153854e-05
6.155000000000000000e+03 7.570789337158203125e+01 8.365050315856933594e+00 9.585330262780189514e-03 7.758166790008544922e+00 2.330325603485107422e+00 2.117069661617279053e-01
6.156000000000000000e+03 7.546096801757812500e+01 7.821466445922851562e+00 9.053801745176315308e-02 7.923466205596923828e+00 2.404201269149780273e+00 2.058289349079132080e-01
6.157000000000000000e+03 4.556041336059570312e+01 -1.099964046478271484e+01 -2.369476715102791786e-05 -1.559408701723441482e-05 -1.178665570478187874e-05 -1.553442780277691782e-05
6.158000000000000000e+03 7.121405792236328125e+01 -1.733567810058593750e+01 -5.451946854591369629e-01 4.810002326965332031e+00 1.279442310333251953e+00 -9.131619334220886230e-01
6.159000000000000000e+03 5.064365386962890625e+01 -2.660681343078613281e+01 4.276868999004364014e-01 2.269417047500610352e-01 1.963885724544525146e-01 -4.111185669898986816e-01
6.160000000000000000e+03 1.464765930175781250e+01 -1.056995105743408203e+01 2.805826443363912404e-05 9.388892067363485694e-06 1.123414676840184256e-05 1.561711542308330536e-05
6.161000000000000000e+03 7.608329772949218750e+01 -3.190175247192382812e+01 -1.204909458756446838e-01 8.313201904296875000e+00 2.457813262939453125e+00 -6.164925098419189453e-01
6.162000000000000000e+03 5.795080184936523438e+00 -1.663963127136230469e+01 9.547244553687050939e-05 -3.244440813432447612e-05 1.890840940177440643e-05 1.326050005445722491e-05
6.163000000000000000e+03 1.158063030242919922e+01 -1.054495143890380859e+01 -2.503448013158049434e-05 -1.140623044193489477e-05 -1.093221271730726585e-05 -2.526294701965525746e-05
6.164000000000000000e+03 9.417484283447265625e+00 -1.258427333831787109e+01 -1.546855673950631171e-05 -1.393127058690879494e-05 -8.819947652227710932e-06 -2.172039330616826192e-06
6.165000000000000000e+03 7.523779869079589844e+00 -1.528652381896972656e+01 3.988143362221308053e-05 -2.852364013961050659e-05 3.407337317185010761e-06 -7.125870524760102853e-06
6.166000000000000000e+03 7.612715148925781250e+01 -2.259727859497070312e+01 -7.270652800798416138e-03 8.481622695922851562e+00 2.542305469512939453e+00 7.300673127174377441e-01
6.167000000000000000e+03 7.600775909423828125e+01 7.831141948699951172e+00 6.926568597555160522e-02 7.619428157806396484e+00 2.306608200073242188e+00 1.987837105989456177e-01
6.168000000000000000e+03 7.594705200195312500e+01 3.001577949523925781e+01 9.911432862281799316e-03 7.498972415924072266e+00 2.252665042877197266e+00 6.713144779205322266e-01
6.169000000000000000e+03 2.735881614685058594e+01 1.987764167785644531e+01 5.098441033624112606e-04 -3.650102880783379078e-04 4.345014167483896017e-05 -1.468916452722623944e-04
6.170000000000000000e+03 3.482637786865234375e+01 -1.192086219787597656e+01 1.686269388301298022e-05 1.002727549348492175e-05 8.066990631050430238e-06 2.765858880593441427e-06
6.171000000000000000e+03 1.503470039367675781e+01 -1.011659812927246094e+01 -2.099598532367963344e-05 -1.035889567901904229e-06 -6.609562205994734541e-06 -8.483405508741270751e-06
6.172000000000000000e+03 7.241147041320800781e+00 -1.397239780426025391e+01 -4.856356099480763078e-06 -5.899520328966900706e-05 -1.915546818054281175e-05 -2.244723145850002766e-05
6.173000000000000000e+03 3.596839523315429688e+01 -1.210370731353759766e+01 -6.171085260575637221e-06 2.760785173450130969e-05 6.431029760278761387e-06 3.272497679063235410e-06
6.174000000000000000e+03 3.479146575927734375e+01 -1.045948028564453125e+01 -2.221209979325067252e-05 -3.567849034880055115e-06 -7.733984602964483202e-06 8.360875654034316540e-06
6.175000000000000000e+03 1.644259834289550781e+01 7.516236305236816406e+00 1.716693077469244599e-04 -1.308922128373524174e-05 4.757402712129987776e-05 -8.265315409516915679e-05
6.176000000000000000e+03 4.392449569702148438e+01 -1.331561565399169922e+01 -3.111261685262434185e-05 1.087514465325511992e-05 -6.071241386962356046e-06 -2.067209243250545114e-05
6.177000000000000000e+03 7.591373443603515625e+01 2.785855674743652344e+01 1.618980318307876587e-01 7.472355365753173828e+00 2.290276050567626953e+00 6.031793355941772461e-01
6.178000000000000000e+03 4.378142547607421875e+01 -9.577605247497558594e+00 2.595015757833607495e-05 2.240018511656671762e-05 1.450510262657189742e-05 1.662000613578129560e-05
6.179000000000000000e+03 9.546124458312988281e+00 -9.712033271789550781e+00 -3.153127181576564908e-05 5.260955276753520593e-06 -7.881095370976254344e-06 6.966865839785896242e-06
6.180000000000000000e+03 1.350760650634765625e+01 -9.073715209960937500e+00 -5.248694378678919747e-06 -1.376830482513469178e-06 -1.987657469726400450e-06 1.753813194227404892e-05
6.181000000000000000e+03 7.620156860351562500e+01 -3.115972137451171875e+01 -7.325382321141660213e-04 8.335144042968750000e+00 2.500323534011840820e+00 -6.442785263061523438e-01
6.182000000000000000e+03 3.818909072875976562e+01 -1.182936954498291016e+01 1.894288288895040751e-05 1.151926198872388341e-06 6.028442840033676475e-06 4.407675533002475277e-06
6.183000000000000000e+03 7.565605163574218750e+01 1.049790382385253906e+01 -1.369423717260360718e-01 7.795510768890380859e+00 2.297570466995239258e+00 1.474835127592086792e-01
6.184000000000000000e+03 8.556872367858886719e+00 -6.759725093841552734e+00 1.997662911890074611e-05 6.273029157455312088e-06 7.874898074078373611e-06 7.752897545287851244e-06
6.185000000000000000e+03 7.516142272949218750e+01 -4.420948505401611328e+00 -1.704048551619052887e-02 7.526683807373046875e+00 2.252892971038818359e+00 -6.921151280403137207e-01
6.186000000000000000e+03 7.542881011962890625e+01 -5.989818572998046875e+00 -7.206693291664123535e-02 7.462014198303222656e+00 2.216984033584594727e+00 -6.858227252960205078e-01
6.187000000000000000e+03 4.317099761962890625e+01 -1.198258209228515625e+01 2.136484545189887285e-05 -9.135558684647548944e-06 3.668785893751191907e-06 8.948271897679660469e-06
6.188000000000000000e+03 7.544081878662109375e+01 -1.287690830230712891e+01 -1.570896059274673462e-01 7.399667739868164062e+00 2.172773361206054688e+00 -5.066750645637512207e-01
6.189000000000000000e+03 8.265472412109375000e+00 -1.080182933807373047e+01 3.507916699163615704e-05 1.445590351067949086e-05 1.486052133259363472e-05 8.236126632255036384e-06
6.190000000000000000e+03 5.646586894989013672e+00 1.033810138702392578e+01 2.366724220337346196e-05 7.068285776767879725e-05 2.830503035511355847e-05 -7.809596718288958073e-05
6.191000000000000000e+03 4.421035766601562500e+01 -5.506828308105468750e+00 2.140474680345505476e-05 -5.236094511928968132e-05 -9.286859494750387967e-06 -3.168156399624422193e-05
6.192000000000000000e+03 4.310692214965820312e+01 -5.276008129119873047e+00 -2.462520569679327309e-05 -5.311333734425716102e-05 -2.332156327611301094e-05 -2.684129140106961131e-05
6.193000000000000000e+03 6.653278350830078125e+00 1.084902954101562500e+01 2.956572279799729586e-05 6.574374856427311897e-05 2.859284177247900516e-05 -9.674813918536528945e-05
6.194000000000000000e+03 3.293007278442382812e+01 -6.760462284088134766e+00 1.265319860976887867e-05 2.062639197220050846e-07 3.857838692056247965e-06 -5.288330612529534847e-06
6.195000000000000000e+03 1.003252887725830078e+01 1.366785430908203125e+01 1.075748514267615974e-04 3.599133196985349059e-05 4.306985647417604923e-05 -1.544388796901330352e-04
6.196000000000000000e+03 1.141883945465087891e+01 1.583405399322509766e+01 5.712221900466829538e-05 5.023183985031209886e-05 3.220621874788776040e-05 -1.957446802407503128e-04
6.197000000000000000e+03 5.183091640472412109e+00 1.077113056182861328e+01 5.191678792471066117e-05 8.293744031107053161e-05 4.045627065352164209e-05 -8.661139872856438160e-05
6.198000000000000000e+03 3.956671524047851562e+01 -6.626588851213455200e-02 -1.718822022667154670e-05 2.462617885612417012e-05 2.231387725259992294e-06 -1.825201479732641019e-06
6.199000000000000000e+03 1.457087993621826172e+01 1.340581798553466797e+01 1.272858935408294201e-04 2.064975524262990803e-05 4.438069299794733524e-05 -1.896390749607235193e-04
6.200000000000000000e+03 1.191011333465576172e+01 1.471652889251708984e+01 4.240957059664651752e-05 3.830340574495494366e-05 2.421389217488467693e-05 -1.882070500869303942e-04
6.201000000000000000e+03 4.073884582519531250e+01 -7.321008682250976562e+00 -1.221076490764971823e-05 -2.523694092815276235e-05 -1.123431229643756524e-05 7.779878615110646933e-06
6.202000000000000000e+03 4.208610153198242188e+01 -4.122264862060546875e+00 3.253372415201738477e-05 5.164542017155326903e-05 2.525374475226271898e-05 3.029580693691968918e-05
6.203000000000000000e+03 4.159351730346679688e+01 -4.087828159332275391e+00 -1.519372290204046294e-05 -2.851449789886828512e-05 -1.311246614932315424e-05 -6.904901511006755754e-06
6.204000000000000000e+03 1.578502750396728516e+01 1.269174671173095703e+01 2.671589900273829699e-04 -7.405096403090283275e-05 5.793240416096523404e-05 -2.347920817555859685e-04
6.205000000000000000e+03 7.169084548950195312e+00 2.057242774963378906e+01 8.865279596648178995e-06 1.947088021552190185e-04 6.107222725404426455e-05 -1.705946488073095679e-04
6.206000000000000000e+03 6.648547649383544922e+00 2.010892295837402344e+01 3.968907185480929911e-05 2.488521859049797058e-04 8.656238060211762786e-05 -2.302651701029390097e-04
6.207000000000000000e+03 2.059095001220703125e+01 1.180357646942138672e+01 2.611547533888369799e-04 -8.444033301202580333e-05 5.301432247506454587e-05 -1.217310637002810836e-04
6.208000000000000000e+03 1.949110221862792969e+01 1.161860466003417969e+01 2.101696009049192071e-04 -2.789813333947677165e-05 5.468144081532955170e-05 -9.007332846522331238e-05
6.209000000000000000e+03 2.003605651855468750e+01 1.219581222534179688e+01 2.582357265055179596e-04 -2.254368155263364315e-04 9.839675840339623392e-06 -1.120599335990846157e-04
6.210000000000000000e+03 1.607687568664550781e+01 1.221757888793945312e+01 2.029501920333132148e-04 -1.245492458110675216e-04 2.352028241148218513e-05 -1.166970323538407683e-04
6.211000000000000000e+03 3.841939926147460938e+01 -6.970354080200195312e+00 -3.158322942908853292e-05 -6.293705155258066952e-06 -1.136308037530397996e-05 -4.434091351868119091e-06
6.212000000000000000e+03 3.635472488403320312e+01 3.487296342849731445e+00 -5.639726441586390138e-05 -2.179201328544877470e-05 -2.345678331039380282e-05 1.365548523608595133e-04
6.213000000000000000e+03 4.104376220703125000e+01 -3.803685426712036133e+00 2.772066727629862726e-05 3.264929910073988140e-05 1.811098991311155260e-05 -1.205922035296680406e-05
6.214000000000000000e+03 6.759098052978515625e+00 1.862727546691894531e+01 4.545147385215386748e-05 1.672982180025428534e-04 6.382490391843020916e-05 -1.722930755931884050e-04
6.215000000000000000e+03 4.005548858642578125e+01 -2.310175657272338867e+00 -2.838210457412060350e-05 1.962094756891019642e-06 -7.926003490865696222e-06 -2.235316287624300458e-06
6.216000000000000000e+03 3.595658874511718750e+01 3.014790058135986328e+00 2.574717473180498928e-05 9.700757073005661368e-05 3.682642272906377912e-05 -6.570774712599813938e-05
6.217000000000000000e+03 2.087598037719726562e+01 9.249398231506347656e+00 2.178208960685878992e-04 -2.123771810147445649e-05 5.897495429962873459e-05 -1.005519443424418569e-04
6.218000000000000000e+03 3.198302650451660156e+01 1.043019294738769531e+01 3.242573875468224287e-04 -7.007858221186324954e-05 7.625363650731742382e-05 1.277453993679955602e-04
6.219000000000000000e+03 2.027873802185058594e+01 7.610956192016601562e+00 1.622639829292893410e-04 -1.294974063057452440e-04 9.829973350861109793e-06 -3.769226532313041389e-05
6.220000000000000000e+03 7.250937461853027344e+00 1.463455677032470703e+01 4.017339961137622595e-05 9.213190787704661489e-05 3.969159297412261367e-05 -1.448293478460982442e-04
6.221000000000000000e+03 8.109627723693847656e+00 1.437143230438232422e+01 4.987439751857891679e-05 7.459685730282217264e-05 3.734137862920761108e-05 -1.532159658381715417e-04
6.222000000000000000e+03 3.871366500854492188e+01 -2.447486400604248047e+00 3.898588693118654191e-05 7.070502761052921414e-06 1.381691708957077935e-05 2.175061854359228164e-05
6.223000000000000000e+03 3.883336257934570312e+01 -4.275553226470947266e+00 5.441661414806731045e-06 -4.058382910443469882e-05 -1.054264976119156927e-05 3.868577096000080928e-06
6.224000000000000000e+03 3.209939193725585938e+01 9.483049392700195312e+00 1.501371007179841399e-04 -1.197237816086271778e-05 4.144941703998483717e-05 1.649295445531606674e-04
6.225000000000000000e+03 2.130101966857910156e+01 7.892844676971435547e+00 1.858977484516799450e-04 -1.261460856767371297e-04 1.792549664969556034e-05 -4.272903242963366210e-05
6.226000000000000000e+03 3.134615707397460938e+01 8.364391326904296875e+00 1.490169815951958299e-04 4.402706326800398529e-05 5.791321382275782526e-05 9.133129060501232743e-05
6.227000000000000000e+03 3.550671386718750000e+01 -2.160099744796752930e-01 -6.518643203889951110e-05 2.879998464777600020e-05 -1.091593549062963575e-05 9.226431575370952487e-05
6.228000000000000000e+03 3.060317420959472656e+01 3.242141485214233398e+00 9.838026016950607300e-05 4.570203964249230921e-05 4.322468885220587254e-05 5.301044075167737901e-05
6.229000000000000000e+03 3.256612396240234375e+01 -1.991124749183654785e+00 3.292685141786932945e-05 2.198860784119460732e-05 1.647463795961812139e-05 -2.889009556383825839e-05
6.230000000000000000e+03 2.723774337768554688e+01 5.902738571166992188e+00 1.060390059137716889e-04 -8.956187957664951682e-05 4.943136445945128798e-06 1.100193330785259604e-04
6.231000000000000000e+03 1.092935180664062500e+01 -7.962761521339416504e-01 1.802277893148129806e-06 7.211251613625790924e-06 2.704058942981646396e-06 2.855351795005844906e-06
6.232000000000000000e+03 1.134075260162353516e+01 -1.768451571464538574e+00 3.759937271752278320e-06 6.112312348705017939e-06 2.961674908874556422e-06 3.238029421481769532e-06
6.233000000000000000e+03 1.008855438232421875e+01 -1.254853606224060059e+00 4.291689492674777284e-06 6.803848009440116584e-06 3.328661250634468161e-06 2.236485443063429557e-06
6.234000000000000000e+03 1.196391296386718750e+01 -2.033531188964843750e+00 -3.978869699494680390e-06 -6.383703748724656180e-06 -3.108772034465800971e-06 -3.530284402586403303e-06
6.235000000000000000e+03 1.226660156250000000e+01 -1.357956767082214355e+00 2.434132056805538014e-06 7.813666343281511217e-06 3.074339474551379681e-06 3.619830067691509612e-06
6.236000000000000000e+03 1.159910106658935547e+01 -1.074469685554504395e+00 -2.148522753486759029e-06 -7.777408427500631660e-06 -2.977779558932525106e-06 -3.291524990345351398e-06
6.237000000000000000e+03 1.025822067260742188e+01 -5.240572094917297363e-01 -1.790849410099326633e-06 -7.192436441982863471e-06 -2.694985823836759664e-06 -1.786788629942748230e-06
6.238000000000000000e+03 1.071534442901611328e+01 -1.508665204048156738e+00 -3.416150548218865879e-06 -6.403838142432505265e-06 -2.945996584458043799e-06 -3.123514034086838365e-06
6.239000000000000000e+03 8.682801246643066406e+00 -3.869477510452270508e-01 -1.174858880403917283e-06 -5.593454261543229222e-06 -2.030493988058879040e-06 -1.687703843344934285e-06
6.240000000000000000e+03 9.509228706359863281e+00 -3.886404335498809814e-01 7.074647783156251535e-07 6.263609520829049870e-06 2.091322357955505140e-06 1.617806219655903988e-06
6.241000000000000000e+03 7.855910301208496094e+00 -3.864668607711791992e-01 1.049206389325263444e-06 4.711926521849818528e-06 1.728339839246473275e-06 1.418128817931574304e-06
6.242000000000000000e+03 7.028375625610351562e+00 -3.863845765590667725e-01 -9.718166893435409293e-07 -3.827458840532926843e-06 -1.439782636225572787e-06 -1.270686993848357815e-06
6.243000000000000000e+03 6.201150894165039062e+00 -3.866374790668487549e-01 1.024184484776924364e-06 2.893744976972811855e-06 1.175378883999655955e-06 1.117428269026277121e-06
6.244000000000000000e+03 5.374573707580566406e+00 -3.869005739688873291e-01 -9.584907729731639847e-07 -1.948221552083850838e-06 -8.720136861484206747e-07 -9.422598736819054466e-07
6.245000000000000000e+03 4.547731399536132812e+00 -3.869262635707855225e-01 9.966387324311654083e-07 1.073990119948575739e-06 6.211886329765547998e-07 7.713965715083759278e-07
6.246000000000000000e+03 3.720758199691772461e+00 -3.867077231407165527e-01 -9.600498742656782269e-07 -3.463908626599732088e-07 -3.919322182355244877e-07 -5.900964765714888927e-07
6.247000000000000000e+03 2.893651485443115234e+00 -3.863704204559326172e-01 9.844895885180449113e-07 -1.694909315119730309e-07 2.444996027861634502e-07 4.214970488192193443e-07
6.248000000000000000e+03 2.066607236862182617e+00 -3.863114714622497559e-01 -9.754246548254741356e-07 4.276373886114015477e-07 -1.643361713377089472e-07 -2.505668987851095153e-07
6.249000000000000000e+03 1.239985346794128418e+00 -3.869007229804992676e-01 9.816625379244214855e-07 -4.041880856675561517e-07 1.732423271505467710e-07 9.773738440799206728e-08
6.250000000000000000e+03 4.134095907211303711e-01 -3.886900842189788818e-01 -9.216585112881148234e-07 1.605326360731851310e-07 -2.283377682488207938e-07 -1.578581887429209019e-08
6.251000000000000000e+03 4.072639346122741699e-01 -1.128690123558044434e+00 2.884249170165276155e-06 -7.471659557722887257e-08 8.428597766396705993e-07 1.281993036172934808e-07
6.252000000000000000e+03 9.367878913879394531e+00 -1.128640413284301758e+00 -2.034929366345750168e-06 -5.186054295336361974e-06 -2.166295189454103820e-06 -2.582223487479495816e-06
6.253000000000000000e+03 8.553742408752441406e+00 -1.126947760581970215e+00 2.857397021216456778e-06 4.554532551992451772e-06 2.223578803750569932e-06 2.514105517548159696e-06
6.254000000000000000e+03 7.739142894744873047e+00 -1.126466870307922363e+00 -2.694069053177372552e-06 -4.079647169419331476e-06 -2.032114934991113842e-06 -2.555096671130741015e-06
6.255000000000000000e+03 6.923899650573730469e+00 -1.126384615898132324e+00 2.751752163021592423e-06 3.354599357408005744e-06 1.831905478866246995e-06 2.474514985806308687e-06
6.256000000000000000e+03 6.108965873718261719e+00 -1.126637458801269531e+00 -2.772824927887995727e-06 -2.649278258104459383e-06 -1.626630933060368989e-06 -2.374625410084263422e-06
6.257000000000000000e+03 5.294679641723632812e+00 -1.126900553703308105e+00 2.887185246436274610e-06 1.949426859937375411e-06 1.450983631912095007e-06 2.212472963947220705e-06
6.258000000000000000e+03 4.480128765106201172e+00 -1.126926302909851074e+00 -2.908937176471226849e-06 -1.315495296694280114e-06 -1.267329707843600772e-06 -1.943946699611842632e-06
6.259000000000000000e+03 3.665447235107421875e+00 -1.126707673072814941e+00 2.982125124617596157e-06 7.732912195024255197e-07 1.126624852076929528e-06 1.629477765163755976e-06
6.260000000000000000e+03 2.850631713867187500e+00 -1.126370429992675781e+00 -2.993040652654599398e-06 -3.469378668796707643e-07 -1.001993496174691245e-06 -1.236968728335341439e-06
6.261000000000000000e+03 2.035878896713256836e+00 -1.126311421394348145e+00 3.036209818674251437e-06 5.571590122599445749e-08 9.275777301809284836e-07 8.419069672527257353e-07
6.262000000000000000e+03 1.221548438072204590e+00 -1.126900672912597656e+00 -3.037780516024213284e-06 1.066885033651487902e-07 -8.793276151664031204e-07 -4.351106497324508382e-07
