# el_label, x, y, sXX, sYY, sZZ, sXY
1.000000000000000000e+00 7.292118072509765625e+01 -2.736761665344238281e+01 -4.921365261077880859e+00 -1.337668418884277344e+00 -1.877710103988647461e+00 -1.624826908111572266e+00
2.000000000000000000e+00 7.272257995605468750e+01 -2.738081741333007812e+01 -1.612797856330871582e+00 5.150156021118164062e-01 -3.293346762657165527e-01 3.773630261421203613e-01
3.000000000000000000e+00 7.252397155761718750e+01 -2.739401817321777344e+01 -1.888578295707702637e+00 -1.962844729423522949e-01 -6.254588365554809570e-01 -1.170087605714797974e-01
4.000000000000000000e+00 7.232536315917968750e+01 -2.740721702575683594e+01 -1.611812591552734375e+00 1.095533296465873718e-01 -4.506777822971343994e-01 -2.692931517958641052e-02
5.000000000000000000e+00 7.293071746826171875e+01 -2.742517471313476562e+01 4.200870037078857422e+00 -1.538182973861694336e+00 7.988061308860778809e-01 4.381143152713775635e-01
6.000000000000000000e+00 7.273847198486328125e+01 -2.747674751281738281e+01 6.828982234001159668e-01 9.091720730066299438e-02 2.321446239948272705e-01 3.575156927108764648e-01
7.000000000000000000e+00 7.254622650146484375e+01 -2.752832031250000000e+01 1.002363324165344238e+00 4.191233515739440918e-01 4.264459908008575439e-01 7.509804964065551758e-01
8.000000000000000000e+00 7.235398101806640625e+01 -2.757989311218261719e+01 5.846253037452697754e-01 8.636841922998428345e-02 2.012981176376342773e-01 2.081664204597473145e-01
9.000000000000000000e+00 7.295127105712890625e+01 -2.747978019714355469e+01 7.577498435974121094e+00 8.866751194000244141e-01 2.539252042770385742e+00 4.281936645507812500e+00
1.000000000000000000e+01 7.277272796630859375e+01 -2.756775474548339844e+01 4.268893718719482422e+00 5.754598975181579590e-01 1.453306078910827637e+00 2.276849508285522461e+00
1.100000000000000000e+01 7.259417724609375000e+01 -2.765572929382324219e+01 2.688189029693603516e+00 9.707034826278686523e-01 1.097667813301086426e+00 1.677724719047546387e+00
1.200000000000000000e+01 7.241563415527343750e+01 -2.774370574951171875e+01 2.361219882965087891e+00 1.038617372512817383e+00 1.019951105117797852e+00 1.418039917945861816e+00
1.300000000000000000e+01 7.298204803466796875e+01 -2.752934455871582031e+01 8.878706932067871094e+00 4.564847469329833984e+00 4.033066272735595703e+00 7.393896102905273438e+00
1.400000000000000000e+01 7.282402038574218750e+01 -2.765036201477050781e+01 5.420337677001953125e+00 2.774629831314086914e+00 2.458490133285522461e+00 4.573551654815673828e+00
1.500000000000000000e+01 7.266599273681640625e+01 -2.777138137817382812e+01 4.218715190887451172e+00 2.378380775451660156e+00 1.979128718376159668e+00 3.401987791061401367e+00
1.600000000000000000e+01 7.250796508789062500e+01 -2.789239883422851562e+01 3.136112689971923828e+00 2.284393548965454102e+00 1.626151919364929199e+00 2.712727546691894531e+00
1.700000000000000000e+01 7.302188110351562500e+01 -2.757197761535644531e+01 8.012392044067382812e+00 9.160664558410644531e+00 5.151916980743408203e+00 9.513722419738769531e+00
1.800000000000000000e+01 7.289040374755859375e+01 -2.772141838073730469e+01 5.637197971343994141e+00 6.063229084014892578e+00 3.510128259658813477e+00 6.351141452789306641e+00
1.900000000000000000e+01 7.275892639160156250e+01 -2.787085914611816406e+01 4.221774101257324219e+00 4.714335918426513672e+00 2.680833101272583008e+00 4.845226287841796875e+00
2.000000000000000000e+01 7.262744903564453125e+01 -2.802029800415039062e+01 3.479578256607055664e+00 4.213404655456542969e+00 2.307894945144653320e+00 4.099030494689941406e+00
2.100000000000000000e+01 7.306923675537109375e+01 -2.760605049133300781e+01 6.583533287048339844e+00 1.432638072967529297e+01 6.272974491119384766e+00 1.010458564758300781e+01
2.200000000000000000e+01 7.296932983398437500e+01 -2.777820777893066406e+01 4.600394248962402344e+00 9.671051025390625000e+00 4.281433582305908203e+00 7.251080036163330078e+00
2.300000000000000000e+01 7.286943054199218750e+01 -2.795036315917968750e+01 3.758668899536132812e+00 7.924156665802001953e+00 3.504847764968872070e+00 5.695465564727783203e+00
2.400000000000000000e+01 7.276953125000000000e+01 -2.812251853942871094e+01 2.847143650054931641e+00 6.554988384246826172e+00 2.820639610290527344e+00 4.787950038909912109e+00
2.500000000000000000e+01 7.312231445312500000e+01 -2.763026237487792969e+01 4.562822341918945312e+00 1.894547271728515625e+01 7.052488803863525391e+00 9.316329002380371094e+00
2.600000000000000000e+01 7.305780029296875000e+01 -2.781856155395507812e+01 3.641843318939208984e+00 1.353100109100341797e+01 5.151853561401367188e+00 7.006371974945068359e+00
2.700000000000000000e+01 7.299329376220703125e+01 -2.800685882568359375e+01 2.565102815628051758e+00 1.098794937133789062e+01 4.065915584564208984e+00 5.787914276123046875e+00
2.800000000000000000e+01 7.292877960205078125e+01 -2.819515609741210938e+01 2.162613391876220703e+00 9.740674018859863281e+00 3.570986270904541016e+00 4.829772949218750000e+00
2.900000000000000000e+01 7.317910003662109375e+01 -2.764369010925292969e+01 3.482300043106079102e+00 2.285132980346679688e+01 7.900088787078857422e+00 7.242066860198974609e+00
3.000000000000000000e+01 7.315243530273437500e+01 -2.784094047546386719e+01 2.426805734634399414e+00 1.674160766601562500e+01 5.750524044036865234e+00 5.895739555358886719e+00
3.100000000000000000e+01 7.312577056884765625e+01 -2.803818893432617188e+01 1.834445953369140625e+00 1.398904514312744141e+01 4.747047424316406250e+00 4.948763370513916016e+00
3.200000000000000000e+01 7.309911346435546875e+01 -2.823543739318847656e+01 1.224726438522338867e+00 1.228068637847900391e+01 4.051623821258544922e+00 4.347125053405761719e+00
3.300000000000000000e+01 7.323739624023437500e+01 -2.764581871032714844e+01 3.041636466979980469e+00 2.532802009582519531e+01 8.510896682739257812e+00 4.462950229644775391e+00
3.400000000000000000e+01 7.324960327148437500e+01 -2.784448814392089844e+01 2.037564277648925781e+00 1.924711227416992188e+01 6.385403156280517578e+00 4.067549705505371094e+00
3.500000000000000000e+01 7.326181793212890625e+01 -2.804315567016601562e+01 1.256105780601501465e+00 1.623658370971679688e+01 5.247806549072265625e+00 3.535871267318725586e+00
3.600000000000000000e+01 7.327402496337890625e+01 -2.824182319641113281e+01 8.492369055747985840e-01 1.432634067535400391e+01 4.552673339843750000e+00 3.061781883239746094e+00
3.700000000000000000e+01 7.329500579833984375e+01 -2.763656806945800781e+01 3.811955451965332031e+00 2.644995117187500000e+01 9.078572273254394531e+00 1.578861594200134277e+00
3.800000000000000000e+01 7.334561157226562500e+01 -2.782906913757324219e+01 2.268527269363403320e+00 2.068933677673339844e+01 6.887359142303466797e+00 1.931328773498535156e+00
3.900000000000000000e+01 7.339622497558593750e+01 -2.802157020568847656e+01 1.418162107467651367e+00 1.763970756530761719e+01 5.717360973358154297e+00 1.742416143417358398e+00
4.000000000000000000e+01 7.344683074951171875e+01 -2.821407127380371094e+01 8.447024822235107422e-01 1.577532958984375000e+01 4.986009597778320312e+00 1.535786032676696777e+00
4.100000000000000000e+01 7.334970855712890625e+01 -2.761629104614257812e+01 5.519693851470947266e+00 2.632122611999511719e+01 9.552275657653808594e+00 -8.836489319801330566e-01
4.200000000000000000e+01 7.343679046630859375e+01 -2.779527473449707031e+01 3.265894651412963867e+00 2.110135459899902344e+01 7.310174942016601562e+00 -1.324632763862609863e-01
4.300000000000000000e+01 7.352387237548828125e+01 -2.797425842285156250e+01 2.230919837951660156e+00 1.819948768615722656e+01 6.129122257232666016e+00 -1.083066873252391815e-02
4.400000000000000000e+01 7.361095428466796875e+01 -2.815324020385742188e+01 1.501841068267822266e+00 1.628721809387207031e+01 5.336717605590820312e+00 8.268631994724273682e-03
4.500000000000000000e+01 7.339942932128906250e+01 -2.758576202392578125e+01 7.764859676361083984e+00 2.526899909973144531e+01 9.910157203674316406e+00 -2.581203222274780273e+00
4.600000000000000000e+01 7.351965332031250000e+01 -2.774439239501953125e+01 4.924370288848876953e+00 2.069375419616699219e+01 7.685437679290771484e+00 -1.718855977058410645e+00
4.700000000000000000e+01 7.363988494873046875e+01 -2.790302276611328125e+01 3.552077531814575195e+00 1.792326927185058594e+01 6.442604064941406250e+00 -1.444092154502868652e+00
4.800000000000000000e+01 7.376010894775390625e+01 -2.806165313720703125e+01 2.744203329086303711e+00 1.617624855041503906e+01 5.676135540008544922e+00 -1.263220667839050293e+00
4.900000000000000000e+01 7.344226074218750000e+01 -2.754614639282226562e+01 1.027091217041015625e+01 2.384424209594726562e+01 1.023454570770263672e+01 -3.315616130828857422e+00
5.000000000000000000e+01 7.359104156494140625e+01 -2.767836761474609375e+01 6.844953060150146484e+00 1.963105010986328125e+01 7.942800998687744141e+00 -2.630070447921752930e+00
5.100000000000000000e+01 7.373982238769531250e+01 -2.781058883666992188e+01 5.235840320587158203e+00 1.718469047546386719e+01 6.726159572601318359e+00 -2.256495237350463867e+00
5.200000000000000000e+01 7.388860321044921875e+01 -2.794280815124511719e+01 4.199250698089599609e+00 1.553485870361328125e+01 5.920232772827148438e+00 -2.069006204605102539e+00
5.300000000000000000e+01 7.347657012939453125e+01 -2.749895858764648438e+01 1.241845798492431641e+01 2.226774024963378906e+01 1.040585899353027344e+01 -3.210315942764282227e+00
5.400000000000000000e+01 7.364822387695312500e+01 -2.759972000122070312e+01 8.873922348022460938e+00 1.846183776855468750e+01 8.200727462768554688e+00 -2.697677850723266602e+00
5.500000000000000000e+01 7.381987762451171875e+01 -2.770048141479492188e+01 6.852443695068359375e+00 1.610526275634765625e+01 6.887311458587646484e+00 -2.407141685485839844e+00
5.600000000000000000e+01 7.399153137207031250e+01 -2.780124282836914062e+01 5.653613567352294922e+00 1.469697666168212891e+01 6.105177402496337891e+00 -2.147574186325073242e+00
5.700000000000000000e+01 7.350105285644531250e+01 -2.744599723815917969e+01 1.420415592193603516e+01 2.119274139404296875e+01 1.061906909942626953e+01 -2.311006069183349609e+00
5.800000000000000000e+01 7.368901824951171875e+01 -2.751145172119140625e+01 1.040462398529052734e+01 1.721040153503417969e+01 8.284507751464843750e+00 -2.119229793548583984e+00
5.900000000000000000e+01 7.387699127197265625e+01 -2.757690620422363281e+01 8.320043563842773438e+00 1.529155063629150391e+01 7.083478450775146484e+00 -1.803151965141296387e+00
6.000000000000000000e+01 7.406496429443359375e+01 -2.764236259460449219e+01 6.809502601623535156e+00 1.368073463439941406e+01 6.147070884704589844e+00 -1.694178104400634766e+00
6.100000000000000000e+01 7.351476287841796875e+01 -2.738928794860839844e+01 1.511241149902343750e+01 2.029160881042480469e+01 1.062120628356933594e+01 -1.014421820640563965e+00
6.200000000000000000e+01 7.371186828613281250e+01 -2.741693687438964844e+01 1.142477703094482422e+01 1.669186210632324219e+01 8.434991836547851562e+00 -9.321591258049011230e-01
6.300000000000000000e+01 7.390898895263671875e+01 -2.744458580017089844e+01 9.154189109802246094e+00 1.447741699218750000e+01 7.089481830596923828e+00 -8.152916431427001953e-01
6.400000000000000000e+01 7.410610198974609375e+01 -2.747223472595214844e+01 7.692789554595947266e+00 1.334111404418945312e+01 6.310171127319335938e+00 -7.417895793914794922e-01
6.500000000000000000e+01 7.351718139648437500e+01 -2.733099555969238281e+01 1.535004711151123047e+01 2.034926795959472656e+01 1.070979499816894531e+01 5.068561434745788574e-01
6.600000000000000000e+01 7.371590423583984375e+01 -2.731978225708007812e+01 1.152597618103027344e+01 1.639730262756347656e+01 8.376983642578125000e+00 4.662398993968963623e-01
6.700000000000000000e+01 7.391463470458984375e+01 -2.730856704711914062e+01 9.353026390075683594e+00 1.453366756439208984e+01 7.166007995605468750e+00 3.843468725681304932e-01
6.800000000000000000e+01 7.411335754394531250e+01 -2.729735565185546875e+01 7.881004333496093750e+00 1.311251831054687500e+01 6.298057079315185547e+00 3.400065600872039795e-01
6.900000000000000000e+01 7.350821685791015625e+01 -2.727334594726562500e+01 1.460029983520507812e+01 2.067072486877441406e+01 1.058130741119384766e+01 1.968050003051757812e+00
7.000000000000000000e+01 7.370096588134765625e+01 -2.722369766235351562e+01 1.092164516448974609e+01 1.705478477478027344e+01 8.392929077148437500e+00 1.740839481353759766e+00
7.100000000000000000e+01 7.389371490478515625e+01 -2.717404937744140625e+01 8.704512596130371094e+00 1.482509326934814453e+01 7.058881759643554688e+00 1.515695452690124512e+00
7.200000000000000000e+01 7.408647155761718750e+01 -2.712440299987792969e+01 7.317640304565429688e+00 1.365119457244873047e+01 6.290650367736816406e+00 1.293873906135559082e+00
7.300000000000000000e+01 7.348821258544921875e+01 -2.721853828430175781e+01 1.323546504974365234e+01 2.190997505187988281e+01 1.054363250732421875e+01 3.032844781875610352e+00
7.400000000000000000e+01 7.366763305664062500e+01 -2.713235282897949219e+01 9.439464569091796875e+00 1.787311363220214844e+01 8.193773269653320312e+00 2.638460874557495117e+00
7.500000000000000000e+01 7.384704589843750000e+01 -2.704616737365722656e+01 7.523711681365966797e+00 1.585826683044433594e+01 7.014593601226806641e+00 2.213501691818237305e+00
7.600000000000000000e+01 7.402645874023437500e+01 -2.695998191833496094e+01 6.111675262451171875e+00 1.427702236175537109e+01 6.116609096527099609e+00 2.018589019775390625e+00
7.700000000000000000e+01 7.345793151855468750e+01 -2.716866683959960938e+01 1.103735828399658203e+01 2.315847015380859375e+01 1.025874805450439453e+01 3.558449506759643555e+00
7.800000000000000000e+01 7.361716461181640625e+01 -2.704923439025878906e+01 7.647288799285888672e+00 1.932220649719238281e+01 8.090847969055175781e+00 2.782997369766235352e+00
7.900000000000000000e+01 7.377639007568359375e+01 -2.692980384826660156e+01 5.767342567443847656e+00 1.673939895629882812e+01 6.752022743225097656e+00 2.407908439636230469e+00
8.000000000000000000e+01 7.393562316894531250e+01 -2.681037139892578125e+01 4.746963024139404297e+00 1.534222221374511719e+01 6.026755332946777344e+00 2.088215112686157227e+00
8.100000000000000000e+01 7.341853332519531250e+01 -2.712563896179199219e+01 8.725838661193847656e+00 2.490563011169433594e+01 1.008944034576416016e+01 3.116831779479980469e+00
8.200000000000000000e+01 7.355149078369140625e+01 -2.697751998901367188e+01 5.456809997558593750e+00 2.033301353454589844e+01 7.736947536468505859e+00 2.272640943527221680e+00
8.300000000000000000e+01 7.368445587158203125e+01 -2.682940101623535156e+01 4.111950874328613281e+00 1.786341667175292969e+01 6.592610359191894531e+00 1.773878097534179688e+00
8.400000000000000000e+01 7.381742095947265625e+01 -2.668128395080566406e+01 3.080657243728637695e+00 1.596171569824218750e+01 5.712711811065673828e+00 1.606451034545898438e+00
8.500000000000000000e+01 7.337151336669921875e+01 -2.709109306335449219e+01 6.100961685180664062e+00 2.606258964538574219e+01 9.649065017700195312e+00 1.859876513481140137e+00
8.600000000000000000e+01 7.347312927246093750e+01 -2.691994476318359375e+01 3.749264240264892578e+00 2.120631027221679688e+01 7.486672401428222656e+00 8.512406349182128906e-01
8.700000000000000000e+01 7.357475280761718750e+01 -2.674879646301269531e+01 2.412065982818603516e+00 1.825926017761230469e+01 6.201397895812988281e+00 6.547591686248779297e-01
8.800000000000000000e+01 7.367636871337890625e+01 -2.657764625549316406e+01 1.795214653015136719e+00 1.653497695922851562e+01 5.499057769775390625e+00 4.162316322326660156e-01
8.900000000000000000e+01 7.331867980957031250e+01 -2.706635093688964844e+01 4.239952087402343750e+00 2.674174308776855469e+01 9.294507980346679688e+00 -3.977634608745574951e-01
9.000000000000000000e+01 7.338507080078125000e+01 -2.687870788574218750e+01 2.247120618820190430e+00 2.108344268798828125e+01 6.999169349670410156e+00 -1.010682702064514160e+00
9.100000000000000000e+01 7.345146179199218750e+01 -2.669106483459472656e+01 1.468859553337097168e+00 1.814969062805175781e+01 5.885564804077148438e+00 -1.077413439750671387e+00
9.200000000000000000e+01 7.351786041259765625e+01 -2.650342178344726562e+01 7.549376487731933594e-01 1.622728157043457031e+01 5.094666004180908203e+00 -9.344207644462585449e-01
9.300000000000000000e+01 7.326203918457031250e+01 -2.705235671997070312e+01 2.875943183898925781e+00 2.611605644226074219e+01 8.697600364685058594e+00 -3.181043386459350586e+00
9.400000000000000000e+01 7.329067230224609375e+01 -2.685538482666015625e+01 1.789014339447021484e+00 2.010708999633789062e+01 6.568831443786621094e+00 -3.213745832443237305e+00
9.500000000000000000e+01 7.331930541992187500e+01 -2.665841293334960938e+01 8.821231722831726074e-01 1.704563903808593750e+01 5.378328800201416016e+00 -2.844839572906494141e+00
9.600000000000000000e+01 7.334793853759765625e+01 -2.646143913269042969e+01 5.733735561370849609e-01 1.514845848083496094e+01 4.716549873352050781e+00 -2.590564250946044922e+00
9.700000000000000000e+01 7.320375823974609375e+01 -2.704964637756347656e+01 2.870072841644287109e+00 2.421039199829101562e+01 8.124139785766601562e+00 -6.103887557983398438e+00
9.800000000000000000e+01 7.319354248046875000e+01 -2.685086441040039062e+01 1.827768921852111816e+00 1.797450447082519531e+01 5.940681934356689453e+00 -5.230954170227050781e+00
9.900000000000000000e+01 7.318331909179687500e+01 -2.665208435058593750e+01 1.257406949996948242e+00 1.507257556915283203e+01 4.898994445800781250e+00 -4.470415115356445312e+00
1.000000000000000000e+02 7.317310333251953125e+01 -2.645330429077148438e+01 6.365476250648498535e-01 1.332471084594726562e+01 4.188377380371093750e+00 -3.954179286956787109e+00
1.010000000000000000e+02 7.314606475830078125e+01 -2.705832099914550781e+01 3.663281440734863281e+00 2.078441238403320312e+01 7.334308624267578125e+00 -8.552759170532226562e+00
1.020000000000000000e+02 7.309738159179687500e+01 -2.686532211303710938e+01 2.756933927536010742e+00 1.498302650451660156e+01 5.321988105773925781e+00 -6.681964397430419922e+00
1.030000000000000000e+02 7.304869842529296875e+01 -2.667232513427734375e+01 1.912995338439941406e+00 1.230996990203857422e+01 4.266889572143554688e+00 -5.582511425018310547e+00
1.040000000000000000e+02 7.300001525878906250e+01 -2.647932624816894531e+01 1.416274309158325195e+00 1.080813884735107422e+01 3.667323827743530273e+00 -4.754085063934326172e+00
1.050000000000000000e+02 7.309115600585937500e+01 -2.707804870605468750e+01 5.414021492004394531e+00 1.632735633850097656e+01 6.522413253784179688e+00 -9.929619789123535156e+00
1.060000000000000000e+02 7.300586700439453125e+01 -2.689820480346679688e+01 3.802587270736694336e+00 1.124175930023193359e+01 4.513303756713867188e+00 -7.268824100494384766e+00
1.070000000000000000e+02 7.292057800292968750e+01 -2.671835899353027344e+01 2.967028379440307617e+00 9.196271896362304688e+00 3.648990154266357422e+00 -5.849848747253417969e+00
1.080000000000000000e+02 7.283529663085937500e+01 -2.653851318359375000e+01 2.215563535690307617e+00 7.958398818969726562e+00 3.052188634872436523e+00 -4.968776702880859375e+00
1.090000000000000000e+02 7.304113769531250000e+01 -2.710807991027832031e+01 7.034933567047119141e+00 1.115170860290527344e+01 5.455992698669433594e+00 -9.888216972351074219e+00
1.100000000000000000e+02 7.292250061035156250e+01 -2.694825553894042969e+01 4.943899631500244141e+00 7.422601699829101562e+00 3.709950447082519531e+00 -6.767111778259277344e+00
1.110000000000000000e+02 7.280386352539062500e+01 -2.678843116760253906e+01 3.635603427886962891e+00 5.921945571899414062e+00 2.867264747619628906e+00 -5.240730285644531250e+00
1.120000000000000000e+02 7.268523406982421875e+01 -2.662860488891601562e+01 2.883256912231445312e+00 5.386432647705078125e+00 2.480906963348388672e+00 -4.333488464355468750e+00
1.130000000000000000e+02 7.299790954589843750e+01 -2.714726448059082031e+01 8.344477653503417969e+00 6.148131847381591797e+00 4.347782611846923828e+00 -8.247703552246093750e+00
1.140000000000000000e+02 7.285046386718750000e+01 -2.701356315612792969e+01 5.067933559417724609e+00 3.801398277282714844e+00 2.660799503326416016e+00 -5.227098464965820312e+00
1.150000000000000000e+02 7.270301055908203125e+01 -2.687986183166503906e+01 3.885639429092407227e+00 3.312272310256958008e+00 2.159373521804809570e+00 -3.889591455459594727e+00
1.160000000000000000e+02 7.255555725097656250e+01 -2.674616050720214844e+01 2.875617980957031250e+00 2.952503681182861328e+00 1.748436570167541504e+00 -3.064549684524536133e+00
1.170000000000000000e+02 7.296312713623046875e+01 -2.719410705566406250e+01 7.659078121185302734e+00 1.782524704933166504e+00 2.832480907440185547e+00 -5.340129375457763672e+00
1.180000000000000000e+02 7.279249572753906250e+01 -2.709163475036621094e+01 4.372278213500976562e+00 1.225607872009277344e+00 1.679365873336791992e+00 -2.932634592056274414e+00
1.190000000000000000e+02 7.262185668945312500e+01 -2.698916244506835938e+01 2.696897745132446289e+00 1.404868841171264648e+00 1.230530023574829102e+00 -2.105246543884277344e+00
1.200000000000000000e+02 7.245121765136718750e+01 -2.688669013977050781e+01 2.319229602813720703e+00 1.542025566101074219e+00 1.158376574516296387e+00 -1.792879939079284668e+00
1.210000000000000000e+02 7.293812561035156250e+01 -2.724682044982910156e+01 5.104806900024414062e+00 -1.307651638984680176e+00 1.139146566390991211e+00 -1.312259912490844727e+00
1.220000000000000000e+02 7.275081634521484375e+01 -2.717948913574218750e+01 1.143977761268615723e+00 2.226893603801727295e-01 4.100001156330108643e-01 -6.866369843482971191e-01
1.230000000000000000e+02 7.256350708007812500e+01 -2.711215782165527344e+01 1.238910794258117676e+00 6.838896870613098145e-01 5.768401622772216797e-01 -1.001100778579711914e+00
1.240000000000000000e+02 7.237619781494140625e+01 -2.704482841491699219e+01 6.945223212242126465e-01 2.138905227184295654e-01 2.725238502025604248e-01 -3.609800934791564941e-01
1.250000000000000000e+02 7.292385101318359375e+01 -2.730338859558105469e+01 -3.519498586654663086e+00 -1.670577287673950195e+00 -1.557022690773010254e+00 1.709879040718078613e+00
1.260000000000000000e+02 7.272702026367187500e+01 -2.727377128601074219e+01 -1.093362569808959961e+00 6.388407945632934570e-01 -1.363565325736999512e-01 -3.454813659191131592e-01
1.270000000000000000e+02 7.253019714355468750e+01 -2.724415397644042969e+01 -1.566877484321594238e+00 -2.420174330472946167e-01 -5.426684617996215820e-01 1.767085492610931396e-01
1.280000000000000000e+02 7.233336639404296875e+01 -2.721453666687011719e+01 -1.367257118225097656e+00 1.535435169935226440e-01 -3.641140758991241455e-01 1.509023010730743408e-01
1.290000000000000000e+02 7.149782562255859375e+01 -2.760676002502441406e+01 -1.844742298126220703e-01 -1.031444221735000610e-01 -8.628559857606887817e-02 -3.917642235755920410e-01
1.300000000000000000e+02 7.410961914062500000e+01 -2.668011093139648438e+01 3.831218242645263672e+00 1.402530670166015625e+01 5.356957435607910156e+00 1.902689456939697266e+00
1.310000000000000000e+02 7.355805969238281250e+01 -2.601717948913574219e+01 -1.484948247671127319e-01 1.312825584411621094e+01 3.893928289413452148e+00 -1.408257246017456055e+00
1.320000000000000000e+02 7.132435607910156250e+01 -2.607390213012695312e+01 4.390004575252532959e-01 -5.260320305824279785e-01 -2.610946632921695709e-02 -2.317510694265365601e-01
1.330000000000000000e+02 7.132721710205078125e+01 -2.586980438232421875e+01 -1.059141039848327637e+00 -6.648294329643249512e-01 -5.171911716461181641e-01 3.773277103900909424e-01
1.340000000000000000e+02 7.347658538818359375e+01 -2.843165779113769531e+01 4.621039628982543945e-01 1.419463348388671875e+01 4.397021293640136719e+00 1.468078136444091797e+00
1.350000000000000000e+02 7.121100616455078125e+01 -2.813212013244628906e+01 6.213699281215667725e-02 -7.965041399002075195e-01 -2.203101515769958496e-01 -1.362343877553939819e-01
1.360000000000000000e+02 7.231463623046875000e+01 -2.802497291564941406e+01 2.529888868331909180e+00 2.064666032791137695e+00 1.378366470336914062e+00 2.112772464752197266e+00
1.370000000000000000e+02 7.286280822753906250e+01 -2.852957725524902344e+01 1.291407704353332520e+00 8.757264137268066406e+00 3.014601469039916992e+00 3.879038572311401367e+00
1.380000000000000000e+02 7.327693939208984375e+01 -2.846172714233398438e+01 4.259755313396453857e-01 1.284546375274658203e+01 3.981431961059570312e+00 2.804691791534423828e+00
1.390000000000000000e+02 7.364778137207031250e+01 -2.867644691467285156e+01 1.777511090040206909e-01 1.335221099853515625e+01 4.058988571166992188e+00 7.581014037132263184e-01
1.400000000000000000e+02 7.392144012451171875e+01 -2.841357421875000000e+01 1.380464434623718262e+00 1.417890167236328125e+01 4.667809963226318359e+00 -7.958870530128479004e-01
1.410000000000000000e+02 7.459644317626953125e+01 -2.751812744140625000e+01 5.581254959106445312e+00 1.138734531402587891e+01 5.090579986572265625e+00 -6.649796962738037109e-01
1.420000000000000000e+02 7.458222961425781250e+01 -2.730707168579101562e+01 5.560388565063476562e+00 1.133539581298828125e+01 5.068735599517822266e+00 5.722671374678611755e-02
1.430000000000000000e+02 7.442601013183593750e+01 -2.664365196228027344e+01 3.689646959304809570e+00 1.263937664031982422e+01 4.898706912994384766e+00 1.789528608322143555e+00
1.440000000000000000e+02 7.336295318603515625e+01 -2.624302673339843750e+01 7.006184011697769165e-02 1.373029327392578125e+01 4.140106678009033203e+00 -2.371536493301391602e+00
1.450000000000000000e+02 7.204103088378906250e+01 -2.616279029846191406e+01 8.665476441383361816e-01 2.921279668807983398e+00 1.136348247528076172e+00 -1.770497322082519531e+00
1.460000000000000000e+02 7.185886383056640625e+01 -2.612062644958496094e+01 5.203198790550231934e-01 1.941663861274719238e+00 7.385951280593872070e-01 -1.342756628990173340e+00
1.470000000000000000e+02 7.152757263183593750e+01 -2.587211227416992188e+01 -3.836634457111358643e-01 2.074963569641113281e+00 5.073900222778320312e-01 -9.128624796867370605e-01
1.480000000000000000e+02 7.195395660400390625e+01 -2.654739761352539062e+01 9.743131995201110840e-01 1.159713149070739746e+00 6.402078866958618164e-01 -6.904281377792358398e-01
1.490000000000000000e+02 7.156352996826171875e+01 -2.713800811767578125e+01 -3.018565475940704346e-01 -7.317050546407699585e-02 -1.125081181526184082e-01 2.328117787837982178e-01
1.500000000000000000e+02 7.135179138183593750e+01 -2.713661956787109375e+01 -8.253690600395202637e-02 -1.092176586389541626e-01 -5.752636864781379700e-02 9.520357847213745117e-02
1.510000000000000000e+02 7.225353240966796875e+01 -2.678906631469726562e+01 1.587513804435729980e+00 9.713662862777709961e-01 7.676640152931213379e-01 -1.056357741355895996e+00
1.520000000000000000e+02 7.214114379882812500e+01 -2.719161033630371094e+01 -1.228587388992309570e+00 -1.436179876327514648e-01 -4.116616249084472656e-01 1.333557963371276855e-01
1.530000000000000000e+02 7.429362487792968750e+01 -2.750722122192382812e+01 6.557323932647705078e+00 1.230617809295654297e+01 5.659050464630126953e+00 -7.920693755149841309e-01
1.540000000000000000e+02 7.372988891601562500e+01 -2.625018310546875000e+01 6.307037472724914551e-01 1.454533672332763672e+01 4.552812099456787109e+00 -2.722055315971374512e-01
1.550000000000000000e+02 7.316625976562500000e+01 -2.623485946655273438e+01 4.780605137348175049e-01 1.209845638275146484e+01 3.772955179214477539e+00 -3.470918655395507812e+00
1.560000000000000000e+02 7.256220245361328125e+01 -2.643053817749023438e+01 2.097063302993774414e+00 5.061919689178466797e+00 2.147694826126098633e+00 -3.742467641830444336e+00
1.570000000000000000e+02 7.192382049560546875e+01 -2.742720031738281250e+01 -1.031156420707702637e+00 2.980003692209720612e-02 -3.004069328308105469e-01 -1.831960976123809814e-01
1.580000000000000000e+02 7.277970886230468750e+01 -2.837933349609375000e+01 1.700969338417053223e+00 7.869367122650146484e+00 2.871100902557373047e+00 4.358248233795166016e+00
1.590000000000000000e+02 7.308384704589843750e+01 -2.846453094482421875e+01 8.373370766639709473e-01 1.110122489929199219e+01 3.581568717956542969e+00 3.795794725418090820e+00
1.600000000000000000e+02 7.404169464111328125e+01 -2.809350013732910156e+01 3.292700767517089844e+00 1.438749599456787109e+01 5.304059028625488281e+00 -1.814011812210083008e+00
1.610000000000000000e+02 7.212561798095703125e+01 -2.742015457153320312e+01 -1.356397390365600586e+00 1.987558230757713318e-02 -4.009565412998199463e-01 -1.466897875070571899e-01
1.620000000000000000e+02 7.130947113037109375e+01 -2.757883644104003906e+01 -8.353555947542190552e-02 -2.900860905647277832e-01 -1.120864897966384888e-01 -2.047144472599029541e-01
1.630000000000000000e+02 7.133184814453125000e+01 -2.738635444641113281e+01 -7.931683212518692017e-02 -6.506991386413574219e-02 -4.331602156162261963e-02 -7.185445725917816162e-02
1.640000000000000000e+02 7.187537384033203125e+01 -2.866440391540527344e+01 1.271747827529907227e+00 2.391072750091552734e+00 1.098846197128295898e+00 1.984760642051696777e+00
1.650000000000000000e+02 7.116273498535156250e+01 -2.831769752502441406e+01 1.595728658139705658e-02 -6.143437623977661133e-01 -1.795159578323364258e-01 -3.611411899328231812e-02
1.660000000000000000e+02 7.104232788085937500e+01 -2.867183494567871094e+01 -3.843422234058380127e-02 -5.419131740927696228e-02 -2.778766117990016937e-02 1.677437573671340942e-01
1.670000000000000000e+02 7.164794921875000000e+01 -2.865811347961425781e+01 8.834548592567443848e-01 1.452551960945129395e+00 7.008020281791687012e-01 1.403745055198669434e+00
1.680000000000000000e+02 7.109809875488281250e+01 -2.849840354919433594e+01 2.020957916975021362e-01 -3.510431945323944092e-01 -4.468421638011932373e-02 8.767040818929672241e-02
1.690000000000000000e+02 7.126225280761718750e+01 -2.869195938110351562e+01 -3.482928872108459473e-02 3.958699703216552734e-01 1.083122044801712036e-01 5.276163816452026367e-01
1.700000000000000000e+02 7.442324829101562500e+01 -2.759159088134765625e+01 5.920737266540527344e+00 1.196226024627685547e+01 5.364899158477783203e+00 -9.316992759704589844e-01
1.710000000000000000e+02 7.422245025634765625e+01 -2.769830894470214844e+01 6.123957157135009766e+00 1.300626373291015625e+01 5.739066123962402344e+00 -1.620943069458007812e+00
1.720000000000000000e+02 7.296403503417968750e+01 -2.598195648193359375e+01 5.034707188606262207e-01 9.483293533325195312e+00 2.996029376983642578e+00 -3.568196773529052734e+00
1.730000000000000000e+02 7.408576965332031250e+01 -2.844370460510253906e+01 1.622692942619323730e+00 1.369949245452880859e+01 4.596655845642089844e+00 -1.233463525772094727e+00
1.740000000000000000e+02 7.252781677246093750e+01 -2.598331642150878906e+01 1.084115028381347656e+00 6.045946598052978516e+00 2.139018535614013672e+00 -3.450042486190795898e+00
1.750000000000000000e+02 7.275890350341796875e+01 -2.630720329284667969e+01 1.607068777084350586e+00 7.492502689361572266e+00 2.729871273040771484e+00 -4.189502716064453125e+00
1.760000000000000000e+02 7.415411376953125000e+01 -2.789855384826660156e+01 4.775462150573730469e+00 1.353469181060791016e+01 5.493046283721923828e+00 -2.000831365585327148e+00
1.770000000000000000e+02 7.192239379882812500e+01 -2.767666816711425781e+01 2.922729551792144775e-01 1.917525976896286011e-01 1.452076733112335205e-01 -1.440569609403610229e-01
1.780000000000000000e+02 7.200284576416015625e+01 -2.697303771972656250e+01 3.391195237636566162e-01 8.264117687940597534e-02 1.265282034873962402e-01 9.382788091897964478e-03
1.790000000000000000e+02 7.227102661132812500e+01 -2.869765090942382812e+01 1.542029142379760742e+00 4.223359107971191406e+00 1.729616522789001465e+00 2.853309392929077148e+00
1.800000000000000000e+02 7.222770690917968750e+01 -2.620612525939941406e+01 1.296998023986816406e+00 3.394716978073120117e+00 1.407514572143554688e+00 -2.407351255416870117e+00
1.810000000000000000e+02 7.382933807373046875e+01 -2.640810203552246094e+01 1.345652222633361816e+00 1.502235412597656250e+01 4.910401821136474609e+00 6.431833505630493164e-01
1.820000000000000000e+02 7.354772186279296875e+01 -2.627539825439453125e+01 4.087639153003692627e-01 1.467191791534423828e+01 4.524204730987548828e+00 -1.162855744361877441e+00
1.830000000000000000e+02 7.211889648437500000e+01 -2.592300987243652344e+01 8.066251873970031738e-01 3.832579135894775391e+00 1.391761302947998047e+00 -2.531960487365722656e+00
1.840000000000000000e+02 7.445169067382812500e+01 -2.700881004333496094e+01 5.517671585083007812e+00 1.208064651489257812e+01 5.279495239257812500e+00 1.144234895706176758e+00
1.850000000000000000e+02 7.166649627685546875e+01 -2.841512680053710938e+01 8.691464662551879883e-01 1.095701932907104492e+00 5.894545316696166992e-01 1.066630363464355469e+00
1.860000000000000000e+02 7.172354125976562500e+01 -2.741879081726074219e+01 -6.924689412117004395e-01 6.728293839842081070e-03 -2.057221978902816772e-01 -2.042454034090042114e-01
1.870000000000000000e+02 7.152621459960937500e+01 -2.740109634399414062e+01 -3.385262191295623779e-01 -3.590735420584678650e-02 -1.123300716280937195e-01 -1.746521294116973877e-01
1.880000000000000000e+02 7.195068359375000000e+01 -2.717621040344238281e+01 -1.031751632690429688e+00 1.204200237989425659e-01 -2.733995020389556885e-01 1.876494437456130981e-01
1.890000000000000000e+02 7.176033020019531250e+01 -2.715589141845703125e+01 -6.586920022964477539e-01 -3.405632451176643372e-03 -1.986292749643325806e-01 2.893669009208679199e-01
1.900000000000000000e+02 7.415758514404296875e+01 -2.635847282409667969e+01 2.001182794570922852e+00 1.356861877441406250e+01 4.670940399169921875e+00 1.419022202491760254e+00
1.910000000000000000e+02 7.388005065917968750e+01 -2.611877441406250000e+01 6.196028590202331543e-01 1.377694511413574219e+01 4.318964481353759766e+00 3.191613554954528809e-01
1.920000000000000000e+02 7.448907470703125000e+01 -2.801486206054687500e+01 4.000955581665039062e+00 1.195701599121093750e+01 4.787391662597656250e+00 -1.744961500167846680e+00
1.930000000000000000e+02 7.430843353271484375e+01 -2.792780494689941406e+01 4.497125148773193359e+00 1.296231842041015625e+01 5.237833023071289062e+00 -1.859324574470520020e+00
1.940000000000000000e+02 7.428744506835937500e+01 -2.707899284362792969e+01 6.231709480285644531e+00 1.251192474365234375e+01 5.623090267181396484e+00 1.203039407730102539e+00
1.950000000000000000e+02 7.367519378662109375e+01 -2.834908294677734375e+01 8.911031484603881836e-01 1.492561054229736328e+01 4.745014190673828125e+00 1.989914476871490479e-01
1.960000000000000000e+02 7.433087158203125000e+01 -2.729696464538574219e+01 6.662993431091308594e+00 1.232900142669677734e+01 5.697598457336425781e+00 2.391675561666488647e-01
1.970000000000000000e+02 7.429420471191406250e+01 -2.650900650024414062e+01 2.973623991012573242e+00 1.318108081817626953e+01 4.846411228179931641e+00 1.662135362625122070e+00
1.980000000000000000e+02 7.396160125732421875e+01 -2.856131362915039062e+01 6.850149631500244141e-01 1.342585182189941406e+01 4.233260154724121094e+00 -4.343248903751373291e-01
1.990000000000000000e+02 7.436318206787109375e+01 -2.813315391540527344e+01 3.424888372421264648e+00 1.279905414581298828e+01 4.867182731628417969e+00 -1.815285444259643555e+00
2.000000000000000000e+02 7.397362518310546875e+01 -2.652989578247070312e+01 2.502371072769165039e+00 1.483411884307861328e+01 5.200947284698486328e+00 1.415291070938110352e+00
2.010000000000000000e+02 7.337125396728515625e+01 -2.599134063720703125e+01 -4.563673865050077438e-03 1.246544075012207031e+01 3.738263130187988281e+00 -2.249455928802490234e+00
2.020000000000000000e+02 7.249375915527343750e+01 -2.868147850036621094e+01 1.449835300445556641e+00 5.506299018859863281e+00 2.086840391159057617e+00 3.284729003906250000e+00
2.030000000000000000e+02 7.287586212158203125e+01 -2.872929763793945312e+01 6.844940185546875000e-01 8.980140686035156250e+00 2.899390459060668945e+00 3.419164419174194336e+00
2.040000000000000000e+02 7.269682312011718750e+01 -2.871252632141113281e+01 1.181410074234008789e+00 7.061562538146972656e+00 2.472891807556152344e+00 3.825450420379638672e+00
2.050000000000000000e+02 7.188629913330078125e+01 -2.843011093139648438e+01 1.424017310142517090e+00 1.872360587120056152e+00 9.889133572578430176e-01 1.602066874504089355e+00
2.060000000000000000e+02 7.144458007812500000e+01 -2.867636108398437500e+01 4.270723164081573486e-01 1.235442757606506348e+00 4.987545311450958252e-01 1.130647778511047363e+00
2.070000000000000000e+02 7.306943511962890625e+01 -2.871868896484375000e+01 4.122436046600341797e-01 1.000109386444091797e+01 3.124001264572143555e+00 3.089595317840576172e+00
2.080000000000000000e+02 7.326435089111328125e+01 -2.871323585510253906e+01 7.206685096025466919e-02 1.167966938018798828e+01 3.525521039962768555e+00 2.541721820831298828e+00
2.090000000000000000e+02 7.317158508300781250e+01 -2.598032569885253906e+01 4.086798056960105896e-02 1.116079044342041016e+01 3.360497713088989258e+00 -2.990189313888549805e+00
2.100000000000000000e+02 7.296522521972656250e+01 -2.625521087646484375e+01 9.093694090843200684e-01 1.002752685546875000e+01 3.281068801879882812e+00 -4.165145874023437500e+00
2.110000000000000000e+02 7.274655151367187500e+01 -2.599680519104003906e+01 8.332577347755432129e-01 7.728112697601318359e+00 2.568411111831665039e+00 -3.722287178039550781e+00
2.120000000000000000e+02 7.241648864746093750e+01 -2.625845909118652344e+01 1.653909683227539062e+00 4.760198116302490234e+00 1.924232363700866699e+00 -3.184873342514038086e+00
2.130000000000000000e+02 7.154833984375000000e+01 -2.622343444824218750e+01 5.777461528778076172e-01 3.817256689071655273e-01 2.878415286540985107e-01 -5.482407808303833008e-01
2.140000000000000000e+02 7.136858367919921875e+01 -2.691001319885253906e+01 -2.330401167273521423e-02 -3.466120660305023193e-01 -1.109748259186744690e-01 1.906663775444030762e-01
2.150000000000000000e+02 7.133529663085937500e+01 -2.627634239196777344e+01 -2.139044106006622314e-01 -8.122066259384155273e-01 -3.078333139419555664e-01 -6.448347866535186768e-02
2.160000000000000000e+02 7.142211914062500000e+01 -2.835373878479003906e+01 4.458756744861602783e-01 3.441231250762939453e-01 2.369996458292007446e-01 4.661309123039245605e-01
2.170000000000000000e+02 7.124233245849609375e+01 -2.794852447509765625e+01 -3.273877874016761780e-02 -8.377740979194641113e-01 -2.611538469791412354e-01 -2.410878986120223999e-01
2.180000000000000000e+02 7.143180084228515625e+01 -2.794714546203613281e+01 2.254699170589447021e-01 -1.252380013465881348e-01 3.006957471370697021e-02 -1.043844297528266907e-01
2.190000000000000000e+02 7.246644592285156250e+01 -2.818016815185546875e+01 2.620135307312011719e+00 3.818194150924682617e+00 1.931498765945434570e+00 3.259113550186157227e+00
2.200000000000000000e+02 7.172428894042968750e+01 -2.588449668884277344e+01 3.652048110961914062e-01 1.919975638389587402e+00 6.855541467666625977e-01 -1.602673530578613281e+00
2.210000000000000000e+02 7.136963653564453125e+01 -2.669098091125488281e+01 5.722304340451955795e-03 -6.269187927246093750e-01 -1.863589584827423096e-01 2.016626000404357910e-01
2.220000000000000000e+02 7.200975036621093750e+01 -2.677620124816894531e+01 1.053341865539550781e+00 6.159976720809936523e-01 5.008018612861633301e-01 -4.607416391372680664e-01
2.230000000000000000e+02 7.221315002441406250e+01 -2.783433341979980469e+01 1.717717289924621582e+00 6.958156228065490723e-01 7.240598797798156738e-01 8.770267367362976074e-01
2.240000000000000000e+02 7.145427703857421875e+01 -2.813071823120117188e+01 3.337357640266418457e-01 2.018290162086486816e-01 1.606694310903549194e-01 2.192727029323577881e-01
2.250000000000000000e+02 7.237908172607421875e+01 -2.660190010070800781e+01 2.125605106353759766e+00 2.635394096374511719e+00 1.428299784660339355e+00 -2.355978012084960938e+00
2.260000000000000000e+02 7.196840667724609375e+01 -2.792054557800292969e+01 1.263589739799499512e+00 7.249916791915893555e-01 5.965744256973266602e-01 5.132764577865600586e-01
2.270000000000000000e+02 7.218970489501953125e+01 -2.699285125732421875e+01 5.635986328125000000e-01 2.004216313362121582e-01 2.292060852050781250e-01 -1.704039871692657471e-01
2.280000000000000000e+02 7.171064758300781250e+01 -2.804084587097167969e+01 7.476732134819030762e-01 4.899449348449707031e-01 3.712854385375976562e-01 3.215487003326416016e-01
2.290000000000000000e+02 7.181379699707031250e+01 -2.824184608459472656e+01 1.172042608261108398e+00 1.183719158172607422e+00 7.067285180091857910e-01 9.473638534545898438e-01
2.300000000000000000e+02 7.165105438232421875e+01 -2.663829040527343750e+01 4.624295234680175781e-01 1.392766237258911133e-01 1.805118322372436523e-01 2.636456117033958435e-02
2.310000000000000000e+02 7.144821166992187500e+01 -2.778700447082519531e+01 -4.144211858510971069e-02 -2.083142995834350586e-01 -7.492692023515701294e-02 -3.979541361331939697e-01
2.320000000000000000e+02 7.127552032470703125e+01 -2.776540946960449219e+01 -4.828131943941116333e-02 -6.273930072784423828e-01 -2.027022987604141235e-01 -2.711041867733001709e-01
2.330000000000000000e+02 7.169860839843750000e+01 -2.765971755981445312e+01 8.457441814243793488e-03 1.159014329314231873e-01 3.730766102671623230e-02 -3.180629611015319824e-01
2.340000000000000000e+02 7.132357788085937500e+01 -2.854431152343750000e+01 3.999307751655578613e-01 3.206043839454650879e-01 2.161605507135391235e-01 5.517207384109497070e-01
2.350000000000000000e+02 7.215016174316406250e+01 -2.763218116760253906e+01 5.301265716552734375e-01 2.669390141963958740e-01 2.391196787357330322e-01 1.314353346824645996e-01
2.360000000000000000e+02 7.206633758544921875e+01 -2.814119911193847656e+01 1.708909630775451660e+00 1.524465918540954590e+00 9.700126647949218750e-01 1.453654170036315918e+00
2.370000000000000000e+02 7.207945251464843750e+01 -2.868959617614746094e+01 1.524004220962524414e+00 3.276959657669067383e+00 1.440289258956909180e+00 2.391339778900146484e+00
2.380000000000000000e+02 7.220437622070312500e+01 -2.852943420410156250e+01 1.614315986633300781e+00 3.522740364074707031e+00 1.541116952896118164e+00 2.661126852035522461e+00
2.390000000000000000e+02 7.233942413330078125e+01 -2.837294387817382812e+01 2.152035474777221680e+00 3.646113634109497070e+00 1.739444732666015625e+00 2.874977111816406250e+00
2.400000000000000000e+02 7.264373016357421875e+01 -2.828288841247558594e+01 2.449392557144165039e+00 5.961371898651123047e+00 2.523229360580444336e+00 4.255157470703125000e+00
2.410000000000000000e+02 7.346549224853515625e+01 -2.868984413146972656e+01 2.577505074441432953e-02 1.260928344726562500e+01 3.790517330169677734e+00 1.674358248710632324e+00
2.420000000000000000e+02 7.380664825439453125e+01 -2.864148712158203125e+01 4.712744951248168945e-01 1.338031101226806641e+01 4.155475616455078125e+00 -3.595205023884773254e-03
2.430000000000000000e+02 7.374217224121093750e+01 -2.851092910766601562e+01 5.657706260681152344e-01 1.400913238525390625e+01 4.372470855712890625e+00 1.708802282810211182e-01
2.440000000000000000e+02 7.421146392822265625e+01 -2.827931594848632812e+01 2.604722976684570312e+00 1.335332107543945312e+01 4.787413120269775391e+00 -1.658714532852172852e+00
2.450000000000000000e+02 7.386911010742187500e+01 -2.823563194274902344e+01 1.997239351272583008e+00 1.485741138458251953e+01 5.056395053863525391e+00 -1.145563364028930664e+00
2.460000000000000000e+02 7.456286621093750000e+01 -2.787488555908203125e+01 4.484381198883056641e+00 1.166804981231689453e+01 4.845729351043701172e+00 -1.536221981048583984e+00
2.470000000000000000e+02 7.459766387939453125e+01 -2.770523643493652344e+01 4.937720298767089844e+00 1.140185451507568359e+01 4.901872634887695312e+00 -1.194358110427856445e+00
2.480000000000000000e+02 7.458326721191406250e+01 -2.694255638122558594e+01 4.776641368865966797e+00 1.179131221771240234e+01 4.970386028289794922e+00 1.195047259330749512e+00
2.490000000000000000e+02 7.459729003906250000e+01 -2.710933494567871094e+01 5.492303848266601562e+00 1.159731769561767578e+01 5.126886367797851562e+00 7.511542439460754395e-01
2.500000000000000000e+02 7.452250671386718750e+01 -2.677847862243652344e+01 4.301984310150146484e+00 1.204444503784179688e+01 4.903928756713867188e+00 1.419993758201599121e+00
2.510000000000000000e+02 7.421036529541015625e+01 -2.686830902099609375e+01 5.168321609497070312e+00 1.339011573791503906e+01 5.567531108856201172e+00 1.822201371192932129e+00
2.520000000000000000e+02 7.438087463378906250e+01 -2.681731224060058594e+01 4.734033584594726562e+00 1.255501365661621094e+01 5.186714172363281250e+00 1.637001395225524902e+00
2.530000000000000000e+02 7.401653289794921875e+01 -2.623149108886718750e+01 1.172097802162170410e+00 1.376697826385498047e+01 4.481722831726074219e+00 7.604568600654602051e-01
2.540000000000000000e+02 7.373127746582031250e+01 -2.604893112182617188e+01 1.140727847814559937e-01 1.354508304595947266e+01 4.097746849060058594e+00 -6.939533352851867676e-01
2.550000000000000000e+02 7.231908416748046875e+01 -2.594721984863281250e+01 9.471895694732666016e-01 4.853842735290527344e+00 1.740309715270996094e+00 -2.923591852188110352e+00
2.560000000000000000e+02 7.192109680175781250e+01 -2.590234947204589844e+01 3.600762188434600830e-01 3.107552528381347656e+00 1.040288567543029785e+00 -1.795296669006347656e+00
2.570000000000000000e+02 7.151266479492187500e+01 -2.605709648132324219e+01 -3.550302386283874512e-01 4.087886810302734375e-01 1.612753793597221375e-02 -3.012326955795288086e-01
2.580000000000000000e+02 7.167929077148437500e+01 -2.608563804626464844e+01 -9.654398262500762939e-02 2.026984453201293945e+00 5.791321396827697754e-01 -9.763686060905456543e-01
2.590000000000000000e+02 7.135545349121093750e+01 -2.648027801513671875e+01 2.424280643463134766e-01 -8.254759907722473145e-01 -1.749143898487091064e-01 4.689637571573257446e-02
2.600000000000000000e+02 7.161433410644531250e+01 -2.641064643859863281e+01 2.832141816616058350e-01 3.834585845470428467e-01 2.000018358230590820e-01 -1.776577234268188477e-01
2.610000000000000000e+02 7.162751770019531250e+01 -2.688524436950683594e+01 4.583250731229782104e-02 -8.276641368865966797e-02 -1.108017284423112869e-02 3.400677144527435303e-01
2.620000000000000000e+02 7.183367919921875000e+01 -2.692517852783203125e+01 1.385001391172409058e-01 3.762927055358886719e-01 1.544378548860549927e-01 2.668090462684631348e-01
2.630000000000000000e+02 7.222541046142578125e+01 -2.642652130126953125e+01 1.731441974639892578e+00 2.603973627090454102e+00 1.300624728202819824e+00 -2.183930635452270508e+00
2.640000000000000000e+02 7.212177276611328125e+01 -2.836004447937011719e+01 1.900320410728454590e+00 2.489555120468139648e+00 1.316962718963623047e+00 2.172219276428222656e+00
2.650000000000000000e+02 7.254896545410156250e+01 -2.845132446289062500e+01 1.978906273841857910e+00 5.602681636810302734e+00 2.274476289749145508e+00 3.588357210159301758e+00
2.660000000000000000e+02 7.433974456787109375e+01 -2.773705482482910156e+01 5.715833663940429688e+00 1.248401451110839844e+01 5.459954261779785156e+00 -1.553199052810668945e+00
2.670000000000000000e+02 7.444823455810546875e+01 -2.788628387451171875e+01 4.591028690338134766e+00 1.202704334259033203e+01 4.985421657562255859e+00 -1.601133108139038086e+00
2.680000000000000000e+02 7.160363006591796875e+01 -2.786068153381347656e+01 3.308017551898956299e-01 1.744850128889083862e-01 1.515860259532928467e-01 -1.694298833608627319e-01
2.690000000000000000e+02 7.445756530761718750e+01 -2.773129272460937500e+01 5.191296100616455078e+00 1.197050666809082031e+01 5.148540973663330078e+00 -1.375607132911682129e+00
2.700000000000000000e+02 7.187098693847656250e+01 -2.632376098632812500e+01 9.205245971679687500e-01 1.699412107467651367e+00 7.859809994697570801e-01 -1.221250772476196289e+00
2.710000000000000000e+02 7.083006286621093750e+01 -2.928121185302734375e+01 4.058923423290252686e-01 7.795508503913879395e-01 3.556329607963562012e-01 5.693754553794860840e-01
2.720000000000000000e+02 7.844714355468750000e+01 -3.192739486694335938e+01 -1.560877561569213867e-01 9.262717247009277344e+00 2.731988906860351562e+00 -8.007604479789733887e-01
2.730000000000000000e+02 7.946541595458984375e+01 -2.783782196044921875e+01 1.271522343158721924e-01 6.925262928009033203e+00 2.115724563598632812e+00 -1.414775401353836060e-01
2.740000000000000000e+02 7.847373199462890625e+01 -2.763357353210449219e+01 4.542723596096038818e-01 7.834208965301513672e+00 2.486544370651245117e+00 -2.196803987026214600e-01
2.750000000000000000e+02 7.946336364746093750e+01 -2.500767898559570312e+01 1.504983636550605297e-03 7.661122322082519531e+00 2.298788309097290039e+00 3.530122637748718262e-01
2.760000000000000000e+02 7.844323730468750000e+01 -2.469818878173828125e+01 6.682842969894409180e-02 8.472592353820800781e+00 2.561826229095458984e+00 8.807414174079895020e-01
2.770000000000000000e+02 6.977545166015625000e+01 -1.825555610656738281e+01 -3.190058469772338867e-01 2.408395290374755859e+00 6.268168091773986816e-01 -9.090789556503295898e-01
2.780000000000000000e+02 6.790295410156250000e+01 -1.409098434448242188e+01 6.602678894996643066e-01 2.454687356948852539e+00 9.344866275787353516e-01 3.369473516941070557e-01
2.790000000000000000e+02 6.513236236572265625e+01 -1.441318607330322266e+01 8.404794335365295410e-01 1.470400333404541016e+00 6.932639479637145996e-01 9.626914858818054199e-01
2.800000000000000000e+02 6.433786773681640625e+01 -1.402516460418701172e+01 8.379905223846435547e-01 1.374783039093017578e+00 6.638320684432983398e-01 1.089413285255432129e+00
2.810000000000000000e+02 6.389639282226562500e+01 -1.474092197418212891e+01 8.704741597175598145e-01 1.282416939735412598e+00 6.458673477172851562e-01 1.115672111511230469e+00
2.820000000000000000e+02 6.075582504272460938e+01 -1.874038696289062500e+01 -4.483722746372222900e-01 1.662777543067932129e+00 3.643215894699096680e-01 1.029520034790039062e+00
2.830000000000000000e+02 5.752698516845703125e+01 -2.028156852722167969e+01 -1.192488789558410645e+00 7.860904932022094727e-01 -1.219194680452346802e-01 6.386768817901611328e-01
2.840000000000000000e+02 5.951240539550781250e+01 -2.476883316040039062e+01 1.885755419731140137e+00 1.552639484405517578e+00 1.031518459320068359e+00 1.745954394340515137e+00
2.850000000000000000e+02 5.276319885253906250e+01 -2.657755470275878906e+01 8.056853413581848145e-01 9.448447823524475098e-01 5.251590013504028320e-01 -8.986159414052963257e-02
2.860000000000000000e+02 5.491403961181640625e+01 -2.897779655456542969e+01 1.184816837310791016e+00 3.201761007308959961e+00 1.315973401069641113e+00 6.162126660346984863e-01
2.870000000000000000e+02 5.707696151733398438e+01 -2.692539215087890625e+01 1.732340812683105469e+00 3.297781944274902344e+00 1.509036779403686523e+00 2.189150094985961914e+00
2.880000000000000000e+02 7.225530242919921875e+01 -3.009314537048339844e+01 3.769522160291671753e-02 5.482701778411865234e+00 1.656119108200073242e+00 1.967099785804748535e+00
2.890000000000000000e+02 7.125728607177734375e+01 -3.434660720825195312e+01 -6.668461561203002930e-01 3.872770309448242188e+00 9.617772102355957031e-01 8.198381066322326660e-01
2.900000000000000000e+02 7.094777679443359375e+01 -3.865324020385742188e+01 2.632400691509246826e-01 3.654135942459106445e+00 1.175212860107421875e+00 4.455025494098663330e-01
2.910000000000000000e+02 6.761238098144531250e+01 -4.134806823730468750e+01 8.455864787101745605e-01 1.316883683204650879e+00 6.487410664558410645e-01 8.344197273254394531e-02
2.920000000000000000e+02 7.190052795410156250e+01 -4.123576736450195312e+01 3.960344493389129639e-01 4.493945121765136719e+00 1.466993927955627441e+00 1.217164173722267151e-01
2.930000000000000000e+02 7.504147338867187500e+01 -4.035633087158203125e+01 1.461236476898193359e-01 7.344005107879638672e+00 2.247038602828979492e+00 -1.204638257622718811e-01
2.940000000000000000e+02 7.492147064208984375e+01 -3.720022583007812500e+01 -2.813715338706970215e-01 7.224196434020996094e+00 2.082847356796264648e+00 -4.093230143189430237e-02
2.950000000000000000e+02 7.342680358886718750e+01 -3.356779098510742188e+01 -9.818698763847351074e-01 6.537144184112548828e+00 1.666582345962524414e+00 4.710416793823242188e-01
2.960000000000000000e+02 7.614362335205078125e+01 -3.333545684814453125e+01 -7.560741305351257324e-01 8.897102355957031250e+00 2.442308664321899414e+00 -4.289094209671020508e-01
2.970000000000000000e+02 7.131696319580078125e+01 -3.128951454162597656e+01 -2.939305305480957031e-01 3.427747488021850586e+00 9.401450753211975098e-01 1.136528372764587402e+00
2.980000000000000000e+02 5.961132049560546875e+01 -3.475957870483398438e+01 -1.985583156347274780e-01 -4.183069244027137756e-02 -7.211670279502868652e-02 -2.319532930850982666e-01
2.990000000000000000e+02 5.835628128051757812e+01 -3.441757583618164062e+01 3.023554682731628418e-01 8.311455249786376953e-01 3.400503098964691162e-01 -3.635399341583251953e-01
3.000000000000000000e+02 5.724184417724609375e+01 -3.367333984375000000e+01 3.830416798591613770e-01 8.594415187835693359e-01 3.727449476718902588e-01 -8.382428288459777832e-01
3.010000000000000000e+02 5.815794372558593750e+01 -3.580480575561523438e+01 -2.710089683532714844e-01 9.576755166053771973e-01 2.059999704360961914e-01 -5.508148670196533203e-01
3.020000000000000000e+02 5.900049209594726562e+01 -4.079438018798828125e+01 9.061822295188903809e-02 4.730601012706756592e-01 1.691035032272338867e-01 -2.057558298110961914e-01
3.030000000000000000e+02 5.910295867919921875e+01 -3.706501388549804688e+01 -9.333624690771102905e-02 4.677025377750396729e-01 1.123098880052566528e-01 -5.769890546798706055e-01
3.040000000000000000e+02 6.388100814819335938e+01 -3.504905319213867188e+01 -1.380754351615905762e+00 -2.206394523382186890e-01 -4.804181456565856934e-01 -5.177866220474243164e-01
3.050000000000000000e+02 6.078658676147460938e+01 -3.510968780517578125e+01 -6.358636021614074707e-01 -9.898911230266094208e-03 -1.937287449836730957e-01 -2.611261308193206787e-01
3.060000000000000000e+02 6.546511077880859375e+01 -3.464738082885742188e+01 -1.575331211090087891e+00 -1.484155356884002686e-01 -5.171239972114562988e-01 -5.644114613533020020e-01
3.070000000000000000e+02 6.549417877197265625e+01 -3.674612426757812500e+01 -8.408837020397186279e-02 4.736056551337242126e-02 -1.101834140717983246e-02 -2.403335273265838623e-01
3.080000000000000000e+02 6.779180908203125000e+01 -3.887207794189453125e+01 5.295437574386596680e-01 1.367862224578857422e+00 5.692217946052551270e-01 2.373342961072921753e-01
3.090000000000000000e+02 6.914755249023437500e+01 -3.509117507934570312e+01 -4.552510976791381836e-01 1.769170999526977539e+00 3.941759467124938965e-01 4.609120488166809082e-01
3.100000000000000000e+02 6.692420959472656250e+01 -3.409954071044921875e+01 -1.495251297950744629e+00 -2.169298231601715088e-01 -5.136542916297912598e-01 -5.171441435813903809e-01
3.110000000000000000e+02 6.820471191406250000e+01 -3.324763488769531250e+01 -1.159085869789123535e+00 -1.995428837835788727e-02 -3.537120521068572998e-01 -4.028937220573425293e-01
3.120000000000000000e+02 6.925083160400390625e+01 -3.217358779907226562e+01 -6.464717388153076172e-01 5.315480828285217285e-01 -3.447709977626800537e-02 -7.976397871971130371e-02
3.130000000000000000e+02 5.437842559814453125e+01 -3.395373153686523438e+01 6.356673687696456909e-02 1.811618804931640625e+00 5.625556707382202148e-01 2.511994540691375732e-01
3.140000000000000000e+02 5.020605850219726562e+01 -3.508457565307617188e+01 1.347737163305282593e-01 8.117482662200927734e-01 2.839565873146057129e-01 4.428876042366027832e-01
3.150000000000000000e+02 4.610279083251953125e+01 -3.258337402343750000e+01 1.712653040885925293e-01 -1.711121648550033569e-01 4.594013444148004055e-05 1.677658259868621826e-01
3.160000000000000000e+02 3.986093902587890625e+01 -3.392378234863281250e+01 -6.898812949657440186e-02 -5.323612093925476074e-01 -1.804048120975494385e-01 -2.860289514064788818e-01
3.170000000000000000e+02 3.633452224731445312e+01 -3.328377914428710938e+01 -2.141415178775787354e-01 -8.630508929491043091e-02 -9.013397991657257080e-02 -1.347260177135467529e-01
3.180000000000000000e+02 3.208020782470703125e+01 -3.266202926635742188e+01 1.632943935692310333e-02 5.287756677716970444e-03 6.485159043222665787e-03 -1.257438305765390396e-02
3.190000000000000000e+02 3.482984161376953125e+01 -3.314824676513671875e+01 -9.021069854497909546e-02 -3.124072588980197906e-02 -3.643542528152465820e-02 -5.806716904044151306e-02
3.200000000000000000e+02 2.741589927673339844e+01 -3.861179351806640625e+01 -1.027038320899009705e-02 -2.549359574913978577e-02 -1.072919368743896484e-02 -5.937149748206138611e-03
3.210000000000000000e+02 3.230437850952148438e+01 -4.119732666015625000e+01 2.860160730779170990e-02 -1.296518296003341675e-01 -3.031506761908531189e-02 -1.854489929974079132e-02
3.220000000000000000e+02 3.005071067810058594e+01 -3.761780929565429688e+01 -7.925699464976787567e-03 -5.320306122303009033e-02 -1.833862811326980591e-02 -2.165505476295948029e-02
3.230000000000000000e+02 3.350329971313476562e+01 -3.281946563720703125e+01 2.098699100315570831e-03 2.195678418502211571e-03 1.288313185796141624e-03 -1.185712218284606934e-02
3.240000000000000000e+02 5.638640213012695312e+01 -3.272178268432617188e+01 7.102475166320800781e-01 2.694169998168945312e+00 1.021325230598449707e+00 -7.930624485015869141e-01
3.250000000000000000e+02 5.570796203613281250e+01 -3.063466453552246094e+01 5.475425124168395996e-01 4.688058853149414062e+00 1.570680379867553711e+00 7.072041928768157959e-02
3.260000000000000000e+02 5.731909942626953125e+01 -2.577186012268066406e+01 1.648905396461486816e+00 2.551257848739624023e+00 1.260048985481262207e+00 1.692829251289367676e+00
3.270000000000000000e+02 6.060729980468750000e+01 -2.405792808532714844e+01 1.421770334243774414e+00 1.122176289558410645e+00 7.631840109825134277e-01 1.181900382041931152e+00
3.280000000000000000e+02 6.179280471801757812e+01 -2.342127609252929688e+01 1.562481820583343506e-01 4.057528972625732422e-01 1.686003208160400391e-01 5.886219143867492676e-01
3.290000000000000000e+02 6.303169631958007812e+01 -2.302780532836914062e+01 -7.536195516586303711e-01 1.712782829999923706e-01 -1.747023761272430420e-01 1.337708979845046997e-01
3.300000000000000000e+02 6.427337646484375000e+01 -2.267225837707519531e+01 -1.158091306686401367e+00 5.855600163340568542e-02 -3.298605978488922119e-01 -1.803447753190994263e-01
3.310000000000000000e+02 6.255266189575195312e+01 -2.212728691101074219e+01 -7.040359377861022949e-01 6.531185507774353027e-01 -1.527522504329681396e-02 6.535226702690124512e-01
3.320000000000000000e+02 6.598846435546875000e+01 -1.605105209350585938e+01 6.701483726501464844e-01 1.192235946655273438e+00 5.587152838706970215e-01 6.989408135414123535e-01
3.330000000000000000e+02 6.657460021972656250e+01 -1.663060569763183594e+01 4.914714395999908447e-01 1.207629323005676270e+00 5.097302198410034180e-01 4.572958946228027344e-01
3.340000000000000000e+02 6.551285552978515625e+01 -2.212857246398925781e+01 -1.944571614265441895e+00 -6.416615098714828491e-02 -6.026213169097900391e-01 -5.727993249893188477e-01
3.350000000000000000e+02 6.901985931396484375e+01 -1.977930259704589844e+01 -1.120209336280822754e+00 1.098696470260620117e+00 -6.453857757151126862e-03 -9.079353809356689453e-01
3.360000000000000000e+02 6.751009368896484375e+01 -1.897203254699707031e+01 -4.811371862888336182e-01 5.968434810638427734e-01 3.471188247203826904e-02 5.657233670353889465e-02
3.370000000000000000e+02 7.013060760498046875e+01 -2.217532539367675781e+01 -1.468267440795898438e+00 1.194111466407775879e+00 -8.224679529666900635e-02 -3.548354208469390869e-01
3.380000000000000000e+02 7.056954956054687500e+01 -2.040395164489746094e+01 -1.249478459358215332e+00 3.191215038299560547e+00 5.825209617614746094e-01 -1.362702608108520508e+00
3.390000000000000000e+02 7.014156341552734375e+01 -1.930691719055175781e+01 -9.541036486625671387e-01 2.488468408584594727e+00 4.603094160556793213e-01 -1.140589475631713867e+00
3.400000000000000000e+02 7.095162200927734375e+01 -2.321148872375488281e+01 6.313536763191223145e-01 3.776607513427734375e+00 1.322388291358947754e+00 -1.396803379058837891e+00
3.410000000000000000e+02 7.278405761718750000e+01 -2.566590499877929688e+01 3.189540505409240723e-01 7.974487781524658203e+00 2.488032579421997070e+00 -3.121567726135253906e+00
3.420000000000000000e+02 7.402047729492187500e+01 -2.583852195739746094e+01 1.708311736583709717e-01 1.275520324707031250e+01 3.877810478210449219e+00 1.507758498191833496e-01
3.430000000000000000e+02 7.421051788330078125e+01 -2.594751358032226562e+01 7.070615887641906738e-01 1.265379810333251953e+01 4.008257865905761719e+00 8.169705271720886230e-01
3.440000000000000000e+02 7.370413970947265625e+01 -2.528536796569824219e+01 -6.051940917968750000e-01 1.097965908050537109e+01 3.112339258193969727e+00 -1.078137755393981934e+00
3.450000000000000000e+02 7.388023376464843750e+01 -2.892603683471679688e+01 -2.809341065585613251e-02 1.243139934539794922e+01 3.720991611480712891e+00 1.261538118124008179e-01
3.460000000000000000e+02 4.430506515502929688e+01 -2.314218521118164062e+01 -1.976417899131774902e-01 -2.963433861732482910e-01 -1.481955498456954956e-01 -4.358246326446533203e-01
3.470000000000000000e+02 4.634900283813476562e+01 -2.255133438110351562e+01 -5.183601379394531250e-01 -2.213749736547470093e-01 -2.219205200672149658e-01 -5.777909755706787109e-01
3.480000000000000000e+02 4.461195755004882812e+01 -2.379891967773437500e+01 -1.694557517766952515e-01 -3.510431647300720215e-01 -1.561496704816818237e-01 -5.232707262039184570e-01
3.490000000000000000e+02 4.149906921386718750e+01 -3.074924659729003906e+01 -6.457962393760681152e-01 -1.273849248886108398e+00 -5.758937001228332520e-01 -6.828683614730834961e-01
3.500000000000000000e+02 4.045075225830078125e+01 -3.155154991149902344e+01 -6.635685563087463379e-01 -6.227289438247680664e-01 -3.858892321586608887e-01 -6.203038692474365234e-01
3.510000000000000000e+02 3.924789810180664062e+01 -3.225926589965820312e+01 -5.494149327278137207e-01 -4.349255561828613281e-01 -2.953021526336669922e-01 -4.304669201374053955e-01
3.520000000000000000e+02 2.847039985656738281e+01 -3.321433258056640625e+01 1.492777746170759201e-02 -3.700613509863615036e-03 3.368149278685450554e-03 -1.217779121361672878e-03
3.530000000000000000e+02 2.762588691711425781e+01 -4.117089080810546875e+01 -1.280242856591939926e-02 -3.421719372272491455e-02 -1.410588622093200684e-02 -3.889165120199322701e-03
3.540000000000000000e+02 3.060846138000488281e+01 -3.231304931640625000e+01 2.612578868865966797e-02 -4.637269768863916397e-03 6.446555722504854202e-03 -1.132966857403516769e-02
3.550000000000000000e+02 2.681861877441406250e+01 -3.138625907897949219e+01 3.287461400032043457e-02 1.914849039167165756e-03 1.043683849275112152e-02 -1.881106756627559662e-03
3.560000000000000000e+02 2.484981346130371094e+01 -3.345476531982421875e+01 1.262031961232423782e-02 -3.142078407108783722e-03 2.843472408130764961e-03 4.190700594335794449e-03
3.570000000000000000e+02 2.419747161865234375e+01 -3.829603576660156250e+01 -9.478488937020301819e-03 -8.406870998442173004e-03 -5.365608260035514832e-03 3.602437442168593407e-03
3.580000000000000000e+02 2.315891075134277344e+01 -4.096785354614257812e+01 -1.293501071631908417e-02 -2.667759545147418976e-03 -4.680830985307693481e-03 3.046626690775156021e-03
3.590000000000000000e+02 2.797534561157226562e+01 -3.150852775573730469e+01 3.480552881956100464e-02 -2.238464076071977615e-03 9.770118631422519684e-03 -3.545348998159170151e-03
3.600000000000000000e+02 2.279979705810546875e+01 -3.166350364685058594e+01 2.044462226331233978e-02 -1.510221627540886402e-03 5.680320318788290024e-03 2.968923654407262802e-03
3.610000000000000000e+02 2.187544631958007812e+01 -3.385614395141601562e+01 7.336859125643968582e-03 -7.312421221286058426e-04 1.981685170903801918e-03 6.363821681588888168e-03
3.620000000000000000e+02 1.982988548278808594e+01 -3.920824050903320312e+01 -8.471718989312648773e-03 2.952238079160451889e-03 -1.655844156630337238e-03 2.918838057667016983e-03
3.630000000000000000e+02 1.673395729064941406e+01 -4.092895507812500000e+01 -6.186714861541986465e-03 3.223406849429011345e-03 -8.889924502000212669e-04 8.415980264544487000e-04
3.640000000000000000e+02 2.557855606079101562e+01 -3.149541664123535156e+01 2.864909358322620392e-02 -1.968801254406571388e-03 8.004087954759597778e-03 -2.803194511216133833e-04
3.650000000000000000e+02 1.991308593750000000e+01 -3.196362304687500000e+01 1.390644814819097519e-02 -3.525110660120844841e-04 4.066181369125843048e-03 2.995480084791779518e-03
3.660000000000000000e+02 1.854422569274902344e+01 -3.468150711059570312e+01 2.734317677095532417e-03 1.496936427429318428e-03 1.269376254640519619e-03 5.043594632297754288e-03
3.670000000000000000e+02 1.543020820617675781e+01 -3.806459808349609375e+01 -3.400741843506693840e-03 3.215262200683355331e-03 -5.564391904044896364e-05 3.974864259362220764e-03
3.680000000000000000e+02 2.136238861083984375e+01 -3.179365730285644531e+01 1.713230460882186890e-02 8.350703865289688110e-04 5.390212405472993851e-03 3.046656725928187370e-03
3.690000000000000000e+02 1.455916976928710938e+01 -3.543812561035156250e+01 2.084689680486917496e-03 1.214194810017943382e-03 9.896652773022651672e-04 3.607880324125289917e-03
3.700000000000000000e+02 1.236752700805664062e+01 -3.876231002807617188e+01 -2.006533555686473846e-03 2.329686889424920082e-03 9.694603795651346445e-05 1.907710451632738113e-03
3.710000000000000000e+02 1.248298072814941406e+01 -4.127338027954101562e+01 -2.963025821372866631e-03 3.008404746651649475e-03 1.361366139462916180e-05 8.405607659369707108e-04
3.720000000000000000e+02 1.515316295623779297e+01 -3.149174308776855469e+01 5.347934085875749588e-03 1.137427636422216892e-03 1.945608528330922127e-03 9.889510693028569221e-04
3.730000000000000000e+02 9.231892585754394531e+00 -3.887205505371093750e+01 -1.021322677843272686e-03 1.650094403885304928e-03 1.886315149022266269e-04 1.206832355819642544e-03
3.740000000000000000e+02 8.192912101745605469e+00 -4.127082824707031250e+01 -1.034558052197098732e-03 1.590115600265562534e-03 1.666672615101560950e-04 1.289020729018375278e-04
3.750000000000000000e+02 1.265788745880126953e+01 -2.989078903198242188e+01 1.428410992957651615e-03 4.446552484296262264e-04 5.619198782369494438e-04 1.619820686755701900e-04
3.760000000000000000e+02 1.052647686004638672e+01 -2.811050796508789062e+01 3.016048285644501448e-04 5.431233603303553537e-06 9.211081487592309713e-05 1.347540382994338870e-04
3.770000000000000000e+02 9.552935600280761719e+00 -2.710151672363281250e+01 -7.500868377974256873e-05 -1.107749485527165234e-04 -5.573509042733348906e-05 1.016274381981929764e-05
3.780000000000000000e+02 7.764182090759277344e+00 -2.731123352050781250e+01 -4.161474134889431298e-05 2.159312316507566720e-05 -6.006485818943474442e-06 -8.203302422771230340e-05
3.790000000000000000e+02 8.770492553710937500e+00 -2.601899909973144531e+01 -9.321012839791364968e-06 -1.114800252253189683e-04 -3.624031160143204033e-05 6.175617454573512077e-05
3.800000000000000000e+02 7.177825450897216797e+00 -2.348828125000000000e+01 1.001024284050799906e-04 1.164119821623899043e-04 6.495432171504944563e-05 5.173033059691078961e-06
3.810000000000000000e+02 6.093304753303527832e-01 -2.056727600097656250e+01 2.397007774561643600e-04 -2.290847760377801023e-06 7.122298120521008968e-05 1.543290272820740938e-05
3.820000000000000000e+02 1.838378190994262695e+00 -2.054983329772949219e+01 -2.369278809055685997e-04 -1.399925054101913702e-06 -7.149833982111886144e-05 -2.897976992244366556e-05
3.830000000000000000e+02 5.858316421508789062e-01 -2.197308540344238281e+01 -2.638465666677802801e-04 -1.180733124783728272e-05 -8.269616955658420920e-05 -2.245995165139902383e-05
3.840000000000000000e+02 1.708067655563354492e+00 -2.332695770263671875e+01 -2.663662016857415438e-04 -7.490059942938387394e-06 -8.215688285417854786e-05 -3.159663538099266589e-05
3.850000000000000000e+02 6.890886306762695312e+00 -2.637802886962890625e+01 -4.210764018353074789e-05 5.900685209780931473e-05 5.069763574283570051e-06 1.677047257544472814e-04
3.860000000000000000e+02 6.075099945068359375e+00 -2.335807228088378906e+01 -1.529561850475147367e-04 -5.616334237856790423e-05 -6.273586041061207652e-05 -6.753038906026631594e-05
3.870000000000000000e+02 5.126777172088623047e+00 -2.219034957885742188e+01 -1.424810761818662286e-04 -4.382675615488551557e-05 -5.589235297520644963e-05 2.117838630510959774e-05
3.880000000000000000e+02 8.523867607116699219e+00 -2.244580268859863281e+01 1.101708039641380310e-04 -7.020681096037151292e-06 3.094503699685446918e-05 -2.428922562103252858e-05
3.890000000000000000e+02 8.787296295166015625e+00 -2.106688117980957031e+01 -1.019427363644354045e-04 -1.510971742391120642e-05 -3.511573595460504293e-05 2.675367977644782513e-05
3.900000000000000000e+02 8.831014633178710938e+00 -1.783249855041503906e+01 9.868435881799086928e-05 2.045796463789884001e-06 3.021904558409005404e-05 -5.167608105693943799e-05
3.910000000000000000e+02 9.922537803649902344e+00 -1.841287040710449219e+01 -1.034971719491295516e-04 -8.304128641611896455e-06 -3.354038926772773266e-05 4.722510857391171157e-05
3.920000000000000000e+02 1.010297012329101562e+01 -1.202423191070556641e+01 7.904841186245903373e-05 2.152753040718380362e-05 3.017278322658967227e-05 -3.071134869969682768e-06
3.930000000000000000e+02 6.078162193298339844e+00 -5.696365356445312500e+00 3.144831862300634384e-05 2.044443135673645884e-05 1.556782626721542329e-05 3.718134030350483954e-05
3.940000000000000000e+02 1.154846858978271484e+01 -2.644849061965942383e+00 -1.214333678944967687e-05 -3.183764056302607059e-05 -1.319429338764166459e-05 -1.148953015217557549e-05
3.950000000000000000e+02 9.221375465393066406e+00 -1.923409581184387207e+00 1.181264724436914548e-05 2.907340785895939916e-05 1.226581662194803357e-05 1.143456120189512148e-05
3.960000000000000000e+02 8.312413215637207031e+00 -2.696779727935791016e+00 2.040625986410304904e-05 2.729485277086496353e-05 1.431033433618722484e-05 1.720539148664101958e-05
3.970000000000000000e+02 7.627152442932128906e+00 -1.893211722373962402e+00 2.170310290239285678e-05 2.547252552176360041e-05 1.415268889104481786e-05 1.239965422428213060e-05
3.980000000000000000e+02 3.669379472732543945e+00 -1.850960612297058105e+00 -1.422665809514001012e-05 -3.095530246355338022e-06 -5.196656275074928999e-06 5.647886609949637204e-06
3.990000000000000000e+02 6.022974491119384766e+00 -1.866723656654357910e+00 2.408857108093798161e-05 1.434597925253910944e-05 1.153036555479047820e-05 6.250364094739779830e-06
4.000000000000000000e+02 5.309228420257568359e+00 -4.853088855743408203e+00 8.999048441182821989e-05 -8.055437319853808731e-06 2.458051312714815140e-05 4.487600017455406487e-05
4.010000000000000000e+02 4.205327987670898438e+00 -9.457710266113281250e+00 -9.247161506209522486e-05 -1.028982023854041472e-05 -3.082842886215075850e-05 -1.836677984101697803e-05
4.020000000000000000e+02 6.961126804351806641e+00 -1.412290573120117188e+01 -4.591000470099970698e-05 -1.837037416407838464e-05 -1.928411438711918890e-05 -6.128278619144111872e-05
4.030000000000000000e+02 6.957943439483642578e+00 -1.902708053588867188e+01 1.098440625355578959e-04 5.852291360497474670e-05 5.051009429735131562e-05 -1.235404943145113066e-05
4.040000000000000000e+02 5.813568115234375000e+00 -1.921439743041992188e+01 -7.399098831228911877e-05 -8.811782754492014647e-05 -4.863264257437549531e-05 -4.554874612949788570e-05
4.050000000000000000e+02 7.293454170227050781e+00 -2.215147399902343750e+01 -1.786981447366997600e-04 -3.585267404559999704e-05 -6.436524563468992710e-05 3.432325684116221964e-05
4.060000000000000000e+02 1.157282829284667969e+01 -1.608423042297363281e+01 -9.843765292316675186e-05 -3.840250428766012192e-05 -4.105204789084382355e-05 6.921343447174876928e-05
4.070000000000000000e+02 1.154778671264648438e+01 -1.441502666473388672e+01 -9.699720976641401649e-05 -2.469704122631810606e-05 -3.650827420642599463e-05 5.300302291288971901e-05
4.080000000000000000e+02 1.184731388092041016e+01 -1.189012432098388672e+01 8.733104914426803589e-05 6.531791586894541979e-05 4.579468804877251387e-05 -1.881197204056661576e-05
4.090000000000000000e+02 1.256478214263916016e+01 -6.372493743896484375e+00 -7.864530743972864002e-06 -5.002199759474024177e-05 -1.736595913826022297e-05 1.634627369639929384e-05
4.100000000000000000e+02 1.308597755432128906e+01 -4.221754074096679688e+00 -1.149421586887910962e-05 -3.170963100274093449e-05 -1.296115442528389394e-05 1.201552890961465891e-06
4.110000000000000000e+02 1.250199890136718750e+01 -3.889417886734008789e+00 7.870020453992765397e-06 3.687749267555773258e-05 1.342425457551144063e-05 3.280869123045704328e-06
4.120000000000000000e+02 1.427014923095703125e+01 -1.325130558013916016e+01 1.433988072676584125e-04 7.290604844456538558e-05 6.489145744126290083e-05 -3.225695400033146143e-05
4.130000000000000000e+02 1.561577796936035156e+01 -1.348791408538818359e+01 -2.967212822113651782e-05 -1.842321398726198822e-05 -1.442860229872167110e-05 -2.660954851307906210e-05
4.140000000000000000e+02 1.709851837158203125e+01 -8.425914764404296875e+00 -4.003023786935955286e-05 1.747240639815572649e-05 -6.767349532310618088e-06 1.367843196931062266e-05
4.150000000000000000e+02 1.825653648376464844e+01 -7.538873672485351562e+00 -2.436432077956851572e-05 2.611274112496175803e-07 -7.230958090076455846e-06 -1.203184524456446525e-06
4.160000000000000000e+02 1.629652404785156250e+01 -6.536695003509521484e+00 -2.796322769427206367e-05 -3.320172709209145978e-06 -9.385020348418038338e-06 1.096715459425467998e-05
4.170000000000000000e+02 1.574073982238769531e+01 -5.185348033905029297e+00 1.365749722026521340e-05 9.856511496764142066e-06 7.054202342260396108e-06 -1.242913867827155627e-06
4.180000000000000000e+02 1.581124305725097656e+01 -6.105638504028320312e+00 2.037130252574570477e-05 9.481204870098736137e-06 8.955751582107041031e-06 -7.645789992238860577e-06
4.190000000000000000e+02 1.844455337524414062e+01 -1.321692466735839844e+01 -1.014592089632060379e-05 1.240311030414886773e-05 6.771568337171629537e-07 8.971251475031749578e-08
4.200000000000000000e+02 1.967948913574218750e+01 -1.060795021057128906e+01 -2.289208896399941295e-05 -1.396591233060462400e-05 -1.105740102502750233e-05 1.375244664814090356e-05
4.210000000000000000e+02 2.129284477233886719e+01 -1.216787719726562500e+01 -2.532108010200317949e-05 -5.456091457745060325e-06 -9.233152013621293008e-06 -4.875853392150020227e-06
4.220000000000000000e+02 1.959447669982910156e+01 -9.116086006164550781e+00 2.087331995426211506e-05 4.652420102502219379e-06 7.657722562726121396e-06 8.863120456226170063e-06
4.230000000000000000e+02 1.933876800537109375e+01 -1.005206680297851562e+01 1.145217629527905956e-05 1.839301512518431991e-05 8.953557880886364728e-06 -2.562064992162049748e-06
4.240000000000000000e+02 2.226186180114746094e+01 -1.334593582153320312e+01 -2.602044332888908684e-06 -1.483243522670818493e-05 -5.230343958828598261e-06 -8.316233106597792357e-06
4.250000000000000000e+02 4.441429615020751953e+00 -1.841089963912963867e+00 2.150343607354443520e-05 6.222766842256532982e-06 8.317861102113965899e-06 -1.746778480082866736e-06
4.260000000000000000e+02 1.844136476516723633e+00 -5.425480365753173828e+00 6.007461706758476794e-05 1.310114021180197597e-05 2.195272645622026175e-05 -1.543576217954978347e-05
4.270000000000000000e+02 1.796847224235534668e+00 -9.358199119567871094e+00 -9.930078522302210331e-05 -5.024541223974665627e-06 -3.129759716102853417e-05 -9.627729923522565514e-06
4.280000000000000000e+02 3.003772497177124023e+00 -9.407151222229003906e+00 9.602397039998322725e-05 7.085191555233905092e-06 3.093274790444411337e-05 1.899390917969867587e-05
4.290000000000000000e+02 1.984012961387634277e+00 -1.629088592529296875e+01 1.680246205069124699e-04 4.188341335975565016e-06 5.166388655197806656e-05 1.974285623873583972e-05
4.300000000000000000e+02 3.335815429687500000e+00 -1.620013046264648438e+01 -1.663658767938613892e-04 -4.125215127714909613e-06 -5.114732630318030715e-05 -4.880730193690396845e-05
4.310000000000000000e+02 5.679631829261779785e-01 -2.759062576293945312e+01 -2.859942323993891478e-04 -9.288882574765011668e-05 -1.136649225372821093e-04 -2.506341479602269828e-05
4.320000000000000000e+02 1.746195912361145020e+00 -2.881195640563964844e+01 -2.735313319135457277e-04 -8.495266229147091508e-06 -8.460797835141420364e-05 1.123165111494017765e-05
4.330000000000000000e+02 4.579619884490966797e+00 -3.209621810913085938e+01 6.530238897539675236e-04 1.536548952572047710e-04 2.420036471448838711e-04 2.060344122583046556e-04
4.340000000000000000e+02 7.975579261779785156e+00 -3.469658279418945312e+01 6.042957102181389928e-05 8.392002782784402370e-04 2.698889584280550480e-04 9.905977640300989151e-04
4.350000000000000000e+02 8.822113990783691406e+00 -3.317535781860351562e+01 1.581072458066046238e-03 -5.010669701732695103e-05 4.592897312249988317e-04 1.153446268290281296e-03
4.360000000000000000e+02 1.140844631195068359e+01 -3.231315231323242188e+01 2.067676046863198280e-03 -3.160767082590609789e-04 5.254798452369868755e-04 1.391547848470509052e-03
4.370000000000000000e+02 5.814082026481628418e-01 -2.898767089843750000e+01 2.728391555137932301e-04 -1.025191158987581730e-04 5.109600897412747145e-05 1.318133490713080391e-05
4.380000000000000000e+02 1.875878691673278809e+00 -3.150196456909179688e+01 -2.082153660012409091e-04 5.941409108345396817e-05 -4.464037920115515590e-05 1.155609279521740973e-04
4.390000000000000000e+02 4.785036563873291016e+00 -3.335326385498046875e+01 -3.227677734685130417e-05 1.868835388449952006e-04 4.638202517526224256e-05 6.607180112041532993e-04
4.400000000000000000e+02 7.653263092041015625e+00 -3.653676605224609375e+01 -1.088422068278305233e-04 7.430479745380580425e-04 1.902617223095148802e-04 1.131411874666810036e-03
4.410000000000000000e+02 6.302955627441406250e+00 -3.461631393432617188e+01 9.583645442035049200e-05 3.462224849499762058e-04 1.326176861766725779e-04 9.340146207250654697e-04
4.420000000000000000e+02 7.016780972480773926e-01 -3.454363632202148438e+01 2.140688011422753334e-04 2.546177129261195660e-04 1.406059600412845612e-04 1.301918528042733669e-04
4.430000000000000000e+02 2.266874313354492188e+00 -3.542564392089843750e+01 2.284755464643239975e-04 4.684844170697033405e-04 2.090879861498251557e-04 3.464280744083225727e-04
4.440000000000000000e+02 7.797273397445678711e-01 -3.592031097412109375e+01 -2.023580018430948257e-04 4.017353348899632692e-04 5.981319918646477163e-05 4.554500992526300251e-05
4.450000000000000000e+02 1.452616095542907715e+00 -4.005229568481445312e+01 2.012880577240139246e-04 9.301797254011034966e-04 3.394403320271521807e-04 1.686191244516521692e-04
4.460000000000000000e+02 5.227199077606201172e+00 -4.044242095947265625e+01 -1.503714302089065313e-04 1.081123948097229004e-03 2.792257582768797874e-04 3.761935804504901171e-04
4.470000000000000000e+02 6.863718032836914062e+00 -3.843304443359375000e+01 -5.551071371883153915e-04 1.161266583949327469e-03 1.818478485802188516e-04 5.640438757836818695e-04
4.480000000000000000e+02 9.126306772232055664e-01 -3.728349304199218750e+01 2.252599806524813175e-04 6.227477570064365864e-04 2.544023154769092798e-04 1.716148690320551395e-04
4.490000000000000000e+02 2.080916643142700195e+00 -4.163749313354492188e+01 -2.527220931369811296e-04 1.017425209283828735e-03 2.294109435752034187e-04 7.624826685059815645e-05
4.500000000000000000e+02 3.673029327392578125e+01 -4.105836486816406250e+01 1.473988592624664307e-01 -2.821072936058044434e-01 -4.041253030300140381e-02 -3.771496564149856567e-02
4.510000000000000000e+02 3.800719070434570312e+01 -3.731196212768554688e+01 9.108252823352813721e-02 -3.621153533458709717e-01 -8.130984753370285034e-02 -1.674261093139648438e-01
4.520000000000000000e+02 3.993009185791015625e+01 -3.944953155517578125e+01 2.208202630281448364e-01 -3.368179500102996826e-01 -3.479930758476257324e-02 -4.193126037716865540e-02
4.530000000000000000e+02 4.166683959960937500e+01 -3.661491012573242188e+01 2.062474787235260010e-01 -4.594734609127044678e-01 -7.596779614686965942e-02 -4.721111059188842773e-02
4.540000000000000000e+02 4.109653472900390625e+01 -3.327448654174804688e+01 -2.074238471686840057e-02 -8.084967732429504395e-01 -2.487717419862747192e-01 -2.967624068260192871e-01
4.550000000000000000e+02 4.322292709350585938e+01 -4.080269622802734375e+01 2.212869077920913696e-01 -1.822561025619506836e-01 1.170924119651317596e-02 1.768155582249164581e-02
4.560000000000000000e+02 4.444275665283203125e+01 -3.754308700561523438e+01 2.117112725973129272e-01 -1.223386600613594055e-01 2.681178413331508636e-02 1.339807808399200439e-01
4.570000000000000000e+02 4.385504913330078125e+01 -3.371051406860351562e+01 1.777869462966918945e-01 -4.738911092281341553e-01 -8.883124589920043945e-02 8.115766942501068115e-02
4.580000000000000000e+02 4.758714294433593750e+01 -4.097776412963867188e+01 4.231365025043487549e-02 3.919847011566162109e-01 1.302895098924636841e-01 1.022803634405136108e-01
4.590000000000000000e+02 4.771324539184570312e+01 -3.799798965454101562e+01 8.891996741294860840e-02 3.228221833705902100e-01 1.235226467251777649e-01 2.658631205558776855e-01
4.600000000000000000e+02 4.800438690185546875e+01 -3.295394897460937500e+01 2.836425900459289551e-01 1.852000504732131958e-01 1.406527906656265259e-01 3.011623024940490723e-01
4.610000000000000000e+02 5.209650039672851562e+01 -4.069862365722656250e+01 -2.114960104227066040e-01 9.272486567497253418e-01 2.147257924079895020e-01 5.577412247657775879e-02
4.620000000000000000e+02 5.107739639282226562e+01 -3.757490921020507812e+01 -6.770056486129760742e-02 9.812777638435363770e-01 2.740731537342071533e-01 2.417538166046142578e-01
4.630000000000000000e+02 5.202555847167968750e+01 -3.437891006469726562e+01 1.528706997632980347e-01 1.236467242240905762e+00 4.168013632297515869e-01 4.948868751525878906e-01
4.640000000000000000e+02 5.622216796875000000e+01 -3.923613357543945312e+01 -2.356711477041244507e-01 1.056502461433410645e+00 2.462494075298309326e-01 -2.077080905437469482e-01
4.650000000000000000e+02 5.306263732910156250e+01 -3.318181228637695312e+01 4.806071817874908447e-01 1.764178514480590820e+00 6.734356880187988281e-01 4.691799283027648926e-01
4.660000000000000000e+02 6.325215530395507812e+01 -4.113811492919921875e+01 6.743289828300476074e-01 -1.419959007762372494e-03 2.018727064132690430e-01 -1.276609897613525391e-01
4.670000000000000000e+02 6.349616622924804688e+01 -3.735222625732421875e+01 4.036353155970573425e-02 -1.970423012971878052e-01 -4.700363054871559143e-02 -4.297451376914978027e-01
4.680000000000000000e+02 7.800315093994140625e+01 -4.165065002441406250e+01 3.872875869274139404e-01 9.565052986145019531e+00 2.985702276229858398e+00 1.089502125978469849e-01
4.690000000000000000e+02 7.927332305908203125e+01 -3.747890853881835938e+01 -9.497950971126556396e-02 1.034642410278320312e+01 3.075433254241943359e+00 1.294383704662322998e-01
4.700000000000000000e+02 7.755271911621093750e+01 -3.828018951416015625e+01 -1.406125128269195557e-01 9.297620773315429688e+00 2.747102737426757812e+00 3.263216316699981689e-01
4.710000000000000000e+02 7.940554809570312500e+01 -3.477566528320312500e+01 -4.525018110871315002e-02 1.041744327545166016e+01 3.111657857894897461e+00 -1.140105649828910828e-01
4.720000000000000000e+02 7.820809936523437500e+01 -3.465021896362304688e+01 -1.768108606338500977e-01 9.675575256347656250e+00 2.849629402160644531e+00 -3.114933669567108154e-01
4.730000000000000000e+02 7.951313781738281250e+01 -2.227946472167968750e+01 -2.314973063766956329e-02 9.457004547119140625e+00 2.830156326293945312e+00 2.346837222576141357e-01
4.740000000000000000e+02 7.842806243896484375e+01 -2.101366424560546875e+01 -1.831329613924026489e-01 9.437273025512695312e+00 2.776242017745971680e+00 3.819775879383087158e-01
4.750000000000000000e+02 7.574262237548828125e+01 -1.754599571228027344e+01 -4.068104922771453857e-01 7.782734394073486328e+00 2.212777137756347656e+00 -4.961741864681243896e-01
4.760000000000000000e+02 6.781623077392578125e+01 -1.066473865509033203e+01 5.392588973045349121e-01 3.245484352111816406e+00 1.135422945022583008e+00 7.505319118499755859e-01
4.770000000000000000e+02 6.785030364990234375e+01 -9.415297508239746094e+00 4.229400455951690674e-01 3.522295713424682617e+00 1.183570742607116699e+00 8.830398917198181152e-01
4.780000000000000000e+02 6.568223571777343750e+01 -1.033702373504638672e+01 6.887052655220031738e-01 2.182318210601806641e+00 8.613070249557495117e-01 1.078171968460083008e+00
4.790000000000000000e+02 6.467051696777343750e+01 -1.154370307922363281e+01 9.086528420448303223e-01 1.701439499855041504e+00 7.830277085304260254e-01 1.120118975639343262e+00
4.800000000000000000e+02 7.945388031005859375e+01 -1.956530380249023438e+01 -2.680221572518348694e-02 1.022586059570312500e+01 3.059717416763305664e+00 3.631394729018211365e-02
4.810000000000000000e+02 7.798420715332031250e+01 -1.548874568939208984e+01 -5.334380269050598145e-02 8.908273696899414062e+00 2.656478881835937500e+00 -3.788874447345733643e-01
4.820000000000000000e+02 7.519879150390625000e+01 -1.370691490173339844e+01 -5.767898261547088623e-02 7.052793025970458984e+00 2.098534345626831055e+00 -6.992247104644775391e-01
4.830000000000000000e+02 7.287697601318359375e+01 -9.062083244323730469e+00 1.334690582007169724e-02 6.293406963348388672e+00 1.892026185989379883e+00 -3.976548612117767334e-01
4.840000000000000000e+02 6.706790924072265625e+01 -7.740648746490478516e+00 5.350083112716674805e-01 3.313769102096557617e+00 1.154633283615112305e+00 1.260382294654846191e+00
4.850000000000000000e+02 7.932765960693359375e+01 -1.537525939941406250e+01 -1.188799832016229630e-02 9.796121597290039062e+00 2.935270071029663086e+00 -1.618626564741134644e-01
4.860000000000000000e+02 7.547412872314453125e+01 -1.079918766021728516e+01 -4.002447705715894699e-03 7.141279697418212891e+00 2.141183137893676758e+00 -6.676742434501647949e-01
4.870000000000000000e+02 7.202840423583984375e+01 -5.086306571960449219e+00 -1.035446580499410629e-02 6.987863540649414062e+00 2.093252658843994141e+00 -6.974342465400695801e-02
4.880000000000000000e+02 6.871819305419921875e+01 -3.853061676025390625e+00 6.051470041275024414e-01 6.373977661132812500e+00 2.093737363815307617e+00 1.784678578376770020e+00
4.890000000000000000e+02 6.928831481933593750e+01 -5.551401138305664062e+00 2.598018348217010498e-01 5.772544860839843750e+00 1.809703946113586426e+00 9.954386353492736816e-01
4.900000000000000000e+02 7.932679748535156250e+01 -1.254373168945312500e+01 -9.831645293161273003e-04 9.170255661010742188e+00 2.750781774520874023e+00 -1.844729781150817871e-01
4.910000000000000000e+02 7.806076812744140625e+01 -1.109651947021484375e+01 7.750060874968767166e-03 8.243263244628906250e+00 2.475303888320922852e+00 -4.529822170734405518e-01
4.920000000000000000e+02 7.597009277343750000e+01 -8.124822616577148438e+00 -2.734865248203277588e-02 7.271019935607910156e+00 2.173101425170898438e+00 -6.580626964569091797e-01
4.930000000000000000e+02 6.918210601806640625e+01 -2.514562368392944336e+00 5.673342347145080566e-01 7.607895851135253906e+00 2.452569007873535156e+00 1.871627449989318848e+00
4.940000000000000000e+02 7.031024932861328125e+01 -2.862626791000366211e+00 2.825878560543060303e-01 7.750332355499267578e+00 2.409876108169555664e+00 9.612471461296081543e-01
4.950000000000000000e+02 7.937179565429687500e+01 -9.745096206665039062e+00 7.835333235561847687e-03 8.477036476135253906e+00 2.545461416244506836e+00 -1.833540797233581543e-01
4.960000000000000000e+02 7.821759796142578125e+01 -5.539797306060791016e+00 -3.383714938536286354e-03 7.315273284912109375e+00 2.193566799163818359e+00 -4.757477641105651855e-01
4.970000000000000000e+02 7.588949584960937500e+01 -4.136889457702636719e+00 5.096461623907089233e-03 7.245069503784179688e+00 2.175049781799316406e+00 -6.909933090209960938e-01
4.980000000000000000e+02 7.117459869384765625e+01 1.451722383499145508e+00 7.613771557807922363e-01 1.018012428283691406e+01 3.282450437545776367e+00 4.879554510116577148e-01
4.990000000000000000e+02 6.991194152832031250e+01 2.342153787612915039e-01 5.671074986457824707e-01 1.090409469604492188e+01 3.441360712051391602e+00 1.690083742141723633e+00
5.000000000000000000e+02 7.940162658691406250e+01 -5.564704418182373047e+00 -5.573040805757045746e-03 7.353721141815185547e+00 2.204444408416748047e+00 -1.955966800451278687e-01
5.010000000000000000e+02 7.822875976562500000e+01 -4.182336807250976562e+00 1.228798297233879566e-03 7.066349983215332031e+00 2.120273590087890625e+00 -4.776089191436767578e-01
5.020000000000000000e+02 7.448593139648437500e+01 -3.567334711551666260e-01 3.522831797599792480e-01 7.765634536743164062e+00 2.435375452041625977e+00 -4.564099907875061035e-01
5.030000000000000000e+02 7.020116424560546875e+01 3.058626651763916016e+00 1.815470904111862183e-01 1.194297695159912109e+01 3.637356996536254883e+00 2.417501211166381836e-01
5.040000000000000000e+02 7.940357971191406250e+01 -2.797388076782226562e+00 1.270284526981413364e-03 6.549148559570312500e+00 1.965125679969787598e+00 -1.883838176727294922e-01
5.050000000000000000e+02 7.814173126220703125e+01 1.344464659690856934e+00 7.946801930665969849e-02 6.247004985809326172e+00 1.897941946983337402e+00 -2.743756175041198730e-01
5.060000000000000000e+02 7.345776367187500000e+01 2.475924968719482422e+00 6.064221858978271484e-01 8.707259178161621094e+00 2.794104576110839844e+00 -4.877669364213943481e-02
5.070000000000000000e+02 7.247088623046875000e+01 8.333012580871582031e+00 7.938269525766372681e-02 9.217283248901367188e+00 2.788999795913696289e+00 1.796080172061920166e-01
5.080000000000000000e+02 7.129273223876953125e+01 2.886891841888427734e+00 4.716032147407531738e-01 1.058146953582763672e+01 3.315921783447265625e+00 4.019238948822021484e-01
5.090000000000000000e+02 7.938066101074218750e+01 1.378936767578125000e+00 1.856566965579986572e-02 5.588679790496826172e+00 1.682173728942871094e+00 -1.135015040636062622e-01
5.100000000000000000e+02 7.814693450927734375e+01 2.753417253494262695e+00 8.851199597120285034e-02 6.135890483856201172e+00 1.867320656776428223e+00 -1.672900170087814331e-01
5.110000000000000000e+02 7.587182617187500000e+01 5.591397285461425781e+00 2.130053639411926270e-01 7.400920391082763672e+00 2.284177780151367188e+00 7.659348100423812866e-02
5.120000000000000000e+02 7.121606445312500000e+01 9.791534423828125000e+00 -4.101612269878387451e-01 9.516127586364746094e+00 2.731790065765380859e+00 5.111796036362648010e-02
5.130000000000000000e+02 7.023171997070312500e+01 5.869392871856689453e+00 1.573173552751541138e-01 1.183228015899658203e+01 3.596879243850708008e+00 -2.051606923341751099e-01
5.140000000000000000e+02 7.939271545410156250e+01 4.167212486267089844e+00 1.800123229622840881e-02 5.321554183959960938e+00 1.601866602897644043e+00 -3.098773956298828125e-02
5.150000000000000000e+02 7.821153259277343750e+01 5.533743858337402344e+00 6.300421804189682007e-02 6.054349422454833984e+00 1.835206151008605957e+00 3.358903154730796814e-02
5.160000000000000000e+02 7.585810852050781250e+01 1.066708087921142578e+01 -1.035172939300537109e-01 7.484517097473144531e+00 2.214299917221069336e+00 1.630392819643020630e-01
5.170000000000000000e+02 6.982675933837890625e+01 1.133551120758056641e+01 -4.170817434787750244e-01 7.945993900299072266e+00 2.258673667907714844e+00 -8.733473718166351318e-02
5.180000000000000000e+02 6.990206909179687500e+01 1.713703918457031250e+01 2.502728998661041260e-02 1.022718811035156250e+01 3.075664520263671875e+00 3.326059877872467041e-02
5.190000000000000000e+02 7.100721740722656250e+01 1.857238960266113281e+01 5.066546052694320679e-02 9.663023948669433594e+00 2.914106845855712891e+00 1.469996571540832520e-02
5.200000000000000000e+02 7.132256317138671875e+01 2.296973800659179688e+01 2.889133989810943604e-01 9.474654197692871094e+00 2.929070234298706055e+00 -2.679268419742584229e-01
5.210000000000000000e+02 6.983105468750000000e+01 2.567581367492675781e+01 4.141764640808105469e-01 1.029061985015869141e+01 3.211438894271850586e+00 -1.049644112586975098e+00
5.220000000000000000e+02 6.871977233886718750e+01 2.996852684020996094e+01 8.758674263954162598e-01 5.872056007385253906e+00 2.024377107620239258e+00 -1.820342063903808594e+00
5.230000000000000000e+02 6.696652221679687500e+01 3.236071395874023438e+01 1.467130184173583984e-01 2.012411355972290039e+00 6.477373242378234863e-01 -7.907687425613403320e-01
5.240000000000000000e+02 6.592772674560546875e+01 3.363936996459960938e+01 -2.788618803024291992e-01 1.140228509902954102e+00 2.584099769592285156e-01 -3.704329133033752441e-01
5.250000000000000000e+02 7.941500091552734375e+01 8.331794738769531250e+00 7.436548359692096710e-03 5.505977153778076172e+00 1.654024124145507812e+00 4.786587506532669067e-02
5.260000000000000000e+02 7.816999053955078125e+01 1.099557304382324219e+01 -2.850385941565036774e-02 6.313848495483398438e+00 1.885603308677673340e+00 9.723778814077377319e-02
5.270000000000000000e+02 7.416973876953125000e+01 1.186189937591552734e+01 -2.327267080545425415e-01 8.190647125244140625e+00 2.387376070022583008e+00 4.974668845534324646e-02
5.280000000000000000e+02 6.990538024902343750e+01 1.578237724304199219e+01 2.268263511359691620e-02 1.038786220550537109e+01 3.123163461685180664e+00 9.356142580509185791e-02
5.290000000000000000e+02 6.989941406250000000e+01 1.453286933898925781e+01 1.277673095464706421e-01 1.046750259399414062e+01 3.178580999374389648e+00 2.945464551448822021e-01
5.300000000000000000e+02 7.202020263671875000e+01 1.332364654541015625e+01 -1.001858785748481750e-01 8.720854759216308594e+00 2.586200714111328125e+00 -2.266449779272079468e-01
5.310000000000000000e+02 7.938664245605468750e+01 1.110397243499755859e+01 -5.080888979136943817e-03 5.724230289459228516e+00 1.715744853019714355e+00 2.713969163596630096e-02
5.320000000000000000e+02 7.805249786376953125e+01 1.241873836517333984e+01 -4.667915403842926025e-02 6.399281501770019531e+00 1.905780673027038574e+00 3.668238222599029541e-02
5.330000000000000000e+02 7.494532012939453125e+01 1.551700401306152344e+01 -2.241041325032711029e-02 7.778431892395019531e+00 2.326806306838989258e+00 -7.775985449552536011e-02
5.340000000000000000e+02 7.131681060791015625e+01 2.139009475708007812e+01 1.333230286836624146e-01 9.571113586425781250e+00 2.911330938339233398e+00 -1.196035891771316528e-01
5.350000000000000000e+02 7.942125701904296875e+01 1.528035163879394531e+01 8.806837722659111023e-03 5.796229839324951172e+00 1.741510987281799316e+00 -4.186993464827537537e-03
5.360000000000000000e+02 7.942539215087890625e+01 1.666322708129882812e+01 -1.502632629126310349e-02 5.775476455688476562e+00 1.728135108947753906e+00 -1.405253261327743530e-02
5.370000000000000000e+02 7.528003692626953125e+01 1.976038169860839844e+01 1.051580607891082764e-01 7.649256229400634766e+00 2.326324224472045898e+00 1.156747806817293167e-02
5.380000000000000000e+02 7.000741577148437500e+01 2.279122543334960938e+01 1.278637498617172241e-01 1.049000835418701172e+01 3.185361623764038086e+00 -1.779542565345764160e-01
5.390000000000000000e+02 7.829975128173828125e+01 1.521690559387207031e+01 -2.161644212901592255e-02 6.287318706512451172e+00 1.879710674285888672e+00 -3.219123557209968567e-02
5.400000000000000000e+02 7.789282989501953125e+01 2.070717811584472656e+01 2.839314751327037811e-02 6.468805789947509766e+00 1.949159741401672363e+00 5.238521471619606018e-02
5.410000000000000000e+02 7.348135375976562500e+01 2.348670005798339844e+01 3.976694941520690918e-01 8.160581588745117188e+00 2.567475318908691406e+00 -4.399551544338464737e-03
5.420000000000000000e+02 6.961351776123046875e+01 2.712115478515625000e+01 5.174742937088012695e-01 9.214716911315917969e+00 2.919657468795776367e+00 -1.498195290565490723e+00
5.430000000000000000e+02 6.994741821289062500e+01 2.423624420166015625e+01 2.390576153993606567e-01 1.063734531402587891e+01 3.262921094894409180e+00 -5.330811142921447754e-01
5.440000000000000000e+02 7.930045318603515625e+01 2.084634017944335938e+01 2.670108154416084290e-02 5.795254230499267578e+00 1.746586561203002930e+00 2.615609019994735718e-02
5.450000000000000000e+02 7.932991027832031250e+01 2.370847702026367188e+01 3.186405450105667114e-02 5.976887226104736328e+00 1.802625417709350586e+00 7.696381211280822754e-02
5.460000000000000000e+02 7.370513916015625000e+01 2.477872467041015625e+01 4.378632307052612305e-01 7.910633563995361328e+00 2.504549026489257812e+00 1.399361342191696167e-01
5.470000000000000000e+02 7.072748565673828125e+01 2.920522880554199219e+01 4.515824019908905029e-01 7.248734951019287109e+00 2.310095310211181641e+00 -3.949889838695526123e-01
5.480000000000000000e+02 7.112059020996093750e+01 2.598986625671386719e+01 5.985997915267944336e-01 8.873435020446777344e+00 2.841610670089721680e+00 -4.405618906021118164e-01
5.490000000000000000e+02 7.789034271240234375e+01 2.226316070556640625e+01 7.304687052965164185e-02 6.501705646514892578e+00 1.972425699234008789e+00 1.067357212305068970e-01
5.500000000000000000e+02 7.934552764892578125e+01 2.789554405212402344e+01 2.796842018142342567e-03 6.743473052978515625e+00 2.023880958557128906e+00 1.727889329195022583e-01
5.510000000000000000e+02 6.995880126953125000e+01 3.392407608032226562e+01 -6.151099205017089844e-01 5.245970249176025391e+00 1.389258027076721191e+00 -3.610634207725524902e-01
5.520000000000000000e+02 6.893251037597656250e+01 3.839041900634765625e+01 -1.556426882743835449e-01 3.803282976150512695e+00 1.094292044639587402e+00 -3.496191203594207764e-01
5.530000000000000000e+02 6.487301635742187500e+01 3.973776626586914062e+01 2.511877417564392090e-01 1.351898074150085449e+00 4.809257388114929199e-01 -1.464937478303909302e-01
5.540000000000000000e+02 6.189803314208984375e+01 4.111571884155273438e+01 4.148326218128204346e-01 4.587117433547973633e-01 2.620633244514465332e-01 -1.505737751722335815e-02
5.550000000000000000e+02 5.785343170166015625e+01 4.121879577636718750e+01 2.558464407920837402e-01 -1.620705723762512207e-01 2.813275530934333801e-02 9.780813753604888916e-02
5.560000000000000000e+02 5.756825637817382812e+01 3.575012969970703125e+01 -3.610028028488159180e-01 2.906992286443710327e-02 -9.957987070083618164e-02 -2.975775161758065224e-03
5.570000000000000000e+02 5.886843872070312500e+01 3.604090499877929688e+01 -5.271279215812683105e-01 -1.183891594409942627e-01 -1.936551183462142944e-01 1.124981939792633057e-01
5.580000000000000000e+02 5.821335983276367188e+01 3.880439376831054688e+01 1.071954891085624695e-01 -5.289939790964126587e-02 1.628882810473442078e-02 2.287619262933731079e-01
5.590000000000000000e+02 5.787342834472656250e+01 3.701563262939453125e+01 -2.847841382026672363e-01 -3.726608306169509888e-02 -9.661506861448287964e-02 2.253495305776596069e-01
5.600000000000000000e+02 7.803999328613281250e+01 2.655682754516601562e+01 5.398270115256309509e-02 6.757957458496093750e+00 2.043581962585449219e+00 3.759710192680358887e-01
5.610000000000000000e+02 7.936912536621093750e+01 3.211725234985351562e+01 -1.761067844927310944e-02 7.805418968200683594e+00 2.336342573165893555e+00 1.629378795623779297e-01
5.620000000000000000e+02 7.374114990234375000e+01 3.465670776367187500e+01 -3.823741972446441650e-01 6.618947029113769531e+00 1.870971918106079102e+00 3.114425539970397949e-01
5.630000000000000000e+02 7.174523162841796875e+01 3.638340759277343750e+01 -4.357832670211791992e-01 5.593403816223144531e+00 1.547286152839660645e+00 -5.783558636903762817e-02
5.640000000000000000e+02 6.803821563720703125e+01 4.107571029663085938e+01 8.497387915849685669e-02 2.992293119430541992e+00 9.231801033020019531e-01 -1.290721744298934937e-01
5.650000000000000000e+02 7.937306213378906250e+01 3.068084335327148438e+01 6.460611242800951004e-03 7.445148944854736328e+00 2.235482931137084961e+00 1.754684895277023315e-01
5.660000000000000000e+02 7.221238708496093750e+01 4.122412109375000000e+01 -1.521274298429489136e-01 5.531716346740722656e+00 1.613876581192016602e+00 1.687509752810001373e-02
5.670000000000000000e+02 7.861425781250000000e+01 3.403751754760742188e+01 -6.074140965938568115e-02 7.994097232818603516e+00 2.380006790161132812e+00 2.484608888626098633e-01
5.680000000000000000e+02 7.897115325927734375e+01 3.722703933715820312e+01 -1.655325479805469513e-02 8.458145141601562500e+00 2.532477378845214844e+00 1.729361154139041901e-02
5.690000000000000000e+02 7.451948547363281250e+01 3.840293502807617188e+01 -2.852182090282440186e-01 6.759111881256103516e+00 1.942168116569519043e+00 2.097140550613403320e-01
5.700000000000000000e+02 7.723294830322265625e+01 3.621385574340820312e+01 -1.175242289900779724e-01 7.857583999633789062e+00 2.322017908096313477e+00 2.697143256664276123e-01
5.710000000000000000e+02 7.835986328125000000e+01 4.016365051269531250e+01 -1.204353645443916321e-01 8.351225852966308594e+00 2.469237089157104492e+00 -1.114243268966674805e-01
5.720000000000000000e+02 7.552088928222656250e+01 4.055414199829101562e+01 -6.319484859704971313e-02 7.378882408142089844e+00 2.194706201553344727e+00 2.318613678216934204e-01
5.730000000000000000e+02 5.473152923583984375e+01 4.005261230468750000e+01 7.164888828992843628e-02 -1.268300116062164307e-01 -1.655433699488639832e-02 5.676117166876792908e-02
5.740000000000000000e+02 5.477738571166992188e+01 3.700524139404296875e+01 -4.113152623176574707e-02 -5.833019688725471497e-02 -2.983851730823516846e-02 5.950255319476127625e-02
5.750000000000000000e+02 5.477475357055664062e+01 3.506811141967773438e+01 -7.727403938770294189e-02 2.189482748508453369e-02 -1.661376282572746277e-02 9.081878699362277985e-03
5.760000000000000000e+02 5.598172760009765625e+01 3.838572311401367188e+01 3.097844682633876801e-02 -1.036005020141601562e-01 -2.178661525249481201e-02 1.679790318012237549e-01
5.770000000000000000e+02 5.175340652465820312e+01 4.115248489379882812e+01 3.933751583099365234e-02 -4.946290701627731323e-02 -3.037617309018969536e-03 1.390222366899251938e-02
5.780000000000000000e+02 5.068658828735351562e+01 3.867685699462890625e+01 -5.604272708296775818e-03 -3.088430315256118774e-02 -1.094657275825738907e-02 3.440782800316810608e-02
5.790000000000000000e+02 5.211790847778320312e+01 3.338092041015625000e+01 4.773652181029319763e-03 9.829245507717132568e-03 4.380869679152965546e-03 -6.426050676964223385e-04
5.800000000000000000e+02 4.664442825317382812e+01 3.036215782165527344e+01 1.636035623960196972e-03 8.376350888283923268e-05 5.159397260285913944e-04 3.375504398718476295e-03
5.810000000000000000e+02 4.370738983154296875e+01 2.867671966552734375e+01 4.607910756021738052e-03 1.707265764707699418e-04 1.433591125532984734e-03 8.615952683612704277e-04
5.820000000000000000e+02 4.038825607299804688e+01 2.713414382934570312e+01 8.210175437852740288e-04 -1.149024348706007004e-03 -9.840205893851816654e-05 1.280915923416614532e-03
5.830000000000000000e+02 3.732703018188476562e+01 2.915684127807617188e+01 4.060696519445627928e-04 -8.416439522989094257e-04 -1.306722988374531269e-04 -5.889088497497141361e-04
5.840000000000000000e+02 3.158146476745605469e+01 3.035218048095703125e+01 7.074499153532087803e-04 -8.360807551071047783e-04 -3.858925265376456082e-05 -1.118694781325757504e-03
5.850000000000000000e+02 3.018101692199707031e+01 2.832715988159179688e+01 -2.570673241280019283e-04 -7.450641714967787266e-04 -3.006394545082002878e-04 -3.444409521762281656e-04
5.860000000000000000e+02 2.441477775573730469e+01 2.947409820556640625e+01 5.111058126203715801e-04 -4.446095554158091545e-04 1.994888407352846116e-05 -5.843449034728109837e-04
5.870000000000000000e+02 2.471033287048339844e+01 2.266986083984375000e+01 3.583572106435894966e-04 -5.990713834762573242e-04 -7.221425039460882545e-05 -6.776414011255837977e-06
5.880000000000000000e+02 2.247654724121093750e+01 2.551276016235351562e+01 6.247462006285786629e-04 -3.707259602379053831e-04 7.620607357239350677e-05 -4.783628392033278942e-04
5.890000000000000000e+02 1.771760940551757812e+01 2.837134552001953125e+01 3.351701307110488415e-04 -1.037028923747129738e-04 6.944016786292195320e-05 -4.396925214678049088e-04
5.900000000000000000e+02 1.193059730529785156e+01 2.612962532043457031e+01 3.733171033672988415e-04 6.753215711796656251e-05 1.322547759627923369e-04 -3.302473342046141624e-04
5.910000000000000000e+02 8.548012733459472656e+00 2.889739990234375000e+01 -1.244853337993845344e-04 2.665051142685115337e-04 4.260593777871690691e-05 -3.943561750929802656e-04
5.920000000000000000e+02 6.989036798477172852e-01 2.613123321533203125e+01 8.059354149736464024e-05 5.697297747246921062e-04 1.950969890458509326e-04 -3.203966480214148760e-05
5.930000000000000000e+02 3.673503875732421875e+00 2.870296287536621094e+01 8.331807475769892335e-05 5.522067076526582241e-04 1.906574470922350883e-04 -1.266621402464807034e-04
5.940000000000000000e+02 6.372551918029785156e-01 2.328093528747558594e+01 1.042958174366503954e-04 4.501615185290575027e-04 1.663372095208615065e-04 -3.101803667959757149e-05
5.950000000000000000e+02 1.992713570594787598e+00 2.444223213195800781e+01 1.208142202813178301e-04 4.509660939220339060e-04 1.715340913506224751e-04 -6.096937795518897474e-05
5.960000000000000000e+02 5.978146791458129883e-01 2.046093177795410156e+01 1.364354975521564484e-04 3.418637497816234827e-04 1.434897712897509336e-04 -3.603333971113897860e-05
5.970000000000000000e+02 4.168252944946289062e+00 1.727198219299316406e+01 -1.293694658670574427e-04 2.109416527673602104e-04 2.447165752528235316e-05 -1.392435369780287147e-04
5.980000000000000000e+02 8.528695106506347656e+00 1.436030006408691406e+01 1.737654529279097915e-04 1.120169617934152484e-04 8.573472587158903480e-05 -2.232008991995826364e-04
5.990000000000000000e+02 1.093538951873779297e+01 1.134956169128417969e+01 2.472023334121331573e-05 -3.317611844977363944e-05 -2.536765123295481317e-06 -9.333661000709980726e-05
6.000000000000000000e+02 1.429118156433105469e+01 5.511733055114746094e+00 1.030545718094799668e-06 -1.498372239439049736e-05 -4.185953002888709307e-06 -5.209416121942922473e-05
6.010000000000000000e+02 1.969104576110839844e+01 3.298387765884399414e+00 2.191961975768208504e-04 -8.803921082289889455e-05 3.934709820896387100e-05 -1.200961560243740678e-04
6.020000000000000000e+02 2.334067535400390625e+01 -1.959857940673828125e-01 4.651052586268633604e-05 -2.037767080764751881e-05 7.839857062208466232e-06 8.995172538561746478e-05
6.030000000000000000e+02 2.523305511474609375e+01 -2.510288715362548828e+00 1.056376095220912248e-05 -1.882171773104346357e-06 2.604476776468800381e-06 6.357220991048961878e-05
6.040000000000000000e+02 2.921585845947265625e+01 -8.070355415344238281e+00 5.487988528329879045e-05 2.306069472979288548e-05 2.338217382202856243e-05 4.795003405888564885e-05
6.050000000000000000e+02 3.471994400024414062e+01 -1.123725605010986328e+01 -2.026697075052652508e-05 -4.184113277005963027e-05 -1.863243051047902554e-05 4.889864067081362009e-05
6.060000000000000000e+02 3.638700866699218750e+01 -1.466687393188476562e+01 2.511418824724387378e-05 2.569599746493622661e-05 1.524305571365403011e-05 -1.167418122349772602e-05
6.070000000000000000e+02 3.985215759277343750e+01 -1.868152046203613281e+01 -2.965947896882425994e-05 -1.816103008422942366e-06 -9.442675036552827805e-06 -7.581504064546606969e-07
6.080000000000000000e+02 4.043802261352539062e+01 -1.818884658813476562e+01 1.759306542226113379e-05 1.431747750757494941e-05 9.573162969900295138e-06 2.182525804528268054e-06
6.090000000000000000e+02 4.087211227416992188e+01 -2.049707794189453125e+01 -1.713468191155698150e-05 5.726326435251394287e-06 -3.422506779315881431e-06 -4.115666797588346526e-06
6.100000000000000000e+02 4.127431488037109375e+01 -2.032610893249511719e+01 -1.655841333558782935e-05 -2.903990935010369867e-05 -1.367949698760639876e-05 -2.242059781565330923e-05
6.110000000000000000e+02 4.392722320556640625e+01 -1.935210227966308594e+01 -1.609537139302119613e-05 -1.186861572932684794e-05 -8.389196409552823752e-06 -4.389878540678182617e-06
6.120000000000000000e+02 4.620680236816406250e+01 -1.871380615234375000e+01 8.215428351832088083e-06 8.696238182892557234e-06 5.073499778518453240e-06 2.904941993620013818e-06
6.130000000000000000e+02 4.610168838500976562e+01 -1.097244358062744141e+01 -1.055167558661196381e-05 -2.256927837152034044e-05 -9.936286005540750921e-06 -2.825950468832161278e-05
6.140000000000000000e+02 4.607487487792968750e+01 -9.513107299804687500e+00 9.126094664679840207e-05 -3.292419933131895959e-05 1.750102455844171345e-05 -1.804152816475834697e-05
6.150000000000000000e+02 4.706987380981445312e+01 -5.669407844543457031e+00 1.305898040300235152e-04 3.011367516592144966e-05 4.821104448637925088e-05 5.704335853806696832e-05
6.160000000000000000e+02 4.726307678222656250e+01 2.536393404006958008e-01 1.863916695583611727e-04 6.396483513526618481e-05 7.510695286327973008e-05 1.283586170757189393e-04
6.170000000000000000e+02 4.816862106323242188e+01 -5.280277729034423828e+00 -1.351879473077133298e-04 -5.190119918552227318e-05 -5.612674431176856160e-05 -6.678754289168864489e-05
6.180000000000000000e+02 4.784626770019531250e+01 -9.861068725585937500e-01 -1.874344306997954845e-04 -8.978924597613513470e-05 -8.316710591316223145e-05 -9.763056004885584116e-05
6.190000000000000000e+02 4.461647415161132812e+01 5.083614349365234375e+00 2.261541085317730904e-04 1.678462431300431490e-04 1.182001069537363946e-04 2.234674029750749469e-04
6.200000000000000000e+02 4.438793563842773438e+01 3.149843692779541016e+00 1.198469399241730571e-04 1.248509361175820231e-04 7.340936281252652407e-05 1.045742392307147384e-04
6.210000000000000000e+02 4.421786117553710938e+01 -1.585592985153198242e+00 -9.882250014925375581e-05 -7.998866203706711531e-05 -5.364335083868354559e-05 -3.726994327735155821e-05
6.220000000000000000e+02 4.470866012573242188e+01 -2.682975292205810547e+00 1.116856510634534061e-04 5.918980605201795697e-05 5.126263567944988608e-05 3.677637869259342551e-05
6.230000000000000000e+02 4.395813369750976562e+01 -6.680048942565917969e+00 -5.192825119593180716e-05 -4.577623258228413761e-05 -2.931134440586902201e-05 -2.221653267042711377e-05
6.240000000000000000e+02 4.540271377563476562e+01 -1.036719226837158203e+01 -2.442685217829421163e-05 1.681191633906564675e-06 -6.823698186053661630e-06 2.960425445053260773e-05
6.250000000000000000e+02 4.472371673583984375e+01 -1.427972888946533203e+01 -5.032913395552895963e-05 -5.529318968910956755e-06 -1.675753628660459071e-05 -2.730353480728808790e-05
6.260000000000000000e+02 4.512747192382812500e+01 -1.737585449218750000e+01 -1.622250056243501604e-05 -2.307261274836491793e-05 -1.178853381134103984e-05 -8.076648327914881520e-07
6.270000000000000000e+02 4.280430603027343750e+01 -1.806934547424316406e+01 2.454165405652020127e-05 1.550547312945127487e-05 1.201413851958932355e-05 -8.819692425277025905e-07
6.280000000000000000e+02 4.737978363037109375e+01 4.118365097045898438e+01 1.079363049939274788e-03 -1.936099119484424591e-02 -5.484488327056169510e-03 3.374127438291907310e-03
6.290000000000000000e+02 4.747261810302734375e+01 3.856367492675781250e+01 1.463511376641690731e-03 -9.802686981856822968e-03 -2.501752693206071854e-03 7.877307012677192688e-03
6.300000000000000000e+02 4.864465713500976562e+01 3.447978210449218750e+01 -1.015981473028659821e-02 -2.666642540134489536e-04 -3.127943724393844604e-03 6.334829144179821014e-03
6.310000000000000000e+02 4.810943603515625000e+01 2.923401260375976562e+01 6.993016693741083145e-03 5.934162065386772156e-03 3.878153627738356590e-03 2.910941839218139648e-03
6.320000000000000000e+02 4.376322174072265625e+01 3.761304092407226562e+01 -3.909201826900243759e-03 -5.951129831373691559e-03 -2.958099590614438057e-03 1.843210542574524879e-03
6.330000000000000000e+02 4.515881347656250000e+01 3.491584396362304688e+01 -8.363600936718285084e-04 -4.295628605177626014e-05 -2.637949073687195778e-04 1.469601760618388653e-03
6.340000000000000000e+02 4.423969268798828125e+01 3.004627418518066406e+01 8.745455415919423103e-04 6.225229590199887753e-04 4.491205618251115084e-04 1.687004812993109226e-03
6.350000000000000000e+02 4.145517349243164062e+01 3.157949638366699219e+01 2.156188013032078743e-03 -1.243965583853423595e-03 2.736667229328304529e-04 -1.760517363436520100e-03
6.360000000000000000e+02 4.267037963867187500e+01 4.080278015136718750e+01 -2.698214258998632431e-03 -3.592740744352340698e-03 -1.887286431156098843e-03 -1.048077596351504326e-03
6.370000000000000000e+02 3.951568603515625000e+01 3.314921188354492188e+01 -1.376425265334546566e-03 -8.309789118357002735e-04 -6.622212822549045086e-04 -7.768520154058933258e-04
6.380000000000000000e+02 4.002255249023437500e+01 2.990296554565429688e+01 3.512252587825059891e-04 -1.533720293082296848e-03 -3.547485102899372578e-04 4.217310342937707901e-04
6.390000000000000000e+02 3.771651840209960938e+01 4.059873199462890625e+01 -2.678268589079380035e-03 -2.424347912892699242e-03 -1.530784997157752514e-03 8.371912408620119095e-04
6.400000000000000000e+02 3.723173904418945312e+01 3.413858032226562500e+01 -4.909596173092722893e-04 -2.045871224254369736e-03 -7.610492757521569729e-04 -8.257084991782903671e-04
6.410000000000000000e+02 3.525256347656250000e+01 3.026661109924316406e+01 1.199578749947249889e-03 -1.100802561268210411e-03 2.963287988677620888e-05 -1.001787022687494755e-03
6.420000000000000000e+02 3.645480346679687500e+01 3.215750122070312500e+01 -6.984950159676373005e-04 -1.074669184163212776e-03 -5.319492775015532970e-04 -1.083713606931269169e-03
6.430000000000000000e+02 3.366139602661132812e+01 3.676161575317382812e+01 -1.381483743898570538e-03 -1.478187623433768749e-03 -8.579014101997017860e-04 -1.915245375130325556e-04
6.440000000000000000e+02 3.495228195190429688e+01 3.387064361572265625e+01 -4.411685513332486153e-04 -2.797732886392623186e-04 -2.162825549021363258e-04 -1.212781295180320740e-03
6.450000000000000000e+02 3.310057067871093750e+01 3.232891464233398438e+01 -6.517451256513595581e-04 -1.230227877385914326e-03 -5.645919009111821651e-04 -5.020057433284819126e-04
6.460000000000000000e+02 3.270972061157226562e+01 4.049327468872070312e+01 -1.899177324958145618e-03 -6.853544618934392929e-05 -5.903138662688434124e-04 -1.225291984155774117e-03
6.470000000000000000e+02 3.078562164306640625e+01 3.492879867553710938e+01 -3.583602083381265402e-04 -7.215903606265783310e-04 -3.239851794205605984e-04 -1.256324583664536476e-03
6.480000000000000000e+02 2.917875099182128906e+01 3.232644271850585938e+01 -8.535943343304097652e-04 -3.817642864305526018e-04 -3.706075949594378471e-04 -5.703420029021799564e-04
6.490000000000000000e+02 2.788460350036621094e+01 3.003565216064453125e+01 5.608508945442736149e-04 -6.394906667992472649e-04 -2.359193422307725996e-05 -8.105917950160801411e-04
6.500000000000000000e+02 2.771685600280761719e+01 4.053532791137695312e+01 -1.080994727090001106e-03 -4.330762894824147224e-04 -4.542212991509586573e-04 3.519101010169833899e-04
6.510000000000000000e+02 2.741366195678710938e+01 3.689445495605468750e+01 -1.340254559181630611e-03 2.536398533266037703e-04 -3.259844088461250067e-04 -6.396733224391937256e-04
6.520000000000000000e+02 2.645537567138671875e+01 3.389200210571289062e+01 -6.739555828971788287e-05 -5.886544822715222836e-04 -1.968150172615423799e-04 -6.214120076037943363e-04
6.530000000000000000e+02 2.548470878601074219e+01 3.149168777465820312e+01 -7.037343457341194153e-04 -1.874910667538642883e-04 -2.673676062840968370e-04 -6.319540552794933319e-04
6.540000000000000000e+02 2.335057449340820312e+01 3.749244689941406250e+01 -5.654893466271460056e-04 -2.872818731702864170e-04 -2.558313717599958181e-04 -5.819575017085298896e-05
6.550000000000000000e+02 2.362727355957031250e+01 3.471707153320312500e+01 -7.532235467806458473e-04 1.205442822538316250e-04 -1.898037735372781754e-04 -6.741685792803764343e-04
6.560000000000000000e+02 2.206378746032714844e+01 3.093815994262695312e+01 -6.273519247770309448e-04 -1.358302833978086710e-04 -2.289546682732179761e-04 -5.356741021387279034e-04
6.570000000000000000e+02 2.281362915039062500e+01 4.078993988037109375e+01 -7.660960545763373375e-04 1.147844377555884421e-04 -1.953934843186289072e-04 -4.875162267126142979e-04
6.580000000000000000e+02 1.953668403625488281e+01 3.703750228881835938e+01 -2.988827181980013847e-04 1.187873276649042964e-04 -5.402862007031217217e-05 -5.321502685546875000e-04
6.590000000000000000e+02 1.970854377746582031e+01 3.273799133300781250e+01 8.574392995797097683e-05 -5.385094482335262001e-05 9.567895176587626338e-06 -5.086458404548466206e-04
6.600000000000000000e+02 1.859418106079101562e+01 3.067564010620117188e+01 -5.021254764869809151e-04 6.387585358424985316e-07 -1.504460233263671398e-04 -4.165875725448131561e-04
6.610000000000000000e+02 1.799893569946289062e+01 4.059352874755859375e+01 -5.227636429481208324e-04 1.467368711018934846e-04 -1.128080257331021130e-04 1.977604406420141459e-04
6.620000000000000000e+02 1.702844238281250000e+01 3.510873031616210938e+01 -6.422398146241903305e-04 1.807599619496613741e-04 -1.384439674438908696e-04 -2.526054158806800842e-04
6.630000000000000000e+02 1.595728588104248047e+01 3.234084320068359375e+01 1.376758882543072104e-04 6.092811236158013344e-05 5.958119800197891891e-05 -3.625136741902679205e-04
6.640000000000000000e+02 1.307465839385986328e+01 4.055008697509765625e+01 -2.692455891519784927e-04 3.434799436945468187e-04 2.227030927315354347e-05 -2.920963161159306765e-04
6.650000000000000000e+02 1.339410686492919922e+01 3.684896850585937500e+01 -2.396391755610238761e-05 2.142031444236636162e-04 5.707177115255035460e-05 -5.396009873948059976e-05
6.660000000000000000e+02 1.300765800476074219e+01 3.356445693969726562e+01 -4.098015779163688421e-04 3.031847882084548473e-04 -3.198503691237419844e-05 -3.600054478738456964e-04
6.670000000000000000e+02 1.275299739837646484e+01 3.067999649047851562e+01 1.917684858199208975e-04 1.465218228986486793e-04 1.014870940707623959e-04 -2.569180796854197979e-04
6.680000000000000000e+02 8.352160453796386719e+00 4.074868392944335938e+01 -1.256280374946072698e-04 5.232223775237798691e-04 1.192783020087517798e-04 9.461594891035929322e-05
6.690000000000000000e+02 9.489247322082519531e+00 3.729913330078125000e+01 -2.330407151021063328e-04 4.339624720159918070e-04 6.027652489137835801e-05 -2.829192671924829483e-04
6.700000000000000000e+02 8.353084564208984375e+00 3.108056068420410156e+01 -3.342557101859711111e-05 4.384323838166892529e-04 1.215020456584170461e-04 -9.540838073007762432e-05
6.710000000000000000e+02 5.165210723876953125e+00 4.008808135986328125e+01 5.509650145540945232e-05 6.199102499522268772e-04 2.025020221481099725e-04 -1.164803979918360710e-04
6.720000000000000000e+02 6.635843753814697266e+00 3.742475128173828125e+01 -1.644906433284631930e-07 5.805831169709563255e-04 1.741255837259814143e-04 -1.544600672787055373e-05
6.730000000000000000e+02 6.297651290893554688e+00 3.550275039672851562e+01 -3.634663589764386415e-04 6.333724013529717922e-04 8.097180398181080818e-05 -1.085597687051631510e-04
6.740000000000000000e+02 6.840752124786376953e+00 2.880332565307617188e+01 2.000327913265209645e-05 4.618677776306867599e-04 1.445613161195069551e-04 -1.113920807256363332e-04
6.750000000000000000e+02 4.569299221038818359e+00 3.189570617675781250e+01 -4.114077910344349220e-06 6.068459479138255119e-04 1.808195520425215364e-04 -1.684570015640929341e-04
6.760000000000000000e+02 2.056272983551025391e+00 4.161189651489257812e+01 -8.013390470296144485e-05 9.286839049309492111e-04 2.545650058891624212e-04 -2.682936428755056113e-05
6.770000000000000000e+02 2.699630498886108398e+00 3.787397384643554688e+01 1.036492394632659853e-04 8.215064881369471550e-04 2.775467291940003633e-04 -8.525018347427248955e-05
6.780000000000000000e+02 2.132023334503173828e+00 3.428799819946289062e+01 -1.739300496410578489e-04 7.809304515831172466e-04 1.821001205826178193e-04 -6.751135515514761209e-05
6.790000000000000000e+02 2.051268815994262695e+00 3.162268638610839844e+01 -1.422204368282109499e-04 7.091260631568729877e-04 1.700716966297477484e-04 -6.576527084689587355e-05
6.800000000000000000e+02 6.966884732246398926e-01 3.038927650451660156e+01 -1.263182348338887095e-04 7.314675021916627884e-04 1.815447758417576551e-04 -7.384137916233157739e-06
6.810000000000000000e+02 1.814240813255310059e+00 2.159011077880859375e+01 1.485185930505394936e-04 3.449443611316382885e-04 1.480388891650363803e-04 -5.703532224288210273e-05
6.820000000000000000e+02 6.011857390403747559e-01 1.626456642150878906e+01 -1.411634002579376101e-04 2.016982325585559011e-04 1.816044641600456089e-05 -1.888961264739918988e-06
6.830000000000000000e+02 4.158068656921386719e+00 1.598019123077392578e+01 1.535337942186743021e-04 1.576346403453499079e-04 9.335052891401574016e-05 -8.039247768465429544e-05
6.840000000000000000e+02 6.949905872344970703e+00 1.119744682312011719e+01 6.796754314564168453e-05 8.923594577936455607e-05 4.716104740509763360e-05 -1.783423649612814188e-04
6.850000000000000000e+02 1.126929950714111328e+01 7.072944164276123047e+00 1.364259242109255865e-05 -8.251268809544853866e-06 1.617397174413781613e-06 -7.005695806583389640e-05
6.860000000000000000e+02 1.607839012145996094e+01 1.649828076362609863e+00 1.358740701107308269e-04 2.632421637827064842e-05 4.865948358201421797e-05 -5.293179492582567036e-05
6.870000000000000000e+02 1.878799819946289062e+01 -4.078592061996459961e-01 1.430725751561112702e-05 -3.867718987748958170e-05 -7.310979526664596051e-06 -3.093754639849066734e-05
6.880000000000000000e+02 2.210721778869628906e+01 -5.129915714263916016e+00 3.503568586893379688e-05 -2.041740845015738159e-05 4.385483407531864941e-06 -4.206028825137764215e-05
6.890000000000000000e+02 2.516007614135742188e+01 -7.923396110534667969e+00 -1.707688625174341723e-06 6.970765298319747671e-06 1.578922933731519151e-06 -3.114496212219819427e-05
6.900000000000000000e+02 2.826516151428222656e+01 -1.014221382141113281e+01 5.640328708977904171e-06 3.941121576644945890e-06 2.874435040212119929e-06 1.524593517387984321e-05
6.910000000000000000e+02 3.412244033813476562e+01 -1.437775993347167969e+01 -3.131342236883938313e-05 -2.368177047173958272e-05 -1.649855767027474940e-05 4.068095222464762628e-05
6.920000000000000000e+02 3.671702957153320312e+01 -1.807352828979492188e+01 -3.084110721829347312e-05 -3.232616290915757418e-05 -1.895018067443743348e-05 1.180603157990844920e-05
6.930000000000000000e+02 1.792576074600219727e+00 1.749866294860839844e+01 -1.398082094965502620e-04 2.362679661018773913e-04 2.893792770919390023e-05 -5.106909156893379986e-05
6.940000000000000000e+02 6.012465357780456543e-01 1.345922756195068359e+01 -1.294969406444579363e-04 1.295395923079922795e-04 1.279544115107000835e-08 -2.164536454074550420e-06
6.950000000000000000e+02 4.147130489349365234e+00 1.065648269653320312e+01 1.396131701767444611e-04 6.432998634409159422e-05 6.118294550105929375e-05 -7.176761573646217585e-05
6.960000000000000000e+02 1.220351219177246094e+01 2.812309503555297852e+00 1.328116195509210229e-04 2.465613215463235974e-05 4.724032260128296912e-05 -6.209439743543043733e-05
6.970000000000000000e+02 1.626543045043945312e+01 -1.570221334695816040e-01 5.193865581532008946e-05 -8.387718480662442744e-06 1.306528156419517472e-05 -2.718306313909124583e-05
6.980000000000000000e+02 1.804133987426757812e+01 -2.178620815277099609e+00 2.323281296412460506e-05 1.036741559801157564e-05 1.008006802294403315e-05 -2.091428086714586243e-06
6.990000000000000000e+02 1.989060401916503906e+01 -3.842402696609497070e+00 4.965635889675468206e-05 -2.323315129615366459e-05 7.926963007776066661e-06 -3.670464502647519112e-05
7.000000000000000000e+02 2.206145095825195312e+01 -6.234334468841552734e+00 8.241818250098731369e-06 -1.855626760516315699e-05 -3.094334715569857508e-06 -3.268080035923048854e-05
7.010000000000000000e+02 2.392775535583496094e+01 -8.829462051391601562e+00 -1.502724262536503375e-05 -5.569318091147579253e-06 -6.178968305903254077e-06 -1.595519825059454888e-05
7.020000000000000000e+02 2.650950241088867188e+01 -1.172536373138427734e+01 -5.067476195108611137e-06 1.715459802653640509e-06 -1.005604872261756100e-06 -1.144222824223106727e-05
7.030000000000000000e+02 2.862106513977050781e+01 -1.418863391876220703e+01 -6.411652975657489151e-06 1.057124154613120481e-05 1.247876639354217332e-06 1.856323069659993052e-05
7.040000000000000000e+02 3.157878684997558594e+01 -1.767341804504394531e+01 -7.940579052956309170e-06 -6.414298240997595713e-06 -4.306463324610376731e-06 8.227060789067763835e-06
7.050000000000000000e+02 3.428658676147460938e+01 -1.700400352478027344e+01 -1.154720303020440042e-05 3.044169534405227751e-05 5.668347967002773657e-06 1.454923449273337610e-06
7.060000000000000000e+02 1.814857959747314453e+00 1.473351764678955078e+01 -1.254417293239384890e-04 1.621390256332233548e-04 1.100919234886532649e-05 -4.101528611499816179e-05
7.070000000000000000e+02 6.218733787536621094e-01 9.228926658630371094e+00 9.404555021319538355e-05 5.193807737668976188e-05 4.379508754936978221e-05 -2.035393117694184184e-05
7.080000000000000000e+02 3.705698728561401367e+00 5.959991931915283203e+00 -3.161289714626036584e-05 7.369748686869570520e-07 -9.262776075047440827e-06 1.313022221438586712e-05
7.090000000000000000e+02 1.189206600189208984e+01 2.084333896636962891e+00 2.916499397542793304e-05 2.290909651492256671e-05 1.562222678330726922e-05 -3.028318678843788803e-05
7.100000000000000000e+02 1.389741134643554688e+01 3.383789956569671631e-01 6.040334847057238221e-05 1.744322980812285095e-05 2.335397402930539101e-05 -2.593787758087273687e-05
7.110000000000000000e+02 1.796679615974426270e+00 1.197777938842773438e+01 -1.174936187453567982e-04 1.062906667357310653e-04 -3.360883965797256678e-06 -3.114756691502407193e-05
7.120000000000000000e+02 5.577889084815979004e-01 6.377012729644775391e+00 7.274118979694321752e-05 1.666720345383509994e-05 2.682251761143561453e-05 -1.255478309758473188e-05
7.130000000000000000e+02 5.687593460083007812e+00 2.648889541625976562e+00 -1.844317739596590400e-05 -8.182320925698149949e-06 -7.987649951246567070e-06 -1.031745887303259224e-05
7.140000000000000000e+02 7.022048950195312500e+00 1.853343248367309570e+00 6.426002073567360640e-05 2.800371657940559089e-05 2.767912155832163990e-05 -3.370929698576219380e-05
7.150000000000000000e+02 1.160391807556152344e+01 1.369922518730163574e+00 1.166791116702370346e-04 1.888552651507779956e-05 4.066939072799868882e-05 -4.601777254720218480e-05
7.160000000000000000e+02 1.834471583366394043e+00 7.680155277252197266e+00 1.123090260080061853e-04 3.359985566930845380e-05 4.377266668598167598e-05 -4.081049701198935509e-05
7.170000000000000000e+02 4.103066921234130859e-01 3.568911790847778320e+00 6.012786616338416934e-05 6.520408390997545212e-08 1.805792089726310223e-05 -9.554149983159732074e-06
7.180000000000000000e+02 3.366438388824462891e+00 1.957467198371887207e+00 -8.507221537001896650e-06 -1.917916597449220717e-05 -8.305915798700880259e-06 1.559360271130572073e-06
7.190000000000000000e+02 1.219902515411376953e+00 3.431583404541015625e+00 -3.785054286709055305e-05 -9.135135769611224532e-06 -1.409570359101053327e-05 1.904813143482897431e-05
7.200000000000000000e+02 2.547050094604492188e+01 -1.152601337432861328e+01 -1.403434271196601912e-05 3.151142209389945492e-07 -4.115768660994945094e-06 -3.685665205921395682e-06
7.210000000000000000e+02 2.648106575012207031e+01 -1.354561424255371094e+01 -9.505479283689055592e-06 -1.984079290195950307e-06 -3.446867594902869314e-06 1.987847645068541169e-05
7.220000000000000000e+02 2.858732795715332031e+01 -1.616253280639648438e+01 2.762535814326838590e-06 1.274871806344890501e-06 1.211222297570202500e-06 -5.698683253285707906e-06
7.230000000000000000e+02 3.282465744018554688e+01 -1.787685585021972656e+01 -1.401094959874171764e-05 1.756142410158645362e-05 1.065142555489728693e-06 -2.122916811231334577e-07
7.240000000000000000e+02 2.725931358337402344e+01 -1.307730197906494141e+01 -6.739602667948929593e-06 -1.983837591978954151e-06 -2.617032123453100212e-06 -5.785131634183926508e-06
7.250000000000000000e+02 2.738569068908691406e+01 -1.565180778503417969e+01 -1.200909991894150153e-06 -6.680538717773742974e-06 -2.364434521950897761e-06 -8.927062481234315783e-06
7.260000000000000000e+02 2.752299880981445312e+01 -1.645662117004394531e+01 -8.965593224274925888e-06 -8.319190783367957920e-06 -5.185435384191805497e-06 1.428943596692988649e-05
7.270000000000000000e+02 4.451125335693359375e+01 -1.836640548706054688e+01 -1.640148548176512122e-05 -1.614408029126934707e-05 -9.763669368112459779e-06 -2.165167643397580832e-06
7.280000000000000000e+02 4.697512817382812500e+01 -1.855116844177246094e+01 -1.266062281501945108e-05 -6.883117748657241464e-06 -5.863122169103007764e-06 -5.352178050088696182e-06
7.290000000000000000e+02 4.773807144165039062e+01 -1.841042137145996094e+01 1.309491381107363850e-05 3.936725988751277328e-06 5.109491667099064216e-06 1.296246182391769253e-06
7.300000000000000000e+02 5.140391921997070312e+01 -1.770655632019042969e+01 -1.521812646387843415e-05 -7.901335266069509089e-06 -6.935838428034912795e-06 1.235894706042017788e-05
7.310000000000000000e+02 5.282330703735351562e+01 -1.737940216064453125e+01 -5.084023086965316907e-06 -2.874844358302652836e-05 -1.014973986457334831e-05 5.584651262324769050e-06
7.320000000000000000e+02 5.356508636474609375e+01 -1.709102058410644531e+01 2.426672290312126279e-05 1.969781806110404432e-05 1.318936210736865178e-05 4.462050924303184729e-07
7.330000000000000000e+02 5.253857040405273438e+01 -1.661072540283203125e+01 2.542921538406517357e-05 2.527664582885336131e-05 1.521175818197662011e-05 -1.794425406842492521e-05
7.340000000000000000e+02 5.434755325317382812e+01 -1.696793556213378906e+01 7.046418431855272502e-06 -1.701472137938253582e-05 -2.990490884258178994e-06 -1.041988824113104783e-07
7.350000000000000000e+02 5.474830627441406250e+01 -1.601813507080078125e+01 -5.815734402858652174e-05 -3.154198202537372708e-05 -2.690979817998595536e-05 -3.809111512964591384e-05
7.360000000000000000e+02 5.775822830200195312e+01 -1.632304382324218750e+01 -2.322805994481313974e-05 2.101929021591786295e-05 -6.626307822443777695e-07 5.824870640935841948e-06
7.370000000000000000e+02 5.849058914184570312e+01 -1.577688789367675781e+01 4.639873077394440770e-05 2.634533120726700872e-05 2.182321804866660386e-05 4.708833512268029153e-05
7.380000000000000000e+02 5.910187530517578125e+01 -1.544298076629638672e+01 -3.260270432292600162e-06 2.842365756805520505e-05 7.549016117991413921e-06 5.862301350134657696e-06
7.390000000000000000e+02 5.288384628295898438e+01 -1.434903812408447266e+01 -1.204818909172900021e-05 -3.192400617990642786e-05 -1.319165858149062842e-05 -2.513861545594409108e-05
7.400000000000000000e+02 5.136712265014648438e+01 -1.139827442169189453e+01 -1.116147832362912595e-04 -1.369099845760501921e-05 -3.759173341677524149e-05 -2.864444468286819756e-05
7.410000000000000000e+02 5.053485870361328125e+01 -8.789781570434570312e+00 -1.220366175402887166e-04 -2.474412394803948700e-05 -4.403422281029634178e-05 -4.153889676672406495e-05
7.420000000000000000e+02 4.928552627563476562e+01 -4.839980125427246094e+00 1.546428247820585966e-04 2.185547964472789317e-05 5.294949005474336445e-05 7.320461008930578828e-05
7.430000000000000000e+02 4.386843872070312500e+01 6.273849010467529297e+00 -2.874394122045487165e-04 -2.777303161565214396e-04 -1.695509126875549555e-04 -2.357746998313814402e-04
7.440000000000000000e+02 4.087277984619140625e+01 1.029886722564697266e+01 -7.889455300755798817e-04 1.792398397810757160e-04 -1.829117099987342954e-04 -4.045148671139031649e-05
7.450000000000000000e+02 3.618570709228515625e+01 1.079908657073974609e+01 3.521866747178137302e-04 3.839237615466117859e-04 2.208331279689446092e-04 5.319061529007740319e-05
7.460000000000000000e+02 3.300125503540039062e+01 1.643126296997070312e+01 2.510068297851830721e-04 -5.629452643916010857e-04 -9.358152601635083556e-05 6.295960629358887672e-04
7.470000000000000000e+02 2.957385063171386719e+01 2.122554206848144531e+01 1.825054496293887496e-04 -6.566906813532114029e-04 -1.422555651515722275e-04 9.189325646730139852e-05
7.480000000000000000e+02 2.582970619201660156e+01 2.091996192932128906e+01 6.118046585470438004e-04 -2.288136602146551013e-04 1.148972951341420412e-04 -5.274287541396915913e-04
7.490000000000000000e+02 2.154067611694335938e+01 2.352911758422851562e+01 -1.995173370232805610e-04 -2.497118548490107059e-04 -1.347687502857297659e-04 -2.516687964089214802e-04
7.500000000000000000e+02 2.057094192504882812e+01 2.181237411499023438e+01 5.645958008244633675e-04 -2.275823353556916118e-04 1.011040367302484810e-04 -4.707061743829399347e-04
7.510000000000000000e+02 1.933670997619628906e+01 2.488757896423339844e+01 5.185842746868729591e-04 -2.263606584165245295e-04 8.766708197072148323e-05 -4.129115550313144922e-04
7.520000000000000000e+02 2.012617874145507812e+01 2.696777725219726562e+01 -3.261337114963680506e-04 -1.351629180135205388e-04 -1.383889903081580997e-04 -4.462565120775252581e-04
7.530000000000000000e+02 4.283749771118164062e+01 5.358179092407226562e+00 2.014857818721793592e-05 8.110890485113486648e-05 3.037724491150584072e-05 4.512132727541029453e-05
7.540000000000000000e+02 4.212459945678710938e+01 1.191769123077392578e+01 -8.316059247590601444e-04 2.786808472592383623e-04 -1.658775145187973976e-04 -2.887880691559985280e-05
7.550000000000000000e+02 4.220133590698242188e+01 1.480698776245117188e+01 -9.434508974663913250e-04 4.452091234270483255e-04 -1.494725293014198542e-04 2.187714708270505071e-04
7.560000000000000000e+02 4.300680541992187500e+01 1.906161308288574219e+01 1.680270419456064701e-03 1.170934876427054405e-03 8.553615771234035492e-04 1.280068099731579423e-04
7.570000000000000000e+02 4.440238571166992188e+01 2.311924362182617188e+01 -5.201791645959019661e-04 2.007936593145132065e-03 4.463272634893655777e-04 2.107263309881091118e-03
7.580000000000000000e+02 4.195870971679687500e+01 2.607929229736328125e+01 3.556156996637582779e-03 2.465206780470907688e-04 1.140803331509232521e-03 2.650527749210596085e-04
7.590000000000000000e+02 3.931330490112304688e+01 2.565172576904296875e+01 3.091544844210147858e-03 -4.631932824850082397e-04 7.885054801590740681e-04 -3.215639735572040081e-04
7.600000000000000000e+02 3.894312667846679688e+01 2.832573699951171875e+01 2.313575707376003265e-03 -6.849406636320054531e-04 4.885905073024332523e-04 -1.155383419245481491e-03
7.610000000000000000e+02 4.503823852539062500e+01 2.440353965759277344e+01 2.997770672664046288e-03 3.078436711803078651e-03 1.822862192057073116e-03 1.090984093025326729e-03
7.620000000000000000e+02 4.573496246337890625e+01 2.565883064270019531e+01 1.032966247294098139e-04 2.755898749455809593e-03 8.577586268074810505e-04 3.261776408180594444e-03
7.630000000000000000e+02 4.646861648559570312e+01 2.689944458007812500e+01 4.710956942290067673e-03 4.434108734130859375e-03 2.743519609794020653e-03 1.915576518513262272e-03
7.640000000000000000e+02 5.088463973999023438e+01 3.459869384765625000e+01 -2.109349332749843597e-02 4.901528824120759964e-03 -4.857589025050401688e-03 5.463663488626480103e-03
7.650000000000000000e+02 6.206841659545898438e+01 3.564960861206054688e+01 -6.744918227195739746e-01 -4.000137373805046082e-02 -2.143479585647583008e-01 2.450838536024093628e-01
7.660000000000000000e+02 6.467107391357421875e+01 3.448233032226562500e+01 -5.103252530097961426e-01 6.340252161026000977e-01 3.710997849702835083e-02 6.954014301300048828e-02
7.670000000000000000e+02 6.311228561401367188e+01 3.762793731689453125e+01 1.141554489731788635e-01 3.260001242160797119e-01 1.320466697216033936e-01 -8.786275237798690796e-02
7.680000000000000000e+02 6.790425109863281250e+01 3.119128799438476562e+01 5.468128919601440430e-01 3.585768699645996094e+00 1.239774465560913086e+00 -1.414204239845275879e+00
7.690000000000000000e+02 6.926647186279296875e+01 2.857305526733398438e+01 7.831707596778869629e-01 7.795914173126220703e+00 2.573725461959838867e+00 -1.777068018913269043e+00
7.700000000000000000e+02 7.247589874267578125e+01 1.075859737396240234e+01 -3.844016492366790771e-01 8.926543235778808594e+00 2.562642574310302734e+00 2.157192490994930267e-02
7.710000000000000000e+02 5.589872741699218750e+01 -2.065413475036621094e+01 -1.424768924713134766e+00 4.002287983894348145e-01 -3.073620498180389404e-01 1.720871776342391968e-01
7.720000000000000000e+02 5.212707901000976562e+01 -2.144123458862304688e+01 -1.394193649291992188e+00 -2.443996071815490723e-02 -4.255900979042053223e-01 -5.661013126373291016e-01
7.730000000000000000e+02 4.846446609497070312e+01 -2.209527015686035156e+01 -8.800728321075439453e-01 -2.191293537616729736e-01 -3.297606706619262695e-01 -6.588599085807800293e-01
7.740000000000000000e+02 4.613716506958007812e+01 -2.410303306579589844e+01 -2.094751596450805664e-01 -3.728835284709930420e-01 -1.747076064348220825e-01 -6.885350346565246582e-01
7.750000000000000000e+02 4.712982940673828125e+01 -2.728218841552734375e+01 1.543841063976287842e-01 -2.737221717834472656e-01 -3.580142185091972351e-02 -5.286251902580261230e-01
7.760000000000000000e+02 4.690454864501953125e+01 -2.939719581604003906e+01 2.216127663850784302e-01 -2.235869616270065308e-01 -5.922550335526466370e-04 -2.208805382251739502e-01
7.770000000000000000e+02 5.168864822387695312e+01 -3.271573638916015625e+01 5.744733214378356934e-01 1.077515721321105957e+00 4.955967068672180176e-01 4.715856909751892090e-01
7.780000000000000000e+02 4.973681640625000000e+01 -3.090217781066894531e+01 6.147848367691040039e-01 4.516511559486389160e-01 3.199307918548583984e-01 2.062154859304428101e-01
7.790000000000000000e+02 4.877691650390625000e+01 -2.729763221740722656e+01 3.742875158786773682e-01 -7.988235354423522949e-02 8.832154422998428345e-02 -4.183377325534820557e-01
7.800000000000000000e+02 4.932290649414062500e+01 -2.266999816894531250e+01 -7.012167572975158691e-01 -2.036973088979721069e-01 -2.714742124080657959e-01 -7.040683031082153320e-01
7.810000000000000000e+02 4.918225860595703125e+01 -2.196146392822265625e+01 -1.001939654350280762e+00 -1.683514565229415894e-01 -3.510873615741729736e-01 -6.713373064994812012e-01
7.820000000000000000e+02 1.775585174560546875e+01 -3.679339981079101562e+01 -2.704079961404204369e-04 2.633257769048213959e-03 7.088549318723380566e-04 5.350144580006599426e-03
7.830000000000000000e+02 2.169774436950683594e+01 -3.687765121459960938e+01 -4.190363921225070953e-03 2.771111030597239733e-04 -1.173975877463817596e-03 6.396336946636438370e-03
7.840000000000000000e+02 3.234139633178710938e+01 -3.878576660156250000e+01 1.077648438513278961e-02 -1.071127131581306458e-01 -2.890086919069290161e-02 -5.789643153548240662e-02
7.850000000000000000e+02 6.109383392333984375e+01 -3.775129699707031250e+01 6.271824240684509277e-02 5.009995773434638977e-02 3.384545817971229553e-02 -5.740293264389038086e-01
7.860000000000000000e+02 7.345392608642578125e+01 -3.820260238647460938e+01 -6.326892971992492676e-02 5.767435073852539062e+00 1.711249947547912598e+00 2.364581972360610962e-01
7.870000000000000000e+02 2.736589050292968750e+01 -3.232666397094726562e+01 2.588770911097526550e-02 -1.384502043947577477e-03 7.350961677730083466e-03 -3.059349546674638987e-04
7.880000000000000000e+02 2.303531455993652344e+01 -3.528210830688476562e+01 1.264886115677654743e-03 -2.799643669277429581e-03 -4.604272835422307253e-04 6.563436239957809448e-03
7.890000000000000000e+02 2.035491752624511719e+01 -3.456736755371093750e+01 3.703585825860500336e-03 1.956986496224999428e-03 1.698171719908714294e-03 5.943362135440111160e-03
7.900000000000000000e+02 1.162164020538330078e+01 -3.410221481323242188e+01 1.930725877173244953e-03 3.958607849199324846e-04 6.979759782552719116e-04 1.872500986792147160e-03
7.910000000000000000e+02 5.436878967285156250e+01 -3.026591110229492188e+01 1.133671045303344727e+00 2.630544424057006836e+00 1.129264712333679199e+00 4.033602178096771240e-01
7.920000000000000000e+02 5.409623718261718750e+01 -2.274499893188476562e+01 -5.140117406845092773e-01 5.936276316642761230e-01 2.388476207852363586e-02 -1.085177361965179443e-01
7.930000000000000000e+02 5.363062286376953125e+01 -2.114181327819824219e+01 -1.502798676490783691e+00 1.060479208827018738e-01 -4.190252125263214111e-01 -3.707183599472045898e-01
7.940000000000000000e+02 4.418153381347656250e+01 -3.038674163818359375e+01 -1.704531013965606689e-01 -6.347481012344360352e-01 -2.415603548288345337e-01 -1.500624120235443115e-01
7.950000000000000000e+02 5.598375701904296875e+01 -2.930066871643066406e+01 6.543239355087280273e-01 5.038589477539062500e+00 1.707874059677124023e+00 1.189650774002075195e+00
7.960000000000000000e+02 4.701021194458007812e+01 -2.466104888916015625e+01 -1.371183097362518311e-01 -3.322251439094543457e-01 -1.408030241727828979e-01 -7.205073237419128418e-01
7.970000000000000000e+02 4.953580856323242188e+01 -2.692311668395996094e+01 4.306691586971282959e-01 7.597928494215011597e-02 1.519945263862609863e-01 -4.273093640804290771e-01
7.980000000000000000e+02 4.376203155517578125e+01 -2.886247825622558594e+01 -3.884485065937042236e-01 -7.598297595977783203e-01 -3.444834649562835693e-01 -4.337850511074066162e-01
7.990000000000000000e+02 4.271282958984375000e+01 -3.037501716613769531e+01 -4.206916689872741699e-01 -1.326111555099487305e+00 -5.240409970283508301e-01 -3.643044233322143555e-01
8.000000000000000000e+02 5.228929138183593750e+01 -2.223403358459472656e+01 -9.112139940261840820e-01 5.227981507778167725e-02 -2.576802670955657959e-01 -5.125519037246704102e-01
8.010000000000000000e+02 4.861337661743164062e+01 -2.277748680114746094e+01 -6.328540444374084473e-01 -1.926250010728836060e-01 -2.476437091827392578e-01 -7.138627767562866211e-01
8.020000000000000000e+02 6.048485946655273438e+01 -1.994736289978027344e+01 -8.150351047515869141e-01 1.625347733497619629e+00 2.430937886238098145e-01 1.140769958496093750e+00
8.030000000000000000e+02 5.996570205688476562e+01 -1.920944976806640625e+01 -6.619219183921813965e-01 1.515084624290466309e+00 2.559487819671630859e-01 1.073768615722656250e+00
8.040000000000000000e+02 6.510343933105468750e+01 -2.119293594360351562e+01 -1.887331843376159668e+00 4.416890740394592285e-01 -4.336928427219390869e-01 2.286033928394317627e-01
8.050000000000000000e+02 5.616020584106445312e+01 -2.466274452209472656e+01 6.669983863830566406e-01 1.860115647315979004e+00 7.581341862678527832e-01 7.605278491973876953e-01
8.060000000000000000e+02 7.608671569824218750e+01 -2.009761428833007812e+01 -7.143603563308715820e-01 8.479386329650878906e+00 2.329507827758789062e+00 2.777185058221220970e-03
8.070000000000000000e+02 6.345908737182617188e+01 -1.543971824645996094e+01 8.904211521148681641e-01 1.252987384796142578e+00 6.430225372314453125e-01 1.145632505416870117e+00
8.080000000000000000e+02 6.301983642578125000e+01 -1.612113761901855469e+01 9.350573420524597168e-01 1.262432694435119629e+00 6.592470407485961914e-01 1.160766363143920898e+00
8.090000000000000000e+02 5.094061374664306641e+00 -2.700422859191894531e+01 -3.783345455303788185e-04 1.376921136397868395e-04 -7.219272811198607087e-05 -4.280981738702394068e-05
8.100000000000000000e+02 4.583726406097412109e+00 -1.587849903106689453e+01 7.893260772107169032e-05 4.795111453859135509e-05 3.806511813309043646e-05 7.440984336426481605e-05
8.110000000000000000e+02 4.314028739929199219e+00 -1.198042583465576172e+01 -1.050289356498979032e-04 -2.295067315571941435e-05 -3.839388227788731456e-05 -3.962005939683876932e-05
8.120000000000000000e+02 1.582121562957763672e+01 -1.106672477722167969e+01 -6.233948079170659184e-05 1.375193642161320895e-05 -1.457626240153331310e-05 -3.438799467403441668e-05
8.130000000000000000e+02 1.242723846435546875e+01 -1.102698612213134766e+01 -6.965517968637868762e-05 -6.240497896214947104e-05 -3.961804759455844760e-05 3.791116978391073644e-05
8.140000000000000000e+02 9.894499778747558594e+00 -1.036704349517822266e+01 3.931175160687416792e-05 2.700669392652343959e-05 1.989553311432246119e-05 -9.257759302272461355e-06
8.150000000000000000e+02 1.883568763732910156e+00 -1.346531391143798828e+01 1.405324874212965369e-04 3.660405582195380703e-06 4.325786721892654896e-05 2.220971509814262390e-05
8.160000000000000000e+02 1.360431289672851562e+01 -1.434019756317138672e+01 -1.463992375647649169e-04 -5.790324939880520105e-05 -6.129074608907103539e-05 6.883023161208257079e-05
8.170000000000000000e+02 1.233950424194335938e+01 -5.445940494537353516e+00 -1.536819581815507263e-05 -4.115713454666547477e-05 -1.695759965514298528e-05 1.104386228689691052e-05
8.180000000000000000e+02 5.188064098358154297e+00 -5.731389522552490234e+00 -5.726494055124931037e-05 -1.065210744854994118e-05 -2.037511512753553689e-05 -4.508636629907414317e-05
8.190000000000000000e+02 8.341565132141113281e+00 -5.726789474487304688e+00 4.419864490046165884e-05 1.907580372062511742e-05 1.898233495012391359e-05 7.196964816102990881e-06
8.200000000000000000e+02 1.780685186386108398e+00 -8.010357856750488281e+00 8.671096293255686760e-05 5.165127276995917782e-06 2.756282628979533911e-05 6.724235390720423311e-06
8.210000000000000000e+02 5.225687503814697266e+00 -1.849468111991882324e+00 -2.214180130977183580e-05 -1.205180251417914405e-05 -1.025808069243794307e-05 -3.199810407750192098e-06
8.220000000000000000e+02 3.550310897827148438e+01 -3.843232727050781250e+01 6.218900531530380249e-02 -2.216737121343612671e-01 -4.784540832042694092e-02 -1.171296238899230957e-01
8.230000000000000000e+02 7.454987335205078125e+01 -1.497062015533447266e+01 -1.383303850889205933e-01 6.735455036163330078e+00 1.979137420654296875e+00 -7.315071821212768555e-01
8.240000000000000000e+02 7.118724060058593750e+01 -1.876119995117187500e+01 -7.699855566024780273e-01 4.033983230590820312e+00 9.791993498802185059e-01 -1.231832027435302734e+00
8.250000000000000000e+02 7.541582489013671875e+01 -1.223924350738525391e+01 -4.838694818317890167e-03 7.155043601989746094e+00 2.145061492919921875e+00 -6.836457252502441406e-01
8.260000000000000000e+02 6.709159851074218750e+01 -1.205824661254882812e+01 6.590915322303771973e-01 2.588188171386718750e+00 9.741839170455932617e-01 7.296082377433776855e-01
8.270000000000000000e+02 7.050088500976562500e+01 -9.679678916931152344e+00 1.678401529788970947e-01 5.019318580627441406e+00 1.556147575378417969e+00 1.328173726797103882e-01
8.280000000000000000e+02 7.584293365478515625e+01 -5.448819637298583984e+00 -2.853066474199295044e-02 7.240574836730957031e+00 2.163613319396972656e+00 -6.895531415939331055e-01
8.290000000000000000e+02 7.067691040039062500e+01 -8.636384963989257812e+00 1.089857593178749084e-01 5.403838634490966797e+00 1.653847336769104004e+00 1.665937602519989014e-01
8.300000000000000000e+02 7.448637390136718750e+01 -1.977572679519653320e+00 1.904677003622055054e-01 7.566119670867919922e+00 2.326976299285888672e+00 -5.736620426177978516e-01
8.310000000000000000e+02 7.377642822265625000e+01 5.647127151489257812e+00 3.737144172191619873e-01 8.639397621154785156e+00 2.703933477401733398e+00 1.016201302409172058e-01
8.320000000000000000e+02 7.471730041503906250e+01 9.327203750610351562e+00 -7.882849127054214478e-02 8.046906471252441406e+00 2.390423297882080078e+00 2.002342492341995239e-01
8.330000000000000000e+02 7.506550598144531250e+01 1.263166522979736328e+01 -1.896273344755172729e-01 7.840597152709960938e+00 2.295290946960449219e+00 3.073779493570327759e-02
8.340000000000000000e+02 7.426646423339843750e+01 1.367749977111816406e+01 -1.581117659807205200e-01 8.099184989929199219e+00 2.382322072982788086e+00 -1.089780107140541077e-01
8.350000000000000000e+02 7.296139526367187500e+01 1.894283866882324219e+01 9.038101881742477417e-02 8.750336647033691406e+00 2.652215242385864258e+00 -2.469603531062602997e-02
8.360000000000000000e+02 7.388471221923828125e+01 2.080719375610351562e+01 1.466876715421676636e-01 8.256429672241210938e+00 2.520935058593750000e+00 -2.263166941702365875e-03
8.370000000000000000e+02 7.558988952636718750e+01 2.512436294555664062e+01 2.860765159130096436e-01 7.282495021820068359e+00 2.270571470260620117e+00 3.403810560703277588e-01
8.380000000000000000e+02 7.394486236572265625e+01 3.162273788452148438e+01 -2.090927958488464355e-01 6.942793369293212891e+00 2.020110130310058594e+00 5.433889031410217285e-01
8.390000000000000000e+02 7.026486968994140625e+01 3.097238349914550781e+01 -1.390304267406463623e-01 6.208911418914794922e+00 1.820964217185974121e+00 -3.088557124137878418e-01
8.400000000000000000e+02 7.472910308837890625e+01 3.342591476440429688e+01 -2.889269888401031494e-01 6.975386142730712891e+00 2.005937814712524414e+00 4.969778358936309814e-01
8.410000000000000000e+02 6.641485595703125000e+01 3.731410980224609375e+01 -6.974761188030242920e-02 2.233614683151245117e+00 6.491601467132568359e-01 -4.125269353389739990e-01
8.420000000000000000e+02 4.824743652343750000e+01 3.660717391967773438e+01 -1.015429105609655380e-02 -7.664229720830917358e-03 -5.345556419342756271e-03 1.068021543323993683e-02
8.430000000000000000e+02 4.311536407470703125e+01 3.338494491577148438e+01 -9.574056020937860012e-04 -3.806737950071692467e-03 -1.429243013262748718e-03 1.222456106916069984e-03
8.440000000000000000e+02 2.129705238342285156e+01 3.430565643310546875e+01 -6.549361860379576683e-04 -1.015066372929140925e-04 -2.269328397233039141e-04 -2.595262776594609022e-04
8.450000000000000000e+02 3.616703510284423828e+00 3.399336624145507812e+01 1.302850432693958282e-04 6.310175522230565548e-04 2.283907815581187606e-04 -8.503972640028223395e-05
8.460000000000000000e+02 7.061539292335510254e-01 3.458010101318359375e+01 1.263411832042038441e-04 8.797633345238864422e-04 3.018313436768949032e-04 -2.608678914839401841e-05
8.470000000000000000e+02 7.183029174804687500e+01 3.874164199829101562e+01 -2.255286723375320435e-01 5.363651752471923828e+00 1.541436910629272461e+00 -7.013988681137561798e-03
8.480000000000000000e+02 3.765610885620117188e+01 3.700115966796875000e+01 -2.039468148723244667e-03 9.071706153918057680e-05 -5.846252897754311562e-04 -1.064421841874718666e-03
8.490000000000000000e+02 8.105084896087646484e-01 3.732517623901367188e+01 1.487152330810204148e-04 9.121300536207854748e-04 3.182535874657332897e-04 -4.807469667866826057e-05
8.500000000000000000e+02 4.941335678100585938e+00 2.521813011169433594e+01 -1.976965577341616154e-04 3.911792009603232145e-04 5.804479587823152542e-05 -2.175803092541173100e-04
8.510000000000000000e+02 9.150144577026367188e+00 2.268469619750976562e+01 3.425038303248584270e-04 7.867880776757374406e-05 1.263547892449423671e-04 -3.633202868513762951e-04
8.520000000000000000e+02 1.124539566040039062e+01 1.739571762084960938e+01 2.794745378196239471e-04 7.371280662482604384e-05 1.059562055161222816e-04 -2.779913193080574274e-04
8.530000000000000000e+02 1.564097785949707031e+01 1.508330345153808594e+01 4.881842469330877066e-04 -2.207371726399287581e-04 8.023412374313920736e-05 -1.555775088490918279e-04
8.540000000000000000e+02 1.947700309753417969e+01 8.816454887390136719e+00 4.036414611618965864e-04 -1.148796291090548038e-04 8.662855543661862612e-05 1.010682808555429801e-05
8.550000000000000000e+02 2.272630119323730469e+01 5.659593582153320312e+00 3.414567618165165186e-04 -7.189153257058933377e-05 8.086956222541630268e-05 5.843681356054730713e-05
8.560000000000000000e+02 2.850033187866210938e+01 3.437490463256835938e-01 -3.123463829979300499e-05 7.148528675315901637e-05 1.207519471790874377e-05 -1.950169644260313362e-05
8.570000000000000000e+02 3.102772521972656250e+01 -3.360169172286987305e+00 -1.870423147920519114e-04 9.927040809998288751e-05 -2.633157237141858786e-05 -4.226291639497503638e-05
8.580000000000000000e+02 3.601528167724609375e+01 -5.625426769256591797e+00 6.740959361195564270e-05 8.824514952721074224e-05 4.669642294174991548e-05 -6.820902490289881825e-05
8.590000000000000000e+02 3.917036056518554688e+01 -1.154055595397949219e+01 -2.023900015046820045e-05 -5.893318302696570754e-05 -2.375165422563441098e-05 -1.074768351827515289e-05
8.600000000000000000e+02 4.099523162841796875e+01 -6.092108249664306641e+00 -6.569251127075403929e-06 -1.664232695475220680e-05 -6.963472969800932333e-06 -3.943112460547126830e-06
8.610000000000000000e+02 4.217179870605468750e+01 -7.679908275604248047e+00 -3.638753332779742777e-05 -4.247258402756415308e-05 -2.365803629800211638e-05 -2.595531805127393454e-05
8.620000000000000000e+02 4.107399368286132812e+01 -3.389355421066284180e+00 9.848508489085361362e-05 9.490912634646520019e-05 5.801826046081259847e-05 2.677142765605822206e-05
8.630000000000000000e+02 3.738084030151367188e+01 9.613559246063232422e-01 -9.392488573212176561e-05 1.993373589357361197e-04 3.162373832310549915e-05 -2.113023219862952828e-04
8.640000000000000000e+02 3.302513504028320312e+01 3.283110857009887695e+00 3.234957403037697077e-04 1.242664875462651253e-04 1.343286712653934956e-04 4.266325413482263684e-05
8.650000000000000000e+02 3.142270278930664062e+01 7.768955707550048828e+00 7.389824168058112264e-05 -2.883872657548636198e-04 -6.434670649468898773e-05 2.371980808675289154e-04
8.660000000000000000e+02 2.639603424072265625e+01 8.791621208190917969e+00 3.033857501577585936e-05 1.015600646496750414e-04 3.956958971684798598e-05 -1.640007540117949247e-04
8.670000000000000000e+02 2.213536834716796875e+01 1.298203945159912109e+01 5.604623220278881490e-05 -8.853631879901513457e-05 -9.747025615070015192e-06 -1.548614382045343518e-04
8.680000000000000000e+02 1.914163970947265625e+01 1.387707519531250000e+01 4.080610524397343397e-04 -2.430652239127084613e-04 4.949874710291624069e-05 -1.106441268348135054e-04
8.690000000000000000e+02 1.069049263000488281e+01 2.317380714416503906e+01 3.648847341537475586e-04 6.144087092252448201e-05 1.278976851608604193e-04 -4.304053145460784435e-04
8.700000000000000000e+02 7.218623638153076172e+00 2.524784469604492188e+01 -1.565344791742973030e-05 3.627087280619889498e-04 1.041165814967826009e-04 -8.369980059796944261e-05
8.710000000000000000e+02 8.603966712951660156e+00 2.416915893554687500e+01 3.086924843955785036e-04 1.422298519173637033e-04 1.352766994386911392e-04 -1.708011259324848652e-04
8.720000000000000000e+02 7.729907989501953125e+00 2.404161834716796875e+01 1.626706507522612810e-04 1.291530643356963992e-04 8.754711598157882690e-05 -3.732715267688035965e-04
8.730000000000000000e+02 1.262429046630859375e+01 2.347731590270996094e+01 2.589886134956032038e-04 9.224940731655806303e-05 1.053714076988399029e-04 -4.661007260438054800e-04
8.740000000000000000e+02 1.666052246093750000e+01 2.354969596862792969e+01 4.744442703668028116e-04 -1.808720262488350272e-04 8.807166886981576681e-05 -2.523451694287359715e-04
8.750000000000000000e+02 1.893142700195312500e+01 1.694378089904785156e+01 2.791560254991054535e-04 -3.678818393382243812e-05 7.271035428857430816e-05 -5.136081017553806305e-04
8.760000000000000000e+02 2.372961044311523438e+01 1.650498199462890625e+01 6.577151943929493427e-04 -2.181874151574447751e-04 1.318583381362259388e-04 -3.080372989643365145e-04
8.770000000000000000e+02 2.645885276794433594e+01 1.127877044677734375e+01 -3.870640648528933525e-05 -1.799614110495895147e-04 -6.560034671565517783e-05 6.313627818599343300e-05
8.780000000000000000e+02 3.322079086303710938e+01 4.434922218322753906e+00 -1.467148977098986506e-04 -1.218443067045882344e-04 -8.056776277953758836e-05 7.951090083224698901e-05
8.790000000000000000e+02 3.644680404663085938e+01 2.725163936614990234e+00 -2.573586825747042894e-04 -9.175068953481968492e-06 -7.996012573130428791e-05 -3.560186087270267308e-05
8.800000000000000000e+02 4.027908325195312500e+01 -1.684555411338806152e+00 1.450223353458568454e-04 -3.009300780831836164e-05 3.447879862505942583e-05 -1.560295459057670087e-05
8.810000000000000000e+02 3.978163528442382812e+01 -8.275755047798156738e-01 -1.179176178993657231e-04 6.271926395129412413e-05 -1.655950472922995687e-05 -3.770410330616869032e-06
8.820000000000000000e+02 4.122525024414062500e+01 -9.397130608558654785e-01 -1.192627678392454982e-04 2.979382225021254271e-05 -2.684068385860882699e-05 -6.284432402026141062e-06
8.830000000000000000e+02 4.031391143798828125e+01 2.312657117843627930e+00 -1.175430952571332455e-04 2.399801596766337752e-04 3.673111859825439751e-05 -6.119766476331278682e-05
8.840000000000000000e+02 3.767620086669921875e+01 7.779781341552734375e+00 -3.429113130550831556e-04 -1.904809905681759119e-04 -1.600176910869777203e-04 6.422118167392909527e-05
8.850000000000000000e+02 3.312288284301757812e+01 1.201638984680175781e+01 8.035674691200256348e-04 -2.818745560944080353e-04 1.565078709973022342e-04 2.583979803603142500e-04
8.860000000000000000e+02 2.872495651245117188e+01 1.415105438232421875e+01 9.409160702489316463e-05 -4.033527511637657881e-04 -9.277834033127874136e-05 1.917456247610971332e-04
8.870000000000000000e+02 2.652012634277343750e+01 1.684845161437988281e+01 2.054631186183542013e-04 -4.201793635729700327e-04 -6.441487494157627225e-05 1.036388493957929313e-04
8.880000000000000000e+02 2.213893318176269531e+01 2.042255210876464844e+01 8.271954720839858055e-05 -3.816510434262454510e-04 -8.967945177573710680e-05 -7.370346429524943233e-05
8.890000000000000000e+02 1.821237754821777344e+01 2.105460166931152344e+01 5.631795502267777920e-04 -2.215831045759841800e-04 1.024789307848550379e-04 -3.339441027492284775e-04
8.900000000000000000e+02 1.463200187683105469e+01 2.710003089904785156e+01 3.415074315853416920e-04 1.129691736423410475e-05 1.058413035934790969e-04 -4.056292527820914984e-04
8.910000000000000000e+02 1.698077583312988281e+01 2.596606445312500000e+01 -3.397385298740118742e-04 2.142176890629343688e-05 -9.549503010930493474e-05 -4.139845841564238071e-04
8.920000000000000000e+02 1.368870925903320312e+01 2.501586723327636719e+01 -2.589411160442978144e-04 8.939769031712785363e-05 -5.086302553536370397e-05 -1.665056624915450811e-04
8.930000000000000000e+02 2.337791252136230469e+01 2.757461166381835938e+01 -4.167290462646633387e-04 -2.679221797734498978e-04 -2.053953649010509253e-04 -4.956888733431696892e-04
8.940000000000000000e+02 2.551767539978027344e+01 2.622508430480957031e+01 8.349851705133914948e-04 -4.991702153347432613e-04 1.007444734568707645e-04 -5.408464348874986172e-04
8.950000000000000000e+02 3.028451728820800781e+01 2.279213142395019531e+01 1.157554681412875652e-03 -6.026694318279623985e-04 1.664655719650909305e-04 -4.600710235536098480e-04
8.960000000000000000e+02 3.684149169921875000e+01 1.472858238220214844e+01 -3.443197056185454130e-04 -6.798436515964567661e-06 -1.053354426403529942e-04 3.035456466022878885e-04
8.970000000000000000e+02 4.073371124267578125e+01 1.182259368896484375e+01 8.106463938020169735e-04 1.003357756417244673e-04 2.732946595642715693e-04 3.165101807098835707e-04
8.980000000000000000e+02 4.223299789428710938e+01 1.044907760620117188e+01 6.708323489874601364e-04 9.832497016759589314e-05 2.307472022948786616e-04 2.235802821815013885e-04
8.990000000000000000e+02 2.886217308044433594e+01 2.631839942932128906e+01 9.269010042771697044e-04 -5.358592607080936432e-04 1.173125347122550011e-04 -7.090993458405137062e-04
9.000000000000000000e+02 3.269157791137695312e+01 1.893520355224609375e+01 1.982140529435127974e-04 -6.791956257075071335e-04 -1.442944776499643922e-04 5.110543570481240749e-04
9.010000000000000000e+02 3.646044158935546875e+01 1.802387619018554688e+01 1.278851414099335670e-03 3.792150237131863832e-04 4.974199691787362099e-04 1.607861486263573170e-04
9.020000000000000000e+02 4.051728820800781250e+01 1.338118934631347656e+01 -7.427781820297241211e-04 4.913230659440159798e-04 -7.543653919128701091e-05 1.292531524086371064e-04
9.030000000000000000e+02 4.211937332153320312e+01 1.336942005157470703e+01 9.678107453510165215e-04 2.844767877832055092e-04 3.756862715817987919e-04 5.322839206201024354e-05
9.040000000000000000e+02 3.233724975585937500e+01 2.656278800964355469e+01 1.311403815634548664e-03 -7.312011439353227615e-04 1.740607985993847251e-04 -8.450739551335573196e-04
9.050000000000000000e+02 3.726335525512695312e+01 1.908321952819824219e+01 5.113472579978406429e-04 -8.496311493217945099e-04 -1.014851586660370231e-04 9.148804820142686367e-04
9.060000000000000000e+02 4.113806152343750000e+01 1.800296974182128906e+01 1.617465051822364330e-03 4.964859108440577984e-04 6.341852713376283646e-04 4.061691579408943653e-04
9.070000000000000000e+02 4.266462707519531250e+01 1.765833854675292969e+01 -1.098856213502585888e-03 8.787197293713688850e-04 -6.604096415685489774e-05 5.846262793056666851e-04
9.080000000000000000e+02 3.386819839477539062e+01 2.833498382568359375e+01 -8.567285112803801894e-05 -1.154516357928514481e-03 -3.720567619893699884e-04 -1.289193460252135992e-04
9.090000000000000000e+02 3.761425399780273438e+01 2.719518089294433594e+01 7.462965440936386585e-04 -1.825413317419588566e-03 -3.237350319977849722e-04 8.197178831323981285e-04
9.100000000000000000e+02 4.001832199096679688e+01 2.154736328125000000e+01 -1.256635150639340281e-04 3.628888225648552179e-04 7.116759661585092545e-05 1.091199344955384731e-03
9.110000000000000000e+02 4.339660263061523438e+01 2.044300460815429688e+01 -1.082522561773657799e-03 1.307231257669627666e-03 6.741261313436552882e-05 1.235740492120385170e-03
9.120000000000000000e+02 3.269855499267578125e+00 2.412923431396484375e+01 -1.584292913321405649e-04 4.228721372783184052e-04 7.933285814942792058e-05 -1.560992677696049213e-04
9.130000000000000000e+02 5.013142585754394531e+00 2.086303329467773438e+01 -1.553754264023154974e-04 2.979544806294143200e-04 4.277371772332116961e-05 -1.872784923762083054e-04
9.140000000000000000e+02 8.824383735656738281e+00 1.549045848846435547e+01 -7.638964598299935460e-05 7.249673944897949696e-05 -1.167872710539086256e-06 -1.273270318051800132e-04
9.150000000000000000e+02 1.148367309570312500e+01 1.540727519989013672e+01 1.739613362587988377e-04 1.124567279475741088e-04 8.592542144469916821e-05 -3.093180712312459946e-04
9.160000000000000000e+02 1.528004646301269531e+01 1.103036308288574219e+01 1.385956329613691196e-05 -5.345111640053801239e-05 -1.187746602226980031e-05 -1.392126869177445769e-04
9.170000000000000000e+02 1.870103454589843750e+01 6.070076465606689453e+00 1.957792410394176841e-04 -1.241317113453987986e-05 5.500982297235168517e-05 -9.865510946838185191e-05
9.180000000000000000e+02 2.167981147766113281e+01 2.638849258422851562e+00 1.410874974681064487e-04 -5.536216849577613175e-05 2.571759978309273720e-05 -7.324877515202388167e-05
9.190000000000000000e+02 2.485529708862304688e+01 5.568578839302062988e-01 2.699308970477432013e-04 -9.456383850192651153e-06 7.814235868863761425e-05 9.505435627943370491e-06
9.200000000000000000e+02 2.878975105285644531e+01 -3.860471725463867188e+00 -1.574856469233054668e-05 -3.407387339393608272e-05 -1.494673051638528705e-05 8.493241330143064260e-05
9.210000000000000000e+02 3.345724487304687500e+01 -7.823588371276855469e+00 9.210406278725713491e-05 2.806884367601014674e-05 3.605187157518230379e-05 -5.822216189699247479e-05
9.220000000000000000e+02 3.662377548217773438e+01 -1.013292407989501953e+01 1.870049527497030795e-05 3.536843723850324750e-05 1.622067975404206663e-05 -2.863979534595273435e-05
9.230000000000000000e+02 3.983663177490234375e+01 -1.474781894683837891e+01 3.494158590910956264e-05 2.285883419972378761e-05 1.734012585075106472e-05 -2.034479257417842746e-05
9.240000000000000000e+02 1.324130058288574219e+01 1.921734619140625000e+01 1.756523415679112077e-04 3.761596190088312142e-06 5.382418385124765337e-05 -1.566362188896164298e-04
9.250000000000000000e+02 1.269616031646728516e+01 2.096004295349121094e+01 1.670592901064082980e-04 6.820191629230976105e-05 7.057836046442389488e-05 -4.231231578160077333e-04
9.260000000000000000e+02 1.788525772094726562e+01 1.951586723327636719e+01 -1.812739938031882048e-04 -1.034916931530460715e-05 -5.748694820795208216e-05 -3.351211198605597019e-04
9.270000000000000000e+02 1.902980995178222656e+01 1.896969032287597656e+01 4.029854026157408953e-04 -7.852308772271499038e-05 9.733869228512048721e-05 -4.545901319943368435e-04
9.280000000000000000e+02 2.565112113952636719e+01 1.844236373901367188e+01 6.915390258654952049e-04 -2.340688806725665927e-04 1.372410333715379238e-04 -3.826041356660425663e-04
9.290000000000000000e+02 2.687335586547851562e+01 1.929081916809082031e+01 2.941277052741497755e-04 -5.762075306847691536e-04 -8.462394907837733626e-05 7.511734293075278401e-05
9.300000000000000000e+02 2.861756515502929688e+01 2.282949829101562500e+01 7.275116513483226299e-04 -3.087491204496473074e-04 1.256287505384534597e-04 -3.237370110582560301e-04
9.310000000000000000e+02 3.296041870117187500e+01 2.330772209167480469e+01 1.295778900384902954e-03 -2.924668369814753532e-04 3.009936190210282803e-04 -4.832096747122704983e-04
9.320000000000000000e+02 3.678769302368164062e+01 2.428305053710937500e+01 1.546834362670779228e-03 -1.496589509770274162e-03 1.507344586570980027e-05 5.821625818498432636e-04
9.330000000000000000e+02 4.094419479370117188e+00 1.981167984008789062e+01 -1.578530063852667809e-04 2.902901906054466963e-04 3.973115599364973605e-05 -1.449659466743469238e-04
9.340000000000000000e+02 7.810603618621826172e+00 2.110843658447265625e+01 7.554884359706193209e-05 1.497916528023779392e-04 6.760215183021500707e-05 -3.334553912281990051e-04
9.350000000000000000e+02 1.427873802185058594e+01 1.600112724304199219e+01 1.888000988401472569e-04 -8.030669414438307285e-05 3.254802140872925520e-05 -7.106215343810617924e-05
9.360000000000000000e+02 2.238173294067382812e+01 1.760594749450683594e+01 1.677450200077146292e-04 -3.967879165429621935e-04 -6.871287769172340631e-05 3.506100983940996230e-05
9.370000000000000000e+02 2.867882347106933594e+01 1.639650154113769531e+01 1.125798080465756357e-04 -4.056694160681217909e-04 -8.792687731329351664e-05 2.563832094892859459e-04
9.380000000000000000e+02 3.040724754333496094e+01 1.852768135070800781e+01 1.438367326045408845e-05 -4.214548389427363873e-04 -1.221213460667058825e-04 3.048847138416022062e-04
9.390000000000000000e+02 3.634154510498046875e+01 2.011598396301269531e+01 8.555090171284973621e-04 5.089105106890201569e-04 4.093258758075535297e-04 -2.259729226352646947e-04
9.400000000000000000e+02 3.831610870361328125e+01 1.854327583312988281e+01 1.405288930982351303e-03 3.164391964673995972e-04 5.165184265933930874e-04 7.097910856828093529e-04
9.410000000000000000e+02 7.334359169006347656e+00 1.699653434753417969e+01 -2.052143827313557267e-05 1.391460536979138851e-04 3.558738535502925515e-05 -2.217185538029298186e-04
9.420000000000000000e+02 1.241898918151855469e+01 1.654040908813476562e+01 3.027875209227204323e-05 -4.367725705378688872e-05 -4.019551852252334356e-06 -1.179170358227565885e-04
9.430000000000000000e+02 1.793381690979003906e+01 1.239807033538818359e+01 4.088292189408093691e-04 -1.753419637680053711e-04 7.004618237260729074e-05 -1.225679588969796896e-04
9.440000000000000000e+02 1.879717254638671875e+01 1.508805942535400391e+01 1.248830085387453437e-04 1.018927105178590864e-05 4.052168515045195818e-05 -2.767621481325477362e-04
9.450000000000000000e+02 2.502984619140625000e+01 1.294832324981689453e+01 -3.727483272086828947e-05 -9.849428170127794147e-05 -4.073073432664386928e-05 -4.205362347420305014e-05
9.460000000000000000e+02 2.516897010803222656e+01 1.462112903594970703e+01 6.394135998561978340e-04 -2.423030091449618340e-04 1.191331830341368914e-04 -3.523590976328705437e-06
9.470000000000000000e+02 3.272848129272460938e+01 1.449211788177490234e+01 1.564458070788532495e-04 -4.782712785527110100e-04 -9.654764289734885097e-05 3.030607476830482483e-04
9.480000000000000000e+02 3.376463699340820312e+01 1.518126010894775391e+01 2.588825882412493229e-04 8.291905396617949009e-05 1.025404926622286439e-04 7.285467290785163641e-05
9.490000000000000000e+02 4.083760833740234375e+01 1.650074195861816406e+01 -8.935214136727154255e-04 5.345201352611184120e-04 -1.077003689715638757e-04 4.270986828487366438e-04
9.500000000000000000e+02 4.358242988586425781e+00 1.320140457153320312e+01 1.240069977939128876e-04 1.231836358783766627e-04 7.415719301206991076e-05 -7.010538683971390128e-05
9.510000000000000000e+02 6.767854213714599609e+00 1.396511745452880859e+01 6.183529330883175135e-05 1.354918058495968580e-04 5.919812974752858281e-05 -8.271145634353160858e-05
9.520000000000000000e+02 1.076383972167968750e+01 1.281441593170166016e+01 4.498067573877051473e-05 -4.470200656214728951e-05 8.360095904436093406e-08 -3.931908941012807190e-05
9.530000000000000000e+02 2.367665672302246094e+01 9.923565864562988281e+00 5.169098149053752422e-04 -1.976188214030116796e-04 9.578730532666668296e-05 3.769565955735743046e-05
9.540000000000000000e+02 2.992028999328613281e+01 1.081985855102539062e+01 4.868779797106981277e-04 1.477573096053674817e-04 1.903905940707772970e-04 -6.000373105052858591e-06
9.550000000000000000e+02 2.908856201171875000e+01 9.740246772766113281e+00 9.515265992376953363e-05 -3.429279022384434938e-04 -7.433257269440218806e-05 2.566082985140383244e-04
9.560000000000000000e+02 3.412788009643554688e+01 1.248610305786132812e+01 5.909343017265200615e-04 2.329693670617416501e-04 2.471710904501378536e-04 4.178068411420099437e-05
9.570000000000000000e+02 3.599694061279296875e+01 9.071685791015625000e+00 -1.613966901459207293e-06 3.686707350425422192e-05 1.057593181030824780e-05 1.655011001275852323e-04
9.580000000000000000e+02 4.120575904846191406e+00 9.471469879150390625e+00 -7.497435581171885133e-05 6.127563392510637641e-05 -4.109616384084802121e-06 -1.757172503857873380e-05
9.590000000000000000e+02 7.794265747070312500e+00 1.040357494354248047e+01 -1.145347596320789307e-05 3.870652290061116219e-05 8.175913535524159670e-06 -2.720862539717927575e-05
9.600000000000000000e+02 1.200474548339843750e+01 9.177640914916992188e+00 9.343997953692451119e-05 4.622592678060755134e-05 4.189977335045114160e-05 -1.487672270741313696e-04
9.610000000000000000e+02 1.581190299987792969e+01 8.837038040161132812e+00 3.054917324334383011e-04 -1.618580427020788193e-05 8.679177699377760291e-05 -1.833851420087739825e-04
9.620000000000000000e+02 1.831255149841308594e+01 8.802762031555175781e+00 -1.467032325308537111e-05 -6.341921834973618388e-05 -2.342686275369487703e-05 -1.229937333846464753e-04
9.630000000000000000e+02 2.520482635498046875e+01 7.090233802795410156e+00 -1.208445537486113608e-04 -2.014920391957275569e-05 -4.229812839184887707e-05 5.167720883036963642e-05
9.640000000000000000e+02 3.331038665771484375e+01 7.691589355468750000e+00 2.853867481462657452e-04 -1.176653531729243696e-04 5.031641921959817410e-05 2.560075372457504272e-04
9.650000000000000000e+02 3.052618217468261719e+01 6.891897201538085938e+00 2.412119647487998009e-04 1.624526485102251172e-04 1.210993868880905211e-04 -7.391710823867470026e-05
9.660000000000000000e+02 3.605236053466796875e+01 6.602326393127441406e+00 -3.012151282746344805e-04 -4.887429895461536944e-05 -1.050268256221897900e-04 1.003340184979606420e-05
9.670000000000000000e+02 3.994265747070312500e+01 5.739650249481201172e+00 4.786844947375357151e-04 1.988130097743123770e-04 2.032492484431713820e-04 -1.383432972943410277e-04
9.680000000000000000e+02 4.101300811767578125e+01 5.134821414947509766e+00 -1.024346347548998892e-04 -2.101085847243666649e-04 -9.376296657137572765e-05 2.044274442596361041e-04
9.690000000000000000e+02 4.514735698699951172e+00 7.965726375579833984e+00 -4.385959982755593956e-05 4.361870742286555469e-05 -7.226778109270526329e-08 3.237648343201726675e-05
9.700000000000000000e+02 8.308252334594726562e+00 5.646416187286376953e+00 6.233181920833885670e-05 1.089909164875280112e-05 2.196927380282431841e-05 -2.461481562932021916e-05
9.710000000000000000e+02 1.240180015563964844e+01 5.469391822814941406e+00 1.706000912236049771e-04 2.734669942583423108e-05 5.938403774052858353e-05 -7.087008270900696516e-05
9.720000000000000000e+02 1.501732063293457031e+01 5.115877628326416016e+00 2.111022040480747819e-04 2.591037173260701820e-06 6.410796777345240116e-05 -7.280061254277825356e-05
9.730000000000000000e+02 1.803204727172851562e+01 5.311745643615722656e+00 3.668021236080676317e-05 -5.567611515289172530e-05 -5.698771019524428993e-06 -1.722329761832952499e-05
9.740000000000000000e+02 2.165999984741210938e+01 5.625796794891357422e+00 -1.296216669288696721e-05 -5.170369331608526409e-05 -1.939975845743902028e-05 -6.643429514952003956e-05
9.750000000000000000e+02 3.168598937988281250e+01 2.421556472778320312e+00 3.085886710323393345e-04 9.761175169842317700e-05 1.218601246364414692e-04 2.110117566189728677e-05
9.760000000000000000e+02 3.778661346435546875e+01 3.715502500534057617e+00 -3.704275586642324924e-04 -2.534464874770492315e-05 -1.187316665891557932e-04 1.562412944622337818e-04
9.770000000000000000e+02 3.585316467285156250e+01 5.342576026916503906e+00 4.387180088087916374e-04 1.363348710583522916e-04 1.725158654153347015e-04 1.450285490136593580e-04
9.780000000000000000e+02 3.958086395263671875e+01 2.926823139190673828e+00 -3.699595254147425294e-05 -1.842998317442834377e-04 -6.638873310294002295e-05 1.748766517266631126e-04
9.790000000000000000e+02 4.601824188232421875e+01 2.703536510467529297e+00 1.995166385313495994e-04 1.070026337401941419e-04 9.195577877108007669e-05 1.668259210418909788e-04
9.800000000000000000e+02 5.569710731506347656e+00 1.877493023872375488e+00 5.476826117956079543e-05 2.553590638854075223e-05 2.409125045232940465e-05 -2.532373218855354935e-05
9.810000000000000000e+02 6.397156238555908203e+00 2.611395120620727539e+00 7.209054456325247884e-05 3.187872789567336440e-05 3.119078246527351439e-05 -4.252379949321039021e-05
9.820000000000000000e+02 7.212784290313720703e+00 3.328373193740844727e+00 7.787440699758008122e-05 4.411886038724333048e-05 3.659797948785126209e-05 -5.515520751941949129e-05
9.830000000000000000e+02 1.512150764465332031e+01 1.334730744361877441e+00 1.316948910243809223e-04 2.271089033456519246e-05 4.632173659047111869e-05 -5.011979010305367410e-05
9.840000000000000000e+02 1.831922721862792969e+01 2.232419490814208984e+00 3.312509943498298526e-05 -4.518223795457743108e-05 -3.617141601353068836e-06 -5.762779619544744492e-05
9.850000000000000000e+02 2.107161331176757812e+01 1.273577451705932617e+00 1.148359515354968607e-04 -7.672228821320459247e-05 1.143409826909191906e-05 -6.590545672224834561e-05
9.860000000000000000e+02 2.533648872375488281e+01 1.575316548347473145e+00 -2.006346585403662175e-05 -4.062357038492336869e-05 -1.820611032599117607e-05 1.675816893111914396e-04
9.870000000000000000e+02 3.342589187622070312e+01 7.434949874877929688e-01 -2.163276076316833496e-04 -2.180423871323000640e-05 -7.143955735955387354e-05 8.210506348405033350e-05
9.880000000000000000e+02 3.119091224670410156e+01 3.968214094638824463e-01 2.447103906888514757e-04 8.669871021993458271e-05 9.942273754859343171e-05 -7.484595698770135641e-05
9.890000000000000000e+02 4.409255599975585938e+01 1.287503123283386230e+00 1.101225498132407665e-04 8.145029278239235282e-05 5.747185059590265155e-05 5.221084575168788433e-05
9.900000000000000000e+02 2.193001747131347656e+01 -1.086738228797912598e+00 4.978868309990502894e-05 -2.302256461916840635e-06 1.424592846888117492e-05 6.539280730066820979e-05
9.910000000000000000e+02 2.544758605957031250e+01 -1.306191086769104004e+00 2.592585042293649167e-05 2.045816700046998449e-06 8.391500159632414579e-06 6.997754098847508430e-05
9.920000000000000000e+02 3.731783294677734375e+01 -2.915583133697509766e+00 -9.263140236726030707e-05 -1.010757332551293075e-04 -5.811214214190840721e-05 8.495085785398259759e-05
9.930000000000000000e+02 3.603012084960937500e+01 -3.248660564422607422e+00 4.579360393108800054e-05 -1.731766969896852970e-04 -3.821493010036647320e-05 7.159769302234053612e-05
9.940000000000000000e+02 4.728602981567382812e+01 -2.780310869216918945e+00 -1.503617968410253525e-04 -7.801367610227316618e-05 -6.851264333818107843e-05 -7.612541230628266931e-05
9.950000000000000000e+02 4.320482635498046875e+01 -2.207943201065063477e+00 9.820947161642834544e-05 5.911551488679833710e-05 4.719749631476588547e-05 1.843910285970196128e-05
9.960000000000000000e+02 2.102047348022460938e+01 -5.005495548248291016e+00 3.021061274921521544e-05 -2.247561860713176429e-05 2.320498424523975700e-06 -3.939477028325200081e-05
9.970000000000000000e+02 2.509342002868652344e+01 -3.707853794097900391e+00 6.488421149697387591e-06 -5.370837243390269578e-06 3.352750752583233407e-07 6.086918438086286187e-05
9.980000000000000000e+02 2.808079719543457031e+01 -4.525019645690917969e+00 7.110228762030601501e-05 2.279573891428299248e-05 2.816940650518517941e-05 -6.019199281581677496e-05
9.990000000000000000e+02 3.209801864624023438e+01 -4.213207721710205078e+00 -2.290864067617803812e-04 5.182376480661332607e-05 -5.317879185895435512e-05 4.099691068404354155e-05
1.000000000000000000e+03 4.855459976196289062e+01 -6.579729080200195312e+00 1.237562537426128983e-04 2.677356860658619553e-05 4.515894397627562284e-05 6.132422277005389333e-05
1.001000000000000000e+03 4.352579498291015625e+01 -5.771677017211914062e+00 6.210288847796618938e-05 3.998838656116276979e-05 3.062738323933444917e-05 1.546909152239095420e-05
1.002000000000000000e+03 2.350457382202148438e+01 -8.155299186706542969e+00 1.400791734340600669e-05 -1.097937820304650813e-05 9.085617875825846568e-07 2.950405723822768778e-05
1.003000000000000000e+03 2.321480369567871094e+01 -5.269322872161865234e+00 3.958658635383471847e-05 -1.375410010950872675e-05 7.749746146146208048e-06 -4.658066973206587136e-05
1.004000000000000000e+03 2.574614334106445312e+01 -1.040233516693115234e+01 -1.216531563841272146e-05 9.162408787233289331e-07 -3.374722382432082668e-06 -8.214729859901126474e-06
1.005000000000000000e+03 2.767044258117675781e+01 -8.944184303283691406e+00 2.894716453738510609e-05 -1.044664440996712074e-05 5.550155947275925428e-06 3.352256317157298326e-05
1.006000000000000000e+03 3.369795227050781250e+01 -9.292859077453613281e+00 5.216464705881662667e-05 4.288327909307554364e-05 2.851437784556765109e-05 -5.133434751769527793e-05
1.007000000000000000e+03 3.647154235839843750e+01 -8.601480484008789062e+00 2.795728687488008291e-05 6.005798059049993753e-05 2.640457933011930436e-05 -4.689066554419696331e-05
1.008000000000000000e+03 4.766708374023437500e+01 -8.285449981689453125e+00 1.065165852196514606e-04 3.109624958597123623e-05 4.128384898649528623e-05 5.314321606419980526e-05
1.009000000000000000e+03 4.360108566284179688e+01 -7.913228988647460938e+00 6.236534682102501392e-05 -4.050318239023908973e-05 6.558648237842135131e-06 4.153760528424754739e-06
1.010000000000000000e+03 4.892646408081054688e+01 -7.891573429107666016e+00 -1.095131810870952904e-04 -4.283791713532991707e-05 -4.570532837533392012e-05 -5.168933785171248019e-05
1.011000000000000000e+03 2.888068580627441406e+01 -1.224101734161376953e+01 -4.276026447769254446e-05 2.438549017824698240e-06 -1.209651418321300298e-05 -1.288855855818837881e-06
1.012000000000000000e+03 3.266895675659179688e+01 -1.113398838043212891e+01 1.304722900385968387e-05 4.981925667379982769e-05 1.885994606709573418e-05 -3.840700810542330146e-05
1.013000000000000000e+03 3.558940124511718750e+01 -1.175548267364501953e+01 2.202427640440873802e-05 5.831119779031723738e-05 2.410064189461991191e-05 -5.176866397960111499e-05
1.014000000000000000e+03 4.674912643432617188e+01 -1.368857860565185547e+01 5.006984429201111197e-05 1.208802586916135624e-05 1.864736077550332993e-05 1.851577872002962977e-05
1.015000000000000000e+03 4.382612228393554688e+01 -1.397773838043212891e+01 3.621348878368735313e-05 -8.997780241770669818e-06 8.164712198777124286e-06 4.372688636067323387e-06
1.016000000000000000e+03 5.175875091552734375e+01 -1.265232753753662109e+01 1.142819019150920212e-04 9.027374289871659130e-06 3.699278386193327606e-05 1.608135607966687530e-05
1.017000000000000000e+03 5.049507522583007812e+01 -1.283552742004394531e+01 -8.496924419887363911e-05 -2.875526297430042177e-05 -3.411735087865963578e-05 -2.623806904011871666e-05
1.018000000000000000e+03 4.995367813110351562e+01 -1.800949668884277344e+01 -1.549523767607752234e-05 -7.078470844135154039e-06 -6.772112556063802913e-06 -5.433376372820930555e-06
1.019000000000000000e+03 4.978705978393554688e+01 -1.045291996002197266e+01 -9.176480671158060431e-05 -2.613844480947591364e-05 -3.537097654771059752e-05 -3.926551289623603225e-05
1.020000000000000000e+03 2.821016502380371094e+01 -1.531886577606201172e+01 -2.317495818715542555e-05 5.585838607657933608e-06 -5.276735919323982671e-06 1.503658950241515413e-05
1.021000000000000000e+03 3.167271041870117188e+01 -1.507698917388916016e+01 6.659703103650826961e-06 1.909796264953911304e-05 7.727299816906452179e-06 -1.949978832271881402e-05
1.022000000000000000e+03 3.552268981933593750e+01 -1.602464866638183594e+01 1.135509228333830833e-05 2.624423723318614066e-05 1.127979885495733470e-05 -1.092233378585660830e-05
1.023000000000000000e+03 4.167140579223632812e+01 -1.373432254791259766e+01 -2.863837607947061770e-06 1.476886245654895902e-05 3.571507477317936718e-06 -1.581926153448875993e-05
1.024000000000000000e+03 1.154367160797119141e+01 -2.906329345703125000e+01 1.857791212387382984e-04 -1.961224625119939446e-04 -3.103003336946130730e-06 -3.708211297634989023e-04
1.025000000000000000e+03 1.736248016357421875e+01 -1.715398311614990234e+00 1.133637924795038998e-04 -1.160777173936367035e-05 3.052680767723359168e-05 -2.579887041065376252e-05
1.026000000000000000e+03 7.010475158691406250e+01 -3.108564567565917969e+01 -7.788808643817901611e-02 1.129160165786743164e+00 3.153816163539886475e-01 4.707449376583099365e-01
1.027000000000000000e+03 6.225131607055664062e+01 -3.524923706054687500e+01 -1.040011763572692871e+00 -1.047007516026496887e-01 -3.434137403964996338e-01 -3.722859919071197510e-01
1.028000000000000000e+03 6.444500732421875000e+01 -1.943241500854492188e+01 -5.001049637794494629e-01 7.090533375740051270e-01 6.268451362848281860e-02 8.328918218612670898e-01
1.029000000000000000e+03 7.317829132080078125e+01 -2.571828842163085938e+01 -1.537423729896545410e-01 1.043644618988037109e+01 3.084810972213745117e+00 -2.687725543975830078e+00
1.030000000000000000e+03 7.450013732910156250e+01 -2.858884620666503906e+01 1.611869931221008301e+00 1.206094741821289062e+01 4.101845264434814453e+00 -1.477784037590026855e+00
1.031000000000000000e+03 7.482968902587890625e+01 -2.774547386169433594e+01 4.461699485778808594e+00 1.100145244598388672e+01 4.638945579528808594e+00 -1.125937581062316895e+00
1.032000000000000000e+03 7.495807647705078125e+01 -2.710285568237304688e+01 4.358678340911865234e+00 1.056075286865234375e+01 4.475829124450683594e+00 5.527433156967163086e-01
1.033000000000000000e+03 7.469533538818359375e+01 -2.641515922546386719e+01 2.725002765655517578e+00 1.174387645721435547e+01 4.340663909912109375e+00 1.587314605712890625e+00
1.034000000000000000e+03 7.439007568359375000e+01 -2.607910156250000000e+01 1.318289041519165039e+00 1.246024608612060547e+01 4.133560657501220703e+00 1.206119894981384277e+00
1.035000000000000000e+03 7.382125091552734375e+01 -2.575283241271972656e+01 -2.328611463308334351e-01 1.249322319030761719e+01 3.678108453750610352e+00 -5.290458798408508301e-01
1.036000000000000000e+03 7.122339630126953125e+01 -2.910693931579589844e+01 7.494012713432312012e-01 1.382511138916015625e+00 6.395736932754516602e-01 1.090044736862182617e+00
1.037000000000000000e+03 7.172283172607421875e+01 -2.951535606384277344e+01 6.612178683280944824e-01 3.261051177978515625e+00 1.176680684089660645e+00 1.874787688255310059e+00
1.038000000000000000e+03 7.167153930664062500e+01 -2.896672058105468750e+01 1.092034339904785156e+00 2.212224483489990234e+00 9.912775754928588867e-01 1.824117660522460938e+00
1.039000000000000000e+03 4.243660736083984375e+01 -2.606271553039550781e+01 -1.918662525713443756e-02 -8.808574676513671875e-01 -2.700132131576538086e-01 -1.910590380430221558e-01
1.040000000000000000e+03 4.241160202026367188e+01 -2.731772422790527344e+01 1.120419707149267197e-03 -1.342458963394165039e+00 -4.024015367031097412e-01 -2.204241305589675903e-01
1.041000000000000000e+03 3.186051559448242188e+01 -3.462990951538085938e+01 -3.398353978991508484e-02 -2.545464225113391876e-02 -1.783145405352115631e-02 -4.098494350910186768e-02
1.042000000000000000e+03 2.421926116943359375e+01 -3.159274864196777344e+01 2.427183277904987335e-02 -5.744287627749145031e-04 7.109221071004867554e-03 1.265906728804111481e-03
1.043000000000000000e+03 1.839090919494628906e+01 -3.202479934692382812e+01 1.098184101283550262e-02 9.103097254410386086e-04 3.567645326256752014e-03 2.598959021270275116e-03
1.044000000000000000e+03 1.672835350036621094e+01 -3.198018264770507812e+01 8.003108203411102295e-03 4.226204764563590288e-04 2.527718665078282356e-03 1.724241185002028942e-03
1.045000000000000000e+03 1.385458469390869141e+01 -3.064423942565917969e+01 2.478294074535369873e-03 -4.043627413921058178e-04 6.221794174052774906e-04 -4.971574526280164719e-04
1.046000000000000000e+03 1.188300418853759766e+01 -3.099711799621582031e+01 1.668722368776798248e-03 -2.803866227623075247e-04 4.165007267147302628e-04 -4.353848344180732965e-04
1.047000000000000000e+03 8.413604736328125000e+00 -2.380419540405273438e+01 -1.636609958950430155e-04 -1.139648957177996635e-04 -8.328777039423584938e-05 9.160100307781249285e-05
1.048000000000000000e+03 6.855708599090576172e+00 -1.616628456115722656e+01 1.042064832290634513e-04 -2.267860872962046415e-05 2.445836253173183650e-05 -5.250451795291155577e-05
1.049000000000000000e+03 1.068076324462890625e+01 -1.718412971496582031e+01 1.021614443743601441e-04 2.782607953122351319e-05 3.899625517078675330e-05 -5.609362051472999156e-05
1.050000000000000000e+03 1.233840656280517578e+01 -1.349953556060791016e+01 1.382708142045885324e-04 5.109507401357404888e-05 5.680976391886360943e-05 -2.553656122472602874e-05
1.051000000000000000e+03 1.574185752868652344e+01 -1.215475177764892578e+01 7.075288158375769854e-05 -4.945056389260571450e-06 1.974234874069225043e-05 4.481557698454707861e-05
1.052000000000000000e+03 1.698216438293457031e+01 -1.324957847595214844e+01 -1.399123448209138587e-05 -1.222816626977873966e-05 -7.865820407459978014e-06 -2.936065811809385195e-06
1.053000000000000000e+03 2.124847030639648438e+01 -1.365087127685546875e+01 1.372230684637543163e-07 2.288186260557267815e-05 6.905725513206562027e-06 5.319006959325633943e-07
1.054000000000000000e+03 2.261019515991210938e+01 -1.432140827178955078e+01 -4.698652901424793527e-06 -1.481750132370507345e-05 -5.854846676811575890e-06 -8.160291713465994690e-07
1.055000000000000000e+03 2.255158042907714844e+01 -1.382807350158691406e+01 1.497305333941767458e-06 1.571302618685876951e-06 9.205824085256608669e-07 -7.422113981192524079e-07
1.056000000000000000e+03 2.174425506591796875e+01 -1.283839797973632812e+01 1.822926788008771837e-05 8.995491953101009130e-06 8.167427949956618249e-06 1.073107341653667390e-05
1.057000000000000000e+03 2.037883949279785156e+01 -1.023403358459472656e+01 1.935071304615121335e-05 6.444520295190159231e-06 7.738569365756120533e-06 -5.661698196490760893e-06
1.058000000000000000e+03 2.072790527343750000e+01 -1.082653427124023438e+01 -2.458781455061398447e-05 1.402053271704062354e-06 -6.955728167667984962e-06 6.222033789526904002e-06
1.059000000000000000e+03 2.103056907653808594e+01 -1.145666027069091797e+01 2.626217792567331344e-05 -6.822969226050190628e-06 5.831762791785877198e-06 -3.839631190771797264e-08
1.060000000000000000e+03 2.000120353698730469e+01 -9.666698455810546875e+00 -1.575040005263872445e-05 -1.212619554280536249e-05 -8.362978405784815550e-06 -1.428078917342645582e-06
1.061000000000000000e+03 1.916030311584472656e+01 -8.587195396423339844e+00 -2.755965942924376577e-05 -1.604443923497456126e-06 -8.749230801186058670e-06 -6.158335054351482540e-06
1.062000000000000000e+03 1.871404647827148438e+01 -8.064918518066406250e+00 2.567661613284144551e-05 -5.028447276345104910e-07 7.552131137344986200e-06 3.284214471932500601e-06
1.063000000000000000e+03 1.679907035827636719e+01 -6.052127361297607422e+00 1.929881364048924297e-05 2.542989932408090681e-06 6.552540980919729918e-06 -2.944700554508017376e-06
1.064000000000000000e+03 1.728999328613281250e+01 -6.532217502593994141e+00 -2.441751166770700365e-05 8.520560186298098415e-07 -7.069636467349482700e-06 3.295000169600825757e-06
1.065000000000000000e+03 1.777655792236328125e+01 -7.028203010559082031e+00 2.420318560325540602e-05 -3.108230430370895192e-06 6.328486961137969047e-06 1.096061737371201161e-06
1.066000000000000000e+03 1.530045986175537109e+01 -5.693038940429687500e+00 -1.905601493490394205e-05 -1.162933767773211002e-05 -9.205606147588696331e-06 5.349096227291738614e-06
1.067000000000000000e+03 1.518760299682617188e+01 -4.772498130798339844e+00 -1.413241261616349220e-05 -1.305769274040358141e-05 -8.157031516020651907e-06 1.269625272470875643e-06
1.068000000000000000e+03 1.463114738464355469e+01 -4.369128227233886719e+00 1.111000710807275027e-05 1.757953759806696326e-05 8.606863048044033349e-06 3.914802348958801304e-08
1.069000000000000000e+03 1.223819732666015625e+01 -2.970346450805664062e+00 1.021306525217369199e-05 3.279649172327481210e-05 1.290286763833137229e-05 1.073772818926954642e-05
1.070000000000000000e+03 1.285284805297851562e+01 -3.306159019470214844e+00 -1.051466006174450740e-05 -2.967444197565782815e-05 -1.205673106596805155e-05 -6.540848971781088039e-06
1.071000000000000000e+03 1.345771980285644531e+01 -3.647752761840820312e+00 9.584053259459324181e-06 2.662639781192410737e-05 1.086313568521291018e-05 3.136510258627822623e-06
1.072000000000000000e+03 1.000162220001220703e+01 -2.066564559936523438e+00 -1.502790564700262621e-05 -3.300614116596989334e-05 -1.441021413484122604e-05 -1.073542262020055205e-05
1.073000000000000000e+03 8.429515838623046875e+00 -1.901970267295837402e+00 -1.760629857017192990e-05 -2.597537059045862406e-05 -1.307450111198704690e-05 -1.314428209298057482e-05
1.074000000000000000e+03 2.905344247817993164e+00 -1.912001252174377441e+00 -9.034211529979074840e-07 3.777545316552277654e-06 8.622372433819691651e-07 -1.657674374655471183e-06
1.075000000000000000e+03 6.440086960792541504e-01 -5.106067657470703125e+00 -6.802519055781885982e-05 2.313834102096734568e-06 -1.971340680029243231e-05 4.977487606083741412e-06
1.076000000000000000e+03 4.524508714675903320e-01 -2.204301834106445312e+00 -4.300433647586032748e-05 -1.239635366800939664e-06 -1.327319205302046612e-05 -8.172747584467288107e-06
1.077000000000000000e+03 1.119575500488281250e+00 -3.864468002319335938e+01 -2.039621904259547591e-04 7.669728947803378105e-04 1.689032069407403469e-04 7.291810470633208752e-05
1.078000000000000000e+03 6.545467376708984375e-01 -3.316045761108398438e+01 -1.883397344499826431e-04 6.771913467673584819e-05 -3.618618211476132274e-05 2.264933209517039359e-05
1.079000000000000000e+03 6.220052838325500488e-01 -3.177297592163085938e+01 2.227586228400468826e-04 -1.139883170253597200e-05 6.340793333947658539e-05 5.531048009288497269e-05
1.080000000000000000e+03 5.607983469963073730e-01 -2.619154739379882812e+01 2.941249404102563858e-04 -6.711003516102209687e-05 6.810446939198300242e-05 7.012884452706202865e-06
1.081000000000000000e+03 1.762038230895996094e+00 -2.193597793579101562e+01 2.431289030937477946e-04 -7.768349860270973295e-06 7.060817006276920438e-05 1.020632407744415104e-05
1.082000000000000000e+03 6.355584859848022461e-01 -1.915972709655761719e+01 -2.131063374690711498e-04 -2.822524265866377391e-06 -6.477865827037021518e-05 -1.537988828204106539e-05
1.083000000000000000e+03 6.585395336151123047e-01 -1.633218955993652344e+01 -1.681984285824000835e-04 -4.616029798398813000e-07 -5.059800969320349395e-05 -8.605316907051019371e-06
1.084000000000000000e+03 1.932543277740478516e+00 -1.486679935455322266e+01 -1.558815129101276398e-04 2.457253174270590534e-07 -4.669073314289562404e-05 -2.155270340153947473e-05
1.085000000000000000e+03 1.844017028808593750e+00 -1.208584308624267578e+01 -1.255415409104898572e-04 -5.115276053402340040e-06 -3.919704613508656621e-05 -1.707319097477011383e-05
1.086000000000000000e+03 5.968320965766906738e-01 -9.304406166076660156e+00 1.026721874950453639e-04 1.108446554098918568e-06 3.113419006695039570e-05 -3.526776737317049992e-08
1.087000000000000000e+03 2.513926982879638672e+00 -3.046360969543457031e+00 -1.731557313178200275e-05 4.742147211800329387e-06 -3.772027866943972185e-06 1.217181852553039789e-05
1.088000000000000000e+03 7.853844451904296875e+01 3.863804626464843750e+01 -4.607734456658363342e-02 8.426632881164550781e+00 2.514166593551635742e+00 -2.968775667250156403e-02
1.089000000000000000e+03 7.629262542724609375e+01 3.742647933959960938e+01 -2.279491722583770752e-01 7.541122913360595703e+00 2.193952083587646484e+00 2.783090770244598389e-01
1.090000000000000000e+03 7.949508666992187500e+01 3.468796920776367188e+01 -2.326172776520252228e-02 8.363180160522460938e+00 2.501975536346435547e+00 5.023607984185218811e-02
1.091000000000000000e+03 7.935289764404296875e+01 2.928724288940429688e+01 -2.850344870239496231e-03 7.089842319488525391e+00 2.126097679138183594e+00 1.720883846282958984e-01
1.092000000000000000e+03 7.801746368408203125e+01 2.794627189636230469e+01 3.833997994661331177e-02 6.944644451141357422e+00 2.094895362854003906e+00 4.173367917537689209e-01
1.093000000000000000e+03 7.806600952148437500e+01 2.518319511413574219e+01 8.465708792209625244e-02 6.595301628112792969e+00 2.003987550735473633e+00 2.822989225387573242e-01
1.094000000000000000e+03 7.934976959228515625e+01 1.943372535705566406e+01 -1.200791914016008377e-02 5.764682292938232422e+00 1.725802421569824219e+00 7.059015799313783646e-03
1.095000000000000000e+03 7.820143127441406250e+01 1.786210250854492188e+01 4.058165475726127625e-03 6.292083263397216797e+00 1.888842344284057617e+00 -2.122614346444606781e-02
1.096000000000000000e+03 7.812405395507812500e+01 1.385281944274902344e+01 -1.572843641042709351e-02 6.384883403778076172e+00 1.910746455192565918e+00 8.960877545177936554e-03
1.097000000000000000e+03 7.940700531005859375e+01 9.715451240539550781e+00 -9.821784682571887970e-03 5.630533695220947266e+00 1.686213612556457520e+00 4.422445967793464661e-02
1.098000000000000000e+03 7.824645996093750000e+01 8.276703834533691406e+00 5.505905952304601669e-03 6.137106895446777344e+00 1.842783808708190918e+00 1.265726983547210693e-01
1.099000000000000000e+03 7.817402648925781250e+01 4.148721218109130859e+00 8.286456018686294556e-02 6.073921203613281250e+00 1.847035765647888184e+00 -5.532606691122055054e-02
1.100000000000000000e+03 7.938479614257812500e+01 -1.690128445625305176e-02 1.252315845340490341e-02 5.846748352050781250e+00 1.757781505584716797e+00 -1.480325162410736084e-01
1.101000000000000000e+03 7.815718078613281250e+01 -6.300339102745056152e-02 6.661167740821838379e-02 6.402871608734130859e+00 1.940845012664794922e+00 -3.667901456356048584e-01
1.102000000000000000e+03 7.939564514160156250e+01 -6.954301357269287109e+00 3.073051339015364647e-03 7.744750022888183594e+00 2.324347019195556641e+00 -1.913652271032333374e-01
1.103000000000000000e+03 7.818593597412109375e+01 -8.314279556274414062e+00 -9.632839821279048920e-03 7.817310810089111328e+00 2.342303276062011719e+00 -4.488301277160644531e-01
1.104000000000000000e+03 7.799156188964843750e+01 -1.252275562286376953e+01 -1.869342662394046783e-02 8.448722839355468750e+00 2.529008626937866211e+00 -4.646582603454589844e-01
1.105000000000000000e+03 7.936814880371093750e+01 -1.678706741333007812e+01 -2.557728625833988190e-02 1.006227970123291016e+01 3.011010646820068359e+00 -1.227432861924171448e-01
1.106000000000000000e+03 7.811636352539062500e+01 -1.695100212097167969e+01 -1.181122288107872009e-01 9.167701721191406250e+00 2.714876651763916016e+00 -2.578667104244232178e-01
1.107000000000000000e+03 7.851406097412109375e+01 -2.226853942871093750e+01 -1.741962432861328125e-01 9.229149818420410156e+00 2.716485977172851562e+00 6.091664433479309082e-01
1.108000000000000000e+03 7.945828247070312500e+01 -2.641917419433593750e+01 1.149649694561958313e-01 7.007035255432128906e+00 2.136600017547607422e+00 2.000530064105987549e-01
1.109000000000000000e+03 7.952994537353515625e+01 -3.065854454040527344e+01 -2.794211171567440033e-02 8.513925552368164062e+00 2.545794963836669922e+00 -3.709952235221862793e-01
1.110000000000000000e+03 7.827353668212890625e+01 -3.328947067260742188e+01 -2.454725950956344604e-01 9.517219543457031250e+00 2.781524181365966797e+00 -5.476248860359191895e-01
1.111000000000000000e+03 7.936267852783203125e+01 -3.613407516479492188e+01 -3.746331483125686646e-02 1.051569652557373047e+01 3.143470048904418945e+00 -2.011553756892681122e-02
1.112000000000000000e+03 7.790473937988281250e+01 -3.713636398315429688e+01 -1.571080684661865234e-01 9.617786407470703125e+00 2.838203668594360352e+00 7.841231673955917358e-02
1.113000000000000000e+03 7.874150085449218750e+01 -4.013766098022460938e+01 -2.175448387861251831e-01 9.732638359069824219e+00 2.854527950286865234e+00 3.111984431743621826e-01
1.114000000000000000e+03 3.752039074897766113e-01 2.188841819763183594e+00 -5.140349821886047721e-05 -1.259506097994744778e-05 -1.919956775964237750e-05 6.479409080384357367e-07
1.115000000000000000e+03 4.835354685783386230e-01 4.961595535278320312e+00 -6.617309554712846875e-05 7.501076652260962874e-06 -1.760160557751078159e-05 5.759339273936348036e-06
1.116000000000000000e+03 1.666402697563171387e+00 6.191739559173583984e+00 -8.224861085182055831e-05 2.383914397796615958e-05 -1.752284151734784245e-05 1.283090205106418580e-05
1.117000000000000000e+03 1.875726461410522461e+00 9.163270950317382812e+00 -1.120229208027012646e-04 6.687738641630858183e-05 -1.354366122541250661e-05 -2.432049586786888540e-05
1.118000000000000000e+03 5.999680757522583008e-01 1.205520153045654297e+01 1.218077377416193485e-04 1.011908898362889886e-04 6.689958536298945546e-05 -2.173941902583464980e-05
1.119000000000000000e+03 1.812072515487670898e+00 1.335439014434814453e+01 1.295004185521975160e-04 1.319232105743139982e-04 7.842708873795345426e-05 -4.375280695967376232e-05
1.120000000000000000e+03 1.802992463111877441e+00 1.612169647216796875e+01 1.374752027913928032e-04 1.953015016624704003e-04 9.983301424654200673e-05 -5.368590427679009736e-05
1.121000000000000000e+03 1.785156846046447754e+00 1.885896682739257812e+01 1.504110696259886026e-04 2.681858022697269917e-04 1.255790557479485869e-04 -5.799018254037946463e-05
1.122000000000000000e+03 6.116737723350524902e-01 2.186472129821777344e+01 -1.193163261632435024e-04 3.966603544540703297e-04 8.320320193888619542e-05 -1.369387246086262167e-05
1.123000000000000000e+03 6.695295572280883789e-01 2.470512008666992188e+01 -8.789437561063095927e-05 5.105177406221628189e-04 1.267870102310553193e-04 -2.500360096746589988e-05
1.124000000000000000e+03 2.101854562759399414e+00 2.589798545837402344e+01 -1.062683659256435931e-04 4.980074008926749229e-04 1.175217039417475462e-04 -9.352454071631655097e-05
1.125000000000000000e+03 7.103329896926879883e-01 2.897313690185546875e+01 1.032680738717317581e-04 6.816156674176454544e-04 2.354651223868131638e-04 -4.644166983780451119e-05
1.126000000000000000e+03 2.106436729431152344e+00 3.023830223083496094e+01 1.165868234238587320e-04 6.450858782045543194e-04 2.285018126713111997e-04 -9.663626406108960509e-05
1.127000000000000000e+03 6.879816055297851562e-01 3.319143295288085938e+01 -1.455392339266836643e-04 8.413774776272475719e-04 2.087514876620844007e-04 -1.033836724673165008e-05
1.128000000000000000e+03 7.381582856178283691e-01 3.595873260498046875e+01 -1.348760852124541998e-04 8.725254447199404240e-04 2.212948020314797759e-04 2.395937735855113715e-05
1.129000000000000000e+03 3.644885063171386719e+00 3.661994934082031250e+01 -2.453401793900411576e-05 8.200385491363704205e-04 2.386513515375554562e-04 4.762806042890588287e-07
1.130000000000000000e+03 1.377087950706481934e+00 4.002235031127929688e+01 1.571448519825935364e-04 9.033075766637921333e-04 3.181357169523835182e-04 -3.338463648105971515e-05
1.131000000000000000e+03 1.080142498016357422e+01 1.719950795173645020e+00 3.178241968271322548e-05 2.715314803936053067e-05 1.768066977092530578e-05 -3.759366154554300010e-05
1.132000000000000000e+03 9.213019371032714844e+00 1.847490310668945312e+00 3.743883280549198389e-05 2.994207079609623179e-06 1.212991264765150845e-05 -5.108424011268652976e-05
1.133000000000000000e+03 8.475690841674804688e+00 1.839626431465148926e+00 7.542673847638070583e-05 2.930392838607076555e-05 3.141920024063438177e-05 -3.438299972913227975e-05
1.134000000000000000e+03 7.100653648376464844e+00 2.574605464935302734e+00 4.167834958934690803e-06 -1.145704845839645714e-05 -2.186764049838529900e-06 -2.064605905616190284e-05
1.135000000000000000e+03 4.106708049774169922e+00 1.917360663414001465e+00 3.695640407386235893e-05 2.586364098533522338e-05 1.884601442725397646e-05 -1.537343268864788115e-05
1.136000000000000000e+03 4.250338554382324219e+00 2.737365961074829102e+00 -2.107070213241968304e-05 -9.115479770116508007e-06 -9.055854206962976605e-06 -6.894434136484051123e-06
1.137000000000000000e+03 1.873044848442077637e+00 2.080048799514770508e+00 -4.579103915602900088e-06 -2.680073339433874935e-05 -9.413950465386733413e-06 2.020178544626105577e-05
1.138000000000000000e+03 1.125096797943115234e+00 2.142793893814086914e+00 1.813251401472371072e-05 2.647939982125535607e-05 1.338357469649054110e-05 -1.162361240858444944e-05
1.139000000000000000e+03 1.238243389129638672e+01 1.035315990447998047e+00 5.401740418164990842e-05 2.291820601385552436e-05 2.308068178535904735e-05 -2.954897900053765625e-05
1.140000000000000000e+03 1.315671539306640625e+01 6.991059780120849609e-01 1.183089989353902638e-04 1.562394209031481296e-05 4.017988248961046338e-05 -4.836239531869068742e-05
1.141000000000000000e+03 1.556050777435302734e+01 2.429193705320358276e-01 1.191575283883139491e-04 1.721127227938268334e-05 4.091063965461216867e-05 -3.661513983388431370e-05
1.142000000000000000e+03 1.599649429321289062e+01 -8.369486331939697266e-01 1.102667010854929686e-04 4.061092113261111081e-06 3.429833668633364141e-05 -3.004456448252312839e-05
1.143000000000000000e+03 1.851560592651367188e+01 -1.357213616371154785e+00 1.461851788917556405e-04 -1.111274195864098147e-05 4.052173244417645037e-05 -1.810847061278764158e-05
1.144000000000000000e+03 1.870354080200195312e+01 -2.681370973587036133e+00 7.855580042814835906e-05 -1.059406986314570531e-05 2.038851926045026630e-05 -3.951014150516130030e-05
1.145000000000000000e+03 1.931679916381835938e+01 -3.248902797698974609e+00 3.767436282942071557e-05 7.155728326324606314e-06 1.344902739219833165e-05 6.580563422176055610e-06
1.146000000000000000e+03 2.100828742980957031e+01 -3.902745962142944336e+00 6.057217251509428024e-05 -2.708589272515382618e-05 1.004588375508319587e-05 -4.629342583939433098e-05
1.147000000000000000e+03 2.155635070800781250e+01 -5.608923912048339844e+00 2.168059108953457326e-05 1.955826746780076064e-06 7.090925464581232518e-06 2.943571598734706640e-05
1.148000000000000000e+03 2.255809402465820312e+01 -6.863031864166259766e+00 1.587957194715272635e-05 -7.014263701421441510e-06 2.659592382769915275e-06 3.281156386947259307e-05
1.149000000000000000e+03 2.304726219177246094e+01 -7.498520851135253906e+00 -3.425275053814402781e-06 -1.076503485819557682e-05 -4.257093223714036867e-06 -2.736753776844125241e-05
1.150000000000000000e+03 2.475154304504394531e+01 -1.018001556396484375e+01 -1.374470411974471062e-05 -1.309632239099300932e-06 -4.516301032708724961e-06 -7.518995971622643992e-06
1.151000000000000000e+03 2.581152343750000000e+01 -1.219679450988769531e+01 1.319567559221468400e-06 -1.341568258794723079e-05 -3.628834519986412488e-06 2.235424835816957057e-05
1.152000000000000000e+03 2.615023612976074219e+01 -1.286759853363037109e+01 -8.450011591776274145e-06 1.621896558390290011e-06 -2.048434453172376379e-06 -8.686993169249035418e-06
1.153000000000000000e+03 2.680297279357910156e+01 -1.423585605621337891e+01 3.570822400433826260e-06 -1.148914088844321668e-05 -2.375495569140184671e-06 -1.511505587359351921e-07
1.154000000000000000e+03 2.711932373046875000e+01 -1.494109630584716797e+01 -1.289626470679650083e-05 2.213058678535162471e-06 -3.204961785741033964e-06 1.202565363200847059e-05
1.155000000000000000e+03 3.038764953613281250e+01 -1.733475685119628906e+01 -1.507319848315091804e-05 -5.176921604288509116e-06 -6.075035798858152702e-06 -5.433955266198609024e-06
1.156000000000000000e+03 3.207055664062500000e+01 -1.655039405822753906e+01 -1.703371162875555456e-05 2.331867290195077658e-05 1.885488245534361340e-06 -1.214254371006973088e-05
1.157000000000000000e+03 3.541481018066406250e+01 -1.800191307067871094e+01 -1.002397493721218780e-05 2.292870522069279104e-05 3.871418812195770442e-06 2.098990989907179028e-06
1.158000000000000000e+03 3.788883590698242188e+01 -1.832980918884277344e+01 -3.653709882200928405e-06 6.539589958265423775e-05 1.852265813795384020e-05 -2.424453123239800334e-05
1.159000000000000000e+03 4.249835968017578125e+01 -1.982422065734863281e+01 -2.516067797841969877e-05 -1.481842537032207474e-05 -1.199373127747094259e-05 -1.599862116563599557e-05
1.160000000000000000e+03 4.467901229858398438e+01 -1.912815284729003906e+01 7.781795829941984266e-06 1.194628111989004537e-05 5.918423084949608892e-06 1.337276785307039972e-06
1.161000000000000000e+03 4.543937301635742188e+01 -1.890875434875488281e+01 -1.016694386635208502e-05 -1.011262065730988979e-05 -6.083869266149122268e-06 -3.518342282404773869e-06
1.162000000000000000e+03 4.849211502075195312e+01 -1.828814697265625000e+01 -1.247807904292130843e-05 -5.432993020804133266e-06 -5.373321528168162331e-06 2.625576023262965464e-08
1.163000000000000000e+03 4.923186874389648438e+01 -1.816641426086425781e+01 9.311457688454538584e-06 8.235137102019507438e-06 5.263978437142213807e-06 -1.310774280227633426e-07
1.164000000000000000e+03 5.067525482177734375e+01 -1.784180831909179688e+01 2.203800613642670214e-05 1.778107503014325630e-06 7.144834398786770180e-06 -3.506374923745170236e-06
1.165000000000000000e+03 5.212099838256835938e+01 -1.757319259643554688e+01 5.467584742291364819e-06 1.781878017936833203e-05 6.985909749346319586e-06 -1.458978749724337831e-05
1.166000000000000000e+03 5.238540267944335938e+01 -1.540307998657226562e+01 2.234681778645608574e-05 7.385748176602646708e-06 8.919769243220798671e-06 3.413431841181591153e-05
1.167000000000000000e+03 5.521067428588867188e+01 -1.680971145629882812e+01 5.412951941252686083e-05 -3.951374310418032110e-06 1.505344334873370826e-05 1.966233321581967175e-05
1.168000000000000000e+03 5.625132751464843750e+01 -1.654991340637207031e+01 9.527479051030240953e-06 4.669405097956769168e-05 1.686645919107832015e-05 2.358841811656020582e-05
1.169000000000000000e+03 5.711890411376953125e+01 -1.648641014099121094e+01 -5.744639565818943083e-05 -6.980306352488696575e-05 -3.817483957391232252e-05 -3.173984077875502408e-05
1.170000000000000000e+03 5.838987350463867188e+01 -1.602209472656250000e+01 4.221536437398754060e-05 -9.167726602754555643e-06 9.914291695167776197e-06 8.135109055729117244e-06
1.171000000000000000e+03 5.012293243408203125e+01 -7.474006175994873047e+00 1.303622266277670860e-04 1.541116398584563285e-05 4.373201954877004027e-05 5.258313467493280768e-05
1.172000000000000000e+03 4.970650863647460938e+01 -6.157111644744873047e+00 -1.420522603439167142e-04 -3.962952177971601486e-05 -5.450453318189829588e-05 -5.808350397273898125e-05
1.173000000000000000e+03 4.884568023681640625e+01 -3.534200906753540039e+00 -1.697717525530606508e-04 -5.811387018184177577e-05 -6.836568354628980160e-05 -7.611288310727104545e-05
1.174000000000000000e+03 4.837082672119140625e+01 -2.248631954193115234e+00 1.777016732376068830e-04 3.803831350523978472e-05 6.472200038842856884e-05 9.713194594951346517e-05
1.175000000000000000e+03 4.523165893554687500e+01 -9.715456962585449219e-01 1.251142093678936362e-04 7.226476009236648679e-05 5.921368938288651407e-05 6.213206506799906492e-05
1.176000000000000000e+03 4.665229034423828125e+01 1.484254598617553711e+00 -2.023283450398594141e-04 -1.330014056293293834e-04 -1.005989252007566392e-04 -1.237546821357682347e-04
1.177000000000000000e+03 4.533797836303710938e+01 3.900399208068847656e+00 -2.245011419290676713e-04 -1.943382958415895700e-04 -1.256518298760056496e-04 -1.616298250155523419e-04
1.178000000000000000e+03 4.308207702636718750e+01 7.520474910736083984e+00 3.609262639656662941e-04 7.157232175813987851e-05 1.297495764447376132e-04 3.046716738026589155e-04
1.179000000000000000e+03 4.249180984497070312e+01 8.938300132751464844e+00 -5.155788385309278965e-04 -5.528009205590933561e-05 -1.712576922727748752e-04 -1.710261713014915586e-04
1.180000000000000000e+03 4.238020324707031250e+01 1.623740768432617188e+01 1.212735543958842754e-03 6.605631788261234760e-04 5.619896110147237778e-04 1.170880714198574424e-04
1.181000000000000000e+03 4.385566329956054688e+01 2.179819297790527344e+01 2.167523372918367386e-03 2.072635106742382050e-03 1.272047520615160465e-03 4.096200573258101940e-04
1.182000000000000000e+03 4.725205612182617188e+01 2.810228538513183594e+01 1.688360120169818401e-03 3.534207120537757874e-03 1.566770137287676334e-03 5.316053517162799835e-03
1.183000000000000000e+03 5.000782394409179688e+01 3.135126686096191406e+01 1.010413188487291336e-02 7.548428606241941452e-03 5.295768380165100098e-03 3.211244475096464157e-03
1.184000000000000000e+03 5.335432815551757812e+01 3.438141250610351562e+01 -3.422297164797782898e-02 -8.956923149526119232e-03 -1.295396871864795685e-02 1.955338567495346069e-02
1.185000000000000000e+03 5.620740890502929688e+01 3.549032974243164062e+01 -2.017443776130676270e-01 -7.687879726290702820e-03 -6.282968074083328247e-02 1.414724439382553101e-02
1.186000000000000000e+03 6.041152954101562500e+01 3.609297180175781250e+01 -5.867369174957275391e-01 -1.050574481487274170e-01 -2.075383067131042480e-01 2.000320553779602051e-01
1.187000000000000000e+03 6.340428924560546875e+01 3.502795410156250000e+01 -7.643711566925048828e-01 -1.500933170318603516e-01 -2.743393480777740479e-01 2.400357574224472046e-01
1.188000000000000000e+03 7.000250244140625000e+01 2.134345436096191406e+01 1.140299066901206970e-02 1.021519947052001953e+01 3.067980766296386719e+00 -4.337969049811363220e-02
1.189000000000000000e+03 7.059355926513671875e+01 1.370880985260009766e+01 1.553583592176437378e-01 9.760173797607421875e+00 2.974659681320190430e+00 1.611224710941314697e-01
1.190000000000000000e+03 7.002620697021484375e+01 8.657286643981933594e+00 2.162251323461532593e-01 1.031754970550537109e+01 3.160132408142089844e+00 -1.070989012718200684e+00
1.191000000000000000e+03 7.017335510253906250e+01 7.273959636688232422e+00 3.320587575435638428e-01 1.176546478271484375e+01 3.629256963729858398e+00 -7.534544467926025391e-01
1.192000000000000000e+03 7.137822723388671875e+01 4.295527935028076172e+00 2.200220823287963867e-01 1.072735500335693359e+01 3.284213066101074219e+00 6.650685518980026245e-02
1.193000000000000000e+03 7.011920928955078125e+01 1.644096255302429199e+00 4.481863081455230713e-01 1.217652034759521484e+01 3.787411928176879883e+00 9.459775686264038086e-01
1.194000000000000000e+03 7.148332214355468750e+01 -3.229367017745971680e+00 1.381071954965591431e-01 7.694635391235351562e+00 2.349822759628295898e+00 2.357050180435180664e-01
1.195000000000000000e+03 6.819782257080078125e+01 -5.166132926940917969e+00 6.207877397537231445e-01 5.170267105102539062e+00 1.737316489219665527e+00 1.649211645126342773e+00
1.196000000000000000e+03 6.648099517822265625e+01 -9.064044952392578125e+00 5.834364891052246094e-01 2.672351598739624023e+00 9.767364859580993652e-01 1.129947185516357422e+00
1.197000000000000000e+03 6.629105377197265625e+01 -1.281752395629882812e+01 7.823139429092407227e-01 2.133872032165527344e+00 8.748558163642883301e-01 8.449113368988037109e-01
1.198000000000000000e+03 6.418139648437500000e+01 -1.585687065124511719e+01 8.312628269195556641e-01 1.155928611755371094e+00 5.961574316024780273e-01 1.037051677703857422e+00
1.199000000000000000e+03 6.261101913452148438e+01 -1.681875228881835938e+01 7.837451696395874023e-01 1.243346333503723145e+00 6.081274747848510742e-01 1.012937068939208984e+00
1.200000000000000000e+03 6.313813400268554688e+01 -1.786239242553710938e+01 2.289842516183853149e-01 1.183131814002990723e+00 4.236347973346710205e-01 9.781928658485412598e-01
1.201000000000000000e+03 6.223215484619140625e+01 -1.759163475036621094e+01 3.130037784576416016e-01 1.425414085388183594e+00 5.215253829956054688e-01 9.334751963615417480e-01
1.202000000000000000e+03 6.213462829589843750e+01 -1.900738143920898438e+01 -4.150513112545013428e-01 1.446315169334411621e+00 3.093791604042053223e-01 1.028766632080078125e+00
1.203000000000000000e+03 5.835834121704101562e+01 -2.004473876953125000e+01 -1.072960495948791504e+00 1.070330262184143066e+00 -7.890551933087408543e-04 8.363503813743591309e-01
1.204000000000000000e+03 5.917313385009765625e+01 -1.967533874511718750e+01 -8.822144269943237305e-01 1.262000679969787598e+00 1.139358505606651306e-01 9.910895824432373047e-01
1.205000000000000000e+03 5.779070663452148438e+01 -2.116284561157226562e+01 -9.369481205940246582e-01 1.210615038871765137e+00 8.210007101297378540e-02 8.659675121307373047e-01
1.206000000000000000e+03 5.670135498046875000e+01 -2.047101020812988281e+01 -1.324451923370361328e+00 6.120081543922424316e-01 -2.137331217527389526e-01 3.984172642230987549e-01
1.207000000000000000e+03 5.512418746948242188e+01 -2.082273101806640625e+01 -1.493479371070861816e+00 3.080765306949615479e-01 -3.556208312511444092e-01 -3.710406646132469177e-02
1.208000000000000000e+03 5.287916946411132812e+01 -2.129698371887207031e+01 -1.472909092903137207e+00 3.295027650892734528e-03 -4.408842325210571289e-01 -4.707676172256469727e-01
1.209000000000000000e+03 5.383256530761718750e+01 -2.192152023315429688e+01 -1.010655999183654785e+00 2.623044252395629883e-01 -2.245054692029953003e-01 -2.430737614631652832e-01
1.210000000000000000e+03 5.138271713256835938e+01 -2.157610130310058594e+01 -1.317589998245239258e+00 -1.141085997223854065e-01 -4.295096099376678467e-01 -6.118330955505371094e-01
1.211000000000000000e+03 4.704222106933593750e+01 -2.238434600830078125e+01 -6.389366388320922852e-01 -2.402740865945816040e-01 -2.637632191181182861e-01 -6.138210296630859375e-01
1.212000000000000000e+03 4.566708374023437500e+01 -2.273744392395019531e+01 -4.027794301509857178e-01 -2.638567388057708740e-01 -1.999908536672592163e-01 -5.419034361839294434e-01
1.213000000000000000e+03 4.498759078979492188e+01 -2.293129920959472656e+01 -2.998211979866027832e-01 -2.532107830047607422e-01 -1.659096032381057739e-01 -4.915060102939605713e-01
1.214000000000000000e+03 4.355007171630859375e+01 -2.343557167053222656e+01 -1.233343929052352905e-01 -2.970987260341644287e-01 -1.261299401521682739e-01 -3.530734777450561523e-01
1.215000000000000000e+03 5.849034881591796875e+01 -2.548284530639648438e+01 2.029273271560668945e+00 2.314246416091918945e+00 1.303055882453918457e+00 1.996295332908630371e+00
1.216000000000000000e+03 7.267834472656250000e+01 -2.902025222778320312e+01 6.936696171760559082e-01 7.027737617492675781e+00 2.316422224044799805e+00 3.139080524444580078e+00
1.217000000000000000e+03 7.418743133544921875e+01 -2.543798446655273438e+01 -2.229597866535186768e-01 1.163539028167724609e+01 3.423729181289672852e+00 1.590988785028457642e-01
1.218000000000000000e+03 7.366665649414062500e+01 -2.896083641052246094e+01 -3.410851657390594482e-01 1.212598037719726562e+01 3.535468578338623047e+00 8.735086917877197266e-01
1.219000000000000000e+03 7.358815765380859375e+01 -2.924231147766113281e+01 -4.500166773796081543e-01 1.117978191375732422e+01 3.218929529190063477e+00 1.129660844802856445e+00
1.220000000000000000e+03 7.477577209472656250e+01 -2.794669532775878906e+01 3.972746372222900391e+00 1.124256801605224609e+01 4.564594268798828125e+00 -1.444742560386657715e+00
1.221000000000000000e+03 7.463793945312500000e+01 -2.838431549072265625e+01 2.333418369293212891e+00 1.183337879180908203e+01 4.250039100646972656e+00 -1.707107901573181152e+00
1.222000000000000000e+03 7.470677185058593750e+01 -2.815144729614257812e+01 3.344582080841064453e+00 1.158043193817138672e+01 4.477504253387451172e+00 -1.720316171646118164e+00
1.223000000000000000e+03 7.429318237304687500e+01 -2.872660827636718750e+01 9.020180106163024902e-01 1.242271709442138672e+01 3.997420310974121094e+00 -1.126639366149902344e+00
1.224000000000000000e+03 7.486943054199218750e+01 -2.754124069213867188e+01 4.669643878936767578e+00 1.067602825164794922e+01 4.603701591491699219e+00 -5.464268922805786133e-01
1.225000000000000000e+03 7.490749359130859375e+01 -2.733197975158691406e+01 4.591535091400146484e+00 1.061580657958984375e+01 4.562202453613281250e+00 -1.122725568711757660e-02
1.226000000000000000e+03 7.481510925292968750e+01 -2.662515830993652344e+01 3.365339279174804688e+00 1.124121189117431641e+01 4.381965160369873047e+00 1.399624466896057129e+00
1.227000000000000000e+03 7.360887145996093750e+01 -2.569013977050781250e+01 -3.295304775238037109e-01 1.188720321655273438e+01 3.467301845550537109e+00 -1.336832284927368164e+00
1.228000000000000000e+03 7.455494689941406250e+01 -2.623320007324218750e+01 1.993685722351074219e+00 1.210565567016601562e+01 4.229802608489990234e+00 1.513727068901062012e+00
1.229000000000000000e+03 7.288625335693359375e+01 -2.900659942626953125e+01 3.272630870342254639e-01 8.569097518920898438e+00 2.668908119201660156e+00 3.061896562576293945e+00
1.230000000000000000e+03 7.326568603515625000e+01 -2.899423217773437500e+01 -1.438314020633697510e-01 1.058557796478271484e+01 3.132524013519287109e+00 2.180670738220214844e+00
1.231000000000000000e+03 7.146593475341796875e+01 -2.900795364379882812e+01 1.042218565940856934e+00 1.662427425384521484e+00 8.113937973976135254e-01 1.523629665374755859e+00
1.232000000000000000e+03 7.185718536376953125e+01 -2.893251609802246094e+01 1.173774242401123047e+00 2.768200397491455078e+00 1.182592391967773438e+00 2.148005247116088867e+00
1.233000000000000000e+03 7.200834655761718750e+01 -2.923468971252441406e+01 7.596766352653503418e-01 3.872836112976074219e+00 1.389753818511962891e+00 2.334559440612792969e+00
1.234000000000000000e+03 7.246353912353515625e+01 -2.901147460937500000e+01 8.705586791038513184e-01 5.899940967559814453e+00 2.031149864196777344e+00 2.993458509445190430e+00
1.235000000000000000e+03 7.225193786621093750e+01 -2.898114585876464844e+01 1.028788447380065918e+00 4.779186248779296875e+00 1.742392301559448242e+00 2.696617126464843750e+00
1.236000000000000000e+03 7.307731628417968750e+01 -2.898019790649414062e+01 9.588892012834548950e-02 9.689810752868652344e+00 2.935709953308105469e+00 2.719135522842407227e+00
1.237000000000000000e+03 4.077725219726562500e+01 -2.000190353393554688e+01 3.975200161221437156e-05 -1.727933636175293941e-06 1.140721997217042372e-05 1.433240231563104317e-05
1.238000000000000000e+03 4.015308380126953125e+01 -2.008054351806640625e+01 1.284173868043581024e-05 5.461229011416435242e-05 2.023620800173375756e-05 9.453149687033146620e-06
1.239000000000000000e+03 7.129707336425781250e+01 -2.519069290161132812e+01 3.954577147960662842e-01 3.023536205291748047e+00 1.025698184967041016e+00 -8.544660806655883789e-01
1.240000000000000000e+03 7.180593872070312500e+01 -2.544520759582519531e+01 6.590014100074768066e-01 3.400208234786987305e+00 1.217762947082519531e+00 -1.901504397392272949e+00
1.241000000000000000e+03 7.249188995361328125e+01 -2.443917465209960938e+01 5.718803778290748596e-02 6.526372432708740234e+00 1.975068092346191406e+00 -2.058833837509155273e+00
1.242000000000000000e+03 7.234441375732421875e+01 -2.547718429565429688e+01 5.779963731765747070e-01 5.819960117340087891e+00 1.919386982917785645e+00 -3.003499746322631836e+00
1.243000000000000000e+03 7.201740264892578125e+01 -2.558133316040039062e+01 8.438141942024230957e-01 4.056255817413330078e+00 1.470021009445190430e+00 -2.460344791412353516e+00
1.244000000000000000e+03 7.082355499267578125e+01 -3.035315704345703125e+01 2.928462922573089600e-01 1.857951760292053223e+00 6.452394127845764160e-01 9.812600016593933105e-01
1.245000000000000000e+03 2.929486083984375000e+01 -1.687740516662597656e+01 -1.129334395955083892e-05 8.174140020855702460e-06 -9.357611361338058487e-07 1.144360339822014794e-05
1.246000000000000000e+03 4.318667221069335938e+01 -1.958118629455566406e+01 1.545767372590489686e-05 1.358343615720514208e-05 8.712333510629832745e-06 7.114519576134625822e-06
1.247000000000000000e+03 4.186864089965820312e+01 -2.008081054687500000e+01 2.735183807089924812e-05 1.056561814039014280e-05 1.137523668148787692e-05 1.676459214650094509e-05
1.248000000000000000e+03 4.233588027954101562e+01 -1.911491203308105469e+01 2.511269303795415908e-05 1.268243886443087831e-05 1.133853947976604104e-05 9.119895366893615574e-06
1.249000000000000000e+03 4.171895599365234375e+01 -1.940001869201660156e+01 -2.878647683246526867e-05 -1.463469016016460955e-05 -1.302634973399108276e-05 -1.268943742616102099e-05
1.250000000000000000e+03 1.579622936248779297e+01 -7.026035308837890625e+00 3.144531729049049318e-05 7.285092578968033195e-06 1.161912223324179649e-05 -1.974555743800010532e-05
1.251000000000000000e+03 1.628427696228027344e+01 -5.604561805725097656e+00 -1.828385575208812952e-05 -6.496775768027873710e-06 -7.434189683408476412e-06 3.572048399291816168e-06
1.252000000000000000e+03 1.405547523498535156e+01 -3.994957447052001953e+00 -1.263865033251931891e-05 -2.168618993891868740e-05 -1.029745180858299136e-05 -1.323874414538295241e-07
1.253000000000000000e+03 1.421595287322998047e+01 -4.922757148742675781e+00 -1.674002669460605830e-05 -2.021284308284521103e-05 -1.108586093323538080e-05 5.305562808644026518e-06
1.254000000000000000e+03 1.487740898132324219e+01 -6.200294971466064453e+00 2.306628630321938545e-05 1.183552922157105058e-05 1.047054502123501152e-05 -8.097861609712708741e-06
1.255000000000000000e+03 1.723514747619628906e+01 -7.480667114257812500e+00 -3.553560236468911171e-05 7.988274774106685072e-06 -8.264198186225257814e-06 5.311823770171031356e-06
1.256000000000000000e+03 1.767589569091796875e+01 -8.022005081176757812e+00 3.423791713430546224e-05 -8.205608537537045777e-06 7.809692760929465294e-06 1.065592300619755406e-06
1.257000000000000000e+03 1.810327148437500000e+01 -8.615192413330078125e+00 -3.411212310311384499e-05 7.237235308821254876e-07 -1.001651889964705333e-05 -2.492912472007446922e-06
1.258000000000000000e+03 1.861726379394531250e+01 -1.041299057006835938e+01 -1.453627919545397162e-05 -2.045008477580267936e-05 -1.049590900947805494e-05 1.131210751736944076e-06
1.259000000000000000e+03 1.891786766052246094e+01 -1.226241874694824219e+01 3.604181983973830938e-05 3.742818080354481936e-06 1.193539083033101633e-05 8.826737939671147615e-06
1.260000000000000000e+03 1.859881591796875000e+01 -9.080679893493652344e+00 3.600337731768377125e-05 1.918694579217117280e-06 1.137662093242397532e-05 1.931537735799793154e-05
1.261000000000000000e+03 1.902557563781738281e+01 -9.503321647644042969e+00 -1.291619537369115278e-05 -1.137893741542939097e-05 -7.288540018635103479e-06 -1.406007413606857881e-05
1.262000000000000000e+03 2.018338203430175781e+01 -1.170661067962646484e+01 -1.627281744731590152e-05 8.415417141804937273e-06 -2.357219955229084007e-06 1.793488809198606759e-05
1.263000000000000000e+03 4.656570053100585938e+01 -2.324029731750488281e+01 -3.884350359439849854e-01 -3.032516241073608398e-01 -2.075060009956359863e-01 -6.621248722076416016e-01
1.264000000000000000e+03 4.525483322143554688e+01 -2.358839225769042969e+01 -2.335087954998016357e-01 -3.474301397800445557e-01 -1.742816716432571411e-01 -5.809094905853271484e-01
1.265000000000000000e+03 4.723410797119140625e+01 -2.307312583923339844e+01 -4.692340493202209473e-01 -2.423817366361618042e-01 -2.134847342967987061e-01 -6.830084919929504395e-01
1.266000000000000000e+03 2.207659149169921875e+01 -1.385562229156494141e+01 -5.415830401034327224e-06 -3.498787555145099759e-05 -1.212111146742245182e-05 6.191813099576393142e-06
1.267000000000000000e+03 1.991662788391113281e+01 -1.336982250213623047e+01 -8.857085049385204911e-06 -1.555957169330213219e-05 -7.324997113755671307e-06 -2.970433342852629721e-06
1.268000000000000000e+03 4.774992370605468750e+01 -2.223637008666992188e+01 -7.614308595657348633e-01 -1.946050375699996948e-01 -2.868107855319976807e-01 -6.455408930778503418e-01
1.269000000000000000e+03 4.873611831665039062e+01 -2.344248199462890625e+01 -4.026633799076080322e-01 -2.331119775772094727e-01 -1.907326132059097290e-01 -7.234192490577697754e-01
1.270000000000000000e+03 5.077977752685546875e+01 -2.247495651245117188e+01 -8.156030178070068359e-01 -1.165422499179840088e-01 -2.796435654163360596e-01 -6.516988873481750488e-01
1.271000000000000000e+03 4.990824127197265625e+01 -2.183288955688476562e+01 -1.117998003959655762e+00 -1.834376007318496704e-01 -3.904306888580322266e-01 -6.592705249786376953e-01
1.272000000000000000e+03 5.313980102539062500e+01 -1.607678413391113281e+01 -4.741469820146448910e-05 -2.544751623645424843e-05 -2.185866469517350197e-05 -6.552961053785111289e-07
1.273000000000000000e+03 5.131745147705078125e+01 -1.603952407836914062e+01 -3.695598934427835047e-05 6.840293281129561365e-06 -9.034708455146756023e-06 2.876353028113953769e-05
1.274000000000000000e+03 5.378642654418945312e+01 -1.526591491699218750e+01 2.684357241378165781e-05 4.016360617242753506e-05 2.010215393966063857e-05 1.917519875860307366e-05
1.275000000000000000e+03 9.209090232849121094e+00 2.529232978820800781e+00 7.927460683276876807e-05 3.685821138788014650e-05 3.483984619379043579e-05 -3.706797724589705467e-05
1.276000000000000000e+03 9.987579345703125000e+00 1.878749251365661621e+00 1.019190312945283949e-04 2.633974145282991230e-05 3.847763218800537288e-05 -2.029125425906386226e-05
1.277000000000000000e+03 4.972272396087646484e+00 2.685896873474121094e+00 6.421982106985524297e-05 2.730585219978820533e-05 2.745770143519621342e-05 -2.824980947480071336e-05
1.278000000000000000e+03 6.296627998352050781e+00 1.864702343940734863e+00 -2.099621269735507667e-06 -1.510214224254013970e-05 -5.160528871783753857e-06 -9.923112884280271828e-06
1.279000000000000000e+03 2.001110315322875977e+00 3.227447271347045898e+00 1.096282903745304793e-05 3.373216168256476521e-05 1.340849757980322465e-05 -2.698853859328664839e-05
1.280000000000000000e+03 2.620383501052856445e+00 2.013874053955078125e+00 1.422805416950723156e-05 3.122416819678619504e-05 1.363566661893855780e-05 -1.556230927235446870e-05
1.281000000000000000e+03 4.840396404266357422e+00 1.893433332443237305e+00 -1.420272019458934665e-05 -1.469637481932295486e-05 -8.669728231325279921e-06 -5.911649168410804123e-06
1.282000000000000000e+03 7.747572898864746094e+00 1.843729496002197266e+00 2.066857814497780055e-05 -1.170534596894867718e-05 2.688969971131882630e-06 -2.370591028011403978e-05
1.283000000000000000e+03 8.550195693969726562e+00 3.192922115325927734e+00 8.877318032318726182e-05 3.445939728408120573e-05 3.696977364597842097e-05 -4.011172495665960014e-05
1.284000000000000000e+03 2.294616460800170898e+00 4.343340873718261719e+00 7.772454409860074520e-06 5.989333658362738788e-06 4.128536602365784347e-06 1.337711910309735686e-05
1.285000000000000000e+03 2.717174530029296875e+01 -1.121213054656982422e+01 -1.410296863468829542e-05 4.785359806191991083e-07 -4.087330125912558287e-06 2.430398308206349611e-05
1.286000000000000000e+03 2.758282661437988281e+01 -1.381016731262207031e+01 -1.042141229845583439e-05 4.550441644823877141e-06 -1.761291173352219630e-06 1.608808997843880206e-05
1.287000000000000000e+03 2.689767456054687500e+01 -1.238560390472412109e+01 -4.187788363196887076e-06 -7.438956345140468329e-06 -3.488023367026471533e-06 2.557700463512446731e-05
1.288000000000000000e+03 2.612514305114746094e+01 -1.106535816192626953e+01 -1.107215098272718024e-06 -6.132058388175209984e-06 -2.171782170989899896e-06 2.108093030983582139e-05
1.289000000000000000e+03 2.512795448303222656e+01 -1.085443401336669922e+01 3.643053105406579562e-06 -1.180109666165662929e-05 -2.447413180561852641e-06 1.754494951455853879e-05
1.290000000000000000e+03 2.495243835449218750e+01 -9.060311317443847656e+00 -1.312759104621363804e-05 4.303174137021414936e-06 -2.647324890858726576e-06 -1.808601336961146444e-05
1.291000000000000000e+03 2.788220405578613281e+01 -1.455985355377197266e+01 4.288521267881151289e-06 -1.126697770814644173e-05 -2.093536750180646777e-06 -4.822810296900570393e-06
1.292000000000000000e+03 5.064337921142578125e+01 -2.170609855651855469e+01 -1.219993114471435547e+00 -1.198780536651611328e-01 -4.019613564014434814e-01 -6.547573804855346680e-01
1.293000000000000000e+03 5.004459762573242188e+01 -2.257429885864257812e+01 -7.614207863807678223e-01 -1.277529299259185791e-01 -2.667521238327026367e-01 -6.940101981163024902e-01
1.294000000000000000e+03 5.051981735229492188e+01 -1.699374008178710938e+01 -3.849753920803777874e-05 -2.840114575519692153e-06 -1.240129586221883073e-05 -2.612362095533171669e-07
1.295000000000000000e+03 4.980874252319335938e+01 -1.726442337036132812e+01 1.520961268397513777e-05 1.943621282407548279e-05 1.039374819811200723e-05 9.232257070834748447e-06
1.296000000000000000e+03 5.196723937988281250e+01 -1.684373283386230469e+01 -4.099910256627481431e-06 -2.356520781177096069e-05 -8.299534783873241395e-06 2.705513543332926929e-05
1.297000000000000000e+03 4.917977142333984375e+01 -1.747999954223632812e+01 -1.337391950073651969e-05 -1.178266848000930622e-05 -7.546976576122688130e-06 4.026622264063917100e-06
1.298000000000000000e+03 5.437446975708007812e+01 -2.098074722290039062e+01 -1.509523868560791016e+00 1.547529399394989014e-01 -4.064312875270843506e-01 -2.267407476902008057e-01
1.299000000000000000e+03 5.243607711791992188e+01 -2.303974151611328125e+01 -4.825015366077423096e-01 2.464949786663055420e-01 -7.080196589231491089e-02 -4.672526717185974121e-01
1.300000000000000000e+03 5.455860519409179688e+01 -2.172146987915039062e+01 -1.047353982925415039e+00 4.399979412555694580e-01 -1.822068095207214355e-01 -9.028930217027664185e-02
1.301000000000000000e+03 5.306663131713867188e+01 -2.208902359008789062e+01 -9.469848275184631348e-01 2.055697441101074219e-01 -2.224245369434356689e-01 -4.027093350887298584e-01
1.302000000000000000e+03 4.847667312622070312e+01 -1.751905822753906250e+01 1.952050479303579777e-05 5.697892902389867231e-06 7.565518899355083704e-06 -1.396195216329942923e-06
1.303000000000000000e+03 4.690032958984375000e+01 -1.771327400207519531e+01 1.522659022157313302e-05 1.267002062377287075e-05 8.368982889805920422e-06 6.731875600962666795e-06
1.304000000000000000e+03 4.770317459106445312e+01 -1.758473205566406250e+01 -2.144262543879449368e-05 -8.960272680269554257e-06 -9.120869435719214380e-06 -6.124125775386346504e-06
1.305000000000000000e+03 4.609059524536132812e+01 -1.790967559814453125e+01 -1.236826483363984153e-05 -1.729600444377865642e-05 -8.899281056073959917e-06 -7.499118510168045759e-06
1.306000000000000000e+03 4.375112533569335938e+01 -1.860298156738281250e+01 1.580787102284375578e-05 1.563901605550199747e-05 9.434065759705845267e-06 9.349492984256357886e-07
1.307000000000000000e+03 4.301802825927734375e+01 -1.885030174255371094e+01 -2.673697417776565999e-05 -1.280307333217933774e-05 -1.186201461678138003e-05 -5.297608367982320487e-06
1.308000000000000000e+03 2.434196281433105469e+01 -9.504090309143066406e+00 9.531504474580287933e-06 -1.586809958098456264e-05 -1.900978759294957854e-06 2.416852476017083973e-05
1.309000000000000000e+03 2.453636550903320312e+01 -8.386955261230468750e+00 1.411794528394239023e-05 -1.561449062137398869e-05 -4.489634761739580426e-07 3.090694735874421895e-05
1.310000000000000000e+03 2.409897422790527344e+01 -7.713552474975585938e+00 -1.704504597910272423e-06 -2.588988309071282856e-06 -1.288047883463150356e-06 -2.861935536202508956e-05
1.311000000000000000e+03 2.263310050964355469e+01 -5.758720874786376953e+00 1.690520730335265398e-05 -5.192598564462969080e-06 3.513782530717435293e-06 3.586456659832037985e-05
1.312000000000000000e+03 2.045726203918457031e+01 -4.424799919128417969e+00 2.661111648194491863e-05 5.940040409768698737e-06 9.765347385837230831e-06 2.315522760909516364e-05
1.313000000000000000e+03 2.314199638366699219e+01 -6.395742416381835938e+00 1.535181218059733510e-05 -1.046140914695570245e-05 1.467120682718814351e-06 -3.753268538275733590e-05
1.314000000000000000e+03 1.485945796966552734e+01 6.366792321205139160e-01 5.391418380895629525e-05 6.638698124561415170e-08 1.619417162146419287e-05 -2.178603426727931947e-05
1.315000000000000000e+03 1.414612007141113281e+01 1.019204974174499512e+00 1.247742766281589866e-04 1.927479934238363057e-05 4.321472442825324833e-05 -4.890134732704609632e-05
1.316000000000000000e+03 1.460015392303466797e+01 -4.745924100279808044e-02 1.129192824009805918e-04 1.261837132915388793e-05 3.766129884752444923e-05 -4.235448795952834189e-05
1.317000000000000000e+03 1.529715633392333984e+01 -4.392910301685333252e-01 5.847737702424637973e-05 1.255607367056654766e-05 2.131003566319122910e-05 -2.759258677542675287e-05
1.318000000000000000e+03 2.044822311401367188e+01 -3.285693168640136719e+00 2.550605131546035409e-05 8.304685252369381487e-06 1.014322060655103996e-05 2.454693640174809843e-05
1.319000000000000000e+03 2.104307365417480469e+01 -2.752381801605224609e+00 8.644563058624044061e-05 -3.499631930026225746e-05 1.543479265819769353e-05 -5.769366180174984038e-05
1.320000000000000000e+03 1.926165390014648438e+01 -1.922861218452453613e+00 2.858273728634230793e-05 5.815632562189421151e-07 8.749290827836375684e-06 4.180933046882273629e-06
1.321000000000000000e+03 1.772069931030273438e+01 -9.571998715400695801e-01 2.800802576530259103e-05 -1.149151012214133516e-05 4.954954874847317114e-06 -3.154606019961647689e-05
1.322000000000000000e+03 1.668474006652832031e+01 -1.262792706489562988e+00 4.260746936779469252e-05 1.267372044821968302e-05 1.658435758145060390e-05 -2.749861960182897747e-05
1.323000000000000000e+03 1.987873268127441406e+01 -2.628989219665527344e+00 8.667616202728822827e-05 -3.277679934399202466e-05 1.616980989638250321e-05 -3.869570355163887143e-05
1.324000000000000000e+03 1.698179054260253906e+01 -5.588749051094055176e-01 1.198124518850818276e-04 9.751328434504102916e-06 3.886913327733054757e-05 -1.890835301310289651e-05
1.325000000000000000e+03 3.146532297134399414e+00 -2.682076454162597656e+00 1.006765432975953445e-05 7.650650331925135106e-06 5.315491762303281575e-06 2.885841240640729666e-06
1.326000000000000000e+03 1.325323820114135742e+00 -2.148287296295166016e+00 1.332183910562889650e-05 7.821189683454576880e-06 6.342908363876631483e-06 1.903028896776959300e-05
1.327000000000000000e+03 7.414910793304443359e+00 -3.480864286422729492e+00 3.215358083252795041e-05 2.008677984122186899e-05 1.567210892972070724e-05 2.895379293477162719e-05
1.328000000000000000e+03 6.823718070983886719e+00 -1.883053064346313477e+00 -2.521567694202531129e-05 -1.811155925679486245e-05 -1.299817085964605212e-05 -8.243149750342126936e-06
1.329000000000000000e+03 7.518582820892333984e+00 -2.682515859603881836e+00 -2.922939711424987763e-05 -1.815632094803731889e-05 -1.421571596438298002e-05 -1.813860581023618579e-05
1.330000000000000000e+03 3.690179586410522461e+00 -3.207775115966796875e+00 -5.597235940513201058e-05 -6.473131634265882894e-06 -1.873364817583933473e-05 1.674784243732574396e-06
1.331000000000000000e+03 3.750144958496093750e+00 -2.534826278686523438e+00 3.206762630725279450e-05 -7.443277354468591511e-06 7.387304776784731075e-06 -8.410763712163316086e-07
1.332000000000000000e+03 6.718222618103027344e+00 -2.657429218292236328e+00 3.470171941444277763e-05 1.251235880772583187e-05 1.416422401234740391e-05 1.494591015216428787e-05
1.333000000000000000e+03 2.136377334594726562e+00 -2.028642892837524414e+00 4.384635758469812572e-06 -8.881463145371526480e-06 -1.349048147858411539e-06 -1.115108079829951748e-05
1.334000000000000000e+03 2.936987876892089844e+00 -5.600756168365478516e+00 -5.409270306699909270e-05 -1.213524592458270490e-05 -1.986838469747453928e-05 -3.885125988745130599e-05
1.335000000000000000e+03 4.427506446838378906e+00 -2.538397550582885742e+00 -3.039107104996219277e-05 -5.439392680273158476e-06 -1.074913870979798958e-05 -1.113525831897277385e-05
1.336000000000000000e+03 5.157200336456298828e+00 -2.553012847900390625e+00 2.833594408002682030e-05 1.100419376598438248e-05 1.180204162665177137e-05 5.719491127820219845e-06
1.337000000000000000e+03 5.965868234634399414e-01 -3.646627426147460938e+00 5.518470425158739090e-05 -7.261153768922667950e-06 1.437706578144570813e-05 4.207488473184639588e-06
1.338000000000000000e+03 9.524883270263671875e+00 -4.287830829620361328e+00 2.486909397703129798e-05 3.652388113550841808e-05 1.841789162426721305e-05 3.914624358003493398e-06
1.339000000000000000e+03 6.411684417724609375e+01 -1.780287742614746094e+01 1.735405474901199341e-01 9.364986419677734375e-01 3.330117762088775635e-01 8.995907902717590332e-01
1.340000000000000000e+03 6.464439392089843750e+01 -1.513399505615234375e+01 8.463736176490783691e-01 1.259914875030517578e+00 6.318865418434143066e-01 1.029357194900512695e+00
1.341000000000000000e+03 6.368033981323242188e+01 -1.648800659179687500e+01 7.524451613426208496e-01 1.089958429336547852e+00 5.527210831642150879e-01 1.004798173904418945e+00
1.342000000000000000e+03 5.687315750122070312e+01 -2.126973152160644531e+01 -9.860274791717529297e-01 8.740653991699218750e-01 -3.358862549066543579e-02 5.712754130363464355e-01
1.343000000000000000e+03 5.605540847778320312e+01 -2.139806175231933594e+01 -1.026649594306945801e+00 6.961343884468078613e-01 -9.915456175804138184e-02 3.556779921054840088e-01
1.344000000000000000e+03 5.528589248657226562e+01 -2.153786468505859375e+01 -1.057940483093261719e+00 5.344542264938354492e-01 -1.570458859205245972e-01 1.278816312551498413e-01
1.345000000000000000e+03 1.264904880523681641e+01 1.737882018089294434e+00 1.270848006242886186e-04 2.021078580582980067e-05 4.418867683853022754e-05 -5.214738484937697649e-05
1.346000000000000000e+03 1.340625000000000000e+01 1.386002182960510254e+00 4.462582728592678905e-05 1.203098145197145641e-05 1.699704262136947364e-05 -2.531360223656520247e-05
1.347000000000000000e+03 1.113387298583984375e+01 2.447530508041381836e+00 1.206939487019553781e-04 1.550988963572308421e-05 4.086115222889930010e-05 -6.307078001555055380e-05
1.348000000000000000e+03 1.124381732940673828e+01 -3.278617858886718750e+00 1.108853666664799675e-05 3.498698424664326012e-05 1.382265691063366830e-05 7.921426004031673074e-06
1.349000000000000000e+03 1.077974987030029297e+01 -2.339495182037353516e+00 1.310292736889095977e-05 3.450045915087684989e-05 1.428101586498087272e-05 1.172722932096803561e-05
1.350000000000000000e+03 1.189680862426757812e+01 -3.572742223739624023e+00 -9.385507837578188628e-06 -3.808123074122704566e-05 -1.424002221028786153e-05 -6.892183591844514012e-06
1.351000000000000000e+03 6.084062957763671875e+01 -2.199863433837890625e+01 -5.423811674118041992e-01 1.399005651473999023e+00 2.569873631000518799e-01 1.142151832580566406e+00
1.352000000000000000e+03 6.126873016357421875e+01 -1.945615577697753906e+01 -6.142334938049316406e-01 1.574084758758544922e+00 2.879553735256195068e-01 1.062388181686401367e+00
1.353000000000000000e+03 5.875568389892578125e+01 -2.090818595886230469e+01 -8.882333040237426758e-01 1.373784542083740234e+00 1.456653624773025513e-01 1.062560796737670898e+00
1.354000000000000000e+03 6.316455078125000000e+01 -1.874435043334960938e+01 -2.024956047534942627e-01 1.119156718254089355e+00 2.749983370304107666e-01 9.084629416465759277e-01
1.355000000000000000e+03 6.159831619262695312e+01 -1.825408363342285156e+01 8.955396711826324463e-03 1.528006076812744141e+00 4.610884487628936768e-01 9.597674608230590820e-01
1.356000000000000000e+03 6.542478179931640625e+01 -1.221564388275146484e+01 8.050888180732727051e-01 1.787601709365844727e+00 7.778071761131286621e-01 9.770814180374145508e-01
1.357000000000000000e+03 6.473339843750000000e+01 -1.322171306610107422e+01 8.192201852798461914e-01 1.561911582946777344e+00 7.143394947052001953e-01 1.026378154754638672e+00
1.358000000000000000e+03 6.652500915527343750e+01 -1.118027591705322266e+01 7.295450568199157715e-01 2.455919981002807617e+00 9.556394815444946289e-01 9.395548701286315918e-01
1.359000000000000000e+03 4.273020935058593750e+01 -2.382962989807128906e+01 -2.785957045853137970e-02 -3.821710050106048584e-01 -1.230091750621795654e-01 -2.288790196180343628e-01
1.360000000000000000e+03 4.277372360229492188e+01 -2.516798782348632812e+01 -4.568581283092498779e-02 -6.532928943634033203e-01 -2.096936106681823730e-01 -2.606815993785858154e-01
1.361000000000000000e+03 3.902515411376953125e+01 1.303701782226562500e+01 4.465514211915433407e-04 -1.225656160386279225e-04 9.719574154587462544e-05 5.111187929287552834e-04
1.362000000000000000e+03 3.680206298828125000e+01 -1.708634567260742188e+01 1.795447860786225647e-05 2.394680086581502110e-05 1.257038366020424291e-05 -5.998875167279038578e-06
1.363000000000000000e+03 3.016873359680175781e+01 -1.581651306152343750e+01 9.572207090968731791e-06 -4.843905117013491690e-06 1.418490569449204486e-06 -4.640011866285931319e-06
1.364000000000000000e+03 4.145412445068359375e+01 -1.863717460632324219e+01 2.588642018963582814e-05 1.227281700266757980e-05 1.144777070294367149e-05 1.013017572404351085e-05
1.365000000000000000e+03 3.551090240478515625e+01 -1.704936218261718750e+01 -2.542134825489483774e-05 -3.130701225018128753e-05 -1.701850851532071829e-05 8.864421943144407123e-07
1.366000000000000000e+03 2.892121505737304688e+01 -1.482482147216796875e+01 1.218968736793613061e-05 -4.623269887815695256e-06 2.269925289510865696e-06 -7.991838174348231405e-06
1.367000000000000000e+03 3.410784912109375000e+01 -1.796370124816894531e+01 -1.447387330699712038e-05 -2.210603997809812427e-05 -1.097397398552857339e-05 -1.702957774796232115e-06
1.368000000000000000e+03 3.314488983154296875e+01 -1.683507156372070312e+01 -7.999945523806673009e-07 -2.858480002032592893e-05 -8.815438377496320754e-06 8.186309059965424240e-06
1.369000000000000000e+03 3.105527114868164062e+01 -1.621203613281250000e+01 -1.227290886163245887e-05 -8.787179467617534101e-06 -6.318026407825527713e-06 1.529084875073749572e-05
1.370000000000000000e+03 5.646217727661132812e+01 -2.804611015319824219e+01 1.445985436439514160e+00 4.494235038757324219e+00 1.782066106796264648e+00 1.983641862869262695e+00
1.371000000000000000e+03 5.230048370361328125e+01 -3.108608627319335938e+01 8.715608119964599609e-01 1.301497459411621094e+00 6.519174575805664062e-01 4.277405738830566406e-01
1.372000000000000000e+03 6.183972549438476562e+01 -2.135616493225097656e+01 -7.965399622917175293e-01 1.246868014335632324e+00 1.350983977317810059e-01 1.028315901756286621e+00
1.373000000000000000e+03 6.025353622436523438e+01 -2.335399627685546875e+01 3.550893962383270264e-01 1.427140235900878906e+00 5.346688628196716309e-01 1.188133716583251953e+00
1.374000000000000000e+03 6.679623413085937500e+01 -2.159339523315429688e+01 -3.706257820129394531e+00 -3.518969714641571045e-01 -1.217446446418762207e+00 -5.769578814506530762e-01
1.375000000000000000e+03 6.814514923095703125e+01 -2.133658027648925781e+01 -3.991607666015625000e+00 -3.181525468826293945e-01 -1.292928099632263184e+00 4.942819476127624512e-02
1.376000000000000000e+03 5.373650741577148438e+01 -3.167862701416015625e+01 7.779854536056518555e-01 2.051405906677246094e+00 8.488174080848693848e-01 4.722645878791809082e-01
1.377000000000000000e+03 5.517457199096679688e+01 -3.217278289794921875e+01 7.614676356315612793e-01 3.303677558898925781e+00 1.219543576240539551e+00 -8.589798212051391602e-02
1.378000000000000000e+03 5.586042022705078125e+01 -2.667192077636718750e+01 1.208069324493408203e+00 2.743497610092163086e+00 1.185470104217529297e+00 9.492266774177551270e-01
1.379000000000000000e+03 5.695068740844726562e+01 -2.205503654479980469e+01 -6.680266261100769043e-01 1.182446360588073730e+00 1.543259024620056152e-01 7.113967537879943848e-01
1.380000000000000000e+03 5.591715240478515625e+01 -3.434043884277343750e+01 -2.442482709884643555e-01 2.297538280487060547e+00 6.159870028495788574e-01 -2.600742876529693604e-01
1.381000000000000000e+03 6.749035644531250000e+01 -3.634595870971679688e+01 -1.529782563447952271e-01 8.340418338775634766e-01 2.043190747499465942e-01 2.278273105621337891e-01
1.382000000000000000e+03 5.609525299072265625e+01 -2.565117835998535156e+01 8.763564825057983398e-01 2.263679027557373047e+00 9.420106410980224609e-01 9.660928845405578613e-01
1.383000000000000000e+03 7.078932952880859375e+01 -3.217703628540039062e+01 -5.181626081466674805e-01 2.898586750030517578e+00 7.141272425651550293e-01 8.310902714729309082e-01
1.384000000000000000e+03 5.920480728149414062e+01 -2.393601799011230469e+01 8.814296126365661621e-01 1.820060133934020996e+00 8.104469180107116699e-01 1.414158582687377930e+00
1.385000000000000000e+03 6.379901504516601562e+01 -2.163383674621582031e+01 -1.176354050636291504e+00 5.928005576133728027e-01 -1.750660389661788940e-01 3.713181614875793457e-01
1.386000000000000000e+03 7.883145332336425781e+00 -2.515859794616699219e+01 1.058717971318401396e-04 7.184357673395425081e-05 5.331461215973831713e-05 -3.180130079272203147e-05
1.387000000000000000e+03 5.623831176757812500e+01 3.697073745727539062e+01 -9.696569293737411499e-02 2.639992721378803253e-02 -2.116972953081130981e-02 1.769746094942092896e-01
1.388000000000000000e+03 6.089474487304687500e+01 3.849699401855468750e+01 1.199184805154800415e-01 5.034772679209709167e-02 5.107986181974411011e-02 7.081103324890136719e-02
1.389000000000000000e+03 4.321877670288085938e+01 -3.219290542602539062e+01 -1.145152598619461060e-01 -6.955753564834594727e-01 -2.430271804332733154e-01 -6.036565080285072327e-02
1.390000000000000000e+03 4.448129272460937500e+01 -3.212650680541992188e+01 -4.552258551120758057e-02 -5.294077396392822266e-01 -1.724791079759597778e-01 5.718369409441947937e-02
1.391000000000000000e+03 4.365370559692382812e+01 -2.759550476074218750e+01 -2.248775959014892578e-01 -1.023149490356445312e+00 -3.744081258773803711e-01 -6.257252097129821777e-01
1.392000000000000000e+03 4.240533828735351562e+01 -2.868073272705078125e+01 -4.189754128456115723e-01 -1.762181639671325684e+00 -6.543471217155456543e-01 -4.939946532249450684e-01
1.393000000000000000e+03 3.789564895629882812e+01 -3.283461380004882812e+01 -3.754445910453796387e-01 -1.838466078042984009e-01 -1.677873581647872925e-01 -2.497111558914184570e-01
1.394000000000000000e+03 5.200096130371093750e+01 3.595281982421875000e+01 -2.728711068630218506e-02 -6.394028663635253906e-03 -1.010434236377477646e-02 1.792526617646217346e-02
1.395000000000000000e+03 5.180476760864257812e+01 -1.391265106201171875e+01 -8.438697841484099627e-05 1.408284788340097293e-05 -2.109124034177511930e-05 8.380461622436996549e-06
1.396000000000000000e+03 8.752868652343750000e+00 -3.068690109252929688e+01 1.169854658655822277e-03 -6.603496149182319641e-05 3.311459149699658155e-04 3.505329950712621212e-04
1.397000000000000000e+03 3.937932205200195312e+01 1.163089847564697266e+01 -4.145715211052447557e-04 1.963689865078777075e-04 -6.546076474478468299e-05 4.358028309070505202e-05
1.398000000000000000e+03 9.276130676269531250e+00 -1.971108245849609375e+01 1.038929985952563584e-04 6.541189122799551114e-06 3.313025808893144131e-05 -2.852735633496195078e-05
1.399000000000000000e+03 7.605310916900634766e+00 -2.072416496276855469e+01 1.688233751337975264e-04 -1.934273313963785768e-05 4.484419332584366202e-05 -3.622138319769874215e-05
1.400000000000000000e+03 1.369364643096923828e+01 -3.327482223510742188e+01 2.830907236784696579e-03 5.322624929249286652e-05 8.652399992570281029e-04 2.201581140980124474e-03
1.401000000000000000e+03 3.381801605224609375e+01 -3.431075286865234375e+01 -8.636090159416198730e-02 -2.953699044883251190e-02 -3.476936742663383484e-02 -8.671696484088897705e-02
1.402000000000000000e+03 3.679889297485351562e+01 -3.531751251220703125e+01 -7.901656627655029297e-02 -2.201703786849975586e-01 -8.975608646869659424e-02 -2.081857323646545410e-01
1.403000000000000000e+03 1.297234249114990234e+01 -1.256531715393066406e+01 -1.033336084219627082e-04 -8.129927300615236163e-05 -5.538986442843452096e-05 2.199421396653633565e-05
1.404000000000000000e+03 7.862931823730468750e+01 -3.066036415100097656e+01 -5.743503570556640625e-02 8.728978157043457031e+00 2.601463079452514648e+00 -9.183050394058227539e-01
1.405000000000000000e+03 7.948254394531250000e+01 -2.925947380065917969e+01 4.401724413037300110e-02 7.493437290191650391e+00 2.261236429214477539e+00 -3.466069400310516357e-01
1.406000000000000000e+03 7.951836395263671875e+01 -2.363000488281250000e+01 -3.145137801766395569e-02 8.634412765502929688e+00 2.580888509750366211e+00 3.155481815338134766e-01
1.407000000000000000e+03 7.672405242919921875e+01 -3.920995712280273438e+01 -1.094503104686737061e-01 9.113962173461914062e+00 2.701353549957275391e+00 1.506978422403335571e-01
1.408000000000000000e+03 7.909431457519531250e+01 -3.881090927124023438e+01 5.175600945949554443e-02 1.008652496337890625e+01 3.041484355926513672e+00 1.353253871202468872e-01
1.409000000000000000e+03 7.943576049804687500e+01 -3.340163421630859375e+01 -4.919868707656860352e-02 1.006431388854980469e+01 3.004534482955932617e+00 -2.289510816335678101e-01
1.410000000000000000e+03 7.810984039306640625e+01 -3.592247390747070312e+01 -2.532953619956970215e-01 9.650422096252441406e+00 2.819138050079345703e+00 -3.234398737549781799e-02
1.411000000000000000e+03 7.948709106445312500e+01 -3.202661132812500000e+01 -1.176270563155412674e-02 9.443874359130859375e+00 2.829633474349975586e+00 -3.102669119834899902e-01
1.412000000000000000e+03 7.948680114746093750e+01 -2.092889022827148438e+01 -4.841254651546478271e-02 9.987503051757812500e+00 2.981727123260498047e+00 1.340007334947586060e-01
1.413000000000000000e+03 7.855375671386718750e+01 -2.349595832824707031e+01 -1.123085245490074158e-01 8.822299957275390625e+00 2.612997531890869141e+00 8.339926004409790039e-01
1.414000000000000000e+03 7.776920318603515625e+01 3.316579437255859375e+01 -9.460847079753875732e-02 7.689579486846923828e+00 2.278491258621215820e+00 3.983256816864013672e-01
1.415000000000000000e+03 7.925899505615234375e+01 3.591419601440429688e+01 1.968539785593748093e-03 8.435175895690917969e+00 2.531143426895141602e+00 3.702794387936592102e-02
1.416000000000000000e+03 7.573253631591796875e+01 -2.692735671997070312e+01 2.856451749801635742e+00 9.673288345336914062e+00 3.758922100067138672e+00 5.250422358512878418e-01
1.417000000000000000e+03 7.936298370361328125e+01 1.249899673461914062e+01 -5.322259385138750076e-03 5.780405044555664062e+00 1.732524871826171875e+00 1.568889431655406952e-02
1.418000000000000000e+03 7.676728057861328125e+01 1.213407516479492188e+01 -9.295871853828430176e-02 7.035072326660156250e+00 2.082633972167968750e+00 7.893489301204681396e-02
1.419000000000000000e+03 7.938101196289062500e+01 1.389142799377441406e+01 -1.136283203959465027e-02 5.799846649169921875e+00 1.736545085906982422e+00 -2.834778511896729469e-03
1.420000000000000000e+03 7.939711761474609375e+01 1.804226875305175781e+01 2.267297729849815369e-02 5.758891105651855469e+00 1.734469175338745117e+00 -5.413503386080265045e-04
1.421000000000000000e+03 7.829315185546875000e+01 1.653597259521484375e+01 1.470736879855394363e-02 6.255660533905029297e+00 1.881110310554504395e+00 -2.151427790522575378e-02
1.422000000000000000e+03 7.929574584960937500e+01 2.227808380126953125e+01 -2.687010681256651878e-03 5.860973834991455078e+00 1.757486104965209961e+00 4.789300635457038879e-02
1.423000000000000000e+03 7.806885528564453125e+01 1.923646163940429688e+01 3.905916959047317505e-02 6.361540794372558594e+00 1.920179963111877441e+00 1.052239071577787399e-02
1.424000000000000000e+03 7.934973907470703125e+01 2.511569213867187500e+01 2.814232604578137398e-03 6.166768074035644531e+00 1.850874662399291992e+00 1.156434640288352966e-01
1.425000000000000000e+03 7.803149414062500000e+01 2.377500343322753906e+01 6.851127743721008301e-02 6.510789871215820312e+00 1.973790407180786133e+00 1.965314000844955444e-01
1.426000000000000000e+03 7.934934234619140625e+01 2.650611495971679688e+01 2.424070797860622406e-02 6.427225589752197266e+00 1.935439944267272949e+00 1.430717557668685913e-01
1.427000000000000000e+03 7.811326599121093750e+01 3.073324584960937500e+01 -1.825919002294540405e-02 7.397546291351318359e+00 2.213786125183105469e+00 4.322138428688049316e-01
1.428000000000000000e+03 7.803828430175781250e+01 2.934851264953613281e+01 1.093555800616741180e-02 7.157702922821044922e+00 2.150591611862182617e+00 4.636979997158050537e-01
1.429000000000000000e+03 7.947819519042968750e+01 3.348066711425781250e+01 -1.802351884543895721e-02 8.097881317138671875e+00 2.423957347869873047e+00 1.243091970682144165e-01
1.430000000000000000e+03 7.941429901123046875e+01 -1.818482780456542969e+01 -4.010962322354316711e-02 1.023138046264648438e+01 3.057381153106689453e+00 -4.828290641307830811e-02
1.431000000000000000e+03 7.728614807128906250e+01 -2.117400932312011719e+01 -4.808068871498107910e-01 9.095950126647949219e+00 2.584542751312255859e+00 4.595648646354675293e-01
1.432000000000000000e+03 7.931341552734375000e+01 -1.395798969268798828e+01 -4.111520480364561081e-03 9.493319511413574219e+00 2.846762418746948242e+00 -1.786346286535263062e-01
1.433000000000000000e+03 7.934956359863281250e+01 -1.113995933532714844e+01 -1.965178875252604485e-03 8.828372001647949219e+00 2.647922039031982422e+00 -1.887708008289337158e-01
1.434000000000000000e+03 7.794045257568359375e+01 -1.399667263031005859e+01 -2.688457816839218140e-02 8.669939994812011719e+00 2.592916727066040039e+00 -4.362943768501281738e-01
1.435000000000000000e+03 7.938812255859375000e+01 -8.349779129028320312e+00 -7.850890979170799255e-03 8.119075775146484375e+00 2.433367490768432617e+00 -1.845370531082153320e-01
1.436000000000000000e+03 7.678699493408203125e+01 -1.098847675323486328e+01 5.163984023965895176e-04 7.708266258239746094e+00 2.312634944915771484e+00 -6.091936826705932617e-01
1.437000000000000000e+03 7.940584564208984375e+01 -4.181189060211181641e+00 6.459715310484170914e-03 6.949105739593505859e+00 2.086669683456420898e+00 -1.959114372730255127e-01
1.438000000000000000e+03 7.820881652832031250e+01 -6.919120311737060547e+00 -1.638565398752689362e-02 7.567079544067382812e+00 2.265208005905151367e+00 -4.628590047359466553e-01
1.439000000000000000e+03 7.939504241943359375e+01 -1.409381628036499023e+00 1.149698253720998764e-02 6.173328399658203125e+00 1.855447649955749512e+00 -1.743885427713394165e-01
1.440000000000000000e+03 7.706510162353515625e+01 -4.180777072906494141e+00 8.263655938208103180e-03 7.169052124023437500e+00 2.153194904327392578e+00 -6.463828682899475098e-01
1.441000000000000000e+03 7.938379669189453125e+01 2.774677038192749023e+00 1.846360974013805389e-02 5.411129951477050781e+00 1.628878116607666016e+00 -7.233212143182754517e-02
1.442000000000000000e+03 7.940389251708984375e+01 5.557286262512207031e+00 1.627078838646411896e-02 5.320095539093017578e+00 1.600909948348999023e+00 8.616742677986621857e-03
1.443000000000000000e+03 7.689669799804687500e+01 2.742021799087524414e+00 1.963065564632415771e-01 6.791873931884765625e+00 2.096454143524169922e+00 -2.100978493690490723e-01
1.444000000000000000e+03 7.941273498535156250e+01 6.946018218994140625e+00 4.716418217867612839e-03 5.391036510467529297e+00 1.618725895881652832e+00 3.320091962814331055e-02
1.445000000000000000e+03 7.823950195312500000e+01 6.911697387695312500e+00 3.963703289628028870e-02 6.077668666839599609e+00 1.835191726684570312e+00 1.031495407223701477e-01
1.446000000000000000e+03 7.797670745849609375e+01 4.172383117675781250e+01 1.838639974594116211e-01 8.276807785034179688e+00 2.538201570510864258e+00 -5.157369375228881836e-02
1.447000000000000000e+03 7.794278717041015625e+01 3.509909057617187500e+01 -1.133718863129615784e-01 7.931636810302734375e+00 2.345479488372802734e+00 2.533049583435058594e-01
1.448000000000000000e+03 7.819043731689453125e+01 -1.454267263412475586e+00 3.940282389521598816e-02 6.591256141662597656e+00 1.989197611808776855e+00 -4.265127778053283691e-01
1.449000000000000000e+03 7.824700927734375000e+01 -1.835706138610839844e+01 -1.410866975784301758e-01 9.389350891113281250e+00 2.774479150772094727e+00 -9.659908711910247803e-02
1.450000000000000000e+03 8.132852554321289062e+00 -1.926283264160156250e+01 -1.312982640229165554e-04 -1.875791531347204000e-05 -4.501685180002823472e-05 4.922602602164261043e-05
1.451000000000000000e+03 4.582248687744140625e+01 2.909813499450683594e+01 5.408939905464649200e-03 1.376446336507797241e-03 2.035615965723991394e-03 8.151106885634362698e-04
1.452000000000000000e+03 5.019828796386718750e+01 3.680975723266601562e+01 -1.487458590418100357e-02 1.472389907576143742e-03 -4.020658787339925766e-03 1.730947755277156830e-02
1.453000000000000000e+03 5.104134368896484375e+01 3.235579681396484375e+01 -5.971151404082775116e-04 2.973494352772831917e-03 7.129137520678341389e-04 9.813474491238594055e-03
1.454000000000000000e+03 2.922143554687500000e+01 -3.189060211181640625e+01 3.372510895133018494e-02 1.160902902483940125e-03 1.046580355614423752e-02 -4.375937394797801971e-03
1.455000000000000000e+03 1.668149375915527344e+01 -3.464062500000000000e+01 2.093675080686807632e-03 2.084051957353949547e-03 1.253318041563034058e-03 3.952795639634132385e-03
1.456000000000000000e+03 4.369348907470703125e+01 -2.655183410644531250e+01 -9.473744779825210571e-03 -8.823729753494262695e-01 -2.675540149211883545e-01 -5.044035315513610840e-01
1.457000000000000000e+03 1.259409236907958984e+01 -1.516152191162109375e+01 8.750168490223586559e-05 5.476831938722170889e-05 4.268100019544363022e-05 -7.552800525445491076e-05
1.458000000000000000e+03 4.411796951293945312e+01 -2.513936042785644531e+01 -6.097095087170600891e-02 -5.716227889060974121e-01 -1.897781193256378174e-01 -5.143017768859863281e-01
1.459000000000000000e+03 4.336696624755859375e+01 -2.459335517883300781e+01 -5.736623331904411316e-02 -4.934920668601989746e-01 -1.652574986219406128e-01 -3.924928903579711914e-01
1.460000000000000000e+03 4.902955245971679688e+01 3.031366157531738281e+01 2.400448778644204140e-03 3.903269534930586815e-03 1.891115447506308556e-03 7.251057773828506470e-03
1.461000000000000000e+03 4.352434539794921875e+01 2.518960571289062500e+01 5.081638228148221970e-04 8.304707589559257030e-04 4.015903687104582787e-04 2.349187387153506279e-03
1.462000000000000000e+03 4.283971405029296875e+01 2.383858299255371094e+01 3.015569644048810005e-03 1.272257068194448948e-03 1.286347978748381138e-03 6.477669230662286282e-04
1.463000000000000000e+03 4.933811187744140625e+01 -9.186649322509765625e+00 1.022773139993660152e-04 2.024619061558041722e-05 3.675705011119134724e-05 4.148775769863277674e-05
1.464000000000000000e+03 4.225557708740234375e+01 2.244133758544921875e+01 -2.073368523269891739e-04 8.141643484123051167e-04 1.820482430048286915e-04 1.665554940700531006e-03
1.465000000000000000e+03 5.203113937377929688e+01 -1.617525100708007812e+01 -2.516666791052557528e-05 6.930720701348036528e-06 -5.470783889904851094e-06 -3.187196489307098091e-05
1.466000000000000000e+03 4.365595245361328125e+01 4.268858909606933594e+00 -9.035571565618738532e-05 -1.610270264791324735e-04 -7.541482045780867338e-05 -7.784444460412487388e-05
1.467000000000000000e+03 4.505373001098632812e+01 2.003258466720581055e+00 -1.395246508764103055e-04 -1.462164946133270860e-04 -8.572234946768730879e-05 -9.257920464733615518e-05
1.468000000000000000e+03 4.428134155273437500e+01 2.650304412841796875e+01 4.257490858435630798e-03 1.691323705017566681e-03 1.784644438885152340e-03 1.257482334040105343e-03
1.469000000000000000e+03 4.678613662719726562e+01 -1.565992951393127441e+00 1.537915231892839074e-04 6.131242844276130199e-05 6.453118839999660850e-05 8.713769057067111135e-05
1.470000000000000000e+03 4.177535247802734375e+01 2.099666023254394531e+01 2.161090727895498276e-03 8.483008132316172123e-04 9.028174681589007378e-04 4.735214170068502426e-04
1.471000000000000000e+03 5.095851135253906250e+01 -1.009889793395996094e+01 1.162016633315943182e-04 9.624601261748466641e-06 3.774787910515442491e-05 3.604519588407129049e-05
1.472000000000000000e+03 5.019217681884765625e+01 -1.168155479431152344e+01 8.815436012810096145e-05 1.936003718583378941e-05 3.225432010367512703e-05 3.085390198975801468e-05
1.473000000000000000e+03 4.876671600341796875e+01 3.245640563964843750e+01 -3.122976748272776604e-03 8.717966265976428986e-04 -6.753540365025401115e-04 5.048344377428293228e-03
1.474000000000000000e+03 4.983328628540039062e+01 3.346202850341796875e+01 2.326940884813666344e-03 3.012111177667975426e-03 1.601715572178363800e-03 7.022780482657253742e-04
1.475000000000000000e+03 4.624810409545898438e+01 -3.616473376750946045e-01 -1.494674506830051541e-04 -1.077994747902266681e-04 -7.718007691437378526e-05 -8.637192513560876250e-05
1.476000000000000000e+03 4.273044967651367188e+01 3.383349895477294922e+00 7.736623956589028239e-05 2.642855542944744229e-05 3.113843922619707882e-05 9.056712769961450249e-06
1.477000000000000000e+03 4.187965011596679688e+01 6.422227859497070312e+00 9.878392302198335528e-05 2.490720653440803289e-04 1.043567972374148667e-04 -1.040982824633829296e-04
1.478000000000000000e+03 3.965307617187500000e+01 1.830466079711914062e+01 -5.709888646379113197e-04 5.023147095926105976e-04 -2.060223778244107962e-05 4.788124060723930597e-04
1.479000000000000000e+03 6.986599731445312500e+01 1.000944805145263672e+01 -1.332919746637344360e-01 8.639725685119628906e+00 2.551930189132690430e+00 -7.678055167198181152e-01
1.480000000000000000e+03 7.098023223876953125e+01 2.754800033569335938e+01 5.692576766014099121e-01 8.237471580505371094e+00 2.642018795013427734e+00 -4.879542589187622070e-01
1.481000000000000000e+03 7.105018615722656250e+01 1.473108673095703125e+01 1.104170754551887512e-01 9.361644744873046875e+00 2.841618537902832031e+00 2.670596353709697723e-02
1.482000000000000000e+03 7.000965881347656250e+01 1.261652755737304688e+01 -1.032793745398521423e-01 9.012216567993164062e+00 2.672681093215942383e+00 3.311174809932708740e-01
1.483000000000000000e+03 7.150418853759765625e+01 1.214720821380615234e+01 -5.535358190536499023e-01 9.090296745300292969e+00 2.561028242111206055e+00 -4.181675314903259277e-01
1.484000000000000000e+03 7.239974212646484375e+01 2.691685199737548828e+00 5.992010831832885742e-01 9.443797111511230469e+00 3.012899637222290039e+00 1.291492730379104614e-01
1.485000000000000000e+03 6.454698181152343750e+01 3.618140029907226562e+01 -1.103871241211891174e-01 7.518735527992248535e-01 1.924459338188171387e-01 -2.433944940567016602e-01
1.486000000000000000e+03 7.120041656494140625e+01 2.449450111389160156e+01 5.268082022666931152e-01 9.319851875305175781e+00 2.953997850418090820e+00 -3.824027478694915771e-01
1.487000000000000000e+03 7.070544433593750000e+01 -1.451402783393859863e+00 3.432262241840362549e-01 8.817011833190917969e+00 2.748071432113647461e+00 7.947232723236083984e-01
1.488000000000000000e+03 6.958520507812500000e+01 -1.153176546096801758e+00 5.390480756759643555e-01 9.055710792541503906e+00 2.878427743911743164e+00 1.925630688667297363e+00
1.489000000000000000e+03 6.837690734863281250e+01 3.350957870483398438e+01 -4.631491303443908691e-01 3.902299642562866211e+00 1.031745195388793945e+00 -7.881750464439392090e-01
1.490000000000000000e+03 6.763681030273437500e+01 -6.453961372375488281e+00 5.526725053787231445e-01 4.068106651306152344e+00 1.386233687400817871e+00 1.441672325134277344e+00
1.491000000000000000e+03 7.038292694091796875e+01 -5.943280220031738281e+00 8.038568496704101562e-02 6.172653198242187500e+00 1.875911593437194824e+00 4.860308170318603516e-01
1.492000000000000000e+03 7.238226318359375000e+01 2.782450103759765625e+01 4.771035909652709961e-01 7.656392097473144531e+00 2.440048694610595703e+00 1.092386767268180847e-01
1.493000000000000000e+03 7.212577056884765625e+01 -2.131039053201675415e-01 5.325960516929626465e-01 8.815789222717285156e+00 2.804515600204467773e+00 4.608033597469329834e-02
1.494000000000000000e+03 7.022537994384765625e+01 4.464488029479980469e+00 9.206205606460571289e-03 1.151212596893310547e+01 3.456399679183959961e+00 2.070007659494876862e-02
1.495000000000000000e+03 7.126047515869140625e+01 8.495941162109375000e+00 1.393996626138687134e-01 9.786000251770019531e+00 2.977619886398315430e+00 -1.248297654092311859e-02
1.496000000000000000e+03 6.875553131103515625e+01 -6.834348678588867188e+00 2.707987427711486816e-01 4.915124416351318359e+00 1.555776834487915039e+00 9.992736577987670898e-01
1.497000000000000000e+03 6.826321411132812500e+01 -8.108170509338378906e+00 3.357961177825927734e-01 4.127137660980224609e+00 1.338880181312561035e+00 9.653674364089965820e-01
1.498000000000000000e+03 6.751865386962890625e+01 3.517723083496093750e+01 -3.488687574863433838e-01 2.959988594055175781e+00 7.833359837532043457e-01 -6.532179117202758789e-01
1.499000000000000000e+03 7.139878082275390625e+01 5.708590030670166016e+00 3.488627970218658447e-01 1.047511768341064453e+01 3.247194290161132812e+00 -2.248733639717102051e-01
1.500000000000000000e+03 7.105759429931640625e+01 1.592818641662597656e+01 1.071603223681449890e-01 9.596757888793945312e+00 2.911175251007080078e+00 1.174148544669151306e-01
1.501000000000000000e+03 6.994900512695312500e+01 1.992226600646972656e+01 2.499322593212127686e-02 1.015626144409179688e+01 3.054376363754272461e+00 -2.307238522917032242e-03
1.502000000000000000e+03 7.112005615234375000e+01 1.992200088500976562e+01 2.912653842940926552e-03 9.617090225219726562e+00 2.886000871658325195e+00 -1.993218436837196350e-02
1.503000000000000000e+03 7.262625122070312500e+01 2.109981727600097656e+01 1.577999889850616455e-01 8.856528282165527344e+00 2.704298496246337891e+00 -7.884293794631958008e-02
1.504000000000000000e+03 6.990944671630859375e+01 1.852411651611328125e+01 -1.097680535167455673e-02 1.016687488555908203e+01 3.046769380569458008e+00 1.320438645780086517e-02
1.505000000000000000e+03 7.101730346679687500e+01 1.723493957519531250e+01 2.499416284263134003e-02 9.675827980041503906e+00 2.910246849060058594e+00 7.466360181570053101e-02
1.506000000000000000e+03 2.625933265686035156e+01 -3.291901779174804688e+01 1.813739724457263947e-02 -1.350792357698082924e-03 5.035981535911560059e-03 2.466577338054776192e-03
1.507000000000000000e+03 2.160058021545410156e+00 2.880777740478515625e+01 -9.820728155318647623e-05 5.919352988712489605e-04 1.481184153817594051e-04 -6.327209121081978083e-05
1.508000000000000000e+03 7.135636210441589355e-01 2.755339622497558594e+01 -8.536008681403473020e-05 6.162165082059800625e-04 1.592569169588387012e-04 -1.637323293834924698e-05
1.509000000000000000e+03 2.075708150863647461e+00 3.295981597900390625e+01 1.482613733969628811e-04 7.248630281537771225e-04 2.619373262859880924e-04 -6.706829299218952656e-05
1.510000000000000000e+03 6.837089657783508301e-01 3.179579353332519531e+01 1.412702840752899647e-04 7.883870275691151619e-04 2.788972051348537207e-04 -4.435078153619542718e-05
1.511000000000000000e+03 2.200747966766357422e+00 3.558687973022460938e+01 1.028686092467978597e-04 8.484714780934154987e-04 2.854020276572555304e-04 -2.797007255139760673e-05
1.512000000000000000e+03 3.630807638168334961e+00 3.885817718505859375e+01 -8.620649896329268813e-05 8.112832438200712204e-04 2.175230183638632298e-04 -2.988491905853152275e-05
1.513000000000000000e+03 1.001120686531066895e+00 3.866362380981445312e+01 -1.688187912805005908e-04 8.880994282662868500e-04 2.157841954613104463e-04 4.600924512487836182e-05
1.514000000000000000e+03 5.407503604888916016e+00 -3.774386978149414062e+01 -6.217270129127427936e-05 9.178058244287967682e-04 2.566899347584694624e-04 6.885682232677936554e-04
1.515000000000000000e+03 2.079955577850341797e+00 -3.414608001708984375e+01 -1.507542328909039497e-04 2.470195468049496412e-04 2.887959271902218461e-05 1.699978893157094717e-04
1.516000000000000000e+03 5.989847183227539062e-01 -3.038248062133789062e+01 -2.327069378225132823e-04 -8.748134860070422292e-05 -9.605648665456101298e-05 1.204506475005473476e-06
1.517000000000000000e+03 1.705866217613220215e+00 -2.745300483703613281e+01 3.015255788341164589e-04 -3.509264570311643183e-05 7.992987957550212741e-05 -2.011283504543825984e-05
1.518000000000000000e+03 5.691322088241577148e-01 -2.338103675842285156e+01 2.787593984976410866e-04 -2.362274244660511613e-05 7.654100045328959823e-05 1.171752410300541669e-05
1.519000000000000000e+03 5.906299352645874023e-01 -6.521867752075195312e+00 8.042453555390238762e-05 1.526429514342453331e-06 2.458528797433245927e-05 -6.869464868941577151e-06
1.520000000000000000e+03 6.047995090484619141e-01 -1.070161342620849609e+01 -1.156316429842263460e-04 -1.609779246791731566e-06 -3.517242657835595310e-05 -2.412342382740462199e-06
1.521000000000000000e+03 6.154956221580505371e-01 -1.210211086273193359e+01 1.290415384573861957e-04 1.677858563198242337e-06 3.921581810573115945e-05 5.334211891749873757e-06
1.522000000000000000e+03 6.297662258148193359e-01 -1.350630283355712891e+01 -1.420514454366639256e-04 7.290592520803329535e-07 -4.239671397954225540e-05 -6.087507244956213981e-06
1.523000000000000000e+03 6.557345986366271973e-01 -1.774703979492187500e+01 1.876949390862137079e-04 2.344554104638518766e-06 5.701184636563993990e-05 1.095508196158334613e-05
1.524000000000000000e+03 1.683623075485229492e+00 -2.608983802795410156e+01 -2.889151801355183125e-04 -2.035225224972236902e-05 -9.278023208025842905e-05 -2.960270467156078666e-05
1.525000000000000000e+03 1.963294982910156250e+00 -3.283425903320312500e+01 2.554230741225183010e-04 2.147649938706308603e-04 1.410564291290938854e-04 1.659999834373593330e-04
1.526000000000000000e+03 2.597648859024047852e+00 -3.663833618164062500e+01 -2.191567182308062911e-04 5.474599311128258705e-04 9.849096386460587382e-05 2.447942679282277822e-04
1.527000000000000000e+03 5.954326987266540527e-01 1.906416511535644531e+01 -1.432117860531434417e-04 2.900976396631449461e-04 4.406575681059621274e-05 -3.392185817574500106e-06
1.528000000000000000e+03 1.783388853073120117e+00 2.021566772460937500e+01 -1.477535261074081063e-04 3.260929370298981667e-04 5.350181891117244959e-05 -6.594579463126137853e-05
1.529000000000000000e+03 5.978022217750549316e-01 1.766680145263671875e+01 1.461493666283786297e-04 2.482037525624036789e-04 1.183059357572346926e-04 -3.506787470541894436e-05
1.530000000000000000e+03 6.031752824783325195e-01 1.486048507690429688e+01 1.380355388391762972e-04 1.671540812822058797e-04 9.155688167084008455e-05 -2.903344466176349670e-05
1.531000000000000000e+03 6.059405803680419922e-01 1.064650917053222656e+01 -1.086398115148767829e-04 7.591355824843049049e-05 -9.817876161832828075e-06 3.565116912795929238e-08
1.532000000000000000e+03 1.799183726310729980e+00 1.059636116027832031e+01 1.216683522216044366e-04 7.777048449497669935e-05 5.983165101497434080e-05 -3.111905243713408709e-05
1.533000000000000000e+03 6.090567708015441895e-01 7.803896427154541016e+00 -7.896613533375784755e-05 3.077556903008371592e-05 -1.445716952730435878e-05 1.393453430864610709e-06
1.534000000000000000e+03 1.448145151138305664e+00 4.761504650115966797e+00 6.264338298933580518e-05 1.435123795090476051e-05 2.309838600922375917e-05 -3.744974310393445194e-05
1.535000000000000000e+03 3.862159729003906250e+00 -3.907141876220703125e+01 -2.751630090642720461e-04 8.014310733415186405e-04 1.578804221935570240e-04 2.612880198284983635e-04
1.536000000000000000e+03 1.804313302040100098e+00 -3.016294670104980469e+01 3.217212215531617403e-04 7.617944447702029720e-06 9.880174911813810468e-05 2.444592064421158284e-05
1.537000000000000000e+03 1.682565569877624512e+00 -2.471411514282226562e+01 2.714945003390312195e-04 -2.185609810112509876e-05 7.489152631023898721e-05 -9.132309060078114271e-06
1.538000000000000000e+03 5.609561204910278320e-01 -2.478812408447265625e+01 -2.916015509981662035e-04 -4.451417771633714437e-05 -1.008347171591594815e-04 -2.673406925168819726e-05
1.539000000000000000e+03 1.920099377632141113e+00 -1.915256881713867188e+01 2.064368309220299125e-04 1.721464968795771711e-06 6.244748510653153062e-05 2.448059240123257041e-05
1.540000000000000000e+03 6.456031203269958496e-01 -1.491683006286621094e+01 1.535260234959423542e-04 1.792035959624627139e-06 4.659541446017101407e-05 6.793689863116014749e-06
1.541000000000000000e+03 2.971211671829223633e+00 -6.820168018341064453e+00 7.488861592719331384e-05 6.815567303419811651e-06 2.451125510560814291e-05 2.077506542264018208e-05
1.542000000000000000e+03 5.889611244201660156e-01 -7.911353111267089844e+00 -9.088519436772912741e-05 -3.292412657174281776e-06 -2.825328192557208240e-05 3.631846993812359869e-06
1.543000000000000000e+03 1.674499988555908203e+00 -3.461723089218139648e+00 -1.369073470414150506e-05 -1.380294634145684540e-06 -4.521308710536686704e-06 -2.678253258636686951e-05
1.544000000000000000e+03 1.887481689453125000e+00 2.300129699707031250e+01 -1.322420284850522876e-04 4.210235492791980505e-04 8.663445623824372888e-05 -8.905621507437899709e-05
1.545000000000000000e+03 1.698461914062500000e+01 -1.206007289886474609e+01 2.513269646442495286e-05 7.479417035938240588e-06 9.783634595805779099e-06 -2.619917722768150270e-05
1.546000000000000000e+03 6.942922973632812500e+01 -2.102231407165527344e+01 -2.261444330215454102e+00 8.187458515167236328e-01 -4.328095018863677979e-01 -5.241712331771850586e-01
1.547000000000000000e+03 7.207508850097656250e+01 -2.487725067138671875e+01 3.604823350906372070e-01 5.247851848602294922e+00 1.682500362396240234e+00 -2.287957429885864258e+00
1.548000000000000000e+03 7.184249877929687500e+01 -2.437465286254882812e+01 4.925038218498229980e-01 4.893934726715087891e+00 1.615931630134582520e+00 -1.852664947509765625e+00
1.549000000000000000e+03 7.110219573974609375e+01 -2.147136688232421875e+01 -1.649988055229187012e+00 4.248359203338623047e+00 7.795113325119018555e-01 -1.177481770515441895e+00
1.550000000000000000e+03 2.329767990112304688e+01 -3.362458419799804688e+01 1.076474040746688843e-02 -1.885116682387888432e-03 2.663887338712811470e-03 4.767623730003833771e-03
1.551000000000000000e+03 1.075411415100097656e+01 -3.027493667602539062e+01 1.632710336707532406e-03 -2.124944439856335521e-04 4.260647692717611790e-04 2.828035794664174318e-04
1.552000000000000000e+03 7.256974029541015625e+01 -2.568129730224609375e+01 5.910540819168090820e-01 6.699153423309326172e+00 2.187062263488769531e+00 -3.236262798309326172e+00
1.553000000000000000e+03 7.137538909912109375e+01 -2.947162818908691406e+01 6.507833003997802734e-01 2.118536472320556641e+00 8.307958841323852539e-01 1.444336056709289551e+00
1.554000000000000000e+03 7.303482818603515625e+01 -2.443976974487304688e+01 -3.740512430667877197e-01 7.905437469482421875e+00 2.259415864944458008e+00 -1.711943149566650391e+00
1.555000000000000000e+03 7.338577270507812500e+01 -2.568494606018066406e+01 -4.384316205978393555e-01 1.123615169525146484e+01 3.239316225051879883e+00 -2.031632661819458008e+00
1.556000000000000000e+03 7.297901153564453125e+01 -2.934415245056152344e+01 -4.660275578498840332e-02 8.536479949951171875e+00 2.546963214874267578e+00 2.414600372314453125e+00
1.557000000000000000e+03 7.347214508056640625e+01 -2.521438598632812500e+01 -5.065447688102722168e-01 1.030414485931396484e+01 2.939280033111572266e+00 -1.662585020065307617e+00
1.558000000000000000e+03 7.409165191650390625e+01 -2.883395576477050781e+01 3.916441202163696289e-01 1.255307483673095703e+01 3.883415699005126953e+00 -5.412055253982543945e-01
1.559000000000000000e+03 7.509452056884765625e+01 -2.610125732421875000e+01 1.787228584289550781e+00 1.090513420104980469e+01 3.807708978652954102e+00 1.440747022628784180e+00
1.560000000000000000e+03 7.509989166259765625e+01 -2.805371284484863281e+01 3.273238182067871094e+00 1.074427223205566406e+01 4.205253124237060547e+00 -1.360716700553894043e+00
1.561000000000000000e+03 7.493000030517578125e+01 -2.685750961303710938e+01 3.904746770858764648e+00 1.084062099456787109e+01 4.423610210418701172e+00 1.033857464790344238e+00
1.562000000000000000e+03 7.523012542724609375e+01 -2.639089584350585938e+01 2.518342494964599609e+00 1.059988117218017578e+01 3.935467243194580078e+00 1.375109195709228516e+00
1.563000000000000000e+03 7.503672790527343750e+01 -2.827625465393066406e+01 2.824561119079589844e+00 1.093986034393310547e+01 4.129326343536376953e+00 -1.571349620819091797e+00
1.564000000000000000e+03 7.378795623779296875e+01 -2.486603164672851562e+01 -6.257352232933044434e-01 1.013161563873291016e+01 2.851763963699340820e+00 -8.799608945846557617e-01
1.565000000000000000e+03 4.041089630126953125e+01 -1.946455574035644531e+01 -1.295405581913655624e-06 1.092112870537675917e-05 2.887716846089460887e-06 1.111240999307483435e-05
1.566000000000000000e+03 1.671646308898925781e+01 -7.895127773284912109e+00 4.707267362391576171e-05 -1.495545257057528943e-05 9.635165952204260975e-06 -1.167454774986254051e-05
1.567000000000000000e+03 4.635046005249023438e+01 -2.482973480224609375e+01 -1.293527036905288696e-01 -3.369449079036712646e-01 -1.398892849683761597e-01 -6.968726515769958496e-01
1.568000000000000000e+03 4.743931579589843750e+01 -2.376253509521484375e+01 -3.136546015739440918e-01 -3.037246465682983398e-01 -1.852137744426727295e-01 -7.184573411941528320e-01
1.569000000000000000e+03 2.838660812377929688e+01 -1.340900897979736328e+01 -7.841357728466391563e-06 -4.436899416759843007e-06 -3.683477189042605460e-06 -8.555552085454110056e-06
1.570000000000000000e+03 1.436033630371093750e+01 -5.834802627563476562e+00 -2.413831134617794305e-05 -1.541171877761371434e-05 -1.186500867333961651e-05 1.139844334829831496e-05
1.571000000000000000e+03 1.476412010192871094e+01 -5.298217296600341797e+00 1.665672789386007935e-05 1.528283246443606913e-05 9.581867743690963835e-06 -4.257406544638797641e-06
1.572000000000000000e+03 1.381956100463867188e+01 -5.487856864929199219e+00 1.785178574209567159e-05 2.493083775334525853e-05 1.283478741243015975e-05 -1.157244150817859918e-05
1.573000000000000000e+03 1.677101707458496094e+01 -6.990561485290527344e+00 3.273505717515945435e-05 -3.751990334421861917e-06 8.694920325069688261e-06 -7.636945156264118850e-06
1.574000000000000000e+03 1.180744361877441406e+01 -5.125036239624023438e+00 3.623367092586704530e-06 5.036350921727716923e-05 1.619606337044388056e-05 -3.550462679413612932e-06
1.575000000000000000e+03 1.215756511688232422e+01 -4.495275497436523438e+00 -7.530827588198008016e-06 -4.217136665829457343e-05 -1.491065813752356917e-05 7.334955398619058542e-07
1.576000000000000000e+03 1.365725326538085938e+01 -4.565467834472656250e+00 1.307434831687714905e-05 2.677068732737097889e-05 1.195351069327443838e-05 -4.048245955345919356e-06
1.577000000000000000e+03 1.158384799957275391e+01 -4.190434932708740234e+00 6.902093900862382725e-06 4.100616206414997578e-05 1.437247738067526370e-05 5.125600182509515435e-06
1.578000000000000000e+03 1.896040153503417969e+01 -1.104891014099121094e+01 3.054245098610408604e-05 2.497958121239207685e-05 1.665660965954884887e-05 -1.849407453846652061e-05
1.579000000000000000e+03 1.741669845581054688e+01 -9.076069831848144531e+00 3.242938328185118735e-05 -1.348744353890651837e-05 5.682582013832870871e-06 -1.328944017586763948e-05
1.580000000000000000e+03 1.032601642608642578e+01 -3.717479944229125977e+00 1.921818693517707288e-05 3.422418012632988393e-05 1.603271084604784846e-05 9.407401194039266557e-06
1.581000000000000000e+03 1.097178268432617188e+01 -3.924764394760131836e+00 -1.372259794152341783e-05 -3.545814979588612914e-05 -1.475422413932392374e-05 -9.335924005426932126e-06
1.582000000000000000e+03 4.529136276245117188e+01 -1.813453865051269531e+01 8.389951290155295283e-06 1.831279041653033346e-05 8.010822966753039509e-06 8.239800877163361292e-07
1.583000000000000000e+03 4.433306503295898438e+01 -1.760773086547851562e+01 1.493199306423775852e-05 2.128209780494216830e-05 1.086422798834973946e-05 -3.174588300680625252e-06
1.584000000000000000e+03 4.550538635253906250e+01 -2.424925804138183594e+01 -1.653100103139877319e-01 -3.772142529487609863e-01 -1.627572774887084961e-01 -6.330001354217529297e-01
1.585000000000000000e+03 4.590503311157226562e+01 -2.341046142578125000e+01 -3.089196681976318359e-01 -2.920725643634796143e-01 -1.802976727485656738e-01 -6.205146908760070801e-01
1.586000000000000000e+03 4.491426467895507812e+01 -2.437441444396972656e+01 -1.250630766153335571e-01 -4.404526650905609131e-01 -1.696547269821166992e-01 -5.895389318466186523e-01
1.587000000000000000e+03 4.355513381958007812e+01 -1.783304595947265625e+01 -2.574233076302334666e-05 -1.700360189715865999e-05 -1.282377979805460200e-05 2.705972121930244612e-07
1.588000000000000000e+03 4.791510772705078125e+01 -2.291291809082031250e+01 -5.484450459480285645e-01 -2.601042091846466064e-01 -2.425647825002670288e-01 -7.006160616874694824e-01
1.589000000000000000e+03 4.678749465942382812e+01 -2.394043922424316406e+01 -2.651425898075103760e-01 -2.867186665534973145e-01 -1.655583679676055908e-01 -7.032406330108642578e-01
1.590000000000000000e+03 4.942289352416992188e+01 -2.338879966735839844e+01 -4.262258410453796387e-01 -1.456877142190933228e-01 -1.715740710496902466e-01 -7.193543910980224609e-01
1.591000000000000000e+03 6.530508995056152344e+00 3.402046680450439453e+00 -1.342164068773854524e-05 -7.075580924720270559e-06 -6.149166438262909651e-06 -1.835760303947608918e-05
1.592000000000000000e+03 7.802250862121582031e+00 2.539670705795288086e+00 7.564473344245925546e-05 3.480605664663016796e-05 3.313523484393954277e-05 -4.315199112170375884e-05
1.593000000000000000e+03 7.886182308197021484e+00 3.252324819564819336e+00 1.305385649175150320e-05 -7.458204891008790582e-06 1.678695525697548874e-06 -3.966867006965912879e-05
1.594000000000000000e+03 3.012134790420532227e+00 3.889096975326538086e+00 3.025261867151129991e-05 2.122307523677591234e-05 1.544270890008192509e-05 -4.169133899267762899e-05
1.595000000000000000e+03 8.503835678100585938e+00 2.516864776611328125e+00 2.210463389928918332e-05 -1.324446429862291552e-06 6.234055945242289454e-06 -4.082564919372089207e-05
1.596000000000000000e+03 9.170438766479492188e+00 3.162503480911254883e+00 1.440154119336511940e-05 1.611844163562636822e-05 9.155995030596386641e-06 -5.423184120445512235e-05
1.597000000000000000e+03 2.762467145919799805e+00 3.007679939270019531e+00 -5.378644345910288393e-06 -1.238051299878861755e-05 -5.327747203409671783e-06 4.239503141434397548e-06
1.598000000000000000e+03 5.828121185302734375e+00 3.465404272079467773e+00 7.937316695461049676e-05 3.562554411473684013e-05 3.449961513979360461e-05 -4.912809527013450861e-05
1.599000000000000000e+03 5.984919071197509766e+00 4.338400840759277344e+00 -2.217643123003654182e-05 -3.091929784204694442e-06 -7.580508281535003334e-06 -2.400240373390261084e-05
1.600000000000000000e+03 3.514545917510986328e+00 2.838967561721801758e+00 3.776531593757681549e-05 2.773687810986302793e-05 1.965065894182771444e-05 -2.114257767971139401e-05
1.601000000000000000e+03 3.909685134887695312e+00 4.320896625518798828e+00 2.617162499518599361e-05 5.335945388651452959e-05 2.385932384640909731e-05 -7.977896893862634897e-05
1.602000000000000000e+03 9.927876472473144531e+00 2.621846199035644531e+00 4.624106804840266705e-05 7.527926300099352375e-06 1.613069798622746021e-05 -7.723678572801873088e-05
1.603000000000000000e+03 4.957037734985351562e+01 -1.603104782104492188e+01 -4.544328839983791113e-05 5.092374067316995934e-06 -1.210527443618047982e-05 -1.022429296426707879e-05
1.604000000000000000e+03 5.129224777221679688e+01 -1.689555358886718750e+01 2.495080116204917431e-05 5.454109214042546228e-06 9.121473340201191604e-06 -2.351108196307905018e-05
1.605000000000000000e+03 2.765099334716796875e+01 -1.184486007690429688e+01 5.557217264140490443e-06 4.690677087637595832e-06 3.074368351008160971e-06 -1.820008583308663219e-05
1.606000000000000000e+03 2.675707244873046875e+01 -1.057483959197998047e+01 -4.065160737809492275e-06 1.022470769385108724e-06 -9.128070246333663817e-07 -8.161872756318189204e-06
1.607000000000000000e+03 2.535627746582031250e+01 -9.733489990234375000e+00 9.632772162149194628e-06 -1.380590219923760742e-05 -1.251939124813361559e-06 2.363068597333040088e-05
1.608000000000000000e+03 5.014360046386718750e+01 -2.334714889526367188e+01 -4.393626749515533447e-01 -1.234107539057731628e-01 -1.688320338726043701e-01 -6.847341060638427734e-01
1.609000000000000000e+03 5.152685165405273438e+01 -2.236265182495117188e+01 -8.599145412445068359e-01 -2.771955914795398712e-03 -2.588059306144714355e-01 -6.066491603851318359e-01
1.610000000000000000e+03 5.480630493164062500e+01 -2.245658111572265625e+01 -6.083304882049560547e-01 6.986125707626342773e-01 2.708462439477443695e-02 6.705649197101593018e-02
1.611000000000000000e+03 4.771254348754882812e+01 -1.673139572143554688e+01 2.578085695859044790e-05 1.268218875338789076e-05 1.153891389549244195e-05 1.155667723651276901e-05
1.612000000000000000e+03 4.681834793090820312e+01 -1.684989738464355469e+01 -1.505401360191171989e-05 -2.923270221799612045e-05 -1.328601501882076263e-05 -1.563172554597258568e-05
1.613000000000000000e+03 2.534772872924804688e+01 -6.761420726776123047e+00 1.805294050427619368e-05 5.943290034338133410e-06 7.198868843261152506e-06 -4.419819742906838655e-05
1.614000000000000000e+03 5.151592254638671875e+01 -1.508253479003906250e+01 5.646334102493710816e-05 -2.167739694414194673e-05 1.043578322423854843e-05 -2.935716111096553504e-05
1.615000000000000000e+03 4.397565078735351562e+01 -2.412122535705566406e+01 -9.470954537391662598e-02 -4.291765391826629639e-01 -1.571658253669738770e-01 -4.521574676036834717e-01
1.616000000000000000e+03 4.445835876464843750e+01 -2.464913940429687500e+01 -1.021305844187736511e-01 -4.733117222785949707e-01 -1.726326942443847656e-01 -5.442188382148742676e-01
1.617000000000000000e+03 2.267769622802734375e+01 -4.634408950805664062e+00 1.732306918711401522e-05 -4.059156253788387403e-06 3.979173925472423434e-06 4.124814950046129525e-05
1.618000000000000000e+03 2.363278388977050781e+01 -7.047015666961669922e+00 1.313219127041520551e-05 -1.140419135481351987e-05 5.184000428926083259e-07 3.631881190813146532e-05
1.619000000000000000e+03 2.373686408996582031e+01 -5.915598869323730469e+00 1.339211848971899599e-05 -9.585682164470199496e-06 1.141930738413066138e-06 4.218429603497497737e-05
1.620000000000000000e+03 2.423745346069335938e+01 -6.576605319976806641e+00 1.844754115154501051e-05 -2.762282747426070273e-06 4.705577339336741716e-06 -4.090818765689618886e-05
1.621000000000000000e+03 1.581944179534912109e+01 9.384395480155944824e-01 5.359675560612231493e-05 -2.025440517172683030e-05 1.000270549411652610e-05 -1.775152850314043462e-05
1.622000000000000000e+03 1.651726913452148438e+01 5.471328496932983398e-01 1.244587765540927649e-04 2.257951746287290007e-05 4.411148620420135558e-05 -3.149530311929993331e-05
1.623000000000000000e+03 2.156356048583984375e+01 -4.511503219604492188e+00 1.964532748388592154e-05 1.058207089954521507e-06 6.211060735950013623e-06 3.356152956257574260e-05
1.624000000000000000e+03 2.168651580810546875e+01 -2.238593339920043945e+00 3.460279549472033978e-05 -9.358734587294748053e-08 1.035276181937661022e-05 5.472508928505703807e-05
1.625000000000000000e+03 2.079082679748535156e+01 -8.152713179588317871e-01 7.212747732410207391e-05 6.643619599344674498e-06 2.363132807658985257e-05 4.286439434508793056e-05
1.626000000000000000e+03 1.883107757568359375e+01 5.528200864791870117e-01 1.669484918238595128e-04 6.798225967941107228e-06 5.212401447352021933e-05 1.170657242255401798e-06
1.627000000000000000e+03 1.797851181030273438e+01 -1.480470001697540283e-01 1.306710910284891725e-04 2.008070805459283292e-05 4.522554081631824374e-05 -1.256448922504205257e-05
1.628000000000000000e+03 8.212790489196777344e+00 -3.474316358566284180e+00 -2.117573058058042079e-05 -3.113142884103581309e-05 -1.569214873597957194e-05 -2.514432708267122507e-05
1.629000000000000000e+03 5.928698062896728516e+00 -2.607423543930053711e+00 -3.479328734101727605e-05 -9.932227840181440115e-06 -1.341765528195537627e-05 -6.872990979900350794e-06
1.630000000000000000e+03 3.253764390945434570e+00 -3.936566829681396484e+00 5.711505946237593889e-05 -6.292691978160291910e-06 1.524671006336575374e-05 -2.130876055161934346e-05
1.631000000000000000e+03 4.399391174316406250e+00 -3.270473718643188477e+00 2.173404755012597889e-05 1.656289896345697343e-05 1.148908359027700499e-05 2.650324859132524580e-05
1.632000000000000000e+03 5.791156768798828125e+00 -3.360604286193847656e+00 5.052042615716345608e-05 2.110318519044085406e-06 1.578922274347860366e-05 8.044199603318702430e-06
1.633000000000000000e+03 5.065053462982177734e+00 -3.235065937042236328e+00 -3.810445559793151915e-05 -9.297931683249771595e-06 -1.422071636625332758e-05 1.260612521036819089e-06
1.634000000000000000e+03 9.815837860107421875e+00 -2.839604139328002930e+00 1.996102582779712975e-05 3.227269553462974727e-05 1.567011531733442098e-05 1.255486586160259321e-05
1.635000000000000000e+03 9.078565597534179688e+00 -2.735386133193969727e+00 -1.932588202180340886e-05 -3.262416066718287766e-05 -1.558501207910012454e-05 -1.726645314192865044e-05
1.636000000000000000e+03 2.557965278625488281e+01 -8.595495223999023438e+00 1.552045614516828209e-05 -1.687424810370430350e-05 -4.061373601871309802e-07 3.206887777196243405e-05
1.637000000000000000e+03 6.489050292968750000e+01 -1.620211982727050781e+01 7.192568778991699219e-01 1.079922318458557129e+00 5.397537350654602051e-01 9.095489382743835449e-01
1.638000000000000000e+03 6.331694412231445312e+01 -1.708989524841308594e+01 5.351945161819458008e-01 1.168105959892272949e+00 5.109901428222656250e-01 9.732164144515991211e-01
1.639000000000000000e+03 6.535289764404296875e+01 -1.555447864532470703e+01 7.828962802886962891e-01 1.277705192565917969e+00 6.181804537773132324e-01 8.676413893699645996e-01
1.640000000000000000e+03 6.403890991210937500e+01 -1.705041122436523438e+01 5.310487747192382812e-01 1.027766227722167969e+00 4.676444828510284424e-01 9.793151021003723145e-01
1.641000000000000000e+03 6.479108428955078125e+01 -1.687721633911132812e+01 5.527679920196533203e-01 9.707656502723693848e-01 4.570600986480712891e-01 8.658167719841003418e-01
1.642000000000000000e+03 6.473693847656250000e+01 -2.030531501770019531e+01 -1.238539576530456543e+00 5.704115033149719238e-01 -2.004384249448776245e-01 7.898631095886230469e-01
1.643000000000000000e+03 6.588124847412109375e+01 -1.488437461853027344e+01 8.003476858139038086e-01 1.502284049987792969e+00 6.907895207405090332e-01 8.013240694999694824e-01
1.644000000000000000e+03 5.780412673950195312e+01 -2.198766517639160156e+01 -6.399867534637451172e-01 1.363462686538696289e+00 2.170427888631820679e-01 8.804276585578918457e-01
1.645000000000000000e+03 5.927478408813476562e+01 -2.177435302734375000e+01 -6.699496507644653320e-01 1.614632725715637207e+00 2.834049463272094727e-01 1.145474672317504883e+00
1.646000000000000000e+03 2.471318435668945312e+01 -7.248588085174560547e+00 1.330664053966756910e-05 -1.461951433157082647e-05 -3.938621375709772110e-07 3.954752901336178184e-05
1.647000000000000000e+03 5.257332611083984375e+01 -2.384727287292480469e+01 -1.189781501889228821e-01 3.572794497013092041e-01 7.149038463830947876e-02 -3.896954655647277832e-01
1.648000000000000000e+03 2.736419296264648438e+01 -1.006900501251220703e+01 5.517638328456087038e-06 -3.366718601682805456e-06 6.452759748754033353e-07 1.736145713948644698e-05
1.649000000000000000e+03 1.367763710021972656e+01 2.098120689392089844e+00 1.382329937769100070e-04 2.107890759361907840e-05 4.779357186635024846e-05 -5.562268052017316222e-05
1.650000000000000000e+03 1.150484371185302734e+01 3.157332420349121094e+00 1.502962459198897704e-05 1.397596133756451309e-05 8.701676051714457572e-06 -2.943149411294143647e-05
1.651000000000000000e+03 4.594950866699218750e+01 -1.712203598022460938e+01 7.668217222089879215e-06 2.840935303538572043e-05 1.082327162293950096e-05 6.115466817391279619e-07
1.652000000000000000e+03 2.213348007202148438e+01 -4.008211612701416016e+00 6.309493619482964277e-05 -2.382307138759642839e-05 1.178155980596784502e-05 -5.263771163299679756e-05
1.653000000000000000e+03 2.051244354248046875e+01 -2.062070131301879883e+00 3.912571264663711190e-05 1.135642833105521277e-05 1.514464292995398864e-05 3.770689363591372967e-05
1.654000000000000000e+03 1.964749908447265625e+01 -3.532694578170776367e-01 1.107591233449056745e-04 2.279683576489333063e-05 4.006678864243440330e-05 3.237039709347300231e-05
1.655000000000000000e+03 5.966085815429687500e+01 -2.044889831542968750e+01 -8.794891834259033203e-01 1.551270246505737305e+00 2.015343308448791504e-01 1.144247174263000488e+00
1.656000000000000000e+03 6.107598114013671875e+01 -2.067215728759765625e+01 -7.757179737091064453e-01 1.529162406921386719e+00 2.260333448648452759e-01 1.145867586135864258e+00
1.657000000000000000e+03 5.165472412109375000e+01 -2.317628097534179688e+01 -4.614136815071105957e-01 5.377247929573059082e-02 -1.222923547029495239e-01 -5.582425594329833984e-01
1.658000000000000000e+03 5.426797866821289062e+01 -2.448870277404785156e+01 2.859277129173278809e-01 1.138153314590454102e+00 4.272243082523345947e-01 4.975634440779685974e-02
1.659000000000000000e+03 4.385171127319335938e+01 -2.575793075561523438e+01 -4.478745162487030029e-02 -7.204679250717163086e-01 -2.295766025781631470e-01 -5.059815049171447754e-01
1.660000000000000000e+03 9.715643882751464844e+00 3.323856353759765625e+00 4.565836934489198029e-05 5.165852780919522047e-05 2.919506914622616023e-05 -2.013002267631236464e-05
1.661000000000000000e+03 6.982283020019531250e+01 -4.229281902313232422e+00 2.832837104797363281e-01 6.731253147125244141e+00 2.104361057281494141e+00 1.004255890846252441e+00
1.662000000000000000e+03 5.982813644409179688e+01 -2.258369064331054688e+01 -2.094309628009796143e-01 1.660321950912475586e+00 4.352672994136810303e-01 1.260360717773437500e+00
1.663000000000000000e+03 3.784749984741210938e+01 1.732124900817871094e+01 -2.394131734035909176e-04 -1.739244908094406128e-04 -1.240012934431433678e-04 5.269411485642194748e-04
1.664000000000000000e+03 4.053577423095703125e+01 1.496727561950683594e+01 1.151483971625566483e-03 4.502581723500043154e-04 4.805226635653525591e-04 2.561061992309987545e-04
1.665000000000000000e+03 1.812093353271484375e+01 -1.163276481628417969e+01 -3.998622560175135732e-05 -3.723505506059154868e-05 -2.316638529009651393e-05 4.243134299031225964e-06
1.666000000000000000e+03 1.481957435607910156e+01 -1.093655776977539062e+01 1.137698709499090910e-04 -8.505833648086991161e-06 3.157921310048550367e-05 -7.511375770263839513e-06
1.667000000000000000e+03 1.568447113037109375e+01 2.775188446044921875e+00 1.653354556765407324e-04 1.756719575496390462e-05 5.487079761223867536e-05 -6.741490506101399660e-05
1.668000000000000000e+03 6.720557403564453125e+01 -1.480224990844726562e+01 6.807737350463867188e-01 2.017792701721191406e+00 8.095699548721313477e-01 4.401132464408874512e-01
1.669000000000000000e+03 6.646340179443359375e+01 -1.417973136901855469e+01 7.692586779594421387e-01 1.900406837463378906e+00 8.008996248245239258e-01 6.941980719566345215e-01
1.670000000000000000e+03 7.232330322265625000e+01 1.466805171966552734e+01 5.048513785004615784e-02 8.953730583190917969e+00 2.701264619827270508e+00 -4.328406974673271179e-02
1.671000000000000000e+03 2.012737274169921875e+01 -1.246318435668945312e+01 1.379692821501521394e-05 -2.973649543491774239e-06 3.246983396820724010e-06 -1.294112462346674874e-05
1.672000000000000000e+03 2.002418518066406250e+01 -1.113385677337646484e+01 3.126125739072449505e-05 -2.460664745740359649e-06 8.640177838969975710e-06 -1.445987618353683501e-05
1.673000000000000000e+03 5.616848373413085938e+01 -2.374864387512207031e+01 8.362037688493728638e-02 1.482282280921936035e+00 4.697707891464233398e-01 6.072700619697570801e-01
1.674000000000000000e+03 4.740371704101562500e+01 -6.935989379882812500e+00 -1.213469295180402696e-04 -4.013440411654300988e-05 -4.844439899898134172e-05 -6.017166379024274647e-05
1.675000000000000000e+03 6.762607574462890625e+00 -2.847555732727050781e+01 4.106397391296923161e-04 9.554794814903289080e-05 1.518563076388090849e-04 1.258366537513211370e-04
1.676000000000000000e+03 7.256005859375000000e+01 -2.512397384643554688e+01 3.397461259737610817e-03 6.851916313171386719e+00 2.056594133377075195e+00 -2.575412511825561523e+00
1.677000000000000000e+03 7.151407623291015625e+01 -2.391423988342285156e+01 6.765324473381042480e-01 5.010713577270507812e+00 1.706173777580261230e+00 -1.577427744865417480e+00
1.678000000000000000e+03 3.264146041870117188e+01 -1.540844631195068359e+01 -2.189907718275208026e-06 -3.100961475865915418e-05 -9.959857379726599902e-06 2.448939812893513590e-05
1.679000000000000000e+03 3.218415069580078125e+01 -3.665634918212890625e+01 -1.732388511300086975e-02 -6.459230929613113403e-02 -2.457485906779766083e-02 -7.058936357498168945e-02
1.680000000000000000e+03 2.995421981811523438e+01 -3.416493225097656250e+01 -2.481069881469011307e-03 -1.170837040990591049e-02 -4.256831947714090347e-03 -1.083372719585895538e-02
1.681000000000000000e+03 6.138613510131835938e+01 -2.273471260070800781e+01 -1.722234040498733521e-01 1.072851300239562988e+00 2.701883912086486816e-01 1.032939076423645020e+00
1.682000000000000000e+03 6.781919097900390625e+01 -1.265989208221435547e+01 6.504655480384826660e-01 2.815088987350463867e+00 1.039666414260864258e+00 4.965759217739105225e-01
1.683000000000000000e+03 6.923554229736328125e+01 -9.537626266479492188e+00 2.953975498676300049e-01 4.375578880310058594e+00 1.401293039321899414e+00 5.093191862106323242e-01
1.684000000000000000e+03 4.574303054809570312e+01 -2.127180099487304688e+00 -1.236391835846006870e-04 -8.672951662447303534e-05 -6.311060860753059387e-05 -6.013457095832563937e-05
1.685000000000000000e+03 4.622511672973632812e+01 -3.287268877029418945e+00 1.327310019405558705e-04 5.140257781022228301e-05 5.524007428903132677e-05 6.022132583893835545e-05
1.686000000000000000e+03 4.904363250732421875e+01 -1.201505279541015625e+01 -5.892089393455535173e-05 -4.520230140769854188e-05 -3.123695933027192950e-05 -3.894099063472822309e-05
1.687000000000000000e+03 4.774835586547851562e+01 -4.013165473937988281e+00 1.467114198021590710e-04 3.771458068513311446e-05 5.532780050998553634e-05 7.438428292516618967e-05
1.688000000000000000e+03 4.599580001831054688e+01 -6.002902030944824219e+00 -1.139375526690855622e-04 -4.378489393275231123e-05 -4.731673470814712346e-05 -4.620329855242744088e-05
1.689000000000000000e+03 7.227079010009765625e+01 2.960971450805664062e+01 1.342096924781799316e-01 7.193709373474121094e+00 2.198375701904296875e+00 2.855003774166107178e-01
1.690000000000000000e+03 7.211782073974609375e+01 3.168862915039062500e+01 -3.170864582061767578e-01 6.653178215026855469e+00 1.900827527046203613e+00 2.070706486701965332e-01
1.691000000000000000e+03 4.344654083251953125e+01 2.362620830535888672e+00 -9.313810733146965504e-05 -8.351138967555016279e-05 -5.299484837451018393e-05 -2.843712354660965502e-05
1.692000000000000000e+03 6.775568389892578125e+01 -2.015115547180175781e+01 -1.093840479850769043e+00 -1.125474572181701660e-01 -3.619163930416107178e-01 -1.434625089168548584e-01
1.693000000000000000e+03 3.673219299316406250e+01 -1.590111923217773438e+01 -4.146650462644174695e-05 -2.799586945911869407e-05 -2.083871368085965514e-05 8.526781130058225244e-06
1.694000000000000000e+03 3.444084167480468750e+01 -1.608518600463867188e+01 -1.978870204766280949e-05 -2.529068660805933177e-05 -1.352381696051452309e-05 7.136128715501399711e-06
1.695000000000000000e+03 2.588744354248046875e+01 -3.503155517578125000e+01 2.184908138588070869e-03 -4.951925948262214661e-03 -8.301053312607109547e-04 2.047474496066570282e-03
1.696000000000000000e+03 2.733351898193359375e+01 -3.424050903320312500e+01 6.433489732444286346e-03 -4.477054812014102936e-03 5.869303713552653790e-04 1.457878852306748740e-06
1.697000000000000000e+03 7.250474548339843750e+01 9.604302406311035156e+00 -2.337559312582015991e-01 9.222059249877929688e+00 2.696491003036499023e+00 1.300695836544036865e-01
1.698000000000000000e+03 4.494820785522460938e+01 3.163101768493652344e+01 3.026387887075543404e-03 8.582832379033789039e-06 9.104911587201058865e-04 -2.542760921642184258e-04
1.699000000000000000e+03 4.765979003906250000e+01 3.147448539733886719e+01 7.010190747678279877e-03 1.853206777013838291e-03 2.659019315615296364e-03 1.008632010780274868e-03
1.700000000000000000e+03 4.490129470825195312e+01 -2.679315757751464844e+01 -1.155484393239021301e-01 -6.340920329093933105e-01 -2.248921394348144531e-01 -6.784631609916687012e-01
1.701000000000000000e+03 5.821016311645507812e+01 -2.439723587036132812e+01 8.081289529800415039e-01 2.004748582839965820e+00 8.438632488250732422e-01 1.329742550849914551e+00
1.702000000000000000e+03 4.667269897460937500e+01 -4.459040164947509766e+00 -1.285541948163881898e-04 -6.123592174844816327e-05 -5.693703496945090592e-05 -6.101888720877468586e-05
1.703000000000000000e+03 7.693734741210937500e+01 -3.099629020690917969e+01 -3.732965588569641113e-01 9.382425308227539062e+00 2.702738761901855469e+00 -1.191958189010620117e+00
1.704000000000000000e+03 7.711480712890625000e+01 -3.328874588012695312e+01 -5.009816884994506836e-01 9.215276718139648438e+00 2.614288330078125000e+00 -6.454175710678100586e-01
1.705000000000000000e+03 7.763369750976562500e+01 -2.340589141845703125e+01 -2.373314648866653442e-01 9.119458198547363281e+00 2.664637804031372070e+00 1.029362916946411133e+00
1.706000000000000000e+03 7.802355194091796875e+01 -2.557686424255371094e+01 3.385491967201232910e-01 8.416644096374511719e+00 2.626558065414428711e+00 8.671551942825317383e-01
1.707000000000000000e+03 7.697052001953125000e+01 -3.456539916992187500e+01 -4.569192230701446533e-01 8.993936538696289062e+00 2.561105012893676758e+00 -2.415310293436050415e-01
1.708000000000000000e+03 7.689785003662109375e+01 -3.574409866333007812e+01 -3.386989831924438477e-01 8.913800239562988281e+00 2.572530269622802734e+00 -1.599578261375427246e-01
1.709000000000000000e+03 7.700819396972656250e+01 1.759133148193359375e+01 3.619693964719772339e-02 6.832347393035888672e+00 2.060563325881958008e+00 -1.294831559062004089e-02
1.710000000000000000e+03 7.765851593017578125e+01 -2.663353919982910156e+01 9.749803543090820312e-01 8.468647003173828125e+00 2.833088159561157227e+00 4.469138383865356445e-01
1.711000000000000000e+03 7.671306610107421875e+01 -3.678461837768554688e+01 -4.106085896492004395e-01 8.630211830139160156e+00 2.465881109237670898e+00 4.982887208461761475e-02
1.712000000000000000e+03 7.621604919433593750e+01 -3.791533279418945312e+01 -2.967847585678100586e-01 8.752367973327636719e+00 2.536674737930297852e+00 -1.985600031912326813e-02
1.713000000000000000e+03 7.745135498046875000e+01 -2.604011344909667969e+01 6.767845153808593750e-01 8.651629447937011719e+00 2.798524379730224609e+00 8.325570821762084961e-01
1.714000000000000000e+03 7.854003906250000000e+01 -2.943223953247070312e+01 1.700096726417541504e-01 8.284868240356445312e+00 2.536463499069213867e+00 -8.575447797775268555e-01
1.715000000000000000e+03 7.681382751464843750e+01 2.522544479370117188e+01 1.716383546590805054e-01 6.959376811981201172e+00 2.139304637908935547e+00 3.673590421676635742e-01
1.716000000000000000e+03 7.682205963134765625e+01 2.390375900268554688e+01 1.615766733884811401e-01 6.929399013519287109e+00 2.127292633056640625e+00 2.444422096014022827e-01
1.717000000000000000e+03 7.717833709716796875e+01 1.635023689270019531e+01 -4.837455227971076965e-03 6.755501270294189453e+00 2.025199174880981445e+00 -3.615290299057960510e-02
1.718000000000000000e+03 7.728907012939453125e+01 1.520827007293701172e+01 -1.855887658894062042e-02 6.689230918884277344e+00 2.001201629638671875e+00 -8.296609856188297272e-03
1.719000000000000000e+03 7.746624755859375000e+01 -2.234848785400390625e+01 -4.364142715930938721e-01 9.138499259948730469e+00 2.610625505447387695e+00 7.911025881767272949e-01
1.720000000000000000e+03 7.698612213134765625e+01 1.082468318939208984e+01 -7.525879144668579102e-02 6.854473114013671875e+00 2.033764362335205078e+00 1.260008960962295532e-01
1.721000000000000000e+03 7.703327941894531250e+01 1.415517997741699219e+01 -4.989930614829063416e-02 6.878055572509765625e+00 2.048446893692016602e+00 -1.137426309287548065e-02
1.722000000000000000e+03 7.664270782470703125e+01 2.798028945922851562e+01 9.468181431293487549e-02 7.103778839111328125e+00 2.159538269042968750e+00 5.856436491012573242e-01
1.723000000000000000e+03 7.670448303222656250e+01 2.656071472167968750e+01 1.479839086532592773e-01 7.006668567657470703e+00 2.146395683288574219e+00 4.698172509670257568e-01
1.724000000000000000e+03 7.682321929931640625e+01 3.088403129577636719e+01 -4.465111717581748962e-02 7.310986995697021484e+00 2.179900646209716797e+00 6.097066402435302734e-01
1.725000000000000000e+03 7.667372131347656250e+01 2.944648170471191406e+01 2.318339236080646515e-02 7.210006713867187500e+00 2.169957160949707031e+00 6.084205508232116699e-01
1.726000000000000000e+03 7.705127716064453125e+01 9.536589622497558594e+00 -2.588210627436637878e-02 6.804693222045898438e+00 2.033643245697021484e+00 1.705802232027053833e-01
1.727000000000000000e+03 7.822680664062500000e+01 9.631327629089355469e+00 -2.029475942254066467e-02 6.204661846160888672e+00 1.855310082435607910e+00 1.150113791227340698e-01
1.728000000000000000e+03 7.690407562255859375e+01 -1.718917655944824219e+01 -2.449705153703689575e-01 8.425060272216796875e+00 2.454026937484741211e+00 -3.928125798702239990e-01
1.729000000000000000e+03 7.662142944335937500e+01 -1.565332698822021484e+01 -1.435568034648895264e-01 8.036123275756835938e+00 2.367769956588745117e+00 -5.408205389976501465e-01
1.730000000000000000e+03 7.668790435791015625e+01 -1.243317413330078125e+01 -1.574976556003093719e-02 7.755343437194824219e+00 2.321878194808959961e+00 -6.101271510124206543e-01
1.731000000000000000e+03 7.704802703857421875e+01 -5.502435684204101562e+00 -2.410885132849216461e-02 7.292143821716308594e+00 2.180410385131835938e+00 -6.342280507087707520e-01
1.732000000000000000e+03 7.707131195068359375e+01 -6.871140480041503906e+00 -2.246160432696342468e-02 7.409230232238769531e+00 2.216030597686767578e+00 -6.145975589752197266e-01
1.733000000000000000e+03 7.693125915527343750e+01 -1.384480595588684082e-01 1.381999552249908447e-01 6.881107330322265625e+00 2.105792045593261719e+00 -4.915763139724731445e-01
1.734000000000000000e+03 7.690334320068359375e+01 1.297177433967590332e+00 1.993779987096786499e-01 6.825891017913818359e+00 2.107580661773681641e+00 -3.629873096942901611e-01
1.735000000000000000e+03 7.694528198242187500e+01 4.155380725860595703e+00 1.956502497196197510e-01 6.747550010681152344e+00 2.082960128784179688e+00 -7.460524886846542358e-02
1.736000000000000000e+03 7.600115203857421875e+01 2.138773918151855469e+01 1.333412677049636841e-01 7.234282970428466797e+00 2.210287332534790039e+00 6.297340244054794312e-02
1.737000000000000000e+03 7.680970001220703125e+01 1.890999984741210938e+01 3.765544295310974121e-02 6.914190292358398438e+00 2.085553884506225586e+00 -5.561825819313526154e-03
1.738000000000000000e+03 7.660764312744140625e+01 2.251753997802734375e+01 1.343710720539093018e-01 6.997339725494384766e+00 2.139513254165649414e+00 1.655819416046142578e-01
1.739000000000000000e+03 7.708042907714843750e+01 8.228669166564941406e+00 1.633539609611034393e-02 6.750562191009521484e+00 2.030069351196289062e+00 1.546245515346527100e-01
1.740000000000000000e+03 7.707472991943359375e+01 6.898491859436035156e+00 6.649898737668991089e-02 6.746706008911132812e+00 2.043961524963378906e+00 1.366775631904602051e-01
1.741000000000000000e+03 7.702640533447265625e+01 5.537607192993164062e+00 1.524057388305664062e-01 6.728799343109130859e+00 2.064361572265625000e+00 6.988134980201721191e-02
1.742000000000000000e+03 7.698812103271484375e+01 -1.534510731697082520e+00 9.592861682176589966e-02 6.957913875579833984e+00 2.116152763366699219e+00 -5.723103284835815430e-01
1.743000000000000000e+03 7.822209930419921875e+01 -2.826439857482910156e+00 2.620782144367694855e-02 6.815531253814697266e+00 2.052521705627441406e+00 -4.654663801193237305e-01
1.744000000000000000e+03 7.593959808349609375e+01 -2.976733684539794922e+00 8.699966222047805786e-02 7.270988941192626953e+00 2.207396507263183594e+00 -6.768903732299804688e-01
1.745000000000000000e+03 7.703350830078125000e+01 -8.248126983642578125e+00 -2.682124264538288116e-02 7.525247097015380859e+00 2.249527692794799805e+00 -6.076759099960327148e-01
1.746000000000000000e+03 7.812999725341796875e+01 -9.705192565917968750e+00 -5.491171963512897491e-03 8.045553207397460938e+00 2.412018537521362305e+00 -4.454152882099151611e-01
1.747000000000000000e+03 7.690927886962890625e+01 -9.610351562500000000e+00 -1.088636275380849838e-02 7.623405456542968750e+00 2.283755779266357422e+00 -6.058295369148254395e-01
1.748000000000000000e+03 7.709843444824218750e+01 -1.858732223510742188e+01 -3.433159589767456055e-01 8.733940124511718750e+00 2.517187118530273438e+00 -1.531988084316253662e-01
1.749000000000000000e+03 7.834712982177734375e+01 -1.971005058288574219e+01 -1.926428824663162231e-01 9.502717018127441406e+00 2.793022155761718750e+00 1.320585906505584717e-01
1.750000000000000000e+03 7.721812438964843750e+01 -1.990351104736328125e+01 -4.290658235549926758e-01 8.936466217041015625e+00 2.552220106124877930e+00 1.199069842696189880e-01
1.751000000000000000e+03 7.818517303466796875e+01 3.207808685302734375e+01 -3.492572903633117676e-02 7.624780178070068359e+00 2.276956319808959961e+00 3.972514867782592773e-01
1.752000000000000000e+03 7.706139373779296875e+01 -2.877859354019165039e+00 5.233518034219741821e-02 7.047890186309814453e+00 2.130067586898803711e+00 -6.206603050231933594e-01
1.753000000000000000e+03 7.259488677978515625e+01 4.086422920227050781e+00 4.466306865215301514e-01 9.464051246643066406e+00 2.973204612731933594e+00 6.514658778905868530e-02
1.754000000000000000e+03 7.264052581787109375e+01 5.544932842254638672e+00 4.045327305793762207e-01 9.416701316833496094e+00 2.946370124816894531e+00 1.557413674890995026e-02
1.755000000000000000e+03 4.142348861694335938e+01 1.951023292541503906e+01 -7.347129285335540771e-04 8.895191713236272335e-04 4.644186265068128705e-05 9.463350288569927216e-04
1.756000000000000000e+03 7.249372863769531250e+01 2.332088851928710938e+01 3.862529098987579346e-01 8.727540016174316406e+00 2.734138011932373047e+00 -1.161077097058296204e-01
1.757000000000000000e+03 7.223617553710937500e+01 1.973322296142578125e+01 7.574252784252166748e-02 9.095161437988281250e+00 2.751271247863769531e+00 -3.111067600548267365e-02
1.758000000000000000e+03 7.213662719726562500e+01 1.737602996826171875e+01 8.517388254404067993e-02 9.134474754333496094e+00 2.765894651412963867e+00 3.089004382491111755e-02
1.759000000000000000e+03 7.202694702148437500e+01 1.860220336914062500e+01 4.011368006467819214e-02 9.215569496154785156e+00 2.776704788208007812e+00 2.954113483428955078e-02
1.760000000000000000e+03 9.731974601745605469e+00 -1.656461143493652344e+01 -8.825006079860031605e-05 -1.386102576361736283e-05 -3.063332769670523703e-05 5.113753286423161626e-05
1.761000000000000000e+03 7.823894023895263672e+00 -1.703546905517578125e+01 -4.903074295725673437e-05 1.716694714559707791e-05 -9.559139471093658358e-06 3.085619027842767537e-05
1.762000000000000000e+03 3.512783288955688477e+00 2.561555290222167969e+01 1.307728671235963702e-04 4.554946499411016703e-04 1.758802536642178893e-04 -9.034106187755241990e-05
1.763000000000000000e+03 3.380620956420898438e+00 3.153922080993652344e+01 1.244092272827401757e-04 5.792544106952846050e-04 2.110990899382159114e-04 -1.093769242288544774e-04
1.764000000000000000e+03 3.510930538177490234e+00 3.272455215454101562e+01 -1.863422803580760956e-04 6.517729489132761955e-04 1.396291918354108930e-04 -1.019537958200089633e-04
1.765000000000000000e+03 3.560486316680908203e+00 3.019735908508300781e+01 -9.947599755832925439e-05 5.842181271873414516e-04 1.454226439818739891e-04 -1.089505676645785570e-04
1.766000000000000000e+03 2.165420770645141602e+00 2.735451889038085938e+01 9.375715308124199510e-05 5.702914204448461533e-04 1.992145698750391603e-04 -8.315865125041455030e-05
1.767000000000000000e+03 5.233573436737060547e+00 2.869601249694824219e+01 -8.996178075904026628e-05 4.242378636263310909e-04 1.002828212222084403e-04 -2.245154028059914708e-04
1.768000000000000000e+03 6.174092769622802734e+00 -2.546326446533203125e+01 -6.799941911594942212e-05 -1.317056467087240890e-05 -2.435099668218754232e-05 -1.187423258670605719e-04
1.769000000000000000e+03 2.805496454238891602e+00 -2.598600769042968750e+01 2.934363146778196096e-04 -3.024860689038177952e-06 8.712342969374731183e-05 -1.394210084981750697e-05
1.770000000000000000e+03 3.143929004669189453e+00 -3.118756294250488281e+01 4.308972565922886133e-04 1.093717874027788639e-04 1.620807161089032888e-04 9.749820310389623046e-05
1.771000000000000000e+03 2.914797782897949219e+00 -2.860745048522949219e+01 3.718401130754500628e-04 9.142533599515445530e-06 1.142947949119843543e-04 -4.002286004833877087e-06
1.772000000000000000e+03 3.075281381607055664e+00 2.269290924072265625e+01 1.776216522557660937e-04 3.343791759107261896e-04 1.536002382636070251e-04 -8.846165292197838426e-05
1.773000000000000000e+03 3.087946653366088867e+00 -2.058420944213867188e+01 2.254339487990364432e-04 -9.047903404280077666e-07 6.735874922014772892e-05 1.374428666167659685e-05
1.774000000000000000e+03 3.225542306900024414e+00 -1.919837570190429688e+01 -2.182957541663199663e-04 2.295595550094731152e-06 -6.480004958575591445e-05 -1.964830153156071901e-05
1.775000000000000000e+03 2.836767435073852539e+00 -2.330057716369628906e+01 2.447110309731215239e-04 -4.579655978886876255e-06 7.203941640909761190e-05 -6.553378625540062785e-06
1.776000000000000000e+03 2.936754226684570312e+00 -2.194036865234375000e+01 -2.518999972380697727e-04 1.472569056204520166e-05 -7.115229527698829770e-05 -2.569153002696111798e-05
1.777000000000000000e+03 1.814958691596984863e+00 -1.071835422515869141e+01 1.127422656281851232e-04 4.976081527274800465e-06 3.531550464686006308e-05 1.425874233973445371e-05
1.778000000000000000e+03 1.777454853057861328e+00 -6.691199302673339844e+00 -7.288200140465050936e-05 -7.361002644756808877e-06 -2.407290048722643405e-05 -1.158257077804591972e-06
1.779000000000000000e+03 1.983215451240539551e+00 -1.772618675231933594e+01 -1.839692704379558563e-04 -6.498295078927185386e-06 -5.714027065550908446e-05 -2.465976467647124082e-05
1.780000000000000000e+03 2.841188192367553711e+00 -2.729983329772949219e+01 -3.025372861884534359e-04 4.057573823956772685e-05 -7.858846220187842846e-05 -1.640332629904150963e-05
1.781000000000000000e+03 3.276356220245361328e+00 -3.246834945678710938e+01 -1.309995714109390974e-04 1.547260471852496266e-04 7.117942914192099124e-06 3.135178121738135815e-04
1.782000000000000000e+03 4.051286697387695312e+00 -3.581604766845703125e+01 2.489569596946239471e-04 6.093357806093990803e-04 2.574878162704408169e-04 5.686273798346519470e-04
1.783000000000000000e+03 3.426953554153442383e+00 -3.371302413940429688e+01 2.646685170475393534e-04 4.221426206640899181e-04 2.060433325823396444e-04 3.192367439623922110e-04
1.784000000000000000e+03 2.969213485717773438e+00 2.131247520446777344e+01 -1.596469082869589329e-04 3.528378729242831469e-04 5.795728793600574136e-05 -1.186419031000696123e-04
1.785000000000000000e+03 2.981827259063720703e+00 1.736847877502441406e+01 1.520286459708586335e-04 2.118109405273571610e-04 1.091518788598477840e-04 -7.631904009031131864e-05
1.786000000000000000e+03 2.976189374923706055e+00 1.868214035034179688e+01 -1.451663556508719921e-04 2.641897008288651705e-04 3.570700209820643067e-05 -1.008555045700632036e-04
1.787000000000000000e+03 3.035621881484985352e+00 1.464386463165283203e+01 1.346193603239953518e-04 1.507409615442156792e-04 8.560809510527178645e-05 -6.727230356773361564e-05
1.788000000000000000e+03 2.997083663940429688e+00 1.601992225646972656e+01 -1.231722708325833082e-04 1.918036723509430885e-04 2.058942118310369551e-05 -8.601023728260770440e-05
1.789000000000000000e+03 2.998905897140502930e+00 7.381610870361328125e+00 -7.546032429672777653e-05 4.503162926994264126e-05 -9.128607416641898453e-06 1.229238296218682081e-05
1.790000000000000000e+03 3.038575410842895508e+00 9.343378067016601562e+00 9.041932207765057683e-05 8.208186045521870255e-05 5.175035403226502240e-05 -1.794266972865443677e-05
1.791000000000000000e+03 3.128089189529418945e+00 -1.338713645935058594e+01 -1.284764439333230257e-04 -1.255145161849213764e-05 -4.230836930219084024e-05 -3.598471448640339077e-05
1.792000000000000000e+03 3.073516607284545898e+00 -1.204410552978515625e+01 1.178137754322960973e-04 1.171747680928092450e-05 3.885937621816992760e-05 2.981494981213472784e-05
1.793000000000000000e+03 3.031633138656616211e+00 -1.072279262542724609e+01 -1.064589960151351988e-04 -1.073626754077849910e-05 -3.515858043101616204e-05 -2.208355181210208684e-05
1.794000000000000000e+03 2.798389911651611328e+00 -2.465207481384277344e+01 -2.771558647509664297e-04 1.257746225746814162e-05 -7.937352347653359175e-05 -3.396371175767853856e-05
1.795000000000000000e+03 3.201873779296875000e+00 -1.476187038421630859e+01 1.435225858585909009e-04 9.789300747797824442e-06 4.599356543621979654e-05 4.787197394762188196e-05
1.796000000000000000e+03 2.992248296737670898e+00 -8.098117828369140625e+00 -8.521416748408228159e-05 -6.800546998420031741e-06 -2.760441566351801157e-05 -1.749100010783877224e-05
1.797000000000000000e+03 2.737632036209106445e+00 6.079032421112060547e+00 1.004779915092512965e-04 3.952316546929068863e-05 4.200034891255199909e-05 -4.657880708691664040e-05
1.798000000000000000e+03 3.002376079559326172e+00 1.191868591308593750e+01 1.305251062149181962e-04 1.008749895845539868e-04 6.942002801224589348e-05 -5.045036232331767678e-05
1.799000000000000000e+03 3.052597999572753906e+00 1.326784706115722656e+01 -1.075924665201455355e-04 1.291983207920566201e-04 6.481754553533392027e-06 -6.821557326475158334e-05
1.800000000000000000e+03 2.952130317687988281e+00 1.998594093322753906e+01 1.691605575615540147e-04 2.676479925867170095e-04 1.310425723204389215e-04 -8.236067515099421144e-05
1.801000000000000000e+03 2.416598558425903320e+00 -4.567630767822265625e+00 -2.009393756452482194e-05 7.166636351030319929e-07 -5.813181815028656274e-06 5.766989852418191731e-05
1.802000000000000000e+03 3.352894067764282227e+00 -1.771484565734863281e+01 1.926688273670151830e-04 -5.801226507173851132e-06 5.606028207694180310e-05 2.947676148323807865e-05
1.803000000000000000e+03 2.969907999038696289e+00 1.062190437316894531e+01 -1.069292848114855587e-04 8.566010365029796958e-05 -6.380754257406806573e-06 -5.374557440518401563e-05
1.804000000000000000e+03 6.352885818481445312e+01 -2.063125801086425781e+01 -1.052165865898132324e+00 9.029017090797424316e-01 -4.477922990918159485e-02 7.333665490150451660e-01
1.805000000000000000e+03 6.245198440551757812e+01 -2.060903739929199219e+01 -8.069742321968078613e-01 1.136066675186157227e+00 9.872772544622421265e-02 9.659888148307800293e-01
1.806000000000000000e+03 4.192794799804687500e+01 4.326002120971679688e+00 -6.979639147175475955e-05 1.480850914958864450e-04 2.348660927964374423e-05 -6.865096111141610891e-06
1.807000000000000000e+03 3.951145935058593750e+01 1.023913478851318359e+01 6.418557604774832726e-04 2.099012635881081223e-04 2.555271203164011240e-04 1.283065212192013860e-04
1.808000000000000000e+03 6.564797973632812500e+01 -1.364645099639892578e+01 8.138886094093322754e-01 1.706416964530944824e+00 7.560917139053344727e-01 9.133123159408569336e-01
1.809000000000000000e+03 7.225197601318359375e+01 1.605932617187500000e+01 5.325037986040115356e-02 8.939718246459960938e+00 2.697890520095825195e+00 -1.212005130946636200e-02
1.810000000000000000e+03 6.640737915039062500e+01 -2.062933921813964844e+01 -1.941103100776672363e+00 -5.180551484227180481e-02 -5.978725552558898926e-01 5.094130635261535645e-01
1.811000000000000000e+03 6.525807952880859375e+01 -1.834273910522460938e+01 -6.307163834571838379e-02 6.627305746078491211e-01 1.798976808786392212e-01 7.900946140289306641e-01
1.812000000000000000e+03 4.808437347412109375e+01 -9.623335838317871094e+00 -7.440933404723182321e-05 -3.950457903556525707e-05 -3.417417246964760125e-05 -5.254806092125363648e-05
1.813000000000000000e+03 4.862680435180664062e+01 -1.085937023162841797e+01 6.288064469117671251e-05 3.228713103453628719e-05 2.855033199011813849e-05 4.492193329497240484e-05
1.814000000000000000e+03 7.010194396972656250e+01 -3.345937728881835938e+01 -6.995649337768554688e-01 2.443662643432617188e+00 5.232293009757995605e-01 6.264330148696899414e-01
1.815000000000000000e+03 2.946496200561523438e+01 -1.534493637084960938e+01 -3.014340836671181023e-05 7.537468718510353938e-06 -6.781781848985701799e-06 1.820925717765931040e-05
1.816000000000000000e+03 4.094266891479492188e+01 8.715810775756835938e+00 8.062886772677302361e-04 2.566319890320301056e-04 3.188762057106941938e-04 1.892453292384743690e-05
1.817000000000000000e+03 3.804216003417968750e+01 9.039534568786621094e+00 5.776025354862213135e-04 3.225780383218079805e-04 2.700541808735579252e-04 2.258971508126705885e-04
1.818000000000000000e+03 7.243808746337890625e+01 2.472211456298828125e+01 5.300295948982238770e-01 8.500491142272949219e+00 2.709156274795532227e+00 -1.030120328068733215e-01
1.819000000000000000e+03 7.098917388916015625e+01 -2.636194229125976562e-03 5.954886674880981445e-01 9.656425476074218750e+00 3.075574398040771484e+00 5.690190196037292480e-01
1.820000000000000000e+03 7.244365692138671875e+01 2.621150588989257812e+01 5.552818775177001953e-01 8.162033081054687500e+00 2.615194320678710938e+00 -9.034968912601470947e-03
1.821000000000000000e+03 4.116696929931640625e+01 2.465645408630371094e+01 4.026838287245482206e-04 -1.452415745006874204e-04 7.723267481196671724e-05 1.630224171094596386e-03
1.822000000000000000e+03 6.831328392028808594e+00 -1.789054870605468750e+01 -7.582535909023135900e-05 -4.780249946634285152e-05 -3.708835720317438245e-05 -4.030405762023292482e-05
1.823000000000000000e+03 7.133889007568359375e+01 7.126497268676757812e+00 4.599370658397674561e-01 1.008487415313720703e+01 3.163443326950073242e+00 -1.699305623769760132e-01
1.824000000000000000e+03 7.164456939697265625e+01 -2.245536613464355469e+01 -1.111865520477294922e+00 4.659327507019042969e+00 1.064238667488098145e+00 -6.772398352622985840e-01
1.825000000000000000e+03 7.217639160156250000e+01 -2.079384040832519531e+01 -1.262359499931335449e+00 5.399209499359130859e+00 1.241055011749267578e+00 -9.996436834335327148e-01
1.826000000000000000e+03 6.948951721191406250e+01 -8.389263153076171875e+00 1.787771731615066528e-01 4.841102123260498047e+00 1.505963802337646484e+00 5.469161272048950195e-01
1.827000000000000000e+03 5.505668258666992188e+01 -2.549303627014160156e+01 7.446223497390747070e-01 1.800587534904479980e+00 7.635629773139953613e-01 4.065403342247009277e-01
1.828000000000000000e+03 5.443038177490234375e+01 -2.743719482421875000e+01 1.125369787216186523e+00 2.145564794540405273e+00 9.812803864479064941e-01 3.800279200077056885e-01
1.829000000000000000e+03 7.363655090332031250e+01 8.203117370605468750e+00 5.130943655967712402e-02 8.688949584960937500e+00 2.622077703475952148e+00 1.751378327608108521e-01
1.830000000000000000e+03 1.458199596405029297e+01 -1.199341773986816406e+01 -1.341748866252601147e-04 7.495265776924497914e-07 -4.002760761068202555e-05 2.192075226048473269e-05
1.831000000000000000e+03 5.719601058959960938e+01 -2.463781738281250000e+01 7.484502792358398438e-01 1.954801917076110840e+00 8.109756708145141602e-01 1.064738869667053223e+00
1.832000000000000000e+03 6.416091442108154297e+00 -2.018875694274902344e+01 -1.094466351787559688e-04 2.673142262210603803e-05 -2.481456249370239675e-05 9.668863640399649739e-05
1.833000000000000000e+03 4.957494735717773438e+01 -1.408312797546386719e+01 -6.141596531961113214e-05 -2.187919380958192050e-05 -2.498854701116215438e-05 -3.423670204938389361e-05
1.834000000000000000e+03 7.227371215820312500e+01 1.268772244453430176e+00 6.838765740394592285e-01 9.217419624328613281e+00 2.970388889312744141e+00 1.192136630415916443e-01
1.835000000000000000e+03 7.326826477050781250e+01 1.273969364166259766e+01 -3.223067224025726318e-01 8.717201232910156250e+00 2.518468379974365234e+00 -1.162115335464477539e-01
1.836000000000000000e+03 4.487678146362304688e+01 -2.884099960327148438e+01 -1.516801416873931885e-01 -5.960215330123901367e-01 -2.243105024099349976e-01 -3.600261807441711426e-01
1.837000000000000000e+03 9.671109199523925781e+00 -2.934992408752441406e+01 3.275607887189835310e-04 -7.387032383121550083e-05 7.610714237671345472e-05 -1.192773415823467076e-04
1.838000000000000000e+03 7.668225288391113281e+00 -2.960772132873535156e+01 1.963523973245173693e-04 -5.092352239444153383e-06 5.737801257055252790e-05 -2.526371463318355381e-05
1.839000000000000000e+03 4.234559631347656250e+01 -3.428222274780273438e+01 9.265770763158798218e-02 -5.169118046760559082e-01 -1.272762268781661987e-01 -3.332654386758804321e-02
1.840000000000000000e+03 1.064903259277343750e+01 -1.542801094055175781e+01 7.326170452870428562e-05 1.941484333656262606e-05 2.780296563287265599e-05 -5.262927152216434479e-05
1.841000000000000000e+03 8.750964164733886719e+00 -1.584914112091064453e+01 5.514449367183260620e-05 -2.835886618868244113e-07 1.645827069296501577e-05 -4.539856308838352561e-05
1.842000000000000000e+03 2.484264564514160156e+01 -3.627203750610351562e+01 -2.787275472655892372e-03 -7.291128393262624741e-03 -3.023521043360233307e-03 3.206824883818626404e-03
1.843000000000000000e+03 5.318281555175781250e+01 -2.972022247314453125e+01 1.130887269973754883e+00 1.627745866775512695e+00 8.275899887084960938e-01 3.729580938816070557e-01
1.844000000000000000e+03 6.476721954345703125e+01 -3.876633071899414062e+01 4.830816388130187988e-01 5.849333107471466064e-02 1.624725013971328735e-01 -2.486142516136169434e-01
1.845000000000000000e+03 3.938885498046875000e+01 -1.624616241455078125e+01 3.086540891672484577e-05 1.315296412940369919e-05 1.320551200478803366e-05 -1.222240007336949930e-05
1.846000000000000000e+03 3.924929428100585938e+01 -1.775234031677246094e+01 1.244344002770958468e-05 9.847719411482103169e-06 6.687347649858566001e-06 -9.087790203921031207e-06
1.847000000000000000e+03 3.852935791015625000e+01 -1.675295639038085938e+01 -3.641321745817549527e-05 -1.235681247635511681e-05 -1.463100943510653451e-05 2.868046294679515995e-06
1.848000000000000000e+03 3.787300109863281250e+01 -1.558740901947021484e+01 2.695333751034922898e-05 3.530379035510122776e-05 1.867713945102877915e-05 -6.166849289002129808e-06
1.849000000000000000e+03 3.003501510620117188e+01 -1.448239517211914062e+01 2.696518640732392669e-05 -1.540583070891443640e-06 7.627380909980274737e-06 -7.436185001097328495e-07
1.850000000000000000e+03 4.534265136718750000e+01 -2.995470809936523438e+01 -5.732347071170806885e-02 -4.373824894428253174e-01 -1.484117954969406128e-01 -1.853693276643753052e-01
1.851000000000000000e+03 2.682222557067871094e+01 -3.653385162353515625e+01 -7.965089753270149231e-03 -1.469189114868640900e-02 -6.797093898057937622e-03 -4.665273707360029221e-03
1.852000000000000000e+03 3.817790603637695312e+01 1.420294284820556641e+01 6.870449869893491268e-04 6.485384656116366386e-04 4.006750241387635469e-04 -1.394263963447883725e-04
1.853000000000000000e+03 3.944228744506835938e+01 8.850022315979003906e+00 -5.022326367907226086e-04 -1.180362887680530548e-04 -1.860806660261005163e-04 4.041298598167486489e-05
1.854000000000000000e+03 7.245008850097656250e+01 -2.941684913635253906e+01 4.212666153907775879e-01 6.054837226867675781e+00 1.942831277847290039e+00 2.643152952194213867e+00
1.855000000000000000e+03 7.645207214355468750e+01 -3.138810920715332031e+01 -6.371799707412719727e-01 9.383248329162597656e+00 2.623820543289184570e+00 -1.096446275711059570e+00
1.856000000000000000e+03 7.503493499755859375e+01 -2.854049301147460938e+01 1.970722317695617676e+00 1.098289775848388672e+01 3.886085987091064453e+00 -1.636124849319458008e+00
1.857000000000000000e+03 7.661348724365234375e+01 -2.691590499877929688e+01 1.929425001144409180e+00 8.949524879455566406e+00 3.263684749603271484e+00 3.863882422447204590e-01
1.858000000000000000e+03 7.540752410888671875e+01 -2.666417312622070312e+01 2.968999385833740234e+00 1.012202358245849609e+01 3.927306890487670898e+00 1.039445519447326660e+00
1.859000000000000000e+03 7.442118072509765625e+01 -2.555628395080566406e+01 1.537525057792663574e-01 1.174059009552001953e+01 3.568302869796752930e+00 6.449686288833618164e-01
1.860000000000000000e+03 7.425832366943359375e+01 -2.926628303527832031e+01 -1.124450415372848511e-01 1.152277374267578125e+01 3.423098564147949219e+00 -5.459986925125122070e-01
1.861000000000000000e+03 7.338461303710937500e+01 -2.949191856384277344e+01 -4.749436974525451660e-01 9.753317832946777344e+00 2.783512115478515625e+00 1.536561012268066406e+00
1.862000000000000000e+03 7.517029571533203125e+01 -2.544104385375976562e+01 5.636901855468750000e-01 1.072380542755126953e+01 3.386248588562011719e+00 1.248533606529235840e+00
1.863000000000000000e+03 7.395059204101562500e+01 -2.534541702270507812e+01 -4.252923130989074707e-01 1.143320941925048828e+01 3.302375078201293945e+00 -5.045870542526245117e-01
1.864000000000000000e+03 7.407997894287109375e+01 -2.489746093750000000e+01 -6.823335886001586914e-01 1.055948734283447266e+01 2.963146209716796875e+00 -3.424759209156036377e-01
1.865000000000000000e+03 7.325235748291015625e+01 -2.518552207946777344e+01 -4.651438891887664795e-01 9.484512329101562500e+00 2.705810546875000000e+00 -2.049339771270751953e+00
1.866000000000000000e+03 7.238946533203125000e+01 -2.979848861694335938e+01 1.175083443522453308e-01 5.901528835296630859e+00 1.805711150169372559e+00 2.367447137832641602e+00
1.867000000000000000e+03 7.210273742675781250e+01 -2.981503486633300781e+01 3.728056252002716064e-01 4.818110942840576172e+00 1.557275056838989258e+00 2.201525926589965820e+00
1.868000000000000000e+03 1.526358699798583984e+01 -7.550452232360839844e+00 -4.131365858484059572e-05 -8.173920832632575184e-06 -1.484627409809036180e-05 3.167038812534883618e-05
1.869000000000000000e+03 1.534552955627441406e+01 -6.603034496307373047e+00 -2.141797267540823668e-05 -1.359920770482858643e-05 -1.050515402312157676e-05 1.256202995136845857e-05
1.870000000000000000e+03 1.579776477813720703e+01 -7.935409069061279297e+00 6.098311132518574595e-05 -9.234080607711803168e-06 1.552470894239377230e-05 -2.067007335426751524e-05
1.871000000000000000e+03 1.626522254943847656e+01 -7.447302818298339844e+00 -4.605175490723922849e-05 8.136835276673082262e-06 -1.137447543442249298e-05 1.841235825850162655e-05
1.872000000000000000e+03 1.271354198455810547e+01 -4.818428993225097656e+00 1.087861710402648896e-05 3.789504989981651306e-05 1.463209991925396025e-05 -6.237024081201525405e-06
1.873000000000000000e+03 1.429132461547851562e+01 -7.222400665283203125e+00 6.369675975292921066e-05 -5.567193056776886806e-06 1.743886969052255154e-05 -2.621498424559831619e-05
1.874000000000000000e+03 5.521656036376953125e+01 -2.366483116149902344e+01 2.408288791775703430e-02 1.208998799324035645e+00 3.699245154857635498e-01 2.665321826934814453e-01
1.875000000000000000e+03 5.324932098388671875e+01 -2.289727020263671875e+01 -5.132694244384765625e-01 3.751922249794006348e-01 -4.142316058278083801e-02 -3.004463613033294678e-01
1.876000000000000000e+03 2.434668540954589844e+01 -5.418342590332031250e+00 4.245192758389748633e-05 -6.928763014002470300e-06 1.065694959834218025e-05 -5.027242877986282110e-05
1.877000000000000000e+03 4.415686798095703125e+01 -1.684837532043457031e+01 -2.311860953341238201e-05 -2.390732151980046183e-05 -1.410777986166067421e-05 1.760949288609481300e-07
1.878000000000000000e+03 4.335987472534179688e+01 -1.703817939758300781e+01 2.050133298325818032e-05 2.308453804289456457e-05 1.307576167164370418e-05 -7.250359431054675952e-06
1.879000000000000000e+03 4.687162780761718750e+01 -2.534961318969726562e+01 -3.826751559972763062e-02 -3.462330102920532227e-01 -1.153501570224761963e-01 -6.945412755012512207e-01
1.880000000000000000e+03 4.500922775268554688e+01 -2.489812469482421875e+01 -8.578019589185714722e-02 -4.985336661338806152e-01 -1.752941608428955078e-01 -6.025408506393432617e-01
1.881000000000000000e+03 5.517145156860351562e+01 -2.457678031921386719e+01 3.526957035064697266e-01 1.443911790847778320e+00 5.389822125434875488e-01 3.804604709148406982e-01
1.882000000000000000e+03 5.542692565917968750e+01 -2.222218704223632812e+01 -6.744596362113952637e-01 7.609151005744934082e-01 2.593663707375526428e-02 2.444985657930374146e-01
1.883000000000000000e+03 4.826480484008789062e+01 -2.416433334350585938e+01 -2.119487076997756958e-01 -2.591350972652435303e-01 -1.413251459598541260e-01 -7.196978330612182617e-01
1.884000000000000000e+03 1.326815319061279297e+01 -5.149755001068115234e+00 -1.575033820699900389e-05 -3.053729233215562999e-05 -1.388628879794850945e-05 9.105423487199004740e-06
1.885000000000000000e+03 1.480455780029296875e+01 -8.200348854064941406e+00 6.160322664072737098e-05 8.904097740014549345e-06 2.115219831466674805e-05 -3.321171607240103185e-05
1.886000000000000000e+03 1.654571914672851562e+01 -8.704203605651855469e+00 1.827168853196781129e-05 -1.440447340428363532e-05 1.160164288194209803e-06 -2.610747469589114189e-05
1.887000000000000000e+03 1.675466537475585938e+01 -1.009219169616699219e+01 -3.290202130301622674e-06 -9.273305295209866017e-06 -3.769052227653446607e-06 -2.799445246637333184e-05
1.888000000000000000e+03 8.668435096740722656e+00 3.847278118133544922e+00 8.819770869195053820e-07 9.319684068032074720e-06 3.060498329432448372e-06 -8.104304288281127810e-05
1.889000000000000000e+03 6.713842391967773438e+00 4.251706600189208984e+00 9.280331141781061888e-05 4.462928336579352617e-05 4.122977770748548210e-05 -6.218082853592932224e-05
1.890000000000000000e+03 4.928897857666015625e+01 -2.486666870117187500e+01 3.085527569055557251e-03 -1.247519850730895996e-01 -3.649993613362312317e-02 -6.447415947914123535e-01
1.891000000000000000e+03 4.943666076660156250e+01 -2.412241744995117188e+01 -1.859624683856964111e-01 -1.660113334655761719e-01 -1.055921390652656555e-01 -6.985219717025756836e-01
1.892000000000000000e+03 4.807942962646484375e+01 -2.356926727294921875e+01 -3.698130249977111816e-01 -2.228767126798629761e-01 -1.778069138526916504e-01 -7.266397476196289062e-01
1.893000000000000000e+03 4.880135345458984375e+01 -2.405719184875488281e+01 -2.305120825767517090e-01 -1.795653402805328369e-01 -1.230232268571853638e-01 -7.148783206939697266e-01
1.894000000000000000e+03 4.414140701293945312e+00 3.532650947570800781e+00 6.703874532831832767e-05 3.324084900668822229e-05 3.008387830050196499e-05 -3.010340878972783685e-05
1.895000000000000000e+03 2.855598926544189453e+00 5.063571929931640625e+00 -1.017010799841955304e-04 2.577396298875100911e-05 -2.277813473483547568e-05 -3.397384716663509607e-05
1.896000000000000000e+03 5.115863323211669922e+00 3.505505561828613281e+00 -3.477520294836722314e-05 4.541095961485552834e-07 -1.029632767313160002e-05 -1.366392825730144978e-05
1.897000000000000000e+03 4.506133079528808594e+00 4.322243213653564453e+00 -4.394715142552740872e-05 8.422454129686229862e-07 -1.293147215619683266e-05 -2.260852852487005293e-05
1.898000000000000000e+03 3.552751541137695312e+00 5.151218891143798828e+00 6.045977352187037468e-05 6.178348121466115117e-05 3.667297642095945776e-05 -1.143753979704342782e-04
1.899000000000000000e+03 9.305246353149414062e+00 3.735625028610229492e+00 1.444176305085420609e-04 2.849762950063450262e-06 4.418021853780373931e-05 -3.972012200392782688e-05
1.900000000000000000e+03 4.769253540039062500e+01 -2.447841262817382812e+01 -1.670695692300796509e-01 -2.512417137622833252e-01 -1.254933774471282959e-01 -7.219713330268859863e-01
1.901000000000000000e+03 2.775535202026367188e+01 -1.065799522399902344e+01 1.254418384633027017e-05 1.351092919321672525e-06 4.168583018326899037e-06 -6.855072115286020562e-06
1.902000000000000000e+03 5.097603607177734375e+01 -2.414395713806152344e+01 -1.096915826201438904e-01 5.707728490233421326e-02 -1.578428968787193298e-02 -5.894281268119812012e-01
1.903000000000000000e+03 4.070062637329101562e+01 -1.684045410156250000e+01 2.569851130829192698e-05 1.992610668821725994e-05 1.368738503515487537e-05 -4.924134373140987009e-06
1.904000000000000000e+03 4.209975814819335938e+01 -1.833227729797363281e+01 -3.598311741370707750e-05 -1.176415389636531472e-05 -1.432418139302171767e-05 -4.737093604489928111e-06
1.905000000000000000e+03 2.824578285217285156e+01 -1.116798019409179688e+01 -4.144188278587535024e-05 -6.363321972457924858e-06 -1.434156092727789655e-05 2.819858673319686204e-05
1.906000000000000000e+03 4.870628738403320312e+01 -1.598658275604248047e+01 4.131503010285086930e-05 6.112914547884429339e-07 1.257789608644088730e-05 1.989791417145170271e-05
1.907000000000000000e+03 5.047394180297851562e+01 -1.604677200317382812e+01 5.402124588727019727e-05 -1.117832107411231846e-05 1.285287726204842329e-05 5.428481131275475491e-07
1.908000000000000000e+03 1.399217891693115234e+01 -6.391294956207275391e+00 2.920173392340075225e-05 1.946178599609993398e-05 1.459905615774914622e-05 -2.489972575858701020e-05
1.909000000000000000e+03 5.057472610473632812e+01 -1.502417469024658203e+01 -7.321014709305018187e-05 1.366785636491840705e-05 -1.786268694559112191e-05 -9.228233466274105012e-06
1.910000000000000000e+03 4.789401245117187500e+01 -1.595584106445312500e+01 -4.129010994802229106e-05 6.555774234584532678e-06 -1.042030089593026787e-05 -1.419384170731063932e-05
1.911000000000000000e+03 4.933394241333007812e+01 -1.682560157775878906e+01 2.887084883695933968e-05 -1.397456981067080051e-05 4.468883616937091574e-06 -1.053293362929252908e-05
1.912000000000000000e+03 2.597961044311523438e+01 -9.263292312622070312e+00 -1.258685824723215774e-05 8.811326551949605346e-06 -1.132659463110030629e-06 -1.750146839185617864e-05
1.913000000000000000e+03 2.623140716552734375e+01 -8.110782623291015625e+00 -4.465535766939865425e-06 1.339803475275402889e-05 2.679749741218984127e-06 -3.207085683243349195e-05
1.914000000000000000e+03 4.657613372802734375e+01 -1.599754238128662109e+01 3.447844846959924325e-06 3.516444485285319388e-05 1.158368650067131966e-05 -4.029271167382830754e-06
1.915000000000000000e+03 4.855871582031250000e+01 -1.675435447692871094e+01 -3.554330032784491777e-05 -7.719573318354377989e-07 -1.089457782654790208e-05 -1.278333638765616342e-05
1.916000000000000000e+03 4.494672775268554688e+01 -1.664151954650878906e+01 1.841279845393728465e-05 2.419411248411051929e-05 1.278207309951540083e-05 -4.327997885411605239e-06
1.917000000000000000e+03 1.293609237670898438e+01 2.459802389144897461e+00 2.584440699138212949e-05 9.867021617537830025e-06 1.071342830982757732e-05 -2.829267577908467501e-05
1.918000000000000000e+03 6.545358276367187500e+01 -1.659937095642089844e+01 5.593020915985107422e-01 1.094945669174194336e+00 4.962743520736694336e-01 7.807607054710388184e-01
1.919000000000000000e+03 2.327434730529785156e+01 -4.124149799346923828e+00 6.379758997354656458e-05 -1.791305658116471022e-05 1.376535965391667560e-05 -5.443295231088995934e-05
1.920000000000000000e+03 2.381474304199218750e+01 -4.764419555664062500e+00 1.313759821641724557e-05 -7.486429240088909864e-06 1.695350874797441065e-06 4.806495053344406188e-05
1.921000000000000000e+03 1.097998428344726562e+01 -5.367291450500488281e+00 6.636164926021592692e-06 3.588991967262700200e-05 1.275782597076613456e-05 1.486955807195045054e-05
1.922000000000000000e+03 1.675496482849121094e+01 1.268539667129516602e+00 5.680638423655182123e-05 -4.049564449815079570e-05 4.893221557722426951e-06 -1.356132725049974397e-05
1.923000000000000000e+03 8.163140296936035156e+00 -4.230739593505859375e+00 1.368464381812373176e-05 3.973999628215096891e-05 1.602739212103188038e-05 2.692350790312048048e-05
1.924000000000000000e+03 2.120941925048828125e+01 -1.558896899223327637e+00 9.292179311159998178e-05 -3.809731060755439103e-05 1.644734584260731936e-05 -6.917322752997279167e-05
1.925000000000000000e+03 2.158649826049804688e+01 -3.386794328689575195e+00 2.245514588139485568e-05 1.935244426931603812e-06 7.317116796912159771e-06 4.153709232923574746e-05
1.926000000000000000e+03 2.219841575622558594e+01 -2.873437404632568359e+00 8.554664964322000742e-05 -2.723874058574438095e-05 1.749237162584904581e-05 -6.477574061136692762e-05
1.927000000000000000e+03 1.998110198974609375e+01 -1.283873796463012695e+00 8.577587141189724207e-05 -4.001682464149780571e-05 1.372771475871559232e-05 -6.033373574609868228e-05
1.928000000000000000e+03 1.883896636962890625e+01 1.403928875923156738e+00 1.738540959195233881e-05 -4.100282603758387268e-05 -7.085225206537870690e-06 -3.458173523540608585e-05
1.929000000000000000e+03 1.723188018798828125e+01 1.793064624071121216e-01 4.882461507804691792e-05 -3.151080090901814401e-05 5.194144705455983058e-06 -2.542326546972617507e-05
1.930000000000000000e+03 6.593792915344238281e+00 -3.450352430343627930e+00 -4.812768383999355137e-05 -6.393488092726329342e-06 -1.635635089769493788e-05 -2.078991201415192336e-05
1.931000000000000000e+03 7.342884063720703125e+00 -4.298634052276611328e+00 -2.450608371873386204e-05 -3.264196857344359159e-05 -1.714441532385535538e-05 -3.886932609020732343e-05
1.932000000000000000e+03 6.195806980133056641e+00 -5.004930019378662109e+00 -8.586751209804788232e-05 8.299147339130286127e-06 -2.327050970052368939e-05 -4.354510019766166806e-05
1.933000000000000000e+03 5.573994636535644531e+00 -4.098938465118408203e+00 -8.163435268215835094e-05 1.095259540306869894e-05 -2.120452700182795525e-05 -2.490165206836536527e-05
1.934000000000000000e+03 6.450492382049560547e+00 -4.263454437255859375e+00 5.873415284440852702e-05 1.138725383498240262e-05 2.103642145812045783e-05 3.440608634264208376e-05
1.935000000000000000e+03 4.284104347229003906e+00 -4.556040763854980469e+00 -9.562901686877012253e-05 1.689607961452566087e-05 -2.361988117627333850e-05 -5.964033789496170357e-06
1.936000000000000000e+03 4.088015365600585938e+01 -1.899900245666503906e+01 -3.176473546773195267e-05 -4.118737706448882818e-06 -1.076504213415319100e-05 -5.421109563030768186e-06
1.937000000000000000e+03 6.592967987060546875e+01 -1.722982788085937500e+01 4.214336872100830078e-01 9.104567766189575195e-01 3.995671272277832031e-01 6.282539367675781250e-01
1.938000000000000000e+03 5.089176559448242188e+01 -2.328141784667968750e+01 -4.473858177661895752e-01 -2.188516315072774887e-03 -1.348723024129867554e-01 -6.345176696777343750e-01
1.939000000000000000e+03 2.699948501586914062e+01 -9.433053016662597656e+00 -1.478342983318725601e-05 1.069999143510358408e-05 -1.225031724061409477e-06 -1.477669047744711861e-05
1.940000000000000000e+03 2.636819648742675781e+01 -9.924392700195312500e+00 8.511063242622185498e-06 -8.639298357593361288e-06 -3.847048546390396950e-08 2.118799238814972341e-05
1.941000000000000000e+03 1.054025554656982422e+01 -3.025965929031372070e+00 -1.597213849890977144e-05 -3.217660560039803386e-05 -1.444462304789340124e-05 -9.763116395333781838e-06
1.942000000000000000e+03 8.960714340209960938e+00 -3.493680477142333984e+00 2.034945282503031194e-05 3.504867709125392139e-05 1.661943861108738929e-05 1.684247035882435739e-05
1.943000000000000000e+03 6.338937759399414062e+01 -1.966089248657226562e+01 -6.920272111892700195e-01 1.075484633445739746e+00 1.150372326374053955e-01 9.980543255805969238e-01
1.944000000000000000e+03 2.485994911193847656e+01 -6.086052894592285156e+00 1.107741627492941916e-05 -1.244900158781092614e-05 -4.114756961826060433e-07 4.813236955669708550e-05
1.945000000000000000e+03 1.683693122863769531e+01 -1.100865554809570312e+01 -5.694374976883409545e-06 1.112790687329834327e-05 1.630059728086052928e-06 3.671002923510968685e-05
1.946000000000000000e+03 1.250826644897460938e+01 3.559904098510742188e+00 1.082778362615499645e-05 2.841993818947230466e-06 4.100933438166975975e-06 -3.647979247034527361e-05
1.947000000000000000e+03 5.615443420410156250e+01 -2.215081214904785156e+01 -7.017829418182373047e-01 9.393125176429748535e-01 7.125887274742126465e-02 4.237015843391418457e-01
1.948000000000000000e+03 5.700457000732421875e+01 -2.285289573669433594e+01 -2.507645785808563232e-01 1.405852913856506348e+00 3.465265035629272461e-01 7.420158386230468750e-01
1.949000000000000000e+03 1.743918800354003906e+01 9.342839717864990234e-01 1.347424986306577921e-04 2.382025195402093232e-05 4.756882481160573661e-05 -2.799058529490139335e-05
1.950000000000000000e+03 1.954128646850585938e+01 6.168536543846130371e-01 5.907035301788710058e-05 -5.712817437597550452e-05 5.826526603414095007e-07 -6.748942541889846325e-05
1.951000000000000000e+03 1.440941143035888672e+01 1.722931027412414551e+00 4.008308314951136708e-05 -3.391916834516450763e-06 1.100734971259953454e-05 -1.879356750578153878e-05
1.952000000000000000e+03 6.022526550292968750e+01 -2.123423767089843750e+01 -7.890380024909973145e-01 1.606226682662963867e+00 2.451566159725189209e-01 1.224205851554870605e+00
1.953000000000000000e+03 5.017816162109375000e+01 -2.416351127624511719e+01 -1.365057975053787231e-01 -2.870319411158561707e-02 -4.956269636750221252e-02 -6.569560766220092773e-01
1.954000000000000000e+03 5.102366256713867188e+01 -2.507618141174316406e+01 2.165969610214233398e-01 2.301290035247802734e-01 1.340177953243255615e-01 -4.918065071105957031e-01
1.955000000000000000e+03 7.178667449951171875e+01 -2.996187400817871094e+01 4.245181679725646973e-01 3.914160728454589844e+00 1.301603674888610840e+00 1.914308547973632812e+00
1.956000000000000000e+03 2.909964370727539062e+01 -1.301767349243164062e+01 3.862957782985176891e-06 -3.404794028938340489e-07 1.056743599292531144e-06 1.543951657367870212e-05
1.957000000000000000e+03 6.423797607421875000e+01 -1.858846664428710938e+01 -1.494894027709960938e-01 9.229944944381713867e-01 2.320515215396881104e-01 9.091761708259582520e-01
1.958000000000000000e+03 4.574792098999023438e+01 -1.638652992248535156e+01 -1.861054988694377244e-05 -2.414905247860588133e-05 -1.282788070966489613e-05 3.524183966874261387e-06
1.959000000000000000e+03 4.696743392944335938e+01 -1.026208782196044922e+01 5.273685474094236270e-06 4.020550113637000322e-05 1.364375566481612623e-05 3.084719355683773756e-05
1.960000000000000000e+03 5.536072540283203125e+01 -2.288138008117675781e+01 -4.095624685287475586e-01 9.457656741142272949e-01 1.608609557151794434e-01 2.663065493106842041e-01
1.961000000000000000e+03 5.780244827270507812e+01 -2.271784019470214844e+01 -2.926428914070129395e-01 1.608614802360534668e+00 3.947915732860565186e-01 9.635974764823913574e-01
1.962000000000000000e+03 1.469035816192626953e+01 2.443691492080688477e+00 1.517453492851927876e-04 2.008184310398064554e-05 5.154815880814567208e-05 -6.043071698513813317e-05
1.963000000000000000e+03 3.314201736450195312e+01 -1.421932125091552734e+01 -1.316673547080426943e-06 4.062975131091661751e-05 1.179392347694374621e-05 -3.363837822689674795e-05
1.964000000000000000e+03 3.080871009826660156e+01 -1.477507305145263672e+01 -3.999556793132796884e-05 3.401387687063106569e-07 -1.189662816614145413e-05 1.699076165095902979e-05
1.965000000000000000e+03 7.262741851806640625e+01 -2.182314109802246094e+01 -1.307517528533935547e+00 6.361608982086181641e+00 1.516227483749389648e+00 -9.444885253906250000e-01
1.966000000000000000e+03 7.205479431152343750e+01 -2.325916481018066406e+01 1.422416120767593384e-01 5.331808090209960938e+00 1.642214894294738770e+00 -1.157524228096008301e+00
1.967000000000000000e+03 6.245145034790039062e+01 -1.981368255615234375e+01 -7.183208465576171875e-01 1.246863603591918945e+00 1.585628092288970947e-01 9.537597298622131348e-01
1.968000000000000000e+03 6.175082397460937500e+01 -2.013298606872558594e+01 -7.614491581916809082e-01 1.482733726501464844e+00 2.163853943347930908e-01 1.085430741310119629e+00
1.969000000000000000e+03 6.639089965820312500e+01 -1.903117179870605469e+01 -4.226055741310119629e-01 3.397375047206878662e-01 -2.486042492091655731e-02 4.466857612133026123e-01
1.970000000000000000e+03 1.323707103729248047e+01 3.200155019760131836e+00 1.496448967372998595e-04 2.434754242131020874e-05 5.219773083808831871e-05 -6.272353493841364980e-05
1.971000000000000000e+03 1.178709888458251953e+01 3.901235818862915039e+00 1.357427972834557295e-04 3.909091901732608676e-05 5.245011561783030629e-05 -6.913408287800848484e-05
1.972000000000000000e+03 1.779278755187988281e+01 -1.075753879547119141e+01 3.537646625773049891e-05 -6.053574907127767801e-06 8.796867405180819333e-06 -3.538478040354675613e-06
1.973000000000000000e+03 5.759992599487304688e+00 -1.445044231414794922e+01 1.250617788173258305e-04 1.038480422721477225e-05 4.063397500431165099e-05 3.750831092474982142e-05
1.974000000000000000e+03 6.154254436492919922e+00 -1.718085289001464844e+01 -1.516028278274461627e-04 5.322858487488701940e-05 -2.951227179437410086e-05 1.031991487252525985e-04
1.975000000000000000e+03 2.691963005065917969e+01 -7.604675769805908203e+00 2.004337875405326486e-05 -1.719361171126365662e-05 8.549299082005745731e-07 4.367841029306873679e-05
1.976000000000000000e+03 7.286059570312500000e+01 -2.979989624023437500e+01 -2.447291910648345947e-01 7.393966197967529297e+00 2.144771099090576172e+00 2.120213985443115234e+00
1.977000000000000000e+03 7.777748870849609375e+01 -2.970438385009765625e+01 2.588013112545013428e-01 8.871004104614257812e+00 2.738941669464111328e+00 -1.186721682548522949e+00
1.978000000000000000e+03 7.805453491210937500e+01 -2.849549865722656250e+01 5.324730873107910156e-01 8.284552574157714844e+00 2.645107746124267578e+00 -7.213902473449707031e-01
1.979000000000000000e+03 7.731100463867187500e+01 -2.510244560241699219e+01 2.844410836696624756e-01 8.989320755004882812e+00 2.782128572463989258e+00 1.161375164985656738e+00
1.980000000000000000e+03 7.755474090576171875e+01 -2.435275077819824219e+01 3.005975857377052307e-02 9.038872718811035156e+00 2.720679759979248047e+00 1.166854739189147949e+00
1.981000000000000000e+03 4.257060527801513672e+00 -1.071634960174560547e+01 9.553765266900882125e-05 2.074235635518562049e-05 3.488400398055091500e-05 2.777280496957246214e-05
1.982000000000000000e+03 6.167299747467041016e+00 1.216884040832519531e+01 3.615016248659230769e-05 9.169067197944968939e-05 3.835224924841895700e-05 -3.991984704043716192e-05
1.983000000000000000e+03 7.568897247314453125e+01 4.222592830657958984e+00 3.408497273921966553e-01 7.462808132171630859e+00 2.341097354888916016e+00 -3.008748963475227356e-02
1.984000000000000000e+03 4.173650264739990234e+00 2.235798454284667969e+01 -1.882227370515465736e-04 3.650703292805701494e-04 5.305427475832402706e-05 -1.574964408064261079e-04
1.985000000000000000e+03 5.536163330078125000e+00 2.316931343078613281e+01 -1.708114723442122340e-04 3.385346208233386278e-04 5.031694672652520239e-05 -1.613386848475784063e-04
1.986000000000000000e+03 6.988532257080078125e+01 -7.188948154449462891e+00 1.242824196815490723e-01 5.449306964874267578e+00 1.672076821327209473e+00 5.395483374595642090e-01
1.987000000000000000e+03 3.928853988647460938e+00 -2.588433265686035156e+01 -2.956364187411963940e-04 4.792391700902953744e-05 -7.431374979205429554e-05 -4.806398283108137548e-05
1.988000000000000000e+03 2.806293678283691406e+01 -1.258359432220458984e+01 1.697977154435648117e-06 2.729233301579370163e-06 1.328163079961086623e-06 2.031858639384154230e-05
1.989000000000000000e+03 2.959838485717773438e+01 -1.346350765228271484e+01 3.739448220585472882e-05 -1.902235680972808041e-06 1.064767366187879816e-05 -2.303798964931047522e-06
1.990000000000000000e+03 7.567525482177734375e+01 -9.412820816040039062e+00 -2.102173678576946259e-02 7.196100711822509766e+00 2.152523756027221680e+00 -6.678806543350219727e-01
1.991000000000000000e+03 4.628089523315429688e+01 -7.164366245269775391e+00 1.226403692271560431e-04 2.061135455733165145e-05 4.297551640775054693e-05 3.406677933526225388e-05
1.992000000000000000e+03 7.543821716308593750e+01 -3.325125885009765625e+01 -9.298056960105895996e-01 8.716435432434082031e+00 2.335988998413085938e+00 -4.034114480018615723e-01
1.993000000000000000e+03 6.806954956054687500e+01 -1.175780296325683594e+01 5.734176635742187500e-01 3.105682611465454102e+00 1.103730082511901855e+00 5.144640207290649414e-01
1.994000000000000000e+03 1.046901226043701172e+01 -1.370215034484863281e+01 8.327022078447043896e-05 2.396842864982318133e-05 3.217159610358066857e-05 -2.532530743337702006e-05
1.995000000000000000e+03 7.399578094482421875e+01 -1.319246959686279297e+01 -2.551437728106975555e-02 6.325891971588134766e+00 1.890113234519958496e+00 -6.849222183227539062e-01
1.996000000000000000e+03 7.654499816894531250e+01 -1.400756835937500000e+01 -5.950130149722099304e-02 7.826163291931152344e+00 2.329998493194580078e+00 -6.175302267074584961e-01
1.997000000000000000e+03 7.167466735839843750e+01 -3.293257522583007812e+01 -7.736307978630065918e-01 4.388232707977294922e+00 1.084380507469177246e+00 9.240552186965942383e-01
1.998000000000000000e+03 7.199199676513671875e+01 -3.188568878173828125e+01 -6.678180098533630371e-01 4.894067287445068359e+00 1.267874836921691895e+00 1.108064413070678711e+00
1.999000000000000000e+03 4.517729187011718750e+01 -3.778532981872558594e+00 -1.065867545548826456e-04 -6.534853309858590364e-05 -5.158058775123208761e-05 -4.322566746850498021e-05
2.000000000000000000e+03 7.436670684814453125e+01 1.806419944763183594e+01 6.353714317083358765e-02 8.093662261962890625e+00 2.447159767150878906e+00 -7.098902482539415359e-03
2.001000000000000000e+03 3.354777145385742188e+01 -1.583570766448974609e+01 -3.642434603534638882e-05 3.944986383430659771e-05 9.076557034859433770e-07 2.685472509256214835e-06
2.002000000000000000e+03 4.639994812011718750e+01 -8.393911361694335938e+00 -1.112811441998928785e-04 -2.875132668123114854e-05 -4.200974217383190989e-05 -3.104943607468158007e-05
2.003000000000000000e+03 5.192502975463867188e+00 2.196778869628906250e+01 1.942808448802679777e-04 2.626375062391161919e-04 1.370755053358152509e-04 -1.629501639399677515e-04
2.004000000000000000e+03 4.381096839904785156e+00 -2.070940208435058594e+01 -2.438325318507850170e-04 2.844253140210639685e-05 -6.461700104409828782e-05 3.313358547529787757e-06
2.005000000000000000e+03 4.081161975860595703e+00 -2.201538085937500000e+01 2.105274761561304331e-04 1.551786681375233456e-06 6.362378189805895090e-05 -2.358082201681099832e-05
2.006000000000000000e+03 7.272483825683593750e+01 -3.665109634399414062e+00 6.563914567232131958e-02 7.503201007843017578e+00 2.270652055740356445e+00 -2.723115384578704834e-01
2.007000000000000000e+03 7.094100189208984375e+01 -4.628743648529052734e+00 7.879775017499923706e-02 6.930132389068603516e+00 2.102679014205932617e+00 3.755165636539459229e-01
2.008000000000000000e+03 5.683124065399169922e+00 -3.051206588745117188e+01 7.214801735244691372e-04 2.290853626618627459e-05 2.233166160294786096e-04 1.044564924086444080e-04
2.009000000000000000e+03 7.592322540283203125e+01 8.192203521728515625e+00 4.831559211015701294e-02 7.378285884857177734e+00 2.227980375289916992e+00 2.048319876194000244e-01
2.010000000000000000e+03 4.506768417358398438e+01 2.779301071166992188e+01 1.211360562592744827e-03 1.121375709772109985e-03 6.998208700679242611e-04 2.954474883154034615e-03
2.011000000000000000e+03 6.655463409423828125e+01 -1.543762493133544922e+01 7.091973423957824707e-01 1.578460335731506348e+00 6.862972974777221680e-01 5.488967299461364746e-01
2.012000000000000000e+03 3.968980073928833008e+00 -2.713521194458007812e+01 3.707651922013610601e-04 5.971594873699359596e-06 1.130210366682149470e-04 1.563499063195195049e-05
2.013000000000000000e+03 7.525511932373046875e+01 2.958018493652343750e+01 2.490249648690223694e-02 7.189948558807373047e+00 2.164455413818359375e+00 6.720311641693115234e-01
2.014000000000000000e+03 4.457969665527343750e+00 -1.458900260925292969e+01 -1.117764331866055727e-04 -2.972468064399436116e-05 -4.245033414917998016e-05 -5.096085806144401431e-05
2.015000000000000000e+03 5.405176639556884766e+00 1.481487846374511719e+01 9.631695866119116545e-05 1.558145449962466955e-04 7.563945109723135829e-05 -8.072670607361942530e-05
2.016000000000000000e+03 4.468449020385742188e+01 1.715283244848251343e-01 -1.116814382839947939e-04 -1.038987102219834924e-04 -6.467404455179348588e-05 -5.611754386336542666e-05
2.017000000000000000e+03 7.616326904296875000e+01 1.331019210815429688e+01 -1.057851612567901611e-01 7.232798576354980469e+00 2.138103961944580078e+00 -2.648568339645862579e-02
2.018000000000000000e+03 7.639534759521484375e+01 1.494526863098144531e+01 -3.572385013103485107e-02 7.160753250122070312e+00 2.137508869171142578e+00 -4.446273669600486755e-02
2.019000000000000000e+03 7.492925262451171875e+01 1.101949691772460938e+01 -2.053947448730468750e-01 7.958553791046142578e+00 2.325947761535644531e+00 9.922634810209274292e-02
2.020000000000000000e+03 7.451942443847656250e+01 1.141802310943603516e+00 4.345860481262207031e-01 7.867559909820556641e+00 2.490643739700317383e+00 -3.393128216266632080e-01
2.021000000000000000e+03 7.240486145019531250e+01 -6.806599140167236328e+00 -4.890429601073265076e-02 6.588428974151611328e+00 1.961857318878173828e+00 -2.227236479520797729e-01
2.022000000000000000e+03 7.654589080810546875e+01 2.029270172119140625e+01 9.311888366937637329e-02 7.023338794708251953e+00 2.134937286376953125e+00 4.573296383023262024e-02
2.023000000000000000e+03 7.755242919921875000e+01 -3.154532623291015625e+01 -3.401595056056976318e-01 9.184713363647460938e+00 2.653366088867187500e+00 -1.059986829757690430e+00
2.024000000000000000e+03 3.977985382080078125e+01 1.988097953796386719e+01 1.948073157109320164e-03 -1.289738283958286047e-04 5.457297665998339653e-04 6.473582470789551735e-04
2.025000000000000000e+03 3.830355072021484375e+01 1.978969001770019531e+01 5.022061523050069809e-04 7.949647842906415462e-04 3.891513042617589235e-04 1.388287637382745743e-04
2.026000000000000000e+03 4.607998275756835938e+01 -2.701082611083984375e+01 -2.594858175143599510e-03 -3.558957874774932861e-01 -1.075471937656402588e-01 -5.574741959571838379e-01
2.027000000000000000e+03 4.597119140625000000e+01 -2.798916816711425781e+01 2.914879657328128815e-02 -4.138103425502777100e-01 -1.153984591364860535e-01 -4.654925167560577393e-01
2.028000000000000000e+03 6.711438751220703125e+01 -1.343531322479248047e+01 7.046850919723510742e-01 2.322799682617187500e+00 9.082454442977905273e-01 5.700499415397644043e-01
2.029000000000000000e+03 3.993376159667968750e+01 -1.726214218139648438e+01 -3.928098885808140039e-05 -1.357486871711444110e-05 -1.585675818205345422e-05 -1.201126906380522996e-06
2.030000000000000000e+03 6.916992950439453125e+01 -1.062099170684814453e+01 3.432914316654205322e-01 4.041306018829345703e+00 1.315379142761230469e+00 4.303355216979980469e-01
2.031000000000000000e+03 4.561368942260742188e+01 -4.880722999572753906e+00 1.165454668807797134e-04 3.900672163581475616e-05 4.666565655497834086e-05 3.976631705882027745e-05
2.032000000000000000e+03 9.644213676452636719e+00 -3.461581420898437500e+01 4.559150547720491886e-04 3.125132352579385042e-04 2.305284870089963078e-04 1.712142257019877434e-03
2.033000000000000000e+03 1.208805274963378906e+01 -3.630020523071289062e+01 -2.790433936752378941e-04 1.283835968933999538e-03 3.014377725776284933e-04 2.835901919752359390e-03
2.034000000000000000e+03 4.961579322814941406e+00 3.437413787841796875e+01 7.334898691624403000e-05 5.991595680825412273e-04 2.017525694100186229e-04 -1.742725144140422344e-04
2.035000000000000000e+03 3.691766977310180664e+00 3.527238845825195312e+01 -2.531739301048219204e-04 7.036372553557157516e-04 1.351389946648851037e-04 -1.737518759910017252e-04
2.036000000000000000e+03 3.872492599487304688e+01 6.155101299285888672e+00 -4.886880051344633102e-04 -4.323867324274033308e-05 -1.595780049683526158e-04 7.827876834198832512e-05
2.037000000000000000e+03 4.061336135864257812e+01 7.144933700561523438e+00 -6.565804360434412956e-04 -1.186139488709159195e-04 -2.325583191122859716e-04 1.296460104640573263e-04
2.038000000000000000e+03 3.862565612792968750e+01 2.399391365051269531e+01 1.963673566933721304e-04 -3.466842827037908137e-05 4.850967889069579542e-05 8.336047176271677017e-04
2.039000000000000000e+03 4.053340530395507812e+01 2.316177368164062500e+01 2.768240170553326607e-03 9.853242954704910517e-05 8.600317523814737797e-04 3.577171883080154657e-04
2.040000000000000000e+03 5.543235015869140625e+01 -2.776496315002441406e+01 1.285126209259033203e+00 3.038386344909667969e+00 1.297053813934326172e+00 9.559531211853027344e-01
2.041000000000000000e+03 5.482204055786132812e+01 -2.643228530883789062e+01 9.565376043319702148e-01 1.967395663261413574e+00 8.771799802780151367e-01 4.563527405261993408e-01
2.042000000000000000e+03 3.936718225479125977e+00 -2.331008338928222656e+01 -2.451069303788244724e-04 1.152015011030016467e-05 -7.007602835074067116e-05 -2.009604395425412804e-05
2.043000000000000000e+03 7.387358856201171875e+01 -2.245277595520019531e+01 -1.170480608940124512e+00 7.963731288909912109e+00 2.037975311279296875e+00 -5.204776525497436523e-01
2.044000000000000000e+03 7.264878845214843750e+01 1.172834873199462891e+01 -3.708106577396392822e-01 8.900431632995605469e+00 2.558886289596557617e+00 -1.133079919964075089e-02
2.045000000000000000e+03 4.792556762695312500e+01 -1.242830371856689453e+01 3.523633131408132613e-05 5.227001020102761686e-05 2.625190245453268290e-05 3.498836304061114788e-05
2.046000000000000000e+03 4.864932250976562500e+01 -1.430147743225097656e+01 2.867395778594072908e-05 3.844219827442429960e-05 2.013484663621056825e-05 3.580782140488736331e-05
2.047000000000000000e+03 7.379055023193359375e+01 2.968836784362792969e+01 5.094524100422859192e-02 7.162044525146484375e+00 2.163896799087524414e+00 5.307579040527343750e-01
2.048000000000000000e+03 8.660169601440429688e+00 -2.832963752746582031e+01 4.229475453030318022e-04 8.872966645867563784e-06 1.295461552217602730e-04 8.522473945049569011e-05
2.049000000000000000e+03 6.768410205841064453e+00 -3.086413383483886719e+01 7.131141028366982937e-04 1.623454045329708606e-05 2.188045909861102700e-04 3.491634852252900600e-04
2.050000000000000000e+03 7.329653930664062500e+01 -3.552245497703552246e-01 4.428296387195587158e-01 8.229184150695800781e+00 2.601603984832763672e+00 -2.938842773437500000e-01
2.051000000000000000e+03 7.684157562255859375e+01 -3.217102432250976562e+01 -5.413097143173217773e-01 9.299177169799804688e+00 2.627360105514526367e+00 -8.866397142410278320e-01
2.052000000000000000e+03 7.444443511962890625e+01 2.323505401611328125e+01 3.486586213111877441e-01 7.847637653350830078e+00 2.458888769149780273e+00 8.723717182874679565e-02
2.053000000000000000e+03 5.709238815307617188e+01 -2.369361305236816406e+01 2.244654744863510132e-01 1.708959221839904785e+00 5.800274014472961426e-01 9.239492416381835938e-01
2.054000000000000000e+03 7.463380432128906250e+01 1.676741981506347656e+01 4.606943204998970032e-02 7.907621860504150391e+00 2.386107444763183594e+00 -2.101742289960384369e-02
2.055000000000000000e+03 7.584731292724609375e+01 -3.613595581054687500e+01 -5.042808651924133301e-01 8.451539993286132812e+00 2.384177923202514648e+00 8.206584304571151733e-02
2.056000000000000000e+03 3.931472396850585938e+01 1.685149765014648438e+01 1.390560879372060299e-03 4.339739098213613033e-04 5.473604542203247547e-04 4.044900124426931143e-04
2.057000000000000000e+03 3.887841033935546875e+01 1.541081523895263672e+01 -5.352679872885346413e-04 -5.978778790449723601e-05 -1.785167405614629388e-04 6.036931881681084633e-04
2.058000000000000000e+03 3.462900543212890625e+01 -3.613764572143554688e+01 -4.910473152995109558e-02 -1.219096779823303223e-01 -5.130432173609733582e-02 -1.330792158842086792e-01
2.059000000000000000e+03 4.944513320922851562e+00 3.709385299682617188e+01 9.425202006241306663e-05 5.740998894907534122e-04 2.005055721383541822e-04 -7.780003215884789824e-05
2.060000000000000000e+03 4.544323730468750000e+01 -3.481016159057617188e+01 1.819782108068466187e-01 -2.141738384962081909e-01 -9.658687748014926910e-03 2.100807428359985352e-01
2.061000000000000000e+03 7.073744773864746094e+00 -6.143897533416748047e+00 -3.568129977793432772e-05 4.094851101399399340e-05 1.580163370817899704e-06 2.367501292610540986e-05
2.062000000000000000e+03 4.015504837036132812e+00 6.955195426940917969e+00 8.032014011405408382e-05 5.413065809989348054e-05 4.033523873658850789e-05 -8.797627378953620791e-05
2.063000000000000000e+03 3.579644680023193359e+00 8.449695587158203125e+00 5.970553684164769948e-05 4.797573274117894471e-05 3.230438233003951609e-05 -1.366479264106601477e-04
2.064000000000000000e+03 4.936419296264648438e+01 -1.307571792602539062e+01 6.154008588055148721e-05 3.420985012780874968e-05 2.872498043871019036e-05 3.285555794718675315e-05
2.065000000000000000e+03 3.808227920532226562e+01 1.141100788116455078e+01 4.950396250933408737e-04 3.262149984948337078e-04 2.463763812556862831e-04 1.412511337548494339e-04
2.066000000000000000e+03 3.816638565063476562e+01 1.022224521636962891e+01 -3.611233842093497515e-04 1.310575171373784542e-04 -6.901976303197443485e-05 2.356773184146732092e-04
2.067000000000000000e+03 3.707116317749023438e+01 1.352199554443359375e+01 5.955451633781194687e-04 -4.614554636646062136e-04 4.022691791760735214e-05 8.114023949019610882e-04
2.068000000000000000e+03 3.780689239501953125e+01 1.248601531982421875e+01 -1.552045141579583287e-04 6.682934472337365150e-04 1.539266668260097504e-04 -1.130762902903370559e-04
2.069000000000000000e+03 7.494409942626953125e+01 -2.132088088989257812e+01 -1.090413093566894531e+00 8.312947273254394531e+00 2.166760206222534180e+00 -9.052765369415283203e-02
2.070000000000000000e+03 7.588661956787109375e+01 -3.431035995483398438e+01 -7.182797193527221680e-01 8.701851844787597656e+00 2.395071744918823242e+00 -2.477779686450958252e-01
2.071000000000000000e+03 7.341862487792968750e+01 1.105362606048583984e+01 -3.516818881034851074e-01 8.747863769531250000e+00 2.518854618072509766e+00 1.707225292921066284e-02
2.072000000000000000e+03 7.367492675781250000e+01 9.362919807434082031e+00 -9.409135580062866211e-02 8.551855087280273438e+00 2.537329196929931641e+00 1.749015599489212036e-01
2.073000000000000000e+03 7.478648376464843750e+01 2.441586685180664062e+01 3.331286013126373291e-01 7.605552673339843750e+00 2.381604433059692383e+00 2.038677781820297241e-01
2.074000000000000000e+03 7.379804229736328125e+01 2.793864440917968750e+01 3.088361024856567383e-01 7.410643577575683594e+00 2.315844058990478516e+00 4.638487696647644043e-01
2.075000000000000000e+03 4.805164813995361328e+00 -3.467866134643554688e+01 1.059624264598824084e-04 5.979812121950089931e-04 2.111830981448292732e-04 4.681842110585421324e-04
2.076000000000000000e+03 6.058632373809814453e+00 -3.631855010986328125e+01 -5.754665471613407135e-05 9.340718388557434082e-04 2.629575610626488924e-04 5.994728999212384224e-04
2.077000000000000000e+03 5.790961265563964844e+00 -1.809295463562011719e+01 1.520056393928825855e-04 3.328613092890009284e-05 5.558753036893904209e-05 -1.222421724378364161e-05
2.078000000000000000e+03 4.565557479858398438e+00 -1.932288742065429688e+01 1.932574232341721654e-04 1.204238469654228538e-05 6.158994074212387204e-05 8.908482413971796632e-06
2.079000000000000000e+03 5.219592666625976562e+01 -2.899107933044433594e+01 1.057752370834350586e+00 1.098116874694824219e+00 6.467607617378234863e-01 1.547511070966720581e-01
2.080000000000000000e+03 7.478874206542968750e+01 5.731330394744873047e+00 2.412172704935073853e-01 7.907451629638671875e+00 2.444600582122802734e+00 8.134617656469345093e-02
2.081000000000000000e+03 5.187751293182373047e+00 1.980496978759765625e+01 1.526447595097124577e-04 1.979420776478946209e-04 1.051760555128566921e-04 -8.231699757743626833e-05
2.082000000000000000e+03 7.601749420166015625e+01 -3.244525527954101562e+01 -7.988666296005249023e-01 9.076864242553710938e+00 2.483399152755737305e+00 -6.926203966140747070e-01
2.083000000000000000e+03 7.287212371826171875e+01 -2.278572273254394531e+01 -1.034409999847412109e+00 6.792860031127929688e+00 1.727534890174865723e+00 -6.967340111732482910e-01
2.084000000000000000e+03 7.490229797363281250e+01 -2.586141586303710938e+01 1.192390799522399902e+00 1.125973510742187500e+01 3.735637903213500977e+00 1.341361403465270996e+00
2.085000000000000000e+03 7.544527435302734375e+01 -2.815928459167480469e+01 2.560420274734497070e+00 1.009971714019775391e+01 3.798041105270385742e+00 -1.215653538703918457e+00
2.086000000000000000e+03 7.482052612304687500e+01 -2.908000946044921875e+01 6.594043374061584473e-01 1.116750431060791016e+01 3.548072576522827148e+00 -1.400387883186340332e+00
2.087000000000000000e+03 7.514504241943359375e+01 -2.783035850524902344e+01 3.721499204635620117e+00 1.040972900390625000e+01 4.239368438720703125e+00 -9.304082393646240234e-01
2.088000000000000000e+03 7.542090606689453125e+01 -2.719966125488281250e+01 3.571400165557861328e+00 9.956216812133789062e+00 4.058285236358642578e+00 2.435904443264007568e-01
2.089000000000000000e+03 7.577369689941406250e+01 -2.748507118225097656e+01 2.967397451400756836e+00 9.535772323608398438e+00 3.750950813293457031e+00 -3.236654102802276611e-01
2.090000000000000000e+03 7.488213348388671875e+01 -2.529482841491699219e+01 1.630101352930068970e-01 1.101183795928955078e+01 3.352454423904418945e+00 9.521251916885375977e-01
2.091000000000000000e+03 7.614321136474609375e+01 -2.723853111267089844e+01 2.475921154022216797e+00 9.268644332885742188e+00 3.523369789123535156e+00 8.443442732095718384e-02
2.092000000000000000e+03 7.481678771972656250e+01 -2.955539703369140625e+01 -8.931075781583786011e-02 1.080918312072753906e+01 3.215961694717407227e+00 -1.023652791976928711e+00
2.093000000000000000e+03 7.556255340576171875e+01 -2.475356864929199219e+01 -4.729258641600608826e-02 1.003441429138183594e+01 2.996136665344238281e+00 1.105583310127258301e+00
2.094000000000000000e+03 7.320386505126953125e+01 -2.466134262084960938e+01 -5.053119659423828125e-01 8.578706741333007812e+00 2.422018289566040039e+00 -1.925814390182495117e+00
2.095000000000000000e+03 7.145256805419921875e+01 -2.461872673034667969e+01 3.682343959808349609e-01 4.493812561035156250e+00 1.458613991737365723e+00 -1.494244456291198730e+00
2.096000000000000000e+03 7.310894775390625000e+01 -2.550181198120117188e+01 -2.862504422664642334e-01 9.563704490661621094e+00 2.783236265182495117e+00 -2.653318643569946289e+00
2.097000000000000000e+03 7.314167785644531250e+01 -2.968841171264648438e+01 -4.543914496898651123e-01 8.676949501037597656e+00 2.466767549514770508e+00 1.842196345329284668e+00
2.098000000000000000e+03 7.224808502197265625e+01 -2.522316551208496094e+01 4.045248031616210938e-01 5.492200374603271484e+00 1.769017577171325684e+00 -2.537404775619506836e+00
2.099000000000000000e+03 7.299883270263671875e+01 -2.523749542236328125e+01 -1.672003865242004395e-01 8.659990310668945312e+00 2.547837018966674805e+00 -2.487164974212646484e+00
2.100000000000000000e+03 1.485861301422119141e+01 -7.084668159484863281e+00 4.583831923810066655e-06 1.798908488126471639e-05 6.771875177946640179e-06 -1.444400822947500274e-05
2.101000000000000000e+03 1.447570896148681641e+01 -8.960483551025390625e+00 -8.279963367385789752e-05 8.120150027934869286e-07 -2.459628558426629752e-05 3.702485628309659660e-05
2.102000000000000000e+03 1.140498638153076172e+01 -5.778347969055175781e+00 -2.243273684143787250e-06 -4.984474435332231224e-05 -1.562640500196721405e-05 -4.081107363163027912e-06
2.103000000000000000e+03 1.282851219177246094e+01 -7.275373935699462891e+00 -1.540921948617324233e-05 -5.148599302629008889e-05 -2.006856448133476079e-05 4.395513315103016794e-05
2.104000000000000000e+03 1.289663028717041016e+01 -5.757392406463623047e+00 1.537577009003143758e-05 3.637704867287538946e-05 1.552584581077098846e-05 -1.210556274600094184e-05
2.105000000000000000e+03 1.375069046020507812e+01 -8.637614250183105469e+00 6.678675708826631308e-05 1.655222695262636989e-05 2.500169648556038737e-05 -4.641887062462046742e-05
2.106000000000000000e+03 1.449300289154052734e+01 -6.686763286590576172e+00 -3.862554513034410775e-05 -2.109425167873268947e-06 -1.222049104399047792e-05 1.549665466882288456e-05
2.107000000000000000e+03 1.410165691375732422e+01 -7.893194198608398438e+00 -6.093178672017529607e-05 -8.458380762021988630e-06 -2.081704951706342399e-05 3.411376383155584335e-05
2.108000000000000000e+03 4.818258285522460938e+01 -2.507697105407714844e+01 -2.642563916742801666e-02 -2.381691485643386841e-01 -7.937843352556228638e-02 -6.946899294853210449e-01
2.109000000000000000e+03 7.339299774169921875e+01 -3.057892799377441406e+01 -8.676574230194091797e-01 8.283313751220703125e+00 2.224696874618530273e+00 1.063220143318176270e+00
2.110000000000000000e+03 7.742438507080078125e+01 -2.897959709167480469e+01 6.026646494865417480e-01 8.808896064758300781e+00 2.823468208312988281e+00 -1.111902713775634766e+00
2.111000000000000000e+03 7.719521331787109375e+01 -2.987471580505371094e+01 2.245114892721176147e-01 9.161677360534667969e+00 2.815856695175170898e+00 -1.356681704521179199e+00
2.112000000000000000e+03 7.627226257324218750e+01 -2.624124526977539062e+01 1.626766204833984375e+00 9.375823974609375000e+00 3.300777196884155273e+00 9.801081418991088867e-01
2.113000000000000000e+03 4.477132797241210938e+01 -1.590443038940429688e+01 -3.120569817838259041e-05 -1.996140417759306729e-05 -1.535013143438845873e-05 -9.081512871489394456e-06
2.114000000000000000e+03 2.550260353088378906e+01 -5.573480129241943359e+00 4.268484917702153325e-05 1.329872816313582007e-06 1.320441697316709906e-05 -5.387334022088907659e-05
2.115000000000000000e+03 2.600494384765625000e+01 -6.249660491943359375e+00 1.028826136462157592e-05 -1.503446492279181257e-05 -1.423861135663173627e-06 5.397130735218524933e-05
2.116000000000000000e+03 7.763264465332031250e+01 -2.736656761169433594e+01 1.055805921554565430e+00 8.470343589782714844e+00 2.857844829559326172e+00 -6.580413132905960083e-02
2.117000000000000000e+03 7.703367614746093750e+01 -2.646857833862304688e+01 1.311498284339904785e+00 8.873953819274902344e+00 3.055635452270507812e+00 6.068322658538818359e-01
2.118000000000000000e+03 7.699502563476562500e+01 -2.566373062133789062e+01 6.868873238563537598e-01 9.017123222351074219e+00 2.911202907562255859e+00 1.066179275512695312e+00
2.119000000000000000e+03 7.737985992431640625e+01 -2.796386146545410156e+01 1.070698142051696777e+00 8.580884933471679688e+00 2.895474910736083984e+00 -5.456857681274414062e-01
2.120000000000000000e+03 8.809473037719726562e+00 4.473690032958984375e+00 8.827899728203192353e-05 5.128013799549080431e-05 4.186774094705469906e-05 -1.561291537655051798e-05
2.121000000000000000e+03 8.258100509643554688e+00 4.615304946899414062e+00 2.488624886609613895e-05 -4.049313247378449887e-06 6.251080776564776897e-06 -6.216678593773394823e-05
2.122000000000000000e+03 7.679351806640625000e+01 -2.419512939453125000e+01 -1.456191241741180420e-01 9.337466239929199219e+00 2.757554054260253906e+00 1.192661046981811523e+00
2.123000000000000000e+03 7.172421264648437500e+01 -3.074894332885742188e+01 -1.300970464944839478e-01 4.075188159942626953e+00 1.183527350425720215e+00 1.480295538902282715e+00
2.124000000000000000e+03 7.224406433105468750e+01 -3.116157341003417969e+01 -5.813780426979064941e-01 5.400841712951660156e+00 1.445839166641235352e+00 1.432791352272033691e+00
2.125000000000000000e+03 1.593247032165527344e+01 -9.359758377075195312e+00 -5.618685827357694507e-05 7.919505151221528649e-06 -1.448020611860556528e-05 -1.792626608221326023e-05
2.126000000000000000e+03 1.626433944702148438e+01 -8.276457786560058594e+00 -6.286743155214935541e-05 2.075020893244072795e-05 -1.263516696781152859e-05 1.705883005342911929e-05
2.127000000000000000e+03 7.722562408447265625e+01 -3.044587707519531250e+01 -8.301031589508056641e-02 9.208123207092285156e+00 2.737533807754516602e+00 -1.278200030326843262e+00
2.128000000000000000e+03 7.783995819091796875e+01 -3.059761238098144531e+01 -7.376464456319808960e-02 9.053896903991699219e+00 2.694039821624755859e+00 -1.187535285949707031e+00
2.129000000000000000e+03 4.864184188842773438e+01 -2.458082389831542969e+01 -1.210263743996620178e-01 -2.000997066497802734e-01 -9.633782505989074707e-02 -7.095122337341308594e-01
2.130000000000000000e+03 1.587851047515869141e+01 -1.013899230957031250e+01 5.808917921967804432e-05 -3.971146270487224683e-06 1.623540993023198098e-05 2.808095086948014796e-05
2.131000000000000000e+03 7.389337062835693359e+00 4.119131565093994141e+00 2.125881337633472867e-06 -1.239830726262880489e-05 -3.081727754761232063e-06 -2.557260086177848279e-05
2.132000000000000000e+03 6.164907455444335938e+00 5.246271610260009766e+00 8.866580901667475700e-05 5.779867206001654267e-05 4.393934432300738990e-05 -5.341941141523420811e-05
2.133000000000000000e+03 5.598582267761230469e+00 6.239560127258300781e+00 3.653756357380189002e-05 9.205577225657179952e-05 3.857800038531422615e-05 -9.456165571464225650e-05
2.134000000000000000e+03 5.213793754577636719e+00 4.397549629211425781e+00 8.729286491870880127e-05 4.471627107704989612e-05 3.960273897973820567e-05 -5.701614281861111522e-05
2.135000000000000000e+03 6.970514774322509766e+00 5.177619934082031250e+00 -3.516998185659758747e-05 9.333072739536873996e-06 -7.751073098916094750e-06 -3.575729715521447361e-05
2.136000000000000000e+03 8.029065132141113281e+00 3.961160421371459961e+00 7.059281779220327735e-05 5.754421727033331990e-05 3.844111051876097918e-05 -4.772846295963972807e-05
2.137000000000000000e+03 5.011069488525390625e+01 -2.501591491699218750e+01 9.226292371749877930e-02 -2.760690078139305115e-02 1.939680613577365875e-02 -6.098233461380004883e-01
2.138000000000000000e+03 3.337356567382812500e+00 4.556883335113525391e+00 2.981712896144017577e-06 1.082206836144905537e-05 4.141134468227392063e-06 6.641553045483306050e-05
2.139000000000000000e+03 4.963696289062500000e+01 -1.507343101501464844e+01 5.608574792859144509e-05 7.816285005901590921e-07 1.706021248537581414e-05 2.242271148134022951e-05
2.140000000000000000e+03 4.720371627807617188e+01 -1.475983524322509766e+01 1.149001582234632224e-05 5.287414751364849508e-05 1.930924918269738555e-05 1.225265805260278285e-05
2.141000000000000000e+03 4.645932388305664062e+01 -1.462083339691162109e+01 -2.929820402641780674e-05 -2.154762842110358179e-05 -1.525374955235747620e-05 -1.762332249199971557e-05
2.142000000000000000e+03 2.580559158325195312e+01 -7.437332630157470703e+00 1.541046185593586415e-05 -1.730419717205222696e-05 -5.681206403096439317e-07 4.299362990423105657e-05
2.143000000000000000e+03 2.862208366394042969e+01 -1.048972892761230469e+01 7.766146882204338908e-05 -1.250389595952583477e-05 1.954727122210897505e-05 -3.482425745460204780e-05
2.144000000000000000e+03 5.196440887451171875e+01 -2.498187637329101562e+01 2.699103653430938721e-01 3.541269600391387939e-01 1.872111856937408447e-01 -3.967025876045227051e-01
2.145000000000000000e+03 1.699262809753417969e+01 1.986708521842956543e+00 1.384540082653984427e-04 2.936445707746315747e-05 5.034554123994894326e-05 -5.770294956164434552e-05
2.146000000000000000e+03 4.751831817626953125e+01 -1.398932552337646484e+01 -2.798058994812890887e-05 2.699746437428984791e-05 -2.949375357275130227e-07 -4.652785264624981210e-06
2.147000000000000000e+03 8.206189155578613281e+00 -4.975703239440917969e+00 -1.904597775137517601e-05 -2.401589335931930691e-05 -1.291856187890516594e-05 -2.016258440562523901e-05
2.148000000000000000e+03 2.798742675781250000e+01 -9.585015296936035156e+00 -2.673347262316383421e-05 1.317012993240496144e-05 -4.069002898177132010e-06 -1.335381330136442557e-05
2.149000000000000000e+03 2.284755134582519531e+01 -2.358503818511962891e+00 3.025343539775349200e-05 -1.099113069358281791e-05 5.778691502200672403e-06 6.374845543177798390e-05
2.150000000000000000e+03 1.823886299133300781e+01 1.473422169685363770e+00 1.727506314637139440e-04 9.394096196047030389e-06 5.464341666083782911e-05 -1.528502798464614898e-05
2.151000000000000000e+03 7.456617355346679688e+00 -5.102384090423583984e+00 -7.024741080385865644e-06 3.634440508903935552e-05 8.795898793323431164e-06 2.180572118959389627e-05
2.152000000000000000e+03 8.879626274108886719e+00 -4.218307018280029297e+00 -1.456781592423794791e-05 -4.124169936403632164e-05 -1.674285522312857211e-05 -1.534961666038725525e-05
2.153000000000000000e+03 1.072452640533447266e+01 -4.563447475433349609e+00 1.587596852914430201e-05 3.442627348704263568e-05 1.509067260485608131e-05 1.192249965242808685e-05
2.154000000000000000e+03 6.629204559326171875e+01 -1.805439376831054688e+01 6.742065399885177612e-02 7.276427149772644043e-01 2.385190129280090332e-01 5.334892868995666504e-01
2.155000000000000000e+03 6.503157806396484375e+01 -1.759226417541503906e+01 2.505191862583160400e-01 8.543025851249694824e-01 3.314465284347534180e-01 8.549715280532836914e-01
2.156000000000000000e+03 4.764203548431396484e+00 -3.830197095870971680e+00 7.520396320614963770e-05 -1.774364500306546688e-05 1.723809691611677408e-05 -2.207235047535505146e-05
2.157000000000000000e+03 4.187415122985839844e+00 -6.881458282470703125e+00 -8.175562834367156029e-05 3.061827328565414064e-06 -2.360814141866285354e-05 -2.912997842940967530e-05
2.158000000000000000e+03 4.080186367034912109e+00 -5.629134654998779297e+00 8.070874173427000642e-05 -4.423107839102158323e-06 2.288568975927773863e-05 2.811088052112609148e-05
2.159000000000000000e+03 2.932785415649414062e+01 -1.417298412322998047e+01 -3.807302346103824675e-05 5.003577285833671340e-08 -1.140689619205659255e-05 1.002240151137812063e-05
2.160000000000000000e+03 2.965930366516113281e+01 -1.209241580963134766e+01 4.546565105556510389e-05 -1.423079538653837517e-06 1.321277159149758518e-05 2.183781134590390138e-06
2.161000000000000000e+03 2.731656074523925781e+01 -8.278778076171875000e+00 -9.694206710264552385e-06 1.402704583597369492e-05 1.299851646763272583e-06 -3.171671050949953496e-05
2.162000000000000000e+03 4.257130432128906250e+01 -1.723296546936035156e+01 -3.600239506340585649e-05 -1.735648402245715261e-05 -1.600766518095042557e-05 3.105378482359810732e-06
2.163000000000000000e+03 4.109762573242187500e+01 -1.778507614135742188e+01 -4.014189471490681171e-05 -1.051730487233726308e-05 -1.519776014902163297e-05 -4.460245236259652302e-06
2.164000000000000000e+03 2.497788810729980469e+01 -4.902621746063232422e+00 7.809827366145327687e-06 -9.215517820848617703e-06 -4.217072273604571819e-07 5.568033520830795169e-05
2.165000000000000000e+03 2.273303604125976562e+01 -3.495323896408081055e+00 2.155589027097448707e-05 -5.425100880529498681e-06 4.839236680709291250e-06 4.985351552022621036e-05
2.166000000000000000e+03 4.226710796356201172e+00 -8.172989845275878906e+00 9.140040492638945580e-05 3.071945684496313334e-06 2.834170481946785003e-05 1.952362981683108956e-05
2.167000000000000000e+03 1.396822452545166016e+01 2.827895641326904297e+00 2.149759347958024591e-05 -3.253076329201576300e-06 5.473355031426763162e-06 -2.455521826050244272e-05
2.168000000000000000e+03 2.336337661743164062e+01 -2.971769094467163086e+00 8.404615073231980205e-05 -1.980350134545005858e-05 1.927279481606092304e-05 -6.197945185704156756e-05
2.169000000000000000e+03 1.813450241088867188e+01 6.816842555999755859e-01 3.777514939429238439e-05 -4.504739990807138383e-05 -2.181675654355785809e-06 -1.972282370843458921e-05
2.170000000000000000e+03 2.156450843811035156e+01 -3.679253458976745605e-01 1.026702593662776053e-04 -5.411015445133671165e-05 1.456803238397696987e-05 -7.050054409774020314e-05
2.171000000000000000e+03 1.945362472534179688e+01 1.472034931182861328e+00 1.236647658515721560e-04 1.674006671237293631e-05 4.212144995108246803e-05 3.447209746809676290e-05
2.172000000000000000e+03 6.937441253662109375e+01 -1.545013332366943359e+01 4.167138338088989258e-01 2.870209217071533203e+00 9.860768914222717285e-01 -2.576172351837158203e-01
2.173000000000000000e+03 1.345313453674316406e+01 -6.075578689575195312e+00 -1.742479798849672079e-05 -3.210627619409933686e-05 -1.485932170908199623e-05 1.897320544230751693e-05
2.174000000000000000e+03 1.369509220123291016e+01 -6.981393814086914062e+00 -3.720736640389077365e-05 -2.680469879123847932e-05 -1.920362046803347766e-05 4.120435187360271811e-05
2.175000000000000000e+03 6.039378166198730469e+00 6.931335449218750000e+00 6.113919516792520881e-05 8.165225153788924217e-06 2.079132718790788203e-05 8.535514098184648901e-06
2.176000000000000000e+03 6.739044952392578125e+01 -1.782011032104492188e+01 1.877963840961456299e-01 1.063320636749267578e+00 3.753351271152496338e-01 1.351503878831863403e-01
2.177000000000000000e+03 1.346041679382324219e+01 -1.157970523834228516e+01 9.883037273539230227e-05 5.041572148911654949e-05 4.477382753975689411e-05 -5.059965769760310650e-05
2.178000000000000000e+03 1.119551944732666016e+01 -1.276911163330078125e+01 -9.470769145991653204e-05 -4.259038905729539692e-05 -4.118942524655722082e-05 1.043520387611351907e-05
2.179000000000000000e+03 1.027842235565185547e+01 3.552196025848388672e+00 2.769073034869506955e-05 1.750229102981393225e-06 8.832287676341366023e-06 -9.339425014331936836e-05
2.180000000000000000e+03 9.497846603393554688e+00 4.430060863494873047e+00 -1.748434260662179440e-05 1.931425140355713665e-05 5.489727072927053086e-07 -9.589840919943526387e-05
2.181000000000000000e+03 2.444072151184082031e+01 -4.243633747100830078e+00 6.699679943267256021e-05 -1.322845400864025578e-05 1.613050335436128080e-05 -5.592886009253561497e-05
2.182000000000000000e+03 1.762306594848632812e+01 1.667283415794372559e+00 5.828900975757278502e-05 -5.631071326206438243e-05 5.934882665314944461e-07 -1.411172979715047404e-05
2.183000000000000000e+03 4.554870223999023438e+01 -2.569545173645019531e+01 -4.369333013892173767e-02 -5.145764350891113281e-01 -1.674809306859970093e-01 -6.703428030014038086e-01
2.184000000000000000e+03 4.638405990600585938e+01 -2.610388374328613281e+01 -3.309432789683341980e-02 -3.702955842018127441e-01 -1.210169717669487000e-01 -6.849330663681030273e-01
2.185000000000000000e+03 2.890801048278808594e+01 -1.139688682556152344e+01 5.498596146935597062e-05 4.826115855394164100e-06 1.794362287910189480e-05 -1.417472930143048870e-07
2.186000000000000000e+03 7.325489044189453125e+01 -2.412218475341796875e+01 -4.020114839076995850e-01 8.023159027099609375e+00 2.286344289779663086e+00 -1.539337754249572754e+00
2.187000000000000000e+03 5.030783462524414062e+01 -2.654591751098632812e+01 4.793286025524139404e-01 1.582856327295303345e-01 1.912842690944671631e-01 -4.125391840934753418e-01
2.188000000000000000e+03 4.313183975219726562e+01 5.518706440925598145e-01 -9.778388630365952849e-05 -5.203042019275017083e-05 -4.494429231272079051e-05 -1.981860987143591046e-05
2.189000000000000000e+03 1.601057052612304688e+01 3.518525123596191406e+00 1.950376827153377235e-05 -3.015051333932206035e-05 -3.194023520336486399e-06 -6.338191724353237078e-06
2.190000000000000000e+03 1.539355087280273438e+01 2.048490285873413086e+00 3.913504406227730215e-05 -2.034429417108185589e-05 5.637225058308104053e-06 -9.829736882238648832e-06
2.191000000000000000e+03 7.450693511962890625e+01 -3.429254150390625000e+01 -7.994258403778076172e-01 7.450899124145507812e+00 1.995441913604736328e+00 1.491903960704803467e-01
2.192000000000000000e+03 1.292940425872802734e+01 -1.019074535369873047e+01 7.211146294139325619e-05 4.467611506697721779e-05 3.503627522150054574e-05 -5.322175638866610825e-05
2.193000000000000000e+03 4.151804733276367188e+01 -1.651671218872070312e+01 -4.409581015352159739e-05 -1.738132777973078191e-05 -1.844314101617783308e-05 -2.606273312721896218e-07
2.194000000000000000e+03 2.765355300903320312e+01 -7.072639942169189453e+00 7.902580364316236228e-06 1.841026096371933818e-05 7.893852853158023208e-06 -4.688713670475408435e-05
2.195000000000000000e+03 1.313218498229980469e+01 -6.676844120025634766e+00 1.459249597246525809e-05 4.530077421804890037e-05 1.796798096620477736e-05 -3.300917887827381492e-05
2.196000000000000000e+03 6.870482635498046875e+01 -1.865627670288085938e+01 -2.788773477077484131e-01 1.246963739395141602e+00 2.904259264469146729e-01 -5.030301213264465332e-01
2.197000000000000000e+03 1.281872367858886719e+01 4.322267532348632812e+00 1.590847678016871214e-04 3.034284964087419212e-05 5.682828850694932044e-05 -6.770572508685290813e-05
2.198000000000000000e+03 1.127354145050048828e+01 4.999941349029541016e+00 1.414530124748125672e-04 4.744328907690942287e-05 5.666889410349540412e-05 -6.490237137768417597e-05
2.199000000000000000e+03 6.710802459716796875e+01 -1.605457687377929688e+01 5.862585306167602539e-01 1.588016629219055176e+00 6.522825360298156738e-01 3.567235767841339111e-01
2.200000000000000000e+03 1.384620094299316406e+01 -1.063351345062255859e+01 -1.021095740725286305e-04 -1.346773751720320433e-05 -3.467319402261637151e-05 4.477269612834788859e-05
2.201000000000000000e+03 3.886827087402343750e+01 -1.514129924774169922e+01 -4.378776066005229950e-05 -2.461963231326080859e-05 -2.052221861958969384e-05 1.071080896508647129e-05
2.202000000000000000e+03 3.742317581176757812e+01 -1.427855110168457031e+01 -4.575213824864476919e-05 -2.441855394863523543e-05 -2.105120802298188210e-05 -2.467725607857573777e-06
2.203000000000000000e+03 4.562738418579101562e+01 -1.440876293182373047e+01 3.959798777941614389e-05 1.127414361690171063e-05 1.526163941889535636e-05 2.388385473750531673e-05
2.204000000000000000e+03 4.754725265502929688e+01 -1.133291339874267578e+01 -2.669235618668608367e-05 -5.706872616428881884e-05 -2.512832543288823217e-05 -4.275469473213888705e-05
2.205000000000000000e+03 4.028244781494140625e+01 -1.581516551971435547e+01 -3.909473889507353306e-05 -2.284013680764473975e-05 -1.858046380220912397e-05 7.303676284209359437e-06
2.206000000000000000e+03 7.258539581298828125e+01 -3.338879394531250000e+01 -8.609429001808166504e-01 5.615925312042236328e+00 1.426494836807250977e+00 7.758146524429321289e-01
2.207000000000000000e+03 1.499324035644531250e+01 3.178975105285644531e+00 1.778704427124466747e-05 -1.631127634027507156e-05 4.427301405485195573e-07 -1.658955625316593796e-05
2.208000000000000000e+03 1.027897262573242188e+01 4.349333286285400391e+00 1.371242833556607366e-04 3.185498280799947679e-05 5.069377948530018330e-05 -3.593562360038049519e-05
2.209000000000000000e+03 7.348062896728515625e+01 -2.363649559020996094e+01 -6.884578466415405273e-01 7.931093215942382812e+00 2.172790527343750000e+00 -7.955713868141174316e-01
2.210000000000000000e+03 3.127359390258789062e+01 -1.262415504455566406e+01 -7.942168303998187184e-05 3.497567377053201199e-05 -1.333380259893601760e-05 -3.113313596259104088e-06
2.211000000000000000e+03 7.312918853759765625e+01 -3.037533187866210938e+01 -7.347977161407470703e-01 7.881448745727539062e+00 2.143995285034179688e+00 1.348861217498779297e+00
2.212000000000000000e+03 7.556682586669921875e+01 -3.177393150329589844e+01 -8.493088483810424805e-01 9.231878280639648438e+00 2.514770746231079102e+00 -6.837982535362243652e-01
2.213000000000000000e+03 4.527193450927734375e+01 -8.275308609008789062e+00 1.013483488350175321e-04 2.042046071437653154e-05 3.653064050013199449e-05 4.800850001629441977e-05
2.214000000000000000e+03 4.026303482055664062e+01 3.971659898757934570e+00 1.051725485012866557e-04 2.588884090073406696e-04 1.092182792490348220e-04 -1.503383391536772251e-04
2.215000000000000000e+03 5.638774394989013672e+00 1.344268512725830078e+01 -2.002210931095760316e-05 9.251177107216790318e-05 2.174689871026203036e-05 -1.508075947640463710e-04
2.216000000000000000e+03 4.224704742431640625e+00 1.183797740936279297e+01 -1.166818110505118966e-04 1.201387203764170408e-04 1.037072593135235365e-06 -8.217922732001170516e-05
2.217000000000000000e+03 4.830799102783203125e+01 -1.342148494720458984e+01 -2.940803278761450201e-05 -4.873919169767759740e-05 -2.344416679989080876e-05 -3.470820593065582216e-05
2.218000000000000000e+03 4.876833343505859375e+01 -1.516704654693603516e+01 -3.592386565287597477e-05 -2.424691228952724487e-05 -1.805123429221566767e-05 -3.100714093307033181e-05
2.219000000000000000e+03 5.062139511108398438e+01 -1.394513034820556641e+01 7.780520536471158266e-05 2.743766799540026113e-06 2.416469033050816506e-05 2.244316601718310267e-05
2.220000000000000000e+03 7.547963714599609375e+01 2.292457008361816406e+01 2.590074539184570312e-01 7.451638698577880859e+00 2.313193798065185547e+00 1.419866532087326050e-01
2.221000000000000000e+03 1.762272453308105469e+01 -9.877520561218261719e+00 -2.109203524014446884e-05 1.418202373315580189e-05 -2.073003088298719376e-06 1.646068812988232821e-05
2.222000000000000000e+03 1.336391448974609375e+01 -9.397992134094238281e+00 -7.177247607614845037e-05 -2.464467434037942439e-05 -2.892514567065518349e-05 5.175654223421588540e-05
2.223000000000000000e+03 7.556178283691406250e+01 1.848925209045410156e+01 7.537627220153808594e-02 7.504697799682617188e+00 2.274022102355957031e+00 -8.826547302305698395e-03
2.224000000000000000e+03 7.601969146728515625e+01 -6.836667537689208984e+00 -4.163224250078201294e-02 7.273927688598632812e+00 2.169688701629638672e+00 -6.746264100074768066e-01
2.225000000000000000e+03 7.302614593505859375e+01 -8.174509048461914062e+00 -4.272942990064620972e-02 6.477648735046386719e+00 1.930475831031799316e+00 -3.909382522106170654e-01
2.226000000000000000e+03 5.276538848876953125e+01 -2.463496208190917969e+01 2.044221162796020508e-01 6.594689488410949707e-01 2.591673135757446289e-01 -3.235249519348144531e-01
2.227000000000000000e+03 5.178192901611328125e+01 -2.403419876098632812e+01 -1.084605678915977478e-01 2.361772358417510986e-01 3.831500187516212463e-02 -4.976187646389007568e-01
2.228000000000000000e+03 7.477833557128906250e+01 8.162313461303710938e+00 5.456938594579696655e-02 7.953656196594238281e+00 2.402467727661132812e+00 2.050191015005111694e-01
2.229000000000000000e+03 7.584722900390625000e+01 9.475029945373535156e+00 -5.832402408123016357e-02 7.431740760803222656e+00 2.212025165557861328e+00 1.824074387550354004e-01
2.230000000000000000e+03 7.369429016113281250e+01 1.494981288909912109e+01 1.368460524827241898e-02 8.294690132141113281e+00 2.492512464523315430e+00 -5.799457803368568420e-02
2.231000000000000000e+03 7.568095397949218750e+01 1.167470550537109375e+01 -1.688860654830932617e-01 7.515686035156250000e+00 2.204040050506591797e+00 5.723845958709716797e-02
2.232000000000000000e+03 5.346372604370117188e+01 -2.444727325439453125e+01 1.881194710731506348e-01 7.330189943313598633e-01 2.763415277004241943e-01 -1.370096504688262939e-01
2.233000000000000000e+03 5.338768005371093750e+01 -2.369791984558105469e+01 -1.255129575729370117e-01 6.493334770202636719e-01 1.571461558341979980e-01 -2.356249690055847168e-01
2.234000000000000000e+03 7.247537231445312500e+01 -3.467795944213867188e+01 -7.329587936401367188e-01 5.137770652770996094e+00 1.321443557739257812e+00 6.570045351982116699e-01
2.235000000000000000e+03 4.685305404663085938e+01 -1.271925163269042969e+01 -4.070522118126973510e-05 -5.626158235827460885e-05 -2.909004069806542248e-05 -2.902153573813848197e-05
2.236000000000000000e+03 5.970743179321289062e+00 -2.445913314819335938e+01 1.376722793793305755e-04 9.202600631397217512e-05 6.890948134241625667e-05 1.154236160800792277e-04
2.237000000000000000e+03 4.049236297607421875e+00 2.106197738647460938e+01 2.009168965741991997e-04 2.539026900194585323e-04 1.364458730677142739e-04 -1.099965375033207238e-04
2.238000000000000000e+03 7.077104949951171875e+01 -1.777506256103515625e+01 -3.791418075561523438e-01 3.498887538909912109e+00 9.359236955642700195e-01 -1.014516830444335938e+00
2.239000000000000000e+03 5.933611392974853516e+00 3.264823913574218750e+01 -7.092659507179632783e-05 5.285493680275976658e-04 1.372868282487615943e-04 -1.049919592333026230e-04
2.240000000000000000e+03 4.456322860717773438e+01 -5.306012153625488281e+00 -8.605929906480014324e-05 -4.730779619421809912e-05 -4.001013076049275696e-05 -3.092039696639403701e-05
2.241000000000000000e+03 4.522615432739257812e+01 -7.306980609893798828e+00 -9.201453212881460786e-05 -3.961066977353766561e-05 -3.948756057070568204e-05 -3.674127583508379757e-05
2.242000000000000000e+03 7.607319641113281250e+01 1.601256179809570312e+01 -4.776997026056051254e-03 7.282413482666015625e+00 2.183290958404541016e+00 -1.775029860436916351e-02
2.243000000000000000e+03 7.339122772216796875e+01 1.140326499938964844e+00 5.485548377037048340e-01 8.503491401672363281e+00 2.715613842010498047e+00 -1.673796176910400391e-01
2.244000000000000000e+03 7.446401214599609375e+01 2.559967517852783203e+00 4.667226970195770264e-01 8.016031265258789062e+00 2.544826030731201172e+00 -1.730743050575256348e-01
2.245000000000000000e+03 5.353238677978515625e+01 -2.703918075561523438e+01 1.000722169876098633e+00 1.391427040100097656e+00 7.176447510719299316e-01 8.906786888837814331e-02
2.246000000000000000e+03 5.390778732299804688e+01 -2.615516281127929688e+01 7.924957275390625000e-01 1.447112679481506348e+00 6.718825101852416992e-01 1.118697300553321838e-01
2.247000000000000000e+03 7.098318481445312500e+01 -7.529497623443603516e+00 2.416457608342170715e-02 5.874698162078857422e+00 1.769658803939819336e+00 1.493929773569107056e-01
2.248000000000000000e+03 7.419847106933593750e+01 -1.687431907653808594e+01 -4.292096793651580811e-01 6.595346450805664062e+00 1.849841117858886719e+00 -7.645018696784973145e-01
2.249000000000000000e+03 7.533335876464843750e+01 -1.614163589477539062e+01 -2.429147511720657349e-01 7.300191879272460938e+00 2.117183208465576172e+00 -6.661005020141601562e-01
2.250000000000000000e+03 4.251660537719726562e+01 1.549518465995788574e+00 1.120291199185885489e-04 1.497031098551815376e-05 3.809983172686770558e-05 8.403991159866563976e-06
2.251000000000000000e+03 5.337093353271484375e+00 -8.375194549560546875e+00 -8.679622260387986898e-05 -1.499000973126385361e-05 -3.053586988244205713e-05 -1.250465516022813972e-06
2.252000000000000000e+03 5.093930244445800781e+00 -2.579633712768554688e+01 2.834639744833111763e-04 3.983554779551923275e-05 9.698986104922369123e-05 6.983994535403326154e-05
2.253000000000000000e+03 6.873552322387695312e+00 -2.463282775878906250e+01 -8.451960457023233175e-05 -3.889311847160570323e-05 -3.702381582115776837e-05 -1.463556031922053080e-06
2.254000000000000000e+03 6.134053230285644531e+00 -2.215615653991699219e+01 7.294173701666295528e-05 1.127579089370556176e-04 5.570989378611557186e-05 7.476848259102553129e-05
2.255000000000000000e+03 5.008284091949462891e+00 -2.334160995483398438e+01 1.579265954205766320e-04 6.815372034907341003e-05 6.782409764127805829e-05 3.899669536622241139e-05
2.256000000000000000e+03 7.251818847656250000e+01 7.000164508819580078e+00 3.056571483612060547e-01 9.347818374633789062e+00 2.896042585372924805e+00 4.232076555490493774e-02
2.257000000000000000e+03 7.188877105712890625e+01 -1.740847945213317871e+00 3.082016110420227051e-01 8.301602363586425781e+00 2.582941055297851562e+00 8.261578530073165894e-02
2.258000000000000000e+03 7.570179748535156250e+01 -2.483840733766555786e-01 2.504583895206451416e-01 7.303849697113037109e+00 2.266292333602905273e+00 -5.309352278709411621e-01
2.259000000000000000e+03 7.560910034179687500e+01 -2.315891456604003906e+01 -8.255683183670043945e-01 9.297708511352539062e+00 2.541642189025878906e+00 6.615304350852966309e-01
2.260000000000000000e+03 7.663536834716796875e+01 -2.271485710144042969e+01 -6.069563627243041992e-01 9.184838294982910156e+00 2.573364734649658203e+00 7.797414660453796387e-01
2.261000000000000000e+03 7.597795104980468750e+01 -1.886117744445800781e+01 -5.656557083129882812e-01 8.138410568237304688e+00 2.271826505661010742e+00 -2.918592989444732666e-01
2.262000000000000000e+03 7.390320587158203125e+01 -1.948030090332031250e+01 -8.882406353950500488e-01 6.830678462982177734e+00 1.782731294631958008e+00 -6.600683331489562988e-01
2.263000000000000000e+03 7.325234222412109375e+01 -7.300892353057861328e+00 -5.236008018255233765e-02 6.705176353454589844e+00 1.995844841003417969e+00 -4.116309881210327148e-01
2.264000000000000000e+03 7.479428863525390625e+01 6.943041801452636719e+00 2.001401036977767944e-01 7.963311195373535156e+00 2.449035406112670898e+00 1.639981567859649658e-01
2.265000000000000000e+03 4.735635375976562500e+01 -2.646069717407226562e+01 1.117035225033760071e-01 -2.514230310916900635e-01 -4.191585257649421692e-02 -5.826007127761840820e-01
2.266000000000000000e+03 6.826108551025390625e+01 -1.651507377624511719e+01 3.994321823120117188e-01 1.908627033233642578e+00 6.924177408218383789e-01 -6.481680274009704590e-02
2.267000000000000000e+03 6.524525165557861328e+00 1.518647861480712891e+01 9.481327651883475482e-06 8.377195626962929964e-05 2.797598426695913076e-05 -1.721001754049211740e-04
2.268000000000000000e+03 7.512346649169921875e+01 2.187549591064453125e+01 2.102646529674530029e-01 7.631724357604980469e+00 2.352596759796142578e+00 7.260642200708389282e-02
2.269000000000000000e+03 5.739030838012695312e+00 -1.570242881774902344e+01 -1.567223516758531332e-04 6.929557457624468952e-06 -4.493784217629581690e-05 1.917764893732964993e-05
2.270000000000000000e+03 4.659651947021484375e+01 -1.177817916870117188e+01 2.582812157925218344e-05 4.775943307322449982e-05 2.207626675954088569e-05 1.628193058422766626e-05
2.271000000000000000e+03 7.402085876464843750e+01 -3.586596298217773438e+01 -4.784972667694091797e-01 6.577514171600341797e+00 1.829704999923706055e+00 2.779599428176879883e-01
2.272000000000000000e+03 5.164305686950683594e+00 -2.808476448059082031e+01 5.546055617742240429e-04 -5.295682422001846135e-05 1.504946267232298851e-04 5.957843313808552921e-05
2.273000000000000000e+03 4.260091304779052734e+00 -2.959749984741210938e+01 5.219492013566195965e-04 5.097682151244953275e-05 1.718777930364012718e-04 4.147654180997051299e-05
2.274000000000000000e+03 7.324324798583984375e+01 1.766210556030273438e+01 6.517847627401351929e-02 8.534010887145996094e+00 2.579756736755371094e+00 -2.257809601724147797e-02
2.275000000000000000e+03 7.189203643798828125e+01 3.402838516235351562e+01 -4.928174018859863281e-01 6.072745800018310547e+00 1.673978567123413086e+00 6.184909492731094360e-02
2.276000000000000000e+03 6.933599090576171875e+01 3.232601547241210938e+01 -3.800621032714843750e-01 5.221143722534179688e+00 1.452324509620666504e+00 -5.953664183616638184e-01
2.277000000000000000e+03 6.594919204711914062e+00 3.072420692443847656e+01 -3.208081761840730906e-05 3.923218464478850365e-04 1.080723086488433182e-04 -2.621405292302370071e-04
2.278000000000000000e+03 4.664920806884765625e+00 -1.788392829895019531e+01 -1.891612773761153221e-04 5.624425284622702748e-06 -5.506105662789195776e-05 1.661933492869138718e-05
2.279000000000000000e+03 7.576165771484375000e+01 -1.690226554870605469e+00 1.370134502649307251e-01 7.283716201782226562e+00 2.226218938827514648e+00 -6.382188796997070312e-01
2.280000000000000000e+03 7.143366241455078125e+01 -6.353718280792236328e+00 1.149680232629179955e-03 6.411245822906494141e+00 1.923718690872192383e+00 7.187597453594207764e-02
2.281000000000000000e+03 7.384214782714843750e+01 2.629591369628906250e+01 4.437709152698516846e-01 7.636285781860351562e+00 2.424017190933227539e+00 2.816240489482879639e-01
2.282000000000000000e+03 3.824568939208984375e+01 2.223089218139648438e+01 2.196056768298149109e-03 -1.183404892799444497e-04 6.233148742467164993e-04 2.664749044924974442e-04
2.283000000000000000e+03 4.181399154663085938e+01 -1.747097778320312500e+01 3.050645318580791354e-05 1.601531403139233589e-05 1.395653089275583625e-05 -2.009226363952620886e-06
2.284000000000000000e+03 4.366913223266601562e+01 -3.244077205657958984e+00 -8.503563003614544868e-05 -6.339092215057462454e-05 -4.452796565601602197e-05 -2.436063186905812472e-05
2.285000000000000000e+03 7.600336456298828125e+01 3.271456909179687500e+01 -1.742057949304580688e-01 7.290719032287597656e+00 2.134953975677490234e+00 5.846222639083862305e-01
2.286000000000000000e+03 3.534048461914062500e+01 -1.501047801971435547e+01 -3.755629222723655403e-05 -1.443998826289316639e-05 -1.559888369229156524e-05 2.710167791519779712e-05
2.287000000000000000e+03 5.613413810729980469e+00 -1.315569019317626953e+01 -1.067634075297974050e-04 -1.842026722442824394e-05 -3.755510260816663504e-05 -5.837240678374655545e-05
2.288000000000000000e+03 3.672175168991088867e+00 2.715238571166992188e+01 -1.015238449326716363e-04 4.552507598418742418e-04 1.061180737451650202e-04 -1.524067338323220611e-04
2.289000000000000000e+03 7.445788574218750000e+01 4.629392623901367188e+00 4.157454967498779297e-01 8.196949958801269531e+00 2.583808660507202148e+00 -3.117305459454655647e-03
2.290000000000000000e+03 4.072993278503417969e+00 -2.836965370178222656e+01 -3.080774331465363503e-04 1.178182137664407492e-04 -5.707776654162444174e-05 1.762382271408569068e-05
2.291000000000000000e+03 4.184814453125000000e+00 1.855193901062011719e+01 1.539800578029826283e-04 2.224024210590869188e-04 1.129147422034293413e-04 -1.017457398120313883e-04
2.292000000000000000e+03 4.240251064300537109e+00 1.464014339447021484e+01 -1.060967479133978486e-04 1.553693437017500401e-04 1.478178000979823992e-05 -1.118210057029500604e-04
2.293000000000000000e+03 5.233653068542480469e+00 1.602631950378417969e+01 -8.731769048608839512e-05 1.740958978189155459e-04 2.603346365503966808e-05 -1.368997473036870360e-04
2.294000000000000000e+03 5.184254169464111328e+00 -1.673581314086914062e+01 1.526250416645780206e-04 -5.708557000616565347e-05 2.866184149752371013e-05 -1.147804287029430270e-04
2.295000000000000000e+03 3.276636886596679688e+01 -1.266658020019531250e+01 8.800599061942193657e-06 3.827859109151177108e-05 1.412375695508671924e-05 -4.177134178462438285e-05
2.296000000000000000e+03 9.396823883056640625e+00 -1.297121047973632812e+01 -6.135532748885452747e-05 -3.443937384872697294e-05 -2.873841185646597296e-05 1.039986614159715828e-06
2.297000000000000000e+03 7.345040130615234375e+01 1.633955383300781250e+01 5.126072838902473450e-02 8.506304740905761719e+00 2.567269802093505859e+00 -2.317762747406959534e-02
2.298000000000000000e+03 4.373181343078613281e+00 -1.327630615234375000e+01 1.130750024458393455e-04 1.769360278558451682e-05 3.923058102373033762e-05 4.492005973588675261e-05
2.299000000000000000e+03 6.257573604583740234e+00 -3.295069122314453125e+01 8.773459703661501408e-04 2.577780687715858221e-04 3.405371971894055605e-04 3.849836066365242004e-04
2.300000000000000000e+03 7.593026733398437500e+01 6.911838531494140625e+00 1.085183471441268921e-01 7.321983337402343750e+00 2.229150533676147461e+00 1.375746726989746094e-01
2.301000000000000000e+03 7.390252685546875000e+01 -4.500197410583496094e+00 1.139923464506864548e-02 7.292527675628662109e+00 2.191178083419799805e+00 -5.387849211692810059e-01
2.302000000000000000e+03 7.302636718750000000e+01 -5.694179534912109375e+00 -3.647099435329437256e-02 6.990355968475341797e+00 2.086165428161621094e+00 -3.541141152381896973e-01
2.303000000000000000e+03 7.308691406250000000e+01 2.241279983520507812e+01 3.040435314178466797e-01 8.553511619567871094e+00 2.657266378402709961e+00 -7.920660823583602905e-02
2.304000000000000000e+03 7.581368255615234375e+01 1.721310424804687500e+01 2.035116590559482574e-02 7.392237663269042969e+00 2.223776578903198242e+00 -3.999601304531097412e-02
2.305000000000000000e+03 4.567038726806640625e+01 8.306240439414978027e-01 1.464215747546404600e-04 9.060998127097263932e-05 7.110946899047121406e-05 1.024623998091556132e-04
2.306000000000000000e+03 7.613275146484375000e+01 -3.086395072937011719e+01 -4.635619223117828369e-01 9.605018615722656250e+00 2.742436885833740234e+00 -1.154333710670471191e+00
2.307000000000000000e+03 7.354453277587890625e+01 -3.013964653015136719e+01 -8.247725963592529297e-01 9.115656852722167969e+00 2.487265348434448242e+00 1.059478998184204102e+00
2.308000000000000000e+03 7.550962829589843750e+01 -2.588751602172851562e+01 1.401446342468261719e+00 1.036213207244873047e+01 3.529073715209960938e+00 1.382657766342163086e+00
2.309000000000000000e+03 7.393951416015625000e+01 -2.982003021240234375e+01 -7.370634675025939941e-01 1.033151435852050781e+01 2.878335475921630859e+00 3.417683839797973633e-01
2.310000000000000000e+03 7.601778411865234375e+01 -2.542607307434082031e+01 7.343586087226867676e-01 9.793959617614746094e+00 3.158495426177978516e+00 1.332467675209045410e+00
2.311000000000000000e+03 7.648178863525390625e+01 -2.886575508117675781e+01 1.058128237724304199e+00 9.361729621887207031e+00 3.125957489013671875e+00 -1.341739058494567871e+00
2.312000000000000000e+03 7.566014862060546875e+01 -2.875789070129394531e+01 1.468613982200622559e+00 1.006352901458740234e+01 3.459643125534057617e+00 -1.502725839614868164e+00
2.313000000000000000e+03 7.645806884765625000e+01 -2.765925788879394531e+01 2.053882598876953125e+00 9.072877883911132812e+00 3.338028192520141602e+00 -3.894876837730407715e-01
2.314000000000000000e+03 7.606066894531250000e+01 -2.783024597167968750e+01 2.460889816284179688e+00 9.410501480102539062e+00 3.561417341232299805e+00 -6.317035555839538574e-01
2.315000000000000000e+03 7.574414825439453125e+01 -2.642465019226074219e+01 2.264363527297973633e+00 9.833131790161132812e+00 3.629248619079589844e+00 1.076222419738769531e+00
2.316000000000000000e+03 7.455205535888671875e+01 -2.457989120483398438e+01 -6.288886070251464844e-01 1.028735733032226562e+01 2.897540807723999023e+00 2.446221262216567993e-01
2.317000000000000000e+03 7.435688018798828125e+01 -2.501565742492675781e+01 -4.523174166679382324e-01 1.091584968566894531e+01 3.139059782028198242e+00 1.085545420646667480e-01
2.318000000000000000e+03 7.373613739013671875e+01 -2.450097084045410156e+01 -7.622727751731872559e-01 9.593922615051269531e+00 2.649494886398315430e+00 -8.595740199089050293e-01
2.319000000000000000e+03 7.508573150634765625e+01 -2.489577674865722656e+01 -1.361075937747955322e-01 1.048111820220947266e+01 3.103502988815307617e+00 9.068877100944519043e-01
2.320000000000000000e+03 7.476760101318359375e+01 -2.415486335754394531e+01 -7.101592421531677246e-01 9.929900169372558594e+00 2.765922307968139648e+00 3.167808949947357178e-01
2.321000000000000000e+03 7.485826110839843750e+01 -2.309217262268066406e+01 -9.916697740554809570e-01 9.052364349365234375e+00 2.418208599090576172e+00 1.640810370445251465e-01
2.322000000000000000e+03 7.250466156005859375e+01 -3.025420379638671875e+01 -2.051340341567993164e-01 6.033056735992431641e+00 1.748376727104187012e+00 1.986279368400573730e+00
2.323000000000000000e+03 7.203359985351562500e+01 -3.037796020507812500e+01 -1.787808723747730255e-02 4.738554000854492188e+00 1.416202783584594727e+00 1.808890342712402344e+00
2.324000000000000000e+03 7.350918579101562500e+01 -2.489135932922363281e+01 -6.547731161117553711e-01 9.716907501220703125e+00 2.718640327453613281e+00 -1.446872115135192871e+00
2.325000000000000000e+03 7.273773193359375000e+01 -2.476199913024902344e+01 -6.504674255847930908e-02 7.327913284301757812e+00 2.178859949111938477e+00 -2.396621704101562500e+00
2.326000000000000000e+03 7.301412963867187500e+01 -2.490528869628906250e+01 -3.450780212879180908e-01 8.263050079345703125e+00 2.375391483306884766e+00 -2.249771833419799805e+00
2.327000000000000000e+03 7.688563537597656250e+01 -2.934086418151855469e+01 5.809367895126342773e-01 9.249061584472656250e+00 2.948999404907226562e+00 -1.363209247589111328e+00
2.328000000000000000e+03 7.697421264648437500e+01 -2.744451713562011719e+01 1.583599090576171875e+00 8.776645660400390625e+00 3.108073234558105469e+00 -1.015797778964042664e-01
2.329000000000000000e+03 1.501414012908935547e+01 -1.001847934722900391e+01 -9.695149492472410202e-05 1.524995786894578487e-05 -2.451046020723879337e-05 6.807882982684532180e-06
2.330000000000000000e+03 1.543836307525634766e+01 -8.521059036254882812e+00 -7.266002648975700140e-05 8.356683792953845114e-06 -1.929100289999041706e-05 1.512312246632063761e-05
2.331000000000000000e+03 4.385301589965820312e+01 -1.528360080718994141e+01 -6.768132607248844579e-06 -4.726233237306587398e-05 -1.620914008526597172e-05 -1.672996222623623908e-05
2.332000000000000000e+03 4.311612319946289062e+01 -1.540758323669433594e+01 8.848840479913633317e-06 4.058297054143622518e-05 1.482954303355654702e-05 -9.906883860821835697e-06
2.333000000000000000e+03 2.455458641052246094e+01 -3.060401678085327148e+00 8.830387378111481667e-05 -1.910331411636434495e-05 2.076016789942514151e-05 -5.688981036655604839e-05
2.334000000000000000e+03 5.084883499145507812e+01 -2.595113372802734375e+01 3.981343209743499756e-01 2.294683903455734253e-01 1.882808059453964233e-01 -4.548008143901824951e-01
2.335000000000000000e+03 8.722835540771484375e+00 5.065035820007324219e+00 2.932881943706888705e-05 2.084722473227884620e-05 1.505281306890537962e-05 -8.920179243432357907e-05
2.336000000000000000e+03 5.360231876373291016e+00 5.349660396575927734e+00 -2.216579741798341274e-05 -3.988429853052366525e-06 -7.846268090361263603e-06 -1.228837300004670396e-05
2.337000000000000000e+03 2.973280906677246094e+01 -1.280392551422119141e+01 -5.983662413200363517e-05 1.472432086302433163e-05 -1.353369134449167177e-05 1.124796563090058044e-05
2.338000000000000000e+03 2.910112571716308594e+01 -1.065294361114501953e+01 -8.090586925391107798e-05 8.663446351420134306e-06 -2.167272759834304452e-05 4.490183710004203022e-05
2.339000000000000000e+03 4.319697952270507812e+01 -1.621823883056640625e+01 -2.156993650714866817e-05 -3.275912240496836603e-05 -1.629871803743299097e-05 5.391321792558301240e-06
2.340000000000000000e+03 4.124127960205078125e+01 -1.543550205230712891e+01 2.901546031353063881e-05 3.270774686825461686e-05 1.851696288213133812e-05 -8.593404345447197556e-06
2.341000000000000000e+03 4.996515274047851562e+01 -2.783321380615234375e+01 5.871605873107910156e-01 1.991024166345596313e-01 2.358788996934890747e-01 -2.496811002492904663e-01
2.342000000000000000e+03 7.564150238037109375e+01 -2.505946540832519531e+01 2.206920534372329712e-01 1.015067768096923828e+01 3.111411094665527344e+00 1.260537624359130859e+00
2.343000000000000000e+03 4.202788829803466797e+00 4.893187046051025391e+00 3.756457954295910895e-05 -1.792255170585121959e-05 5.892608896829187870e-06 4.235759115545079112e-05
2.344000000000000000e+03 7.692437744140625000e+01 -2.843619728088378906e+01 1.136149525642395020e+00 8.957999229431152344e+00 3.028244495391845703e+00 -9.463148117065429688e-01
2.345000000000000000e+03 4.732897186279296875e+01 -1.554369449615478516e+01 -1.126647930504987016e-06 -5.219078229856677353e-05 -1.599522875039838254e-05 1.563064415677217767e-06
2.346000000000000000e+03 4.800910186767578125e+01 -1.527882289886474609e+01 1.517843520559836179e-05 4.111046655452810228e-05 1.688666998234111816e-05 8.204955520341172814e-06
2.347000000000000000e+03 7.611367797851562500e+01 -2.660560989379882812e+01 2.119625091552734375e+00 9.424755096435546875e+00 3.463314056396484375e+00 8.170062303543090820e-01
2.348000000000000000e+03 7.647114562988281250e+01 -3.051553153991699219e+01 -2.474481314420700073e-01 9.506361007690429688e+00 2.777673959732055664e+00 -1.316385865211486816e+00
2.349000000000000000e+03 7.283513641357421875e+01 -3.061672210693359375e+01 -6.403472423553466797e-01 6.889331340789794922e+00 1.874695301055908203e+00 1.530387520790100098e+00
2.350000000000000000e+03 9.991751670837402344e+00 -5.851802825927734375e+00 -5.007494837627746165e-05 2.472510641382541507e-05 -7.604952315887203440e-06 -2.691819463507272303e-05
2.351000000000000000e+03 9.958388328552246094e+00 -5.143286705017089844e+00 3.678334178403019905e-05 2.146856786566786468e-05 1.747557325870729983e-05 2.832525751728098840e-06
2.352000000000000000e+03 1.355478572845458984e+01 3.954067230224609375e+00 7.066714715620037168e-06 -5.404702278610784560e-06 4.986038106835621875e-07 -3.732550976565107703e-05
2.353000000000000000e+03 5.330427646636962891e+00 -6.750895500183105469e+00 3.478812141111120582e-05 1.033606440614676103e-05 1.353725656372262165e-05 4.568585427477955818e-05
2.354000000000000000e+03 8.839832305908203125e+00 -4.913796424865722656e+00 2.254377704957732931e-06 3.831035428447648883e-05 1.216942018800182268e-05 2.366409535170532763e-05
2.355000000000000000e+03 6.759674072265625000e+00 -5.429356098175048828e+00 4.494555469136685133e-05 -3.917257708963006735e-05 1.731893348733137827e-06 -1.894612296382547356e-06
2.356000000000000000e+03 1.149730110168457031e+01 -1.038102436065673828e+01 5.076237357570789754e-05 5.901729673496447504e-05 3.293390182079747319e-05 -2.772433981590438634e-05
2.357000000000000000e+03 2.882561302185058594e+01 -9.881838798522949219e+00 -1.201489285449497402e-04 3.164309237035922706e-05 -2.655175012478139251e-05 3.742837179743219167e-06
2.358000000000000000e+03 4.545364379882812500e+01 -1.512265396118164062e+01 -4.302351953811012208e-05 -1.188604983326513320e-05 -1.647286990191787481e-05 -2.381871854595374316e-05
2.359000000000000000e+03 4.610058212280273438e+01 -1.536507129669189453e+01 1.162646003649570048e-05 -1.038346454151906073e-05 3.728986825990432408e-07 7.227096830320078880e-06
2.360000000000000000e+03 2.423701286315917969e+01 -1.275608777999877930e+00 3.445688707870431244e-05 -2.792442319332621992e-05 1.959739620360778645e-06 7.391166582237929106e-05
2.361000000000000000e+03 1.935424804687500000e+01 2.228537082672119141e+00 1.423559588147327304e-04 -7.998606452019885182e-05 1.871096537797711790e-05 -7.134725456126034260e-05
2.362000000000000000e+03 2.048670578002929688e+01 1.386930048465728760e-02 9.006899927044287324e-05 -6.397748802555724978e-05 7.827451554476283491e-06 -5.644840348395518959e-05
2.363000000000000000e+03 2.647982978820800781e+01 -6.926108360290527344e+00 1.464709202991798520e-05 1.393306501995539293e-05 8.574046660214662552e-06 -4.625626752385869622e-05
2.364000000000000000e+03 2.718356895446777344e+01 -6.384952545166015625e+00 1.025808796839555725e-05 -1.487062127125682309e-05 -1.383760263706790283e-06 5.749790216214023530e-05
2.365000000000000000e+03 4.581683349609375000e+01 -1.360300350189208984e+01 -3.772218406083993614e-05 -2.669971217983402312e-05 -1.932656778080854565e-05 -2.960762139991857111e-05
2.366000000000000000e+03 1.533126068115234375e+01 3.933103799819946289e+00 1.918042107718065381e-04 9.680074981588404626e-06 6.044528345228172839e-05 -7.273208029801025987e-05
2.367000000000000000e+03 7.398899841308593750e+01 -2.423737144470214844e+01 -8.364132046699523926e-01 9.584052085876464844e+00 2.624291658401489258e+00 -5.011853575706481934e-01
2.368000000000000000e+03 2.964587783813476562e+01 -1.132814025878906250e+01 -4.561035893857479095e-05 -3.938039299100637436e-06 -1.486451947130262852e-05 -2.083997060253750533e-06
2.369000000000000000e+03 4.223468399047851562e+01 -1.531114578247070312e+01 -3.341543197166174650e-05 -3.274549089837819338e-05 -1.984827758860774338e-05 7.748666575935203582e-06
2.370000000000000000e+03 1.176369380950927734e+01 -6.807146072387695312e+00 -2.838779619196429849e-05 -2.396888339717406780e-05 -1.570700442243833095e-05 2.255920117022469640e-05
2.371000000000000000e+03 2.390086936950683594e+01 -3.599349737167358398e+00 1.703935777186416090e-05 -7.509648639825172722e-06 2.858912694136961363e-06 5.388841236708685756e-05
2.372000000000000000e+03 2.402505874633789062e+01 -2.433331727981567383e+00 2.592255623312667012e-05 -1.275459999305894598e-05 3.950387053919257596e-06 6.041811866452917457e-05
2.373000000000000000e+03 5.306656265258789062e+01 -2.584893035888671875e+01 6.276445984840393066e-01 8.869607448577880859e-01 4.543816149234771729e-01 -1.435510367155075073e-01
2.374000000000000000e+03 5.414358901977539062e+01 -2.532084083557128906e+01 5.585206747055053711e-01 1.264184117317199707e+00 5.468114018440246582e-01 9.868954867124557495e-02
2.375000000000000000e+03 2.807017135620117188e+01 -7.770054340362548828e+00 2.882965782191604376e-05 -1.000220163405174389e-05 5.648237220157170668e-06 4.244125011609867215e-05
2.376000000000000000e+03 7.737256526947021484e+00 -1.504970073699951172e+01 -3.868848943966440856e-05 4.207701749692205340e-06 -1.034423621604219079e-05 6.205256795510649681e-05
2.377000000000000000e+03 7.358875274658203125e+01 -1.586642646789550781e+01 -2.118561565876007080e-01 6.072952270507812500e+00 1.758328795433044434e+00 -8.227281570434570312e-01
2.378000000000000000e+03 7.463014221191406250e+01 -1.801034927368164062e+01 -5.445632338523864746e-01 7.065940380096435547e+00 1.956413030624389648e+00 -6.330547928810119629e-01
2.379000000000000000e+03 7.698204040527343750e+00 4.949988842010498047e+00 6.738377851434051991e-05 6.560129259014502168e-05 3.989551987615413964e-05 -7.865462248446419835e-05
2.380000000000000000e+03 7.420899963378906250e+01 -3.094566726684570312e+01 -1.038832545280456543e+00 9.065315246582031250e+00 2.407944917678833008e+00 1.433780789375305176e-01
2.381000000000000000e+03 5.427206802368164062e+01 -2.361741256713867188e+01 -1.197343841195106506e-01 8.071225881576538086e-01 2.062164694070816040e-01 1.063694339245557785e-02
2.382000000000000000e+03 7.490167999267578125e+01 -3.459854841232299805e+00 5.760541185736656189e-02 7.389166831970214844e+00 2.234031677246093750e+00 -6.543947458267211914e-01
2.383000000000000000e+03 4.822094345092773438e+01 -2.675117492675781250e+01 2.156655937433242798e-01 -1.467614322900772095e-01 2.067124843597412109e-02 -5.549792647361755371e-01
2.384000000000000000e+03 1.013210201263427734e+01 -4.408539295196533203e+00 -2.767208206932991743e-05 -3.040127558051608503e-05 -1.742200765875168145e-05 -9.223095730703789741e-06
2.385000000000000000e+03 4.806731796264648438e+01 -2.835815238952636719e+01 3.630369603633880615e-01 -1.161503940820693970e-01 7.406596839427947998e-02 -3.157060444355010986e-01
2.386000000000000000e+03 7.416558837890625000e+01 -1.202446174621582031e+01 2.867895178496837616e-02 6.505693912506103516e+00 1.960311770439147949e+00 -6.635445356369018555e-01
2.387000000000000000e+03 1.667039871215820312e+01 -9.317123413085937500e+00 1.950435716935317032e-06 1.005436934065073729e-05 3.601441449063713662e-06 2.958724689960945398e-05
2.388000000000000000e+03 7.513342285156250000e+01 -3.518910980224609375e+01 -6.322962641716003418e-01 7.809280395507812500e+00 2.153095245361328125e+00 -6.779223680496215820e-02
2.389000000000000000e+03 7.357688903808593750e+01 -3.461831665039062500e+01 -7.641141414642333984e-01 6.540863513946533203e+00 1.733024835586547852e+00 3.857278525829315186e-01
2.390000000000000000e+03 1.108305072784423828e+01 -7.010103702545166016e+00 9.982491974369622767e-06 -3.253783006584853865e-06 2.018612804022268392e-06 -1.055407119565643370e-05
2.391000000000000000e+03 2.668424606323242188e+01 -5.708874225616455078e+00 4.198992610326968133e-05 1.016811347653856501e-05 1.564741069159936160e-05 -5.596609844360500574e-05
2.392000000000000000e+03 3.900087833404541016e+00 -2.460253906250000000e+01 2.437448565615341067e-04 2.142061384802218527e-05 7.954963803058490157e-05 6.274451607168884948e-06
2.393000000000000000e+03 5.801327228546142578e+00 -7.628410816192626953e+00 2.914940341725014150e-05 -1.801991493266541511e-05 3.338846454425947741e-06 -6.913023389643058181e-05
2.394000000000000000e+03 3.931553649902343750e+01 4.500766277313232422e+00 -3.380531852599233389e-04 -9.205337846651673317e-05 -1.290319632971659303e-04 2.210653328802436590e-04
2.395000000000000000e+03 7.589486694335937500e+01 -2.230265235900878906e+01 -8.597431778907775879e-01 9.044765472412109375e+00 2.455506563186645508e+00 4.982658624649047852e-01
2.396000000000000000e+03 7.449432373046875000e+01 -2.395358085632324219e+01 -8.248902559280395508e-01 9.453661918640136719e+00 2.588631391525268555e+00 2.896918356418609619e-02
2.397000000000000000e+03 4.081842422485351562e+01 -1.434325790405273438e+01 -3.574659785954281688e-05 -2.157210292352829129e-05 -1.719561078061815351e-05 6.069154551369138062e-06
2.398000000000000000e+03 7.418357849121093750e+01 1.024806404113769531e+01 -1.765996664762496948e-01 8.287434577941894531e+00 2.433250665664672852e+00 1.786206066608428955e-01
2.399000000000000000e+03 5.509787559509277344e+00 -1.068706989288330078e+01 -7.581540558021515608e-05 -3.588866456993855536e-05 -3.351121995365247130e-05 -2.567589035606943071e-05
2.400000000000000000e+03 5.584054470062255859e+00 -1.190542984008789062e+01 8.670076203998178244e-05 3.903293327311985195e-05 3.772011041291989386e-05 5.029680687584914267e-05
2.401000000000000000e+03 7.542967224121093750e+01 1.436171340942382812e+01 -4.766705632209777832e-02 7.595594882965087891e+00 2.264378309249877930e+00 -3.627127781510353088e-02
2.402000000000000000e+03 7.455493927001953125e+01 -8.850364685058593750e+00 -2.004542388021945953e-02 6.871281147003173828e+00 2.055370569229125977e+00 -6.304021477699279785e-01
2.403000000000000000e+03 7.507690429687500000e+01 -7.880373477935791016e+00 -3.736400231719017029e-02 7.106582164764404297e+00 2.120765447616577148e+00 -6.644319891929626465e-01
2.404000000000000000e+03 7.316648101806640625e+01 -2.022377729415893555e+00 2.339025884866714478e-01 7.884897232055664062e+00 2.435639858245849609e+00 -3.492894768714904785e-01
2.405000000000000000e+03 6.863564300537109375e+01 -1.484667873382568359e+01 5.240636467933654785e-01 2.642978668212890625e+00 9.501127004623413086e-01 3.772637620568275452e-02
2.406000000000000000e+03 6.923937225341796875e+01 -1.168363857269287109e+01 4.235563576221466064e-01 3.765485286712646484e+00 1.256712436676025391e+00 3.012305498123168945e-01
2.407000000000000000e+03 3.843860244750976562e+01 -1.393993663787841797e+01 4.152738983975723386e-05 3.136222585453651845e-05 2.186688470828812569e-05 -1.553989932290278375e-05
2.408000000000000000e+03 8.659598350524902344e+00 -1.400668525695800781e+01 3.585071681300178170e-05 2.702798701648134738e-05 1.886361133074387908e-05 -2.770699938992038369e-05
2.409000000000000000e+03 7.743936061859130859e+00 -1.332907485961914062e+01 -4.278043707017786801e-05 -3.393476799828931689e-05 -2.301456152054015547e-05 3.844156708510126919e-06
2.410000000000000000e+03 7.719691276550292969e+00 1.437694931030273438e+01 -1.321602485404582694e-05 7.277803524630144238e-05 1.786860229913145304e-05 -1.972896716324612498e-04
2.411000000000000000e+03 1.417207145690917969e+01 -9.762399673461914062e+00 9.527630754746496677e-05 5.320624950400087982e-06 3.017907874891534448e-05 -3.994348298874683678e-05
2.412000000000000000e+03 5.224728012084960938e+01 -2.590940666198730469e+01 5.519113540649414062e-01 6.712527275085449219e-01 3.669492006301879883e-01 -2.719334661960601807e-01
2.413000000000000000e+03 9.385972976684570312e+00 -5.013732433319091797e+00 -2.023420529440045357e-05 -4.661897401092574000e-05 -2.005595342779997736e-05 6.189727628225227818e-06
2.414000000000000000e+03 1.039844226837158203e+01 5.284576892852783203e+00 -2.750338535406626761e-05 7.480713975382968783e-06 -6.006801413604989648e-06 -6.667936395388096571e-05
2.415000000000000000e+03 4.159920501708984375e+01 7.299347519874572754e-01 -1.165727735497057438e-04 4.328811337472870946e-05 -2.198539732489734888e-05 -1.805988517844525632e-06
2.416000000000000000e+03 4.369683837890625000e+01 -4.998705387115478516e-01 1.074288811651058495e-04 6.099590245867148042e-05 5.052743654232472181e-05 3.080485475948080420e-05
2.417000000000000000e+03 3.698331832885742188e+01 -1.292425823211669922e+01 4.116005220566876233e-05 2.641122773638926446e-05 2.027138361881952733e-05 -1.024183620756957680e-05
2.418000000000000000e+03 4.464365005493164062e+01 -1.510924720764160156e+01 3.264612678322009742e-05 2.383331411692779511e-05 1.694383172434754670e-05 1.584769961482379586e-05
2.419000000000000000e+03 1.159942150115966797e+01 5.831104755401611328e+00 -1.278545369132189080e-05 3.117831738563836552e-06 -2.900286517615313642e-06 -7.353504042839631438e-05
2.420000000000000000e+03 2.352734565734863281e+01 -1.832969665527343750e+00 1.014227236737497151e-04 -1.653086837904993445e-05 2.546755786170251667e-05 -7.435055158566683531e-05
2.421000000000000000e+03 2.306635284423828125e+01 -1.246054053306579590e+00 3.380347334314137697e-05 -1.712316043267492205e-05 5.004093509342055768e-06 8.138234261423349380e-05
2.422000000000000000e+03 4.875077724456787109e+00 6.573730468750000000e+00 -2.004716407100204378e-06 -3.153988700432819314e-06 -1.547611532259907108e-06 1.978058389795478433e-05
2.423000000000000000e+03 5.346470832824707031e+00 7.482117652893066406e+00 4.698965858551673591e-05 7.783577166264876723e-05 3.744762943824753165e-05 -1.289074280066415668e-04
2.424000000000000000e+03 7.513463592529296875e+01 -3.216048812866210938e+01 -1.011537075042724609e+00 8.796870231628417969e+00 2.335599899291992188e+00 -3.666550219058990479e-01
2.425000000000000000e+03 7.540700531005859375e+01 -3.263475799560546875e+01 -9.519364833831787109e-01 8.758022308349609375e+00 2.341825723648071289e+00 -3.636130094528198242e-01
2.426000000000000000e+03 4.217352294921875000e+01 -2.830555677413940430e+00 -7.212688797153532505e-05 -6.264585681492462754e-05 -4.043182343593798578e-05 -2.046273220912553370e-05
2.427000000000000000e+03 4.412461090087890625e+01 -4.277677059173583984e+00 9.391564526595175266e-05 4.495425309869460762e-05 4.166096914559602737e-05 1.951727426785510033e-05
2.428000000000000000e+03 7.497393798828125000e+01 -2.028003501892089844e+01 -9.540541172027587891e-01 7.908607959747314453e+00 2.086366176605224609e+00 -2.712740600109100342e-01
2.429000000000000000e+03 7.609867858886718750e+01 -2.126867294311523438e+01 -7.772838473320007324e-01 8.740902900695800781e+00 2.389085531234741211e+00 3.013701736927032471e-01
2.430000000000000000e+03 4.235861968994140625e+01 -1.632557487487792969e+01 2.970772220578510314e-05 2.463325836288277060e-05 1.630229417060036212e-05 -1.550861270516179502e-05
2.431000000000000000e+03 7.163334655761718750e+01 -1.978120803833007812e+01 -1.217624068260192871e+00 4.658539772033691406e+00 1.032274723052978516e+00 -1.125124216079711914e+00
2.432000000000000000e+03 6.944340515136718750e+01 -1.726118278503417969e+01 5.221644416451454163e-02 2.358113050460815430e+00 7.230988740921020508e-01 -5.698155164718627930e-01
2.433000000000000000e+03 4.934985733032226562e+01 -2.938863372802734375e+01 5.816358327865600586e-01 2.077927142381668091e-01 2.368285655975341797e-01 -4.144078493118286133e-02
2.434000000000000000e+03 5.046965789794921875e+01 -2.887882423400878906e+01 7.448641061782836914e-01 4.298081696033477783e-01 3.524017035961151123e-01 -4.888090491294860840e-02
2.435000000000000000e+03 4.580838775634765625e+01 -1.208171463012695312e+01 -2.543336267990525812e-05 -5.798504935228265822e-05 -2.502552342775743455e-05 -5.929231974732829258e-06
2.436000000000000000e+03 5.173011302947998047e+00 1.121321487426757812e+01 2.847313407983165234e-05 9.842513100011274219e-05 3.806948006968013942e-05 -1.167070149676874280e-04
2.437000000000000000e+03 3.124160575866699219e+01 -1.366014289855957031e+01 4.331470699980854988e-05 6.222752290341304615e-06 1.486123801441863179e-05 -1.002992758003529161e-05
2.438000000000000000e+03 3.037543296813964844e+01 -1.198369121551513672e+01 -8.184907346731051803e-05 2.908045826188754290e-05 -1.583058474352583289e-05 -5.699086159438593313e-06
2.439000000000000000e+03 4.770695114135742188e+01 -2.570781898498535156e+01 2.574569173157215118e-02 -2.447555363178253174e-01 -6.570295244455337524e-02 -6.790301799774169922e-01
2.440000000000000000e+03 6.770430564880371094e+00 -1.305994510650634766e+01 9.818941907724365592e-05 2.445736754452809691e-05 3.679403744172304869e-05 6.614219455514103174e-05
2.441000000000000000e+03 7.164125061035156250e+01 -1.170282077789306641e+01 1.708342283964157104e-01 5.141616344451904297e+00 1.593735098838806152e+00 -3.119886517524719238e-01
2.442000000000000000e+03 7.376117706298828125e+01 -9.640631675720214844e+00 -1.001841388642787933e-02 6.543812274932861328e+00 1.960138082504272461e+00 -5.557614564895629883e-01
2.443000000000000000e+03 1.082287883758544922e+01 -1.117092132568359375e+01 -6.206340913195163012e-05 -4.305213224142789841e-05 -3.153466241201385856e-05 1.300055464525939897e-05
2.444000000000000000e+03 5.359098434448242188e+00 1.714321708679199219e+01 1.970111188711598516e-04 1.530999870738014579e-04 1.050333303282968700e-04 -1.253172667929902673e-04
2.445000000000000000e+03 7.381065368652343750e+01 3.610845565795898438e+00 4.773759841918945312e-01 8.510665893554687500e+00 2.696412563323974609e+00 7.194834295660257339e-03
2.446000000000000000e+03 3.590501785278320312e+01 -1.351956462860107422e+01 -3.538837336236611009e-05 -8.265292308351490647e-07 -1.086447082343511283e-05 1.031526517181191593e-05
2.447000000000000000e+03 3.502160263061523438e+01 -1.411127281188964844e+01 2.563493035268038511e-05 5.923907338001299649e-06 9.467651580052915961e-06 -2.252220474474597722e-05
2.448000000000000000e+03 4.505116271972656250e+01 -9.161389350891113281e+00 -1.013306900858879089e-04 1.041708128468599170e-05 -2.727408354985527694e-05 -4.884592271992005408e-05
2.449000000000000000e+03 7.516880798339843750e+01 -3.382418060302734375e+01 -8.840374350547790527e-01 8.090971946716308594e+00 2.162080287933349609e+00 -1.603047847747802734e-01
2.450000000000000000e+03 3.515717697143554688e+01 1.914485931396484375e+01 3.632861480582505465e-04 -8.406628621742129326e-04 -1.432130229659378529e-04 7.239687838591635227e-04
2.451000000000000000e+03 3.730353164672851562e+01 1.604154205322265625e+01 1.146259601227939129e-03 4.212514322716742754e-04 4.702533187810331583e-04 3.650602011475712061e-04
2.452000000000000000e+03 7.572953033447265625e+01 2.404206466674804688e+01 2.209668606519699097e-01 7.305779933929443359e+00 2.258023977279663086e+00 2.676160037517547607e-01
2.453000000000000000e+03 4.271204376220703125e+01 -1.180810928344726562e+00 -9.248013520846143365e-05 -4.226349847158417106e-05 -4.042309228680096567e-05 -2.003109148063231260e-05
2.454000000000000000e+03 6.152005195617675781e+00 2.441841697692871094e+01 1.965120900422334671e-04 2.760983479674905539e-04 1.417831372236832976e-04 -2.167417114833369851e-04
2.455000000000000000e+03 4.461889743804931641e+00 2.372569465637207031e+01 2.131640940206125379e-04 3.155926242470741272e-04 1.586270227562636137e-04 -1.373626437271013856e-04
2.456000000000000000e+03 4.811840438842773438e+01 -2.955777931213378906e+01 3.688296675682067871e-01 3.382103517651557922e-02 1.207952126860618591e-01 -1.243384629487991333e-01
2.457000000000000000e+03 3.362416839599609375e+01 -1.310562229156494141e+01 -1.698798587312921882e-05 -2.661883445398416370e-05 -1.308204628003295511e-05 4.129146327613852918e-05
2.458000000000000000e+03 3.218704986572265625e+01 -1.385534954071044922e+01 -2.789284008031245321e-05 -2.435461647110059857e-05 -1.567423714732285589e-05 3.681879752548411489e-05
2.459000000000000000e+03 4.144667816162109375e+01 2.860601997375488281e+01 3.043129574507474899e-03 -2.524827723391354084e-04 8.371940930373966694e-04 -9.452910744585096836e-04
2.460000000000000000e+03 4.282681655883789062e+01 2.745673751831054688e+01 1.448406837880611420e-03 -8.419317891821265221e-04 1.819425087887793779e-04 1.831384608522057533e-03
2.461000000000000000e+03 3.749382781982421875e+01 2.089861869812011719e+01 3.831319918390363455e-04 -7.237976533360779285e-04 -1.021997013594955206e-04 1.127909868955612183e-03
2.462000000000000000e+03 5.296242904663085938e+01 -2.797673225402832031e+01 1.068935036659240723e+00 1.276937365531921387e+00 7.037617564201354980e-01 1.284658163785934448e-01
2.463000000000000000e+03 5.387910079956054688e+01 -2.852971267700195312e+01 1.269782185554504395e+00 1.936284303665161133e+00 9.618199467658996582e-01 3.207479119300842285e-01
2.464000000000000000e+03 9.955526351928710938e+00 -3.175101852416992188e+01 1.078125555068254471e-03 -6.308885349426418543e-05 3.045110206585377455e-04 4.560230881907045841e-04
2.465000000000000000e+03 7.403238677978515625e+01 1.941412162780761719e+01 1.118661761283874512e-01 8.201195716857910156e+00 2.493918657302856445e+00 -1.347652543336153030e-02
2.466000000000000000e+03 5.259666919708251953e+00 2.692229080200195312e+01 1.163905617431737483e-04 4.453422734513878822e-04 1.685198512859642506e-04 -1.201465056510642171e-04
2.467000000000000000e+03 7.529850006103515625e+01 2.642097282409667969e+01 2.765797674655914307e-01 7.311875343322753906e+00 2.276536464691162109e+00 4.584876298904418945e-01
2.468000000000000000e+03 7.066198730468750000e+01 -1.552657985687255859e+01 1.867291331291198730e-01 3.776950120925903320e+00 1.189103722572326660e+00 -6.060037016868591309e-01
2.469000000000000000e+03 6.786169433593750000e+01 -1.555688190460205078e+01 5.807031393051147461e-01 2.056801557540893555e+00 7.912514209747314453e-01 1.733776181936264038e-01
2.470000000000000000e+03 7.594828796386718750e+01 3.490088272094726562e+01 -2.447638958692550659e-01 7.295894145965576172e+00 2.115339040756225586e+00 4.397781789302825928e-01
2.471000000000000000e+03 4.303733062744140625e+01 -7.202951431274414062e+00 1.122321918956004083e-05 5.503832653630524874e-05 1.987846371775958687e-05 8.235074346885085106e-06
2.472000000000000000e+03 3.526379013061523438e+01 1.509216690063476562e+01 1.152419834397733212e-03 -4.664632069761864841e-05 3.317320661153644323e-04 1.479168131481856108e-04
2.473000000000000000e+03 4.217535018920898438e+01 -1.949506103992462158e-01 1.176332370960153639e-04 1.703669295238796622e-05 4.040098065161146224e-05 9.902797501126769930e-06
2.474000000000000000e+03 5.142510890960693359e+00 9.078242301940917969e+00 7.121767703210934997e-05 8.943270950112491846e-05 4.819511741516180336e-05 -1.389357203152030706e-04
2.475000000000000000e+03 5.976793289184570312e+00 1.021111583709716797e+01 -3.606224936447688378e-07 5.954280641162768006e-05 1.775465534592512995e-05 -1.545087980048265308e-05
2.476000000000000000e+03 7.697414398193359375e+00 3.355519485473632812e+01 8.507960956194438040e-06 3.918719303328543901e-04 1.201139602926559746e-04 -2.876370854210108519e-04
2.477000000000000000e+03 4.495365142822265625e+01 -6.312834262847900391e+00 9.756492363521829247e-05 3.209106216672807932e-05 3.889679646817967296e-05 2.476761619618628174e-05
2.478000000000000000e+03 4.305432891845703125e+01 -4.807709693908691406e+00 -6.745714927092194557e-05 -3.776268204092048109e-05 -3.156594902975484729e-05 -1.948994940903503448e-05
2.479000000000000000e+03 7.043729400634765625e+01 -1.066407775878906250e+01 2.456351816654205322e-01 4.707903385162353516e+00 1.486061573028564453e+00 6.555242091417312622e-02
2.480000000000000000e+03 6.956642150878906250e+01 3.603242874145507812e+01 -4.153966307640075684e-01 4.555482864379882812e+00 1.242025852203369141e+00 -3.931261599063873291e-01
2.481000000000000000e+03 7.366268920898437500e+01 6.956248283386230469e+00 2.329474985599517822e-01 8.677564620971679688e+00 2.673153638839721680e+00 1.734130531549453735e-01
2.482000000000000000e+03 7.179878234863281250e+01 -8.863121032714843750e+00 3.743760660290718079e-02 5.863937377929687500e+00 1.770412445068359375e+00 -1.559307426214218140e-01
2.483000000000000000e+03 7.202214050292968750e+01 -7.864092826843261719e+00 -3.409846220165491104e-03 6.184727668762207031e+00 1.854395270347595215e+00 -1.618091613054275513e-01
2.484000000000000000e+03 7.385620880126953125e+01 -6.487202644348144531e+00 -5.332782864570617676e-02 6.962437152862548828e+00 2.072732925415039062e+00 -5.336433053016662598e-01
2.485000000000000000e+03 7.268079376220703125e+01 -1.366325664520263672e+01 4.926808923482894897e-02 5.497198104858398438e+00 1.663939952850341797e+00 -6.474165916442871094e-01
2.486000000000000000e+03 5.559729576110839844e+00 -2.923007965087890625e+01 -2.302153734490275383e-04 9.974901331588625908e-05 -3.913990803994238377e-05 8.579105633543804288e-05
2.487000000000000000e+03 7.265055084228515625e+01 -3.629720306396484375e+01 -3.257530927658081055e-01 5.283772468566894531e+00 1.487405776977539062e+00 5.001080632209777832e-01
2.488000000000000000e+03 5.811873912811279297e+00 -3.169706153869628906e+01 -1.279611897189170122e-04 2.308930561412125826e-04 3.087955701630562544e-05 4.250652273185551167e-04
2.489000000000000000e+03 7.323891448974609375e+01 -3.005529212951660156e+01 -6.759217381477355957e-01 8.521850585937500000e+00 2.353778600692749023e+00 1.441606760025024414e+00
2.490000000000000000e+03 7.593310546875000000e+01 -2.583529472351074219e+01 1.203075885772705078e+00 9.794709205627441406e+00 3.299335479736328125e+00 1.268906712532043457e+00
2.491000000000000000e+03 7.589141082763671875e+01 -2.616335678100585938e+01 1.745287299156188965e+00 9.789214134216308594e+00 3.460350275039672852e+00 1.163871884346008301e+00
2.492000000000000000e+03 7.607029724121093750e+01 -2.845252418518066406e+01 1.618774771690368652e+00 9.622157096862792969e+00 3.372279405593872070e+00 -1.217996001243591309e+00
2.493000000000000000e+03 7.242715454101562500e+01 -3.064173889160156250e+01 -3.833640515804290771e-01 5.838332653045654297e+00 1.636490583419799805e+00 1.631592273712158203e+00
2.494000000000000000e+03 7.665992736816406250e+01 -2.609772300720214844e+01 1.298413038253784180e+00 9.163731575012207031e+00 3.138643503189086914e+00 9.527947306632995605e-01
2.495000000000000000e+03 7.665704345703125000e+01 -2.489273834228515625e+01 2.389588356018066406e-01 9.407230377197265625e+00 2.893857002258300781e+00 1.295369625091552734e+00
2.496000000000000000e+03 7.603491973876953125e+01 -2.921855163574218750e+01 7.838221192359924316e-01 9.844245910644531250e+00 3.188420295715332031e+00 -1.510637521743774414e+00
2.497000000000000000e+03 7.534114074707031250e+01 -2.842371177673339844e+01 2.160524606704711914e+00 1.040592193603515625e+01 3.769934177398681641e+00 -1.502488017082214355e+00
2.498000000000000000e+03 7.421451568603515625e+01 -2.964682197570800781e+01 -5.666787028312683105e-01 1.077653312683105469e+01 3.062956333160400391e+00 -1.086543351411819458e-01
2.499000000000000000e+03 7.525765991210937500e+01 -2.992958068847656250e+01 -2.337344586849212646e-01 1.026080226898193359e+01 3.008120298385620117e+00 -1.135288357734680176e+00
2.500000000000000000e+03 7.560785675048828125e+01 -2.953959655761718750e+01 3.127742111682891846e-01 1.018730354309082031e+01 3.150023460388183594e+00 -1.472075104713439941e+00
2.501000000000000000e+03 7.482814025878906250e+01 -2.473416900634765625e+01 -4.231956303119659424e-01 1.051927947998046875e+01 3.028825044631958008e+00 5.621370077133178711e-01
2.502000000000000000e+03 7.376829528808593750e+01 -2.397065734863281250e+01 -7.886785268783569336e-01 8.827600479125976562e+00 2.411676645278930664e+00 -7.211480736732482910e-01
2.503000000000000000e+03 7.507170867919921875e+01 -2.430204200744628906e+01 -5.895296335220336914e-01 1.001940059661865234e+01 2.828961372375488281e+00 6.382365822792053223e-01
2.504000000000000000e+03 7.404986572265625000e+01 -2.323844146728515625e+01 -1.099995970726013184e+00 8.589118003845214844e+00 2.246736764907836914e+00 -3.131135106086730957e-01
2.505000000000000000e+03 7.275967407226562500e+01 -3.141533279418945312e+01 -8.169896602630615234e-01 6.343870639801025391e+00 1.658064365386962891e+00 1.143579483032226562e+00
2.506000000000000000e+03 7.604385375976562500e+01 -3.004016304016113281e+01 -7.052817940711975098e-02 9.816699028015136719e+00 2.923851251602172852e+00 -1.368960618972778320e+00
2.507000000000000000e+03 7.642894744873046875e+01 -2.968648147583007812e+01 3.148177564144134521e-01 9.561131477355957031e+00 2.962785005569458008e+00 -1.470993995666503906e+00
2.508000000000000000e+03 7.558464050292968750e+00 8.476362228393554688e+00 5.962597060715779662e-05 4.809918027603998780e-05 3.231754453736357391e-05 -1.994867125176824629e-05
2.509000000000000000e+03 7.679447937011718750e+01 -3.013734245300292969e+01 7.864187471568584442e-03 9.441815376281738281e+00 2.834903955459594727e+00 -1.373011350631713867e+00
2.510000000000000000e+03 7.407478332519531250e+01 -3.154269027709960938e+01 -1.120751738548278809e+00 8.321248054504394531e+00 2.160148859024047852e+00 2.955558300018310547e-01
2.511000000000000000e+03 7.588537597656250000e+01 -3.129722976684570312e+01 -7.286692857742309570e-01 9.404927253723144531e+00 2.602877140045166016e+00 -9.389095902442932129e-01
2.512000000000000000e+03 7.501477050781250000e+01 -3.128516006469726562e+01 -9.889862537384033203e-01 9.270572662353515625e+00 2.484475851058959961e+00 -4.766549766063690186e-01
2.513000000000000000e+03 4.336803054809570312e+01 -1.469522571563720703e+01 -3.089505480602383614e-05 1.299944869970204309e-05 -5.368681740947067738e-06 -1.914583208417752758e-06
2.514000000000000000e+03 8.990509986877441406e+00 -5.578776836395263672e+00 1.249013257620390505e-05 -1.598709104655426927e-06 3.267427018727175891e-06 -1.664530464040581137e-05
2.515000000000000000e+03 7.263899230957031250e+01 -3.201471710205078125e+01 -8.995708823204040527e-01 5.910613059997558594e+00 1.503312706947326660e+00 1.007886171340942383e+00
2.516000000000000000e+03 7.401004028320312500e+01 -3.273657608032226562e+01 -1.112364411354064941e+00 7.479821681976318359e+00 1.910237193107604980e+00 3.157487213611602783e-01
2.517000000000000000e+03 5.006631851196289062e+01 -2.583831214904785156e+01 2.758635282516479492e-01 7.241842895746231079e-02 1.044845879077911377e-01 -5.093877911567687988e-01
2.518000000000000000e+03 4.928077316284179688e+01 -2.608342933654785156e+01 2.443547397851943970e-01 -8.589558303356170654e-02 4.753774777054786682e-02 -5.715152621269226074e-01
2.519000000000000000e+03 6.289279460906982422e+00 -6.456277370452880859e+00 -8.405895641772076488e-06 -1.944046198332216591e-05 -8.353907105629332364e-06 -3.734306665137410164e-05
2.520000000000000000e+03 6.305163383483886719e+00 6.168124198913574219e+00 -4.330095543991774321e-05 1.504778902017278597e-05 -8.475950380670838058e-06 -6.439347635023295879e-05
2.521000000000000000e+03 7.290895080566406250e+01 -3.258810043334960938e+01 -9.877204298973083496e-01 6.154941558837890625e+00 1.550166249275207520e+00 8.706415891647338867e-01
2.522000000000000000e+03 9.383913040161132812e+00 -7.866536140441894531e+00 -2.184770528401713818e-05 3.294912175988429226e-06 -5.565837909671245143e-06 -5.682602477463660762e-06
2.523000000000000000e+03 7.717360496520996094e+00 -5.824321746826171875e+00 3.596622627810575068e-05 -4.416633601067587733e-05 -2.460032646922627464e-06 -8.470980901620350778e-06
2.524000000000000000e+03 4.506142044067382812e+01 -1.276410484313964844e+01 -2.563714588177390397e-05 -5.163684909348376095e-05 -2.318219958397094160e-05 6.342540928017115220e-06
2.525000000000000000e+03 2.630551338195800781e+01 -3.814766407012939453e+00 -5.239146503299707547e-06 -8.041386536206118762e-06 -3.984160230174893513e-06 7.112346793292090297e-05
2.526000000000000000e+03 7.414489746093750000e+01 -2.380922126770019531e+01 -8.387323617935180664e-01 9.249864578247070312e+00 2.523339509963989258e+00 -3.603583872318267822e-01
2.527000000000000000e+03 6.671099185943603516e+00 -7.244414329528808594e+00 -8.500937838107347488e-06 2.032000702456571162e-05 3.545720801412244327e-06 5.327423423295840621e-05
2.528000000000000000e+03 1.142059898376464844e+01 -7.764969825744628906e+00 -4.604220976034412161e-06 3.830148125416599214e-05 1.010917821986367926e-05 -1.640715890971478075e-05
2.529000000000000000e+03 1.245214843750000000e+01 -7.848325729370117188e+00 1.300546864513307810e-05 5.557101758313365281e-05 2.057294659607578069e-05 -4.584309135680086911e-05
2.530000000000000000e+03 4.788488388061523438e+01 -1.459113597869873047e+01 1.169951792689971626e-05 -7.077326154103502631e-05 -1.772212272044271231e-05 -2.286197559442371130e-05
2.531000000000000000e+03 2.840757560729980469e+01 -8.482441902160644531e+00 -1.838634307205211371e-05 2.664844032551627606e-06 -4.716449893749086186e-06 -3.823618317255750299e-05
2.532000000000000000e+03 2.978604888916015625e+01 -6.585462093353271484e+00 -2.806621887430083007e-05 -6.503167242044582963e-06 -1.037081528920680285e-05 5.101319038658402860e-05
2.533000000000000000e+03 2.616645050048828125e+01 -5.036544799804687500e+00 3.809551799349719658e-06 -1.265895207325229421e-05 -2.654820264069712721e-06 6.330901669571176171e-05
2.534000000000000000e+03 1.883752250671386719e+01 2.192700147628784180e+00 2.209778467658907175e-04 -9.061443961400073022e-06 6.357492384267970920e-05 -2.926868000940885395e-05
2.535000000000000000e+03 2.028973197937011719e+01 8.850206732749938965e-01 9.904710896080359817e-05 1.924334173963870853e-05 3.548713357304222882e-05 4.086460467078723013e-05
2.536000000000000000e+03 1.428166866302490234e+01 3.571902990341186523e+00 1.702287845546379685e-04 1.778038131305947900e-05 5.640274684992618859e-05 -6.587315874639898539e-05
2.537000000000000000e+03 1.780535507202148438e+01 2.344400167465209961e+00 1.323581382166594267e-04 3.189168637618422508e-05 4.927494956064037979e-05 -6.083829066483303905e-05
2.538000000000000000e+03 4.551356792449951172e+00 5.632081985473632812e+00 3.409605415072292089e-05 7.773028482915833592e-05 3.354790169396437705e-05 -8.849257574183866382e-05
2.539000000000000000e+03 1.056241798400878906e+01 -5.710933208465576172e+00 1.179863102152012289e-05 2.223929868705454282e-06 4.206768608128186315e-06 1.564823469379916787e-05
2.540000000000000000e+03 9.492449760437011719e+00 5.310716629028320312e+00 1.185737928608432412e-04 3.707762152771465480e-05 4.669542613555677235e-05 -3.008970998052973300e-05
2.541000000000000000e+03 9.164088249206542969e+00 6.149065971374511719e+00 3.482785905362106860e-05 4.735387119580991566e-05 2.465451871103141457e-05 -1.256535906577482820e-04
2.542000000000000000e+03 6.007845878601074219e+00 8.409576416015625000e+00 -2.637557145135360770e-06 3.856992771034128964e-05 1.077971137419808656e-05 -3.748161361727397889e-06
2.543000000000000000e+03 7.217166137695312500e+01 -1.816790580749511719e+01 -6.944901943206787109e-01 5.027670383453369141e+00 1.299954056739807129e+00 -1.030453205108642578e+00
2.544000000000000000e+03 7.486285400390625000e+01 -2.371263885498046875e+01 -9.297488331794738770e-01 9.489185333251953125e+00 2.567831039428710938e+00 3.372296392917633057e-01
2.545000000000000000e+03 1.230853176116943359e+01 -6.949063777923583984e+00 -3.862726316583575681e-06 6.668949208687990904e-05 1.884802986751310527e-05 -3.748686503968201578e-05
2.546000000000000000e+03 1.197064304351806641e+01 -7.384596347808837891e+00 1.475070803280686960e-05 -5.518151374417357147e-05 -1.212924144056160003e-05 2.734647205215878785e-05
2.547000000000000000e+03 2.563346862792968750e+01 -4.367805480957031250e+00 7.137027569115161896e-05 -6.073201348044676706e-06 1.958912253030575812e-05 -6.026361734257079661e-05
2.548000000000000000e+03 2.471928787231445312e+01 -1.872299313545227051e+00 1.035904933814890683e-04 -2.156020491383969784e-05 2.460908581269904971e-05 -5.437323488877154887e-05
2.549000000000000000e+03 1.390102386474609375e+01 4.725656032562255859e+00 1.795565622160211205e-04 1.791197973943781108e-05 5.924056313233450055e-05 -6.957883306313306093e-05
2.550000000000000000e+03 2.576424598693847656e+01 -3.160870790481567383e+00 9.739139932207763195e-05 -1.532451278762891889e-05 2.462006523273885250e-05 -6.202983786351978779e-05
2.551000000000000000e+03 5.378772735595703125e+00 -9.498630523681640625e+00 8.168656495399773121e-05 1.742174208629876375e-05 2.973249320348259062e-05 1.572246583236847073e-05
2.552000000000000000e+03 4.802524948120117188e+01 -2.744792938232421875e+01 2.660390138626098633e-01 -9.885018318891525269e-02 5.015664547681808472e-02 -4.399966299533843994e-01
2.553000000000000000e+03 1.209488868713378906e+01 -9.641531944274902344e+00 -4.480551433516666293e-05 -5.406117634265683591e-05 -2.966000647575128824e-05 4.118711876799352467e-05
2.554000000000000000e+03 1.067608165740966797e+01 -9.640462875366210938e+00 -3.090419704676605761e-05 -4.130805973545648158e-05 -2.166367630707100034e-05 1.084173163690138608e-05
2.555000000000000000e+03 1.073170948028564453e+01 6.222251415252685547e+00 1.505189720774069428e-04 3.913291584467515349e-05 5.689556564902886748e-05 -9.026349289342761040e-05
2.556000000000000000e+03 2.871076965332031250e+01 -9.204989433288574219e+00 6.192260480020195246e-05 -1.823756610974669456e-05 1.310551033384399489e-05 5.347048863768577576e-05
2.557000000000000000e+03 1.665684127807617188e+01 3.096451044082641602e+00 1.780266466084867716e-04 1.111178607970941812e-05 5.674152998835779727e-05 -7.446028757840394974e-05
2.558000000000000000e+03 5.151806640625000000e+01 -2.653225708007812500e+01 6.168869137763977051e-01 4.269539415836334229e-01 3.131522536277770996e-01 -2.850067913532257080e-01
2.559000000000000000e+03 2.737856674194335938e+01 -5.136645793914794922e+00 5.541771201933443081e-07 -1.738284481689333916e-05 -5.048600542068015784e-06 6.690938607789576054e-05
2.560000000000000000e+03 4.198588562011718750e+01 -5.391392707824707031e+00 5.404408511822111905e-05 3.265239502070471644e-05 2.600894367787986994e-05 1.252982110599987209e-05
2.561000000000000000e+03 4.162771224975585938e+01 -6.896774291992187500e+00 2.287256211275234818e-05 2.762822805379983038e-05 1.515023723186459392e-05 1.174054659713874571e-06
2.562000000000000000e+03 4.494538879394531250e+01 -1.349486541748046875e+01 4.180359246674925089e-05 1.455896381230559200e-05 1.690876706561539322e-05 6.188648967508925125e-06
2.563000000000000000e+03 4.542995834350585938e+01 -1.151932811737060547e+01 9.390914783580228686e-06 -1.974156020878581330e-06 2.225027628810494207e-06 1.795997013687156141e-05
2.564000000000000000e+03 7.411838531494140625e+01 2.208002281188964844e+01 2.574775218963623047e-01 8.087972640991210938e+00 2.503634929656982422e+00 1.242076698690652847e-02
2.565000000000000000e+03 1.305974292755126953e+01 -8.268583297729492188e+00 -4.076765617355704308e-05 -3.607856706366874278e-05 -2.305386624357197434e-05 4.834544961340725422e-05
2.566000000000000000e+03 7.489526367187500000e+01 -2.226476097106933594e+01 -1.070365071296691895e+00 8.577184677124023438e+00 2.252045869827270508e+00 9.088733792304992676e-02
2.567000000000000000e+03 1.355288314819335938e+01 5.911564826965332031e+00 1.838638854678720236e-04 1.869757397798821330e-05 6.076843783375807106e-05 -8.398707723245024681e-05
2.568000000000000000e+03 1.206804847717285156e+01 4.672557830810546875e+00 6.226283630894613452e-07 -5.251332368061412126e-06 -1.388611281072371639e-06 -5.458407031255774200e-05
2.569000000000000000e+03 4.851164245605468750e+01 -2.609469795227050781e+01 1.885867118835449219e-01 -1.366853863000869751e-01 1.557039748877286911e-02 -5.723495483398437500e-01
2.570000000000000000e+03 1.341644668579101562e+01 -7.609718322753906250e+00 3.653953172033652663e-05 3.526978252921253443e-05 2.154279354726895690e-05 -4.647374953492544591e-05
2.571000000000000000e+03 8.253276824951171875e+00 -1.223519039154052734e+01 6.993718125158920884e-05 4.057029582327231765e-05 3.315224239486269653e-05 1.365827938570873812e-05
2.572000000000000000e+03 7.260840606689453125e+01 -1.913700675964355469e+01 -9.228610992431640625e-01 5.563105106353759766e+00 1.392073273658752441e+00 -1.072001218795776367e+00
2.573000000000000000e+03 4.248607254028320312e+01 -1.431900215148925781e+01 2.306593160028569400e-05 4.356873432698193938e-06 8.226841600844636559e-06 -5.877387138752965257e-06
2.574000000000000000e+03 4.032435607910156250e+01 -1.333673477172851562e+01 1.978446744033135474e-05 4.022313078166916966e-05 1.800227983039803803e-05 -1.557039831823203713e-05
2.575000000000000000e+03 7.035872650146484375e+01 -1.685523986816406250e+01 -5.848046275787055492e-04 3.315936565399169922e+00 9.946055412292480469e-01 -7.743578553199768066e-01
2.576000000000000000e+03 6.846311950683593750e+01 -1.758089256286621094e+01 9.659890830516815186e-02 1.634494185447692871e+00 5.193279385566711426e-01 -2.891222238540649414e-01
2.577000000000000000e+03 1.726192855834960938e+01 2.688756942749023438e+00 4.866698145633563399e-05 -4.815620559384115040e-05 1.532327331688065897e-07 1.847567000368144363e-05
2.578000000000000000e+03 1.703192901611328125e+01 3.828486680984497070e+00 2.270665936521254480e-05 -3.762529740924946964e-05 -4.475591140362666920e-06 1.171901331531444157e-07
2.579000000000000000e+03 3.512051391601562500e+01 -1.268020343780517578e+01 -4.251195150573039427e-06 -2.640252023411449045e-05 -9.196114660880994052e-06 2.664850399014540017e-05
2.580000000000000000e+03 3.445192337036132812e+01 -1.350477123260498047e+01 -2.952121349153458141e-06 2.772073457890655845e-05 7.430584446410648525e-06 -3.288575680926442146e-05
2.581000000000000000e+03 2.011854934692382812e+01 1.709270358085632324e+00 1.185327564598992467e-04 -6.695692718494683504e-05 1.547274951008148491e-05 -9.388077160110697150e-05
2.582000000000000000e+03 1.992874717712402344e+01 2.491746187210083008e+00 5.364490061765536666e-05 2.168257196899503469e-05 2.259824213979300112e-05 9.800762200029566884e-05
2.583000000000000000e+03 2.964516448974609375e+01 -1.059629726409912109e+01 2.951149508589878678e-05 1.064129264705115929e-05 1.204583622893551365e-05 2.080027843476273119e-05
2.584000000000000000e+03 3.034765434265136719e+01 -1.120191478729248047e+01 6.662320083705708385e-05 -3.932060280931182206e-06 1.880734271253459156e-05 3.484983244561590254e-05
2.585000000000000000e+03 7.489453125000000000e+01 -1.916541671752929688e+01 -8.097268342971801758e-01 7.521529674530029297e+00 2.013540744781494141e+00 -4.785673320293426514e-01
2.586000000000000000e+03 7.357839202880859375e+01 -1.853451347351074219e+01 -8.046534657478332520e-01 6.447456836700439453e+00 1.692841053009033203e+00 -8.065736889839172363e-01
2.587000000000000000e+03 6.864643859863281250e+01 -1.329578113555908203e+01 5.546514987945556641e-01 3.050513267517089844e+00 1.081549406051635742e+00 2.129925042390823364e-01
2.588000000000000000e+03 4.589642715454101562e+01 -1.280440711975097656e+01 2.495775333954952657e-05 5.730743941967375576e-05 2.467955891916062683e-05 8.644075933261774480e-06
2.589000000000000000e+03 2.265183258056640625e+01 -6.332866549491882324e-01 1.134488556999713182e-04 -3.646528421086259186e-05 2.309506999154109508e-05 -8.797906048130244017e-05
2.590000000000000000e+03 3.419865036010742188e+01 -1.214232444763183594e+01 1.482035531807923689e-05 3.879770883941091597e-05 1.608541970199439675e-05 -4.232694482197985053e-05
2.591000000000000000e+03 3.874255371093750000e+01 7.391274571418762207e-01 -1.893447915790602565e-04 2.205724449595436454e-04 9.368298378831241280e-06 -1.475434692110866308e-04
2.592000000000000000e+03 7.082185363769531250e+01 -3.624089813232421875e+01 -2.665144801139831543e-01 3.401528120040893555e+00 9.405040740966796875e-01 6.773244738578796387e-01
2.593000000000000000e+03 3.813880157470703125e+01 -1.264302062988281250e+01 -5.081498238723725080e-05 -4.372177500044927001e-05 -2.836102794390171766e-05 1.909551792778074741e-05
2.594000000000000000e+03 7.264231109619140625e+01 -1.659480285644531250e+01 -3.177291154861450195e-01 5.363874912261962891e+00 1.513843655586242676e+00 -8.936136960983276367e-01
2.595000000000000000e+03 7.315614318847656250e+01 -1.753984832763671875e+01 -5.250069499015808105e-01 5.866913795471191406e+00 1.602572083473205566e+00 -9.428897500038146973e-01
2.596000000000000000e+03 7.354889678955078125e+01 -1.420957660675048828e+01 -1.817796193063259125e-02 5.994266986846923828e+00 1.792826771736145020e+00 -7.249935269355773926e-01
2.597000000000000000e+03 6.732723236083984375e+01 -1.682436943054199219e+01 3.966947495937347412e-01 1.399627089500427246e+00 5.388965606689453125e-01 2.481353729963302612e-01
2.598000000000000000e+03 7.171070098876953125e+01 -1.722329902648925781e+01 -3.419405519962310791e-01 4.557889461517333984e+00 1.264784693717956543e+00 -1.014142870903015137e+00
2.599000000000000000e+03 6.857289791107177734e+00 -1.059015941619873047e+01 5.848383807460777462e-05 3.958247907576151192e-05 2.941989441751502454e-05 2.844733353413175792e-05
2.600000000000000000e+03 2.128820991516113281e+01 4.315645098686218262e-01 8.281564805656671524e-05 2.091961323458235711e-05 3.112058038823306561e-05 5.150875585968606174e-05
2.601000000000000000e+03 7.285059356689453125e+01 -1.503597450256347656e+01 -4.753529280424118042e-02 5.540378093719482422e+00 1.647852897644042969e+00 -7.703191637992858887e-01
2.602000000000000000e+03 4.430364227294921875e+01 -7.478553771972656250e+00 7.235832890728488564e-05 3.177589678671211004e-05 3.124026625300757587e-05 2.877683982660528272e-05
2.603000000000000000e+03 4.411042022705078125e+01 -8.961210250854492188e+00 8.872990292729809880e-05 5.530773705686442554e-06 2.827820208040066063e-05 6.863535963930189610e-05
2.604000000000000000e+03 6.029096603393554688e+00 -2.741728591918945312e+01 1.890207386168185622e-05 6.937298894627019763e-05 2.648251756909303367e-05 -1.445704547222703695e-04
2.605000000000000000e+03 5.116003036499023438e+01 -3.011572837829589844e+01 8.211302757263183594e-01 7.343555092811584473e-01 4.666457474231719971e-01 2.295642644166946411e-01
2.606000000000000000e+03 5.080173110961914062e+01 -2.726932144165039062e+01 6.483514904975891113e-01 3.622819781303405762e-01 3.031900525093078613e-01 -2.769027054309844971e-01
2.607000000000000000e+03 5.217487716674804688e+01 -2.730855941772460938e+01 8.667210340499877930e-01 8.727238178253173828e-01 5.218334794044494629e-01 -9.828887879848480225e-02
2.608000000000000000e+03 4.173305130004882812e+01 -1.856338858604431152e+00 1.109434233512729406e-04 2.105007843056228012e-05 3.959804962505586445e-05 2.296947786817327142e-05
2.609000000000000000e+03 7.168593597412109375e+01 -9.823715209960937500e+00 1.026337668299674988e-01 5.586572170257568359e+00 1.706761837005615234e+00 -1.828824877738952637e-01
2.610000000000000000e+03 7.166645812988281250e+01 -1.077309417724609375e+01 1.213339716196060181e-01 5.376341819763183594e+00 1.649302721023559570e+00 -2.442591488361358643e-01
2.611000000000000000e+03 3.825132751464843750e+01 4.892423152923583984e+00 4.957869532518088818e-04 1.177629674202762544e-04 1.840649638324975967e-04 -3.238384670112282038e-05
2.612000000000000000e+03 7.471784973144531250e+01 -5.742488384246826172e+00 -4.008189216256141663e-02 7.172821998596191406e+00 2.139822006225585938e+00 -6.637986302375793457e-01
2.613000000000000000e+03 4.302942276000976562e+01 -1.343371772766113281e+01 -2.112771653628442436e-05 7.459001608367543668e-06 -4.100614660274004564e-06 -1.063262152456445619e-05
2.614000000000000000e+03 7.020217418670654297e+00 2.340678215026855469e+01 -2.310516429133713245e-04 3.697054053191095591e-04 4.159612581133842468e-05 -1.830344845075160265e-04
2.615000000000000000e+03 1.135774326324462891e+01 -8.993207931518554688e+00 2.372465314692817628e-05 4.967769564245827496e-05 2.202070390922017395e-05 -2.673617746040690690e-05
2.616000000000000000e+03 8.991327285766601562e+00 -1.119713973999023438e+01 -5.810020593344233930e-05 -4.009534677607007325e-06 -1.863292163761798292e-05 8.892626283341087401e-06
2.617000000000000000e+03 3.414694976806640625e+01 1.770049476623535156e+01 1.056390465237200260e-03 2.300933701917529106e-04 3.859451389871537685e-04 -9.150919504463672638e-05
2.618000000000000000e+03 3.505968856811523438e+01 1.166794490814208984e+01 -3.050119994441047311e-05 -2.658272569533437490e-04 -8.889853779692202806e-05 4.796824941877275705e-04
2.619000000000000000e+03 7.687216949462890625e+01 3.401583099365234375e+01 -1.843116879463195801e-01 7.575837135314941406e+00 2.217457532882690430e+00 4.422820210456848145e-01
2.620000000000000000e+03 7.568562316894531250e+01 1.228099226951599121e+00 3.229246437549591064e-01 7.356466293334960938e+00 2.303817272186279297e+00 -3.686176538467407227e-01
2.621000000000000000e+03 3.580966186523437500e+01 2.622860527038574219e+01 1.697810366749763489e-03 -2.452402259223163128e-04 4.357710422482341528e-04 -8.319798507727682590e-04
2.622000000000000000e+03 6.935689544677734375e+01 -1.408966922760009766e+01 4.843716323375701904e-01 3.288508653640747070e+00 1.131864070892333984e+00 -7.363979518413543701e-02
2.623000000000000000e+03 7.074232482910156250e+01 -1.422685241699218750e+01 2.975700497627258301e-01 4.068022251129150391e+00 1.309677720069885254e+00 -4.234920144081115723e-01
2.624000000000000000e+03 7.561646270751953125e+01 2.747917175292968750e+00 3.398109376430511475e-01 7.438086986541748047e+00 2.333369255065917969e+00 -1.964510232210159302e-01
2.625000000000000000e+03 3.705659484863281250e+01 9.749315261840820312e+00 4.848876778851263225e-05 -1.286080223508179188e-04 -2.403577673248946667e-05 2.594269972178153694e-05
2.626000000000000000e+03 6.975367069244384766e+00 2.109936523437500000e+01 1.768615038599818945e-04 2.069296897388994694e-04 1.151373580796644092e-04 -2.111969661200419068e-04
2.627000000000000000e+03 6.127412796020507812e+00 2.149657249450683594e+01 -1.330291270278394222e-04 2.605957852210849524e-04 3.826999090961180627e-05 -1.550146698718890548e-04
2.628000000000000000e+03 8.562244415283203125e+00 2.699925994873046875e+01 1.406440860591828823e-04 3.122802881989628077e-04 1.358773151878267527e-04 -1.233361108461394906e-04
2.629000000000000000e+03 4.973824024200439453e+00 -2.454668045043945312e+01 -2.428799198241904378e-04 2.396551644778810441e-05 -6.567432137671858072e-05 -7.817810546839609742e-05
2.630000000000000000e+03 7.633825683593750000e+01 -2.588215827941894531e+01 1.099489808082580566e+00 9.458963394165039062e+00 3.167536020278930664e+00 1.155813217163085938e+00
2.631000000000000000e+03 7.608357238769531250e+01 -2.492424201965332031e+01 2.179856598377227783e-01 9.783450126647949219e+00 3.000430583953857422e+00 1.279235601425170898e+00
2.632000000000000000e+03 7.431071472167968750e+01 -3.043921470642089844e+01 -9.466947913169860840e-01 9.724587440490722656e+00 2.633367776870727539e+00 -6.630803924053907394e-03
2.633000000000000000e+03 7.391368865966796875e+01 -3.026957321166992188e+01 -8.975116610527038574e-01 9.678429603576660156e+00 2.634275197982788086e+00 4.160811901092529297e-01
2.634000000000000000e+03 7.535931396484375000e+01 -2.381863975524902344e+01 -7.380450963973999023e-01 9.629942893981933594e+00 2.667569160461425781e+00 6.424186229705810547e-01
2.635000000000000000e+03 7.534083557128906250e+01 -2.451475524902343750e+01 -3.829483091831207275e-01 1.005404186248779297e+01 2.901328086853027344e+00 8.504190444946289062e-01
2.636000000000000000e+03 7.570421600341796875e+01 -3.041551399230957031e+01 -4.003911912441253662e-01 9.787445068359375000e+00 2.816116094589233398e+00 -1.189963579177856445e+00
2.637000000000000000e+03 7.650680541992187500e+01 -2.546262359619140625e+01 7.097116708755493164e-01 9.460589408874511719e+00 3.051090240478515625e+00 1.243455410003662109e+00
2.638000000000000000e+03 7.593283843994140625e+01 -2.450291252136230469e+01 -1.545788943767547607e-01 9.796038627624511719e+00 2.892437934875488281e+00 1.143459558486938477e+00
2.639000000000000000e+03 7.352807617187500000e+01 -3.130852317810058594e+01 -1.051778793334960938e+00 7.833556652069091797e+00 2.034533262252807617e+00 7.564012408256530762e-01
2.640000000000000000e+03 7.339136505126953125e+01 -3.224372100830078125e+01 -1.056998133659362793e+00 7.167500972747802734e+00 1.833150863647460938e+00 6.723866462707519531e-01
2.641000000000000000e+03 7.392003631591796875e+01 -3.215908432006835938e+01 -1.078190922737121582e+00 7.745792388916015625e+00 2.000280380249023438e+00 4.291954040527343750e-01
2.642000000000000000e+03 7.315082550048828125e+01 -3.175521850585937500e+01 -1.022848367691040039e+00 7.130721569061279297e+00 1.832361936569213867e+00 8.551529645919799805e-01
2.643000000000000000e+03 8.617653846740722656e+00 6.887956619262695312e+00 4.173264460405334830e-05 3.049276529054623097e-05 2.166762351407669485e-05 -7.363593340414809063e-06
2.644000000000000000e+03 7.876730918884277344e+00 6.343186855316162109e+00 3.822474172920919955e-05 2.065044827759265900e-05 1.766255627444479614e-05 -9.732980834087356925e-05
2.645000000000000000e+03 7.419811248779296875e+01 -3.343265914916992188e+01 -1.042636752128601074e+00 7.487054347991943359e+00 1.933325290679931641e+00 2.111194431781768799e-01
2.646000000000000000e+03 8.515841484069824219e+00 -8.502721786499023438e+00 2.569834941823501140e-05 -2.371336449868977070e-05 5.954952939646318555e-07 -6.112544724601320922e-06
2.647000000000000000e+03 7.471467494964599609e+00 -6.858254909515380859e+00 4.355571945779956877e-05 -3.010544241988100111e-05 4.035083293274510652e-06 -3.568003739928826690e-05
2.648000000000000000e+03 1.007597160339355469e+01 -6.544420242309570312e+00 4.392822302179411054e-05 2.425187631160952151e-05 2.045403016381897032e-05 2.494830368959810585e-05
2.649000000000000000e+03 1.195473384857177734e+01 -8.405761718750000000e+00 -1.627101846679579467e-05 -5.105485615786164999e-05 -2.019776184170041233e-05 3.705353083205409348e-05
2.650000000000000000e+03 3.099792861938476562e+01 -1.116274261474609375e+01 -1.013623841572552919e-04 2.431339453323744237e-05 -2.311469688720535487e-05 -5.906660135224228725e-06
2.651000000000000000e+03 3.001073265075683594e+01 -9.498770713806152344e+00 -8.141409125528298318e-06 -1.387445990985725075e-05 -6.604760983464075252e-06 8.071888441918417811e-05
2.652000000000000000e+03 2.189440155029296875e+01 1.694337844848632812e+00 1.112935860874131322e-04 2.577027953520882875e-05 4.111915768589824438e-05 7.642150012543424964e-05
2.653000000000000000e+03 4.703116607666015625e+01 -2.824060440063476562e+01 1.758029162883758545e-01 -1.805119663476943970e-01 -1.412714365869760513e-03 -3.678870201110839844e-01
2.654000000000000000e+03 7.538305664062500000e+01 -3.084059143066406250e+01 -7.282453179359436035e-01 9.725607872009277344e+00 2.699208736419677734e+00 -8.469728827476501465e-01
2.655000000000000000e+03 1.261489868164062500e+01 -8.943857192993164062e+00 4.337953214417211711e-05 4.588356387102976441e-05 2.677892734936904162e-05 -5.114482337376102805e-05
2.656000000000000000e+03 4.417697143554687500e+01 -1.328099441528320312e+01 -4.104200343135744333e-05 1.586824055266333744e-06 -1.183655331260524690e-05 3.618498340074438602e-06
2.657000000000000000e+03 7.378597259521484375e+01 -2.145864677429199219e+01 -1.182060003280639648e+00 7.330410480499267578e+00 1.844505190849304199e+00 -5.190773010253906250e-01
2.658000000000000000e+03 2.938287353515625000e+01 -1.005163002014160156e+01 6.132346607046201825e-05 1.670211167947854847e-05 2.340767423447687179e-05 -7.284450111910700798e-05
2.659000000000000000e+03 3.000009918212890625e+01 -8.153639793395996094e+00 -6.184798985486850142e-05 -2.668108754733111709e-05 -2.655872413015458733e-05 4.401132537168450654e-05
2.660000000000000000e+03 9.417264938354492188e+00 -6.264162063598632812e+00 -2.628790389280766249e-05 -3.268289583502337337e-05 -1.769123991834931076e-05 6.068196853448171169e-06
2.661000000000000000e+03 7.090174674987792969e+00 6.154365062713623047e+00 1.284155732719227672e-04 4.920758510706946254e-05 5.328694896888919175e-05 -9.096515714190900326e-05
2.662000000000000000e+03 1.073864555358886719e+01 -8.233744621276855469e+00 -6.714612936775665730e-06 -2.495646367606241256e-05 -9.501322892901953310e-06 8.128305125865153968e-06
2.663000000000000000e+03 7.580367565155029297e+00 -9.048611640930175781e+00 -1.073066687240498140e-05 4.580539462040178478e-05 1.052241805155063048e-05 3.344447395647875965e-05
2.664000000000000000e+03 8.118544578552246094e+00 -1.016040706634521484e+01 1.757054997142404318e-05 -3.945160642615519464e-05 -6.564317118318285793e-06 -1.277888077311217785e-05
2.665000000000000000e+03 1.909075546264648438e+01 2.818697214126586914e+00 -1.932134364324156195e-05 -3.938459485652856529e-06 -6.977940756769385189e-06 4.938395795761607587e-05
2.666000000000000000e+03 1.762224197387695312e+01 3.354144334793090820e+00 1.987107534660026431e-04 -9.930396117852069438e-06 5.663410775014199317e-05 -8.589551725890487432e-05
2.667000000000000000e+03 1.179596328735351562e+01 7.835458755493164062e+00 1.039257404045201838e-04 6.083229163778014481e-05 4.942740997648797929e-05 -9.510287782177329063e-05
2.668000000000000000e+03 2.842130470275878906e+01 -6.507253646850585938e+00 4.354174052423331887e-06 -6.499574737972579896e-06 -6.436201829274068587e-07 6.013501115376129746e-05
2.669000000000000000e+03 2.790261650085449219e+01 -5.809545516967773438e+00 4.327926944824866951e-05 1.425300433766096830e-05 1.725968104437924922e-05 -5.191595482756383717e-05
2.670000000000000000e+03 7.465246582031250000e+01 -3.179163360595703125e+01 -1.043494105339050293e+00 8.818735122680664062e+00 2.332572221755981445e+00 -1.686183661222457886e-01
2.671000000000000000e+03 6.938039779663085938e+00 -1.187030410766601562e+01 -8.646848436910659075e-05 -4.758549039252102375e-05 -4.021619315608404577e-05 -4.991717287339270115e-05
2.672000000000000000e+03 7.389262390136718750e+01 -2.042408370971679688e+01 -1.201718688011169434e+00 7.136955738067626953e+00 1.780571103096008301e+00 -5.910529494285583496e-01
2.673000000000000000e+03 2.377386283874511719e+01 -7.326928377151489258e-01 1.406502997269853950e-04 -1.694168895483016968e-05 3.711258250405080616e-05 -8.868511213222518563e-05
2.674000000000000000e+03 1.639309310913085938e+01 4.285032749176025391e+00 2.045140427071601152e-04 3.406736595934489742e-06 6.237623165361583233e-05 -7.827339140931144357e-05
2.675000000000000000e+03 4.471161270141601562e+01 -1.107597732543945312e+01 1.354236155748367310e-05 6.573026894329814240e-06 6.034616490069311112e-06 -3.469870716799050570e-05
2.676000000000000000e+03 2.084818840026855469e+01 2.088025331497192383e+00 1.057525732903741300e-04 -1.866141792561393231e-05 2.612734715512488037e-05 6.735815986758098006e-05
2.677000000000000000e+03 2.057704925537109375e+01 2.803534030914306641e+00 1.465860696043819189e-04 -3.623502925620414317e-05 3.310531246825121343e-05 -1.783439656719565392e-04
2.678000000000000000e+03 3.044660377502441406e+01 -1.276568317413330078e+01 6.253136962186545134e-05 -1.240341043740045279e-05 1.503838848293526098e-05 -5.009225787944160402e-06
2.679000000000000000e+03 3.102887535095214844e+01 -1.185062217712402344e+01 7.758326682960614562e-05 -3.939509770134463906e-05 1.145645182987209409e-05 4.213749707560054958e-05
2.680000000000000000e+03 4.111189270019531250e+01 -1.292997455596923828e+01 1.068592496267228853e-06 -4.206563608022406697e-05 -1.229911231348523870e-05 1.501071164966560900e-05
2.681000000000000000e+03 7.123881340026855469e+00 -8.082542419433593750e+00 1.132354100263910368e-05 -3.594057488953694701e-05 -7.385110166069352999e-06 -4.889741467195563018e-05
2.682000000000000000e+03 9.942428588867187500e+00 6.785831928253173828e+00 3.023595309059601277e-05 -2.242683194708661176e-06 8.397981218877248466e-06 -3.881433804053813219e-05
2.683000000000000000e+03 9.313329696655273438e+00 7.465316772460937500e+00 6.738601950928568840e-05 6.787485472159460187e-05 4.057826299685984850e-05 -1.482271618442609906e-04
2.684000000000000000e+03 4.003478622436523438e+01 -1.236912441253662109e+01 -1.676493957347702235e-05 -5.674986823578365147e-05 -2.205444252467714250e-05 -5.705331204808317125e-06
2.685000000000000000e+03 3.996356582641601562e+01 -1.143460559844970703e+01 7.035568614810472354e-06 7.631415064679458737e-05 2.500491609680466354e-05 2.193113505200017244e-05
2.686000000000000000e+03 6.256102085113525391e+00 -8.409699440002441406e+00 1.725404763419646770e-05 3.987237869296222925e-05 1.713792880764231086e-05 5.067498568678274751e-05
2.687000000000000000e+03 7.207124233245849609e+00 1.291512489318847656e+01 3.525436841300688684e-05 1.002889039227738976e-04 4.066298060934059322e-05 -1.988243166124448180e-04
2.688000000000000000e+03 4.078487777709960938e+01 -2.489253759384155273e+00 -1.198230602312833071e-04 6.009250864735804498e-05 -1.791916656657122076e-05 -4.487369369599036872e-05
2.689000000000000000e+03 4.002278137207031250e+01 -3.308228015899658203e+00 2.658366611285600811e-05 -1.134610356530174613e-04 -2.606321140774525702e-05 3.319518873468041420e-05
2.690000000000000000e+03 7.121405029296875000e+01 -1.633995628356933594e+01 -5.872540548443794250e-02 4.106246948242187500e+00 1.214256525039672852e+00 -8.277328610420227051e-01
2.691000000000000000e+03 9.389162063598632812e+00 1.664809417724609375e+01 2.199303125962615013e-04 7.492778968298807740e-05 8.845743286656215787e-05 -2.477374218869954348e-04
2.692000000000000000e+03 7.664101600646972656e+00 1.556849193572998047e+01 1.236643438460305333e-04 1.515489420853555202e-04 8.256398723460733891e-05 -1.063136005541309714e-04
2.693000000000000000e+03 4.259098434448242188e+01 -3.824493408203125000e+00 8.350831194547936320e-05 5.399130895966663957e-05 4.124988481635227799e-05 1.049723778123734519e-06
2.694000000000000000e+03 6.882236003875732422e+00 9.371355056762695312e+00 6.833066436229273677e-05 6.952790863579139113e-05 4.135757262702099979e-05 -1.636174711165949702e-04
2.695000000000000000e+03 2.500073242187500000e+01 -6.408689022064208984e-01 1.204509608214721084e-04 -1.563195291964802891e-05 3.144570291624404490e-05 -5.699116081814281642e-05
2.696000000000000000e+03 3.942110824584960938e+01 -1.365333557128906250e+01 -3.967016891692765057e-05 -3.129663309664465487e-05 -2.129003951267804950e-05 1.501672522863373160e-05
2.697000000000000000e+03 1.316193675994873047e+01 5.105461597442626953e+00 -2.394534703853423707e-06 -6.719425073242746294e-06 -2.734188001340953633e-06 -5.126793985255062580e-05
2.698000000000000000e+03 4.511587142944335938e+01 -1.208604335784912109e+01 8.440874808002263308e-06 6.492771353805437684e-05 2.201057759521063417e-05 -2.359796781092882156e-05
2.699000000000000000e+03 6.917517852783203125e+01 -1.629110908508300781e+01 3.051280081272125244e-01 2.525079727172851562e+00 8.490623235702514648e-01 -3.198387920856475830e-01
2.700000000000000000e+03 1.203042888641357422e+01 6.660687446594238281e+00 1.844277576310560107e-04 1.422998047928558663e-05 5.959732152405194938e-05 -7.501031359424814582e-05
2.701000000000000000e+03 7.788814544677734375e+00 2.256214141845703125e+01 3.270477463956922293e-04 8.521926793036982417e-05 1.236801035702228546e-04 -2.840827801264822483e-04
2.702000000000000000e+03 8.329541206359863281e+00 2.327560806274414062e+01 -3.086561046075075865e-04 3.673393803182989359e-04 1.760498707881197333e-05 -1.810665271477773786e-04
2.703000000000000000e+03 4.905450057983398438e+01 -2.821455955505371094e+01 4.814409017562866211e-01 9.150522947311401367e-02 1.718838363885879517e-01 -2.776468694210052490e-01
2.704000000000000000e+03 7.289891815185546875e+01 -1.188377094268798828e+01 7.343359291553497314e-02 5.811821460723876953e+00 1.765576481819152832e+00 -5.244987010955810547e-01
2.705000000000000000e+03 4.012391662597656250e+01 7.294768095016479492e-01 -1.398426538798958063e-04 1.396625011693686247e-04 -5.404614000781293726e-08 -3.938471490982919931e-05
2.706000000000000000e+03 3.926692962646484375e+01 -1.374705042690038681e-02 1.735645491862669587e-04 -9.165534720523282886e-05 2.457276059431023896e-05 7.413198909489437938e-05
2.707000000000000000e+03 2.684655189514160156e+01 -4.473337173461914062e+00 7.360448216786608100e-05 5.899088591831969097e-06 2.385107109148520976e-05 -6.417936674552038312e-05
2.708000000000000000e+03 3.339702987670898438e+01 -1.164569568634033203e+01 -1.730936855892650783e-05 -3.925853889086283743e-05 -1.697037259873468429e-05 5.333748413249850273e-05
2.709000000000000000e+03 3.206834793090820312e+01 -1.205219745635986328e+01 1.134253125201212242e-05 -3.148724863422103226e-05 -6.043414941814262420e-06 3.095628198934718966e-05
2.710000000000000000e+03 2.916812133789062500e+01 -5.870043277740478516e+00 6.207364640431478620e-05 9.207079529005568475e-06 2.138421768904663622e-05 -3.586013917811214924e-05
2.711000000000000000e+03 3.828019714355468750e+01 -1.136022377014160156e+01 3.755755824386142194e-05 4.792304389411583543e-05 2.564417991379741579e-05 -1.305980094912229106e-05
2.712000000000000000e+03 3.655992889404296875e+01 -1.171606349945068359e+01 -4.501110743149183691e-05 -8.687628906045574695e-06 -1.610962135600857437e-05 -3.550852170519647188e-06
2.713000000000000000e+03 1.571899890899658203e+01 4.714374065399169922e+00 -1.535454998702334706e-06 -2.682026570255402476e-05 -8.506715857947710901e-06 -2.235485771961975843e-05
2.714000000000000000e+03 1.462706661224365234e+01 4.334182262420654297e+00 1.894237698252254631e-06 -1.381934453092981130e-05 -3.577531970222480595e-06 -3.345337972859852016e-05
2.715000000000000000e+03 7.309210968017578125e+01 -2.004649162292480469e+01 -1.172377705574035645e+00 6.390758514404296875e+00 1.565514206886291504e+00 -9.046002030372619629e-01
2.716000000000000000e+03 8.037163734436035156e+00 1.356854820251464844e+01 2.389513610978610814e-05 6.889736687298864126e-05 2.783775016723666340e-05 -3.476558413240127265e-05
2.717000000000000000e+03 4.076112365722656250e+01 -1.135691833496093750e+01 -3.797385579673573375e-05 -4.026630995213054121e-05 -2.347204826946835965e-05 -2.928333015006501228e-05
2.718000000000000000e+03 3.916227722167968750e+01 -1.255315494537353516e+01 2.014215715462341905e-05 6.326571747194975615e-05 2.502236202417407185e-05 -1.562943180033471435e-05
2.719000000000000000e+03 3.741199111938476562e+01 6.442196369171142578e+00 4.970848094671964645e-04 1.895526365842670202e-04 2.059912367258220911e-04 1.134181438828818500e-04
2.720000000000000000e+03 1.809101104736328125e+01 4.001626014709472656e+00 8.279003850475419313e-06 -2.339525053685065359e-05 -4.534874278760980815e-06 3.727411979070893722e-07
2.721000000000000000e+03 7.051226043701171875e+01 -1.238326358795166016e+01 3.021936416625976562e-01 4.360263824462890625e+00 1.398737311363220215e+00 -9.404603391885757446e-02
2.722000000000000000e+03 7.011168670654296875e+01 -1.350267505645751953e+01 3.743899166584014893e-01 3.821287155151367188e+00 1.258703112602233887e+00 -1.732608526945114136e-01
2.723000000000000000e+03 9.978485107421875000e+00 -8.798269271850585938e+00 2.212295657955110073e-05 1.477389650972327217e-05 1.106905619963072240e-05 -4.935963602292758878e-07
2.724000000000000000e+03 2.753448867797851562e+01 -3.880669593811035156e+00 -1.416349641658598557e-05 -1.730691474222112447e-05 -9.441123438591603190e-06 7.956974877743050456e-05
2.725000000000000000e+03 3.415796279907226562e+01 2.488772201538085938e+01 5.881066899746656418e-04 -1.286551705561578274e-03 -2.095335075864568353e-04 3.939530579373240471e-04
2.726000000000000000e+03 3.614373016357421875e+01 2.141715431213378906e+01 1.586009049788117409e-03 -1.586247526574879885e-04 4.282153095118701458e-04 4.745917976833879948e-04
2.727000000000000000e+03 3.393473052978515625e+01 -1.071478080749511719e+01 2.568410673120524734e-05 5.258147211861796677e-05 2.347967347304802388e-05 -5.242900078883394599e-05
2.728000000000000000e+03 1.039425563812255859e+01 3.115094757080078125e+01 -2.551370125729590654e-04 2.979222044814378023e-04 1.283555047848494723e-05 -4.117151838727295399e-04
2.729000000000000000e+03 1.005237865447998047e+01 3.403018569946289062e+01 1.792268994904588908e-05 3.545538929756730795e-04 1.117429710575379431e-04 -6.493034743471071124e-05
2.730000000000000000e+03 6.729429244995117188e+00 7.655422687530517578e+00 3.934299456886947155e-05 6.227871199371293187e-05 3.048651160497684032e-05 -1.258938282262533903e-04
2.731000000000000000e+03 3.695920944213867188e+01 1.176252841949462891e+01 3.287346771685406566e-05 -4.213168576825410128e-04 -1.165330177173018456e-04 5.217215511947870255e-04
2.732000000000000000e+03 3.431324386596679688e+01 1.061978816986083984e+01 4.742296296171844006e-04 3.216246259398758411e-04 2.387562708463519812e-04 -2.044727152679115534e-04
2.733000000000000000e+03 6.954647827148437500e+01 -1.267441844940185547e+01 4.462358057498931885e-01 3.691222667694091797e+00 1.241237521171569824e+00 8.718552440404891968e-02
2.734000000000000000e+03 7.289391326904296875e+01 -1.085327720642089844e+01 6.144370511174201965e-02 5.931590080261230469e+00 1.797910213470458984e+00 -4.672128558158874512e-01
2.735000000000000000e+03 7.278511810302734375e+01 -9.908583641052246094e+00 4.033758491277694702e-02 6.069967269897460938e+00 1.833091378211975098e+00 -4.230493009090423584e-01
2.736000000000000000e+03 3.669985198974609375e+01 2.278430557250976562e+01 5.942681455053389072e-04 -7.883658981882035732e-04 -5.822932507726363838e-05 1.487612753408029675e-04
2.737000000000000000e+03 6.523411273956298828e+00 -9.399846076965332031e+00 -4.149044616497121751e-05 -3.207516056136228144e-05 -2.206968201790004969e-05 -3.646991535788401961e-05
2.738000000000000000e+03 4.317437744140625000e+01 -8.735893249511718750e+00 -8.556791726732626557e-05 -6.934778866707347333e-06 -2.775080793071538210e-05 -5.304422666085883975e-05
2.739000000000000000e+03 4.253612899780273438e+01 -6.302232265472412109e+00 -2.752178079390432686e-05 -4.114457260584458709e-05 -2.059990583802573383e-05 -2.336167199246119708e-05
2.740000000000000000e+03 7.711547851562500000e+01 3.219051361083984375e+01 -9.409270435571670532e-02 7.453592777252197266e+00 2.207849979400634766e+00 5.370712280273437500e-01
2.741000000000000000e+03 9.663143157958984375e+00 -3.664099121093750000e+01 -2.498986432328820229e-04 1.243833801709115505e-03 2.981805591844022274e-04 1.557195675559341908e-03
2.742000000000000000e+03 4.140069580078125000e+01 -4.421533107757568359e+00 -6.902981112943962216e-05 -3.589409971027635038e-05 -3.147717507090419531e-05 -3.867742634611204267e-06
2.743000000000000000e+03 4.027270889282226562e+01 -5.232903480529785156e+00 2.943990875792223960e-05 -8.708917448529973626e-06 6.219297119969269261e-06 -2.034338831435889006e-05
2.744000000000000000e+03 3.569063568115234375e+01 1.668319892883300781e+01 -1.446662936359643936e-04 -3.450431104283779860e-04 -1.469128183089196682e-04 5.435295170173048973e-04
2.745000000000000000e+03 3.486610031127929688e+01 1.360551834106445312e+01 -3.351312188897281885e-04 -9.140094334725290537e-05 -1.279596472159028053e-04 4.164683923590928316e-04
2.746000000000000000e+03 6.908834934234619141e+00 2.691127014160156250e+01 -6.343646236928179860e-05 2.770092105492949486e-04 6.407182809198275208e-05 -3.439012216404080391e-04
2.747000000000000000e+03 7.376023101806640625e+01 -3.078375244140625000e+01 -1.027436971664428711e+00 8.601836204528808594e+00 2.272319555282592773e+00 6.219018697738647461e-01
2.748000000000000000e+03 7.568627929687500000e+01 -2.414077758789062500e+01 -4.658082723617553711e-01 9.684846878051757812e+00 2.765711545944213867e+00 9.201295971870422363e-01
2.749000000000000000e+03 1.616059112548828125e+01 5.537287712097167969e+00 2.379502839175984263e-04 -6.636905709456186742e-06 6.939400918781757355e-05 -8.659937884658575058e-05
2.750000000000000000e+03 1.517606830596923828e+01 7.012873649597167969e+00 5.325438905856572092e-05 -6.289433076744899154e-05 -2.891981466746074148e-06 -2.792958912323229015e-05
2.751000000000000000e+03 2.697982406616210938e+01 -3.244617700576782227e+00 1.084611576516181231e-04 -3.959715741075342521e-06 3.135043152724392712e-05 -6.793969077989459038e-05
2.752000000000000000e+03 1.326199436187744141e+01 7.192575931549072266e+00 2.123924205079674721e-04 2.100407527905190364e-06 6.434784882003441453e-05 -1.094670806196518242e-04
2.753000000000000000e+03 2.119038772583007812e+01 3.362580060958862305e+00 -5.614012843579985201e-05 -5.076929664937779307e-05 -3.207282861694693565e-05 3.035114787053316832e-05
2.754000000000000000e+03 2.043750190734863281e+01 3.564081668853759766e+00 1.984964619623497128e-04 -4.951353275828296319e-06 5.806353510706685483e-05 1.243037404492497444e-04
2.755000000000000000e+03 2.392644309997558594e+01 2.584382891654968262e-01 1.288290077354758978e-04 1.074318424798548222e-05 4.187165905022993684e-05 -5.587609848589636385e-05
2.756000000000000000e+03 8.075855255126953125e+00 7.620912551879882812e+00 6.147843669168651104e-05 3.272212416050024331e-05 2.826016861945390701e-05 -1.608639722689986229e-04
2.757000000000000000e+03 2.892925071716308594e+01 -7.258028030395507812e+00 -4.345272827777080238e-06 1.592253647686447948e-05 3.473179276625160128e-06 -4.883248038822785020e-05
2.758000000000000000e+03 3.034625244140625000e+01 -1.032661437988281250e+01 -4.613159399013966322e-05 1.616086933609039988e-06 -1.335465185547946021e-05 -3.735445352504029870e-05
2.759000000000000000e+03 7.970607757568359375e+00 -7.619711399078369141e+00 -3.042331263714004308e-05 2.234686144220177084e-05 -2.422935040158336051e-06 2.579853571660351008e-05
2.760000000000000000e+03 1.812930488586425781e+01 2.860991716384887695e+00 7.435734005412086844e-05 -4.249412813805975020e-05 9.558962119626812637e-06 5.794306707684881985e-05
2.761000000000000000e+03 2.660144424438476562e+01 -1.468924880027770996e+00 1.056989822245668620e-05 -3.017367589563946240e-06 2.265759121655719355e-06 9.244835382560268044e-05
2.762000000000000000e+03 2.587787437438964844e+01 -8.957217633724212646e-02 1.327433419646695256e-04 -2.005644091696012765e-05 3.380607086000964046e-05 1.000241245492361486e-04
2.763000000000000000e+03 9.127114295959472656e+00 -9.457028388977050781e+00 -2.279023283335845917e-05 1.646711552893975750e-06 -6.343056611513020471e-06 -5.314802820066688582e-06
2.764000000000000000e+03 4.361722564697265625e+01 -1.279378604888916016e+01 -2.259575194329954684e-05 -2.866676368284970522e-05 -1.537875505164265633e-05 -6.888770712976111099e-06
2.765000000000000000e+03 8.596549987792968750e+00 1.144706535339355469e+01 1.064369353116489947e-04 1.023249278659932315e-04 6.262856186367571354e-05 -2.128971100319176912e-04
2.766000000000000000e+03 7.849676132202148438e+00 1.210573673248291016e+01 2.035270335909444839e-05 4.609493043972179294e-05 1.993429032154381275e-05 -2.210045749961864203e-05
2.767000000000000000e+03 3.154959869384765625e+01 -1.142769718170166016e+01 1.855725167843047529e-05 3.093554187216795981e-05 1.484783842897741124e-05 -3.498544174362905324e-05
2.768000000000000000e+03 1.247323894500732422e+01 7.506268501281738281e+00 -3.366942110005766153e-05 1.148321734945056960e-05 -6.655860943283187225e-06 -1.206350279971957207e-04
2.769000000000000000e+03 2.592477798461914062e+01 -1.966957926750183105e+00 1.131335229729302227e-04 -2.367205706832464784e-05 2.683843922568485141e-05 -6.368644244503229856e-05
2.770000000000000000e+03 2.721013450622558594e+01 -1.031534075736999512e+00 1.398063031956553459e-04 -6.227414814929943532e-06 4.007366442237980664e-05 -8.688417437952011824e-05
2.771000000000000000e+03 2.932640266418457031e+01 -4.509529113769531250e+00 5.100171983940526843e-05 3.910950545105151832e-05 2.703336758713703603e-05 -3.519841993693262339e-05
2.772000000000000000e+03 2.861682891845703125e+01 -5.185291767120361328e+00 -3.411412762943655252e-06 -1.829043503676075488e-05 -6.510554158012382686e-06 5.493370917974971235e-05
2.773000000000000000e+03 1.544874954223632812e+01 5.915748596191406250e+00 -1.641006201680283993e-05 -2.284165566379670054e-05 -1.177551530417986214e-05 -5.709992547053843737e-05
2.774000000000000000e+03 1.400522136688232422e+01 6.720221519470214844e+00 2.742228161878301762e-06 -1.592596345290075988e-05 -3.955120519094634801e-06 -4.646262095775455236e-05
2.775000000000000000e+03 4.077243041992187500e+01 -1.214963436126708984e+01 1.190950388263445348e-05 5.376209082896821201e-05 1.970147786778397858e-05 -2.122147634509019554e-05
2.776000000000000000e+03 2.821226692199707031e+01 -3.247394323348999023e+00 1.229554036399349570e-04 1.031084502756129950e-05 3.997987732873298228e-05 -6.467522325692698359e-05
2.777000000000000000e+03 4.406224060058593750e+01 -1.050023651123046875e+01 3.002016455866396427e-05 1.817254087654873729e-05 1.445781163056381047e-05 1.675294879532884806e-05
2.778000000000000000e+03 3.195394706726074219e+01 -1.064640998840332031e+01 -4.482135409489274025e-05 -2.252895319543313235e-05 -2.020509236899670213e-05 3.198370905010960996e-05
2.779000000000000000e+03 7.204754638671875000e+01 -1.573462963104248047e+01 -6.487832963466644287e-02 4.891337871551513672e+00 1.447937965393066406e+00 -8.064222931861877441e-01
2.780000000000000000e+03 6.995365905761718750e+01 -1.603418350219726562e+01 2.125783413648605347e-01 3.154218196868896484e+00 1.010038971900939941e+00 -5.475312471389770508e-01
2.781000000000000000e+03 7.386405467987060547e+00 6.993433952331542969e+00 -1.980341403395868838e-05 5.405956471804529428e-05 1.027684538712492213e-05 -7.061209544190205634e-06
2.782000000000000000e+03 1.280418109893798828e+01 6.298024654388427734e+00 -1.954963227035477757e-05 4.517273282544920221e-06 -4.509707650868222117e-06 -6.013499296386726201e-05
2.783000000000000000e+03 4.068705749511718750e+01 -7.389371842145919800e-02 1.456294266972690821e-04 -3.879986979882232845e-05 3.204886525054462254e-05 9.582137863617390394e-06
2.784000000000000000e+03 3.933298492431640625e+01 -2.455183506011962891e+00 -1.027556136250495911e-04 1.843268546508625150e-05 -2.529687844798900187e-05 3.854570968542248011e-05
2.785000000000000000e+03 8.643607139587402344e+00 1.298822879791259766e+01 1.045604221872054040e-04 1.174763820017687976e-04 6.661104271188378334e-05 -2.506052260287106037e-04
2.786000000000000000e+03 7.143434906005859375e+01 -1.366397953033447266e+01 2.003516703844070435e-01 4.605173110961914062e+00 1.441657423973083496e+00 -4.423299431800842285e-01
2.787000000000000000e+03 4.187028503417968750e+01 -9.528888702392578125e+00 -7.003440987318754196e-05 -7.124086550902575254e-06 -2.314754965482279658e-05 -4.009798794868402183e-05
2.788000000000000000e+03 4.306668472290039062e+01 -1.081492328643798828e+01 -5.039291136199608445e-05 -3.478930739220231771e-05 -2.555466562625952065e-05 -2.442214645270723850e-05
2.789000000000000000e+03 3.317271041870117188e+01 -1.021426677703857422e+01 -3.520781683619134128e-05 -3.377144821570254862e-05 -2.069377842417452484e-05 4.845789590035565197e-05
2.790000000000000000e+03 3.930952835083007812e+01 -4.459658622741699219e+00 2.867852890631183982e-05 9.870267240330576897e-05 3.821436257567256689e-05 -3.182651198585517704e-05
2.791000000000000000e+03 2.299885749816894531e+01 4.085702300071716309e-01 6.757504161214455962e-05 -2.912405579991172999e-05 1.153529501607408747e-05 -9.465181938139721751e-05
2.792000000000000000e+03 2.231346702575683594e+01 5.262742936611175537e-02 7.890450069680809975e-05 2.264901468151947483e-06 2.435082024021539837e-05 7.873292634030804038e-05
2.793000000000000000e+03 3.051729393005371094e+01 -7.296092987060546875e+00 5.837878416059538722e-05 2.448529994580894709e-05 2.485922414052765816e-05 -3.808779729297384620e-05
2.794000000000000000e+03 3.042685508728027344e+01 -5.739074230194091797e+00 1.127149735111743212e-04 2.115649840561673045e-05 4.016144157503731549e-05 -4.348948277765884995e-05
2.795000000000000000e+03 8.767875671386718750e+00 -6.988421440124511719e+00 4.162969344179145992e-05 1.917841473186854273e-06 1.306426020164508373e-05 -6.443925940402550623e-06
2.796000000000000000e+03 8.135197639465332031e+00 -6.376656055450439453e+00 -7.791397365508601069e-05 1.363534738629823551e-05 -1.928358869918156415e-05 4.578304469760041684e-06
2.797000000000000000e+03 9.930337905883789062e+00 8.154524803161621094e+00 4.024410009151324630e-05 -2.882862827391363680e-05 3.424641590754617937e-06 -3.538677628966979682e-05
2.798000000000000000e+03 7.139817047119140625e+01 -1.495039463043212891e+01 1.357936263084411621e-01 4.418388366699218750e+00 1.366254568099975586e+00 -6.297356486320495605e-01
2.799000000000000000e+03 7.290161132812500000e+01 -1.286626529693603516e+01 7.226894050836563110e-02 5.685699462890625000e+00 1.727390527725219727e+00 -5.846631526947021484e-01
2.800000000000000000e+03 7.207138061523437500e+01 -1.306893253326416016e+01 1.407778710126876831e-01 5.169546127319335938e+00 1.593097090721130371e+00 -4.811670184135437012e-01
2.801000000000000000e+03 4.184130859375000000e+01 2.470706701278686523e+00 -1.125958078773692250e-04 8.554129453841596842e-05 -8.116355274978559464e-06 3.430597644182853401e-06
2.802000000000000000e+03 3.873918533325195312e+01 3.384377956390380859e+00 3.559122560545802116e-04 1.453827280784025788e-04 1.503884996054694057e-04 -1.561777316965162754e-04
2.803000000000000000e+03 1.025360107421875000e+01 -7.370203495025634766e+00 -8.881773283064831048e-06 -2.000340145968948491e-06 -3.264634187871706672e-06 -4.251669906807364896e-06
2.804000000000000000e+03 1.974571990966796875e+01 4.751403331756591797e+00 3.142906352877616882e-04 -4.537280983640812337e-05 8.067535236477851868e-05 1.643305768084246665e-05
2.805000000000000000e+03 3.869878387451171875e+01 -8.792336463928222656e+00 -1.629931375646265224e-06 -3.731959077413193882e-05 -1.168485687230713665e-05 -2.623867658257950097e-06
2.806000000000000000e+03 3.708461380004882812e+01 5.164900779724121094e+00 -3.991577541455626488e-04 3.106548263076547300e-07 -1.196541343233548105e-04 3.612750151660293341e-05
2.807000000000000000e+03 1.022000122070312500e+01 2.676655387878417969e+01 -2.994271635543555021e-04 2.546966425143182278e-04 -1.341915231023449451e-05 -3.790319897234439850e-04
2.808000000000000000e+03 8.558072090148925781e+00 2.171245384216308594e+01 -1.763512991601601243e-04 2.388215798418968916e-04 1.874108238553162664e-05 -1.381136244162917137e-04
2.809000000000000000e+03 7.003523254394531250e+01 -1.480028533935546875e+01 3.468574583530426025e-01 3.471534490585327148e+00 1.145517587661743164e+00 -3.406781852245330811e-01
2.810000000000000000e+03 3.464524841308593750e+01 7.890085220336914062e+00 -2.507577883079648018e-04 -1.129721840698039159e-05 -7.861649646656587720e-05 1.748489594319835305e-04
2.811000000000000000e+03 3.739691543579101562e+01 -1.085585784912109375e+01 -3.890828281782887643e-07 -2.668933302629739046e-05 -8.123524821712635458e-06 -1.111119786401104648e-06
2.812000000000000000e+03 3.322475814819335938e+01 1.302649211883544922e+01 -1.894414890557527542e-04 -1.026441677822731435e-04 -8.762569632381200790e-05 9.517341095488518476e-05
2.813000000000000000e+03 4.224937820434570312e+01 -8.537837982177734375e+00 8.855036867316812277e-05 2.331078940187580884e-05 3.355834633111953735e-05 4.730055297841317952e-05
2.814000000000000000e+03 3.154250335693359375e+01 -9.314383506774902344e+00 -9.259729267796501517e-05 5.782585503766313195e-06 -2.604441215225961059e-05 3.457078128121793270e-05
2.815000000000000000e+03 3.117140579223632812e+01 -1.030088710784912109e+01 9.630158456275239587e-05 4.090893526154104620e-06 3.011774242622777820e-05 -7.260163329192437232e-06
2.816000000000000000e+03 1.472568988800048828e+01 6.289482593536376953e+00 1.999343803618103266e-04 1.076718490367056802e-05 6.321047112578526139e-05 -8.309674740303307772e-05
2.817000000000000000e+03 1.923455047607421875e+01 4.022942543029785156e+00 -4.553803228191100061e-05 2.570870037743588910e-06 -1.289014926442177966e-05 1.083816641767043620e-05
2.818000000000000000e+03 2.569694137573242188e+01 7.912013530731201172e-01 1.211797916766954586e-05 -3.363515497767366469e-05 -6.455152288253884763e-06 -6.265280535444617271e-05
2.819000000000000000e+03 2.619939041137695312e+01 -8.204019665718078613e-01 7.847835513530299067e-05 -2.356694858463015407e-05 1.647342105570714921e-05 -7.778990402584895492e-05
2.820000000000000000e+03 2.431944084167480469e+01 7.387041449546813965e-01 8.701731712790206075e-05 -1.500506186857819557e-04 -1.890999010356608778e-05 6.907473289174959064e-05
2.821000000000000000e+03 2.446683311462402344e+01 -1.305224448442459106e-01 -4.026020178571343422e-05 -2.769508682831656188e-05 -2.038658567471429706e-05 6.253219908103346825e-05
2.822000000000000000e+03 2.416586494445800781e+01 2.520350933074951172e+00 9.058098657988011837e-05 -2.185916127928066999e-05 2.061654777207877487e-05 1.100389490602537990e-04
2.823000000000000000e+03 3.804894256591796875e+01 -9.778370857238769531e+00 5.058300303062424064e-06 4.839005487156100571e-05 1.603450618858914822e-05 -1.336707373411627486e-05
2.824000000000000000e+03 3.599647903442382812e+01 -1.092637825012207031e+01 -1.438003346265759319e-05 -2.153103559976443648e-05 -1.077332035492872819e-05 5.276815500110387802e-05
2.825000000000000000e+03 1.388088417053222656e+01 7.998552322387695312e+00 -2.179776856792159379e-06 1.639232868910767138e-05 4.263765731593593955e-06 -5.741523636970669031e-06
2.826000000000000000e+03 4.176722717285156250e+01 -1.243520545959472656e+01 -2.189394945162348449e-05 5.182401582715101540e-05 8.979019185062497854e-06 -4.818505112780258060e-05
2.827000000000000000e+03 4.230444335937500000e+01 -1.295266437530517578e+01 2.767558180494233966e-05 1.402578277520660777e-06 8.723448445380199701e-06 1.037541460391366854e-05
2.828000000000000000e+03 2.643805122375488281e+01 -2.611111402511596680e+00 -7.901850040070712566e-06 -3.447081326157785952e-06 -3.404679318919079378e-06 7.689096673857420683e-05
2.829000000000000000e+03 3.072941970825195312e+01 -8.769879341125488281e+00 6.220138311618939042e-05 2.643085281306412071e-05 2.658967059687711298e-05 -3.900713636539876461e-05
2.830000000000000000e+03 2.984477233886718750e+01 -5.169064998626708984e+00 -2.149961801478639245e-05 -8.568971679778769612e-06 -9.020576726470608264e-06 3.054380795219913125e-05
2.831000000000000000e+03 1.335764217376708984e+01 8.753376960754394531e+00 1.021123171085491776e-04 -1.584232086315751076e-05 2.588099960121326149e-05 -1.686348114162683487e-04
2.832000000000000000e+03 1.057706356048583984e+01 7.592667102813720703e+00 8.773667650530114770e-05 8.519121911376714706e-05 5.187837086850777268e-05 -1.266841572942212224e-04
2.833000000000000000e+03 8.765855789184570312e+00 8.101172447204589844e+00 7.431732956320047379e-05 5.464883088279748335e-06 2.393466456851456314e-05 1.135284401243552566e-05
2.834000000000000000e+03 4.431688308715820312e+01 -1.185978984832763672e+01 -2.878730629163328558e-05 -5.161126682651229203e-05 -2.411957211734261364e-05 1.833663372963201255e-05
2.835000000000000000e+03 4.335606002807617188e+01 -1.189463806152343750e+01 3.921315874322317541e-05 4.615487705450505018e-05 2.561041037552058697e-05 5.971066002530278638e-06
2.836000000000000000e+03 9.428243637084960938e+00 1.089639759063720703e+01 -1.570068525325041264e-05 1.560734926897566766e-05 -2.800083187537438789e-08 -5.388121280702762306e-05
2.837000000000000000e+03 3.524528884887695312e+01 -1.036227130889892578e+01 2.070356640615500510e-05 5.141799920238554478e-05 2.163646968256216496e-05 -5.481404878082685173e-05
2.838000000000000000e+03 9.730222702026367188e+00 9.473559379577636719e+00 -2.218480858573457226e-06 2.128648901589258458e-07 -6.016848033141286578e-07 -7.438226748490706086e-05
2.839000000000000000e+03 3.961740875244140625e+01 -1.073600673675537109e+01 3.236004340578801930e-05 -9.230849173036403954e-06 6.938758815522305667e-06 -1.388488544762367383e-05
2.840000000000000000e+03 2.763476562500000000e+01 -2.651478767395019531e+00 -2.656213291629683226e-05 -1.665306808718014508e-05 -1.296456048294203356e-05 7.974961772561073303e-05
2.841000000000000000e+03 2.155669784545898438e+01 4.387853622436523438e+00 3.108401724603027105e-04 -2.416159804852213711e-05 8.600356522947549820e-05 1.306146532442653552e-05
2.842000000000000000e+03 2.056846237182617188e+01 4.540947914123535156e+00 7.885878403612878174e-06 -7.398299931082874537e-05 -1.982913636311423033e-05 -1.063560921465978026e-04
2.843000000000000000e+03 4.245399475097656250e+01 -1.211093521118164062e+01 -2.115998722729273140e-05 -6.623232184210792184e-05 -2.621769272082019597e-05 -5.568444521486526355e-06
2.844000000000000000e+03 4.137125778198242188e+01 -1.177052688598632812e+01 3.508602276269812137e-06 -2.233566192444413900e-05 -5.648118076351238415e-06 4.738682400784455240e-05
2.845000000000000000e+03 9.287697792053222656e+00 1.393416500091552734e+01 -2.276110171806067228e-05 2.342286825296469033e-05 1.985300031037695589e-07 -4.116064519621431828e-05
2.846000000000000000e+03 9.854680061340332031e+00 1.498263549804687500e+01 1.988011354114860296e-04 1.038719638017937541e-04 9.080192830879241228e-05 -2.689201792236417532e-04
2.847000000000000000e+03 1.455438423156738281e+01 7.468900203704833984e+00 2.165707410313189030e-04 -8.581970178056508303e-06 6.239663343876600266e-05 -1.601539261173456907e-04
2.848000000000000000e+03 4.148255538940429688e+01 -8.218160629272460938e+00 -1.605132820259314030e-05 -3.747413757082540542e-06 -5.939622496953234076e-06 -4.237754910718649626e-05
2.849000000000000000e+03 7.209867095947265625e+01 -1.432369709014892578e+01 9.537648409605026245e-02 5.042754650115966797e+00 1.541439414024353027e+00 -6.396746635437011719e-01
2.850000000000000000e+03 7.141026306152343750e+01 -1.250002956390380859e+01 1.875167340040206909e-01 4.886447906494140625e+00 1.522189378738403320e+00 -3.422607481479644775e-01
2.851000000000000000e+03 1.984016227722167969e+01 5.600704669952392578e+00 2.358525853196624666e-05 -2.180640512960962951e-05 5.336559638635662850e-07 -8.628427167423069477e-05
2.852000000000000000e+03 1.748941993713378906e+01 4.565717220306396484e+00 2.160103176720440388e-04 -9.758654414326883852e-06 6.187550025060772896e-05 -6.618862244067713618e-05
2.853000000000000000e+03 6.872955322265625000e+00 1.854568672180175781e+01 1.361330505460500717e-04 1.759789447532966733e-04 9.363360004499554634e-05 -1.234402152476832271e-04
2.854000000000000000e+03 1.050419521331787109e+01 1.610459327697753906e+01 -8.494348003296181560e-05 5.366959521779790521e-05 -9.382165444549173117e-06 -8.731937850825488567e-05
2.855000000000000000e+03 9.879434585571289062e+00 1.781179809570312500e+01 -7.662020652787759900e-05 7.678953988943248987e-05 5.079910536665011023e-08 -1.634047366678714752e-04
2.856000000000000000e+03 3.792698287963867188e+01 1.440065354108810425e-01 1.405968359904363751e-04 -1.144577036029659212e-04 7.841739716241136193e-06 1.788272347766906023e-04
2.857000000000000000e+03 3.825626373291015625e+01 1.478651881217956543e+00 4.453373549040406942e-04 -2.610015217214822769e-04 5.530074849957600236e-05 1.825868675950914621e-04
2.858000000000000000e+03 3.897008514404296875e+01 2.041554450988769531e+00 -7.485019887099042535e-05 2.948722103610634804e-04 6.600659980904310942e-05 -1.149843737948685884e-04
2.859000000000000000e+03 1.003659915924072266e+01 1.339460086822509766e+01 1.385912910336628556e-04 1.206862070830538869e-04 7.778324652463197708e-05 -2.709634718485176563e-04
2.860000000000000000e+03 3.672950744628906250e+01 3.937369585037231445e+00 4.280313150957226753e-04 9.509563824394717813e-05 1.569380838191136718e-04 6.991622649366036057e-05
2.861000000000000000e+03 3.824856185913085938e+01 2.354605436325073242e+00 -3.853828529827296734e-04 1.441539370716782287e-05 -1.112902318709529936e-04 1.576815411681309342e-04
2.862000000000000000e+03 3.441913223266601562e+01 4.258123397827148438e+00 3.613655280787497759e-04 1.397467858623713255e-04 1.503336970927193761e-04 7.565789564978331327e-05
2.863000000000000000e+03 3.852342224121093750e+01 -5.631539344787597656e+00 -9.394703738507814705e-06 -7.692051440244540572e-05 -2.589456562418490648e-05 4.465894380700774491e-05
2.864000000000000000e+03 1.664132308959960938e+01 6.455564975738525391e+00 4.947122306475648656e-06 -6.244314135983586311e-05 -1.724880530673544854e-05 -3.348775499034672976e-05
2.865000000000000000e+03 3.447603225708007812e+01 -9.813636779785156250e+00 -3.240452497266232967e-05 -3.589232801459729671e-05 -2.048905662377364933e-05 5.528727706405334175e-05
2.866000000000000000e+03 1.684409713745117188e+01 5.080999851226806641e+00 1.910840364871546626e-05 -5.034319474361836910e-05 -9.370437510369811207e-06 -1.485465963924070820e-05
2.867000000000000000e+03 3.616637039184570312e+01 7.886837482452392578e+00 3.800317354034632444e-04 3.007672203239053488e-04 2.042396808974444866e-04 1.387032389175146818e-04
2.868000000000000000e+03 4.293063354492187500e+01 -9.757870674133300781e+00 8.134164818329736590e-05 2.115145071002189070e-05 3.074792766710743308e-05 4.461237040231935680e-05
2.869000000000000000e+03 4.013953399658203125e+01 -8.453027725219726562e+00 -1.566910214023664594e-05 -9.833634067035745829e-06 -7.650821316929068416e-06 -3.114523860858753324e-05
2.870000000000000000e+03 6.836407661437988281e+00 1.998519515991210938e+01 -9.974275599233806133e-05 2.021085092565044761e-04 3.070972161367535591e-05 -2.211948303738608956e-04
2.871000000000000000e+03 9.614718437194824219e+00 2.380810356140136719e+01 -3.353633219376206398e-04 2.996651455760002136e-04 -1.070945745595963672e-05 -2.105515450239181519e-04
2.872000000000000000e+03 8.761009216308593750e+00 9.871429443359375000e+00 1.650394406169652939e-04 5.982527363812550902e-05 6.745941936969757080e-05 -1.387407100992277265e-04
2.873000000000000000e+03 3.175424385070800781e+01 1.756960487365722656e+01 1.052570180036127567e-03 -7.694355736020952463e-05 2.926879969891160727e-04 -2.444887650199234486e-04
2.874000000000000000e+03 3.181654357910156250e+01 1.533894634246826172e+01 7.045235834084451199e-04 1.142431356129236519e-04 2.456300135236233473e-04 -1.976752682821825147e-04
2.875000000000000000e+03 3.085045433044433594e+01 1.412666225433349609e+01 1.065962132997810841e-04 -4.655900120269507170e-04 -1.076981352525763214e-04 3.847903572022914886e-04
2.876000000000000000e+03 3.354705047607421875e+01 9.684586524963378906e+00 9.095271525438874960e-05 -2.645897038746625185e-04 -5.209109440329484642e-05 5.134761449880897999e-04
2.877000000000000000e+03 3.313332366943359375e+01 1.083054351806640625e+01 -1.406067312927916646e-04 -6.182370270835235715e-05 -6.072913311072625220e-05 1.121941968449391425e-04
2.878000000000000000e+03 2.206946372985839844e+01 8.319613933563232422e-01 9.253299504052847624e-05 -7.380951865343376994e-05 5.617042916128411889e-06 -8.880034147296100855e-05
2.879000000000000000e+03 2.281088638305664062e+01 1.123590350151062012e+00 1.947743876371532679e-04 -1.972718200704548508e-05 5.251416223472915590e-05 1.025757883326150477e-04
2.880000000000000000e+03 2.951740264892578125e+01 -3.121562719345092773e+00 1.558021613163873553e-04 2.439488707750570029e-05 5.405911360867321491e-05 -7.275948883034288883e-05
2.881000000000000000e+03 2.883751487731933594e+01 -2.561398744583129883e+00 -5.074531145510263741e-05 -2.455440517223905772e-05 -2.258991480630356818e-05 6.154084985610097647e-05
2.882000000000000000e+03 1.862656974792480469e+01 4.661356925964355469e+00 2.379039069637656212e-04 -3.896755151799879968e-05 5.968090772512368858e-05 -3.869992360705509782e-05
2.883000000000000000e+03 1.247944927215576172e+01 8.343115806579589844e+00 1.307491911575198174e-04 -8.119973244902212173e-07 3.898115755873732269e-05 -3.430811193538829684e-05
2.884000000000000000e+03 4.205444335937500000e+01 -1.119679737091064453e+01 -5.937837613601004705e-06 5.501218038261868060e-05 1.472230360377579927e-05 -1.403024907631333917e-05
2.885000000000000000e+03 2.761773490905761719e+01 -5.107208490371704102e-01 -6.755267531843855977e-05 -6.043057510396465659e-05 -3.839497730950824916e-05 1.068335768650285900e-04
2.886000000000000000e+03 2.681260299682617188e+01 1.865610480308532715e-01 -1.075485415640287101e-04 3.170327909174375236e-05 -2.275357837788760662e-05 -2.216024768131319433e-05
2.887000000000000000e+03 3.048341178894042969e+01 -4.531198501586914062e+00 3.268938598921522498e-05 1.144194720836821944e-05 1.323939977737609297e-05 -2.119557757396250963e-05
2.888000000000000000e+03 2.280175399780273438e+01 2.001277923583984375e+00 -1.645675911277066916e-05 -6.545677752001211047e-05 -2.457406117173377424e-05 -1.019395785988308489e-04
2.889000000000000000e+03 3.884623336791992188e+01 -1.027596855163574219e+01 -3.315007779747247696e-05 -1.600850737304426730e-05 -1.474757573305396363e-05 6.502584255940746516e-06
2.890000000000000000e+03 3.889864730834960938e+01 -1.485143184661865234e+00 1.482760562794283032e-04 -1.775270902726333588e-05 3.915700290235690773e-05 1.985857306863181293e-05
2.891000000000000000e+03 3.726568984985351562e+01 -9.198783874511718750e+00 -5.205013621889520437e-06 -4.081765291630290449e-05 -1.380679987050825730e-05 1.818140299292281270e-05
2.892000000000000000e+03 3.584151077270507812e+01 -9.499812126159667969e+00 -2.400350967945996672e-05 -3.696868952829390764e-05 -1.829166103561874479e-05 4.926584369968622923e-05
2.893000000000000000e+03 4.094305801391601562e+01 -9.033815383911132812e+00 4.542565147858113050e-05 6.710723937430884689e-06 1.564091326144989580e-05 3.192850635969080031e-05
2.894000000000000000e+03 4.126630783081054688e+01 -1.049593639373779297e+01 5.883786434424109757e-05 -1.717729719530325383e-05 1.249816978088347241e-05 5.524071184481726959e-06
2.895000000000000000e+03 3.505703735351562500e+01 -8.922542572021484375e+00 4.319021172705106437e-05 5.307225001160986722e-05 2.887873779400251806e-05 -6.111902621341869235e-05
2.896000000000000000e+03 2.343920326232910156e+01 1.225154757499694824e+00 -8.162872109096497297e-05 -2.448992017889395356e-05 -3.183559238095767796e-05 -1.775017881300300360e-05
2.897000000000000000e+03 2.389908218383789062e+01 3.345265150070190430e+00 5.298432824929477647e-06 -6.262980605242773890e-05 -1.719941246847156435e-05 -4.542116948869079351e-05
2.898000000000000000e+03 8.475778579711914062e+00 8.873445510864257812e+00 -7.966483826749026775e-05 5.037842856836505234e-05 -8.785923455434385687e-06 -1.110832163249142468e-04
2.899000000000000000e+03 3.209651947021484375e+01 -8.369843482971191406e+00 1.094641120289452374e-04 1.001221062324475497e-05 3.584289879654534161e-05 -4.398616511025466025e-05
2.900000000000000000e+03 1.578821849822998047e+01 7.540701389312744141e+00 1.141425163950771093e-04 3.974937862949445844e-05 4.616756632458418608e-05 -1.940336078405380249e-04
2.901000000000000000e+03 1.033366966247558594e+01 1.039402580261230469e+01 1.469008275307714939e-04 7.095186447259038687e-05 6.535580905620008707e-05 -1.481136423535645008e-04
2.902000000000000000e+03 3.426646804809570312e+01 -8.374492645263671875e+00 -5.720947228837758303e-05 -2.287214374518953264e-05 -2.402448444627225399e-05 6.299153756117448211e-05
2.903000000000000000e+03 3.238980102539062500e+01 -9.743007659912109375e+00 6.565400690305978060e-05 2.903471249737776816e-05 2.840661545633338392e-05 -3.376540917088277638e-05
2.904000000000000000e+03 2.068316650390625000e+01 5.627567291259765625e+00 2.966560714412480593e-04 -6.795171793783083558e-05 6.861130532342940569e-05 1.499366862844908610e-05
2.905000000000000000e+03 3.937428283691406250e+01 -6.250001907348632812e+00 -1.413029622199246660e-05 7.111510785762220621e-05 1.709544449113309383e-05 -1.733170051920751575e-06
2.906000000000000000e+03 1.295001411437988281e+01 1.076227378845214844e+01 -9.752384357852861285e-06 -3.209984788554720581e-05 -1.255566985491896048e-05 -1.257226540474221110e-04
2.907000000000000000e+03 1.121730709075927734e+01 8.397772789001464844e+00 6.951925752218812704e-05 -4.319376603234559298e-05 7.897647265053819865e-06 -5.518002944882027805e-05
2.908000000000000000e+03 4.082992935180664062e+01 -7.610940933227539062e+00 6.725334969814866781e-06 5.320389391272328794e-06 3.613717353800893761e-06 1.430111024092184380e-05
2.909000000000000000e+03 3.471388244628906250e+01 6.666356086730957031e+00 3.908667422365397215e-04 1.771140669006854296e-04 1.703942398307844996e-04 2.096984826494008303e-04
2.910000000000000000e+03 3.460878372192382812e+01 5.462507724761962891e+00 -2.123499434674158692e-04 -1.064079624484293163e-04 -9.562737250234931707e-05 5.812457857246045023e-06
2.911000000000000000e+03 3.473039627075195312e+01 9.030101776123046875e+00 6.006936891935765743e-04 1.503663370385766029e-04 2.253180136904120445e-04 -1.324548502452671528e-04
2.912000000000000000e+03 3.843677520751953125e+01 -6.381243467330932617e-01 -1.297742564929649234e-04 1.187011730507947505e-04 -3.321927124488865957e-06 -6.499893788713961840e-05
2.913000000000000000e+03 1.230217170715332031e+01 1.452920436859130859e+01 5.116028114571236074e-05 -3.980634937761351466e-05 3.406180212550680153e-06 -8.168742351699620485e-05
2.914000000000000000e+03 8.951848983764648438e+00 1.971653938293457031e+01 -5.347869591787457466e-05 7.765877671772614121e-05 7.254023330460768193e-06 -1.613756030565127730e-04
2.915000000000000000e+03 8.625217437744140625e+00 1.759177589416503906e+01 8.600611909059807658e-05 1.275212271139025688e-04 6.405820749932900071e-05 -1.652090431889519095e-04
2.916000000000000000e+03 7.931869506835937500e+00 2.001179695129394531e+01 1.112137251766398549e-04 2.117493713740259409e-04 9.688892896519973874e-05 -1.052390434779226780e-04
2.917000000000000000e+03 3.491172409057617188e+01 1.485880136489868164e+00 -2.730109845288097858e-04 -1.856361632235348225e-05 -8.747238462092354894e-05 1.408029929734766483e-04
2.918000000000000000e+03 3.739457321166992188e+01 2.602090120315551758e+00 3.291820175945758820e-04 1.506265398347750306e-04 1.439425686839967966e-04 -1.861471537267789245e-04
2.919000000000000000e+03 4.653538894653320312e+01 -3.078012084960937500e+01 1.206975802779197693e-01 -1.783892214298248291e-01 -1.730749011039733887e-02 9.442471899092197418e-03
2.920000000000000000e+03 4.810972595214843750e+01 -3.106652641296386719e+01 4.008403420448303223e-01 9.406314790248870850e-02 1.484710425138473511e-01 1.327529251575469971e-01
2.921000000000000000e+03 1.010285758972167969e+01 1.186611461639404297e+01 1.235759700648486614e-04 1.117791543947532773e-04 7.060653297230601311e-05 -2.138471027137711644e-04
2.922000000000000000e+03 1.054277610778808594e+01 8.966842651367187500e+00 1.145198693848215044e-04 8.519826224073767662e-05 5.991543730488047004e-05 -1.549154694657772779e-04
2.923000000000000000e+03 2.709162902832031250e+01 -2.066935062408447266e+00 1.288254425162449479e-04 -5.603541922027943656e-06 3.696657222462818027e-05 -7.374284177785739303e-05
2.924000000000000000e+03 1.519176101684570312e+01 8.118366241455078125e+00 -9.080237759917508811e-06 -2.636050157889258116e-05 -1.063222134689567611e-05 4.715179602499119937e-05
2.925000000000000000e+03 5.497806072235107422e+00 1.848284530639648438e+01 -1.016044043353758752e-04 2.079058322124183178e-04 3.189042763551697135e-05 -1.793306000763550401e-04
2.926000000000000000e+03 5.867464065551757812e+00 2.041627502441406250e+01 1.190244511235505342e-04 2.526351599954068661e-04 1.114978804253041744e-04 -2.076584059977903962e-04
2.927000000000000000e+03 3.181855964660644531e+01 1.096260547637939453e+01 7.403674535453319550e-04 3.438113253650953993e-06 2.231416729046031833e-04 4.233364961692132056e-05
2.928000000000000000e+03 3.804868698120117188e+01 -1.954395771026611328e+00 -1.854934380389750004e-04 6.367825699271634221e-05 -3.654455576906912029e-05 3.525419015204533935e-05
2.929000000000000000e+03 1.131538105010986328e+01 2.449746131896972656e+01 -3.194993478246033192e-04 2.227103395853191614e-04 -2.903670610976405442e-05 -2.029670868068933487e-04
2.930000000000000000e+03 9.950393676757812500e+00 2.514193153381347656e+01 3.705491544678807259e-04 1.100974041037261486e-04 1.441939675714820623e-04 -2.478063688613474369e-04
2.931000000000000000e+03 1.040247535705566406e+01 2.875150299072265625e+01 2.025322028202936053e-04 2.316380559932440519e-04 1.302510790992528200e-04 -1.625203003641217947e-04
2.932000000000000000e+03 6.469807624816894531e+00 2.251467514038085938e+01 2.149044157704338431e-04 2.156709670089185238e-04 1.291726075578480959e-04 -2.266883238917216659e-04
2.933000000000000000e+03 3.814091491699218750e+01 -4.017930030822753906e+00 -9.158793545793741941e-05 -8.182662713807076216e-05 -5.202437023399397731e-05 3.429047865211032331e-05
2.934000000000000000e+03 9.443428993225097656e+00 2.093211174011230469e+01 2.582084271125495434e-04 1.304624893236905336e-04 1.166012734756805003e-04 -3.474425466265529394e-04
2.935000000000000000e+03 2.974083900451660156e+01 1.520869636535644531e+01 7.721017464064061642e-04 -5.485608562594279647e-05 2.151736989617347717e-04 -1.681385328993201256e-04
2.936000000000000000e+03 2.819225120544433594e+01 -9.168867468833923340e-01 1.000306656351312995e-04 9.283290273742750287e-05 5.785906978417187929e-05 -1.931509541464038193e-05
2.937000000000000000e+03 2.823368644714355469e+01 -2.025876760482788086e+00 1.508728455519303679e-04 2.677559496078174561e-05 5.329453051672317088e-05 -5.376917033572681248e-05
2.938000000000000000e+03 3.860979843139648438e+01 -7.247892379760742188e+00 1.155693826149217784e-05 -5.920266630710102618e-05 -1.429371786798583344e-05 1.097917265724390745e-05
2.939000000000000000e+03 2.676582908630371094e+01 1.056824684143066406e+00 3.300399694126099348e-04 -4.041125066578388214e-05 8.688861271366477013e-05 3.925805140170268714e-05
2.940000000000000000e+03 2.692265319824218750e+01 -5.046139359474182129e-01 1.625460427021607757e-04 -2.656349533936008811e-05 4.079476639162749052e-05 6.717192445648834109e-05
2.941000000000000000e+03 2.355343818664550781e+01 6.964632272720336914e-01 1.595246430952101946e-04 -8.243665070040151477e-05 2.312639662704896182e-05 9.334133210359141231e-05
2.942000000000000000e+03 1.827531051635742188e+01 7.692786216735839844e+00 3.392607031855732203e-04 -8.591984806116670370e-05 7.600225944770500064e-05 -4.976043419446796179e-05
2.943000000000000000e+03 4.032274627685546875e+01 -9.938991546630859375e+00 -4.678271216107532382e-05 1.635096668906044215e-05 -9.129523277806583792e-06 -2.131998917320743203e-05
2.944000000000000000e+03 3.948891830444335938e+01 -9.347188949584960938e+00 2.999609205289743841e-05 1.883548065961804241e-05 1.464947217755252495e-05 5.167710696696303785e-06
2.945000000000000000e+03 3.290340042114257812e+01 -8.808560371398925781e+00 -7.279755664058029652e-05 -1.103512113331817091e-05 -2.514980224077589810e-05 5.196316487854346633e-05
2.946000000000000000e+03 1.729891967773437500e+01 7.361683368682861328e+00 2.090251073241233826e-04 -1.901278665172867477e-05 5.700369729311205447e-05 -9.567257075104862452e-05
2.947000000000000000e+03 1.737327575683593750e+01 5.904290199279785156e+00 2.430897875456139445e-04 -1.369869642076082528e-05 6.881733133923262358e-05 -7.594202907057479024e-05
2.948000000000000000e+03 2.273072052001953125e+01 3.079132795333862305e+00 2.455858048051595688e-04 -3.476531855994835496e-05 6.324614514596760273e-05 7.838103192625567317e-05
2.949000000000000000e+03 3.245994567871093750e+01 8.788732528686523438e+00 2.923539432231336832e-04 2.054408832918852568e-04 1.493384479545056820e-04 -9.414452506462112069e-05
2.950000000000000000e+03 1.661736106872558594e+01 8.186591148376464844e+00 6.324841524474322796e-05 -1.010741107165813446e-04 -1.134770809585461393e-05 7.458866946308262413e-08
2.951000000000000000e+03 3.213232803344726562e+01 -6.457238197326660156e+00 -5.472250268212519586e-05 -2.594214311102405190e-05 -2.419939301034901291e-05 1.023043878376483917e-04
2.952000000000000000e+03 3.130260086059570312e+01 -7.900860309600830078e+00 -6.646953988820314407e-05 -2.949608187918784097e-06 -2.082574428641237319e-05 4.064542008563876152e-05
2.953000000000000000e+03 1.301821708679199219e+01 9.708429336547851562e+00 1.691607030807062984e-04 4.179611551080597565e-06 5.200209488975815475e-05 -7.407274824799969792e-05
2.954000000000000000e+03 1.148024845123291016e+01 1.369080448150634766e+01 1.309840590693056583e-04 1.114771512220613658e-04 7.273835944943130016e-05 -2.883365668822079897e-04
2.955000000000000000e+03 1.145879364013671875e+01 1.226286602020263672e+01 1.074347019311971962e-04 1.276608090847730637e-04 7.052865112200379372e-05 -2.129036583937704563e-04
2.956000000000000000e+03 3.559343338012695312e+01 4.094393253326416016e+00 -3.157503961119800806e-04 -1.581476135470438749e-05 -9.946954378392547369e-05 2.480374860169831663e-05
2.957000000000000000e+03 3.434797668457031250e+01 3.358218967914581299e-01 2.611209056340157986e-04 1.117992796935141087e-04 1.118760555982589722e-04 -1.171768526546657085e-04
2.958000000000000000e+03 2.769006538391113281e+01 -1.514107942581176758e+00 -1.741534651955589652e-05 -3.977656888309866190e-05 -1.715757389320060611e-05 9.239897190127521753e-05
2.959000000000000000e+03 3.350965881347656250e+01 6.672669887542724609e+00 -6.667851994279772043e-05 -2.330363931832835078e-04 -8.991447248263284564e-05 -2.594348370621446520e-05
2.960000000000000000e+03 1.071987152099609375e+01 1.438443279266357422e+01 2.156499249394983053e-06 -1.827113374019972980e-05 -4.834390438190894201e-06 -4.211990017211064696e-05
2.961000000000000000e+03 1.322875499725341797e+01 1.535282802581787109e+01 1.868106191977858543e-04 2.763943302852567285e-05 6.433501403080299497e-05 -2.856663195416331291e-04
2.962000000000000000e+03 3.118013381958007812e+01 9.833973884582519531e+00 -6.889393989695236087e-05 -2.193402469856664538e-04 -8.647025970276445150e-05 2.759901399258524179e-04
2.963000000000000000e+03 3.079468154907226562e+01 1.181278514862060547e+01 2.075843949569389224e-04 -4.027756804134696722e-04 -5.855739073012955487e-05 2.255661529488861561e-04
2.964000000000000000e+03 3.693778610229492188e+01 -6.134096622467041016e+00 -4.032915603602305055e-05 -6.437249976443126798e-05 -3.141049819532781839e-05 6.254730396904051304e-05
2.965000000000000000e+03 3.702653121948242188e+01 -3.731669425964355469e+00 7.173280755523592234e-05 1.403329661116003990e-04 6.361973646562546492e-05 -2.898874481616076082e-05
2.966000000000000000e+03 3.095175552368164062e+01 -4.977881431579589844e+00 -1.354130217805504799e-04 2.964842315122950822e-05 -3.172938158968463540e-05 7.890743290772661567e-05
2.967000000000000000e+03 3.116340065002441406e+01 -6.673997879028320312e+00 5.165998300071805716e-05 -4.327139322413131595e-05 2.516576842026552185e-06 8.395154145546257496e-05
2.968000000000000000e+03 1.411402606964111328e+01 9.960493087768554688e+00 2.921622217399999499e-05 -4.462885408429428935e-05 -4.623790118785109371e-06 -1.268474734388291836e-04
2.969000000000000000e+03 3.009854507446289062e+01 -3.808176279067993164e+00 4.859827822656370699e-05 -3.992568599642254412e-05 2.601778533062315546e-06 6.489725637948140502e-05
2.970000000000000000e+03 2.903409767150878906e+01 1.857337760925292969e+01 4.636745725292712450e-04 -5.000246455892920494e-04 -1.090500973077723756e-05 1.513093448011204600e-04
2.971000000000000000e+03 3.076882743835449219e+01 1.633979415893554688e+01 1.385805953759700060e-04 -4.444996011443436146e-04 -9.177569882012903690e-05 4.916943726129829884e-04
2.972000000000000000e+03 3.369290161132812500e+01 2.044044113159179688e+01 1.361268339678645134e-03 -1.045004828483797610e-04 3.770303446799516678e-04 -1.597020454937592149e-04
2.973000000000000000e+03 3.109645843505859375e+01 2.004400062561035156e+01 1.246255589649081230e-03 -3.377966058906167746e-04 2.725376980379223824e-04 -2.423856203677132726e-04
2.974000000000000000e+03 2.500553703308105469e+01 3.487769365310668945e+00 3.419898275751620531e-04 -2.861760367522947490e-05 9.401166607858613133e-05 -1.212939696415560320e-05
2.975000000000000000e+03 2.470912933349609375e+01 1.133052825927734375e+00 8.980191341834142804e-05 5.255897485767491162e-05 4.270826684660278261e-05 -1.436052261851727962e-04
2.976000000000000000e+03 3.830509567260742188e+01 -2.908950805664062500e+00 1.869117986643686891e-04 8.045717549975961447e-05 8.021069515962153673e-05 -7.046297832857817411e-05
2.977000000000000000e+03 3.757072830200195312e+01 -5.120962619781494141e+00 7.631280459463596344e-05 8.707910455996170640e-05 4.901757347397506237e-05 -5.259654790279455483e-05
2.978000000000000000e+03 1.095261287689208984e+01 2.134044456481933594e+01 2.480550028849393129e-04 8.013566548470407724e-05 9.845719614531844854e-05 -4.628612077794969082e-04
2.979000000000000000e+03 1.005612659454345703e+01 2.203952217102050781e+01 -2.124673628713935614e-04 2.019107487285509706e-04 -3.166982196489698254e-06 -9.349248284706845880e-05
2.980000000000000000e+03 1.151659774780273438e+01 2.036804771423339844e+01 1.945838739629834890e-04 1.281974437006283551e-05 6.222108640940859914e-05 -1.572958572069182992e-04
2.981000000000000000e+03 2.666688728332519531e+01 1.417685508728027344e+01 -2.948612564068753272e-05 -2.859598025679588318e-04 -9.463377500651404262e-05 5.275632793200202286e-05
2.982000000000000000e+03 1.243361186981201172e+01 2.817884826660156250e+01 -3.344545257277786732e-04 2.061570266960188746e-04 -3.848925189231522381e-05 -3.630112623795866966e-04
2.983000000000000000e+03 1.163731384277343750e+01 1.893725204467773438e+01 -8.267795783467590809e-05 6.998851313255727291e-05 -3.806832864938769490e-06 -2.286955714225769043e-04
2.984000000000000000e+03 2.690871047973632812e+01 2.089439392089843750e+00 -1.364827185170724988e-04 -4.368104782770387828e-05 -5.404912735684774816e-05 4.348939910414628685e-05
2.985000000000000000e+03 3.487593078613281250e+01 -7.482708454132080078e+00 7.207669841591268778e-05 4.799566158908419311e-05 3.602170909289270639e-05 -8.127777982736006379e-05
2.986000000000000000e+03 3.567246246337890625e+01 -8.025993347167968750e+00 -3.460157313384115696e-05 -4.395985160954296589e-05 -2.356842742301523685e-05 6.372208736138418317e-05
2.987000000000000000e+03 3.189106559753417969e+01 -5.628771305084228516e+00 -1.187274829135276377e-04 2.605216832307633013e-05 -2.780259455903433263e-05 4.648651156458072364e-05
2.988000000000000000e+03 2.874655532836914062e+01 -1.350359916687011719e+00 -1.229282352142035961e-04 -1.921960392792243510e-05 -4.264435119694098830e-05 6.498573930002748966e-05
2.989000000000000000e+03 3.767190551757812500e+01 -1.154751062393188477e+00 1.547411229694262147e-04 -6.567518721567466855e-05 2.671977927093394101e-05 4.810671816812828183e-05
2.990000000000000000e+03 1.224197387695312500e+01 1.199727535247802734e+01 -3.468348222668282688e-05 1.001636746877920814e-06 -1.010455343930516392e-05 -1.408724638167768717e-04
2.991000000000000000e+03 1.212057781219482422e+01 1.292018699645996094e+01 1.444764930056408048e-04 -8.275782602140679955e-05 1.851560045906808227e-05 -3.659764479380100965e-05
2.992000000000000000e+03 2.060473060607910156e+01 6.702806472778320312e+00 -2.528350250941002741e-06 -3.607181497500278056e-06 -1.840659592744486872e-06 -4.785774945048615336e-05
2.993000000000000000e+03 1.941335868835449219e+01 7.665458679199218750e+00 -2.837222200469113886e-05 -1.383690596412634477e-05 -1.266273829969577491e-05 -1.073374733095988631e-04
2.994000000000000000e+03 3.712236404418945312e+01 -7.656164169311523438e+00 -1.380329103994881734e-05 -5.864260310772806406e-05 -2.173376924474723637e-05 4.339555744081735611e-05
2.995000000000000000e+03 3.281649780273437500e+01 -6.487253665924072266e+00 1.299315044889226556e-04 -2.999478510901099071e-06 3.807960456470027566e-05 1.020583113131579012e-05
2.996000000000000000e+03 3.143585205078125000e+01 -5.321952342987060547e+00 9.799895633477717638e-05 2.007516195590142161e-05 3.542223566910251975e-05 -6.954805576242506504e-05
2.997000000000000000e+03 3.584001541137695312e+01 9.136890769004821777e-01 1.459980121580883861e-04 1.689445780357345939e-04 9.448277705814689398e-05 -1.867505488917231560e-04
2.998000000000000000e+03 3.656688308715820312e+01 2.078904360532760620e-01 1.296106165682431310e-05 -1.292477536480873823e-04 -3.488600486889481544e-05 2.226412470918148756e-04
2.999000000000000000e+03 3.791985702514648438e+01 -8.227345466613769531e+00 5.278319804347120225e-06 6.749596650479361415e-05 2.183228571084327996e-05 -2.220335227320902050e-05
3.000000000000000000e+03 3.780021667480468750e+01 -6.672943592071533203e+00 2.343173582630697638e-05 8.751904533710330725e-05 3.328523234813474119e-05 -4.573102341964840889e-05
3.001000000000000000e+03 2.934811592102050781e+01 -1.812908172607421875e+00 1.070289363269694149e-04 7.874042785260826349e-05 5.573080852627754211e-05 -4.356246427050791681e-05
3.002000000000000000e+03 3.417764282226562500e+01 3.040369033813476562e+00 -2.080212871078401804e-04 -6.898155697854235768e-05 -8.310085831908509135e-05 7.315121183637529612e-05
3.003000000000000000e+03 2.502640724182128906e+01 4.530664920806884766e+00 -7.695714884903281927e-05 -5.741218046750873327e-05 -4.031079879496246576e-05 4.020892083644866943e-05
3.004000000000000000e+03 2.385029792785644531e+01 4.470849990844726562e+00 3.185577224940061569e-04 -4.484500459511764348e-05 8.211381646106019616e-05 3.980322435381822288e-05
3.005000000000000000e+03 2.266612052917480469e+01 4.337713718414306641e+00 -1.507875367678934708e-05 -6.224581011338159442e-05 -2.319736995559651405e-05 -7.247610483318567276e-05
3.006000000000000000e+03 1.500662612915039062e+01 9.195242881774902344e+00 -5.557467738981358707e-05 -2.438244155200663954e-05 -2.398713513684924692e-05 -6.249336729524657130e-05
3.007000000000000000e+03 3.548128128051757812e+01 -1.654097795486450195e+00 -4.444551450433209538e-05 -1.802906335797160864e-04 -6.742084224242717028e-05 2.309199189767241478e-04
3.008000000000000000e+03 2.387977218627929688e+01 5.723204612731933594e+00 -4.938614802085794508e-05 -4.452571738511323929e-05 -2.817355925799347460e-05 -3.382950308150611818e-05
3.009000000000000000e+03 2.162161445617675781e+01 6.830862522125244141e+00 3.090630634687840939e-04 -9.727280121296644211e-05 6.353707431117072701e-05 3.027298043889459223e-05
3.010000000000000000e+03 2.881400108337402344e+01 -5.655553936958312988e-01 2.702623314689844847e-04 -1.009575062198564410e-04 5.079145194031298161e-05 4.893717050435952842e-05
3.011000000000000000e+03 1.300197219848632812e+01 1.353903007507324219e+01 1.626425946597009897e-04 4.765293851960450411e-05 6.308865704340860248e-05 -2.785833494272083044e-04
3.012000000000000000e+03 3.214386367797851562e+01 5.826465129852294922e+00 -7.517541234847158194e-05 -2.147232298739254475e-04 -8.696959412191063166e-05 1.480513601563870907e-04
3.013000000000000000e+03 3.337618637084960938e+01 5.590563297271728516e+00 3.076558350585401058e-04 2.352261653868481517e-04 1.628645986784249544e-04 1.073785460903309286e-04
3.014000000000000000e+03 3.938024139404296875e+01 -7.847486972808837891e+00 4.277524112694663927e-07 4.645790977519936860e-05 1.406569845130434260e-05 7.966658813529647887e-06
3.015000000000000000e+03 4.013258743286132812e+01 -6.932772636413574219e+00 9.631218745198566467e-06 -1.020832314679864794e-05 -1.731313972186399042e-07 -2.339671664230991155e-05
3.016000000000000000e+03 1.187393093109130859e+01 1.091151905059814453e+01 2.077069220831617713e-04 6.735667557222768664e-05 8.251908002421259880e-05 -1.585919817443937063e-04
3.017000000000000000e+03 1.126773452758789062e+01 9.873733520507812500e+00 2.038929324044147506e-06 -1.853703361121006310e-05 -4.949431058776099235e-06 -6.840567220933735371e-05
3.018000000000000000e+03 1.457507324218750000e+01 8.584537506103515625e+00 2.327304973732680082e-04 -3.556026422302238643e-05 5.915106885368004441e-05 -2.082711434923112392e-04
3.019000000000000000e+03 1.368941497802734375e+01 1.742772102355957031e+01 6.787265010643750429e-05 5.513814176083542407e-05 3.690323865157552063e-05 -3.726829017978161573e-04
3.020000000000000000e+03 1.800825309753417969e+01 6.725990295410156250e+00 -4.432140849530696869e-05 -1.671709651418495923e-05 -1.831155168474651873e-05 -2.350591603317297995e-05
3.021000000000000000e+03 3.202830886840820312e+01 2.165747642517089844e+01 2.692925336305052042e-04 -8.075044606812298298e-04 -1.614635693840682507e-04 3.082639013882726431e-04
3.022000000000000000e+03 2.872532653808593750e+01 1.190917682647705078e+01 1.304059842368587852e-04 -4.039475461468100548e-04 -8.206247002817690372e-05 2.281000488437712193e-04
3.023000000000000000e+03 2.983904838562011719e+01 1.297129917144775391e+01 5.804680986329913139e-04 9.845940803643316031e-05 2.036782534560188651e-04 -8.667151996633037925e-05
3.024000000000000000e+03 1.374610328674316406e+01 2.215279579162597656e+01 -1.674696432019118220e-05 -5.139487984706647694e-05 -2.044255234068259597e-05 -2.133952220901846886e-04
3.025000000000000000e+03 1.489265918731689453e+01 2.334419822692871094e+01 5.961490023764781654e-05 4.714585156762041152e-05 3.202822699677199125e-05 -5.539184785448014736e-04
3.026000000000000000e+03 4.783967971801757812e+01 -3.527550125122070312e+01 2.130252271890640259e-01 3.165885508060455322e-01 1.588841378688812256e-01 3.550764024257659912e-01
3.027000000000000000e+03 2.776010131835937500e+01 1.775316429138183594e+01 7.075910107232630253e-04 -1.838924363255500793e-04 1.571095781400799751e-04 -2.099127741530537605e-04
3.028000000000000000e+03 2.997271156311035156e+01 -1.353832006454467773e+00 2.915022778324782848e-04 -1.349414233118295670e-04 4.696825635619461536e-05 9.726933785714209080e-05
3.029000000000000000e+03 3.630426788330078125e+01 -7.099816322326660156e+00 5.078884714748710394e-05 7.345304038608446717e-05 3.727256626007147133e-05 -6.467748607974499464e-05
3.030000000000000000e+03 3.261125183105468750e+01 -7.428738117218017578e+00 -1.136565333581529558e-04 5.009590040572220460e-06 -3.259408549638465047e-05 2.693494025152176619e-05
3.031000000000000000e+03 3.104599952697753906e+01 -6.014043807983398438e+00 -1.146454742411151528e-04 -6.102862698753597215e-06 -3.622450094553641975e-05 1.054077711160061881e-05
3.032000000000000000e+03 3.202143478393554688e+01 -5.038015842437744141e+00 2.878651721403002739e-04 -9.201773355016484857e-05 5.875423084944486618e-05 1.015153998196183238e-06
3.033000000000000000e+03 3.119484138488769531e+01 -4.241237163543701172e+00 2.549986238591372967e-04 -3.822226426564157009e-05 6.503290933324024081e-05 5.721039087802637368e-06
3.034000000000000000e+03 3.629942321777343750e+01 -1.826513886451721191e+00 2.065829175990074873e-04 9.610317647457122803e-05 9.080582822207361460e-05 -1.810284884413704276e-04
3.035000000000000000e+03 3.556550979614257812e+01 -4.185354232788085938e+00 5.898903691559098661e-05 1.459483319194987416e-04 6.148120883153751493e-05 -9.669092833064496517e-05
3.036000000000000000e+03 1.313041019439697266e+01 1.184900188446044922e+01 2.663822961039841175e-04 1.478515878261532634e-05 8.435023482888936996e-05 -1.901012728922069073e-04
3.037000000000000000e+03 2.047471046447753906e+01 7.726883411407470703e+00 3.939358575735241175e-04 -1.706859329715371132e-04 6.697497883578762412e-05 -4.410621841088868678e-05
3.038000000000000000e+03 1.958629417419433594e+01 6.555143356323242188e+00 2.825919655151665211e-04 -1.267296756850555539e-04 4.675868331105448306e-05 2.194862281612586230e-05
3.039000000000000000e+03 3.384351348876953125e+01 1.854212164878845215e+00 3.231395676266402006e-04 9.120348840951919556e-05 1.243029255419969559e-04 1.149134004663210362e-05
3.040000000000000000e+03 2.269618606567382812e+01 6.974484443664550781e+00 -9.331602996098808944e-06 -4.163970879744738340e-05 -1.529139262856915593e-05 -9.011955989990383387e-05
3.041000000000000000e+03 3.533526229858398438e+01 2.781834125518798828e+00 4.037361359223723412e-04 7.047258986858651042e-05 1.422626228304579854e-04 1.626123594178352505e-05
3.042000000000000000e+03 3.459712600708007812e+01 -6.116091728210449219e+00 1.137911676778458059e-04 6.407952605513855815e-05 5.336120739229954779e-05 -9.143460192717611790e-05
3.043000000000000000e+03 3.656018447875976562e+01 -4.664774417877197266e+00 -4.703530430560931563e-05 -7.914199522929266095e-05 -3.785318767768330872e-05 5.401812813943251967e-05
3.044000000000000000e+03 1.517850208282470703e+01 1.218134117126464844e+01 2.434479247312992811e-04 -7.779754378134384751e-05 4.969511428498663008e-05 -5.330200656317174435e-05
3.045000000000000000e+03 2.139856338500976562e+01 8.004939079284667969e+00 1.491866714786738157e-04 -2.161788756893656682e-07 4.469114719540812075e-05 -1.124521368183195591e-04
3.046000000000000000e+03 2.248536491394042969e+01 8.354849815368652344e+00 3.890014486387372017e-04 -1.712685334496200085e-04 6.531987310154363513e-05 7.073205779306590557e-05
3.047000000000000000e+03 1.367522811889648438e+01 1.267045116424560547e+01 2.525218224036507308e-05 -4.038824044982902706e-05 -4.540817371889716014e-06 -1.188116584671661258e-05
3.048000000000000000e+03 2.783872985839843750e+01 9.462253451347351074e-01 -1.681774301687255502e-04 -2.259321809106040746e-05 -5.723119465983472764e-05 1.194948999909684062e-04
3.049000000000000000e+03 3.592615890502929688e+01 -6.573392152786254883e-01 7.564984116470441222e-05 2.031997864833101630e-04 8.365488611161708832e-05 -1.846636150730773807e-04
3.050000000000000000e+03 3.517832565307617188e+01 -1.519865542650222778e-01 -5.658180452883243561e-05 -1.602557167643681169e-04 -6.505125929834321141e-05 2.233832492493093014e-04
3.051000000000000000e+03 2.754677391052246094e+01 1.538811874389648438e+01 7.873509312048554420e-04 -1.536430936539545655e-04 1.901123468996956944e-04 -1.421433698851615191e-04
3.052000000000000000e+03 3.027624320983886719e+01 8.767099380493164062e+00 3.983436035923659801e-04 1.399628090439364314e-04 1.614919165149331093e-04 -1.039195776684209704e-04
3.053000000000000000e+03 3.246138381958007812e+01 6.953419208526611328e+00 3.064522461500018835e-04 3.137237508781254292e-04 1.860527991084381938e-04 4.425343286129646003e-05
3.054000000000000000e+03 2.939396476745605469e+01 7.702902793884277344e+00 -1.101708949136082083e-05 -2.126330073224380612e-04 -6.709503213642165065e-05 2.775842731352895498e-04
3.055000000000000000e+03 2.786060714721679688e+01 1.070711040496826172e+01 4.807793593499809504e-04 1.025166202452965081e-04 1.749887887854129076e-04 -1.094299004762433469e-04
3.056000000000000000e+03 2.713856887817382812e+01 3.185680150985717773e+00 3.706315183080732822e-04 -3.199267439413233660e-06 1.102296737371943891e-04 -3.420300708967261016e-05
3.057000000000000000e+03 2.617670822143554688e+01 4.457529544830322266e+00 3.944316995330154896e-04 -2.534385384933557361e-05 1.107263524318113923e-04 -4.968456414644606411e-05
3.058000000000000000e+03 3.087926101684570312e+01 4.776399612426757812e+00 -5.804748070659115911e-05 -1.749751099850982428e-04 -6.990677502471953630e-05 9.162445348920300603e-05
3.059000000000000000e+03 3.276956558227539062e+01 2.162322044372558594e+00 -1.819781464291736484e-04 -6.832514918642118573e-05 -7.509098941227421165e-05 7.171357719926163554e-05
3.060000000000000000e+03 3.410091018676757812e+01 -6.956577777862548828e+00 -5.137044354341924191e-05 -1.240160599991213530e-05 -1.913161577249411494e-05 1.054860913427546620e-04
3.061000000000000000e+03 3.546220779418945312e+01 -6.576312065124511719e+00 -5.272450289339758456e-05 -5.347107799025252461e-05 -3.185867535648867488e-05 8.506907761329784989e-05
3.062000000000000000e+03 3.368247604370117188e+01 -6.152043819427490234e+00 -6.576126907020807266e-05 2.702509618757176213e-06 -1.891762622108217329e-05 -2.862773726519662887e-05
3.063000000000000000e+03 3.419816970825195312e+01 -4.588089942932128906e+00 6.867667980259284377e-05 3.827271211775951087e-05 3.208481939509510994e-05 -8.857076318236067891e-05
3.064000000000000000e+03 3.272185516357421875e+01 -5.229810714721679688e+00 -1.614885259186848998e-04 9.415779459231998771e-06 -4.562182584777474403e-05 1.493637100793421268e-04
3.065000000000000000e+03 1.823925590515136719e+01 9.875149726867675781e+00 3.325176658108830452e-04 -1.701406581560149789e-04 4.871310011367313564e-05 3.886749709636205807e-06
3.066000000000000000e+03 1.658603668212890625e+01 1.101745796203613281e+01 3.741034306585788727e-04 -8.835427433950826526e-05 8.572474325774237514e-05 -1.336978893959894776e-04
3.067000000000000000e+03 2.508664894104003906e+01 5.732289314270019531e+00 4.179695097263902426e-04 -8.420502126682549715e-05 1.001293494482524693e-04 -1.994845115405041724e-05
3.068000000000000000e+03 2.826835823059082031e+01 2.982229471206665039e+00 -1.210467089549638331e-04 -6.849243072792887688e-05 -5.686174336005933583e-05 8.508227620040997863e-05
3.069000000000000000e+03 2.770120620727539062e+01 1.865230500698089600e-01 3.020325093530118465e-04 -7.267432374646887183e-05 6.880745058879256248e-05 -8.471843466395512223e-05
3.070000000000000000e+03 1.668991088867187500e+01 1.499467086791992188e+01 -2.129993954440578818e-04 1.237356918863952160e-04 -2.677911106729879975e-05 -1.677314576227217913e-04
3.071000000000000000e+03 1.391391849517822266e+01 1.425760173797607422e+01 4.432872810866683722e-05 -2.982440491905435920e-05 4.351297320681624115e-06 -4.852164420299232006e-05
3.072000000000000000e+03 2.628564643859863281e+01 5.616846561431884766e+00 -8.144378080032765865e-05 -8.539640839444473386e-05 -5.005205457564443350e-05 1.296631380682811141e-04
3.073000000000000000e+03 3.087033271789550781e+01 -1.173753976821899414e+00 -1.871123095043003559e-04 1.075730469892732799e-04 -2.386177948210388422e-05 -6.075536293792538345e-05
3.074000000000000000e+03 3.208624267578125000e+01 -3.210656642913818359e+00 3.280633827671408653e-04 -1.186920198961161077e-04 6.281141395447775722e-05 2.750280691543594003e-05
3.075000000000000000e+03 3.386025238037109375e+01 -6.742924451828002930e-01 -9.926776692736893892e-05 -1.171526673715561628e-04 -6.492612737929448485e-05 1.436578459106385708e-04
3.076000000000000000e+03 1.519953727722167969e+01 1.002264499664306641e+01 2.807338605634868145e-04 9.927019846145412885e-07 8.451796747976914048e-05 -1.117901047109626234e-04
3.077000000000000000e+03 3.091316413879394531e+01 -2.311860799789428711e+00 2.775486500468105078e-04 -6.426708569051697850e-05 6.398447294486686587e-05 6.785199366277083755e-05
3.078000000000000000e+03 3.699168014526367188e+01 -1.582612633705139160e+00 -1.094108229153789580e-04 6.811253842897713184e-05 -1.238948516402160749e-05 1.032983564073219895e-04
3.079000000000000000e+03 3.464651489257812500e+01 -1.173238515853881836e+00 7.853958231862634420e-05 2.307147078681737185e-04 9.277628851123154163e-05 -1.656666572671383619e-04
3.080000000000000000e+03 3.340304946899414062e+01 -1.519122838973999023e+00 7.928637933218851686e-05 1.582908880664035678e-04 7.127318531274795532e-05 -8.195704140234738588e-05
3.081000000000000000e+03 3.499653244018554688e+01 -2.716181993484497070e+00 8.033082121983170509e-05 1.807956869015470147e-04 7.833795098122209311e-05 -1.394236460328102112e-04
3.082000000000000000e+03 3.098940467834472656e+01 5.901467800140380859e+00 2.711191191338002682e-04 1.364152849419042468e-04 1.222603168571367860e-04 3.609408668125979602e-05
3.083000000000000000e+03 3.295320510864257812e+01 -4.468687057495117188e+00 1.173562341136857867e-04 7.876932068029418588e-05 5.883766789338551462e-05 -1.379078603349626064e-04
3.084000000000000000e+03 2.810412597656250000e+01 1.875620245933532715e+00 3.268506552558392286e-04 2.486845005478244275e-05 1.055157335940748453e-04 -1.861334021668881178e-05
3.085000000000000000e+03 2.730247497558593750e+01 4.296900272369384766e+00 -1.113194011850282550e-04 -7.783698674757033587e-05 -5.674691783497110009e-05 1.212780043715611100e-04
3.086000000000000000e+03 2.064662361145019531e+01 8.700189590454101562e+00 -1.351294049527496099e-04 -4.149157393840141594e-05 -5.298629548633471131e-05 -2.984432830999139696e-05
3.087000000000000000e+03 2.500337409973144531e+01 1.141473674774169922e+01 6.010149372741580009e-04 -2.011507313000038266e-04 1.199592516059055924e-04 1.020759464154252782e-05
3.088000000000000000e+03 1.501586437225341797e+01 2.145838928222656250e+01 3.845789760816842318e-04 -6.945832865312695503e-05 9.453618986299261451e-05 -1.302592718275263906e-04
3.089000000000000000e+03 2.230174636840820312e+01 9.847196578979492188e+00 -1.306050762650556862e-05 -5.933171996730379760e-05 -2.171766755054704845e-05 -1.149669260485097766e-04
3.090000000000000000e+03 1.952748107910156250e+01 9.980823516845703125e+00 -1.632687963137868792e-05 -3.346404628246091306e-05 -1.493727813794976100e-05 -1.217763638123869896e-04
3.091000000000000000e+03 3.203293228149414062e+01 4.620275974273681641e+00 3.336275403853505850e-04 1.498027995694428682e-04 1.450291019864380360e-04 5.269532630336470902e-05
3.092000000000000000e+03 2.966796875000000000e+01 -4.233046472072601318e-01 -1.630310871405526996e-04 1.100503723137080669e-04 -1.589421117387246341e-05 -6.785175355616956949e-05
3.093000000000000000e+03 2.929994964599609375e+01 1.704311013221740723e+00 -1.391058031003922224e-04 -5.008954758523032069e-05 -5.675860302289947867e-05 2.409735679975710809e-05
3.094000000000000000e+03 1.409643363952636719e+01 1.089347934722900391e+01 2.027004666160792112e-04 2.662526821950450540e-05 6.879772263346239924e-05 -1.191943520097993314e-04
3.095000000000000000e+03 3.271794128417968750e+01 -1.194832921028137207e+00 -2.141074801329523325e-04 1.879517185443546623e-05 -5.859369048266671598e-05 3.772617128561250865e-05
3.096000000000000000e+03 3.346940994262695312e+01 -5.177278518676757812e+00 7.682928116992115974e-05 -4.766393431054893881e-06 2.161886550311464816e-05 4.646801244234666228e-05
3.097000000000000000e+03 3.189656829833984375e+01 -2.189708471298217773e+00 -2.623626787681132555e-04 1.376223372062668204e-04 -3.742210174095816910e-05 -2.769664934021420777e-05
3.098000000000000000e+03 2.379720687866210938e+01 8.465601921081542969e+00 -5.987761323922313750e-05 -6.667119123449083418e-06 -1.996341961785219610e-05 -6.001259316690266132e-05
3.099000000000000000e+03 3.245296859741210938e+01 1.081117987632751465e+00 3.232026938349008560e-04 5.940025948802940547e-05 1.147808870882727206e-04 -1.037912988977041095e-05
3.100000000000000000e+03 3.207139968872070312e+01 9.922757744789123535e-03 -2.323202206753194332e-04 1.297978542424971238e-05 -6.580213084816932678e-05 7.642620039405301213e-05
3.101000000000000000e+03 2.606511306762695312e+01 3.381020307540893555e+00 -1.287529885303229094e-04 -6.000767098157666624e-05 -5.662819967255927622e-05 9.919113654177635908e-05
3.102000000000000000e+03 2.760894966125488281e+01 6.668748855590820312e+00 -5.440723907668143511e-05 -7.973916945047676563e-05 -4.024392183055169880e-05 8.667628571856766939e-05
3.103000000000000000e+03 2.745504760742187500e+01 5.449570178985595703e+00 4.042399232275784016e-04 -1.499692075412895065e-06 1.208220710395835340e-04 -5.044635327067226171e-05
3.104000000000000000e+03 2.938762474060058594e+01 6.137275099754333496e-01 2.909041650127619505e-04 -5.975721796858124435e-05 6.934408884262666106e-05 9.103595948545262218e-05
3.105000000000000000e+03 2.942226409912109375e+01 2.798052072525024414e+00 3.253675531595945358e-04 5.242656334303319454e-05 1.133382393163628876e-04 1.453956429031677544e-05
3.106000000000000000e+03 1.406502628326416016e+01 1.185266494750976562e+01 8.655040437588468194e-05 -3.309595922473818064e-05 1.603633427293971181e-05 -1.740614825394004583e-04
3.107000000000000000e+03 1.547035312652587891e+01 1.633438110351562500e+01 -1.049239217536523938e-04 8.398378849960863590e-05 -6.282040430960478261e-06 -3.132141428068280220e-04
3.108000000000000000e+03 1.733439826965332031e+01 9.211066246032714844e+00 2.332054136786609888e-04 6.954627315280959010e-05 9.082550968741998076e-05 -1.708475028863176703e-04
3.109000000000000000e+03 1.651335906982421875e+01 1.235339641571044922e+01 -8.423566760029643774e-05 3.930260572815313935e-05 -1.347991837974404916e-05 -1.616222434677183628e-04
3.110000000000000000e+03 2.974313926696777344e+01 4.981333255767822266e+00 3.045081975869834423e-04 1.236058451468124986e-04 1.284342142753303051e-04 -4.507138510234653950e-05
3.111000000000000000e+03 2.717430686950683594e+01 7.763248920440673828e+00 2.430584427202120423e-04 -2.738608163781464100e-04 -9.240709005098324269e-06 3.140692424494773149e-04
3.112000000000000000e+03 2.882844161987304688e+01 6.499773502349853516e+00 4.179837706033140421e-04 4.398886812850832939e-05 1.385918003506958485e-04 -1.209473266499117017e-04
3.113000000000000000e+03 1.649936103820800781e+01 1.959371566772460938e+01 5.138241103850305080e-04 -2.208899531979113817e-04 8.788025297690182924e-05 -1.438166509615257382e-04
3.114000000000000000e+03 1.658510398864746094e+01 2.140847587585449219e+01 -2.272375277243554592e-04 2.945255801023449749e-05 -5.933548891334794462e-05 -4.414687573444098234e-04
3.115000000000000000e+03 2.649164772033691406e+01 1.274727630615234375e+01 6.929605151526629925e-04 -3.267847350798547268e-04 1.098527354770340025e-04 -2.385863626841455698e-05
3.116000000000000000e+03 2.499747467041015625e+01 9.959852218627929688e+00 -6.883422611281275749e-05 -4.551759775495156646e-05 -3.430554716032929718e-05 -7.279968122020363808e-05
3.117000000000000000e+03 3.102962493896484375e+01 2.469322967529296875e+01 1.668743643676862121e-04 -8.470358443446457386e-04 -2.040484541794285178e-04 -6.693181830996763892e-08
3.118000000000000000e+03 2.743005180358886719e+01 2.466709327697753906e+01 3.943174306186847389e-05 -7.059749914333224297e-04 -1.999629748752340674e-04 -2.082287683151662350e-04
3.119000000000000000e+03 3.460356903076171875e+01 -3.729219675064086914e+00 -1.124693590099923313e-04 -8.907378651201725006e-05 -6.046294220141135156e-05 1.815895375330001116e-04
3.120000000000000000e+03 2.388953399658203125e+01 7.065788745880126953e+00 4.295138060115277767e-04 -1.290173240704461932e-04 9.014894749270752072e-05 4.236745735397562385e-05
3.121000000000000000e+03 2.453192901611328125e+01 1.763056373596191406e+01 1.185030414490029216e-04 -3.694365441333502531e-04 -7.528005517087876797e-05 1.670057390583679080e-04
3.122000000000000000e+03 1.491320133209228516e+01 1.958177185058593750e+01 -8.690468530403450131e-05 3.397109321667812765e-05 -1.588007762620691210e-05 -3.942763141822069883e-04
3.123000000000000000e+03 3.406736373901367188e+01 -2.143043756484985352e+00 7.047001417959108949e-05 -1.931381557369604707e-04 -3.680044028442353010e-05 1.393516868120059371e-04
3.124000000000000000e+03 3.277169036865234375e+01 -2.015837907791137695e+00 2.687983796931803226e-04 -1.298489951295778155e-04 4.168481245869770646e-05 1.082902526832185686e-04
3.125000000000000000e+03 3.184448051452636719e+01 -1.102266550064086914e+00 3.451108641456812620e-04 -6.549704994540661573e-05 8.388413698412477970e-05 2.258343010907992721e-05
3.126000000000000000e+03 3.035623550415039062e+01 6.558046936988830566e-01 -1.188082169392146170e-04 -9.615197996026836336e-06 -3.852702502626925707e-05 -1.329867336608003825e-05
3.127000000000000000e+03 1.544546985626220703e+01 1.403921794891357422e+01 -1.395861327182501554e-04 1.119224543799646199e-05 -3.851816654787398875e-05 -3.572748028091154993e-05
3.128000000000000000e+03 3.301535415649414062e+01 -2.779614031314849854e-01 2.957448305096477270e-04 4.612614429788663983e-05 1.025612946250475943e-04 -2.285307527927216142e-05
3.129000000000000000e+03 2.224699401855468750e+01 1.139236831665039062e+01 4.883051151409745216e-04 -1.991379103856161237e-04 8.675017306813970208e-05 1.512548533355584368e-05
3.130000000000000000e+03 2.089322662353515625e+01 9.891912460327148438e+00 4.557610664051026106e-04 -1.425318187102675438e-04 9.396877430845052004e-05 -4.316020567785017192e-05
3.131000000000000000e+03 3.146907615661621094e+01 1.382551789283752441e+00 -1.561268436489626765e-04 -6.935799319762736559e-05 -6.764545105397701263e-05 8.646177593618631363e-05
3.132000000000000000e+03 2.843085670471191406e+01 4.098733901977539062e+00 3.576466697268188000e-04 4.438650648808106780e-05 1.206099550472572446e-04 -3.851492874673567712e-05
3.133000000000000000e+03 3.056953239440917969e+01 2.628730297088623047e+00 -1.177921949420124292e-04 -9.198079351335763931e-05 -6.293189653661102057e-05 5.933569627813994884e-05
3.134000000000000000e+03 1.946278381347656250e+01 1.123810672760009766e+01 3.995583392679691315e-04 -1.650172052904963493e-04 7.036233728285878897e-05 -8.688908565090969205e-05
3.135000000000000000e+03 1.801454162597656250e+01 1.107100391387939453e+01 -9.123740710492711514e-06 -1.511335904069710523e-05 -7.271130016306415200e-06 -1.261290453840047121e-04
3.136000000000000000e+03 2.995482826232910156e+01 6.040832042694091797e+00 3.769187242141924798e-05 -2.431684843031689525e-04 -6.164298247313126922e-05 2.480784605722874403e-04
3.137000000000000000e+03 3.187585639953613281e+01 3.502184152603149414e+00 -1.329500082647427917e-04 -1.163464112323708832e-04 -7.478892075596377254e-05 7.475235179299488664e-05
3.138000000000000000e+03 2.957322502136230469e+01 3.884567499160766602e+00 -8.885257557267323136e-05 -1.212119022966362536e-04 -6.301934627117589116e-05 1.036229296005330980e-04
3.139000000000000000e+03 2.514883422851562500e+01 8.524804115295410156e+00 5.525906453840434551e-04 -2.492391795385628939e-04 9.100544411921873689e-05 7.749013457214459777e-05
3.140000000000000000e+03 1.679302406311035156e+01 1.638516998291015625e+01 6.137546733953058720e-04 -2.822536334861069918e-04 9.945030615199357271e-05 -2.057154924841597676e-04
3.141000000000000000e+03 2.516618728637695312e+01 1.627492713928222656e+01 2.950328344013541937e-04 -2.049759350484237075e-04 2.701706762309186161e-05 -2.348633279325440526e-04
3.142000000000000000e+03 2.343500709533691406e+01 1.893502998352050781e+01 5.595314432866871357e-04 -1.746216439642012119e-04 1.154729325207881629e-04 -4.447353421710431576e-04
3.143000000000000000e+03 2.621707534790039062e+01 9.953931808471679688e+00 5.776868201792240143e-04 -1.407267700415104628e-04 1.310880033997818828e-04 7.207525050034746528e-05
3.144000000000000000e+03 2.349896240234375000e+01 1.482882118225097656e+01 3.778226528083905578e-05 -1.545995182823389769e-04 -3.504517371766269207e-05 -6.487804785137996078e-05
3.145000000000000000e+03 2.826735687255859375e+01 2.016423797607421875e+01 7.727109477855265141e-04 -2.530999481678009033e-04 1.558833027957007289e-04 -3.321969124954193830e-04
3.146000000000000000e+03 3.043137741088867188e+01 1.603724122047424316e+00 2.821544185280799866e-04 6.645949179073795676e-05 1.045841709128580987e-04 2.933099676738493145e-05
3.147000000000000000e+03 1.518382358551025391e+01 1.781041526794433594e+01 3.960962349083274603e-04 -1.758757571224123240e-04 6.606614624615758657e-05 -1.024016746669076383e-04
3.148000000000000000e+03 3.072611808776855469e+01 3.690764665603637695e+00 3.147969255223870277e-04 1.067173579940572381e-04 1.264542806893587112e-04 2.755702917056623846e-05
3.149000000000000000e+03 1.934190559387207031e+01 1.256148815155029297e+01 2.253979255328886211e-05 -3.043535434699151665e-05 -2.368668447161326185e-06 -1.300398580497130752e-04
3.150000000000000000e+03 2.086998939514160156e+01 1.132279777526855469e+01 5.068542577646439895e-06 -5.607299681287258863e-05 -1.530133704363834113e-05 -1.133379410021007061e-04
3.151000000000000000e+03 1.785311698913574219e+01 1.367521667480468750e+01 -6.932381802471354604e-05 2.926207707787398249e-05 -1.201852137455716729e-05 -1.392361155012622476e-04
3.152000000000000000e+03 1.669477081298828125e+01 1.791950416564941406e+01 -1.791370741557329893e-04 1.125041017076000571e-04 -1.998989318963140249e-05 -3.674823383335024118e-04
3.153000000000000000e+03 1.466118335723876953e+01 1.326483345031738281e+01 2.361614315304905176e-04 -1.179783885163487867e-05 6.730907625751569867e-05 -3.436483966652303934e-04
3.154000000000000000e+03 2.361509895324707031e+01 1.144142246246337891e+01 -3.448304414632730186e-05 -7.500398351112380624e-05 -3.284610647824592888e-05 -1.055386455846019089e-04
3.155000000000000000e+03 2.457756805419921875e+01 2.001584815979003906e+01 1.243562146555632353e-04 -4.646110173780471087e-04 -1.020764393615536392e-04 4.426997838891111314e-05
3.156000000000000000e+03 2.189933204650878906e+01 1.473166942596435547e+01 4.538424254860728979e-04 -3.136997984256595373e-04 4.204278229735791683e-05 -4.310722943046130240e-05
3.157000000000000000e+03 2.356299591064453125e+01 1.304798984527587891e+01 5.767956026829779148e-04 -2.466329606249928474e-04 9.904878243105486035e-05 -4.436132712726248428e-06
3.158000000000000000e+03 1.869729042053222656e+01 2.288778686523437500e+01 -1.988871372304856777e-04 -9.278091602027416229e-05 -8.750041160965338349e-05 -3.210119612049311399e-04
3.159000000000000000e+03 2.645407676696777344e+01 6.843145370483398438e+00 4.074282478541135788e-04 1.087368127627996728e-05 1.254905801033601165e-04 -1.610035833436995745e-04
3.160000000000000000e+03 1.655599212646484375e+01 1.368544483184814453e+01 5.070460611023008823e-04 -1.956038468051701784e-04 9.343267447547987103e-05 -1.751101808622479439e-04
3.161000000000000000e+03 2.074069023132324219e+01 1.278232383728027344e+01 4.243492439854890108e-04 -2.178797585656866431e-04 6.194084562594071031e-05 -7.119921792764216661e-05
3.162000000000000000e+03 2.046113777160644531e+01 1.426483821868896484e+01 9.286798740504309535e-05 -2.644362029968760908e-05 1.992731085920240730e-05 -1.997478248085826635e-04
3.163000000000000000e+03 1.988447570800781250e+01 1.568671894073486328e+01 3.123217611573636532e-04 -3.044618351850658655e-04 2.357980747547117062e-06 1.135266393248457462e-05
3.164000000000000000e+03 2.823416328430175781e+01 8.619466781616210938e+00 2.991895307786762714e-04 1.460915809730067849e-04 1.335843262495473027e-04 -1.604380668140947819e-04
3.165000000000000000e+03 1.806954765319824219e+01 1.817071533203125000e+01 3.924548800569027662e-04 -3.102274786215275526e-04 2.466821388225071132e-05 2.367616070841904730e-05
3.166000000000000000e+03 2.118790245056152344e+01 1.645038604736328125e+01 2.787486009765416384e-04 -2.736164242378436029e-05 7.541608647443354130e-05 -3.934186242986470461e-04
3.167000000000000000e+03 2.329559898376464844e+01 2.180348587036132812e+01 5.975178210064768791e-04 -2.317620237590745091e-04 1.097267377190291882e-04 -5.418119835667312145e-04
3.168000000000000000e+03 1.803170013427734375e+01 1.600428962707519531e+01 -8.548898040316998959e-05 -7.765638292767107487e-05 -4.894360608886927366e-05 4.010735574411228299e-05
3.169000000000000000e+03 2.724785804748535156e+01 9.538296699523925781e+00 1.096754858735948801e-04 -3.094323328696191311e-04 -5.992705700919032097e-05 2.471027546562254429e-04
3.170000000000000000e+03 1.778410148620605469e+01 1.488216972351074219e+01 5.198597209528088570e-04 -2.661188191268593073e-04 7.612226181663572788e-05 -2.256276493426412344e-04
3.171000000000000000e+03 2.111354064941406250e+01 1.904682159423828125e+01 4.649724869523197412e-04 -1.175859360955655575e-04 1.042159638018347323e-04 -4.438381874933838844e-04
3.172000000000000000e+03 2.008439826965332031e+01 1.786495590209960938e+01 1.544013939565047622e-04 -3.100087342318147421e-04 -4.668220572057180107e-05 2.793845669657457620e-05
3.173000000000000000e+03 1.975778007507324219e+01 2.024930191040039062e+01 -4.297345367376692593e-05 -2.195407869294285774e-04 -7.875427399994805455e-05 -1.329730730503797531e-04
3.174000000000000000e+03 5.590766906738281250e+00 -2.116564941406250000e+01 8.947695459937676787e-05 -9.982752089854329824e-06 2.384826075285673141e-05 -8.814154716674238443e-05
3.175000000000000000e+03 4.212755584716796875e+01 -3.255947875976562500e+01 1.915187202394008636e-02 -8.618757128715515137e-01 -2.528171539306640625e-01 -1.271422058343887329e-01
3.176000000000000000e+03 5.572073364257812500e+01 -3.650976562500000000e+01 -2.928676903247833252e-01 1.422623872756958008e+00 3.389268517494201660e-01 -2.071840912103652954e-01
3.177000000000000000e+03 7.501296997070312500e+01 3.585432434082031250e+01 -2.553952634334564209e-01 6.985918521881103516e+00 2.019156932830810547e+00 4.113740324974060059e-01
3.178000000000000000e+03 3.546984100341796875e+01 2.350039100646972656e+01 1.466305810026824474e-03 1.138470033765770495e-04 4.740458680316805840e-04 -2.085663290927186608e-04
3.179000000000000000e+03 3.460073471069335938e+01 2.204922485351562500e+01 4.386587825138121843e-04 -9.634153684601187706e-04 -1.574269845150411129e-04 5.396081251092255116e-04
3.180000000000000000e+03 5.311003875732421875e+01 3.782625579833984375e+01 -3.483232483267784119e-02 1.484405715018510818e-03 -1.000437606126070023e-02 5.305300652980804443e-02
3.181000000000000000e+03 7.369128417968750000e+01 3.641125869750976562e+01 -3.819409310817718506e-01 6.406999588012695312e+00 1.807517647743225098e+00 1.727612316608428955e-01
3.182000000000000000e+03 2.606937408447265625e+01 2.343455314636230469e+01 6.157609750516712666e-04 -2.417004434391856194e-04 1.122181638493202627e-04 -4.931645235046744347e-04
3.183000000000000000e+03 4.269329452514648438e+01 2.990710449218750000e+01 1.708254567347466946e-03 -3.522211918607354164e-03 -5.441872635856270790e-04 8.732029236853122711e-04
3.184000000000000000e+03 2.454523658752441406e+01 2.448629570007324219e+01 -1.826758089009672403e-04 -3.405696479603648186e-04 -1.569736341480165720e-04 -4.671019560191780329e-04
3.185000000000000000e+03 2.103549003601074219e+01 2.903783226013183594e+01 3.655035689007490873e-04 -2.478415262885391712e-04 3.529860987327992916e-05 -5.104059819132089615e-04
3.186000000000000000e+03 4.721548080444335938e+01 3.522948837280273438e+01 -7.704495918005704880e-03 -4.989431239664554596e-03 -3.808178240433335304e-03 4.670430440455675125e-03
3.187000000000000000e+03 1.525979137420654297e+01 2.967543983459472656e+01 -4.045687383040785789e-04 1.400403562001883984e-04 -7.935852045193314552e-05 -3.671261656563729048e-04
3.188000000000000000e+03 2.667714118957519531e+01 2.801255226135253906e+01 -4.015576269011944532e-04 -4.636860103346407413e-04 -2.595731057226657867e-04 -4.758919239975512028e-04
3.189000000000000000e+03 3.833021926879882812e+01 3.109036064147949219e+01 1.760298968292772770e-03 -1.660128706134855747e-03 3.005108010256662965e-05 -9.141102200374007225e-04
3.190000000000000000e+03 3.914885330200195312e+01 7.484391689300537109e+00 5.464989808388054371e-04 3.265582490712404251e-04 2.619171573314815760e-04 1.616504887351766229e-04
3.191000000000000000e+03 5.888621520996093750e+01 -1.572368431091308594e+01 -1.478450576541945338e-05 1.387251450069015846e-05 -2.735974646839167690e-07 -1.079804133041761816e-05
3.192000000000000000e+03 7.156666564941406250e+01 -2.536619758605957031e+01 6.542147994041442871e-01 2.783161163330078125e+00 1.031212806701660156e+00 -1.600782275199890137e+00
3.193000000000000000e+03 4.064595413208007812e+01 -2.051959800720214844e+01 -1.164366494776913896e-06 -8.003447146620601416e-05 -2.435965325275901705e-05 2.289792610099539161e-05
3.194000000000000000e+03 7.204862976074218750e+01 -2.895333290100097656e+01 1.120916604995727539e+00 3.437693357467651367e+00 1.367583036422729492e+00 2.367851734161376953e+00
3.195000000000000000e+03 7.179529571533203125e+01 -2.918878364562988281e+01 8.225699067115783691e-01 2.849592685699462891e+00 1.101648807525634766e+00 1.948126316070556641e+00
3.196000000000000000e+03 7.220535278320312500e+01 -2.931024360656738281e+01 6.424738168716430664e-01 4.789547920227050781e+00 1.629606485366821289e+00 2.542627811431884766e+00
3.197000000000000000e+03 7.318453216552734375e+01 -2.922278594970703125e+01 -2.078098207712173462e-01 9.775916099548339844e+00 2.870431900024414062e+00 2.187782526016235352e+00
3.198000000000000000e+03 7.346382141113281250e+01 -2.898663330078125000e+01 -3.128444850444793701e-01 1.141402530670166016e+01 3.330354213714599609e+00 1.604881644248962402e+00
3.199000000000000000e+03 7.401295471191406250e+01 -2.932007789611816406e+01 -4.653584957122802734e-01 1.145760726928710938e+01 3.297674655914306641e+00 1.944930553436279297e-01
3.200000000000000000e+03 7.451760864257812500e+01 -2.918545341491699219e+01 1.779825538396835327e-01 1.148913383483886719e+01 3.500134944915771484e+00 -9.344950318336486816e-01
3.201000000000000000e+03 7.517372131347656250e+01 -2.761566734313964844e+01 4.000750541687011719e+00 1.032155418395996094e+01 4.296691417694091797e+00 -6.438861489295959473e-01
3.202000000000000000e+03 7.524963378906250000e+01 -2.742043304443359375e+01 3.912611484527587891e+00 1.014586353302001953e+01 4.217542648315429688e+00 -1.971406042575836182e-01
3.203000000000000000e+03 7.465608215332031250e+01 -2.569636726379394531e+01 6.429464221000671387e-01 1.153337860107421875e+01 3.652897596359252930e+00 1.099599361419677734e+00
3.204000000000000000e+03 7.332415771484375000e+01 -2.541308975219726562e+01 -3.870033919811248779e-01 1.022114753723144531e+01 2.950243234634399414e+00 -1.975735545158386230e+00
3.205000000000000000e+03 7.298955535888671875e+01 -2.569290733337402344e+01 -1.727339066565036774e-02 9.256595611572265625e+00 2.771796464920043945e+00 -3.001618623733520508e+00
3.206000000000000000e+03 7.275618743896484375e+01 -2.533730506896972656e+01 -3.296059370040893555e-02 7.788212776184082031e+00 2.326575517654418945e+00 -2.761597871780395508e+00
3.207000000000000000e+03 7.255053710937500000e+01 -2.541263389587402344e+01 3.783146440982818604e-01 6.410103321075439453e+00 2.036525249481201172e+00 -2.922506570816040039e+00
3.208000000000000000e+03 7.237245941162109375e+01 -2.569445228576660156e+01 8.356762528419494629e-01 5.517907619476318359e+00 1.906075239181518555e+00 -3.193723917007446289e+00
3.209000000000000000e+03 7.219597625732421875e+01 -2.566859245300292969e+01 8.255149722099304199e-01 4.739649295806884766e+00 1.669549226760864258e+00 -2.703622817993164062e+00
3.210000000000000000e+03 3.935020065307617188e+01 -1.922724151611328125e+01 -5.438125754153588787e-06 -3.421872315811924636e-05 -1.189705471915658563e-05 -1.584200981596950442e-05
3.211000000000000000e+03 3.867386245727539062e+01 -1.827353286743164062e+01 -2.027417940553277731e-05 -4.766713027493096888e-05 -2.038239290413912386e-05 3.666023621917702258e-05
3.212000000000000000e+03 5.780942916870117188e+01 -1.596321296691894531e+01 2.005827627726830542e-05 -2.557585685281082988e-05 -1.655273877076979261e-06 -2.394098919467069209e-05
3.213000000000000000e+03 4.204530715942382812e+01 -2.420077705383300781e+01 -3.708553966134786606e-03 -4.162912666797637939e-01 -1.259999424219131470e-01 -5.938133969902992249e-02
3.214000000000000000e+03 3.794063949584960938e+01 -1.744207382202148438e+01 -9.272862371290102601e-06 -5.228346253716154024e-06 -4.350362814875552431e-06 2.935836675987957278e-07
3.215000000000000000e+03 7.138352966308593750e+01 -3.008901214599609375e+01 4.433732926845550537e-01 2.779535293579101562e+00 9.668725728988647461e-01 1.506007313728332520e+00
3.216000000000000000e+03 7.363975524902343750e+01 -2.974656486511230469e+01 -7.004182338714599609e-01 9.938658714294433594e+00 2.771472215652465820e+00 9.649626016616821289e-01
3.217000000000000000e+03 7.379777526855468750e+01 -2.948224639892578125e+01 -5.185381174087524414e-01 1.088837337493896484e+01 3.110950708389282227e+00 6.114062666893005371e-01
3.218000000000000000e+03 7.273293304443359375e+01 -2.942059326171875000e+01 1.178854256868362427e-01 7.370329856872558594e+00 2.246464490890502930e+00 2.601770162582397461e+00
3.219000000000000000e+03 7.230998992919921875e+01 -2.390613365173339844e+01 1.159335672855377197e-01 6.014313220977783203e+00 1.839074134826660156e+00 -1.683346033096313477e+00
3.220000000000000000e+03 3.093286991119384766e+00 -3.783031463623046875e+01 1.568955922266468406e-04 8.005912532098591328e-04 2.872460463549941778e-04 4.473280278034508228e-04
3.221000000000000000e+03 4.637974262237548828e+00 -3.679251098632812500e+01 -1.768351648934185505e-04 5.353383021429181099e-04 1.075509426300413907e-04 4.736927803605794907e-04
3.222000000000000000e+03 3.024580001831054688e+00 -2.990316009521484375e+01 -2.475648652762174606e-04 7.898854528320953250e-05 -5.057289308751933277e-05 9.154839062830433249e-05
3.223000000000000000e+03 7.325716400146484375e+01 -2.491878890991210938e+01 -4.504236280918121338e-01 9.205587387084960938e+00 2.626549243927001953e+00 -1.937391638755798340e+00
3.224000000000000000e+03 7.462016296386718750e+01 -2.514991760253906250e+01 -1.667761057615280151e-01 1.098530292510986328e+01 3.245558023452758789e+00 6.237071156501770020e-01
3.225000000000000000e+03 7.557224273681640625e+01 -2.620215034484863281e+01 2.000222921371459961e+00 1.015313053131103516e+01 3.646006107330322266e+00 1.294810295104980469e+00
3.226000000000000000e+03 7.546607971191406250e+01 -2.762976455688476562e+01 3.440543413162231445e+00 9.884533882141113281e+00 3.997523069381713867e+00 -5.723727941513061523e-01
3.227000000000000000e+03 7.522702789306640625e+01 -2.898690795898437500e+01 1.018935084342956543e+00 1.072535228729248047e+01 3.523286104202270508e+00 -1.525619626045227051e+00
3.228000000000000000e+03 4.117759323120117188e+01 -1.969065856933593750e+01 2.877556471503339708e-05 7.692942745052278042e-06 1.094055187422782183e-05 2.353019954171031713e-05
3.229000000000000000e+03 7.125752258300781250e+01 1.100753498077392578e+01 -6.546869874000549316e-01 9.605115890502929688e+00 2.685128688812255859e+00 -1.596398055553436279e-01
3.230000000000000000e+03 4.096270751953125000e+01 3.563134765625000000e+01 -7.880131015554070473e-04 -3.115451429039239883e-03 -1.171039417386054993e-03 -1.979788765311241150e-03
3.231000000000000000e+03 4.484695053100585938e+01 -2.777726554870605469e+01 -1.732299327850341797e-01 -5.163568854331970215e-01 -2.068760395050048828e-01 -5.116459727287292480e-01
3.232000000000000000e+03 3.961773681640625000e+01 -3.568730163574218750e+01 6.730494648218154907e-02 -4.776410162448883057e-01 -1.231008246541023254e-01 -2.029462605714797974e-01
3.233000000000000000e+03 4.487001800537109375e+01 -2.541944885253906250e+01 -9.854745119810104370e-02 -5.400902032852172852e-01 -1.915912926197052002e-01 -6.230049133300781250e-01
3.234000000000000000e+03 3.590065479278564453e+00 -3.487860870361328125e+01 -7.991976599441841245e-05 3.646195109467953444e-04 8.540992712369188666e-05 3.129869000986218452e-04
3.235000000000000000e+03 7.455270385742187500e+01 -2.997873115539550781e+01 -6.179192662239074707e-01 1.038511466979980469e+01 2.930158853530883789e+00 -4.324788153171539307e-01
3.236000000000000000e+03 7.496342468261718750e+01 -3.038759231567382812e+01 -6.867753863334655762e-01 9.888510704040527344e+00 2.760520458221435547e+00 -7.496996521949768066e-01
3.237000000000000000e+03 3.845244598388671875e+01 -3.446893310546875000e+01 -1.095193475484848022e-01 -3.827530741691589355e-01 -1.476817280054092407e-01 -2.788678705692291260e-01
3.238000000000000000e+03 4.951974868774414062e+01 3.554211425781250000e+01 -1.643581315875053406e-02 3.654749132692813873e-03 -3.834318835288286209e-03 1.060581859201192856e-02
3.239000000000000000e+03 2.295282363891601562e+00 3.682653045654296875e+01 -1.089662036974914372e-04 7.759100990369915962e-04 2.000831591431051493e-04 2.533068254706449807e-05
3.240000000000000000e+03 2.662680435180664062e+01 -8.777029991149902344e+00 1.970340781554114074e-05 -1.511481605120934546e-05 1.376577529299538583e-06 3.189821291016414762e-05
3.241000000000000000e+03 4.630137252807617188e+01 3.290129470825195312e+01 -3.436717670410871506e-03 -1.532522379420697689e-03 -1.490772003307938576e-03 1.085475785657763481e-03
3.242000000000000000e+03 1.946376609802246094e+01 -1.155143356323242188e+01 -4.227810495649464428e-05 4.428115971677470952e-06 -1.135499678639462218e-05 4.886506985712912865e-07
3.243000000000000000e+03 7.555307006835937500e+01 -2.547848510742187500e+01 7.339704632759094238e-01 1.030141067504882812e+01 3.310614347457885742e+00 1.317637324333190918e+00
3.244000000000000000e+03 7.347097015380859375e+01 -2.457696914672851562e+01 -4.753693938255310059e-01 8.928365707397460938e+00 2.535898685455322266e+00 -1.414061903953552246e+00
3.245000000000000000e+03 4.411841869354248047e+00 -3.084024429321289062e+01 -1.641946291783824563e-04 1.319430302828550339e-04 -9.675480214355047792e-06 2.099504490615800023e-04
3.246000000000000000e+03 1.054433822631835938e+01 2.917426586151123047e+00 3.890155494445934892e-05 3.737743827514350414e-05 2.288369796588085592e-05 -1.191799401567550376e-05
3.247000000000000000e+03 7.263308715820312500e+01 -2.997771835327148438e+01 -1.255563348531723022e-01 6.639116764068603516e+00 1.954068064689636230e+00 2.152411222457885742e+00
3.248000000000000000e+03 7.299171447753906250e+01 -3.012521743774414062e+01 -5.105764269828796387e-01 7.577665805816650391e+00 2.120126724243164062e+00 1.711327672004699707e+00
3.249000000000000000e+03 7.426216125488281250e+01 -2.442562675476074219e+01 -7.434182763099670410e-01 1.001866436004638672e+01 2.782573938369750977e+00 -2.747846841812133789e-01
3.250000000000000000e+03 5.336086273193359375e+01 -3.599576187133789062e+01 -1.914411634206771851e-01 1.434254646301269531e+00 3.728440403938293457e-01 2.140388190746307373e-01
3.251000000000000000e+03 7.847598266601562500e+01 -2.648016548156738281e+01 3.756738901138305664e-01 7.909328937530517578e+00 2.485500812530517578e+00 4.035667777061462402e-01
3.252000000000000000e+03 3.036153221130371094e+01 -1.360328197479248047e+01 -4.932572846882976592e-05 1.038211280501855072e-06 -1.448625516786705703e-05 1.196134144265670329e-05
3.253000000000000000e+03 5.848827362060546875e+01 -2.233732414245605469e+01 -4.169566631317138672e-01 1.592462539672851562e+00 3.526517450809478760e-01 1.114291071891784668e+00
3.254000000000000000e+03 1.280681800842285156e+01 -3.186886024475097656e+01 3.593841101974248886e-03 9.926155325956642628e-05 1.107930787838995457e-03 1.021700911223888397e-03
3.255000000000000000e+03 4.485728836059570312e+01 -2.600498008728027344e+01 -2.620382420718669891e-02 -5.789642333984375000e-01 -1.815504133701324463e-01 -6.240662336349487305e-01
3.256000000000000000e+03 4.568383407592773438e+01 -2.496450424194335938e+01 -1.103659272193908691e-01 -4.469779431819915771e-01 -1.672031581401824951e-01 -6.949555277824401855e-01
3.257000000000000000e+03 5.617930603027343750e+01 -2.292471122741699219e+01 -2.469769418239593506e-01 1.246312141418457031e+00 2.998005449771881104e-01 5.568692684173583984e-01
3.258000000000000000e+03 4.584530258178710938e+01 -2.901226425170898438e+01 2.970243245363235474e-02 -3.175991773605346680e-01 -8.636902272701263428e-02 -2.960608899593353271e-01
3.259000000000000000e+03 2.870439338684082031e+01 -3.568248748779296875e+01 -8.220720104873180389e-03 -1.410138607025146484e-02 -6.696631666272878647e-03 -1.068782620131969452e-02
3.260000000000000000e+03 4.995631027221679688e+01 -3.283301544189453125e+01 4.775388836860656738e-01 6.407905817031860352e-01 3.354988396167755127e-01 4.320605397224426270e-01
3.261000000000000000e+03 7.576602172851562500e+01 -2.808771896362304688e+01 2.516653060913085938e+00 9.690556526184082031e+00 3.662162780761718750e+00 -1.052166581153869629e+00
3.262000000000000000e+03 7.202381896972656250e+01 -2.950050544738769531e+01 6.328182816505432129e-01 4.396711826324462891e+00 1.508859038352966309e+00 2.321780204772949219e+00
3.263000000000000000e+03 1.087843132019042969e+01 3.469617605209350586e+00 1.189653557958081365e-04 3.805861706496216357e-05 4.710719440481625497e-05 -7.032082066871225834e-05
3.264000000000000000e+03 5.889476394653320312e+01 -2.310546875000000000e+01 -1.932107098400592804e-02 1.751397609710693359e+00 5.196229815483093262e-01 1.157521605491638184e+00
3.265000000000000000e+03 4.766102600097656250e+01 3.367532730102539062e+01 3.352286759763956070e-03 -7.222808199003338814e-04 7.890017586760222912e-04 -9.443642338737845421e-04
3.266000000000000000e+03 9.649633407592773438e+00 -1.473419761657714844e+01 -6.057955033611506224e-05 -1.811752554203849286e-05 -2.360912185395136476e-05 4.327132774051278830e-05
3.267000000000000000e+03 1.839992523193359375e+01 -9.712188720703125000e+00 6.313042831607162952e-06 -8.032428922888357192e-06 -5.158158273843582720e-07 -6.630757525272201747e-06
3.268000000000000000e+03 7.548136901855468750e+01 -2.789222908020019531e+01 3.131954193115234375e+00 9.971420288085937500e+00 3.931012153625488281e+00 -8.841569423675537109e-01
3.269000000000000000e+03 7.275729370117187500e+01 -3.025584030151367188e+01 -4.225116372108459473e-01 6.873073577880859375e+00 1.935168623924255371e+00 1.836241364479064941e+00
3.270000000000000000e+03 7.293154144287109375e+01 -2.357322311401367188e+01 -3.154044747352600098e-01 7.145747661590576172e+00 2.049103021621704102e+00 -1.272590041160583496e+00
3.271000000000000000e+03 2.314148330688476562e+01 3.268324279785156250e+01 1.047832338372245431e-04 -3.155172453261911869e-04 -6.322020635707303882e-05 -5.282327183522284031e-04
3.272000000000000000e+03 6.585733032226562500e+01 -1.982306480407714844e+01 -8.614755868911743164e-01 2.633172571659088135e-01 -1.794475018978118896e-01 6.033506393432617188e-01
3.273000000000000000e+03 6.544378662109375000e+01 -1.912357711791992188e+01 -4.461424946784973145e-01 6.168188452720642090e-01 5.120290815830230713e-02 7.451694607734680176e-01
3.274000000000000000e+03 5.800220870971679688e+01 -2.348955917358398438e+01 2.512465715408325195e-01 1.723771572113037109e+00 5.925054550170898438e-01 1.052595615386962891e+00
3.275000000000000000e+03 7.533377838134765625e+01 -2.504234123229980469e+01 8.643484115600585938e-02 1.037288093566894531e+01 3.137794733047485352e+00 1.088276147842407227e+00
3.276000000000000000e+03 7.352741241455078125e+01 -2.427974128723144531e+01 -6.692932844161987305e-01 8.649194717407226562e+00 2.393970489501953125e+00 -1.057915806770324707e+00
3.277000000000000000e+03 7.290893554687500000e+01 -2.413374137878417969e+01 -3.783040344715118408e-01 7.542077541351318359e+00 2.149132013320922852e+00 -1.743509411811828613e+00
3.278000000000000000e+03 9.659010887145996094e+00 -3.573105812072753906e+00 -2.227424556622281671e-05 -3.492478936095722020e-05 -1.715970938676036894e-05 -1.189956219604937360e-05
3.279000000000000000e+03 7.642859649658203125e+01 -2.809834671020507812e+01 1.714289784431457520e+00 9.162704467773437500e+00 3.263098239898681641e+00 -8.115016222000122070e-01
3.280000000000000000e+03 5.330058288574218750e+01 -2.512678909301757812e+01 4.463397860527038574e-01 8.960629701614379883e-01 4.027208387851715088e-01 -1.219637244939804077e-01
3.281000000000000000e+03 7.659134864807128906e+00 -3.203131866455078125e+01 2.995212271343916655e-04 2.755159766820725054e-05 9.812184725888073444e-05 5.298576434142887592e-04
3.282000000000000000e+03 7.044192504882812500e+01 -1.157879066467285156e+01 2.672095894813537598e-01 4.499233722686767578e+00 1.429933071136474609e+00 -1.777135208249092102e-02
3.283000000000000000e+03 7.463320922851562500e+01 -3.080816268920898438e+01 -9.656634926795959473e-01 9.536084175109863281e+00 2.571126222610473633e+00 -2.793609201908111572e-01
3.284000000000000000e+03 5.141829299926757812e+01 -2.812377166748046875e+01 8.489064574241638184e-01 6.055210232734680176e-01 4.363282322883605957e-01 -6.709862500429153442e-02
3.285000000000000000e+03 1.601154518127441406e+01 -8.733285903930664062e+00 6.256312917685136199e-05 -9.317452168033923954e-06 1.597370282979682088e-05 9.145640433416701853e-06
3.286000000000000000e+03 1.520137786865234375e+01 -9.219999313354492188e+00 8.345765672856941819e-05 -7.365216788457473740e-06 2.282773129991255701e-05 -1.091806188924238086e-05
3.287000000000000000e+03 3.429642486572265625e+01 -1.525670433044433594e+01 3.740860847756266594e-05 -1.386805593028839212e-06 1.080654146790038794e-05 -2.893302371376194060e-05
3.288000000000000000e+03 2.236683082580566406e+01 -1.739731431007385254e+00 1.008956314763054252e-04 -2.905901237681973726e-05 2.155098445655312389e-05 -7.779712177580222487e-05
3.289000000000000000e+03 7.309429931640625000e+01 -3.097898864746093750e+01 -9.082964658737182617e-01 7.215361118316650391e+00 1.892119407653808594e+00 1.171669363975524902e+00
3.290000000000000000e+03 7.085263061523437500e+01 -1.304484081268310547e+01 2.815618216991424561e-01 4.374580383300781250e+00 1.396842718124389648e+00 -2.831523418426513672e-01
3.291000000000000000e+03 7.344239044189453125e+01 -3.280694198608398438e+01 -1.047450304031372070e+00 6.860663890838623047e+00 1.743964076042175293e+00 5.631370544433593750e-01
3.292000000000000000e+03 3.716006040573120117e+00 3.637156248092651367e+00 -1.692121441010385752e-05 -4.125232862861594185e-06 -6.313934136414900422e-06 5.519311798707349226e-06
3.293000000000000000e+03 7.615961456298828125e+01 -2.405029869079589844e+01 -3.736996650695800781e-01 9.565523147583007812e+00 2.757546901702880859e+00 1.102933883666992188e+00
3.294000000000000000e+03 1.634968948364257812e+01 2.369629859924316406e+00 4.215016087982803583e-05 -3.691631718538701534e-05 1.570153244756511413e-06 2.187945483456132933e-06
3.295000000000000000e+03 1.105374717712402344e+01 4.192039489746093750e+00 5.326137397787533700e-06 7.226992693176725879e-08 1.619522208784474060e-06 -5.062954369350336492e-05
3.296000000000000000e+03 4.109624862670898438e+01 3.289508819580078125e+00 9.486483031651005149e-05 -1.537615898996591568e-04 -1.766902641975320876e-05 6.808834586990997195e-05
3.297000000000000000e+03 4.888010406494140625e+01 -2.549296188354492188e+01 8.935853838920593262e-02 -1.179708167910575867e-01 -8.583685383200645447e-03 -6.348099112510681152e-01
3.298000000000000000e+03 7.502580261230468750e+01 2.088706588745117188e+01 1.366101652383804321e-01 7.686147689819335938e+00 2.346827507019042969e+00 2.439943701028823853e-02
3.299000000000000000e+03 7.485052490234375000e+01 -3.324682998657226562e+01 -9.968745708465576172e-01 8.041421890258789062e+00 2.113364219665527344e+00 9.396845474839210510e-03
3.300000000000000000e+03 7.687472534179687500e+01 -2.343578147888183594e+01 -3.715677857398986816e-01 9.285775184631347656e+00 2.674262046813964844e+00 1.051870822906494141e+00
3.301000000000000000e+03 7.546464538574218750e+01 3.119595336914062500e+01 -9.646908938884735107e-02 7.216358661651611328e+00 2.135967016220092773e+00 6.386168003082275391e-01
3.302000000000000000e+03 7.439440917968750000e+01 -3.237345886230468750e+01 -1.112908601760864258e+00 8.048921585083007812e+00 2.080803871154785156e+00 1.035368442535400391e-01
3.303000000000000000e+03 3.530778884887695312e+01 9.943910598754882812e+00 -6.875023245811462402e-05 -1.221511338371783495e-04 -5.727040843339636922e-05 4.958776989951729774e-04
3.304000000000000000e+03 1.195557212829589844e+01 -6.119665622711181641e+00 2.151362059521488845e-05 4.742075907415710390e-05 2.068031426460947841e-05 -9.721854439703747630e-06
3.305000000000000000e+03 1.128401947021484375e+01 -4.807000160217285156e+00 -5.109348421683534980e-06 -4.308696952648460865e-05 -1.445889483875362203e-05 -8.740916200622450560e-06
3.306000000000000000e+03 7.487269592285156250e+01 -3.263246536254882812e+01 -1.070540785789489746e+00 8.459106445312500000e+00 2.216569662094116211e+00 -1.546600759029388428e-01
3.307000000000000000e+03 2.947311019897460938e+01 -8.817520141601562500e+00 4.427053227118449286e-06 1.815503492252901196e-05 6.774626399419503286e-06 -7.457297760993242264e-05
3.308000000000000000e+03 3.954628753662109375e+01 1.443916916847229004e+00 1.964127441169694066e-04 -2.005484711844474077e-04 -1.240720166606479324e-06 1.281047298107296228e-04
3.309000000000000000e+03 4.097974777221679688e+01 1.573809146881103516e+00 1.495509932283312082e-04 -9.597103780834004283e-05 1.607398553460370749e-05 3.338255919516086578e-05
3.310000000000000000e+03 8.586066246032714844e+00 2.541038894653320312e+01 -1.845815277192741632e-04 2.649846719577908516e-04 2.412093999737408012e-05 -3.719241940416395664e-04
3.311000000000000000e+03 2.717801666259765625e+01 2.183724212646484375e+01 3.048438229598104954e-04 -7.263700244948267937e-04 -1.264578604605048895e-04 -7.451340934494510293e-05
3.312000000000000000e+03 7.522547912597656250e+01 2.797551727294921875e+01 2.014656513929367065e-01 7.237995624542236328e+00 2.231838464736938477e+00 5.751064419746398926e-01
3.313000000000000000e+03 5.036721706390380859e+00 3.036880302429199219e+01 2.154275898647028953e-05 5.363314994610846043e-04 1.673622900852933526e-04 -1.321945746894925833e-04
3.314000000000000000e+03 7.625633239746093750e+01 -2.337020111083984375e+01 -6.244052052497863770e-01 9.360583305358886719e+00 2.620853424072265625e+00 8.811973929405212402e-01
3.315000000000000000e+03 4.467325973510742188e+01 -9.926271438598632812e+00 5.115911335451528430e-05 -5.347391379473265260e-06 1.374351631966419518e-05 5.259175395622150972e-06
3.316000000000000000e+03 3.598246002197265625e+01 1.275358104705810547e+01 4.897159524261951447e-04 4.487024561967700720e-04 2.815255138557404280e-04 -9.095917630475014448e-05
3.317000000000000000e+03 7.512650299072265625e+01 -6.904880523681640625e+00 -5.045302212238311768e-02 7.136373043060302734e+00 2.125776052474975586e+00 -6.676664352416992188e-01
3.318000000000000000e+03 7.384925079345703125e+01 -7.988021373748779297e+00 -4.948740452527999878e-02 6.719389438629150391e+00 2.000970602035522461e+00 -5.480408072471618652e-01
3.319000000000000000e+03 7.445124816894531250e+01 -7.320355892181396484e+00 -4.638354480266571045e-02 6.971312046051025391e+00 2.077478647232055664e+00 -6.528801321983337402e-01
3.320000000000000000e+03 4.430389022827148438e+01 -1.264452648162841797e+01 3.754241697606630623e-05 3.857200135826133192e-05 2.283432513650041074e-05 -3.616870526457205415e-05
3.321000000000000000e+03 1.052898788452148438e+01 -5.165906906127929688e+00 -2.370924812566954643e-05 -2.497223613318055868e-05 -1.460444491385715082e-05 -1.499368590884841979e-05
3.322000000000000000e+03 1.082441520690917969e+01 -6.287512779235839844e+00 -6.968775323912268505e-06 7.779121006024070084e-06 2.431035568406514358e-07 -1.435404101357562467e-06
3.323000000000000000e+03 4.400009155273437500e+01 -1.607532882690429688e+01 1.480476930737495422e-05 3.324838326079770923e-05 1.441594486095709726e-05 2.696627689147135243e-06
3.324000000000000000e+03 1.863187789916992188e+01 3.381953716278076172e+00 2.190947852795943618e-04 -3.386780008440837264e-05 5.556809628615155816e-05 -8.453481859760358930e-05
3.325000000000000000e+03 4.434407043457031250e+01 -8.201507568359375000e+00 -1.026171885314397514e-04 -6.270917765505146235e-06 -3.266643034294247627e-05 -7.870748959248885512e-05
3.326000000000000000e+03 4.390734481811523438e+01 -9.752326011657714844e+00 -6.374899385264143348e-05 -3.255458432249724865e-05 -2.889107418013736606e-05 -7.036169699858874083e-05
3.327000000000000000e+03 1.175103473663330078e+01 2.224388694763183594e+01 -1.292596716666594148e-04 1.024354642140679061e-04 -8.047261871979571879e-06 -1.174485878436826169e-04
3.328000000000000000e+03 3.180780982971191406e+01 -7.135382175445556641e+00 7.937366899568587542e-05 3.507744986563920975e-05 3.433533856878057122e-05 -4.809933670912869275e-05
3.329000000000000000e+03 4.550455856323242188e+01 -1.574090671539306641e+01 2.956163552880752832e-05 1.107837670133449137e-05 1.219200385094154626e-05 -2.858772404579212889e-06
3.330000000000000000e+03 3.205514907836914062e+01 1.338597202301025391e+01 8.495969814248383045e-04 9.928917279466986656e-06 2.578577550593763590e-04 7.279214332811534405e-05
3.331000000000000000e+03 3.368800735473632812e+01 1.402066326141357422e+01 8.439963567070662975e-04 7.683949661441147327e-05 2.762507647275924683e-04 5.220065359026193619e-04
3.332000000000000000e+03 3.672015762329101562e+01 1.756855130195617676e+00 4.643982174457050860e-05 -1.135695638367906213e-04 -2.013892299146391451e-05 3.741157997865229845e-04
3.333000000000000000e+03 9.271252632141113281e+00 8.662263870239257812e+00 1.007280734484083951e-04 1.028057304210960865e-04 6.106014188844710588e-05 -1.510660367785021663e-04
3.334000000000000000e+03 7.415589904785156250e+01 -1.077372455596923828e+01 8.530765771865844727e-03 6.599305629730224609e+00 1.982350945472717285e+00 -6.278001666069030762e-01
3.335000000000000000e+03 6.193965435028076172e+00 1.643371200561523438e+01 2.740447962423786521e-05 1.668623299337923527e-04 5.828004213981330395e-05 -1.122984176618047059e-04
3.336000000000000000e+03 2.972211265563964844e+01 1.733776092529296875e+01 9.655032772570848465e-04 -2.818062203004956245e-04 2.051091141765937209e-04 -2.640805323608219624e-04
3.337000000000000000e+03 2.391379547119140625e+01 1.062266588211059570e+00 1.273996604140847921e-04 8.042800618568435311e-05 6.234829925233498216e-05 -7.269748311955481768e-05
3.338000000000000000e+03 2.362237167358398438e+01 1.918110728263854980e+00 2.997583651449531317e-04 -8.568245903006754816e-06 8.735703886486589909e-05 -1.327460540778702125e-05
3.339000000000000000e+03 2.423807716369628906e+01 1.547430276870727539e+00 -2.557487096055410802e-05 -4.179032112006098032e-05 -2.020955798798240721e-05 6.295885395957157016e-05
3.340000000000000000e+03 1.046036243438720703e+01 2.040335845947265625e+01 -1.182125633931718767e-04 1.135021157097071409e-04 -1.413133759342599660e-06 -1.342643663519993424e-04
3.341000000000000000e+03 1.015061759948730469e+01 1.916114616394042969e+01 2.051103801932185888e-04 1.381956826662644744e-04 1.029918203130364418e-04 -2.794152242131531239e-04
3.342000000000000000e+03 1.586487293243408203e+01 6.764038085937500000e+00 2.493604552000761032e-04 -3.938569079764420167e-06 7.362656469922512770e-05 -4.258742410456761718e-05
3.343000000000000000e+03 3.187689208984375000e+01 1.215812110900878906e+01 -2.658715238794684410e-04 1.322908210568130016e-04 -4.007421011920087039e-05 2.257190353702753782e-04
3.344000000000000000e+03 3.159242630004882812e+01 -6.187980651855468750e+00 4.299939246266148984e-05 6.270577432587742805e-05 3.171155185555107892e-05 -4.212699423078447580e-05
3.345000000000000000e+03 9.345411300659179688e+00 1.241799926757812500e+01 1.148207684309454635e-05 3.276843244748306461e-06 4.427676230989163741e-06 -2.611213676573242992e-05
3.346000000000000000e+03 1.918436050415039062e+01 5.281794548034667969e+00 6.890026998007670045e-05 -5.391867307480424643e-05 4.494479981076437980e-06 -3.573255162336863577e-05
3.347000000000000000e+03 2.469207191467285156e+01 2.044346094131469727e+00 3.378608962520956993e-04 -1.115225531975738704e-04 6.790149927837774158e-05 -5.853568654856644571e-05
3.348000000000000000e+03 7.259039402008056641e+00 2.189363479614257812e+01 -2.081295533571392298e-04 3.113911661785095930e-04 3.097848821198567748e-05 -1.375671417918056250e-04
3.349000000000000000e+03 1.421291255950927734e+01 9.162984848022460938e+00 1.698575943009927869e-04 -1.131761564465705305e-06 5.061774936621077359e-05 -4.666571112466044724e-05
3.350000000000000000e+03 3.717843627929687500e+01 -4.545988142490386963e-01 -2.351154216739814728e-05 1.474054006393998861e-04 3.716815626830793917e-05 -1.252970250789076090e-04
3.351000000000000000e+03 8.151158332824707031e+00 1.884605598449707031e+01 2.234030580439139158e-05 1.588152517797425389e-04 5.434667036752216518e-05 -2.620106388349086046e-04
3.352000000000000000e+03 2.497575569152832031e+01 2.649511098861694336e+00 -1.244128216058015823e-04 -2.206617500633001328e-05 -4.394369898363947868e-05 2.490606493665836751e-05
3.353000000000000000e+03 3.247137069702148438e+01 -5.877999305725097656e+00 1.073745297617278993e-04 4.085158070665784180e-05 4.446783350431360304e-05 -1.251944486284628510e-04
3.354000000000000000e+03 2.585632133483886719e+01 2.363192558288574219e+00 3.496953868307173252e-04 1.412919488075203844e-07 1.049510028678923845e-04 -6.440109427785500884e-05
3.355000000000000000e+03 1.475757980346679688e+01 1.485055828094482422e+01 1.837185845943167806e-04 -1.443197379558114335e-05 5.078598042018711567e-05 -2.947598404716700315e-04
3.356000000000000000e+03 3.726399993896484375e+01 -2.225625753402709961e+00 2.500799600966274738e-04 -7.158858352340757847e-05 5.354741369956173003e-05 -1.194194774143397808e-04
3.357000000000000000e+03 3.001189804077148438e+01 -2.258543968200683594e+00 -1.614063658053055406e-04 3.325255647723679431e-06 -4.742433520732447505e-05 4.129574881517328322e-05
3.358000000000000000e+03 2.771722602844238281e+01 1.313184642791748047e+01 4.670003254432231188e-04 4.468875340535305440e-05 1.535067276563495398e-04 -1.022573724185349420e-05
3.359000000000000000e+03 3.657158660888671875e+01 -1.083263635635375977e+00 -4.030055060866288841e-05 -9.722214599605649710e-05 -4.125680789002217352e-05 1.680691493675112724e-04
3.360000000000000000e+03 3.503850936889648438e+01 -5.145464897155761719e+00 -6.120895704952999949e-05 -5.475373473018407822e-05 -3.478880898910574615e-05 9.633298759581521153e-05
3.361000000000000000e+03 1.634402465820312500e+01 9.810909271240234375e+00 -4.216239176457747817e-05 -7.993887265911325812e-05 -3.663037932710722089e-05 -4.680001802626065910e-05
3.362000000000000000e+03 2.860506629943847656e+01 5.248950958251953125e+00 -8.174878894351422787e-05 -1.217193785123527050e-04 -6.104045314714312553e-05 1.748178910929709673e-04
3.363000000000000000e+03 3.658537673950195312e+01 -2.555881261825561523e+00 -1.600415271241217852e-04 2.037990198004990816e-04 1.312724998570047319e-05 3.758545426535420120e-05
3.364000000000000000e+03 3.057535934448242188e+01 -2.006370127201080322e-01 2.229438832728192210e-04 -1.264067104784771800e-04 2.896115256589837372e-05 1.920845243148505688e-04
3.365000000000000000e+03 3.318297576904296875e+01 -2.884578466415405273e+00 -1.516800548415631056e-04 1.517647615401074290e-04 2.540994081812186778e-08 -6.918089638929814100e-05
3.366000000000000000e+03 3.364791107177734375e+01 -3.812273502349853516e+00 1.151573815150186419e-04 -3.311167529318481684e-05 2.461371150275226682e-05 6.676218617940321565e-05
3.367000000000000000e+03 4.454376983642578125e+01 -2.153533744812011719e+01 -4.292029142379760742e-01 -8.570218086242675781e-02 -1.544715315103530884e-01 -2.218127697706222534e-01
3.368000000000000000e+03 4.525796890258789062e+01 -2.133341026306152344e+01 -6.150345802307128906e-01 -1.120449751615524292e-01 -2.181238681077957153e-01 -2.724941074848175049e-01
3.369000000000000000e+03 4.405188369750976562e+01 -2.244241142272949219e+01 -2.420184314250946045e-01 -1.744952350854873657e-01 -1.249541044235229492e-01 -3.187499344348907471e-01
3.370000000000000000e+03 4.615114593505859375e+01 -2.184869003295898438e+01 -6.641069650650024414e-01 -1.788177490234375000e-01 -2.528774142265319824e-01 -4.592443108558654785e-01
3.371000000000000000e+03 4.545270156860351562e+01 -2.204736137390136719e+01 -4.969623982906341553e-01 -1.707795858383178711e-01 -2.003225982189178467e-01 -4.179247617721557617e-01
3.372000000000000000e+03 4.475288772583007812e+01 -2.224522018432617188e+01 -3.503969907760620117e-01 -2.006161957979202271e-01 -1.653039455413818359e-01 -3.819411098957061768e-01
3.373000000000000000e+03 4.597079086303710938e+01 -2.113067054748535156e+01 -7.890231013298034668e-01 -8.087753504514694214e-02 -2.609702050685882568e-01 -3.086310327053070068e-01
3.374000000000000000e+03 4.382838821411132812e+01 -2.173659515380859375e+01 -2.397920191287994385e-01 -7.874894887208938599e-02 -9.556228667497634888e-02 -1.699605882167816162e-01
3.375000000000000000e+03 4.742242813110351562e+01 -2.080677986145019531e+01 -1.255084276199340820e+00 -8.139543235301971436e-02 -4.009439051151275635e-01 -3.758324086666107178e-01
3.376000000000000000e+03 4.815383148193359375e+01 -2.066137695312500000e+01 -1.496299862861633301e+00 -1.214330941438674927e-01 -4.853198826313018799e-01 -4.140495657920837402e-01
3.377000000000000000e+03 4.686201095581054688e+01 -2.167665290832519531e+01 -8.263800740242004395e-01 -1.482557505369186401e-01 -2.923907339572906494e-01 -5.056868791580200195e-01
3.378000000000000000e+03 4.830693054199218750e+01 -2.138541984558105469e+01 -1.168253660202026367e+00 -1.507818847894668579e-01 -3.957106769084930420e-01 -5.666507482528686523e-01
3.379000000000000000e+03 4.888698577880859375e+01 -2.051945686340332031e+01 -1.721305131912231445e+00 -9.199335426092147827e-02 -5.439895391464233398e-01 -4.595400989055633545e-01
3.380000000000000000e+03 4.903206253051757812e+01 -2.124509811401367188e+01 -1.345913290977478027e+00 -1.764991283416748047e-01 -4.567237198352813721e-01 -5.840341448783874512e-01
3.381000000000000000e+03 4.758355331420898438e+01 -2.152922821044921875e+01 -9.897227883338928223e-01 -1.832023561000823975e-01 -3.518775403499603271e-01 -5.378941893577575684e-01
3.382000000000000000e+03 4.669285964965820312e+01 -2.095580101013183594e+01 -1.002935409545898438e+00 -9.935193508863449097e-02 -3.306861817836761475e-01 -3.315221369266510010e-01
3.383000000000000000e+03 5.036022949218750000e+01 -2.024225044250488281e+01 -2.168607711791992188e+00 -1.023024842143058777e-01 -6.812730431556701660e-01 -5.255846977233886719e-01
3.384000000000000000e+03 5.123764038085937500e+01 -2.082924842834472656e+01 -1.811648130416870117e+00 -1.148915886878967285e-01 -5.779619216918945312e-01 -6.089808940887451172e-01
3.385000000000000000e+03 4.976291656494140625e+01 -2.110580253601074219e+01 -1.511104345321655273e+00 -1.393181234598159790e-01 -4.951267540454864502e-01 -6.098413467407226562e-01
3.386000000000000000e+03 5.197274780273437500e+01 -2.068717575073242188e+01 -1.939714550971984863e+00 -1.243886575102806091e-01 -6.192309856414794922e-01 -5.754327178001403809e-01
3.387000000000000000e+03 5.050101470947265625e+01 -2.096874237060546875e+01 -1.668929576873779297e+00 -1.615934222936630249e-01 -5.491569042205810547e-01 -6.068084239959716797e-01
3.388000000000000000e+03 5.183234024047851562e+01 -1.996061325073242188e+01 -2.544358015060424805e+00 -1.071501895785331726e-01 -7.954524755477905273e-01 -5.721057057380676270e-01
3.389000000000000000e+03 4.962194442749023438e+01 -2.037934684753417969e+01 -1.949245810508728027e+00 -1.253556311130523682e-01 -6.223804354667663574e-01 -4.861892759799957275e-01
3.390000000000000000e+03 5.109704208374023438e+01 -2.010272216796875000e+01 -2.370022773742675781e+00 -1.281908452510833740e-01 -7.494640946388244629e-01 -5.461412072181701660e-01
3.391000000000000000e+03 5.405023574829101562e+01 -1.952743339538574219e+01 -2.783111572265625000e+00 -1.090469062328338623e-01 -8.676475286483764648e-01 -5.510724782943725586e-01
3.392000000000000000e+03 5.331044006347656250e+01 -1.967299842834472656e+01 -2.751746177673339844e+00 -9.402436763048171997e-02 -8.537311553955078125e-01 -5.763006806373596191e-01
3.393000000000000000e+03 5.271442794799804688e+01 -2.054370307922363281e+01 -2.025464296340942383e+00 -6.598227471113204956e-02 -6.274340152740478516e-01 -5.394668579101562500e-01
3.394000000000000000e+03 5.495590972900390625e+01 -2.010264968872070312e+01 -1.998438239097595215e+00 1.934495940804481506e-02 -5.937280058860778809e-01 -2.598944902420043945e-01
3.395000000000000000e+03 5.478977203369140625e+01 -1.938115119934082031e+01 -2.768061399459838867e+00 -9.255664050579071045e-02 -8.581854104995727539e-01 -5.391041636466979980e-01
3.396000000000000000e+03 5.420899581909179688e+01 -2.025038337707519531e+01 -2.091762542724609375e+00 1.483796071261167526e-02 -6.230773925781250000e-01 -3.967045843601226807e-01
3.397000000000000000e+03 5.257042312622070312e+01 -1.981785011291503906e+01 -2.676875591278076172e+00 -1.269772499799728394e-01 -8.411558270454406738e-01 -5.780069828033447266e-01
3.398000000000000000e+03 5.346182250976562500e+01 -2.039739990234375000e+01 -2.087464809417724609e+00 -5.445189401507377625e-02 -6.425750255584716797e-01 -4.748906791210174561e-01
3.399000000000000000e+03 5.553008651733398438e+01 -1.920907402038574219e+01 -2.551339387893676758e+00 -1.197139248251914978e-01 -8.013159632682800293e-01 -4.978472292423248291e-01
3.400000000000000000e+03 5.725695419311523438e+01 -1.950564956665039062e+01 -1.441684961318969727e+00 4.267761409282684326e-01 -3.044726550579071045e-01 2.628689706325531006e-01
3.401000000000000000e+03 5.571527862548828125e+01 -1.992561912536621094e+01 -1.890167593955993652e+00 1.621922552585601807e-01 -5.183926224708557129e-01 -8.882374316453933716e-02
3.402000000000000000e+03 5.802567672729492188e+01 -1.928994750976562500e+01 -1.119405388832092285e+00 5.953193902969360352e-01 -1.572258025407791138e-01 5.353371500968933105e-01
3.403000000000000000e+03 5.701029205322265625e+01 -1.880601882934570312e+01 -1.759664177894592285e+00 4.243948496878147125e-03 -5.266260504722595215e-01 -2.282982468605041504e-01
3.404000000000000000e+03 5.627075195312500000e+01 -1.900946998596191406e+01 -2.166391849517822266e+00 -3.880302887409925461e-03 -6.510816812515258789e-01 -4.040599763393402100e-01
3.405000000000000000e+03 5.774827575683593750e+01 -1.859877204895019531e+01 -1.246987581253051758e+00 1.673230975866317749e-01 -3.238993585109710693e-01 -3.938116878271102905e-02
3.406000000000000000e+03 5.648667907714843750e+01 -1.971755790710449219e+01 -1.722539901733398438e+00 2.436854690313339233e-01 -4.436563253402709961e-01 7.357153296470642090e-02
3.407000000000000000e+03 5.914070129394531250e+01 -1.790256118774414062e+01 2.283579707145690918e-01 6.184173226356506348e-01 2.540325820446014404e-01 5.251755118370056152e-01
3.408000000000000000e+03 5.952583312988281250e+01 -1.853448677062988281e+01 -3.577277660369873047e-01 1.091333270072937012e+00 2.200816422700881958e-01 8.771855235099792480e-01
3.409000000000000000e+03 6.026574707031250000e+01 -1.809379196166992188e+01 1.084556579589843750e-01 1.548425555229187012e+00 4.970643818378448486e-01 1.100878596305847168e+00
3.410000000000000000e+03 5.878223419189453125e+01 -1.896722793579101562e+01 -8.041301965713500977e-01 9.436833262443542480e-01 4.186593368649482727e-02 7.077077627182006836e-01
3.411000000000000000e+03 6.099867248535156250e+01 -1.764663124084472656e+01 3.159945607185363770e-01 1.800553679466247559e+00 6.349644660949707031e-01 9.672956466674804688e-01
3.412000000000000000e+03 6.048994827270507812e+01 -1.708762741088867188e+01 1.457585692405700684e+00 1.671531915664672852e+00 9.387353062629699707e-01 1.356950759887695312e+00
3.413000000000000000e+03 5.845867919921875000e+01 -1.829862213134765625e+01 -5.202335119247436523e-01 3.142881393432617188e-01 -6.178360432386398315e-02 2.439426034688949585e-01
3.414000000000000000e+03 5.981904220581054688e+01 -1.749854469299316406e+01 7.983684539794921875e-01 7.892566323280334473e-01 4.762875139713287354e-01 9.402751326560974121e-01
3.415000000000000000e+03 6.389270019531250000e+01 -1.315513706207275391e+01 8.649780750274658203e-01 1.358527302742004395e+00 6.670516133308410645e-01 1.109822273254394531e+00
3.416000000000000000e+03 6.362155151367187500e+01 -1.258993911743164062e+01 8.284451365470886230e-01 1.162367820739746094e+00 5.972439050674438477e-01 1.013775825500488281e+00
3.417000000000000000e+03 6.364220046997070312e+01 -1.379344177246093750e+01 7.353411316871643066e-01 1.353427171707153320e+00 6.266304850578308105e-01 1.108879327774047852e+00
3.418000000000000000e+03 6.329390716552734375e+01 -1.445079326629638672e+01 8.667864203453063965e-01 1.310899257659912109e+00 6.533057093620300293e-01 1.200041294097900391e+00
3.419000000000000000e+03 6.296297836303710938e+01 -1.507676315307617188e+01 9.123822450637817383e-01 1.346798658370971680e+00 6.777542829513549805e-01 1.148115277290344238e+00
3.420000000000000000e+03 6.250194549560546875e+01 -1.563844871520996094e+01 8.948078155517578125e-01 1.462401032447814941e+00 7.071626782417297363e-01 1.220471739768981934e+00
3.421000000000000000e+03 6.201707839965820312e+01 -1.631484985351562500e+01 1.040998339653015137e+00 1.568084836006164551e+00 7.827249765396118164e-01 1.251540660858154297e+00
3.422000000000000000e+03 6.148456954956054688e+01 -1.575653648376464844e+01 8.431149125099182129e-01 2.032769203186035156e+00 8.627652525901794434e-01 1.349581003189086914e+00
3.423000000000000000e+03 6.157407379150390625e+01 -1.705956077575683594e+01 8.879479765892028809e-01 1.561753630638122559e+00 7.349104881286621094e-01 1.018668889999389648e+00
3.424000000000000000e+03 6.322280120849609375e+01 -1.338076305389404297e+01 7.572314143180847168e-01 1.098913550376892090e+00 5.568434596061706543e-01 1.010208725929260254e+00
3.425000000000000000e+03 6.233250427246093750e+01 -1.494980430603027344e+01 8.716902732849121094e-01 1.534690737724304199e+00 7.219142913818359375e-01 1.149665713310241699e+00
3.426000000000000000e+03 6.185053634643554688e+01 -1.498038387298583984e+01 8.104052543640136719e-01 1.871117353439331055e+00 8.044567704200744629e-01 1.183111906051635742e+00
3.427000000000000000e+03 6.265357208251953125e+01 -1.377886962890625000e+01 6.049288511276245117e-01 1.292836904525756836e+00 5.693297386169433594e-01 9.467900395393371582e-01
3.428000000000000000e+03 6.103660202026367188e+01 -1.651272010803222656e+01 1.307248353958129883e+00 2.296203374862670898e+00 1.081035494804382324e+00 1.520696401596069336e+00
3.429000000000000000e+03 6.219382095336914062e+01 -1.432803440093994141e+01 6.324445605278015137e-01 1.673474788665771484e+00 6.917757987976074219e-01 1.043745040893554688e+00
3.430000000000000000e+03 6.283056640625000000e+01 -1.454834175109863281e+01 8.975145816802978516e-01 1.339024186134338379e+00 6.709616184234619141e-01 1.181827187538146973e+00
3.431000000000000000e+03 6.100513076782226562e+01 -1.542561531066894531e+01 6.624168690905207768e-06 3.938578629458788782e-06 3.168824150634463876e-06 4.991798618902976159e-07
3.432000000000000000e+03 5.980083084106445312e+01 -1.543185615539550781e+01 -1.340567905572243035e-05 -2.708342253754381090e-05 -1.214673102367669344e-05 -7.580309102195315063e-06
3.433000000000000000e+03 6.019709777832031250e+01 -1.577101421356201172e+01 1.495626020187046379e-05 1.117550255003152415e-06 4.822143182536819950e-06 1.831160375331819523e-06
3.434000000000000000e+03 6.056436157226562500e+01 -1.607985115051269531e+01 -4.559806257020682096e-06 -2.905872179326252081e-06 -2.239703462691977620e-06 2.267571062475326471e-06
3.435000000000000000e+03 6.142192840576171875e+01 -1.476541900634765625e+01 -9.033097740029916167e-06 -2.420023974991636351e-06 -3.435936378082260489e-06 -2.206238832513918169e-06
3.436000000000000000e+03 6.213092422485351562e+01 -1.359696483612060547e+01 -4.545353931462159380e-06 -3.592316204503731569e-07 -1.471375639994221274e-06 -1.258246129509643652e-06
3.437000000000000000e+03 6.144266128540039062e+01 -1.412735176086425781e+01 -2.728437721088994294e-06 -6.014154223521472886e-07 -9.989558975576073863e-07 -1.320580736319243442e-06
3.438000000000000000e+03 6.036208724975585938e+01 -1.491959762573242188e+01 1.596329752828751225e-06 -9.545729881210718304e-06 -2.384820163570111617e-06 1.265980699827196077e-06
3.439000000000000000e+03 6.065115356445312500e+01 -1.523142147064208984e+01 -1.495922242611413822e-05 -1.631637360333115794e-06 -4.977257958671543747e-06 3.426055400268523954e-06
3.440000000000000000e+03 6.182951354980468750e+01 -1.412581539154052734e+01 1.019022602122277021e-05 1.096290930036047939e-06 3.385955096746329218e-06 2.829565346473827958e-06
3.441000000000000000e+03 6.099356460571289062e+01 -1.469548988342285156e+01 8.828108548186719418e-06 1.167452955996850505e-05 6.150791250547626987e-06 -5.082072220830013976e-07
3.442000000000000000e+03 5.861434173583984375e+01 -1.637038230895996094e+01 -1.457337384636048228e-05 1.344168140349211171e-06 -3.968761575379176065e-06 -4.881925974586920347e-07
3.443000000000000000e+03 5.907415390014648438e+01 -1.671718597412109375e+01 1.481117578805424273e-05 1.875959060271270573e-05 1.007122955343220383e-05 6.865766863484168425e-06
3.444000000000000000e+03 5.928987884521484375e+01 -1.589454174041748047e+01 1.830379915190860629e-05 1.733040699036791921e-05 1.069026166078401729e-05 -1.803455347726412583e-06
3.445000000000000000e+03 5.789558410644531250e+01 -1.685814666748046875e+01 3.359945822012377903e-06 2.180848014177172445e-06 1.662238219068967737e-06 3.335774636070709676e-06
3.446000000000000000e+03 5.817584609985351562e+01 -1.755254173278808594e+01 -1.258396537195949350e-06 -1.549156877445057034e-05 -5.024989150115288794e-06 8.674967830302193761e-06
3.447000000000000000e+03 6.003462982177734375e+01 -1.659701728820800781e+01 5.434389549918705598e-06 2.168602577512501739e-06 2.280897660966729745e-06 -2.775117764031165279e-06
3.448000000000000000e+03 5.967214584350585938e+01 -1.625088500976562500e+01 -9.611677342036273330e-06 -1.054018775903386995e-05 -6.045559530321042985e-06 -3.701859441207488999e-06
3.449000000000000000e+03 5.885440826416015625e+01 -1.725676536560058594e+01 -6.328681138256797567e-06 2.664428393472917378e-05 6.094680884416447952e-06 -2.924640966739389114e-06
3.450000000000000000e+03 5.944448852539062500e+01 -1.698521423339843750e+01 -8.828431418805848807e-06 -2.026373658736702055e-05 -8.727650310902390629e-06 -6.612811375816818327e-06
3.451000000000000000e+03 5.587814712524414062e+01 -1.781697273254394531e+01 -4.114135663257911801e-05 -2.837877582351211458e-05 -2.085603955492842942e-05 4.130877186980796978e-06
3.452000000000000000e+03 5.585419845581054688e+01 -1.838780212402343750e+01 -1.187037355521169957e-06 -5.311832865118049085e-05 -1.629160942684393376e-05 1.474780583521351218e-05
3.453000000000000000e+03 5.528112792968750000e+01 -1.847929763793945312e+01 3.285451157353236340e-06 2.752753243839833885e-05 9.243894965038634837e-06 -1.990726923395413905e-05
3.454000000000000000e+03 5.635134124755859375e+01 -1.824832153320312500e+01 -1.110555785999167711e-05 3.984708382631652057e-05 8.622457244200631976e-06 -1.117105625780823175e-06
3.455000000000000000e+03 5.686418914794921875e+01 -1.803310203552246094e+01 -1.355272979708388448e-05 -4.678227014665026218e-06 -5.469286861625732854e-06 -4.113621798751410097e-06
3.456000000000000000e+03 5.634397506713867188e+01 -1.740873908996582031e+01 4.616421574610285461e-05 2.861695065803360194e-05 2.243434937554411590e-05 -3.171405842294916511e-05
3.457000000000000000e+03 5.748024749755859375e+01 -1.785220718383789062e+01 7.442369224008871242e-06 3.859414391627069563e-06 3.390535084690782242e-06 -1.218049601448001340e-05
3.458000000000000000e+03 5.711166381835937500e+01 -1.718612289428710938e+01 1.065760443452745676e-05 -2.790307553368620574e-05 -5.173641511646565050e-06 1.243811766471480951e-05
3.459000000000000000e+03 5.518711853027343750e+01 -1.773766326904296875e+01 -2.142043558706063777e-05 1.022727064992068335e-05 -3.357949253768310882e-06 1.886659811134450138e-05
3.460000000000000000e+03 5.241899490356445312e+01 -1.905364608764648438e+01 2.951694568764651194e-06 -2.737952399911591783e-06 6.412263786614857963e-08 1.211849962601263542e-06
3.461000000000000000e+03 5.315275955200195312e+01 -1.891308021545410156e+01 -5.525902793124259915e-07 3.158912250000867061e-06 7.818966309969255235e-07 -1.187199018204410095e-06
3.462000000000000000e+03 5.388480377197265625e+01 -1.876910972595214844e+01 4.392129994812421501e-06 -3.245248535677092150e-06 3.440644320562569192e-07 9.165665915134013630e-07
3.463000000000000000e+03 5.372604370117187500e+01 -1.804615974426269531e+01 -1.696002618700731546e-05 -1.785499443940352648e-05 -1.044450618792325258e-05 7.396314686047844589e-06
3.464000000000000000e+03 5.461503982543945312e+01 -1.862159919738769531e+01 -1.251760932063916698e-05 -2.934046960945124738e-06 -4.635496679838979617e-06 8.442731086688581854e-06
3.465000000000000000e+03 5.444890213012695312e+01 -1.790010070800781250e+01 1.804216663003899157e-05 1.064947991835651919e-05 8.607494237367063761e-06 -5.497263373399619013e-06
3.466000000000000000e+03 5.227499008178710938e+01 -1.832779121398925781e+01 -2.648732788657071069e-06 -1.154149776994017884e-05 -4.257069122104439884e-06 4.800515853276010603e-06
3.467000000000000000e+03 5.300137710571289062e+01 -1.818867683410644531e+01 7.796147656335961074e-06 1.564927515573799610e-05 7.033626843622187153e-06 -8.894348297872056719e-07
3.468000000000000000e+03 5.021003341674804688e+01 -1.947287559509277344e+01 -1.929265863509499468e-06 7.849384928704239428e-06 1.776035674083686899e-06 -1.762111878633731976e-06
3.469000000000000000e+03 5.094702148437500000e+01 -1.933323669433593750e+01 4.137702035222901031e-06 -6.641460004175314680e-06 -7.511272883675701451e-07 4.660393244648730615e-07
3.470000000000000000e+03 4.947301483154296875e+01 -1.961274909973144531e+01 2.270395270898006856e-06 -8.193454959837254137e-06 -1.776918111318082083e-06 1.914770564326317981e-06
3.471000000000000000e+03 5.168397521972656250e+01 -1.919383239746093750e+01 -4.664597099690581672e-07 4.126804014958906919e-06 1.098103325603005942e-06 2.039009387999612954e-07
3.472000000000000000e+03 5.154356384277343750e+01 -1.846726989746093750e+01 8.976904609880875796e-06 3.510313263177522458e-06 3.746165475604357198e-06 -5.694294486602302641e-06
3.473000000000000000e+03 4.933204269409179688e+01 -1.888629341125488281e+01 -6.920433861523633823e-06 -3.907152859028428793e-07 -2.193344698753207922e-06 -1.867053242676774971e-06
3.474000000000000000e+03 5.080642700195312500e+01 -1.860671043395996094e+01 -1.041290852299425751e-05 -6.713531774948933162e-07 -3.325278612464899197e-06 1.497661969551700167e-06
3.475000000000000000e+03 5.006925201416015625e+01 -1.874638557434082031e+01 9.539832717564422637e-06 4.316652635338869004e-08 2.874899792004725896e-06 2.119541591127926949e-07
3.476000000000000000e+03 4.725450897216796875e+01 -2.004898452758789062e+01 -2.737822569542913698e-06 7.714980711170937866e-06 1.493147465225774795e-06 -2.733771680141217075e-06
3.477000000000000000e+03 4.709337997436523438e+01 -1.932653617858886719e+01 6.574349754373542964e-06 -6.108726893216953613e-07 1.789043153621605597e-06 2.085271034957258962e-06
3.478000000000000000e+03 4.651494979858398438e+01 -2.019693183898925781e+01 8.938981181927374564e-07 -7.262307008204516023e-06 -1.910522541948012076e-06 2.323982698726467788e-06
3.479000000000000000e+03 4.799435043334960938e+01 -1.990183448791503906e+01 1.602107886355952360e-06 -8.095985322142951190e-06 -1.948163117049261928e-06 2.005800979532068595e-06
3.480000000000000000e+03 4.873443222045898438e+01 -1.975547790527343750e+01 -2.178780277972691692e-06 8.016251740627922118e-06 1.751241597958141938e-06 -2.315483015991048887e-06
3.481000000000000000e+03 4.858935928344726562e+01 -1.902983856201171875e+01 6.663688509433995932e-06 -6.126763878455676604e-07 1.815303562580083963e-06 4.950086349708726630e-07
3.482000000000000000e+03 4.634579849243164062e+01 -1.947607994079589844e+01 -7.825800821592565626e-06 -9.341704867438238580e-07 -2.627991534609463997e-06 -3.478291546343825758e-06
3.483000000000000000e+03 4.784125137329101562e+01 -1.917778968811035156e+01 -8.460140634269919246e-06 8.888200682122260332e-07 -2.271396169817307964e-06 -2.222910779892117716e-06
3.484000000000000000e+03 4.432126998901367188e+01 -2.078344535827636719e+01 -2.413182301097549498e-06 5.171198608877602965e-06 8.274048468592809513e-07 -2.395409410382853821e-06
3.485000000000000000e+03 4.505051040649414062e+01 -2.057725715637207031e+01 6.550653779413551092e-07 -5.621819582302123308e-06 -1.490026306782965548e-06 2.179241164412815124e-06
3.486000000000000000e+03 4.359247589111328125e+01 -2.099166297912597656e+01 2.434923771943431348e-06 1.246785501507474692e-07 7.678807492084160913e-07 4.900771273241844028e-06
3.487000000000000000e+03 4.411215209960937500e+01 -2.007356262207031250e+01 5.482814231072552502e-06 5.516101737157441676e-06 3.299674744994263165e-06 2.946120957858511247e-06
3.488000000000000000e+03 4.578023910522460938e+01 -2.037289810180664062e+01 -2.627162302815122530e-06 6.242127255973173305e-06 1.084489554159517866e-06 -2.863878989955992438e-06
3.489000000000000000e+03 4.559988403320312500e+01 -1.965488052368164062e+01 4.081336555827874690e-06 1.871088215921190567e-06 1.785727363312616944e-06 1.883433128568867687e-06
3.490000000000000000e+03 4.336897659301757812e+01 -2.028584671020507812e+01 -1.242232065123971552e-05 -7.544307663920335472e-06 -5.989988494548015296e-06 -6.764340923837153241e-06
3.491000000000000000e+03 4.485577392578125000e+01 -1.986330604553222656e+01 -8.130267815431579947e-06 -2.195978368035866879e-06 -3.097874014201806858e-06 -2.261216422994039021e-06
3.492000000000000000e+03 4.105918121337890625e+01 -2.103385925292968750e+01 6.614470294152852148e-06 -4.226243618177250028e-05 -1.069438985723536462e-05 1.422588957211701199e-05
3.493000000000000000e+03 4.198300170898437500e+01 -2.076494598388671875e+01 -2.786789264064282179e-05 -8.144756975525524467e-06 -1.080379479390103370e-05 -2.562366535130422562e-05
3.494000000000000000e+03 4.264957046508789062e+01 -2.053101348876953125e+01 4.975519004801753908e-06 1.429705389455193654e-05 5.781771960755577311e-06 1.359495672659249976e-05
3.495000000000000000e+03 4.200543975830078125e+01 -2.154659652709960938e+01 1.504381270933663473e-05 3.803911386057734489e-05 1.592487751622684300e-05 2.077705721603706479e-05
3.496000000000000000e+03 4.281084060668945312e+01 -2.126075172424316406e+01 -2.178062601387864561e-07 -9.539242455502972007e-06 -2.927114792328211479e-06 -4.537084350886289030e-06
3.497000000000000000e+03 4.143973159790039062e+01 -2.146877861022949219e+01 -3.776331868721172214e-05 -1.530538247607182711e-05 -1.592061016708612442e-05 -2.782060073514003307e-05
3.498000000000000000e+03 4.140149307250976562e+01 -2.091440773010253906e+01 1.601163785380776972e-05 -4.295901362638687715e-06 3.514720901875989512e-06 -1.140025005952338688e-06
3.499000000000000000e+03 4.100804138183593750e+01 -2.131018257141113281e+01 -1.191709361592074856e-05 -4.837999222218059003e-05 -1.808912566048093140e-05 -8.371358489966951311e-06
3.500000000000000000e+03 4.183971786499023438e+01 -2.302727508544921875e+01 -7.594595197588205338e-03 -3.553736209869384766e-02 -1.293958723545074463e-02 8.635269477963447571e-03
3.501000000000000000e+03 4.219042205810546875e+01 -2.229762840270996094e+01 -2.669085050001740456e-03 -2.551549300551414490e-02 -8.455373346805572510e-03 -3.317446261644363403e-02
3.502000000000000000e+03 4.326124572753906250e+01 -2.270085716247558594e+01 -1.108169630169868469e-01 -2.080142796039581299e-01 -9.564937651157379150e-02 -2.424357682466506958e-01
3.503000000000000000e+03 4.302730941772460938e+01 -2.199828910827636719e+01 -9.458085149526596069e-02 -7.328247278928756714e-02 -5.035899579524993896e-02 -8.676143735647201538e-02
3.504000000000000000e+03 4.243085479736328125e+01 -2.299776458740234375e+01 -2.923005819320678711e-02 -1.898214817047119141e-01 -6.571546196937561035e-02 -9.357362240552902222e-02
3.505000000000000000e+03 1.605741500854492188e+01 -3.611289262771606445e+00 -5.550571131607284769e-06 -8.097096724668517709e-06 -4.094300038559595123e-06 -2.613771130199893378e-06
3.506000000000000000e+03 1.562254238128662109e+01 -4.210125446319580078e+00 6.917437531228642911e-06 1.060805061570135877e-05 5.257646535028470680e-06 2.347654572076862678e-06
3.507000000000000000e+03 1.505074691772460938e+01 -3.785051584243774414e+00 -8.206531674659345299e-06 -1.437332321074791253e-05 -6.773956556571647525e-06 -2.146243787137791514e-06
3.508000000000000000e+03 1.676181221008300781e+01 -5.065579891204833984e+00 9.905725164571776986e-06 4.868382347922306508e-06 4.432232344697695225e-06 1.641184098843950778e-06
3.509000000000000000e+03 1.619318008422851562e+01 -4.636556148529052734e+00 -9.770135875442065299e-06 -8.203930519812274724e-06 -5.392219918576302007e-06 -6.126597895672603045e-07
3.510000000000000000e+03 1.723610115051269531e+01 -4.496263980865478516e+00 -6.033691988704958931e-06 -4.295063263271003962e-06 -3.098626621067523956e-06 -1.264205707229848485e-06
3.511000000000000000e+03 1.546591091156005859e+01 -3.171455383300781250e+00 3.807797838817350566e-06 1.011532731354236603e-05 4.176937636657385156e-06 5.462677563627948985e-06
3.512000000000000000e+03 1.664776039123535156e+01 -4.052479743957519531e+00 3.262123527747462504e-06 4.624375833373051137e-06 2.365949740124051459e-06 3.301656988696777262e-06
3.513000000000000000e+03 1.831977081298828125e+01 -5.492505550384521484e+00 -8.056339538597967476e-06 -3.821021437033778057e-06 -3.563208110790583305e-06 -1.863315333139325958e-06
3.514000000000000000e+03 1.780974006652832031e+01 -6.028855800628662109e+00 1.347285888186888769e-05 1.099487121791753452e-06 4.371703653305303305e-06 2.507825684006093070e-06
3.515000000000000000e+03 1.730055999755859375e+01 -5.529824733734130859e+00 -1.308470837102504447e-05 -3.742728495126357302e-06 -5.048230832471745089e-06 -2.189055336998535495e-08
3.516000000000000000e+03 1.831691551208496094e+01 -6.530111789703369141e+00 -1.631683517189230770e-05 -2.098417780871386640e-06 -5.524575954041210935e-06 -1.873546352726407349e-06
3.517000000000000000e+03 1.882190132141113281e+01 -7.033396244049072266e+00 1.703562156762927771e-05 8.903303410079388414e-07 5.377785782911814749e-06 4.463678578758845106e-06
3.518000000000000000e+03 1.936644935607910156e+01 -6.531159877777099609e+00 -1.087029340851586312e-05 -5.220420462137553841e-06 -4.827214070246554911e-06 -4.263920800440246239e-06
3.519000000000000000e+03 1.779333305358886719e+01 -4.976417064666748047e+00 4.573309070110553876e-06 2.240683443233137950e-06 2.044197799477842636e-06 3.206000428690458648e-06
3.520000000000000000e+03 1.884420585632324219e+01 -6.010818481445312500e+00 7.646970516361761838e-06 2.317552116437582299e-06 2.989356744365068153e-06 5.043203145760344341e-06
3.521000000000000000e+03 2.031454658508300781e+01 -7.659852027893066406e+00 -1.239293851540423930e-05 -6.483904599008383229e-06 -5.663052888849051669e-06 -5.670739938068436459e-06
3.522000000000000000e+03 2.077073287963867188e+01 -8.240385055541992188e+00 1.151975811808370054e-05 4.507333869696594775e-06 4.808127414435148239e-06 7.410473244817694649e-06
3.523000000000000000e+03 1.929654693603515625e+01 -7.565644741058349609e+00 -1.858417454059235752e-05 -3.842887053906451911e-06 -6.728118478349642828e-06 -3.723193003679625690e-06
3.524000000000000000e+03 2.062350273132324219e+01 -9.254287719726562500e+00 1.618556962057482451e-05 5.575991053774487227e-06 6.528468020405853167e-06 4.404110313771525398e-06
3.525000000000000000e+03 2.018299865722656250e+01 -8.690117835998535156e+00 -1.619607974134851247e-05 -6.875184681121027097e-06 -6.921379281266126782e-06 -5.428984877653419971e-06
3.526000000000000000e+03 1.974063491821289062e+01 -8.127175331115722656e+00 1.747940768836997449e-05 3.184300794600858353e-06 6.199112704052822664e-06 6.678788849967531860e-06
3.527000000000000000e+03 2.122505760192871094e+01 -8.822144508361816406e+00 -1.272792451345594600e-05 -6.357203346851747483e-06 -5.725538358092308044e-06 -5.627946848107967526e-06
3.528000000000000000e+03 1.985663604736328125e+01 -7.080731868743896484e+00 1.039615472109289840e-05 3.972100785176735371e-06 4.310476469981949776e-06 6.820703674748074263e-06
3.529000000000000000e+03 2.203341293334960938e+01 -1.005728912353515625e+01 -1.359861107630422339e-05 -4.756793259730329737e-06 -5.506621164386160672e-06 -6.052800927136559039e-06
3.530000000000000000e+03 2.140859222412109375e+01 -1.045394611358642578e+01 2.012753611779771745e-05 9.133703429142769892e-07 6.312272034847410396e-06 3.255113824707223102e-06
3.531000000000000000e+03 2.103163337707519531e+01 -9.842617988586425781e+00 -1.689541568339336663e-05 -6.118192231951979920e-06 -6.904082511027809232e-06 -1.716711722110630944e-06
3.532000000000000000e+03 2.178438568115234375e+01 -1.106581783294677734e+01 -2.202179712185170501e-05 -3.713445266839698888e-06 -7.720573194092139602e-06 -6.112446044426178560e-06
3.533000000000000000e+03 2.215780448913574219e+01 -1.167914867401123047e+01 2.417627183604054153e-05 7.202001597761409357e-06 9.413482075615320355e-06 4.504104254010599107e-06
3.534000000000000000e+03 2.280443191528320312e+01 -1.131808185577392578e+01 -1.469306516810320318e-05 -4.428548891155514866e-06 -5.736484126828145236e-06 -4.610502855939557776e-06
3.535000000000000000e+03 2.164555168151855469e+01 -9.428166389465332031e+00 1.309174876951146871e-05 3.946324341086437926e-06 5.111422069603577256e-06 6.278288310568314046e-06
3.536000000000000000e+03 2.242011070251464844e+01 -1.068695640563964844e+01 1.305214937019627541e-05 4.024577719974331558e-06 5.123018127051182091e-06 6.167570063553284854e-06
3.537000000000000000e+03 2.317674064636230469e+01 -1.199929141998291016e+01 1.645033808017615229e-05 2.386298774581518956e-06 5.650990715366788208e-06 3.821156496996991336e-06
3.538000000000000000e+03 2.284523010253906250e+01 -1.300796508789062500e+01 1.984617301786784083e-05 -2.874575557143543847e-06 5.091479124530451372e-06 5.017151579522760585e-06
3.539000000000000000e+03 2.406083297729492188e+01 -1.497063064575195312e+01 -4.093035670393874170e-07 4.557213628686440643e-07 1.392533910404836206e-08 9.742634574649855494e-07
3.540000000000000000e+03 2.462505912780761719e+01 -1.485978507995605469e+01 1.337458616035291925e-05 -5.553419057946484827e-08 3.995715360360918567e-06 -7.939536885714915115e-07
3.541000000000000000e+03 2.389264106750488281e+01 -1.346117115020751953e+01 1.273375892196781933e-05 4.098936642549233511e-06 5.049808351031970233e-06 4.124916358705377206e-06
3.542000000000000000e+03 2.353559875488281250e+01 -1.273112678527832031e+01 -1.544980113976635039e-05 -1.005087142402771860e-06 -4.936466666549677029e-06 -6.133238002803409472e-06
3.543000000000000000e+03 2.488323020935058594e+01 -1.545215702056884766e+01 -5.854936716787051409e-06 -2.019897635818779236e-07 -1.817077986743242946e-06 5.616814036102368846e-08
3.544000000000000000e+03 2.424729537963867188e+01 -1.417472362518310547e+01 -1.366580272588180378e-05 -3.028190803888719529e-06 -5.008198058931156993e-06 8.976856946674161009e-08
3.545000000000000000e+03 2.350594520568847656e+01 -1.435108280181884766e+01 6.377697900461498648e-06 1.240514939127024263e-05 5.634854460367932916e-06 3.295951955806231126e-07
3.546000000000000000e+03 2.317678260803222656e+01 -1.368776988983154297e+01 -1.341809820587513968e-05 -4.535415428108535707e-06 -5.386053999245632440e-06 -8.075984624156262726e-06
3.547000000000000000e+03 2.251189041137695312e+01 -1.232635593414306641e+01 -2.198146830778568983e-05 -5.431781573861371726e-06 -8.223974873544648290e-06 -1.500813141319667920e-06
3.548000000000000000e+03 2.456154632568359375e+01 -1.316923522949218750e+01 -6.389756208591279574e-07 -1.840213553805369884e-05 -5.712332949769916013e-06 9.067208338819909841e-06
3.549000000000000000e+03 2.482023620605468750e+01 -1.197365283966064453e+01 -9.836072649704874493e-07 -1.734897705318871886e-05 -5.499775397765915841e-06 1.390766465192427859e-05
3.550000000000000000e+03 2.650333786010742188e+01 -1.565426826477050781e+01 1.760895429470110685e-06 -8.867044925864320248e-06 -2.131844894392997958e-06 5.986152245895937085e-06
3.551000000000000000e+03 2.385268974304199219e+01 -1.163848972320556641e+01 5.001150839234469458e-06 -1.514441919425735250e-05 -3.042980324607924558e-06 1.613748099771328270e-05
3.552000000000000000e+03 2.484836769104003906e+01 -1.395820903778076172e+01 -2.221486511189141311e-06 -1.089745819626841694e-05 -3.935683707823045552e-06 9.416237844561692327e-06
3.553000000000000000e+03 2.532261657714843750e+01 -1.399315357208251953e+01 1.253767550224438310e-05 1.701118162600323558e-05 8.864657502272166312e-06 -1.428356335964053869e-05
3.554000000000000000e+03 2.568108749389648438e+01 -1.559443092346191406e+01 5.066696758149191737e-06 1.560841837999760173e-06 1.988261601582053117e-06 8.637503924546763301e-06
3.555000000000000000e+03 2.449533462524414062e+01 -1.126426315307617188e+01 -1.771740608091931790e-05 -1.021375464915763587e-05 -8.379348400922026485e-06 1.334652210971398745e-06
3.556000000000000000e+03 2.516623687744140625e+01 -1.270689773559570312e+01 -6.232915893633617088e-06 4.811952294403454289e-06 -4.262890342943137512e-07 2.947505436168285087e-06
3.557000000000000000e+03 2.556309509277343750e+01 -1.336782169342041016e+01 -1.866345155576709658e-05 -2.414782284176908433e-05 -1.284338213736191392e-05 2.121577017533127218e-05
3.558000000000000000e+03 2.595065307617187500e+01 -1.390986061096191406e+01 1.130499276769114658e-05 -5.649451395584037527e-07 3.222014356651925482e-06 -7.196942988230148330e-06
3.559000000000000000e+03 2.620536613464355469e+01 -1.446394062042236328e+01 -8.494634130329359323e-06 9.949118975782766938e-06 4.363452603683981579e-07 1.773658914316911250e-05
3.560000000000000000e+03 2.637091255187988281e+01 -1.507584285736083984e+01 -3.776302037294954062e-06 -1.469863855163566768e-05 -5.542482085729716346e-06 2.391042698945966549e-06
3.561000000000000000e+03 2.638264656066894531e+01 -1.612632179260253906e+01 -1.678425724094267935e-05 -4.800760052603436634e-06 -6.475505415437510237e-06 -8.628692853562824894e-07
3.562000000000000000e+03 2.419656753540039062e+01 -1.239193534851074219e+01 -1.097791027859784663e-05 -1.512159269623225555e-05 -7.829850801499560475e-06 2.626766217872500420e-06
3.563000000000000000e+03 2.512793922424316406e+01 -1.461182594299316406e+01 -1.013816836348269135e-05 -2.769316415651701391e-05 -1.134939975599991158e-05 5.053328550275182351e-06
3.564000000000000000e+03 2.566095924377441406e+01 -1.495156669616699219e+01 -2.268996240673004650e-06 1.564128615427762270e-05 4.011686996818752959e-06 5.876893737877253443e-06
3.565000000000000000e+03 2.577541732788085938e+01 -1.432993030548095703e+01 -7.998381988727487624e-06 -2.149927422578912228e-05 -8.849297046253923327e-06 1.381564015900949016e-05
3.566000000000000000e+03 2.269077491760253906e+01 -9.641036033630371094e+00 -2.619993210828397423e-05 -2.386358937656041235e-05 -1.501905626355437562e-05 -2.979053988383384421e-06
3.567000000000000000e+03 2.348543930053710938e+01 -1.093805503845214844e+01 -2.179829789383802563e-05 -2.011676224356051534e-05 -1.257451822311850265e-05 8.631124046587501653e-07
3.568000000000000000e+03 2.229273414611816406e+01 -8.991255760192871094e+00 1.532405258330982178e-05 -1.095175048249075189e-05 1.311690766669926234e-06 2.791518272715620697e-05
3.569000000000000000e+03 2.308835411071777344e+01 -1.029005146026611328e+01 1.013734708976699039e-05 -1.366783089906675741e-05 -1.059145233739400283e-06 2.344988024560734630e-05
3.570000000000000000e+03 2.413209533691406250e+01 -1.057697391510009766e+01 7.738646672805771232e-06 -1.642329334572423249e-05 -2.605394001875538379e-06 2.111081630573607981e-05
3.571000000000000000e+03 2.290665245056152344e+01 -8.576805114746093750e+00 -2.414556729490868747e-05 -1.689917553449049592e-05 -1.231342321261763573e-05 -1.330817485722946003e-05
3.572000000000000000e+03 2.331559562683105469e+01 -9.244379997253417969e+00 1.462604996049776673e-05 -1.250062723556766286e-05 6.376267833729798440e-07 2.730545202211942524e-05
3.573000000000000000e+03 2.372407913208007812e+01 -9.911190032958984375e+00 -2.222124930995050818e-05 -1.290489763050572947e-05 -1.053784399118740112e-05 -6.669708909612381831e-06
3.574000000000000000e+03 2.091797065734863281e+01 -7.169854164123535156e+00 -2.445223799441009760e-05 -2.641616265464108437e-05 -1.526052074041217566e-05 -1.607275225978810340e-05
3.575000000000000000e+03 2.044657707214355469e+01 -6.570147991180419922e+00 2.232364022347610444e-05 8.263742529379669577e-06 9.176214916806202382e-06 2.706482155190315098e-05
3.576000000000000000e+03 2.138868331909179688e+01 -7.768980979919433594e+00 1.717765189823694527e-05 -3.663112977392302128e-07 5.043402325100032613e-06 3.104469578829593956e-05
3.577000000000000000e+03 2.185866355895996094e+01 -8.367236137390136719e+00 -3.025231490028090775e-05 -2.610552292026113719e-05 -1.690735189185943455e-05 -9.906959348882082850e-06
3.578000000000000000e+03 2.246022033691406250e+01 -7.935092449188232422e+00 1.527858148619998246e-05 -9.988047168008051813e-06 1.587159999871801119e-06 3.090613245149143040e-05
3.579000000000000000e+03 2.100666618347167969e+01 -6.085235118865966797e+00 -3.320931682537775487e-06 -2.362130908295512199e-05 -8.082672138698399067e-06 -2.733431392698548734e-05
3.580000000000000000e+03 2.149188232421875000e+01 -6.702531337738037109e+00 1.927398807310964912e-05 9.915297596307937056e-07 6.079655122448457405e-06 2.989774111483711749e-05
3.581000000000000000e+03 2.197641754150390625e+01 -7.319247722625732422e+00 -1.281622098758816719e-05 -2.080939157167449594e-05 -1.008768413157667965e-05 -2.160113763238769025e-05
3.582000000000000000e+03 1.885587120056152344e+01 -4.930348396301269531e+00 -2.085280812025303021e-06 -1.778162004484329373e-05 -5.960069756838493049e-06 -3.465302870608866215e-05
3.583000000000000000e+03 1.831238174438476562e+01 -4.393686294555664062e+00 4.420640834723599255e-05 3.355787339387461543e-05 2.332928488613106310e-05 1.083393090084427968e-05
3.584000000000000000e+03 1.939846801757812500e+01 -5.466702461242675781e+00 2.798203604470472783e-05 2.147186569345649332e-05 1.483617052144836634e-05 2.057926394627429545e-05
3.585000000000000000e+03 1.994004440307617188e+01 -6.002428531646728516e+00 -1.543516555102542043e-05 -2.283811591041740030e-05 -1.148198407463496551e-05 -2.542313086451031268e-05
3.586000000000000000e+03 2.048459243774414062e+01 -5.500192165374755859e+00 2.340260471100918949e-05 6.012393441778840497e-06 8.824499673210084438e-06 2.530960045987740159e-05
3.587000000000000000e+03 1.880515289306640625e+01 -3.840278863906860352e+00 2.958319782919716090e-05 -1.685137976892292500e-05 3.819545781880151480e-06 -4.116698255529627204e-05
3.588000000000000000e+03 1.936590194702148438e+01 -4.393997669219970703e+00 3.692437894642353058e-05 1.589985186001285911e-05 1.584726851433515549e-05 1.609148966963402927e-05
3.589000000000000000e+03 1.992575645446777344e+01 -4.947409152984619141e+00 1.537799289508257061e-05 -2.187153404520358890e-05 -1.948062390511040576e-06 -3.445828770054504275e-05
3.590000000000000000e+03 1.695117187500000000e+01 -2.380243301391601562e+00 4.315020851208828390e-05 3.522092447383329272e-05 2.351134025957435369e-05 -6.924807621544459835e-06
3.591000000000000000e+03 1.651630020141601562e+01 -2.979079723358154297e+00 4.393193376017734408e-05 -1.238872664544032887e-05 9.462962225370574743e-06 -5.456847793539054692e-05
3.592000000000000000e+03 1.590384101867675781e+01 -2.523920059204101562e+00 6.742792902514338493e-05 5.243565465207211673e-05 3.595907401177100837e-05 -1.783061634341720492e-05
3.593000000000000000e+03 1.712716102600097656e+01 -3.436568260192871094e+00 5.337336187949404120e-05 4.689552588388323784e-05 3.008066596521530300e-05 1.003522470455209259e-06
3.594000000000000000e+03 1.758174324035644531e+01 -2.852491855621337891e+00 6.525978824356570840e-05 -1.528896973468363285e-05 1.499124664405826479e-05 -4.924250970361754298e-05
3.595000000000000000e+03 1.773609352111816406e+01 -3.896142244338989258e+00 1.950949990714434534e-05 -1.458689894207054749e-05 1.476780084885831457e-06 -4.972821989213116467e-05
3.596000000000000000e+03 1.821038436889648438e+01 -3.326825857162475586e+00 4.109583460376597941e-05 2.077045246551278979e-05 1.855988557508680969e-05 1.168474136648001149e-05
3.597000000000000000e+03 1.631900405883789062e+01 -1.910323858261108398e+00 8.882072143023833632e-05 -1.256339601241052151e-05 2.287719871674198657e-05 -4.124710176256485283e-05
3.598000000000000000e+03 1.460399055480957031e+01 -1.730789542198181152e+00 7.990562153281643987e-05 4.256493775756098330e-05 3.674116669571958482e-05 -3.017767812707461417e-05
3.599000000000000000e+03 1.394003677368164062e+01 -1.356149435043334961e+00 8.670413080835714936e-05 5.900453288631979376e-06 2.778137604764197022e-05 -5.542543658521026373e-05
3.600000000000000000e+03 1.327490711212158203e+01 -9.841976165771484375e-01 9.464409231441095471e-05 4.161026663496159017e-05 4.087630804860964417e-05 -3.626078614615835249e-05
3.601000000000000000e+03 1.429506587982177734e+01 -7.068015336990356445e-01 7.431730045937001705e-05 3.011404805874917656e-05 3.132940400973893702e-05 -2.777116969809867442e-05
3.602000000000000000e+03 1.497913169860839844e+01 -1.092790365219116211e+00 9.671076986705884337e-05 1.358326926492736675e-06 2.942072933365125209e-05 -4.666590393753722310e-05
3.603000000000000000e+03 1.526644039154052734e+01 -2.107936620712280273e+00 7.514340541092678905e-05 -1.708231138763949275e-06 2.203055373684037477e-05 -5.474047065945342183e-05
3.604000000000000000e+03 1.566169452667236328e+01 -1.481285929679870605e+00 5.845311898156069219e-05 3.449787254794500768e-05 2.788529673125594854e-05 -2.319139457540586591e-05
3.605000000000000000e+03 1.360982322692871094e+01 -3.235010504722595215e-01 1.044705204549245536e-04 8.565669304516632110e-06 3.391085556359030306e-05 -4.933243690175004303e-05
3.606000000000000000e+03 1.136861705780029297e+01 6.672526597976684570e-01 7.178789383033290505e-05 2.794686588458716869e-05 2.992042755067814142e-05 -3.088485391344875097e-05
3.607000000000000000e+03 1.043688488006591797e+01 2.462611943483352661e-01 9.947340004146099091e-05 3.424139140406623483e-05 4.011443888884969056e-05 -3.213673335267230868e-05
3.608000000000000000e+03 1.187135696411132812e+01 -3.428127467632293701e-01 9.486993803875520825e-05 3.447445487836375833e-05 3.880331860273145139e-05 -3.429098796914331615e-05
3.609000000000000000e+03 1.258574008941650391e+01 -6.459255814552307129e-01 1.045750759658403695e-04 6.300031145656248555e-06 3.326253136037848890e-05 -5.409568257164210081e-05
3.610000000000000000e+03 1.288842964172363281e+01 2.964896708726882935e-02 7.350159285124391317e-05 3.169532647007144988e-05 3.155907688778825104e-05 -3.003684469149447978e-05
3.611000000000000000e+03 1.060655117034912109e+01 9.770575761795043945e-01 1.047660116455517709e-04 1.512599101261002943e-05 3.596760143409483135e-05 -3.621560244937427342e-05
3.612000000000000000e+03 1.212970542907714844e+01 3.511690795421600342e-01 1.101488887798041105e-04 1.071623319148784503e-05 3.625953468144871294e-05 -5.023467019782401621e-05
3.613000000000000000e+03 1.115460968017578125e+01 -4.513646289706230164e-02 1.030494386213831604e-04 1.530755639578273986e-06 3.137406019959598780e-05 -4.733752939500845969e-05
3.614000000000000000e+03 9.852642059326171875e+00 1.127630591392517090e+00 4.740314398077316582e-05 2.408418549748603255e-05 2.144619793398305774e-05 -4.664787411456927657e-05
3.615000000000000000e+03 8.934872627258300781e+00 3.838182985782623291e-01 5.772753866040147841e-05 -2.959321818707394414e-06 1.643046562094241381e-05 -1.489509031671332195e-05
3.616000000000000000e+03 8.173450469970703125e+00 3.805501461029052734e-01 5.205962952459231019e-05 1.299934774579014629e-05 1.951769263541791588e-05 -4.174306013737805188e-06
3.617000000000000000e+03 7.412311553955078125e+00 3.753647208213806152e-01 2.510181911929976195e-05 -1.395051003783009946e-05 3.345392769915633835e-06 -8.540211638319306076e-06
3.618000000000000000e+03 6.650998592376708984e+00 3.733136355876922607e-01 2.680447687453124672e-05 1.490273916715523228e-05 1.251216417585965246e-05 -2.989122549479361624e-06
3.619000000000000000e+03 5.128288269042968750e+00 3.666210770606994629e-01 1.323170818068319932e-05 1.335375327471410856e-05 7.975638254720252007e-06 -9.115547072724439204e-08
3.620000000000000000e+03 4.367394924163818359e+00 3.671234846115112305e-01 -7.982319402799475938e-06 -1.300075109611498192e-05 -6.294921149674337357e-06 -5.034806235926225781e-06
3.621000000000000000e+03 2.846046209335327148e+00 3.605891168117523193e-01 -8.123138286464381963e-06 -1.085353414964629337e-05 -5.693001639883732423e-06 -1.746350051234912826e-07
3.622000000000000000e+03 2.087270975112915039e+00 3.584179878234863281e-01 -6.832837243564426899e-06 2.675505811566836201e-06 -1.247199406861909665e-06 -8.563096344005316496e-06
3.623000000000000000e+03 2.412721395492553711e+00 1.098417997360229492e+00 -3.377287782768689794e-07 -1.199116377392783761e-05 -3.698667796925292350e-06 1.125011021940736100e-05
3.624000000000000000e+03 1.340976357460021973e+00 3.674286305904388428e-01 1.103065756069554482e-06 1.168817743746330962e-05 3.837372787529602647e-06 1.781028731784317642e-05
3.625000000000000000e+03 1.683374881744384766e+00 1.107428669929504395e+00 2.514559582778019831e-06 1.248170337930787355e-05 4.498878752201562747e-06 -2.097138531098607928e-05
3.626000000000000000e+03 6.602545380592346191e-01 3.962357640266418457e-01 -4.956038901582360268e-05 -3.845153696602210402e-05 -2.640357888594735414e-05 -4.545107003650628030e-05
3.627000000000000000e+03 3.572900295257568359e-01 9.584811329841613770e-01 5.316711030900478363e-05 2.952182148874271661e-05 2.480667899362742901e-05 2.243189010187052190e-05
3.628000000000000000e+03 3.154548645019531250e+00 1.100589156150817871e+00 1.150143907580059022e-05 1.248286844202084467e-05 7.195292255346430466e-06 -8.537163921573664993e-06
3.629000000000000000e+03 3.606354475021362305e+00 3.667278885841369629e-01 5.022507593821501359e-06 1.392228750773938373e-05 5.683438757841940969e-06 2.021305363086867146e-06
3.630000000000000000e+03 5.385946273803710938e+00 1.106621026992797852e+00 -3.472625394351780415e-06 -9.733690603752620518e-06 -3.961894890380790457e-06 -6.540375579788815230e-06
3.631000000000000000e+03 5.889441967010498047e+00 3.716917037963867188e-01 4.341721250966656953e-06 -1.281158438359852880e-05 -2.540959030739031732e-06 -5.412505288404645398e-06
3.632000000000000000e+03 7.619125843048095703e+00 1.115364670753479004e+00 5.580504148383624852e-05 1.638568755879532546e-05 2.165721889468841255e-05 -1.899751987366471440e-05
3.633000000000000000e+03 8.363317489624023438e+00 1.120550155639648438e+00 3.929405283997766674e-05 -5.231031991570489481e-06 1.021890602714847773e-05 -2.673447670531459153e-05
3.634000000000000000e+03 9.107789993286132812e+00 1.123818278312683105e+00 8.582093869335949421e-05 1.474400778533890843e-05 3.016948357981164008e-05 -2.256974221381824464e-05
3.635000000000000000e+03 9.696672439575195312e+00 3.876306116580963135e-01 1.037104666465893388e-04 4.006333711004117504e-06 3.231503796996548772e-05 -1.826400330173783004e-05
3.636000000000000000e+03 6.874760627746582031e+00 1.113313674926757812e+00 1.541297569929156452e-05 -1.089664874598383904e-05 1.354897790406539571e-06 -1.183174481411697343e-05
3.637000000000000000e+03 6.130152225494384766e+00 1.111691713333129883e+00 3.943159754271619022e-05 1.551657442178111523e-05 1.648445140745025128e-05 -1.489235273766098544e-05
3.638000000000000000e+03 4.642001152038574219e+00 1.107123494148254395e+00 2.749155282799620181e-05 1.272002828045515344e-05 1.206347405968699604e-05 -8.677627192810177803e-06
3.639000000000000000e+03 3.897908926010131836e+00 1.106727957725524902e+00 -1.010724827210651711e-05 -8.468447049381211400e-06 -5.572708687395788729e-06 -1.687026156105275732e-06
3.640000000000000000e+03 1.019601225852966309e+00 1.136235833168029785e+00 1.413656082149827853e-05 -2.514160223654471338e-05 -3.301512379039195366e-06 2.260816290799994022e-05
3.641000000000000000e+03 1.356510353088378906e+01 -2.044676303863525391e+00 -7.289165296242572367e-06 -2.120530007232446223e-05 -8.548339792469050735e-06 -9.107769074034877121e-06
3.642000000000000000e+03 1.321007442474365234e+01 -2.694024085998535156e+00 6.757216851838165894e-06 2.399106415396090597e-05 9.224484529113397002e-06 7.582792477478506044e-06
3.643000000000000000e+03 1.258673477172851562e+01 -2.342205762863159180e+00 -9.707111530588008463e-06 -2.674163442861754447e-05 -1.093462378776166588e-05 -1.026998961606295779e-05
3.644000000000000000e+03 1.420777034759521484e+01 -2.407426834106445312e+00 4.937566700391471386e-06 1.758592588885221630e-05 6.757047685823636129e-06 8.173044989234767854e-06
3.645000000000000000e+03 1.383262920379638672e+01 -3.045426130294799805e+00 -8.315968443639576435e-06 -2.120944736816454679e-05 -8.857624379743356258e-06 -4.705510491476161405e-06
3.646000000000000000e+03 1.445424365997314453e+01 -3.396085023880004883e+00 7.220659881568280980e-06 1.759639053489081562e-05 7.445114988513523713e-06 3.832245511148357764e-06
3.647000000000000000e+03 1.484949779510498047e+01 -2.769434452056884766e+00 -6.672373274341225624e-06 -1.408750813425285742e-05 -6.227964149729814380e-06 -5.532159320864593610e-06
3.648000000000000000e+03 1.292164993286132812e+01 -1.681509137153625488e+00 6.533906343975104392e-06 2.232375118182972074e-05 8.657297257741447538e-06 1.127489667851477861e-05
3.649000000000000000e+03 1.114702796936035156e+01 -1.674520134925842285e+00 -1.708977106318343431e-05 -2.299189509358257055e-05 -1.202449948323192075e-05 -1.371315920550841838e-05
3.650000000000000000e+03 1.155607700347900391e+01 -1.043098807334899902e+00 8.428656656178645790e-06 2.560431858000811189e-05 1.020989293465390801e-05 1.163571414508624002e-05
3.651000000000000000e+03 1.007052421569824219e+01 -1.379528045654296875e+00 2.152946399291977286e-05 2.243793824163731188e-05 1.319022067036712542e-05 3.867028681270312518e-06
3.652000000000000000e+03 1.091052532196044922e+01 -7.195191383361816406e-01 -7.915321475593373179e-06 -2.680710531421937048e-05 -1.041672749124700204e-05 -1.412259098287904635e-05
3.653000000000000000e+03 1.189208316802978516e+01 -2.005299091339111328e+00 1.021319440042134374e-05 2.389555993431713432e-05 1.023262666421942413e-05 1.230350881087360904e-05
3.654000000000000000e+03 1.224500656127929688e+01 -1.350578069686889648e+00 -8.686557521286886185e-06 -2.188990583817940205e-05 -9.172938916890416294e-06 -1.092388083634432405e-05
3.655000000000000000e+03 1.012131404876708984e+01 -8.739756941795349121e-01 -3.655285763670690358e-05 -1.061919556377688423e-05 -1.415161568729672581e-05 -1.671921017987187952e-05
3.656000000000000000e+03 1.027311420440673828e+01 -4.096257984638214111e-01 1.088570570573210716e-05 2.379309262323658913e-05 1.040363986248848960e-05 1.069519476004643366e-05
3.657000000000000000e+03 1.058933448791503906e+01 -1.247088074684143066e+00 1.762183273967821151e-05 1.112946665671188384e-05 8.625390364613849670e-06 2.182747994083911180e-05
3.658000000000000000e+03 8.909210205078125000e+00 -3.212539851665496826e-01 -2.471087827871087939e-05 1.988493932003621012e-05 -1.447781414753990248e-06 2.536362899263622239e-06
3.659000000000000000e+03 9.317807197570800781e+00 -1.205478549003601074e+00 -1.671750032983254641e-05 -3.162886787322349846e-05 -1.450391027901787311e-05 -2.228991979791317135e-05
3.660000000000000000e+03 9.460213661193847656e+00 -6.912539601325988770e-01 4.785991040989756584e-05 -8.230337698478251696e-06 1.188887199532473460e-05 1.787724431778769940e-05
3.661000000000000000e+03 8.266005516052246094e+00 -6.800254583358764648e-01 3.856962212012149394e-05 1.395740218868013471e-05 1.575810711074154824e-05 1.882793867480359040e-06
3.662000000000000000e+03 7.622209548950195312e+00 -4.054784178733825684e-01 -2.718530413403641433e-05 -2.237833905383013189e-05 -1.486909332015784457e-05 -2.044509892584756017e-05
3.663000000000000000e+03 6.825774669647216797e+00 -3.814763724803924561e-01 1.102847454603761435e-05 1.921437979035545141e-05 9.072856300917919725e-06 1.350015554635319859e-05
3.664000000000000000e+03 6.001619815826416016e+00 -3.739211261272430420e-01 -1.433243960491381586e-05 -1.991457793337758631e-05 -1.027410507958848029e-05 -1.396782226947834715e-05
3.665000000000000000e+03 5.174842834472656250e+00 -3.715220093727111816e-01 1.207622790388995782e-05 2.174056498915888369e-05 1.014503777696518227e-05 1.353599600406596437e-05
3.666000000000000000e+03 4.347759723663330078e+00 -3.725122809410095215e-01 -1.252774109161691740e-05 -2.511791171855293214e-05 -1.129369593400042504e-05 -1.502293889643624425e-05
3.667000000000000000e+03 3.520621299743652344e+00 -3.760701715946197510e-01 1.297466405958402902e-05 2.748465340118855238e-05 1.213779523823177442e-05 1.751559648255351931e-05
3.668000000000000000e+03 2.694509983062744141e+00 -3.805325925350189209e-01 -1.550650085846427828e-05 -2.559019594627898186e-05 -1.232900922332191840e-05 -1.904449709400068969e-05
3.669000000000000000e+03 1.143715500831604004e+00 -3.599454164505004883e-01 -1.638878711673896760e-05 -5.472961674968246371e-06 -6.558525001310044900e-06 -6.580131412192713469e-06
3.670000000000000000e+03 4.021799862384796143e-01 -5.506002306938171387e-01 1.493305262556532398e-06 1.138029460889811162e-06 7.894004170339030679e-07 7.634062626493687276e-07
3.671000000000000000e+03 7.210693359375000000e-01 -1.099945425987243652e+00 5.333060107659548521e-05 -8.920060849959554616e-07 1.573157896928023547e-05 9.977396985050290823e-06
3.672000000000000000e+03 8.506304740905761719e+00 -1.218084216117858887e+00 -3.238547606088104658e-06 5.226290886639617383e-05 1.470730785513296723e-05 1.481998606323031709e-05
3.673000000000000000e+03 7.803927898406982422e+00 -1.221213579177856445e+00 -2.862881228793412447e-05 -3.578797623049467802e-05 -1.932503619173076004e-05 -2.186777919632731937e-06
3.674000000000000000e+03 7.101232528686523438e+00 -1.145478367805480957e+00 3.359550828463397920e-05 1.736060039547737688e-05 1.528683242213446647e-05 1.527314452687278390e-05
3.675000000000000000e+03 6.317089557647705078e+00 -1.121476411819458008e+00 -2.145286634913645685e-05 -1.804211751732509583e-05 -1.184849497803952545e-05 -1.489209535066038370e-05
3.676000000000000000e+03 5.505225658416748047e+00 -1.113921165466308594e+00 1.782423532858956605e-05 1.733197859721258283e-05 1.054686435963958502e-05 1.026038717100163922e-05
3.677000000000000000e+03 4.690740108489990234e+00 -1.111521959304809570e+00 -1.558982148708309978e-05 -2.020263673330191523e-05 -1.073773728421656415e-05 -9.431692888028919697e-06
3.678000000000000000e+03 3.875948190689086914e+00 -1.112512230873107910e+00 1.222519676957745105e-05 2.326805224583949894e-05 1.064797470462508500e-05 9.931148269970435649e-06
3.679000000000000000e+03 3.061101198196411133e+00 -1.116070151329040527e+00 -1.210071150126168504e-05 -2.542648326198104769e-05 -1.125815833802334964e-05 -1.524994149804115295e-05
3.680000000000000000e+03 2.247281074523925781e+00 -1.120532631874084473e+00 1.925265496538486332e-05 2.010540447372477502e-05 1.180741764983395115e-05 2.507600220269523561e-05
3.681000000000000000e+03 1.882497906684875488e+00 -3.807797729969024658e-01 1.521475951449247077e-05 1.619663089513778687e-05 9.423417395737487823e-06 1.772221730789169669e-05
3.682000000000000000e+03 9.580569267272949219e+00 -2.457754313945770264e-01 -2.308931107108946890e-05 -2.482195304764900357e-05 -1.437337959941942245e-05 2.885847379729966633e-06
3.683000000000000000e+03 1.447560310363769531e+00 -1.120779752731323242e+00 -3.555580769898369908e-05 -7.860207006160635501e-06 -1.302480541198747233e-05 -2.886789116018917412e-05
3.684000000000000000e+03 7.311978149414062500e+01 -2.735441589355468750e+01 1.649608802795410156e+01 2.885655403137207031e+00 5.814522743225097656e+00 5.965870857238769531e+00
3.685000000000000000e+03 7.312296295166015625e+01 -2.737360191345214844e+01 1.558513355255126953e+01 9.213743209838867188e+00 7.439662933349609375e+00 1.255850219726562500e+01
3.686000000000000000e+03 7.312981414794921875e+01 -2.739180374145507812e+01 1.461213588714599609e+01 1.576210117340087891e+01 9.112271308898925781e+00 1.497565364837646484e+01
3.687000000000000000e+03 7.314007568359375000e+01 -2.740832710266113281e+01 1.268585014343261719e+01 2.260836219787597656e+01 1.058826351165771484e+01 1.592329883575439453e+01
3.688000000000000000e+03 7.315335083007812500e+01 -2.742253684997558594e+01 1.092779445648193359e+01 2.920127868652343750e+01 1.203872203826904297e+01 1.514240169525146484e+01
3.689000000000000000e+03 7.316913604736328125e+01 -2.743389511108398438e+01 8.983982086181640625e+00 3.474225234985351562e+01 1.311787128448486328e+01 1.303775882720947266e+01
3.690000000000000000e+03 7.318682861328125000e+01 -2.744196510314941406e+01 8.095849990844726562e+00 3.918520355224609375e+01 1.418431568145751953e+01 9.684788703918457031e+00
3.691000000000000000e+03 7.320575714111328125e+01 -2.744644165039062500e+01 7.737259387969970703e+00 4.170015716552734375e+01 1.483122539520263672e+01 5.718712806701660156e+00
3.692000000000000000e+03 7.322518920898437500e+01 -2.744715118408203125e+01 8.807177543640136719e+00 4.251443099975585938e+01 1.539648246765136719e+01 1.667735338211059570e+00
3.693000000000000000e+03 7.324439239501953125e+01 -2.744406700134277344e+01 1.078010845184326172e+01 4.160309219360351562e+01 1.571496009826660156e+01 -1.921879529953002930e+00
3.694000000000000000e+03 7.326262664794921875e+01 -2.743730735778808594e+01 1.350017070770263672e+01 3.942819976806640625e+01 1.587851142883300781e+01 -4.568260669708251953e+00
3.695000000000000000e+03 7.327919769287109375e+01 -2.742713165283203125e+01 1.662510490417480469e+01 3.656465911865234375e+01 1.595692920684814453e+01 -6.012462139129638672e+00
3.696000000000000000e+03 7.329347991943359375e+01 -2.741392707824707031e+01 1.958105659484863281e+01 3.346406936645507812e+01 1.591353797912597656e+01 -6.269512176513671875e+00
3.697000000000000000e+03 7.330491638183593750e+01 -2.739819717407226562e+01 2.225484085083007812e+01 3.079234313964843750e+01 1.591415500640869141e+01 -5.397014141082763672e+00
3.698000000000000000e+03 7.331307220458984375e+01 -2.738054466247558594e+01 2.407479667663574219e+01 2.857231903076171875e+01 1.579413414001464844e+01 -3.778620958328247070e+00
3.699000000000000000e+03 7.331764221191406250e+01 -2.736164093017578125e+01 2.525313568115234375e+01 2.756087112426757812e+01 1.584420204162597656e+01 -1.566226720809936523e+00
3.700000000000000000e+03 7.331845092773437500e+01 -2.734221076965332031e+01 2.537511825561523438e+01 2.718829154968261719e+01 1.576902294158935547e+01 8.449684381484985352e-01
3.701000000000000000e+03 7.331546783447265625e+01 -2.732299232482910156e+01 2.474511146545410156e+01 2.820165443420410156e+01 1.588402938842773438e+01 3.158308744430541992e+00
3.702000000000000000e+03 7.330879974365234375e+01 -2.730472373962402344e+01 2.306882858276367188e+01 2.980044746398925781e+01 1.586078262329101562e+01 5.120554447174072266e+00
3.703000000000000000e+03 7.329870605468750000e+01 -2.728810119628906250e+01 2.083259773254394531e+01 3.257736206054687500e+01 1.602298927307128906e+01 6.297891616821289062e+00
3.704000000000000000e+03 7.328556823730468750e+01 -2.727375793457031250e+01 1.776236724853515625e+01 3.544133758544921875e+01 1.596111106872558594e+01 6.599467754364013672e+00
3.705000000000000000e+03 7.326989746093750000e+01 -2.726224136352539062e+01 1.477566814422607422e+01 3.867083740234375000e+01 1.603395080566406250e+01 5.577876567840576172e+00
3.706000000000000000e+03 7.325228118896484375e+01 -2.725399398803710938e+01 1.161080455780029297e+01 4.114047241210937500e+01 1.582538318634033203e+01 3.421974182128906250e+00
3.707000000000000000e+03 7.323340606689453125e+01 -2.724933052062988281e+01 9.380059242248535156e+00 4.271928405761718750e+01 1.562980270385742188e+01 1.219715327024459839e-01
3.708000000000000000e+03 7.321397399902343750e+01 -2.724842643737792969e+01 7.806799411773681641e+00 4.262137222290039062e+01 1.512845134735107422e+01 -3.860586643218994141e+00
3.709000000000000000e+03 7.319474792480468750e+01 -2.725131797790527344e+01 7.624318122863769531e+00 4.081833267211914062e+01 1.453279495239257812e+01 -7.994700431823730469e+00
3.710000000000000000e+03 7.317644500732421875e+01 -2.725789451599121094e+01 8.298741340637207031e+00 3.708810424804687500e+01 1.361605453491210938e+01 -1.171529579162597656e+01
3.711000000000000000e+03 7.315976715087890625e+01 -2.726790428161621094e+01 1.007920169830322266e+01 3.189650535583496094e+01 1.259271240234375000e+01 -1.442735099792480469e+01
3.712000000000000000e+03 7.314536285400390625e+01 -2.728096580505371094e+01 1.196886825561523438e+01 2.547647094726562500e+01 1.123360157012939453e+01 -1.583022403717041016e+01
3.713000000000000000e+03 7.313376617431640625e+01 -2.729658126831054688e+01 1.436818313598632812e+01 1.851904296875000000e+01 9.866168022155761719e+00 -1.547467422485351562e+01
3.714000000000000000e+03 7.312543487548828125e+01 -2.731415176391601562e+01 1.592437362670898438e+01 1.142329788208007812e+01 8.204301834106445312e+00 -1.351571750640869141e+01
3.715000000000000000e+03 7.312067413330078125e+01 -2.733300781250000000e+01 1.804246330261230469e+01 4.058521747589111328e+00 6.630295276641845703e+00 -7.353063583374023438e+00
