# el_label, x, y, sXX, sYY, sZZ, sXY
1.000000000000000000e+00 5.768446350097656250e+01 -1.824077415466308594e+01 -2.013014078140258789e+00 -2.682722806930541992e+00 -1.408721089363098145e+00 -2.200592756271362305e+00
2.000000000000000000e+00 5.749911880493164062e+01 -1.831332969665527344e+01 6.847798228263854980e-01 6.449499726295471191e-01 3.989189565181732178e-01 3.786236047744750977e-01
3.000000000000000000e+00 5.731377029418945312e+01 -1.838588333129882812e+01 4.602296650409698486e-01 -1.682593375444412231e-01 8.759110420942306519e-02 1.406372487545013428e-01
4.000000000000000000e+00 5.712842559814453125e+01 -1.845843696594238281e+01 3.222876191139221191e-01 1.369460970163345337e-01 1.377701163291931152e-01 1.790552437305450439e-01
5.000000000000000000e+00 5.771097183227539062e+01 -1.829281806945800781e+01 5.897837638854980469e+00 -1.165035128593444824e+00 1.419840693473815918e+00 2.301822185516357422e+00
6.000000000000000000e+00 5.754329681396484375e+01 -1.840006828308105469e+01 2.670554399490356445e+00 3.441909551620483398e-01 9.044235944747924805e-01 1.047400593757629395e+00
7.000000000000000000e+00 5.737562179565429688e+01 -1.850731658935546875e+01 2.402205944061279297e+00 1.026488542556762695e+00 1.028608322143554688e+00 1.643863201141357422e+00
8.000000000000000000e+00 5.720794677734375000e+01 -1.861456680297851562e+01 1.853473663330078125e+00 6.412706971168518066e-01 7.484232783317565918e-01 1.201436400413513184e+00
9.000000000000000000e+00 5.774710083007812500e+01 -1.833870506286621094e+01 7.371161937713623047e+00 3.701567649841308594e+00 3.321818828582763672e+00 5.926154136657714844e+00
1.000000000000000000e+01 5.760351562500000000e+01 -1.847654533386230469e+01 4.866106510162353516e+00 2.044863224029541016e+00 2.073291063308715820e+00 3.738117933273315430e+00
1.100000000000000000e+01 5.745993041992187500e+01 -1.861438751220703125e+01 3.392414331436157227e+00 2.180122852325439453e+00 1.671761155128479004e+00 2.747514009475708008e+00
1.200000000000000000e+01 5.731634140014648438e+01 -1.875222778320312500e+01 2.707667350769042969e+00 2.183639526367187500e+00 1.467392086982727051e+00 2.757675170898437500e+00
1.300000000000000000e+01 5.779147720336914062e+01 -1.837667846679687500e+01 7.145422935485839844e+00 8.986577987670898438e+00 4.839600563049316406e+00 8.100204467773437500e+00
1.400000000000000000e+01 5.767747116088867188e+01 -1.853983688354492188e+01 4.851644039154052734e+00 5.622178077697753906e+00 3.142146825790405273e+00 5.419070243835449219e+00
1.500000000000000000e+01 5.756346893310546875e+01 -1.870299530029296875e+01 3.735207080841064453e+00 4.488682746887207031e+00 2.467166900634765625e+00 4.388589382171630859e+00
1.600000000000000000e+01 5.744946670532226562e+01 -1.886615180969238281e+01 2.854833126068115234e+00 3.930209875106811523e+00 2.035512924194335938e+00 3.637150764465332031e+00
1.700000000000000000e+01 5.784239196777343750e+01 -1.840528869628906250e+01 5.697424888610839844e+00 1.475961780548095703e+01 6.137112617492675781e+00 8.352643966674804688e+00
1.800000000000000000e+01 5.776233673095703125e+01 -1.858751869201660156e+01 4.095876216888427734e+00 9.614340782165527344e+00 4.113065242767333984e+00 6.137292861938476562e+00
1.900000000000000000e+01 5.768227767944335938e+01 -1.876975059509277344e+01 3.190568447113037109e+00 7.506600856781005859e+00 3.209150791168212891e+00 4.905355453491210938e+00
2.000000000000000000e+01 5.760221862792968750e+01 -1.895198059082031250e+01 2.308542728424072266e+00 6.458832263946533203e+00 2.630212545394897461e+00 4.342741489410400391e+00
2.100000000000000000e+01 5.789790725708007812e+01 -1.842343711853027344e+01 4.154796123504638672e+00 1.992314910888671875e+01 7.223383903503417969e+00 6.966986656188964844e+00
2.200000000000000000e+01 5.785485839843750000e+01 -1.861776733398437500e+01 3.175138950347900391e+00 1.348351573944091797e+01 4.997596263885498047e+00 5.402653694152832031e+00
2.300000000000000000e+01 5.781180572509765625e+01 -1.881209754943847656e+01 2.282422304153442383e+00 1.066905021667480469e+01 3.885441780090332031e+00 4.610713958740234375e+00
2.400000000000000000e+01 5.776875686645507812e+01 -1.900642585754394531e+01 1.753451585769653320e+00 8.970139503479003906e+00 3.217077255249023438e+00 4.023769378662109375e+00
2.500000000000000000e+01 5.795589065551757812e+01 -1.843043136596679688e+01 3.392566919326782227e+00 2.394077301025390625e+01 8.200001716613769531e+00 4.101588726043701172e+00
2.600000000000000000e+01 5.795149612426757812e+01 -1.862942504882812500e+01 2.549611330032348633e+00 1.663049507141113281e+01 5.754032135009765625e+00 3.627869129180908203e+00
2.700000000000000000e+01 5.794710540771484375e+01 -1.882841682434082031e+01 1.806792736053466797e+00 1.322298431396484375e+01 4.508933067321777344e+00 3.318939685821533203e+00
2.800000000000000000e+01 5.794271469116210938e+01 -1.902740859985351562e+01 1.143915891647338867e+00 1.130570220947265625e+01 3.734885454177856445e+00 2.972926616668701172e+00
2.900000000000000000e+01 5.801412963867187500e+01 -1.842600250244140625e+01 3.736486673355102539e+00 2.621961021423339844e+01 8.986828804016113281e+00 4.920646250247955322e-01
3.000000000000000000e+01 5.804855728149414062e+01 -1.862204360961914062e+01 2.827188014984130859e+00 1.872924423217773438e+01 6.466929435729980469e+00 1.111636042594909668e+00
3.100000000000000000e+01 5.808299255371093750e+01 -1.881808280944824219e+01 1.918209791183471680e+00 1.489822673797607422e+01 5.044930934906005859e+00 1.303698301315307617e+00
3.200000000000000000e+01 5.811742401123046875e+01 -1.901412391662597656e+01 1.237306237220764160e+00 1.255820751190185547e+01 4.138654232025146484e+00 1.433594822883605957e+00
3.300000000000000000e+01 5.807038879394531250e+01 -1.841032218933105469e+01 5.798545837402343750e+00 2.680231285095214844e+01 9.780257225036621094e+00 -3.155743122100830078e+00
3.400000000000000000e+01 5.814232635498046875e+01 -1.859590721130371094e+01 3.772487878799438477e+00 1.948180770874023438e+01 6.976288318634033203e+00 -1.616480469703674316e+00
3.500000000000000000e+01 5.821426773071289062e+01 -1.878149414062500000e+01 3.106562137603759766e+00 1.558316802978515625e+01 5.606919288635253906e+00 -1.015914678573608398e+00
3.600000000000000000e+01 5.828620147705078125e+01 -1.896708106994628906e+01 2.103180170059204102e+00 1.288136482238769531e+01 4.495363712310791016e+00 -5.799294114112854004e-01
3.700000000000000000e+01 5.812252044677734375e+01 -1.838398742675781250e+01 8.650432586669921875e+00 2.562885856628417969e+01 1.028378772735595703e+01 -6.229577064514160156e+00
3.800000000000000000e+01 5.822921371459960938e+01 -1.855201721191406250e+01 6.072491645812988281e+00 1.913470840454101562e+01 7.562160491943359375e+00 -3.909759044647216797e+00
3.900000000000000000e+01 5.833590316772460938e+01 -1.872004699707031250e+01 4.544076919555664062e+00 1.521338748931884766e+01 5.927239418029785156e+00 -3.266899824142456055e+00
4.000000000000000000e+01 5.844259643554687500e+01 -1.888807868957519531e+01 4.186606407165527344e+00 1.272177028656005859e+01 5.072513103485107422e+00 -2.562076807022094727e+00
4.100000000000000000e+01 5.816852569580078125e+01 -1.834800910949707031e+01 1.251350498199462891e+01 2.372275161743164062e+01 1.087087631225585938e+01 -7.956706047058105469e+00
4.200000000000000000e+01 5.830588912963867188e+01 -1.849205207824707031e+01 8.743665695190429688e+00 1.756490707397460938e+01 7.892571926116943359e+00 -5.726456642150878906e+00
4.300000000000000000e+01 5.844325256347656250e+01 -1.863609695434570312e+01 6.902393341064453125e+00 1.419518756866455078e+01 6.329274654388427734e+00 -4.537632465362548828e+00
4.400000000000000000e+01 5.858061599731445312e+01 -1.878013992309570312e+01 5.853044986724853516e+00 1.188156032562255859e+01 5.320381641387939453e+00 -4.183262348175048828e+00
4.500000000000000000e+01 5.820664978027343750e+01 -1.830376052856445312e+01 1.630645561218261719e+01 2.101597213745117188e+01 1.119672870635986328e+01 -8.449620246887207031e+00
4.600000000000000000e+01 5.836942672729492188e+01 -1.841830635070800781e+01 1.176329040527343750e+01 1.583703517913818359e+01 8.280097961425781250e+00 -6.404371738433837891e+00
4.700000000000000000e+01 5.853220367431640625e+01 -1.853285217285156250e+01 9.588123321533203125e+00 1.225904083251953125e+01 6.554149627685546875e+00 -5.218159198760986328e+00
4.800000000000000000e+01 5.869498443603515625e+01 -1.864739799499511719e+01 7.686755657196044922e+00 1.037729358673095703e+01 5.419214725494384766e+00 -4.134614944458007812e+00
4.900000000000000000e+01 5.823542785644531250e+01 -1.825293922424316406e+01 1.982909393310546875e+01 1.906667518615722656e+01 1.166873073577880859e+01 -7.602057456970214844e+00
5.000000000000000000e+01 5.841739273071289062e+01 -1.833360290527343750e+01 1.448116588592529297e+01 1.347608852386474609e+01 8.387176513671875000e+00 -6.134905815124511719e+00
5.100000000000000000e+01 5.859935379028320312e+01 -1.841426658630371094e+01 1.197175693511962891e+01 1.064612388610839844e+01 6.785364151000976562e+00 -4.820993423461914062e+00
5.200000000000000000e+01 5.878131866455078125e+01 -1.849493026733398438e+01 1.041602611541748047e+01 8.105701446533203125e+00 5.556518077850341797e+00 -3.834219694137573242e+00
5.300000000000000000e+01 5.825376129150390625e+01 -1.819748687744140625e+01 2.212987518310546875e+01 1.673493957519531250e+01 1.165944480895996094e+01 -5.968924522399902344e+00
5.400000000000000000e+01 5.844794845581054688e+01 -1.824118232727050781e+01 1.675981712341308594e+01 1.249134159088134766e+01 8.775347709655761719e+00 -4.774762153625488281e+00
5.500000000000000000e+01 5.864213180541992188e+01 -1.828487586975097656e+01 1.377755928039550781e+01 8.326034545898437500e+00 6.631078243255615234e+00 -3.877294301986694336e+00
5.600000000000000000e+01 5.883631896972656250e+01 -1.832857131958007812e+01 1.202213668823242188e+01 7.134797096252441406e+00 5.747079849243164062e+00 -2.814440488815307617e+00
5.700000000000000000e+01 5.826094818115234375e+01 -1.813952445983886719e+01 2.348202896118164062e+01 1.664442062377929688e+01 1.203793430328369141e+01 -4.070062160491943359e+00
5.800000000000000000e+01 5.845992660522460938e+01 -1.814457893371582031e+01 1.819393157958984375e+01 1.070493030548095703e+01 8.669658660888671875e+00 -2.770068883895874023e+00
5.900000000000000000e+01 5.865890121459960938e+01 -1.814963340759277344e+01 1.471724891662597656e+01 8.299942970275878906e+00 6.905157566070556641e+00 -2.293891906738281250e+00
6.000000000000000000e+01 5.885787963867187500e+01 -1.815468788146972656e+01 1.228206253051757812e+01 4.696991443634033203e+00 5.093716144561767578e+00 -1.078740239143371582e+00
6.100000000000000000e+01 5.825671386718750000e+01 -1.808127212524414062e+01 2.374109649658203125e+01 1.701268959045410156e+01 1.222613620758056641e+01 -1.358517646789550781e+00
6.200000000000000000e+01 5.845286560058593750e+01 -1.804749298095703125e+01 1.829415702819824219e+01 1.047184658050537109e+01 8.629800796508789062e+00 -1.284328103065490723e+00
6.300000000000000000e+01 5.864902114868164062e+01 -1.801371383666992188e+01 1.489634037017822266e+01 7.937765121459960938e+00 6.850231647491455078e+00 1.141507253050804138e-01
6.400000000000000000e+01 5.884517288208007812e+01 -1.797993469238281250e+01 1.286378288269042969e+01 4.748261928558349609e+00 5.283613681793212891e+00 6.728970259428024292e-02
6.500000000000000000e+01 5.824121856689453125e+01 -1.802496147155761719e+01 2.274546432495117188e+01 1.651758956909179688e+01 1.177891635894775391e+01 3.363479375839233398e-01
6.600000000000000000e+01 5.842704391479492188e+01 -1.795363998413085938e+01 1.741724395751953125e+01 1.279308223724365234e+01 9.063097953796386719e+00 6.482875347137451172e-01
6.700000000000000000e+01 5.861286926269531250e+01 -1.788231849670410156e+01 1.416905403137207031e+01 6.801087379455566406e+00 6.291042804718017578e+00 1.326495885848999023e+00
6.800000000000000000e+01 5.879869079589843750e+01 -1.781099700927734375e+01 1.213564586639404297e+01 6.899754524230957031e+00 5.710619926452636719e+00 1.553958535194396973e+00
6.900000000000000000e+01 5.821505737304687500e+01 -1.797274208068847656e+01 2.173151016235351562e+01 1.963259887695312500e+01 1.240923309326171875e+01 1.099603652954101562e+00
7.000000000000000000e+01 5.838344192504882812e+01 -1.786660957336425781e+01 1.545628452301025391e+01 1.254482841491699219e+01 8.400334358215332031e+00 2.522701263427734375e+00
7.100000000000000000e+01 5.855182647705078125e+01 -1.776047706604003906e+01 1.255731487274169922e+01 1.037384414672851562e+01 6.879347801208496094e+00 1.474338173866271973e+00
7.200000000000000000e+01 5.872021102905273438e+01 -1.765434265136718750e+01 9.017027854919433594e+00 5.217447280883789062e+00 4.270342826843261719e+00 2.695359706878662109e+00
7.300000000000000000e+01 5.817922973632812500e+01 -1.792661666870117188e+01 1.881049919128417969e+01 2.139269638061523438e+01 1.206095886230468750e+01 2.009538888931274414e+00
7.400000000000000000e+01 5.832373046875000000e+01 -1.778973197937011719e+01 1.383640480041503906e+01 1.465826988220214844e+01 8.548401832580566406e+00 2.121294736862182617e+00
7.500000000000000000e+01 5.846823120117187500e+01 -1.765284919738769531e+01 9.710721015930175781e+00 1.161044025421142578e+01 6.396348476409912109e+00 2.634214639663696289e+00
7.600000000000000000e+01 5.861272811889648438e+01 -1.751596641540527344e+01 7.639639854431152344e+00 8.554987907409667969e+00 4.858388423919677734e+00 2.312800168991088867e+00
7.700000000000000000e+01 5.813510894775390625e+01 -1.788834762573242188e+01 1.629479789733886719e+01 2.206356811523437500e+01 1.150750923156738281e+01 1.884501457214355469e+00
7.800000000000000000e+01 5.825019454956054688e+01 -1.772595214843750000e+01 1.171085739135742188e+01 1.769263267517089844e+01 8.821046829223632812e+00 1.048523783683776855e+00
7.900000000000000000e+01 5.836528015136718750e+01 -1.756355476379394531e+01 7.338221073150634766e+00 1.196790981292724609e+01 5.791839599609375000e+00 2.306651115417480469e+00
8.000000000000000000e+01 5.848036956787109375e+01 -1.740115928649902344e+01 6.559453487396240234e+00 1.113368034362792969e+01 5.307940006256103516e+00 1.783235073089599609e+00
8.100000000000000000e+01 5.808438491821289062e+01 -1.785940170288085938e+01 1.601618194580078125e+01 2.556334686279296875e+01 1.247385883331298828e+01 -6.778035163879394531e-01
8.200000000000000000e+01 5.816565322875976562e+01 -1.767770767211914062e+01 7.717965602874755859e+00 1.747654914855957031e+01 7.558354377746582031e+00 6.308006048202514648e-01
8.300000000000000000e+01 5.824692153930664062e+01 -1.749601173400878906e+01 7.624551296234130859e+00 1.465369224548339844e+01 6.683473110198974609e+00 -5.745828747749328613e-01
8.400000000000000000e+01 5.832818984985351562e+01 -1.731431770324707031e+01 2.553855657577514648e+00 9.615114212036132812e+00 3.650690793991088867e+00 8.726356029510498047e-01
8.500000000000000000e+01 5.802899551391601562e+01 -1.784088325500488281e+01 1.096358871459960938e+01 2.473861122131347656e+01 1.071065998077392578e+01 -2.151825189590454102e+00
8.600000000000000000e+01 5.807333374023437500e+01 -1.764684486389160156e+01 9.902356147766113281e+00 1.920411300659179688e+01 8.731941223144531250e+00 -2.662308692932128906e+00
8.700000000000000000e+01 5.811767578125000000e+01 -1.745280456542968750e+01 2.889499187469482422e+00 1.420737075805664062e+01 5.129060745239257812e+00 -1.584869742393493652e+00
8.800000000000000000e+01 5.816201400756835938e+01 -1.725876617431640625e+01 4.023669719696044922e+00 1.179082393646240234e+01 4.744348049163818359e+00 -3.037131786346435547e+00
8.900000000000000000e+01 5.797105407714843750e+01 -1.783350372314453125e+01 1.426611614227294922e+01 2.590486145019531250e+01 1.205129337310791016e+01 -5.360557556152343750e+00
9.000000000000000000e+01 5.797677230834960938e+01 -1.763454437255859375e+01 5.568491458892822266e+00 1.756609535217285156e+01 6.940376281738281250e+00 -4.946671962738037109e+00
9.100000000000000000e+01 5.798248672485351562e+01 -1.743558692932128906e+01 6.588438034057617188e+00 1.402534103393554688e+01 6.184133529663085938e+00 -4.340611934661865234e+00
9.200000000000000000e+01 5.798820495605468750e+01 -1.723662757873535156e+01 -6.496092081069946289e-01 1.244241142272949219e+01 3.537840843200683594e+00 -3.549579620361328125e+00
9.300000000000000000e+01 5.791279220581054688e+01 -1.783754539489746094e+01 1.106513690948486328e+01 2.281129837036132812e+01 1.016293048858642578e+01 -8.955383300781250000e+00
9.400000000000000000e+01 5.787966537475585938e+01 -1.764128112792968750e+01 9.997134208679199219e+00 1.660511970520019531e+01 7.980675697326660156e+00 -6.863300323486328125e+00
9.500000000000000000e+01 5.784653472900390625e+01 -1.744501686096191406e+01 3.336694478988647461e+00 1.198333835601806641e+01 4.596009731292724609e+00 -6.965040206909179688e+00
9.600000000000000000e+01 5.781340789794921875e+01 -1.724875068664550781e+01 5.233722686767578125e+00 9.592868804931640625e+00 4.447977542877197266e+00 -4.030386924743652344e+00
9.700000000000000000e+01 5.785643005371093750e+01 -1.785285186767578125e+01 1.530577373504638672e+01 2.116542816162109375e+01 1.094136047363281250e+01 -1.045832538604736328e+01
9.800000000000000000e+01 5.778572463989257812e+01 -1.766679191589355469e+01 8.917006492614746094e+00 1.253464603424072266e+01 6.435495853424072266e+00 -9.815961837768554688e+00
9.900000000000000000e+01 5.771502304077148438e+01 -1.748073196411132812e+01 7.580970764160156250e+00 9.994452476501464844e+00 5.272626876831054688e+00 -7.158970832824707031e+00
1.000000000000000000e+02 5.764431762695312500e+01 -1.729467201232910156e+01 4.430844783782958984e+00 5.083034038543701172e+00 2.854163646697998047e+00 -7.919682025909423828e+00
1.010000000000000000e+02 5.780412292480468750e+01 -1.787883949279785156e+01 1.673126220703125000e+01 1.520722103118896484e+01 9.581544876098632812e+00 -1.280447196960449219e+01
1.020000000000000000e+02 5.769855117797851562e+01 -1.771010398864746094e+01 1.196292877197265625e+01 1.039648818969726562e+01 6.707825183868408203e+00 -9.635275840759277344e+00
1.030000000000000000e+02 5.759297943115234375e+01 -1.754136657714843750e+01 8.682650566101074219e+00 5.316367626190185547e+00 4.199705600738525391e+00 -9.163854598999023438e+00
1.040000000000000000e+02 5.748740386962890625e+01 -1.737263107299804688e+01 6.429087638854980469e+00 3.401956081390380859e+00 2.949313163757324219e+00 -8.370568275451660156e+00
1.050000000000000000e+02 5.775787734985351562e+01 -1.791451263427734375e+01 1.955457687377929688e+01 1.140679931640625000e+01 9.288413047790527344e+00 -1.225107192993164062e+01
1.060000000000000000e+02 5.762147521972656250e+01 -1.776955795288085938e+01 1.393675041198730469e+01 5.453891754150390625e+00 5.817192554473876953e+00 -9.471226692199707031e+00
1.070000000000000000e+02 5.748507308959960938e+01 -1.762460327148437500e+01 1.010214614868164062e+01 3.363125562667846680e+00 4.039581775665283203e+00 -8.898175239562988281e+00
1.080000000000000000e+02 5.734867095947265625e+01 -1.747964859008789062e+01 8.230198860168457031e+00 4.583896100521087646e-01 2.606576681137084961e+00 -8.983997344970703125e+00
1.090000000000000000e+02 5.771946334838867188e+01 -1.795850372314453125e+01 2.217416763305664062e+01 5.846014022827148438e+00 8.406054496765136719e+00 -1.021539020538330078e+01
1.100000000000000000e+02 5.755745315551757812e+01 -1.784288024902343750e+01 1.493742561340332031e+01 2.692036628723144531e+00 5.288838386535644531e+00 -8.013877868652343750e+00
1.110000000000000000e+02 5.739543914794921875e+01 -1.772725486755371094e+01 1.129616928100585938e+01 5.625954866409301758e-01 3.557629346847534180e+00 -7.392376422882080078e+00
1.120000000000000000e+02 5.723342514038085938e+01 -1.761162757873535156e+01 8.255919456481933594e+00 -5.997090935707092285e-01 2.296863079071044922e+00 -8.441042900085449219e+00
1.130000000000000000e+02 5.769034957885742188e+01 -1.800913429260253906e+01 2.286027908325195312e+01 1.859390139579772949e+00 7.415900707244873047e+00 -6.938896179199218750e+00
1.140000000000000000e+02 5.750892639160156250e+01 -1.792726325988769531e+01 1.512166023254394531e+01 2.384872436523437500e-01 4.608044147491455078e+00 -5.074505329132080078e+00
1.150000000000000000e+02 5.732750320434570312e+01 -1.784539222717285156e+01 1.104618167877197266e+01 -7.825407981872558594e-01 3.079092264175415039e+00 -5.761447906494140625e+00
1.160000000000000000e+02 5.714608001708984375e+01 -1.776351928710937500e+01 8.267224311828613281e+00 -1.345220923423767090e+00 2.076601028442382812e+00 -6.156656265258789062e+00
1.170000000000000000e+02 5.767164611816406250e+01 -1.806446456909179688e+01 2.151981353759765625e+01 -7.686679959297180176e-01 6.225343704223632812e+00 -2.418915033340454102e+00
1.180000000000000000e+02 5.747775650024414062e+01 -1.801947975158691406e+01 1.372325420379638672e+01 -8.033795952796936035e-01 3.875962495803833008e+00 -2.273497104644775391e+00
1.190000000000000000e+02 5.728386688232421875e+01 -1.797449302673339844e+01 9.656509399414062500e+00 -1.069692254066467285e+00 2.576045036315917969e+00 -3.155879497528076172e+00
1.200000000000000000e+02 5.708997344970703125e+01 -1.792950630187988281e+01 7.359519958496093750e+00 -1.606474399566650391e+00 1.725913643836975098e+00 -4.420998573303222656e+00
1.210000000000000000e+02 5.766407394409179688e+01 -1.812237548828125000e+01 1.756363868713378906e+01 -1.400676965713500977e+00 4.848888397216796875e+00 2.145189285278320312e+00
1.220000000000000000e+02 5.746513366699218750e+01 -1.811599731445312500e+01 1.024180603027343750e+01 -4.536765217781066895e-01 2.936438798904418945e+00 9.564460813999176025e-02
1.230000000000000000e+02 5.726619720458984375e+01 -1.810962104797363281e+01 8.311184883117675781e+00 -6.116574406623840332e-01 2.309858083724975586e+00 -1.509611010551452637e+00
1.240000000000000000e+02 5.706725692749023438e+01 -1.810324287414550781e+01 5.587253570556640625e+00 -1.494257926940917969e+00 1.227898716926574707e+00 -1.959657073020935059e+00
1.250000000000000000e+02 5.766792297363281250e+01 -1.818065452575683594e+01 8.360648155212402344e+00 -9.737206697463989258e-01 2.216078281402587891e+00 3.666754961013793945e+00
1.260000000000000000e+02 5.747154617309570312e+01 -1.821312904357910156e+01 9.143430709838867188e+00 1.034594535827636719e+00 3.053407430648803711e+00 7.875866889953613281e-01
1.270000000000000000e+02 5.727517318725585938e+01 -1.824560165405273438e+01 5.617774009704589844e+00 -8.451110720634460449e-01 1.431798815727233887e+00 7.455325126647949219e-01
1.280000000000000000e+02 5.707880020141601562e+01 -1.827807617187500000e+01 3.361534118652343750e+00 6.256608664989471436e-02 1.027230024337768555e+00 -4.600956439971923828e-01
1.290000000000000000e+02 4.454376983642578125e+01 -2.153533744812011719e+01 -6.695913672447204590e-01 -1.383666247129440308e-01 -2.423874139785766602e-01 -3.339227735996246338e-01
1.300000000000000000e+02 4.525796890258789062e+01 -2.133341026306152344e+01 -9.382027983665466309e-01 -1.557565033435821533e-01 -3.281877934932708740e-01 -4.125737249851226807e-01
1.310000000000000000e+02 4.405188369750976562e+01 -2.244241142272949219e+01 -3.455043435096740723e-01 -2.648660838603973389e-01 -1.831111311912536621e-01 -4.627879858016967773e-01
1.320000000000000000e+02 4.615114593505859375e+01 -2.184869003295898438e+01 -9.524943828582763672e-01 -2.276843041181564331e-01 -3.540536165237426758e-01 -6.520573496818542480e-01
1.330000000000000000e+02 4.545270156860351562e+01 -2.204736137390136719e+01 -7.215405702590942383e-01 -2.474919259548187256e-01 -2.907097339630126953e-01 -6.033260226249694824e-01
1.340000000000000000e+02 4.475288772583007812e+01 -2.224522018432617188e+01 -5.079279541969299316e-01 -2.863813042640686035e-01 -2.382927834987640381e-01 -5.572222471237182617e-01
1.350000000000000000e+02 4.597079086303710938e+01 -2.113067054748535156e+01 -1.191870093345642090e+00 -1.292626410722732544e-01 -3.963398039340972900e-01 -4.563660621643066406e-01
1.360000000000000000e+02 4.382838821411132812e+01 -2.173659515380859375e+01 -3.962434530258178711e-01 -1.125006303191184998e-01 -1.526232212781906128e-01 -2.594303488731384277e-01
1.370000000000000000e+02 4.742242813110351562e+01 -2.080677986145019531e+01 -1.841906070709228516e+00 -1.256083697080612183e-01 -5.902543067932128906e-01 -5.330103039741516113e-01
1.380000000000000000e+02 4.815383148193359375e+01 -2.066137695312500000e+01 -2.153281927108764648e+00 -1.455258578062057495e-01 -6.896423697471618652e-01 -5.794634222984313965e-01
1.390000000000000000e+02 4.686201095581054688e+01 -2.167665290832519531e+01 -1.173283100128173828e+00 -2.010189145803451538e-01 -4.122906029224395752e-01 -6.999502778053283691e-01
1.400000000000000000e+02 4.830693054199218750e+01 -2.138541984558105469e+01 -1.605347514152526855e+00 -1.769955903291702271e-01 -5.347028970718383789e-01 -7.256324291229248047e-01
1.410000000000000000e+02 4.888698577880859375e+01 -2.051945686340332031e+01 -2.425075531005859375e+00 -1.241464987397193909e-01 -7.647666335105895996e-01 -6.132964491844177246e-01
1.420000000000000000e+02 4.903206253051757812e+01 -2.124509811401367188e+01 -1.807745218276977539e+00 -1.600579470396041870e-01 -5.903409719467163086e-01 -7.215872406959533691e-01
1.430000000000000000e+02 4.758355331420898438e+01 -2.152922821044921875e+01 -1.381549715995788574e+00 -2.074619531631469727e-01 -4.767034947872161865e-01 -7.260787487030029297e-01
1.440000000000000000e+02 4.669285964965820312e+01 -2.095580101013183594e+01 -1.492649078369140625e+00 -1.255504488945007324e-01 -4.854598641395568848e-01 -4.864406883716583252e-01
1.450000000000000000e+02 5.036022949218750000e+01 -2.024225044250488281e+01 -2.873846530914306641e+00 -1.114823669195175171e-01 -8.955987095832824707e-01 -6.397737264633178711e-01
1.460000000000000000e+02 5.123764038085937500e+01 -2.082924842834472656e+01 -2.202838897705078125e+00 -1.496923994272947311e-02 -6.653424501419067383e-01 -5.419456958770751953e-01
1.470000000000000000e+02 4.976291656494140625e+01 -2.110580253601074219e+01 -1.984322428703308105e+00 -1.128889918327331543e-01 -6.291634440422058105e-01 -6.879761815071105957e-01
1.480000000000000000e+02 5.197274780273437500e+01 -2.068717575073242188e+01 -2.229296207427978516e+00 1.873304718174040318e-03 -6.682268977165222168e-01 -4.310271143913269043e-01
1.490000000000000000e+02 5.050101470947265625e+01 -2.096874237060546875e+01 -2.110605716705322266e+00 -9.142868965864181519e-02 -6.606103777885437012e-01 -6.336624622344970703e-01
1.500000000000000000e+02 5.183234024047851562e+01 -1.996061325073242188e+01 -3.081191778182983398e+00 -8.626948297023773193e-02 -9.502383470535278320e-01 -6.072325110435485840e-01
1.510000000000000000e+02 4.962194442749023438e+01 -2.037934684753417969e+01 -2.668249845504760742e+00 -1.379840821027755737e-01 -8.418701887130737305e-01 -6.299076676368713379e-01
1.520000000000000000e+02 5.109704208374023438e+01 -2.010272216796875000e+01 -3.012999773025512695e+00 -1.235618367791175842e-01 -9.409684538841247559e-01 -6.294063925743103027e-01
1.530000000000000000e+02 5.333843994140625000e+01 -1.960569763183593750e+01 -2.953539371490478516e+00 -9.304314106702804565e-02 -9.139747619628906250e-01 -5.377280116081237793e-01
1.540000000000000000e+02 5.332963180541992188e+01 -2.051340484619140625e+01 -1.975897192955017090e+00 1.830268204212188721e-01 -5.378611087799072266e-01 -7.505299150943756104e-02
1.550000000000000000e+02 5.512500762939453125e+01 -1.988773727416992188e+01 -1.285920381546020508e+00 5.241118669509887695e-01 -2.285425513982772827e-01 6.362709999084472656e-01
1.560000000000000000e+02 5.269617462158203125e+01 -2.054637908935546875e+01 -2.150633096694946289e+00 1.255262345075607300e-01 -6.075320243835449219e-01 -2.545516192913055420e-01
1.570000000000000000e+02 5.390055465698242188e+01 -2.046977996826171875e+01 -1.629670143127441406e+00 4.336683154106140137e-01 -3.588005602359771729e-01 2.394641488790512085e-01
1.580000000000000000e+02 5.463464736938476562e+01 -1.960744094848632812e+01 -1.993200898170471191e+00 6.730563193559646606e-02 -5.777685642242431641e-01 5.419535562396049500e-03
1.590000000000000000e+02 5.510612487792968750e+01 -2.032945442199707031e+01 -9.727399945259094238e-01 8.883277773857116699e-01 -2.532367035746574402e-02 1.036164522171020508e+00
1.600000000000000000e+02 5.508996582031250000e+01 -1.969891166687011719e+01 -1.446567654609680176e+00 2.855387628078460693e-01 -3.483086824417114258e-01 3.527860045433044434e-01
1.610000000000000000e+02 5.402068328857421875e+01 -1.939006042480468750e+01 -2.776050329208374023e+00 -7.174324244260787964e-02 -8.543380498886108398e-01 -4.851325154304504395e-01
1.620000000000000000e+02 5.455006408691406250e+01 -1.932577896118164062e+01 -2.437181711196899414e+00 -4.726893454790115356e-02 -7.453351616859436035e-01 -3.156220316886901855e-01
1.630000000000000000e+02 5.258971023559570312e+01 -1.981313896179199219e+01 -3.053390741348266602e+00 -1.017840579152107239e-01 -9.465523958206176758e-01 -5.628189444541931152e-01
1.640000000000000000e+02 5.500949478149414062e+01 -1.950406837463378906e+01 -1.698036789894104004e+00 1.650315672159194946e-01 -4.599015712738037109e-01 7.718623429536819458e-02
1.650000000000000000e+02 5.510764312744140625e+01 -2.009795951843261719e+01 -1.081179499626159668e+00 7.103877663612365723e-01 -1.112375259399414062e-01 8.413762450218200684e-01
1.660000000000000000e+02 5.461639785766601562e+01 -2.005110549926757812e+01 -1.589792251586914062e+00 3.847829997539520264e-01 -3.615027666091918945e-01 3.896582722663879395e-01
1.670000000000000000e+02 5.421493911743164062e+01 -1.980089187622070312e+01 -2.138463497161865234e+00 1.711408644914627075e-01 -5.901967883110046387e-01 -7.135532796382904053e-02
1.680000000000000000e+02 5.366555404663085938e+01 -2.007861518859863281e+01 -2.199619531631469727e+00 1.422336697578430176e-01 -6.172157526016235352e-01 -9.098379313945770264e-02
1.690000000000000000e+02 5.450790405273437500e+01 -2.038101196289062500e+01 -1.401679515838623047e+00 5.730102658271789551e-01 -2.486007809638977051e-01 5.126875042915344238e-01
1.700000000000000000e+02 5.483287048339843750e+01 -1.981805419921875000e+01 -1.623050332069396973e+00 2.754322886466979980e-01 -4.042854011058807373e-01 2.908529639244079590e-01
1.710000000000000000e+02 5.481914520263671875e+01 -1.911074638366699219e+01 -2.473216056823730469e+00 -5.847863480448722839e-02 -7.595083713531494141e-01 -4.603919386863708496e-01
1.720000000000000000e+02 5.495196533203125000e+01 -1.930132675170898438e+01 -1.860556483268737793e+00 3.460029140114784241e-02 -5.477868318557739258e-01 -1.648275852203369141e-01
1.730000000000000000e+02 5.886071395874023438e+01 -1.878507423400878906e+01 6.679681301116943359e+00 8.491224288940429688e+00 4.551271438598632812e+00 -3.462714433670043945e+00
1.740000000000000000e+02 5.906469345092773438e+01 -1.771984672546386719e+01 7.305034160614013672e+00 2.559437990188598633e+00 2.959341764450073242e+00 2.431813478469848633e+00
1.750000000000000000e+02 5.867643356323242188e+01 -1.720010948181152344e+01 1.553219318389892578e+00 5.672977924346923828e+00 2.167859077453613281e+00 2.176563262939453125e+00
1.760000000000000000e+02 5.890695571899414062e+01 -1.754797172546386719e+01 8.703832626342773438e+00 4.904044151306152344e+00 4.082363128662109375e+00 4.150131702423095703e+00
1.770000000000000000e+02 5.844272994995117188e+01 -1.713006973266601562e+01 2.585561990737915039e+00 9.771154403686523438e+00 3.707015037536621094e+00 1.690980553627014160e+00
1.780000000000000000e+02 5.526607131958007812e+01 -1.853714370727539062e+01 -8.453325271606445312e+00 -5.454212427139282227e-01 -2.699624061584472656e+00 -2.765314817428588867e+00
1.790000000000000000e+02 5.656031417846679688e+01 -1.705667877197265625e+01 1.923252105712890625e+00 -1.209782958030700684e+00 2.140407413244247437e-01 -8.682490348815917969e+00
1.800000000000000000e+02 5.767945480346679688e+01 -1.710122489929199219e+01 4.948604583740234375e+00 4.509667396545410156e+00 2.837481737136840820e+00 -6.736800193786621094e+00
1.810000000000000000e+02 5.866737365722656250e+01 -1.898339080810546875e+01 4.391143798828125000e+00 1.060968589782714844e+01 4.500248908996582031e+00 -2.698960781097412109e+00
1.820000000000000000e+02 5.549004364013671875e+01 -2.025552940368652344e+01 -7.545905113220214844e-01 1.088812589645385742e+00 1.002666056156158447e-01 1.216762781143188477e+00
1.830000000000000000e+02 5.568991851806640625e+01 -2.019561958312988281e+01 -6.347709894180297852e-01 1.330497026443481445e+00 2.087178230285644531e-01 1.482401371002197266e+00
1.840000000000000000e+02 5.539499664306640625e+01 -1.984060859680175781e+01 -9.950281977653503418e-01 6.566441655158996582e-01 -1.015152186155319214e-01 7.969336509704589844e-01
1.850000000000000000e+02 5.577658843994140625e+01 -1.886298751831054688e+01 -1.361626982688903809e+00 2.808943204581737518e-02 -4.000612795352935791e-01 -2.747081220149993896e-01
1.860000000000000000e+02 5.714023590087890625e+01 -1.890646171569824219e+01 1.963697433471679688e+00 1.803770780563354492e+00 1.130240440368652344e+00 2.260657072067260742e+00
1.870000000000000000e+02 5.827717590332031250e+01 -1.916466903686523438e+01 1.350137829780578613e+00 1.122482967376708984e+01 3.772490262985229492e+00 2.503910660743713379e-02
1.880000000000000000e+02 5.771868515014648438e+01 -1.919342613220214844e+01 1.241416573524475098e+00 7.960454940795898438e+00 2.760561466217041016e+00 3.775966882705688477e+00
1.890000000000000000e+02 5.766723251342773438e+01 -1.939550781250000000e+01 9.386713504791259766e-01 6.911674022674560547e+00 2.355103731155395508e+00 3.415000915527343750e+00
1.900000000000000000e+02 5.751816940307617188e+01 -1.913909149169921875e+01 1.848548889160156250e+00 5.742072582244873047e+00 2.277186393737792969e+00 3.809279680252075195e+00
1.910000000000000000e+02 5.697279739379882812e+01 -1.947187232971191406e+01 9.884266257286071777e-01 2.843957662582397461e+00 1.149715304374694824e+00 2.731768846511840820e+00
1.920000000000000000e+02 5.649792098999023438e+01 -1.947201156616210938e+01 2.942650318145751953e-01 1.458955883979797363e+00 5.259662866592407227e-01 1.706663608551025391e+00
1.930000000000000000e+02 5.484796524047851562e+01 -1.754545974731445312e+01 -1.054789662361145020e+00 1.540033221244812012e+00 1.455730944871902466e-01 -4.022418498992919922e+00
1.940000000000000000e+02 5.510573959350585938e+01 -1.771393775939941406e+01 -2.207300901412963867e+00 9.580807089805603027e-01 -3.747660815715789795e-01 -4.052750587463378906e+00
1.950000000000000000e+02 5.513620758056640625e+01 -1.878062629699707031e+01 -1.014466381072998047e+01 -8.437222242355346680e-01 -3.296515941619873047e+00 -2.588302850723266602e+00
1.960000000000000000e+02 5.504497909545898438e+01 -1.837637329101562500e+01 -7.244233131408691406e+00 -1.901602186262607574e-02 -2.178974628448486328e+00 -2.807532548904418945e+00
1.970000000000000000e+02 5.490251922607421875e+01 -1.775535392761230469e+01 -3.268465280532836914e+00 1.267236113548278809e+00 -6.003687381744384766e-01 -3.641657352447509766e+00
1.980000000000000000e+02 5.647267532348632812e+01 -1.840577697753906250e+01 -2.807693481445312500e+00 -6.129695773124694824e-01 -1.026198983192443848e+00 -1.844778418540954590e+00
1.990000000000000000e+02 5.659635925292968750e+01 -1.811390686035156250e+01 9.051694273948669434e-01 -1.530144572257995605e+00 -1.874925345182418823e-01 -3.404039621353149414e+00
2.000000000000000000e+02 5.687519073486328125e+01 -1.831042098999023438e+01 1.041168212890625000e+00 -8.596382141113281250e-01 5.445900931954383850e-02 -8.066264986991882324e-01
2.010000000000000000e+02 5.883453750610351562e+01 -1.733846855163574219e+01 4.666507720947265625e+00 3.307507038116455078e+00 2.392204523086547852e+00 2.570988655090332031e+00
2.020000000000000000e+02 5.828218460083007812e+01 -1.699524879455566406e+01 1.621799349784851074e+00 6.447656631469726562e+00 2.420836925506591797e+00 -1.166751012206077576e-01
2.030000000000000000e+02 5.759629440307617188e+01 -1.689156532287597656e+01 -2.454207420349121094e+00 1.221168994903564453e+00 -3.699115514755249023e-01 -7.497711658477783203e+00
2.040000000000000000e+02 5.741291046142578125e+01 -1.720808410644531250e+01 3.623137474060058594e+00 -7.949099540710449219e-01 8.484682440757751465e-01 -9.817090034484863281e+00
2.050000000000000000e+02 5.674773025512695312e+01 -1.748277664184570312e+01 4.707371234893798828e+00 -1.672215819358825684e+00 9.105466604232788086e-01 -8.156516075134277344e+00
2.060000000000000000e+02 5.694067764282226562e+01 -1.852854728698730469e+01 1.443774849176406860e-01 3.389655798673629761e-02 5.348221585154533386e-02 1.398914903402328491e-01
2.070000000000000000e+02 5.655309295654296875e+01 -1.864652442932128906e+01 -3.972040116786956787e-01 1.156406104564666748e-01 -8.446902036666870117e-02 4.299470037221908569e-02
2.080000000000000000e+02 5.731126022338867188e+01 -1.904940223693847656e+01 2.094443082809448242e+00 3.492250204086303711e+00 1.676007986068725586e+00 3.358228683471679688e+00
2.090000000000000000e+02 5.789503097534179688e+01 -1.937716674804687500e+01 5.056149363517761230e-01 8.875415802001953125e+00 2.814309358596801758e+00 2.818069219589233398e+00
2.100000000000000000e+02 5.844330596923828125e+01 -1.911860275268554688e+01 2.171933650970458984e+00 1.125341510772705078e+01 4.027604579925537109e+00 -1.221768856048583984e+00
2.110000000000000000e+02 5.616908264160156250e+01 -1.876453018188476562e+01 -8.876416087150573730e-01 4.124912992119789124e-02 -2.539177536964416504e-01 -1.122419834136962891e-01
2.120000000000000000e+02 5.628162384033203125e+01 -1.978680038452148438e+01 -6.405319273471832275e-02 1.598029136657714844e+00 4.601927995681762695e-01 1.805074810981750488e+00
2.130000000000000000e+02 5.519565200805664062e+01 -1.902307701110839844e+01 -2.141879320144653320e+00 -2.051695138216018677e-01 -7.041146159172058105e-01 -3.924934864044189453e-01
2.140000000000000000e+02 5.907281112670898438e+01 -1.815056610107421875e+01 1.252351760864257812e+01 3.256278276443481445e+00 4.733938694000244141e+00 -4.425741434097290039e-01
2.150000000000000000e+02 5.756570053100585938e+01 -1.716288948059082031e+01 4.873905181884765625e+00 4.641750335693359375e+00 2.854696512222290039e+00 -7.380800247192382812e+00
2.160000000000000000e+02 5.797191619873046875e+01 -1.691011810302734375e+01 1.985977053642272949e+00 6.489806652069091797e+00 2.542735099792480469e+00 -4.314812183380126953e+00
2.170000000000000000e+02 5.859756851196289062e+01 -1.695450401306152344e+01 1.023480296134948730e+00 5.599850177764892578e+00 1.986999154090881348e+00 2.734594106674194336e+00
2.180000000000000000e+02 5.694527053833007812e+01 -1.764666175842285156e+01 5.572905063629150391e+00 -1.749744296073913574e+00 1.146948337554931641e+00 -7.420928478240966797e+00
2.190000000000000000e+02 5.911094284057617188e+01 -1.744688415527343750e+01 6.073213577270507812e+00 2.065137386322021484e+00 2.441505432128906250e+00 3.870966911315917969e+00
2.200000000000000000e+02 5.638533401489257812e+01 -1.817963409423828125e+01 -9.184955954551696777e-01 -1.230253815650939941e+00 -6.446248292922973633e-01 -3.791828870773315430e+00
2.210000000000000000e+02 5.735575485229492188e+01 -1.690969848632812500e+01 -2.500794649124145508e+00 -1.302197933197021484e+00 -1.140897750854492188e+00 -9.411172866821289062e+00
2.220000000000000000e+02 5.722960281372070312e+01 -1.728060913085937500e+01 4.369798660278320312e+00 -3.321426212787628174e-01 1.211296796798706055e+00 -1.015181636810302734e+01
2.230000000000000000e+02 5.620252609252929688e+01 -1.720930480957031250e+01 1.901604175567626953e+00 -9.623676538467407227e-01 2.817709743976593018e-01 -8.034093856811523438e+00
2.240000000000000000e+02 5.869038391113281250e+01 -1.924822616577148438e+01 2.008024215698242188e+00 9.728100776672363281e+00 3.520837545394897461e+00 -1.438240766525268555e+00
2.250000000000000000e+02 5.787799835205078125e+01 -1.959011840820312500e+01 3.191350996494293213e-01 7.843238830566406250e+00 2.448712110519409180e+00 2.681522369384765625e+00
2.260000000000000000e+02 5.904600906372070312e+01 -1.857635688781738281e+01 8.400602340698242188e+00 5.773483276367187500e+00 4.252225875854492188e+00 -2.300221920013427734e+00
2.270000000000000000e+02 5.912035369873046875e+01 -1.792218399047851562e+01 9.521809577941894531e+00 2.615170478820800781e+00 3.641093969345092773e+00 7.210550308227539062e-01
2.280000000000000000e+02 5.725352478027343750e+01 -1.978212928771972656e+01 4.235312640666961670e-01 4.496634006500244141e+00 1.476049661636352539e+00 3.098033189773559570e+00
2.290000000000000000e+02 5.682173538208007812e+01 -1.880611991882324219e+01 8.187144994735717773e-01 4.642593860626220703e-01 3.848921656608581543e-01 8.885710239410400391e-01
2.300000000000000000e+02 5.810251235961914062e+01 -1.951607704162597656e+01 2.624447643756866455e-01 9.380108833312988281e+00 2.892765998840332031e+00 1.800168871879577637e+00
2.310000000000000000e+02 5.811692047119140625e+01 -1.918393516540527344e+01 7.729995846748352051e-01 1.140520000457763672e+01 3.653460025787353516e+00 1.524300336837768555e+00
2.320000000000000000e+02 5.639542770385742188e+01 -1.714092445373535156e+01 2.296077251434326172e+00 -7.828618884086608887e-01 4.539645910263061523e-01 -8.514156341552734375e+00
2.330000000000000000e+02 5.561634445190429688e+01 -1.735391426086425781e+01 1.532038003206253052e-01 1.253811240196228027e+00 4.221045076847076416e-01 -6.543489456176757812e+00
2.340000000000000000e+02 5.691641235351562500e+01 -1.701907539367675781e+01 1.698556065559387207e+00 -5.133123993873596191e-01 3.555730879306793213e-01 -9.410779953002929688e+00
2.350000000000000000e+02 5.713507461547851562e+01 -1.698495864868164062e+01 8.030735254287719727e-01 3.108130693435668945e-01 3.341659903526306152e-01 -9.910935401916503906e+00
2.360000000000000000e+02 5.504231643676757812e+01 -1.749677658081054688e+01 -1.664596080780029297e+00 9.591966271400451660e-01 -2.116198539733886719e-01 -3.610938310623168945e+00
2.370000000000000000e+02 5.580765533447265625e+01 -1.730458259582519531e+01 9.557671844959259033e-02 9.727686643600463867e-01 3.205036222934722900e-01 -7.276990890502929688e+00
2.380000000000000000e+02 5.530262374877929688e+01 -1.767252540588378906e+01 -2.382523059844970703e+00 9.758346080780029297e-01 -4.220065474510192871e-01 -4.332777023315429688e+00
2.390000000000000000e+02 5.589096069335937500e+01 -1.811456298828125000e+01 -3.232643127441406250e+00 -9.171414971351623535e-01 -1.244935393333435059e+00 -4.326600074768066406e+00
2.400000000000000000e+02 5.600104522705078125e+01 -1.725564765930175781e+01 2.122740268707275391e+00 2.212400883436203003e-01 7.031941413879394531e-01 -8.394483566284179688e+00
2.410000000000000000e+02 5.601351547241210938e+01 -1.829761886596679688e+01 -3.933657169342041016e+00 -1.150782346725463867e+00 -1.525331854820251465e+00 -3.344499349594116211e+00
2.420000000000000000e+02 5.576843643188476562e+01 -1.788512420654296875e+01 -1.801094651222229004e+00 -5.009759068489074707e-01 -6.906211376190185547e-01 -5.098010540008544922e+00
2.430000000000000000e+02 5.628050231933593750e+01 -1.846035766601562500e+01 -4.532820224761962891e+00 -8.102241158485412598e-01 -1.602913260459899902e+00 -2.142762184143066406e+00
2.440000000000000000e+02 5.608815765380859375e+01 -1.851227569580078125e+01 -6.143449783325195312e+00 -7.286461591720581055e-01 -2.061628818511962891e+00 -2.498619318008422852e+00
2.450000000000000000e+02 5.617835617065429688e+01 -1.774647140502929688e+01 1.190383195877075195e+00 -1.323380351066589355e+00 -3.989912569522857666e-02 -6.426689624786376953e+00
2.460000000000000000e+02 5.554665374755859375e+01 -1.957481002807617188e+01 -9.528397321701049805e-01 4.671733081340789795e-01 -1.456999182701110840e-01 6.129711866378784180e-01
2.470000000000000000e+02 5.538918304443359375e+01 -1.896873474121093750e+01 -1.824753046035766602e+00 -1.372853876091539860e-03 -5.478377342224121094e-01 -4.158783555030822754e-01
2.480000000000000000e+02 5.549274063110351562e+01 -1.937626457214355469e+01 -1.226040720939636230e+00 2.750686407089233398e-01 -2.852916419506072998e-01 3.206563293933868408e-01
2.490000000000000000e+02 5.529511260986328125e+01 -1.943381500244140625e+01 -1.343712210655212402e+00 1.540547013282775879e-01 -3.568972647190093994e-01 1.909861266613006592e-01
2.500000000000000000e+02 5.667189407348632812e+01 -1.994591903686523438e+01 1.405599415302276611e-01 2.609532594680786133e+00 8.250277638435363770e-01 2.472058773040771484e+00
2.510000000000000000e+02 5.765864944458007812e+01 -1.963755035400390625e+01 2.945472002029418945e-01 6.659614086151123047e+00 2.086248397827148438e+00 3.165318965911865234e+00
2.520000000000000000e+02 5.686581420898437500e+01 -1.989244461059570312e+01 2.302903383970260620e-01 3.176650524139404297e+00 1.022082209587097168e+00 2.790217161178588867e+00
2.530000000000000000e+02 5.721105957031250000e+01 -1.926159477233886719e+01 1.541969776153564453e+00 3.276960134506225586e+00 1.445678949356079102e+00 3.109004735946655273e+00
2.540000000000000000e+02 5.582717895507812500e+01 -1.906945419311523438e+01 -1.032943129539489746e+00 1.272878795862197876e-01 -2.716965675354003906e-01 1.360403597354888916e-01
2.550000000000000000e+02 5.734763717651367188e+01 -1.952468490600585938e+01 8.310947418212890625e-01 4.828927516937255859e+00 1.698006629943847656e+00 3.294558048248291016e+00
2.560000000000000000e+02 5.744859695434570312e+01 -1.970465087890625000e+01 5.565593838691711426e-01 5.358835220336914062e+00 1.774618506431579590e+00 3.322790622711181641e+00
2.570000000000000000e+02 5.705968093872070312e+01 -1.983852767944335938e+01 3.729616999626159668e-01 3.676115989685058594e+00 1.214723229408264160e+00 2.918787240982055664e+00
2.580000000000000000e+02 5.500538253784179688e+01 -1.817404556274414062e+01 -5.676559448242187500e+00 2.267691344022750854e-01 -1.634937047958374023e+00 -3.153457164764404297e+00
2.590000000000000000e+02 5.541847610473632812e+01 -1.845406341552734375e+01 -7.268216133117675781e+00 -4.328019022941589355e-01 -2.310305356979370117e+00 -3.079434633255004883e+00
2.600000000000000000e+02 5.551181793212890625e+01 -1.866717338562011719e+01 -9.259655952453613281e+00 -7.747917175292968750e-01 -3.010334253311157227e+00 -2.774756431579589844e+00
2.610000000000000000e+02 5.532614135742187500e+01 -1.872870445251464844e+01 -9.899151802062988281e+00 -4.632466137409210205e-01 -3.108719587326049805e+00 -2.722590208053588867e+00
2.620000000000000000e+02 5.569829559326171875e+01 -1.860275840759277344e+01 -8.501791954040527344e+00 -7.230499386787414551e-01 -2.767452716827392578e+00 -2.696737289428710938e+00
2.630000000000000000e+02 5.560018539428710938e+01 -1.977222442626953125e+01 -8.247984051704406738e-01 7.673909068107604980e-01 -1.722224429249763489e-02 9.520933032035827637e-01
2.640000000000000000e+02 5.702735519409179688e+01 -1.872074699401855469e+01 1.291249632835388184e+00 6.311030387878417969e-01 5.767058134078979492e-01 1.142242431640625000e+00
2.650000000000000000e+02 5.674802780151367188e+01 -1.859127998352050781e+01 -1.243608519434928894e-01 3.495762869715690613e-02 -2.682096697390079498e-02 1.522788405418395996e-01
2.660000000000000000e+02 5.672364044189453125e+01 -1.701656723022460938e+01 1.731767654418945312e+00 -5.442763566970825195e-01 3.562473952770233154e-01 -8.895360946655273438e+00
2.670000000000000000e+02 5.523475646972656250e+01 -1.744838714599609375e+01 -8.864124417304992676e-01 2.051423549652099609e+00 3.495033681392669678e-01 -4.574045181274414062e+00
2.680000000000000000e+02 5.559964370727539062e+01 -1.833207130432128906e+01 -5.630249977111816406e+00 -8.029731512069702148e-01 -1.929966926574707031e+00 -3.412870407104492188e+00
2.690000000000000000e+02 5.589239120483398438e+01 -1.855493545532226562e+01 -7.540663242340087891e+00 -7.072216272354125977e-01 -2.474365472793579102e+00 -2.634104251861572266e+00
2.700000000000000000e+02 5.597223663330078125e+01 -1.881431961059570312e+01 -1.136036157608032227e+00 -3.914099931716918945e-02 -3.525531589984893799e-01 -1.573190093040466309e-01
2.710000000000000000e+02 5.544080352783203125e+01 -1.917357254028320312e+01 -1.555263996124267578e+00 6.244892254471778870e-02 -4.478445053100585938e-01 -3.172325342893600464e-02
2.720000000000000000e+02 5.636166000366210938e+01 -1.870552062988281250e+01 -6.629098653793334961e-01 5.400530528277158737e-03 -1.972527951002120972e-01 -3.019890934228897095e-02
2.730000000000000000e+02 5.609020614624023438e+01 -2.007943153381347656e+01 -2.792266607284545898e-01 1.651798963546752930e+00 4.117716848850250244e-01 1.824977397918701172e+00
2.740000000000000000e+02 5.588998794555664062e+01 -2.013660621643066406e+01 -3.845820724964141846e-01 1.389542102813720703e+00 3.014879822731018066e-01 1.623966217041015625e+00
2.750000000000000000e+02 5.693569946289062500e+01 -1.926021766662597656e+01 1.203650236129760742e+00 2.170402765274047852e+00 1.012215852737426758e+00 2.362831115722656250e+00
2.760000000000000000e+02 5.546471405029296875e+01 -1.809314918518066406e+01 -4.352108955383300781e+00 -1.868643462657928467e-01 -1.361691951751708984e+00 -3.963852167129516602e+00
2.770000000000000000e+02 5.686936187744140625e+01 -1.728263092041015625e+01 3.211983919143676758e+00 -1.124850630760192871e+00 6.261399984359741211e-01 -9.351711273193359375e+00
2.780000000000000000e+02 5.661064529418945312e+01 -1.904677963256835938e+01 4.924960732460021973e-01 8.083996772766113281e-01 3.902687430381774902e-01 1.147679090499877930e+00
2.790000000000000000e+02 5.582135391235351562e+01 -1.830102157592773438e+01 -4.753897190093994141e+00 -8.118004202842712402e-01 -1.669709205627441406e+00 -3.536939144134521484e+00
2.800000000000000000e+02 5.619259262084960938e+01 -1.823894882202148438e+01 -2.901551961898803711e+00 -1.163853526115417480e+00 -1.219621658325195312e+00 -3.486016273498535156e+00
2.810000000000000000e+02 5.523623275756835938e+01 -1.815442657470703125e+01 -5.235572338104248047e+00 -1.772380620241165161e-01 -1.623843193054199219e+00 -3.315506458282470703e+00
2.820000000000000000e+02 5.661630630493164062e+01 -1.885090827941894531e+01 3.761139214038848877e-01 4.075396358966827393e-01 2.350960671901702881e-01 7.010284662246704102e-01
2.830000000000000000e+02 5.602585983276367188e+01 -1.903462791442871094e+01 -6.966674327850341797e-01 2.971596121788024902e-01 -1.198523491621017456e-01 2.502064704895019531e-01
2.840000000000000000e+02 5.586517715454101562e+01 -1.925964736938476562e+01 -8.116876482963562012e-01 3.836866617202758789e-01 -1.284002810716629028e-01 4.508980810642242432e-01
2.850000000000000000e+02 5.657244110107421875e+01 -1.963258171081542969e+01 3.629381358623504639e-01 1.721989870071411133e+00 6.254783868789672852e-01 2.071738243103027344e+00
2.860000000000000000e+02 5.663920211791992188e+01 -1.977269172668457031e+01 3.308720290660858154e-01 2.295305490493774414e+00 7.878532409667968750e-01 2.405366897583007812e+00
2.870000000000000000e+02 5.564846038818359375e+01 -1.997772598266601562e+01 -6.559996008872985840e-01 9.573183059692382812e-01 9.039562195539474487e-02 1.168151259422302246e+00
2.880000000000000000e+02 5.544379043579101562e+01 -2.004571914672851562e+01 -8.428904414176940918e-01 9.107616543769836426e-01 2.036135643720626831e-02 1.100648880004882812e+00
2.890000000000000000e+02 5.648703765869140625e+01 -1.789490699768066406e+01 2.383057832717895508e+00 -1.779897451400756836e+00 1.809480637311935425e-01 -5.588531970977783203e+00
2.900000000000000000e+02 5.688630676269531250e+01 -1.902952384948730469e+01 1.250473141670227051e+00 1.310474038124084473e+00 7.682841420173645020e-01 1.852413892745971680e+00
2.910000000000000000e+02 5.602689743041992188e+01 -1.960340881347656250e+01 -3.259585797786712646e-01 9.526572823524475098e-01 1.880096197128295898e-01 1.213115572929382324e+00
2.920000000000000000e+02 5.636235046386718750e+01 -1.769213294982910156e+01 1.446905136108398438e+00 -1.471061110496520996e+00 -7.246792316436767578e-03 -6.539701938629150391e+00
2.930000000000000000e+02 5.585520935058593750e+01 -1.990887641906738281e+01 -4.974308907985687256e-01 1.144838809967041016e+00 1.942223757505416870e-01 1.377421617507934570e+00
2.940000000000000000e+02 5.628800582885742188e+01 -2.002921295166015625e+01 -9.156391024589538574e-02 1.829118490219116211e+00 5.212664008140563965e-01 1.955572962760925293e+00
2.950000000000000000e+02 5.648036956787109375e+01 -1.998930740356445312e+01 -4.392042383551597595e-02 2.205245494842529297e+00 6.483975648880004883e-01 2.224061250686645508e+00
2.960000000000000000e+02 5.647205352783203125e+01 -1.978466224670410156e+01 1.856994032859802246e-01 1.791531562805175781e+00 5.931693315505981445e-01 1.995563387870788574e+00
2.970000000000000000e+02 5.719501113891601562e+01 -1.961314392089843750e+01 7.237075567245483398e-01 4.029359817504882812e+00 1.425920128822326660e+00 3.063684463500976562e+00
2.980000000000000000e+02 5.832644271850585938e+01 -1.943516540527343750e+01 8.044943213462829590e-01 9.407244682312011719e+00 3.063521623611450195e+00 5.775243043899536133e-01
2.990000000000000000e+02 5.792198181152343750e+01 -1.920715141296386719e+01 9.693968892097473145e-01 9.749472618103027344e+00 3.215660810470581055e+00 2.807312250137329102e+00
3.000000000000000000e+02 5.908356857299804688e+01 -1.885671806335449219e+01 6.830681324005126953e+00 6.282583236694335938e+00 3.933979272842407227e+00 -2.448631048202514648e+00
3.010000000000000000e+02 5.534508514404296875e+01 -1.963758087158203125e+01 -1.242530107498168945e+00 4.410257935523986816e-01 -2.404513061046600342e-01 4.902605414390563965e-01
3.020000000000000000e+02 5.524530029296875000e+01 -1.922879409790039062e+01 -1.757292866706848145e+00 4.845232237130403519e-03 -5.257342457771301270e-01 -4.488212987780570984e-02
3.030000000000000000e+02 5.563410568237304688e+01 -1.911894989013671875e+01 -1.299640536308288574e+00 1.667189002037048340e-01 -3.398765027523040771e-01 1.423067785799503326e-02
3.040000000000000000e+02 5.558258056640625000e+01 -1.891487312316894531e+01 -1.604750633239746094e+00 -1.207640096545219421e-01 -5.176543593406677246e-01 -3.072879612445831299e-01
3.050000000000000000e+02 5.495586395263671875e+01 -1.796599769592285156e+01 -4.411948680877685547e+00 3.895839452743530273e-01 -1.206709384918212891e+00 -3.029505252838134766e+00
3.060000000000000000e+02 5.549840545654296875e+01 -1.764029312133789062e+01 -1.305919528007507324e+00 6.897106170654296875e-01 -1.848626583814620972e-01 -5.438112735748291016e+00
3.070000000000000000e+02 5.508596038818359375e+01 -1.857744407653808594e+01 -8.934123992919921875e+00 -3.465363085269927979e-01 -2.784198284149169922e+00 -2.476711750030517578e+00
3.080000000000000000e+02 5.525369262695312500e+01 -1.835601234436035156e+01 -6.695951938629150391e+00 -3.172802031040191650e-01 -2.103969812393188477e+00 -3.028473377227783203e+00
3.090000000000000000e+02 5.542611694335937500e+01 -1.740142631530761719e+01 -6.890479922294616699e-01 2.105138301849365234e+00 4.248270988464355469e-01 -5.580308437347412109e+00
3.100000000000000000e+02 5.589047622680664062e+01 -1.755651283264160156e+01 4.879275262355804443e-01 -1.989504545927047729e-01 8.669312298297882080e-02 -6.734136104583740234e+00
3.110000000000000000e+02 5.608668899536132812e+01 -1.750700950622558594e+01 5.847874879837036133e-01 -6.351032853126525879e-01 -1.509473007172346115e-02 -7.122971534729003906e+00
3.120000000000000000e+02 5.668050384521484375e+01 -1.718601799011230469e+01 2.538844347000122070e+00 -9.244402647018432617e-01 4.843212068080902100e-01 -8.861663818359375000e+00
3.130000000000000000e+02 5.747663497924804688e+01 -1.708986663818359375e+01 4.125870704650878906e+00 -9.558304548263549805e-01 9.510120749473571777e-01 -9.975440025329589844e+00
3.140000000000000000e+02 5.666980361938476562e+01 -1.835236930847167969e+01 -7.820485234260559082e-01 -5.734413862228393555e-01 -4.066469669342041016e-01 -1.583719730377197266e+00
3.150000000000000000e+02 5.683776855468750000e+01 -1.808922767639160156e+01 3.134314775466918945e+00 -1.275652408599853516e+00 5.575987696647644043e-01 -3.373083591461181641e+00
3.160000000000000000e+02 5.685856246948242188e+01 -1.785955238342285156e+01 5.156754970550537109e+00 -1.968336224555969238e+00 9.565255641937255859e-01 -5.204612731933593750e+00
3.170000000000000000e+02 5.911777114868164062e+01 -1.836762046813964844e+01 9.588634490966796875e+00 3.977608203887939453e+00 4.069872856140136719e+00 -1.002364277839660645e+00
3.180000000000000000e+02 5.706356048583984375e+01 -1.744415473937988281e+01 5.819191932678222656e+00 -9.783744215965270996e-01 1.452245235443115234e+00 -9.098347663879394531e+00
3.190000000000000000e+02 5.744359588623046875e+01 -1.934574127197265625e+01 1.194221615791320801e+00 5.409955501556396484e+00 1.981253266334533691e+00 3.671341180801391602e+00
3.200000000000000000e+02 5.929979324340820312e+01 -1.813307380676269531e+01 1.002602958679199219e+01 2.267797708511352539e+00 3.688148021697998047e+00 4.163658022880554199e-01
3.210000000000000000e+02 5.516823577880859375e+01 -1.793372535705566406e+01 -3.898956775665283203e+00 6.366932392120361328e-01 -9.786790609359741211e-01 -3.882576704025268555e+00
3.220000000000000000e+02 5.655837631225585938e+01 -1.732625007629394531e+01 2.320354223251342773e+00 -1.376832485198974609e+00 2.830564975738525391e-01 -8.613266944885253906e+00
3.230000000000000000e+02 5.628526687622070312e+01 -1.746417427062988281e+01 2.224408149719238281e+00 -1.106730580329895020e+00 3.353032469749450684e-01 -7.960338592529296875e+00
3.240000000000000000e+02 5.644087600708007812e+01 -1.892171669006347656e+01 -4.101521894335746765e-02 4.073517918586730957e-01 1.099009737372398376e-01 5.224120616912841797e-01
3.250000000000000000e+02 5.624462890625000000e+01 -1.900154876708984375e+01 -3.447757363319396973e-01 2.653374075889587402e-01 -2.383149787783622742e-02 4.674341678619384766e-01
3.260000000000000000e+02 5.652631759643554688e+01 -1.925761222839355469e+01 4.702512025833129883e-01 1.025191664695739746e+00 4.486328363418579102e-01 1.401374220848083496e+00
3.270000000000000000e+02 5.574584579467773438e+01 -1.950626182556152344e+01 -7.336184382438659668e-01 5.888888835906982422e-01 -4.341886565089225769e-02 7.691897153854370117e-01
3.280000000000000000e+02 5.676603698730468750e+01 -1.953924179077148438e+01 7.134447097778320312e-01 2.216403961181640625e+00 8.789545893669128418e-01 2.392328262329101562e+00
3.290000000000000000e+02 5.555243301391601562e+01 -1.790012168884277344e+01 -2.858459711074829102e+00 -1.757921427488327026e-01 -9.102755784988403320e-01 -4.484659194946289062e+00
3.300000000000000000e+02 5.569425964355468750e+01 -1.760545158386230469e+01 -8.797295689582824707e-01 3.950561285018920898e-01 -1.454020291566848755e-01 -6.005399227142333984e+00
3.310000000000000000e+02 5.568516540527343750e+01 -1.931746864318847656e+01 -1.006237626075744629e+00 3.047348558902740479e-01 -2.104508131742477417e-01 3.694057762622833252e-01
3.320000000000000000e+02 5.604236984252929688e+01 -1.925388336181640625e+01 -4.689688980579376221e-01 4.778367578983306885e-01 2.660362049937248230e-03 6.608077287673950195e-01
3.330000000000000000e+02 5.626555633544921875e+01 -1.925819969177246094e+01 -2.633771300315856934e-02 6.773192286491394043e-01 1.952944546937942505e-01 9.667636752128601074e-01
3.340000000000000000e+02 5.647877883911132812e+01 -1.747840499877929688e+01 3.268714427947998047e+00 -1.739615797996520996e+00 4.587295949459075928e-01 -7.856294631958007812e+00
3.350000000000000000e+02 5.650883102416992188e+01 -1.764098358154296875e+01 2.385265350341796875e+00 -1.393465399742126465e+00 2.975400090217590332e-01 -6.987874984741210938e+00
3.360000000000000000e+02 5.811921691894531250e+01 -1.931431007385253906e+01 7.422714829444885254e-01 1.015529346466064453e+01 3.269269466400146484e+00 1.736492037773132324e+00
3.370000000000000000e+02 5.701187896728515625e+01 -1.965754318237304688e+01 6.164264082908630371e-01 3.414623498916625977e+00 1.209314942359924316e+00 2.883373498916625977e+00
3.380000000000000000e+02 5.606630325317382812e+01 -1.984040641784667969e+01 -2.150832712650299072e-01 1.257484793663024902e+00 3.127204775810241699e-01 1.554509997367858887e+00
3.390000000000000000e+02 5.626586914062500000e+01 -1.952746391296386719e+01 3.861238062381744385e-02 1.107780456542968750e+00 3.439178466796875000e-01 1.468979954719543457e+00
3.400000000000000000e+02 5.717758941650390625e+01 -1.945478820800781250e+01 1.038680076599121094e+00 3.750228881835937500e+00 1.436672687530517578e+00 3.135349988937377930e+00
3.410000000000000000e+02 5.682026672363281250e+01 -1.971221733093261719e+01 4.952054917812347412e-01 2.701283454895019531e+00 9.589466452598571777e-01 2.625533580780029297e+00
3.420000000000000000e+02 5.669548416137695312e+01 -1.936533164978027344e+01 8.214581012725830078e-01 1.467164516448974609e+00 6.865867972373962402e-01 2.001021385192871094e+00
3.430000000000000000e+02 5.536001205444335938e+01 -1.789266204833984375e+01 -3.063392162322998047e+00 3.165117800235748291e-01 -8.240641355514526367e-01 -4.388113021850585938e+00
3.440000000000000000e+02 5.580802154541015625e+01 -1.969767379760742188e+01 -5.799926519393920898e-01 7.964911460876464844e-01 6.494955718517303467e-02 1.043270468711853027e+00
3.450000000000000000e+02 5.608737945556640625e+01 -1.802834129333496094e+01 -1.096603751182556152e+00 -1.184062600135803223e+00 -6.841999292373657227e-01 -4.899451255798339844e+00
3.460000000000000000e+02 5.598109054565429688e+01 -1.780589103698730469e+01 -7.738782167434692383e-01 -8.924196958541870117e-01 -4.998893737792968750e-01 -5.653229236602783203e+00
3.470000000000000000e+02 5.663716125488281250e+01 -1.776541328430175781e+01 2.967501878738403320e+00 -1.825193524360656738e+00 3.426925539970397949e-01 -6.296288013458251953e+00
3.480000000000000000e+02 5.662757492065429688e+01 -1.759380340576171875e+01 3.679272890090942383e+00 -2.084060668945312500e+00 4.785636365413665771e-01 -7.085594654083251953e+00
3.490000000000000000e+02 5.594030761718750000e+01 -1.941728591918945312e+01 -4.727972745895385742e-01 5.767101049423217773e-01 3.117385134100914001e-02 8.291058540344238281e-01
3.500000000000000000e+02 5.628431701660156250e+01 -1.796491432189941406e+01 -2.419240772724151611e-01 -1.485712766647338867e+00 -5.182910561561584473e-01 -4.792127609252929688e+00
3.510000000000000000e+02 5.360541152954101562e+01 -1.881953430175781250e+01 -1.045114135742187500e+01 -2.252520769834518433e-01 -3.202918052673339844e+00 -1.736370921134948730e+00
3.520000000000000000e+02 5.294364166259765625e+01 -1.818448829650878906e+01 -6.015137672424316406e+00 5.028023123741149902e-01 -1.653700590133666992e+00 -6.191885471343994141e-01
3.530000000000000000e+02 5.363057327270507812e+01 -1.806039237976074219e+01 -5.585428714752197266e+00 2.811232209205627441e-01 -1.591291546821594238e+00 -1.410065293312072754e+00
3.540000000000000000e+02 5.458892440795898438e+01 -1.844903945922851562e+01 -8.625163078308105469e+00 -2.594521641731262207e-01 -2.665384531021118164e+00 -2.664419889450073242e+00
3.550000000000000000e+02 5.459199142456054688e+01 -1.786544036865234375e+01 -4.304793834686279297e+00 4.172456562519073486e-01 -1.166264414787292480e+00 -2.621593713760375977e+00
3.560000000000000000e+02 5.417937088012695312e+01 -1.797900199890136719e+01 -5.098953247070312500e+00 7.927215099334716797e-01 -1.291869521141052246e+00 -2.055742740631103516e+00
3.570000000000000000e+02 5.225577926635742188e+01 -1.832426071166992188e+01 -5.985147953033447266e+00 3.583466410636901855e-01 -1.688040494918823242e+00 -2.070133835077285767e-01
3.580000000000000000e+02 5.236299896240234375e+01 -1.905735206604003906e+01 -9.568786621093750000e+00 -3.310540318489074707e-02 -2.880567550659179688e+00 -1.414270758628845215e+00
3.590000000000000000e+02 5.298467254638671875e+01 -1.893060493469238281e+01 -1.006818580627441406e+01 -2.488602101802825928e-01 -3.095113754272460938e+00 -1.616563916206359863e+00
3.600000000000000000e+02 5.466953277587890625e+01 -1.808269882202148438e+01 -4.848868846893310547e+00 3.114071190357208252e-01 -1.361238598823547363e+00 -2.700954437255859375e+00
3.610000000000000000e+02 5.481998825073242188e+01 -1.843286514282226562e+01 -8.337592124938964844e+00 7.133631408214569092e-02 -2.479876756668090820e+00 -2.620711565017700195e+00
3.620000000000000000e+02 5.484766769409179688e+01 -1.862854385375976562e+01 -9.150028228759765625e+00 8.295741677284240723e-02 -2.720121145248413086e+00 -2.361083507537841797e+00
3.630000000000000000e+02 5.476758956909179688e+01 -1.825761222839355469e+01 -6.376435279846191406e+00 -4.718016833066940308e-02 -1.927084565162658691e+00 -2.972015619277954102e+00
3.640000000000000000e+02 5.446648788452148438e+01 -1.764137649536132812e+01 -2.956978321075439453e+00 1.006611585617065430e+00 -5.851100087165832520e-01 -2.970561981201171875e+00
3.650000000000000000e+02 5.481942749023437500e+01 -1.884663200378417969e+01 -1.080466747283935547e+01 -1.343235075473785400e-01 -3.281697273254394531e+00 -2.171997308731079102e+00
3.660000000000000000e+02 5.417411804199218750e+01 -1.878456115722656250e+01 -1.074447536468505859e+01 -3.066050410270690918e-01 -3.315324068069458008e+00 -1.849415540695190430e+00
3.670000000000000000e+02 5.456798171997070312e+01 -1.872915649414062500e+01 -1.042593383789062500e+01 -2.897845506668090820e-01 -3.214715480804443359e+00 -2.150075674057006836e+00
3.680000000000000000e+02 5.432885360717773438e+01 -1.833542442321777344e+01 -7.171029090881347656e+00 1.935716867446899414e-01 -2.093237161636352539e+00 -2.355692148208618164e+00
3.690000000000000000e+02 5.021003341674804688e+01 -1.947287559509277344e+01 -7.102526664733886719e+00 -1.100531965494155884e-01 -2.163774013519287109e+00 -9.325271248817443848e-01
3.700000000000000000e+02 5.094702148437500000e+01 -1.933323669433593750e+01 -7.908489227294921875e+00 -1.543779671192169189e-01 -2.418860197067260742e+00 -1.023258447647094727e+00
3.710000000000000000e+02 4.947301483154296875e+01 -1.961274909973144531e+01 -6.388958454132080078e+00 -1.241122558712959290e-01 -1.953921198844909668e+00 -8.373922109603881836e-01
3.720000000000000000e+02 5.168397521972656250e+01 -1.919383239746093750e+01 -8.809055328369140625e+00 -1.355989873409271240e-01 -2.683396339416503906e+00 -1.131364107131958008e+00
3.730000000000000000e+02 5.154356384277343750e+01 -1.846726989746093750e+01 -5.994346618652343750e+00 2.157268524169921875e-01 -1.733585953712463379e+00 -1.636226773262023926e-01
3.740000000000000000e+02 4.933204269409179688e+01 -1.888629341125488281e+01 -5.019616603851318359e+00 1.166954860091209412e-01 -1.470876455307006836e+00 2.849312033504247665e-03
3.750000000000000000e+02 5.080642700195312500e+01 -1.860671043395996094e+01 -5.850204944610595703e+00 6.152766570448875427e-02 -1.736603260040283203e+00 -2.616573683917522430e-02
3.760000000000000000e+02 5.006925201416015625e+01 -1.874638557434082031e+01 -5.462114334106445312e+00 1.095399186015129089e-01 -1.605772256851196289e+00 -4.838501289486885071e-02
3.770000000000000000e+02 4.725450897216796875e+01 -2.004898452758789062e+01 -4.438100814819335938e+00 -3.609887138009071350e-02 -1.342259883880615234e+00 -5.960243344306945801e-01
3.780000000000000000e+02 4.709337997436523438e+01 -1.932653617858886719e+01 -3.788132667541503906e+00 2.518780343234539032e-02 -1.128883481025695801e+00 -4.158268682658672333e-03
3.790000000000000000e+02 4.651494979858398438e+01 -2.019693183898925781e+01 -3.941865205764770508e+00 -1.607370227575302124e-01 -1.230780601501464844e+00 -5.425320863723754883e-01
3.800000000000000000e+02 4.799435043334960938e+01 -1.990183448791503906e+01 -5.019260406494140625e+00 -1.243629753589630127e-01 -1.543086886405944824e+00 -6.657952070236206055e-01
3.810000000000000000e+02 4.873443222045898438e+01 -1.975547790527343750e+01 -5.686334133148193359e+00 -7.937178760766983032e-02 -1.729711771011352539e+00 -7.459203004837036133e-01
3.820000000000000000e+02 4.858935928344726562e+01 -1.902983856201171875e+01 -4.604780673980712891e+00 5.815430730581283569e-02 -1.363987922668457031e+00 -7.176946848630905151e-03
3.830000000000000000e+02 4.634579849243164062e+01 -1.947607994079589844e+01 -3.349838733673095703e+00 9.100638329982757568e-02 -9.776496887207031250e-01 4.028381779789924622e-02
3.840000000000000000e+02 4.784125137329101562e+01 -1.917778968811035156e+01 -4.208074569702148438e+00 1.139719709753990173e-01 -1.228230834007263184e+00 1.710585877299308777e-02
3.850000000000000000e+02 4.432126998901367188e+01 -2.078344535827636719e+01 -2.050071954727172852e+00 4.165280982851982117e-02 -6.025257110595703125e-01 -2.978965044021606445e-01
3.860000000000000000e+02 4.505051040649414062e+01 -2.057725715637207031e+01 -2.623180627822875977e+00 -9.154106676578521729e-02 -8.144164681434631348e-01 -4.100346565246582031e-01
3.870000000000000000e+02 4.359247589111328125e+01 -2.099166297912597656e+01 -1.524816513061523438e+00 -1.747730933129787445e-02 -4.626881480216979980e-01 -1.338422149419784546e-01
3.880000000000000000e+02 4.411215209960937500e+01 -2.007356262207031250e+01 -2.176618576049804688e+00 1.957010179758071899e-01 -5.942752957344055176e-01 1.659548431634902954e-01
3.890000000000000000e+02 4.578023910522460938e+01 -2.037289810180664062e+01 -3.311478614807128906e+00 -5.868575349450111389e-02 -1.011049270629882812e+00 -5.310450196266174316e-01
3.900000000000000000e+02 4.559988403320312500e+01 -1.965488052368164062e+01 -2.963145732879638672e+00 8.425807207822799683e-02 -8.636662364006042480e-01 1.111722588539123535e-01
3.910000000000000000e+02 4.336897659301757812e+01 -2.028584671020507812e+01 -1.794630408287048340e+00 2.916035652160644531e-01 -4.509080350399017334e-01 2.272017151117324829e-01
3.920000000000000000e+02 4.485577392578125000e+01 -1.986330604553222656e+01 -2.594724655151367188e+00 2.245043814182281494e-01 -7.110660672187805176e-01 1.078120619058609009e-01
3.930000000000000000e+02 4.105918121337890625e+01 -2.103385925292968750e+01 -4.676268100738525391e-01 -2.922756075859069824e-01 -2.279707193374633789e-01 3.753355443477630615e-01
3.940000000000000000e+02 4.198300170898437500e+01 -2.076494598388671875e+01 -1.095213890075683594e+00 1.353781223297119141e-01 -2.879507243633270264e-01 2.900769412517547607e-01
3.950000000000000000e+02 4.264957046508789062e+01 -2.053101348876953125e+01 -1.428796052932739258e+00 2.219866961240768433e-01 -3.620428144931793213e-01 3.292197883129119873e-01
3.960000000000000000e+02 4.200543975830078125e+01 -2.154659652709960938e+01 -2.852501571178436279e-01 2.905788645148277283e-02 -7.685767859220504761e-02 7.832780480384826660e-02
3.970000000000000000e+02 4.281084060668945312e+01 -2.126075172424316406e+01 -8.728197216987609863e-01 7.335767149925231934e-02 -2.398386150598526001e-01 -3.130723163485527039e-02
3.980000000000000000e+02 4.143973159790039062e+01 -2.146877861022949219e+01 -2.377638071775436401e-01 -2.823909744620323181e-02 -7.980087399482727051e-02 1.350982487201690674e-01
3.990000000000000000e+02 4.140149307250976562e+01 -2.091440773010253906e+01 -7.050468325614929199e-01 -1.389557495713233948e-02 -2.156827151775360107e-01 2.911752164363861084e-01
4.000000000000000000e+02 4.100804138183593750e+01 -2.131018257141113281e+01 -2.110600620508193970e-01 -1.664819717407226562e-01 -1.132626160979270935e-01 1.610511988401412964e-01
4.010000000000000000e+02 4.183971786499023438e+01 -2.302727508544921875e+01 -7.891377434134483337e-03 -1.158899366855621338e-01 -3.713439404964447021e-02 -7.525757886469364166e-03
4.020000000000000000e+02 4.219042205810546875e+01 -2.229762840270996094e+01 -1.714444905519485474e-02 -5.384848639369010925e-02 -2.129788137972354889e-02 -5.661616846919059753e-02
4.030000000000000000e+02 4.326124572753906250e+01 -2.270085716247558594e+01 -1.768677532672882080e-01 -2.792704403400421143e-01 -1.368414610624313354e-01 -3.585990667343139648e-01
4.040000000000000000e+02 4.302730941772460938e+01 -2.199828910827636719e+01 -1.675557047128677368e-01 -1.093988493084907532e-01 -8.308637142181396484e-02 -1.502519100904464722e-01
4.050000000000000000e+02 4.243085479736328125e+01 -2.299776458740234375e+01 -6.312754005193710327e-02 -2.881111204624176025e-01 -1.053715944290161133e-01 -1.766549795866012573e-01
4.060000000000000000e+02 4.421362304687500000e+01 -2.327496528625488281e+01 -2.190468758344650269e-01 -4.664370417594909668e-01 -2.056451737880706787e-01 -6.336130499839782715e-01
4.070000000000000000e+02 4.351476669311523438e+01 -2.456249809265136719e+01 -5.792014673352241516e-02 -7.721701860427856445e-01 -2.490271031856536865e-01 -5.921254754066467285e-01
4.080000000000000000e+02 4.775287246704101562e+01 -2.225106430053710938e+01 -1.001445055007934570e+00 -2.151741087436676025e-01 -3.649857342243194580e-01 -8.326456546783447266e-01
4.090000000000000000e+02 4.564600753784179688e+01 -2.283696556091308594e+01 -5.152629017829895020e-01 -3.484172523021697998e-01 -2.591040730476379395e-01 -7.775289416313171387e-01
4.100000000000000000e+02 4.241864776611328125e+01 -2.832208824157714844e+01 -3.201259672641754150e-01 -2.405154466629028320e+00 -8.175841569900512695e-01 -5.693342089653015137e-01
4.110000000000000000e+02 4.349590301513671875e+01 -3.306137466430664062e+01 1.346918344497680664e-01 -7.211019992828369141e-01 -1.759230494499206543e-01 2.107572555541992188e-01
4.120000000000000000e+02 4.097161483764648438e+01 -3.139458465576171875e+01 -8.294881582260131836e-01 -1.132970094680786133e+00 -5.887374877929687500e-01 -6.982901096343994141e-01
4.130000000000000000e+02 3.489985656738281250e+01 -3.332350540161132812e+01 -1.837063133716583252e-01 -3.196258097887039185e-02 -6.470067054033279419e-02 -9.541433304548263550e-02
4.140000000000000000e+02 3.516876220703125000e+01 -3.517398452758789062e+01 -1.065402626991271973e-01 -1.402915269136428833e-01 -7.404953241348266602e-02 -2.041543722152709961e-01
4.150000000000000000e+02 3.333991241455078125e+01 -3.315264892578125000e+01 -7.095784693956375122e-02 -2.188248187303543091e-02 -2.785209752619266510e-02 -4.974190890789031982e-02
4.160000000000000000e+02 3.261500167846679688e+01 -3.514133834838867188e+01 -5.815372243523597717e-02 -5.457134544849395752e-02 -3.381751850247383118e-02 -9.016223251819610596e-02
4.170000000000000000e+02 3.050237655639648438e+01 -3.241181182861328125e+01 1.332111097872257233e-02 1.386242947774007916e-04 4.037920851260423660e-03 -9.910985827445983887e-03
4.180000000000000000e+02 2.506460189819335938e+01 -3.150852012634277344e+01 2.675448358058929443e-02 -1.631755585549399257e-04 7.977392524480819702e-03 -6.023688474670052528e-04
4.190000000000000000e+02 1.957746124267578125e+01 -3.143499374389648438e+01 1.763342134654521942e-02 -3.268852306064218283e-04 5.191960837692022324e-03 1.739014987833797932e-03
4.200000000000000000e+02 1.672131156921386719e+01 -3.129621887207031250e+01 1.100448146462440491e-02 -1.642177448957227170e-05 3.296417882665991783e-03 1.102831811294890940e-04
4.210000000000000000e+02 1.534949874877929688e+01 -3.093070793151855469e+01 7.489089854061603546e-03 6.076940917409956455e-04 2.429035259410738945e-03 -2.085784944938495755e-04
4.220000000000000000e+02 1.339973926544189453e+01 -3.150663566589355469e+01 4.446156322956085205e-03 -1.601755211595445871e-04 1.285794307477772236e-03 9.399433620274066925e-04
4.230000000000000000e+02 8.372167587280273438e+00 -3.910628509521484375e+01 -1.370604382827877998e-03 1.935827429406344891e-03 1.695668906904757023e-04 1.131903729401528835e-03
4.240000000000000000e+02 1.625642776489257812e+01 -3.596651840209960938e+01 -2.587140479590743780e-04 1.381048583425581455e-03 3.367003810126334429e-04 4.847516771405935287e-03
4.250000000000000000e+02 2.392500495910644531e+01 -3.709008789062500000e+01 -7.055484689772129059e-03 -9.972999803721904755e-03 -5.108545534312725067e-03 -1.816580770537257195e-03
4.260000000000000000e+02 2.712361526489257812e+01 -4.127621459960937500e+01 -2.100365469232201576e-03 -5.291355773806571960e-02 -1.650417596101760864e-02 -6.358539685606956482e-03
4.270000000000000000e+02 3.743228149414062500e+01 -3.671873855590820312e+01 7.924960553646087646e-02 -3.548002541065216064e-01 -8.266519755125045776e-02 -2.413560748100280762e-01
4.280000000000000000e+02 4.138994979858398438e+01 -3.854153442382812500e+01 2.743401229381561279e-01 -2.372293919324874878e-01 1.113322377204895020e-02 2.962072379887104034e-02
4.290000000000000000e+02 4.732401275634765625e+01 -3.694099807739257812e+01 1.319009512662887573e-01 7.801935076713562012e-01 2.736283242702484131e-01 5.433651804924011230e-01
4.300000000000000000e+02 5.633725357055664062e+01 -3.575270080566406250e+01 -7.043566107749938965e-01 2.725594043731689453e+00 6.063712239265441895e-01 -6.868101358413696289e-01
4.310000000000000000e+02 6.797732543945312500e+01 -3.657217407226562500e+01 -2.766327559947967529e-01 1.876381993293762207e+00 4.799247682094573975e-01 6.118084788322448730e-01
4.320000000000000000e+02 7.868482971191406250e+01 -4.010048675537109375e+01 -1.797980666160583496e-01 9.386153221130371094e+00 2.761906623840332031e+00 2.043150514364242554e-01
4.330000000000000000e+02 7.772489166259765625e+01 -3.695588684082031250e+01 -2.275098562240600586e-01 9.075387001037597656e+00 2.654363155364990234e+00 -1.461180746555328369e-01
4.340000000000000000e+02 7.938780212402343750e+01 -3.331961822509765625e+01 -7.296224683523178101e-02 9.057556152343750000e+00 2.695378303527832031e+00 -2.344036996364593506e-01
4.350000000000000000e+02 7.829421997070312500e+01 -3.044829368591308594e+01 4.401727765798568726e-02 7.922243595123291016e+00 2.389878273010253906e+00 -7.606172561645507812e-01
4.360000000000000000e+02 7.936702728271484375e+01 -2.637281227111816406e+01 3.256383910775184631e-02 6.344580650329589844e+00 1.913143277168273926e+00 -9.523604810237884521e-02
4.370000000000000000e+02 7.192355346679687500e+01 -2.302213859558105469e+01 1.490908026695251465e+00 1.019660663604736328e+01 3.506254434585571289e+00 -1.642057657241821289e+00
4.380000000000000000e+02 7.183674621582031250e+01 -2.710129165649414062e+01 6.841809749603271484e-01 1.354374217987060547e+01 4.268376827239990234e+00 5.255826115608215332e-01
4.390000000000000000e+02 7.183676147460937500e+01 -2.575746536254882812e+01 3.888666331768035889e-01 1.390692043304443359e+01 4.288736343383789062e+00 -6.366338729858398438e-01
4.400000000000000000e+02 7.174476623535156250e+01 -2.841964530944824219e+01 9.065306186676025391e-01 1.155660343170166016e+01 3.738940238952636719e+00 1.599502325057983398e+00
4.410000000000000000e+02 7.003424835205078125e+01 -3.152950859069824219e+01 2.630886435508728027e-01 3.215529918670654297e+00 1.043585538864135742e+00 1.320893526077270508e+00
4.420000000000000000e+02 6.903965759277343750e+01 -3.238095092773437500e+01 -3.011339008808135986e-01 1.582136273384094238e+00 3.843007385730743408e-01 3.885912001132965088e-01
4.430000000000000000e+02 6.542063903808593750e+01 -3.462582778930664062e+01 -1.914520859718322754e+00 -3.095391392707824707e-01 -6.672179698944091797e-01 -5.047190785408020020e-01
4.440000000000000000e+02 6.401053619384765625e+01 -3.492565536499023438e+01 -1.896888971328735352e+00 -8.950588107109069824e-02 -5.959184765815734863e-01 -4.293024539947509766e-01
4.450000000000000000e+02 6.119449996948242188e+01 -3.521215820312500000e+01 -1.323847293853759766e+00 1.448938995599746704e-01 -3.536860346794128418e-01 -3.266784548759460449e-01
4.460000000000000000e+02 5.951759338378906250e+01 -3.520658493041992188e+01 -7.386620044708251953e-01 4.888095855712890625e-01 -7.495573163032531738e-02 -6.245788335800170898e-01
4.470000000000000000e+02 5.705932235717773438e+01 -3.340984344482421875e+01 6.952379941940307617e-01 2.419590711593627930e+00 9.344485998153686523e-01 -1.594527125358581543e+00
4.480000000000000000e+02 5.804941940307617188e+01 -3.457555007934570312e+01 -3.442272543907165527e-02 1.549339771270751953e+00 4.544751048088073730e-01 -8.324582576751708984e-01
4.490000000000000000e+02 5.622111892700195312e+01 -3.235138320922851562e+01 1.330144524574279785e+00 5.914778709411621094e+00 2.173476934432983398e+00 -1.516900539398193359e+00
4.500000000000000000e+02 5.522119903564453125e+01 -3.327395629882812500e+01 2.437970973551273346e-02 4.653697013854980469e+00 1.403423070907592773e+00 2.969803214073181152e-01
4.510000000000000000e+02 5.367820739746093750e+01 -3.081528854370117188e+01 1.612539768218994141e+00 3.891258239746093750e+00 1.651139378547668457e+00 8.465453982353210449e-01
4.520000000000000000e+02 5.604122924804687500e+01 -2.910262107849121094e+01 1.084159493446350098e+00 9.075407981872558594e+00 3.047870397567749023e+00 2.301455974578857422e+00
4.530000000000000000e+02 5.506000900268554688e+01 -2.869954299926757812e+01 1.887383937835693359e+00 6.242256641387939453e+00 2.438892126083374023e+00 1.049096345901489258e+00
4.540000000000000000e+02 5.653407287597656250e+01 -2.782552719116210938e+01 2.224491834640502930e+00 7.478066444396972656e+00 2.910767555236816406e+00 3.128106594085693359e+00
4.550000000000000000e+02 5.830880355834960938e+01 -2.570887756347656250e+01 1.749411940574645996e+00 3.143058061599731445e+00 1.467741012573242188e+00 2.264097452163696289e+00
4.560000000000000000e+02 5.705710983276367188e+01 -2.003054618835449219e+01 1.467783842235803604e-02 3.779359102249145508e+00 1.138211131095886230e+00 2.841149806976318359e+00
4.570000000000000000e+02 5.879349899291992188e+01 -1.967861557006835938e+01 1.377520322799682617e+00 7.752112388610839844e+00 2.738889694213867188e+00 -7.584511637687683105e-01
4.580000000000000000e+02 5.836103820800781250e+01 -1.981848526000976562e+01 -1.076153516769409180e-01 8.450081825256347656e+00 2.502739906311035156e+00 1.153861165046691895e+00
4.590000000000000000e+02 1.102047348022460938e+01 -2.993152999877929688e+01 1.711837714537978172e-03 -2.252895210403949022e-04 4.459644842427223921e-04 1.272697118110954762e-04
4.600000000000000000e+02 3.710327863693237305e+00 -2.426109695434570312e+01 -1.851144952524919063e-05 5.292496280162595212e-05 1.032405361911514774e-05 2.667101853148778901e-06
4.610000000000000000e+02 7.080476880073547363e-01 -3.043843460083007812e+01 7.450896646332694218e-06 -9.694257641967851669e-06 -6.730082873218634631e-07 4.252550570527091622e-05
4.620000000000000000e+02 7.128616571426391602e-01 -3.186157226562500000e+01 3.630663923104293644e-05 1.206623564939945936e-04 4.709069980890490115e-05 9.030595538206398487e-05
4.630000000000000000e+02 8.045043945312500000e-01 -3.741696166992187500e+01 -2.313870936632156372e-06 1.136819249950349331e-03 3.403516020625829697e-04 1.557793439133092761e-04
4.640000000000000000e+02 2.608567953109741211e+00 -3.822298049926757812e+01 -1.256050018128007650e-04 1.217990065924823284e-03 3.277155046816915274e-04 4.600620304699987173e-04
4.650000000000000000e+02 1.064735698699951172e+01 -2.808737373352050781e+01 3.140304761473089457e-04 5.519404658116400242e-05 1.107673524529673159e-04 3.183953231200575829e-05
4.660000000000000000e+02 8.603673934936523438e+00 -2.530942726135253906e+01 -1.699463900877162814e-04 -1.368606317555531859e-04 -9.204210800817236304e-05 9.384127042721956968e-05
4.670000000000000000e+02 8.622223854064941406e+00 -2.253164291381835938e+01 -6.297712388914078474e-05 -2.410277011222206056e-05 -2.612396747281309217e-05 2.662938459252472967e-05
4.680000000000000000e+02 8.843916893005371094e+00 -2.114375114440917969e+01 3.956526779802516103e-05 -4.850040568271651864e-06 1.041456835082499310e-05 -1.851030901889316738e-05
4.690000000000000000e+02 7.762485027313232422e+00 -2.098320960998535156e+01 -5.154722384759224951e-05 -1.184139637189218774e-05 -1.901658652059268206e-05 4.939381324220448732e-05
4.700000000000000000e+02 8.075715065002441406e+00 -1.961022377014160156e+01 3.178613042109645903e-05 1.815127870941068977e-05 1.498122310295002535e-05 -2.338336162210907787e-05
4.710000000000000000e+02 1.166116142272949219e+01 -1.575353431701660156e+01 1.121474451792892069e-05 3.909625229425728321e-05 1.509329922555480152e-05 -1.428091673005837947e-05
4.720000000000000000e+02 1.393308067321777344e+01 -1.421005058288574219e+01 6.202104032126953825e-06 2.406676685495767742e-05 9.080661584448534995e-06 -1.195883487525861710e-05
4.730000000000000000e+02 1.675591659545898438e+01 -1.341138935089111328e+01 6.369658649418852292e-07 2.193482214352115989e-05 6.771536391170229763e-06 -4.353153599367942661e-06
4.740000000000000000e+02 1.954614830017089844e+01 -1.333962917327880859e+01 2.571025788711267523e-06 1.908974809339269996e-05 6.498232323792763054e-06 -5.085891643830109388e-06
4.750000000000000000e+02 1.818213844299316406e+01 -1.329760742187500000e+01 -1.559838892717380077e-06 -2.002572182391304523e-05 -6.475668669736478478e-06 4.008982159575680271e-06
4.760000000000000000e+02 2.138535690307617188e+01 -1.388216114044189453e+01 4.667529367452516453e-07 -6.213523647602414712e-06 -1.724031221783661749e-06 -1.710945639388228301e-06
4.770000000000000000e+02 2.092272377014160156e+01 -1.223571777343750000e+01 1.732490886752202641e-06 -1.396400239173090085e-05 -3.669453462862293236e-06 6.709765898449404631e-07
4.780000000000000000e+02 2.187154197692871094e+01 -1.260919094085693359e+01 -2.889369625336257741e-06 -2.708150759644922800e-06 -1.679256115494354162e-06 1.325951302533212584e-06
4.790000000000000000e+02 1.778156471252441406e+01 -6.989509105682373047e+00 -5.587377472693333402e-06 -4.116288891964359209e-06 -2.911099954872042872e-06 -3.494757038424722850e-06
4.800000000000000000e+02 1.632887268066406250e+01 -6.447779655456542969e+00 6.685938387818168849e-06 4.297992290958063677e-06 3.295179112683399580e-06 1.898980713122000452e-06
4.810000000000000000e+02 1.344118881225585938e+01 -3.644955158233642578e+00 -4.457176146388519555e-06 -5.639816208713455126e-06 -3.029097797480062582e-06 -9.103672482524416409e-07
4.820000000000000000e+02 1.076564788818359375e+01 -2.340662479400634766e+00 -8.376395612685882952e-07 -9.906375453283544630e-06 -3.223204430469195358e-06 -5.493506805009928939e-08
4.830000000000000000e+02 1.244268226623535156e+01 -3.892381906509399414e+00 -3.791581093537388369e-06 -8.355038517038337886e-06 -3.643985792223247699e-06 1.561284875606361311e-06
4.840000000000000000e+02 9.989398956298828125e+00 -2.067411422729492188e+00 8.491421112921671011e-07 9.626091923564672470e-06 3.142570221825735644e-06 -4.172643741640058579e-07
4.850000000000000000e+02 3.621077299118041992e+00 -1.929578781127929688e+00 6.568236585735576227e-06 -4.795331278728554025e-06 5.318714784152689390e-07 7.359159326369990595e-07
4.860000000000000000e+02 5.817212462425231934e-01 -1.066484069824218750e+01 3.175097299390472472e-05 8.090780170277867001e-07 9.768014933797530830e-06 1.121280661209311802e-06
4.870000000000000000e+02 1.748228192329406738e+00 -1.061000728607177734e+01 -2.466754085617139935e-05 -8.598269118920143228e-07 -7.658210051886271685e-06 -6.490109285550715867e-07
4.880000000000000000e+02 5.999598503112792969e-01 -1.773126220703125000e+01 -3.805192682193592191e-05 1.337897515440999996e-06 -1.101420912164030597e-05 4.088264233814697945e-07
4.890000000000000000e+02 9.266272544860839844e+00 -1.981477165222167969e+01 -2.281711203977465630e-05 -8.166805855580605567e-06 -9.295175004808697850e-06 1.446827900508651510e-05
4.900000000000000000e+02 1.798856258392333984e+00 -1.766601371765136719e+01 2.757069341896567494e-05 -2.941331104011624120e-06 7.388808626274112612e-06 -2.883907200157409534e-06
4.910000000000000000e+02 5.857776403427124023e-01 -2.334424018859863281e+01 -1.900593088066671044e-05 -3.780041879508644342e-05 -1.704190435702912509e-05 -9.733790648169815540e-06
4.920000000000000000e+02 7.306346130371093750e+01 -2.580320739746093750e+01 1.497160553932189941e+00 1.102569293975830078e+01 3.756855964660644531e+00 -6.931228637695312500e-01
4.930000000000000000e+02 7.946389007568359375e+01 -2.222874832153320312e+01 4.320738837122917175e-02 6.813541889190673828e+00 2.057024717330932617e+00 1.776713728904724121e-01
4.940000000000000000e+02 6.572163391113281250e+01 -1.202219295501708984e+01 6.414910554885864258e-01 2.368462085723876953e+00 9.029859900474548340e-01 9.736370444297790527e-01
4.950000000000000000e+02 6.491337585449218750e+01 -1.130374717712402344e+01 8.613057136535644531e-01 2.028323650360107422e+00 8.668887615203857422e-01 1.140915036201477051e+00
4.960000000000000000e+02 6.400164031982421875e+01 -1.241140747070312500e+01 8.720707893371582031e-01 1.407208800315856934e+00 6.837838888168334961e-01 1.086216449737548828e+00
4.970000000000000000e+02 6.133655548095703125e+01 -1.766122627258300781e+01 2.860259056091308594e+00 3.275458812713623047e-01 9.563415050506591797e-01 2.561115980148315430e+00
4.980000000000000000e+02 6.015298843383789062e+01 -1.830932235717773438e+01 6.458993434906005859e+00 1.117794990539550781e+00 2.273036479949951172e+00 7.970977425575256348e-01
4.990000000000000000e+02 5.950959014892578125e+01 -1.964860343933105469e+01 2.773358583450317383e+00 5.451644420623779297e+00 2.467500925064086914e+00 -1.304722309112548828e+00
5.000000000000000000e+02 6.078059387207031250e+01 -2.274669075012207031e+01 -1.355385541915893555e+00 1.516999125480651855e+00 4.848407208919525146e-02 4.709491133689880371e-01
5.010000000000000000e+02 6.544797515869140625e+01 -2.211386299133300781e+01 -1.543137669563293457e+00 -3.052530586719512939e-01 -5.545172095298767090e-01 -7.952361702919006348e-01
5.020000000000000000e+02 6.313441848754882812e+01 -2.299526977539062500e+01 -2.169047594070434570e+00 -9.721694141626358032e-02 -6.798793673515319824e-01 -6.380262970924377441e-01
5.030000000000000000e+02 6.082099914550781250e+01 -2.377255249023437500e+01 -1.505946755409240723e+00 5.686290264129638672e-01 -2.811953127384185791e-01 -2.533806264400482178e-01
5.040000000000000000e+02 7.828813934326171875e+01 -1.670735549926757812e+01 -1.269243955612182617e-01 7.888418674468994141e+00 2.328448295593261719e+00 1.046422943472862244e-01
5.050000000000000000e+02 7.937208557128906250e+01 -1.255576515197753906e+01 -1.704765856266021729e-02 8.074415206909179688e+00 2.417210102081298828e+00 -8.231116831302642822e-02
5.060000000000000000e+02 6.712342071533203125e+01 -7.619821548461914062e+00 6.647737026214599609e-01 4.198526382446289062e+00 1.458990097045898438e+00 1.607016324996948242e+00
5.070000000000000000e+02 7.803299713134765625e+01 -9.820054054260253906e+00 -3.827409073710441589e-02 7.410266399383544922e+00 2.211597681045532227e+00 -3.288286626338958740e-01
5.080000000000000000e+02 7.932083129882812500e+01 -5.582076549530029297e+00 4.859346430748701096e-03 6.689715862274169922e+00 2.008372545242309570e+00 -1.804240792989730835e-01
5.090000000000000000e+02 7.007646179199218750e+01 4.269868731498718262e-01 6.670167446136474609e-01 1.208355998992919922e+01 3.825172901153564453e+00 1.750106453895568848e+00
5.100000000000000000e+02 6.881842041015625000e+01 -3.703278779983520508e+00 7.362172007560729980e-01 7.542084217071533203e+00 2.483490467071533203e+00 2.142940759658813477e+00
5.110000000000000000e+02 6.928517150878906250e+01 -2.359540462493896484e+00 6.916778087615966797e-01 8.836728096008300781e+00 2.858521699905395508e+00 2.197610139846801758e+00
5.120000000000000000e+02 7.796446990966796875e+01 -2.735465288162231445e+00 2.232752740383148193e-02 6.478185176849365234e+00 1.950153827667236328e+00 -4.246902763843536377e-01
5.130000000000000000e+02 7.944378662109375000e+01 2.861066818237304688e+00 2.786977961659431458e-02 5.119639396667480469e+00 1.544252753257751465e+00 -5.328436847776174545e-03
5.140000000000000000e+02 7.021207427978515625e+01 6.129708290100097656e+00 1.805732548236846924e-01 1.234627628326416016e+01 3.758054971694946289e+00 -1.946911215782165527e-01
5.150000000000000000e+02 7.135458374023437500e+01 4.818781852722167969e+00 1.802615374326705933e-01 1.124991703033447266e+01 3.429053544998168945e+00 1.147091463208198547e-01
5.160000000000000000e+02 7.829532623291015625e+01 4.337748527526855469e+00 9.968330711126327515e-02 5.978942394256591797e+00 1.823587656021118164e+00 1.158615052700042725e-01
5.170000000000000000e+02 7.936611938476562500e+01 8.418068885803222656e+00 -1.221953076310455799e-03 5.765317916870117188e+00 1.729228734970092773e+00 1.206100285053253174e-01
5.180000000000000000e+02 7.004854583740234375e+01 1.585239410400390625e+01 3.167636692523956299e-02 9.770541191101074219e+00 2.940665245056152344e+00 1.560393869876861572e-01
5.190000000000000000e+02 6.999293518066406250e+01 8.868830680847167969e+00 9.358751773834228516e-02 1.012879467010498047e+01 3.066714763641357422e+00 -1.002077579498291016e+00
5.200000000000000000e+02 7.014500427246093750e+01 7.504743576049804688e+00 3.646535873413085938e-01 1.193164157867431641e+01 3.688888549804687500e+00 -7.842005491256713867e-01
5.210000000000000000e+02 7.820526885986328125e+01 1.132852745056152344e+01 -4.201427474617958069e-02 6.751408576965332031e+00 2.012818336486816406e+00 2.501807808876037598e-01
5.220000000000000000e+02 7.946687316894531250e+01 1.678808593750000000e+01 1.705985888838768005e-02 6.816590309143066406e+00 2.050095081329345703e+00 5.313383415341377258e-02
5.230000000000000000e+02 6.983104705810546875e+01 2.424687004089355469e+01 1.769201010465621948e-01 9.324397087097167969e+00 2.850395202636718750e+00 -4.098393321037292480e-01
5.240000000000000000e+02 6.999665069580078125e+01 1.727389717102050781e+01 1.905947737395763397e-02 9.545831680297851562e+00 2.869467258453369141e+00 1.027316600084304810e-01
5.250000000000000000e+02 7.830605316162109375e+01 1.820710754394531250e+01 2.248814702033996582e-02 7.221896171569824219e+00 2.173315286636352539e+00 1.485344022512435913e-01
5.260000000000000000e+02 7.941792297363281250e+01 2.376252746582031250e+01 1.935507170855998993e-03 7.633589267730712891e+00 2.290657520294189453e+00 1.313672959804534912e-01
5.270000000000000000e+02 6.907250976562500000e+01 2.844005584716796875e+01 5.150712728500366211e-01 6.188843727111816406e+00 2.011174440383911133e+00 -1.417946100234985352e+00
5.280000000000000000e+02 7.716080474853515625e+01 2.260327911376953125e+01 8.716671168804168701e-02 7.742209911346435547e+00 2.348812818527221680e+00 3.496790528297424316e-01
5.290000000000000000e+02 7.935109710693359375e+01 2.933466529846191406e+01 3.332337597385048866e-03 8.946490287780761719e+00 2.684946775436401367e+00 1.795599609613418579e-01
5.300000000000000000e+02 6.685821533203125000e+01 3.207848739624023438e+01 -3.485951423645019531e-01 9.069390892982482910e-01 1.675031781196594238e-01 -1.551190465688705444e-01
5.310000000000000000e+02 6.588226318359375000e+01 3.313436126708984375e+01 -7.403739094734191895e-01 2.178672403097152710e-01 -1.567520052194595337e-01 3.254930675029754639e-01
5.320000000000000000e+02 6.774399566650390625e+01 3.096911048889160156e+01 1.476180851459503174e-01 2.082592010498046875e+00 6.690630316734313965e-01 -7.569986581802368164e-01
5.330000000000000000e+02 7.924546813964843750e+01 3.222686767578125000e+01 -1.400368404574692249e-03 9.581637382507324219e+00 2.874071121215820312e+00 1.707858145236968994e-01
5.340000000000000000e+02 7.918499755859375000e+01 3.748354721069335938e+01 -2.274418249726295471e-02 1.004010677337646484e+01 3.005208730697631836e+00 -6.542277336120605469e-02
5.350000000000000000e+02 7.211291503906250000e+01 4.151972198486328125e+01 -2.202154882252216339e-02 5.681419372558593750e+00 1.697819352149963379e+00 4.366587381809949875e-03
5.360000000000000000e+02 6.914764404296875000e+01 3.604551315307617188e+01 -5.023229122161865234e-01 3.797455310821533203e+00 9.885397553443908691e-01 -3.829793632030487061e-01
5.370000000000000000e+02 6.213670730590820312e+01 3.559269332885742188e+01 -1.179228663444519043e+00 -2.446242570877075195e-01 -4.271558523178100586e-01 4.516409635543823242e-01
5.380000000000000000e+02 6.056203079223632812e+01 3.599901199340820312e+01 -9.871264100074768066e-01 -1.273744702339172363e-01 -3.343502581119537354e-01 3.733544051647186279e-01
5.390000000000000000e+02 6.481191253662109375e+01 3.628625488281250000e+01 -4.031276404857635498e-01 4.602453708648681641e-01 1.713532209396362305e-02 -2.549216896295547485e-02
5.400000000000000000e+02 6.479537200927734375e+01 3.413456726074218750e+01 -1.228596091270446777e+00 -2.383625805377960205e-01 -4.400875866413116455e-01 6.090845465660095215e-01
5.410000000000000000e+02 7.681326293945312500e+01 3.951980590820312500e+01 -9.282194077968597412e-02 9.261650085449218750e+00 2.750648498535156250e+00 1.519970223307609558e-02
5.420000000000000000e+02 5.717811965942382812e+01 3.603765487670898438e+01 -6.571435332298278809e-01 -7.952924072742462158e-02 -2.210018336772918701e-01 -1.487919315695762634e-02
5.430000000000000000e+02 5.881810760498046875e+01 3.629385375976562500e+01 -8.713138103485107422e-01 -2.376923710107803345e-01 -3.327018618583679199e-01 2.132340818643569946e-01
5.440000000000000000e+02 5.355235290527343750e+01 3.542427062988281250e+01 -2.814109325408935547e-01 8.068227022886276245e-02 -6.021859869360923767e-02 7.602508179843425751e-03
5.450000000000000000e+02 4.966877365112304688e+01 3.538061141967773438e+01 -2.141046822071075439e-01 4.296678602695465088e-01 6.466895341873168945e-02 8.429016172885894775e-02
5.460000000000000000e+02 4.908516693115234375e+01 3.038066291809082031e+01 1.214629933238029480e-01 4.003116190433502197e-01 1.565323770046234131e-01 2.304833829402923584e-01
5.470000000000000000e+02 5.125712966918945312e+01 3.251094436645507812e+01 -4.185456782579421997e-03 1.715909987688064575e-01 5.022166296839714050e-02 6.972927600145339966e-02
5.480000000000000000e+02 4.899020385742187500e+01 3.286227416992187500e+01 -8.699897676706314087e-02 4.417975842952728271e-01 1.064395830035209656e-01 1.351885646581649780e-01
5.490000000000000000e+02 5.354571533203125000e+01 3.379401016235351562e+01 -1.575280725955963135e-01 -6.130822002887725830e-03 -4.909766837954521179e-02 -6.861426681280136108e-02
5.500000000000000000e+02 5.461798858642578125e+01 3.452193450927734375e+01 -2.430440485477447510e-01 -4.144566133618354797e-02 -8.534691482782363892e-02 -8.145617693662643433e-02
5.510000000000000000e+02 4.257782363891601562e+01 4.117156982421875000e+01 -3.706768751144409180e-01 8.235654830932617188e-01 1.358665674924850464e-01 7.116958964616060257e-03
5.520000000000000000e+02 4.550213623046875000e+01 3.110204124450683594e+01 -9.512010961771011353e-02 8.157889246940612793e-01 2.162006348371505737e-01 1.536587029695510864e-01
5.530000000000000000e+02 4.506943130493164062e+01 2.434220504760742188e+01 2.645690143108367920e-01 1.290111541748046875e+00 4.664041697978973389e-01 5.411599874496459961e-01
5.540000000000000000e+02 4.576417541503906250e+01 2.559362220764160156e+01 2.504157125949859619e-01 1.072755336761474609e+00 3.969513177871704102e-01 4.950692951679229736e-01
5.550000000000000000e+02 4.728632736206054688e+01 2.804162788391113281e+01 2.295123040676116943e-01 7.247304320335388184e-01 2.862728238105773926e-01 3.889269530773162842e-01
5.560000000000000000e+02 4.646156311035156250e+01 3.269219589233398438e+01 -1.496070772409439087e-01 7.077345848083496094e-01 1.674382537603378296e-01 1.318767219781875610e-01
5.570000000000000000e+02 3.768019866943359375e+01 4.080938720703125000e+01 -3.475996851921081543e-01 8.821309208869934082e-01 1.603593677282333374e-01 -1.814728602766990662e-02
5.580000000000000000e+02 3.871990966796875000e+01 3.783974838256835938e+01 -3.339926898479461670e-01 8.947245478630065918e-01 1.682195663452148438e-01 -2.964565344154834747e-02
5.590000000000000000e+02 3.736446762084960938e+01 2.955118179321289062e+01 -1.391911953687667847e-01 1.032464027404785156e+00 2.679818272590637207e-01 -1.011485084891319275e-01
5.600000000000000000e+02 3.957282257080078125e+01 2.519279861450195312e+01 2.806226536631584167e-02 1.281993389129638672e+00 3.930166959762573242e-01 -9.362747892737388611e-03
5.610000000000000000e+02 3.958868408203125000e+01 1.484285926818847656e+01 3.078210353851318359e-01 2.244057416915893555e+00 7.655634880065917969e-01 -2.204383760690689087e-01
5.620000000000000000e+02 3.945046997070312500e+01 1.145987987518310547e+01 5.981829166412353516e-01 2.309216499328613281e+00 8.722198009490966797e-01 -4.712394773960113525e-01
5.630000000000000000e+02 3.697889328002929688e+01 5.738646984100341797e+00 5.828955769538879395e-01 1.399957180023193359e+00 5.948558449745178223e-01 -3.533374667167663574e-01
5.640000000000000000e+02 3.910921859741210938e+01 -2.349101066589355469e+00 3.819488286972045898e-01 1.080926656723022461e+00 4.388626515865325928e-01 -4.549050331115722656e-01
5.650000000000000000e+02 3.571250152587890625e+01 -1.485468292236328125e+01 -9.781376123428344727e-01 -3.011884987354278564e-01 -3.837978243827819824e-01 6.919100880622863770e-01
5.660000000000000000e+02 3.540281677246093750e+01 -1.797403907775878906e+01 -2.154898643493652344e+00 -6.002306193113327026e-02 -6.644765138626098633e-01 2.514604628086090088e-01
5.670000000000000000e+02 3.671277236938476562e+01 -1.703917121887207031e+01 -1.930353045463562012e+00 -4.787916839122772217e-01 -7.227433919906616211e-01 7.802448868751525879e-01
5.680000000000000000e+02 3.795605850219726562e+01 -1.821164131164550781e+01 -3.116357088088989258e+00 -6.693713665008544922e-01 -1.135718584060668945e+00 1.048178195953369141e+00
5.690000000000000000e+02 4.471165084838867188e+01 -1.915189552307128906e+01 -2.394892930984497070e+00 2.790394425392150879e-01 -6.347560882568359375e-01 4.657458066940307617e-01
5.700000000000000000e+02 4.620770263671875000e+01 -1.874077606201171875e+01 -2.814358711242675781e+00 1.620490103960037231e-01 -7.956928610801696777e-01 4.740937948226928711e-01
5.710000000000000000e+02 4.996230316162109375e+01 -1.799635314941406250e+01 -3.612212896347045898e+00 2.548499107360839844e-01 -1.007208943367004395e+00 5.301787257194519043e-01
5.720000000000000000e+02 5.091152954101562500e+01 -1.006499671936035156e+01 6.908310055732727051e-01 4.560617446899414062e+00 1.575434565544128418e+00 -1.734522342681884766e+00
5.730000000000000000e+02 5.053269195556640625e+01 -8.725811004638671875e+00 5.738671422004699707e-01 4.051146984100341797e+00 1.387504220008850098e+00 -1.468258619308471680e+00
5.740000000000000000e+02 4.858563995361328125e+01 -6.341489315032958984e+00 5.387995839118957520e-01 2.831227302551269531e+00 1.011008024215698242e+00 -1.284515738487243652e+00
5.750000000000000000e+02 4.883084487915039062e+01 -3.484371662139892578e+00 3.856645822525024414e-01 2.703833580017089844e+00 9.268494248390197754e-01 -1.051901340484619141e+00
5.760000000000000000e+02 4.413834381103515625e+01 3.407066583633422852e+00 5.332705378532409668e-01 2.330325365066528320e+00 8.590787649154663086e-01 -1.133043289184570312e+00
5.770000000000000000e+02 4.457073974609375000e+01 5.178896427154541016e+00 7.441229224205017090e-01 2.536478519439697266e+00 9.841804504394531250e-01 -1.353358864784240723e+00
5.780000000000000000e+02 4.389704513549804688e+01 6.415257930755615234e+00 7.672652602195739746e-01 2.908856868743896484e+00 1.102836608886718750e+00 -1.376841783523559570e+00
5.790000000000000000e+02 4.273316955566406250e+01 9.025372505187988281e+00 5.873135328292846680e-01 3.780164718627929688e+00 1.310243487358093262e+00 -1.182666897773742676e+00
5.800000000000000000e+02 4.235055923461914062e+01 1.041825389862060547e+01 3.927297592163085938e-01 4.107690334320068359e+00 1.350126028060913086e+00 -7.234553098678588867e-01
5.810000000000000000e+02 3.821918106079101562e+01 1.485944938659667969e+01 3.910437226295471191e-01 1.926508188247680664e+00 6.952655911445617676e-01 -3.061851263046264648e-01
5.820000000000000000e+02 3.260463714599609375e+01 4.063616561889648438e+01 -2.877043485641479492e-01 7.933597564697265625e-01 1.516966223716735840e-01 -2.884469740092754364e-02
5.830000000000000000e+02 2.757518196105957031e+01 4.081856918334960938e+01 -2.033873647451400757e-01 6.010379195213317871e-01 1.192951723933219910e-01 -2.965857833623886108e-02
5.840000000000000000e+02 2.883794021606445312e+01 2.715319824218750000e+01 5.394096672534942627e-02 6.243570446968078613e-01 2.034894078969955444e-01 -2.361721843481063843e-01
5.850000000000000000e+02 3.015365028381347656e+01 2.384016609191894531e+01 1.600886583328247070e-01 6.964555382728576660e-01 2.569632530212402344e-01 -2.755779623985290527e-01
5.860000000000000000e+02 3.251077270507812500e+01 1.619401359558105469e+01 4.534840583801269531e-01 8.859586715698242188e-01 4.018328189849853516e-01 -3.368132114410400391e-01
5.870000000000000000e+02 3.286583709716796875e+01 1.186215400695800781e+01 5.846194624900817871e-01 8.740009665489196777e-01 4.375861287117004395e-01 -3.181306123733520508e-01
5.880000000000000000e+02 2.784792518615722656e+01 2.331520617008209229e-01 4.698915407061576843e-02 -7.172338664531707764e-02 -7.420269306749105453e-03 1.508495062589645386e-01
5.890000000000000000e+02 2.878605270385742188e+01 -5.633459568023681641e+00 -3.270060420036315918e-01 -1.418987810611724854e-01 -1.406714469194412231e-01 4.353799819946289062e-01
5.900000000000000000e+02 2.544525337219238281e+01 -1.154984188079833984e+01 -5.353053808212280273e-01 -6.267734169960021973e-01 -3.486236333847045898e-01 6.638115048408508301e-01
5.910000000000000000e+02 2.751920700073242188e+01 -1.645767211914062500e+01 -5.579186081886291504e-01 -1.461483687162399292e-01 -2.112201005220413208e-01 3.051721155643463135e-01
5.920000000000000000e+02 2.924891853332519531e+01 -1.692540931701660156e+01 -7.323082089424133301e-01 -1.149050444364547729e-01 -2.541639804840087891e-01 3.474040031433105469e-01
5.930000000000000000e+02 3.154461669921875000e+01 -1.769889831542968750e+01 -9.747431278228759766e-01 -7.189644966274499893e-03 -2.945798337459564209e-01 2.569832801818847656e-01
5.940000000000000000e+02 1.780380058288574219e+01 4.067409896850585938e+01 -6.980067491531372070e-02 1.016799733042716980e-01 9.563788771629333496e-03 -1.793919503688812256e-02
5.950000000000000000e+02 2.270176124572753906e+01 4.084742736816406250e+01 -1.268965154886245728e-01 3.624023795127868652e-01 7.065175473690032959e-02 -2.065155841410160065e-02
5.960000000000000000e+02 2.276918983459472656e+01 2.102854728698730469e+01 2.635056674480438232e-01 1.420659571886062622e-01 1.216714829206466675e-01 -1.605670005083084106e-01
5.970000000000000000e+02 2.376010322570800781e+01 1.846979713439941406e+01 3.412348330020904541e-01 1.333166211843490601e-01 1.423654407262802124e-01 -1.661016345024108887e-01
5.980000000000000000e+02 2.426109695434570312e+01 8.807195663452148438e+00 3.910136520862579346e-01 -1.320297867059707642e-01 7.769516110420227051e-02 -1.311788987368345261e-02
5.990000000000000000e+02 2.154090881347656250e+01 -5.042610764503479004e-01 -2.989247143268585205e-01 -6.390172839164733887e-01 -2.813825905323028564e-01 3.952383995056152344e-01
6.000000000000000000e+02 1.927112388610839844e+01 -3.314022541046142578e+00 -8.387398719787597656e-01 -9.031416773796081543e-01 -5.225644707679748535e-01 7.684861421585083008e-01
6.010000000000000000e+02 1.985410308837890625e+01 -3.873003482818603516e+00 -8.406069278717041016e-01 -9.413731694221496582e-01 -5.345940589904785156e-01 7.888035774230957031e-01
6.020000000000000000e+02 2.204005622863769531e+01 -6.238990306854248047e+00 -7.821808457374572754e-01 -1.015203118324279785e+00 -5.392152070999145508e-01 8.031504750251770020e-01
6.030000000000000000e+02 2.355359649658203125e+01 -7.068588733673095703e+00 -6.963497400283813477e-01 -8.498443961143493652e-01 -4.638582170009613037e-01 7.083468437194824219e-01
6.040000000000000000e+02 2.390595245361328125e+01 -8.840613365173339844e+00 -6.691974401473999023e-01 -9.157820940017700195e-01 -4.754938781261444092e-01 7.519240379333496094e-01
6.050000000000000000e+02 1.895602989196777344e+01 3.709695434570312500e+01 -5.894294381141662598e-02 1.464769691228866577e-01 2.626020461320877075e-02 -5.261189118027687073e-02
6.060000000000000000e+02 1.611199760437011719e+01 3.141593933105468750e+01 2.682957611978054047e-02 -2.902610413730144501e-02 -6.589585100300610065e-04 -5.882842466235160828e-02
6.070000000000000000e+02 1.539020538330078125e+01 2.274014282226562500e+01 1.608854681253433228e-01 -1.712089031934738159e-01 -3.097029635682702065e-03 -1.432766951620578766e-02
6.080000000000000000e+02 1.494385910034179688e+01 1.656027984619140625e+01 2.325910478830337524e-01 -3.019471168518066406e-01 -2.080682106316089630e-02 9.088794887065887451e-02
6.090000000000000000e+02 1.564260005950927734e+01 6.523479938507080078e+00 7.997354120016098022e-02 -5.133802294731140137e-01 -1.300220042467117310e-01 3.196160495281219482e-01
6.100000000000000000e+02 1.084733581542968750e+01 1.777453660964965820e+00 -4.232861101627349854e-01 -2.917107343673706055e-01 -2.144990563392639160e-01 3.648226857185363770e-01
6.110000000000000000e+02 1.395780944824218750e+01 3.138731420040130615e-01 -6.605443954467773438e-01 -4.689001441001892090e-01 -3.388333618640899658e-01 5.252900123596191406e-01
6.120000000000000000e+02 1.505497550964355469e+01 5.252294540405273438e-01 -5.624982714653015137e-01 -5.644499659538269043e-01 -3.380844891071319580e-01 5.363091230392456055e-01
6.130000000000000000e+02 1.575986289978027344e+01 1.074907258152961731e-01 -5.926099419593811035e-01 -6.138058900833129883e-01 -3.619247376918792725e-01 5.634983777999877930e-01
6.140000000000000000e+02 1.737678337097167969e+01 -1.811066746711730957e+00 -8.126541376113891602e-01 -7.535596489906311035e-01 -4.698641300201416016e-01 7.065481543540954590e-01
6.150000000000000000e+02 1.285675239562988281e+01 4.077363586425781250e+01 -3.370866179466247559e-02 -1.336494684219360352e-01 -5.020743981003761292e-02 -1.144632976502180099e-02
6.160000000000000000e+02 9.017377853393554688e+00 3.830958175659179688e+01 -1.256295852363109589e-02 -3.338471651077270508e-01 -1.039230376482009888e-01 -8.708162233233451843e-03
6.170000000000000000e+02 7.536216259002685547e+00 3.164603996276855469e+01 1.037077698856592178e-02 -4.121582806110382080e-01 -1.205362454056739807e-01 -1.433306373655796051e-02
6.180000000000000000e+02 8.426107406616210938e+00 2.254968070983886719e+01 7.182705402374267578e-02 -4.073618948459625244e-01 -1.006604582071304321e-01 5.573464184999465942e-02
6.190000000000000000e+02 9.362242698669433594e+00 1.505827426910400391e+01 1.163413524627685547e-01 -4.011074006557464600e-01 -8.542980998754501343e-02 1.859987229108810425e-01
6.200000000000000000e+02 8.216411590576171875e+00 8.304222106933593750e+00 3.906959667801856995e-03 -3.361790776252746582e-01 -9.968163073062896729e-02 2.941074967384338379e-01
6.210000000000000000e+02 6.264314651489257812e+00 1.873656868934631348e+00 -1.628833711147308350e-01 -3.712779283523559570e-02 -6.000334769487380981e-02 1.166358664631843567e-01
6.220000000000000000e+02 1.165735054016113281e+01 1.391292929649353027e+00 -5.024133920669555664e-01 -3.335977792739868164e-01 -2.508033514022827148e-01 3.929588794708251953e-01
6.230000000000000000e+02 2.017408132553100586e+00 4.164497375488281250e+01 -1.963156089186668396e-02 -6.641128659248352051e-01 -2.051233351230621338e-01 -5.565189290791749954e-03
6.240000000000000000e+02 4.607189655303955078e+00 3.779155731201171875e+01 4.485477693378925323e-03 -5.591611266136169434e-01 -1.664026975631713867e-01 7.919844239950180054e-03
6.250000000000000000e+02 2.130725860595703125e+00 3.574274444580078125e+01 4.404361825436353683e-03 -6.613684892654418945e-01 -1.970892399549484253e-01 -1.369505468755960464e-02
6.260000000000000000e+02 2.153223037719726562e+00 2.898508834838867188e+01 3.079001791775226593e-03 -6.693167686462402344e-01 -1.998713314533233643e-01 1.070614787749946117e-03
6.270000000000000000e+02 2.034436941146850586e+00 2.339149093627929688e+01 5.812700372189283371e-03 -6.501993536949157715e-01 -1.933159977197647095e-01 2.017330378293991089e-02
6.280000000000000000e+02 1.948731660842895508e+00 1.774402427673339844e+01 8.291877806186676025e-03 -5.620792508125305176e-01 -1.661362051963806152e-01 5.236933752894401550e-02
6.290000000000000000e+02 5.343784093856811523e-01 6.403623580932617188e+00 -1.942971139214932919e-03 -1.021882817149162292e-01 -3.123937733471393585e-02 2.441707625985145569e-02
6.300000000000000000e+02 1.728051662445068359e+00 9.116429328918457031e+00 -1.088753691874444485e-03 -2.537651360034942627e-01 -7.645616680383682251e-02 8.696725219488143921e-02
6.310000000000000000e+02 4.827007770538330078e+00 2.717492818832397461e+00 -1.001813933253288269e-01 -5.647015571594238281e-02 -4.699546471238136292e-02 1.046796813607215881e-01
6.320000000000000000e+02 4.069128036499023438e+01 -2.041723060607910156e+01 -9.023602008819580078e-01 -2.393788397312164307e-01 -3.425216972827911377e-01 5.809077620506286621e-01
6.330000000000000000e+02 4.033010482788085938e+01 -2.046110725402832031e+01 -7.235403060913085938e-01 -6.268290877342224121e-01 -4.051108062267303467e-01 7.047610282897949219e-01
6.340000000000000000e+02 5.186278152465820312e+01 -1.720727729797363281e+01 -1.708986043930053711e+00 6.109809279441833496e-01 -3.294015228748321533e-01 2.248094826936721802e-01
6.350000000000000000e+02 5.285370254516601562e+01 -1.747691917419433594e+01 -2.351194620132446289e+00 1.188431024551391602e+00 -3.488290607929229736e-01 -3.982376754283905029e-01
6.360000000000000000e+02 5.479685592651367188e+01 -1.729960060119628906e+01 -9.577835798263549805e-01 1.427634507417678833e-01 -2.445060461759567261e-01 -3.375624656677246094e+00
6.370000000000000000e+02 5.366862487792968750e+01 -1.729576110839843750e+01 -1.109916925430297852e+00 1.671229720115661621e+00 1.683938503265380859e-01 -1.683723568916320801e+00
6.380000000000000000e+02 5.515548324584960938e+01 -1.725442695617675781e+01 -2.843209505081176758e-01 1.825529217720031738e+00 4.623624682426452637e-01 -4.761345863342285156e+00
6.390000000000000000e+02 5.633813476562500000e+01 -1.695839500427246094e+01 1.708678841590881348e+00 -7.970216274261474609e-01 2.734971940517425537e-01 -8.370273590087890625e+00
6.400000000000000000e+02 5.790299606323242188e+01 -1.624316787719726562e+01 -1.327402114868164062e+01 7.447873353958129883e-01 -3.758770227432250977e+00 -4.063096523284912109e+00
6.410000000000000000e+02 5.950444793701171875e+01 -1.712185478210449219e+01 3.195687294006347656e+00 1.405526041984558105e+00 1.380363941192626953e+00 4.512721061706542969e+00
6.420000000000000000e+02 6.030459594726562500e+01 -1.660291481018066406e+01 -3.335686400532722473e-02 1.826124310493469238e+00 5.378302335739135742e-01 3.999126434326171875e+00
6.430000000000000000e+02 5.276948928833007812e+01 -2.126157188415527344e+01 -1.524745821952819824e+00 4.144400954246520996e-01 -3.330917358398437500e-01 -1.870298758149147034e-02
6.440000000000000000e+02 4.794251632690429688e+01 -2.295511817932128906e+01 -6.765971183776855469e-01 -2.107626944780349731e-01 -2.662079334259033203e-01 -8.695589303970336914e-01
6.450000000000000000e+02 4.338212585449218750e+01 -3.146166229248046875e+01 -2.094349414110183716e-01 -7.666828036308288574e-01 -2.928353250026702881e-01 6.670023500919342041e-02
6.460000000000000000e+02 4.891550445556640625e+01 -3.252145385742187500e+01 6.355739831924438477e-01 9.977670907974243164e-01 4.900023043155670166e-01 6.427150368690490723e-01
6.470000000000000000e+02 4.978139114379882812e+01 -3.110545730590820312e+01 8.994637727737426758e-01 1.278360128402709961e+00 6.533471941947937012e-01 5.384489297866821289e-01
6.480000000000000000e+02 5.048037719726562500e+01 -3.366595077514648438e+01 4.708251953125000000e-01 1.944813847541809082e+00 7.246916890144348145e-01 9.209774136543273926e-01
6.490000000000000000e+02 6.653125000000000000e+01 -2.150523567199707031e+01 -1.988503932952880859e+00 -4.303119480609893799e-01 -7.256447672843933105e-01 -5.438596010208129883e-01
6.500000000000000000e+02 6.741661071777343750e+01 -2.054922866821289062e+01 -9.170274734497070312e-01 -4.521720856428146362e-02 -2.886734008789062500e-01 -5.261867642402648926e-01
6.510000000000000000e+02 7.130277252197265625e+01 -2.113884162902832031e+01 -1.014485955238342285e+00 7.276917934417724609e+00 1.878729581832885742e+00 -1.157655119895935059e+00
6.520000000000000000e+02 7.075178527832031250e+01 -2.253480720520019531e+01 1.787354111671447754e+00 7.145575046539306641e+00 2.679878711700439453e+00 -3.041001796722412109e+00
6.530000000000000000e+02 6.432289123535156250e+01 -2.267956161499023438e+01 -1.487554669380187988e+00 -1.791275292634963989e-01 -5.000046491622924805e-01 -5.970649719238281250e-01
6.540000000000000000e+02 4.718248367309570312e+01 -2.611711263656616211e+00 4.398426711559295654e-01 2.327441453933715820e+00 8.301852941513061523e-01 -1.138456225395202637e+00
6.550000000000000000e+02 4.114257049560546875e+01 1.012385368347167969e+01 6.549338102340698242e-01 2.998127222061157227e+00 1.095918297767639160e+00 -5.969321131706237793e-01
6.560000000000000000e+02 4.246898651123046875e+01 1.618694877624511719e+01 1.469596326351165771e-01 2.773521900177001953e+00 8.761444687843322754e-01 3.076822459697723389e-01
6.570000000000000000e+02 4.188388442993164062e+01 2.078862571716308594e+01 1.616552919149398804e-01 1.816938519477844238e+00 5.935781598091125488e-01 2.782377600669860840e-01
6.580000000000000000e+02 4.443386459350585938e+01 2.305736351013183594e+01 2.620933651924133301e-01 1.545916914939880371e+00 5.424031019210815430e-01 5.620080232620239258e-01
6.590000000000000000e+02 3.908908462524414062e+01 2.841358947753906250e+01 -9.865356236696243286e-02 1.115668654441833496e+00 3.051045238971710205e-01 -4.711887612938880920e-02
6.600000000000000000e+02 7.026183319091796875e+01 -2.050864982604980469e+01 -7.171616554260253906e-01 5.037236213684082031e+00 1.296022415161132812e+00 -2.258299112319946289e+00
6.610000000000000000e+02 6.855393218994140625e+01 -2.123460388183593750e+01 -1.279163241386413574e+00 6.259317994117736816e-01 -1.959694176912307739e-01 -7.530652284622192383e-01
6.620000000000000000e+02 2.161727905273437500e+01 -3.646585083007812500e+01 -2.725786762312054634e-03 -3.917858470231294632e-03 -1.993093406781554222e-03 4.898012615740299225e-03
6.630000000000000000e+02 2.644049835205078125e+01 -3.164622116088867188e+01 2.793782390654087067e-02 -1.060027629137039185e-03 8.063338696956634521e-03 -2.349644666537642479e-03
6.640000000000000000e+02 3.257812500000000000e+01 -3.789053726196289062e+01 1.419091504067182541e-02 -1.342471539974212646e-01 -3.601687029004096985e-02 -8.987832814455032349e-02
6.650000000000000000e+02 3.115396881103515625e+01 -3.480961227416992188e+01 -4.362477734684944153e-02 -2.028431743383407593e-02 -1.917272806167602539e-02 -4.210764542222023010e-02
6.660000000000000000e+02 4.475340270996093750e+01 -3.794237899780273438e+01 2.214171737432479858e-01 2.202100157737731934e-01 1.324881613254547119e-01 3.523417413234710693e-01
6.670000000000000000e+02 4.192527008056640625e+01 -3.300291442871093750e+01 2.379696071147918701e-02 -1.088132739067077637e+00 -3.193007409572601318e-01 -1.840059310197830200e-01
6.680000000000000000e+02 3.783643341064453125e+01 -3.895910644531250000e+01 2.128896117210388184e-01 -3.517341911792755127e-01 -4.165336862206459045e-02 -1.370400935411453247e-01
6.690000000000000000e+02 5.712856292724609375e+01 -4.098052978515625000e+01 -3.808382749557495117e-01 1.523871898651123047e+00 3.429100811481475830e-01 -2.420248389244079590e-01
6.700000000000000000e+02 7.075540161132812500e+01 -3.327915191650390625e+01 -9.824688434600830078e-01 5.253163814544677734e+00 1.281208395957946777e+00 8.948258161544799805e-01
6.710000000000000000e+02 7.157872772216796875e+01 -3.477153778076171875e+01 -1.171995997428894043e+00 5.214191913604736328e+00 1.212658762931823730e+00 4.011908471584320068e-01
6.720000000000000000e+02 1.200955867767333984e+01 -1.391094207763671875e+01 9.858616976998746395e-06 2.456671063555404544e-05 1.032759791996795684e-05 -1.365617208648473024e-05
6.730000000000000000e+02 1.198543167114257812e+01 -1.221978187561035156e+01 1.186061672342475504e-05 1.896613321150653064e-05 9.248024980479385704e-06 -1.200695351144531742e-05
6.740000000000000000e+02 4.695923614501953125e+01 -9.168200492858886719e+00 1.106102108955383301e+00 1.814697861671447754e+00 8.762400150299072266e-01 -1.362100481986999512e+00
6.750000000000000000e+02 3.589056777954101562e+01 -1.377639579772949219e+01 -7.231007814407348633e-01 -2.731594741344451904e-01 -2.988780736923217773e-01 6.682538390159606934e-01
6.760000000000000000e+02 3.476968765258789062e+01 2.956758117675781250e+01 -1.096496209502220154e-01 9.383448362350463867e-01 2.486085593700408936e-01 -1.675585806369781494e-01
6.770000000000000000e+02 2.735195159912109375e+01 3.400829315185546875e+01 -1.228110417723655701e-01 5.737391710281372070e-01 1.352784335613250732e-01 -1.349697262048721313e-01
6.780000000000000000e+02 2.317764282226562500e+01 3.750205230712890625e+01 -1.138637661933898926e-01 3.739484250545501709e-01 7.802540063858032227e-02 -6.641068309545516968e-02
6.790000000000000000e+02 1.406606101989746094e+01 3.333837127685546875e+01 5.866237916052341461e-03 -1.286298930644989014e-01 -3.682909533381462097e-02 -4.456023126840591431e-02
6.800000000000000000e+02 6.946028709411621094e+00 2.416253662109375000e+01 4.318980127573013306e-02 -4.534231722354888916e-01 -1.230700090527534485e-01 3.862805664539337158e-02
6.810000000000000000e+02 1.844166755676269531e+01 2.807015228271484375e+01 7.852027565240859985e-02 4.855730384588241577e-02 3.812327235937118530e-02 -9.433129429817199707e-02
6.820000000000000000e+02 2.113786506652832031e+01 2.573992347717285156e+01 1.320918649435043335e-01 1.484469324350357056e-01 8.416163921356201172e-02 -1.389509290456771851e-01
6.830000000000000000e+02 2.749023628234863281e+01 2.230967903137207031e+01 2.334600538015365601e-01 4.804228842258453369e-01 2.141648828983306885e-01 -2.591518759727478027e-01
6.840000000000000000e+02 2.177871227264404297e+00 3.176423454284667969e+01 1.157706254161894321e-03 -6.696655750274658203e-01 -2.005523592233657837e-01 -2.540246350690722466e-03
6.850000000000000000e+02 7.090013122558593750e+01 3.051773071289062500e+01 -3.509005308151245117e-01 6.104768276214599609e+00 1.726160287857055664e+00 4.637789726257324219e-02
6.860000000000000000e+02 7.618061065673828125e+00 1.739385986328125000e+01 7.955470681190490723e-02 -4.258966445922851562e-01 -1.039025783538818359e-01 1.376014351844787598e-01
6.870000000000000000e+02 1.313482761383056641e+01 1.880213928222656250e+01 1.775316447019577026e-01 -3.076608479022979736e-01 -3.903875872492790222e-02 7.835766673088073730e-02
6.880000000000000000e+02 2.105632972717285156e+01 1.565475177764892578e+01 3.558011651039123535e-01 -1.006937325000762939e-01 7.653222978115081787e-02 -5.175508931279182434e-02
6.890000000000000000e+02 3.109372138977050781e+01 1.443645286560058594e+01 5.055635571479797363e-01 6.926265954971313477e-01 3.594570457935333252e-01 -3.125879168510437012e-01
6.900000000000000000e+02 4.305594253540039062e+01 1.899588966369628906e+01 1.587764620780944824e-01 2.148676156997680664e+00 6.922357678413391113e-01 4.800879955291748047e-01
6.910000000000000000e+02 6.824624061584472656e+00 1.064368820190429688e+01 3.902664408087730408e-02 -3.583235442638397217e-01 -9.578907489776611328e-02 2.377199232578277588e-01
6.920000000000000000e+02 1.509444999694824219e+01 8.337433815002441406e+00 1.462168693542480469e-01 -4.717329740524291992e-01 -9.765482693910598755e-02 2.824196219444274902e-01
6.930000000000000000e+02 2.075662231445312500e+01 8.751276016235351562e+00 3.038970530033111572e-01 -3.397463858127593994e-01 -1.075480133295059204e-02 1.060543805360794067e-01
6.940000000000000000e+02 3.151175498962402344e+01 1.170022010803222656e+01 5.724235177040100098e-01 6.759321689605712891e-01 3.745067119598388672e-01 -2.845169007778167725e-01
6.950000000000000000e+02 1.931158900260925293e+00 1.631598281860351562e+01 7.272931281477212906e-03 -5.252929329872131348e-01 -1.554059982299804688e-01 6.193492934107780457e-02
6.960000000000000000e+02 2.086169433593750000e+01 6.049089506268501282e-02 -2.738800644874572754e-01 -6.510527729988098145e-01 -2.774798572063446045e-01 3.960978984832763672e-01
6.970000000000000000e+02 3.179697227478027344e+01 5.789510250091552734e+00 4.807485938072204590e-01 5.527161955833435059e-01 3.100394308567047119e-01 -1.559012234210968018e-01
6.980000000000000000e+02 2.674846267700195312e+01 -5.357062339782714844e+00 -4.309889674186706543e-01 -3.298339247703552246e-01 -2.282468676567077637e-01 4.691620469093322754e-01
6.990000000000000000e+02 3.965431594848632812e+01 -6.015865802764892578e+00 3.944895267486572266e-01 7.021738886833190918e-01 3.289990425109863281e-01 -3.379169702529907227e-01
7.000000000000000000e+02 4.605285263061523438e+01 -3.035964012145996094e+00 4.623856246471405029e-01 2.142649650573730469e+00 7.815105915069580078e-01 -1.136122345924377441e+00
7.010000000000000000e+02 4.551405715942382812e+01 -1.870790243148803711e+00 4.591051936149597168e-01 2.091702938079833984e+00 7.652424573898315430e-01 -1.088029265403747559e+00
7.020000000000000000e+02 2.742173194885253906e+01 -1.206105136871337891e+01 -5.655553340911865234e-01 -3.336662054061889648e-01 -2.697664797306060791e-01 6.863662004470825195e-01
7.030000000000000000e+02 4.667751312255859375e+01 -8.023845672607421875e+00 8.919113874435424805e-01 1.957780957221984863e+00 8.549076914787292480e-01 -1.314250707626342773e+00
7.040000000000000000e+02 4.509749221801757812e+01 -2.391595649719238281e+01 -2.113999724388122559e-01 -4.914193749427795410e-01 -2.108457982540130615e-01 -8.345434665679931641e-01
7.050000000000000000e+02 3.908839035034179688e+01 -3.246937561035156250e+01 -7.019931077957153320e-01 -4.701717793941497803e-01 -3.516494631767272949e-01 -4.731983840465545654e-01
7.060000000000000000e+02 3.781678390502929688e+01 -3.282200622558593750e+01 -5.582569837570190430e-01 -1.704382151365280151e-01 -2.186085581779479980e-01 -2.867034375667572021e-01
7.070000000000000000e+02 3.188060569763183594e+01 -3.275274658203125000e+01 -5.739595275372266769e-03 -3.006881801411509514e-03 -2.623943146318197250e-03 -1.714417338371276855e-02
7.080000000000000000e+02 2.652730751037597656e+01 -3.463915252685546875e+01 3.530949761625379324e-04 -5.179034080356359482e-03 -1.447781687602400780e-03 -2.712959190830588341e-03
7.090000000000000000e+02 2.370577430725097656e+01 -3.140593910217285156e+01 2.420593798160552979e-02 -7.985329721122980118e-04 7.022221572697162628e-03 7.144799019442871213e-05
7.100000000000000000e+02 2.194134712219238281e+01 -3.274803924560546875e+01 1.412710733711719513e-02 -8.299239561893045902e-04 3.989154938608407974e-03 2.792350016534328461e-03
7.110000000000000000e+02 2.097216415405273438e+01 -3.139714431762695312e+01 2.063205651938915253e-02 3.842768201138824224e-04 6.304900161921977997e-03 1.917127170599997044e-03
7.120000000000000000e+02 2.235198402404785156e+01 -3.135574913024902344e+01 2.251621335744857788e-02 -5.232633557170629501e-04 6.597884930670261383e-03 1.453072880394756794e-03
7.130000000000000000e+02 1.814982414245605469e+01 -3.143689346313476562e+01 1.452881935983896255e-02 1.018832437694072723e-03 4.664295352995395660e-03 1.411356730386614799e-03
7.140000000000000000e+02 1.401697444915771484e+01 -3.043042755126953125e+01 4.317233338952064514e-03 3.217918492737226188e-05 1.304823788814246655e-03 -8.290475234389305115e-04
7.150000000000000000e+02 1.274762344360351562e+01 -2.979973220825195312e+01 2.409529639407992363e-03 3.947716904804110527e-04 8.412903989665210247e-04 -4.494320019148290157e-04
7.160000000000000000e+02 9.642708778381347656e+00 -2.727742195129394531e+01 1.590541978657711297e-05 -2.230739919468760490e-04 -6.215057510416954756e-05 -2.036073965427931398e-06
7.170000000000000000e+02 8.542508125305175781e+00 -2.394372558593750000e+01 6.935730925761163235e-05 -7.328383799176663160e-05 -1.177958893094910309e-06 6.630891675740713254e-06
7.180000000000000000e+02 9.801265716552734375e+00 -1.856203269958496094e+01 1.928712481458205730e-05 6.107386525400215760e-06 7.618353720317827538e-06 -3.160670758006745018e-06
7.190000000000000000e+02 1.036251163482666016e+01 -1.617621612548828125e+01 8.436313692072872072e-07 -3.396113606868311763e-05 -9.935251000570133328e-06 8.232183972722850740e-06
7.200000000000000000e+02 1.275333690643310547e+01 -1.499628067016601562e+01 -7.359520168392919004e-06 -2.605058762128464878e-05 -1.002303270070115104e-05 1.627658093639183789e-05
7.210000000000000000e+02 1.529230213165283203e+01 -1.365795230865478516e+01 9.300081273977411911e-07 -2.173227039747871459e-05 -6.240678430913249031e-06 8.683261512487661093e-06
7.220000000000000000e+02 1.806251525878906250e+01 -8.434644699096679688e+00 3.904323875758564100e-06 5.624263394565787166e-06 2.858576181097305380e-06 4.778892616741359234e-06
7.230000000000000000e+02 2.154129791259765625e+01 -1.199154186248779297e+01 1.557152586428856011e-06 5.116112788527971134e-06 2.001979510168894194e-06 -1.153606262960238382e-06
7.240000000000000000e+02 2.252680969238281250e+01 -1.428573894500732422e+01 2.963213091788929887e-06 6.572698111995123327e-06 2.860773520296788774e-06 3.216823358798137633e-07
7.250000000000000000e+02 2.243322944641113281e+01 -1.375864982604980469e+01 -3.374517518750508316e-06 1.045419253387080971e-06 -6.987294796090282034e-07 5.206828745940583758e-07
7.260000000000000000e+02 2.221245574951171875e+01 -1.321177768707275391e+01 2.731111408138531260e-06 6.273414783208863810e-07 1.007535843200457748e-06 -1.923807531056809239e-06
7.270000000000000000e+02 2.125632095336914062e+01 -1.288198280334472656e+01 1.979442686206311919e-06 3.286191258666804060e-06 1.579690206199302338e-06 -5.770210464106639847e-06
7.280000000000000000e+02 2.042306327819824219e+01 -1.028096580505371094e+01 -4.311008979129837826e-06 -3.898983777617104352e-06 -2.462997827024082653e-06 -1.183309223051765002e-06
7.290000000000000000e+02 2.083692932128906250e+01 -1.083065986633300781e+01 3.966531949117779732e-06 4.202960099064512178e-06 2.450847432555747218e-06 2.936355485871899873e-06
7.300000000000000000e+02 2.120707321166992188e+01 -1.139729595184326172e+01 -1.508068066868872847e-06 -6.783317985536996275e-06 -2.487415940777282231e-06 -1.857386109804792795e-06
7.310000000000000000e+02 1.998466300964355469e+01 -9.728118896484375000e+00 3.080494707319303416e-06 5.619268449663650244e-06 2.609928969832253642e-06 3.894928397585317725e-07
7.320000000000000000e+02 1.869608497619628906e+01 -8.028234481811523438e+00 -2.873075573006644845e-06 -5.535668606171384454e-06 -2.522623162803938612e-06 -4.025543603347614408e-06
7.330000000000000000e+02 1.680721282958984375e+01 -6.021976947784423828e+00 -6.631104952248279005e-06 -3.910350187652511522e-06 -3.162436541970237158e-06 -2.879865633076406084e-06
7.340000000000000000e+02 1.729860115051269531e+01 -6.499495506286621094e+00 6.322491117316531017e-06 4.121071469853632152e-06 3.133068730676313862e-06 3.079456291743554175e-06
7.350000000000000000e+02 1.419882965087890625e+01 -4.889768123626708984e+00 6.948790087335510179e-06 3.859707703668391332e-06 3.242549382775905542e-06 4.949975505041948054e-07
7.360000000000000000e+02 1.518610763549804688e+01 -4.754354476928710938e+00 6.532136922032805160e-06 3.715467983056441881e-06 3.074281494264141656e-06 2.333679503863095306e-06
7.370000000000000000e+02 1.462429904937744141e+01 -4.355679988861083984e+00 -6.083510015741921961e-06 -3.880370059050619602e-06 -2.989164158861967735e-06 -1.907834757730597630e-06
7.380000000000000000e+02 1.222135925292968750e+01 -2.972143411636352539e+00 -2.307601562279160134e-06 -9.006950676848646253e-06 -3.394365649000974372e-06 -7.047208896437950898e-07
7.390000000000000000e+02 1.283456897735595703e+01 -3.306915283203125000e+00 3.663051757030189037e-06 7.290914709301432595e-06 3.286189894424751401e-06 4.253460588188318070e-07
7.400000000000000000e+02 1.379230880737304688e+01 -5.450560569763183594e+00 -7.356732567131984979e-06 -3.511527438604389317e-06 -3.260478024458279833e-06 6.254500704017118551e-07
7.410000000000000000e+02 8.292472839355468750e+00 -2.697060823440551758e+00 1.818773398554185405e-07 -8.152748705470003188e-06 -2.391261432421742938e-06 1.421128104084345978e-06
7.420000000000000000e+02 9.047822952270507812e+00 -2.735026121139526367e+00 5.634888680106087122e-07 8.673271622683387250e-06 2.771028221104643308e-06 -1.671598170105426107e-06
7.430000000000000000e+02 8.421823501586914062e+00 -1.902645826339721680e+00 6.396979301825922448e-07 9.036280971486121416e-06 2.902793539760750718e-06 -5.392253683567105327e-07
7.440000000000000000e+02 6.817430973052978516e+00 -1.899758696556091309e+00 2.323658236491610296e-06 6.368374215526273474e-06 2.607609758342732675e-06 1.594976538399350829e-06
7.450000000000000000e+02 7.621555805206298828e+00 -1.897916436195373535e+00 -1.348448449789430015e-06 -9.348271305498201400e-06 -3.209015858374186791e-06 -3.835467623503063805e-07
7.460000000000000000e+02 5.211799621582031250e+00 -1.902135133743286133e+00 5.094732841826044023e-06 2.203484399387889425e-07 1.594524405845731962e-06 4.590248408931074664e-06
7.470000000000000000e+02 2.792980194091796875e+00 -2.055432319641113281e+00 -3.912754436896648258e-06 2.829052846209378913e-06 -3.251105056278902339e-07 -3.443877290010277648e-07
7.480000000000000000e+02 3.630337953567504883e+00 -2.697310209274291992e+00 -1.520209661975968629e-05 1.088256158254807815e-05 -1.295860442951379810e-06 -5.191813670535339043e-06
7.490000000000000000e+02 4.417275905609130859e+00 -1.902492046356201172e+00 -7.714395906077697873e-06 3.637948111645528115e-06 -1.222934429279121105e-06 -3.444737785684992559e-06
7.500000000000000000e+02 1.227479577064514160e+00 -2.039730787277221680e+00 5.861450517841149122e-06 -8.104279913823120296e-06 -6.728489552187966183e-07 2.169907418192451587e-07
7.510000000000000000e+02 4.225844442844390869e-01 -2.166141748428344727e+00 1.079793219105340540e-05 4.421133326104609296e-06 4.565719791571609676e-06 5.115510703035397455e-06
7.520000000000000000e+02 2.016964435577392578e+00 -4.166218185424804688e+01 -1.854289730545133352e-04 1.665589283220469952e-03 4.440481134224683046e-04 5.231159957475028932e-05
7.530000000000000000e+02 4.753685951232910156e+00 -3.808078765869140625e+01 -1.882670185295864940e-04 8.044017595238983631e-04 1.848404208431020379e-04 7.978962967172265053e-04
7.540000000000000000e+02 9.582046270370483398e-01 -3.876361465454101562e+01 -1.349730791844194755e-05 1.386389834806323051e-03 4.118677752558141947e-04 1.382176560582593083e-04
7.550000000000000000e+02 7.471870779991149902e-01 -3.467250061035156250e+01 2.208046134910546243e-05 5.753163713961839676e-04 1.792190450942143798e-04 1.391953555867075920e-04
7.560000000000000000e+02 7.270600199699401855e-01 -3.327523422241210938e+01 -3.874331923725549132e-06 3.320785472169518471e-04 9.846126340562477708e-05 1.180787512566894293e-04
7.570000000000000000e+02 6.997804641723632812e-01 -2.901326942443847656e+01 1.589614112162962556e-05 -8.043680281843990088e-05 -1.936219996423460543e-05 2.234864041383843869e-05
7.580000000000000000e+02 6.710473299026489258e-01 -2.759227561950683594e+01 1.039518883771961555e-05 -9.392458014190196991e-05 -2.505881820979993790e-05 -7.596525847475277260e-06
7.590000000000000000e+02 5.925182700157165527e-01 -2.475865364074707031e+01 1.650556805543601513e-05 -5.973478619125671685e-05 -1.296876598644303158e-05 -1.141583925345912576e-05
7.600000000000000000e+02 6.270613670349121094e-01 -2.617560958862304688e+01 -1.154060191765893251e-05 -8.339010673807933927e-05 -2.847921314241830260e-05 -5.782084372185636312e-06
7.610000000000000000e+02 5.991595387458801270e-01 -2.193927192687988281e+01 1.830069049901794642e-05 -1.360534133709734306e-05 1.408604703101445921e-06 -7.346086022153031081e-06
7.620000000000000000e+02 6.088333725929260254e-01 -2.054056358337402344e+01 -2.661982398421969265e-05 -8.356382750207558274e-06 -1.049286220222711563e-05 9.222725907420681324e-07
7.630000000000000000e+02 1.856381773948669434e+00 -2.044685745239257812e+01 2.176046291424427181e-05 5.589600959865492769e-08 6.544907591887749732e-06 -2.269982178404461592e-05
7.640000000000000000e+02 5.953841805458068848e-01 -1.632268524169921875e+01 3.806895983871072531e-05 1.342146902061358560e-06 1.182333198812557384e-05 1.225641199198435061e-06
7.650000000000000000e+02 5.927442312240600586e-01 -1.491037750244140625e+01 -3.624613600550219417e-05 -1.671352833909622859e-07 -1.092398179025622085e-05 -1.407250692864181474e-06
7.660000000000000000e+02 5.907840728759765625e-01 -1.349342250823974609e+01 3.418536289245821536e-05 1.134116018874919973e-06 1.059584337781416252e-05 1.582012259859766345e-06
7.670000000000000000e+02 1.766809701919555664e+00 -1.344622039794921875e+01 -2.578154635557439178e-05 -1.946646079886704683e-06 -8.318457730638328940e-06 -8.587158504269609693e-07
7.680000000000000000e+02 5.709481835365295410e-01 -9.255140304565429688e+00 -3.037726855836808681e-05 2.189859316104048048e-07 -9.047485036717262119e-06 -1.425017444489640184e-06
7.690000000000000000e+02 5.627064108848571777e-01 -7.846315860748291016e+00 2.785858669085428119e-05 2.890164410018769559e-07 8.444280865660402924e-06 2.049389195235562511e-06
7.700000000000000000e+02 4.221515655517578125e+00 -3.511295080184936523e+00 -1.243628321390133351e-05 -1.804529688342881855e-06 -4.272244041203521192e-06 -1.144272027886472642e-05
7.710000000000000000e+02 3.338175964355468750e+01 -4.119467544555664062e+01 8.514790236949920654e-02 -2.017806470394134521e-01 -3.498982265591621399e-02 -3.871086984872817993e-02
7.720000000000000000e+02 1.551673221588134766e+01 -3.978254699707031250e+01 -5.326290614902973175e-03 2.032545628026127815e-03 -9.881234727799892426e-04 2.473260043188929558e-03
7.730000000000000000e+02 7.875312805175781250e+01 4.019220352172851562e+01 -1.775112003087997437e-01 9.675413131713867188e+00 2.849370718002319336e+00 -2.219850718975067139e-01
7.740000000000000000e+02 7.905839538574218750e+01 3.883743286132812500e+01 9.102901443839073181e-03 9.911714553833007812e+00 2.976245164871215820e+00 -7.013798505067825317e-02
7.750000000000000000e+02 7.740208435058593750e+01 3.843156051635742188e+01 -2.282465398311614990e-01 9.202334403991699219e+00 2.692226409912109375e+00 -2.090836465358734131e-01
7.760000000000000000e+02 7.944792938232421875e+01 3.480739212036132812e+01 6.437959149479866028e-03 1.009649276733398438e+01 3.030879259109497070e+00 6.707143038511276245e-02
7.770000000000000000e+02 7.841390228271484375e+01 3.441250991821289062e+01 -5.369033291935920715e-02 9.419563293457031250e+00 2.809761762619018555e+00 1.997061520814895630e-01
7.780000000000000000e+02 7.936777496337890625e+01 3.358721923828125000e+01 -5.113479122519493103e-02 9.828488349914550781e+00 2.933206081390380859e+00 1.401623338460922241e-01
7.790000000000000000e+02 7.931359100341796875e+01 3.074478340148925781e+01 -4.691063426434993744e-03 9.276588439941406250e+00 2.781569242477416992e+00 1.784289926290512085e-01
7.800000000000000000e+02 7.689494323730468750e+01 2.809737777709960938e+01 2.429763786494731903e-02 8.154793739318847656e+00 2.453727483749389648e+00 6.207278370857238770e-01
7.810000000000000000e+02 7.940177917480468750e+01 2.655643081665039062e+01 5.570621695369482040e-03 8.247754096984863281e+00 2.475997209548950195e+00 1.726534068584442139e-01
7.820000000000000000e+02 7.717718505859375000e+01 2.540902137756347656e+01 9.678529202938079834e-02 7.938029766082763672e+00 2.410444498062133789e+00 4.961904585361480713e-01
7.830000000000000000e+02 7.941524505615234375e+01 2.516543960571289062e+01 1.447901315987110138e-02 7.919192314147949219e+00 2.380101442337036133e+00 1.488843709230422974e-01
7.840000000000000000e+02 7.940509796142578125e+01 2.094381332397460938e+01 -3.839028300717473030e-03 7.211720943450927734e+00 2.162364482879638672e+00 9.000072628259658813e-02
7.850000000000000000e+02 7.941568756103515625e+01 1.954391288757324219e+01 1.760866306722164154e-02 7.059502601623535156e+00 2.123133420944213867e+00 7.342921942472457886e-02
7.860000000000000000e+02 7.822816467285156250e+01 1.959344863891601562e+01 1.393169071525335312e-02 7.340144157409667969e+00 2.206222772598266602e+00 1.773981153964996338e-01
7.870000000000000000e+02 7.944216156005859375e+01 1.815859985351562500e+01 -9.257308207452297211e-03 6.930369377136230469e+00 2.076333522796630859e+00 6.479246169328689575e-02
7.880000000000000000e+02 7.942230224609375000e+01 1.402278709411621094e+01 7.871094159781932831e-03 6.581007480621337891e+00 1.976663589477539062e+00 6.506836414337158203e-02
7.890000000000000000e+02 7.939856719970703125e+01 1.261850070953369141e+01 -1.979137957096099854e-02 6.433838367462158203e+00 1.924214005470275879e+00 8.247774094343185425e-02
7.900000000000000000e+02 7.939353179931640625e+01 1.120866394042968750e+01 -9.030145010910928249e-04 6.236435890197753906e+00 1.870659828186035156e+00 1.055589318275451660e-01
7.910000000000000000e+02 7.937181854248046875e+01 7.026541233062744141e+00 1.231244858354330063e-02 5.529079914093017578e+00 1.662417769432067871e+00 1.065423935651779175e-01
7.920000000000000000e+02 7.939482116699218750e+01 5.632281303405761719e+00 7.979738526046276093e-03 5.325360298156738281e+00 1.600002050399780273e+00 8.514805883169174194e-02
7.930000000000000000e+02 7.942804718017578125e+01 4.243707656860351562e+00 1.794942282140254974e-02 5.170239448547363281e+00 1.556456565856933594e+00 5.260791257023811340e-02
7.940000000000000000e+02 7.937036895751953125e+01 7.931999862194061279e-02 4.317723959684371948e-02 5.375701427459716797e+00 1.625663638114929199e+00 -1.106046065688133240e-01
7.950000000000000000e+02 7.932425689697265625e+01 -1.340525865554809570e+00 5.072502885013818741e-03 5.651431083679199219e+00 1.696951031684875488e+00 -1.579089164733886719e-01
7.960000000000000000e+02 7.796265411376953125e+01 -4.190531730651855469e+00 1.764040626585483551e-02 6.664358139038085938e+00 2.004599571228027344e+00 -4.475333094596862793e-01
7.970000000000000000e+02 7.931811523437500000e+01 -4.177995681762695312e+00 -7.147777825593948364e-03 6.333581924438476562e+00 1.897930264472961426e+00 -1.844085603952407837e-01
7.980000000000000000e+02 7.933487701416015625e+01 -8.370120048522949219e+00 -3.195725148543715477e-03 7.352296829223632812e+00 2.204730272293090820e+00 -1.534822285175323486e-01
7.990000000000000000e+02 7.807225799560546875e+01 -1.122125244140625000e+01 -5.934705957770347595e-02 7.559700489044189453e+00 2.250105857849121094e+00 -2.713193893432617188e-01
8.000000000000000000e+02 7.935578918457031250e+01 -1.116188716888427734e+01 -9.810287505388259888e-03 7.882741928100585938e+00 2.361879587173461914e+00 -1.106940656900405884e-01
8.010000000000000000e+02 7.940870666503906250e+01 -1.532614231109619141e+01 -3.416386246681213379e-02 8.266857147216796875e+00 2.469807863235473633e+00 -7.809358648955821991e-03
8.020000000000000000e+02 7.833283233642578125e+01 -1.803490829467773438e+01 -7.225818186998367310e-02 7.829292774200439453e+00 2.327110528945922852e+00 2.186359316110610962e-01
8.030000000000000000e+02 7.943856811523437500e+01 -1.808411026000976562e+01 -5.677989870309829712e-02 8.058165550231933594e+00 2.400415658950805664e+00 9.667985141277313232e-02
8.040000000000000000e+02 7.945295715332031250e+01 -2.360487747192382812e+01 3.115290310233831406e-03 6.423573493957519531e+00 1.928006649017333984e+00 1.203015148639678955e-01
8.050000000000000000e+02 7.534234619140625000e+01 -2.700636482238769531e+01 9.243001341819763184e-01 8.386362075805664062e+00 2.793198585510253906e+00 -5.133183002471923828e-01
8.060000000000000000e+02 7.941503906250000000e+01 -2.498210144042968750e+01 7.094568014144897461e-02 6.253131866455078125e+00 1.897223234176635742e+00 1.852813921868801117e-02
8.070000000000000000e+02 7.939186096191406250e+01 -2.918948554992675781e+01 2.869854494929313660e-02 7.140694618225097656e+00 2.150817871093750000e+00 -2.789959311485290527e-01
8.080000000000000000e+02 7.831025695800781250e+01 -3.175024604797363281e+01 -4.134219512343406677e-02 8.281142234802246094e+00 2.471940040588378906e+00 -7.058619260787963867e-01
8.090000000000000000e+02 7.942675018310546875e+01 -3.195145034790039062e+01 3.061706945300102234e-02 8.465289115905761719e+00 2.548771858215332031e+00 -3.073866367340087891e-01
8.100000000000000000e+02 7.930117034912109375e+01 -3.606322097778320312e+01 -9.719476848840713501e-02 9.685658454895019531e+00 2.876538991928100586e+00 -7.283712178468704224e-02
8.110000000000000000e+02 7.920453643798828125e+01 -3.742156982421875000e+01 -2.957732975482940674e-02 9.678081512451171875e+00 2.894551038742065430e+00 3.168897703289985657e-02
8.120000000000000000e+02 7.902730560302734375e+01 -3.875974655151367188e+01 4.173954948782920837e-03 9.594348907470703125e+00 2.879556894302368164e+00 4.376817122101783752e-02
8.130000000000000000e+02 4.991410255432128906e+00 4.038167190551757812e+01 -1.170526258647441864e-02 -5.370478034019470215e-01 -1.646259129047393799e-01 7.866695523262023926e-03
8.140000000000000000e+02 4.275478363037109375e+01 3.855305862426757812e+01 -3.527871370315551758e-01 8.276702761650085449e-01 1.424649357795715332e-01 7.568141911178827286e-03
8.150000000000000000e+02 6.837555694580078125e+01 3.965282440185546875e+01 6.834343820810317993e-02 3.008521318435668945e+00 9.230594635009765625e-01 -2.110665142536163330e-01
8.160000000000000000e+02 3.745025694370269775e-01 2.168572902679443359e+00 -8.431093883700668812e-04 9.333856403827667236e-03 2.547224052250385284e-03 -4.718031850643455982e-04
8.170000000000000000e+02 2.611807107925415039e+00 2.924283027648925781e+00 -3.564028069376945496e-02 -3.849214315414428711e-02 -2.223972789943218231e-02 4.122363030910491943e-02
8.180000000000000000e+02 1.599864244461059570e+00 6.332808494567871094e+00 -7.187275215983390808e-03 -1.326743811368942261e-01 -4.195849597454071045e-02 6.794062256813049316e-02
8.190000000000000000e+02 5.806170105934143066e-01 9.224092483520507812e+00 -1.077140797860920429e-03 -2.451398223638534546e-01 -7.386508584022521973e-02 3.088361956179141998e-02
8.200000000000000000e+02 6.205567121505737305e-01 1.206376647949218750e+01 4.541699890978634357e-04 -3.915675580501556396e-01 -1.173340156674385071e-01 3.043084964156150818e-02
8.210000000000000000e+02 1.847336769104003906e+00 1.198321056365966797e+01 5.159262102097272873e-03 -3.767861425876617432e-01 -1.114880666136741638e-01 8.560523390769958496e-02
8.220000000000000000e+02 6.474122405052185059e-01 1.633193588256835938e+01 1.947284094057977200e-03 -5.689223408699035645e-01 -1.700925230979919434e-01 2.180329337716102600e-02
8.230000000000000000e+02 6.525516510009765625e-01 1.775086212158203125e+01 1.263994839973747730e-03 -6.130449175834655762e-01 -1.835342794656753540e-01 1.833164878189563751e-02
8.240000000000000000e+02 6.730613708496093750e-01 2.199148750305175781e+01 1.978604588657617569e-03 -7.014138698577880859e-01 -2.098305821418762207e-01 9.081278927624225616e-03
8.250000000000000000e+02 6.798705458641052246e-01 2.340275573730468750e+01 1.378016168018803000e-04 -7.185264229774475098e-01 -2.155165821313858032e-01 6.887762341648340225e-03
8.260000000000000000e+02 6.842732429504394531e-01 2.481293869018554688e+01 1.852670335210859776e-03 -7.309895753860473633e-01 -2.187410742044448853e-01 4.814341664314270020e-03
8.270000000000000000e+02 7.159579396247863770e-01 2.904220008850097656e+01 4.994890332454815507e-05 -7.445573210716247559e-01 -2.233522087335586548e-01 -4.033672157675027847e-04
8.280000000000000000e+02 7.237033247947692871e-01 3.044731712341308594e+01 2.712988934945315123e-04 -7.436898946762084961e-01 -2.230255752801895142e-01 -7.018804899416863918e-04
8.290000000000000000e+02 2.196077823638916016e+00 3.038403892517089844e+01 1.022364827804267406e-03 -6.685274243354797363e-01 -2.002515196800231934e-01 -2.146738115698099136e-03
8.300000000000000000e+02 7.149206995964050293e-01 3.184451866149902344e+01 5.470682517625391483e-04 -7.417317628860473633e-01 -2.223554104566574097e-01 -1.541141886264085770e-03
8.310000000000000000e+02 7.076722383499145508e-01 3.600762557983398438e+01 -8.970663766376674175e-04 -7.235502004623413086e-01 -2.173341661691665649e-01 -4.661791492253541946e-03
8.320000000000000000e+02 2.503633975982666016e+00 3.813281250000000000e+01 8.187655359506607056e-03 -6.454232335090637207e-01 -1.911706775426864624e-01 -1.798691786825656891e-02
8.330000000000000000e+02 9.270952343940734863e-01 3.873204040527343750e+01 -2.087109023705124855e-03 -6.914266943931579590e-01 -2.080541402101516724e-01 -1.012839563190937042e-02
8.340000000000000000e+02 1.296718716621398926e+00 4.009544754028320312e+01 7.626099511981010437e-03 -6.723736524581909180e-01 -1.994242668151855469e-01 -1.631392724812030792e-02
8.350000000000000000e+02 1.001020717620849609e+01 1.945629954338073730e+00 -3.728297352790832520e-01 -2.392211854457855225e-01 -1.836152672767639160e-01 3.254796564579010010e-01
8.360000000000000000e+02 9.210877418518066406e+00 1.891541481018066406e+00 -3.349218964576721191e-01 -1.730538606643676758e-01 -1.523927301168441772e-01 2.895215749740600586e-01
8.370000000000000000e+02 8.463533401489257812e+00 1.867773413658142090e+00 -3.214143514633178711e-01 -1.055381596088409424e-01 -1.280857622623443604e-01 2.443242669105529785e-01
8.380000000000000000e+02 7.737131595611572266e+00 2.583014965057373047e+00 -2.400975674390792847e-01 -1.124449148774147034e-01 -1.057627424597740173e-01 2.349096238613128662e-01
8.390000000000000000e+02 6.996270656585693359e+00 1.864253401756286621e+00 -2.101807445287704468e-01 -5.242846906185150146e-02 -7.878275960683822632e-02 1.495201885700225830e-01
8.400000000000000000e+02 4.791853427886962891e+00 1.903643488883972168e+00 -9.159164875745773315e-02 -2.799554727971553802e-02 -3.587615862488746643e-02 7.102229446172714233e-02
8.410000000000000000e+02 4.053480148315429688e+00 1.927021145820617676e+00 -6.466244906187057495e-02 -2.703863568603992462e-02 -2.751032635569572449e-02 5.264043062925338745e-02
8.420000000000000000e+02 3.318434476852416992e+00 1.950825691223144531e+00 -4.505572095513343811e-02 -2.191245183348655701e-02 -2.009045146405696869e-02 3.543841838836669922e-02
8.430000000000000000e+02 1.852609753608703613e+00 2.002397298812866211e+00 -1.529258955270051956e-02 -1.808491721749305725e-02 -1.001325156539678574e-02 1.184672489762306213e-02
8.440000000000000000e+02 1.116617679595947266e+00 2.076071739196777344e+00 -5.151499528437852859e-03 -8.446303196251392365e-03 -4.079340957105159760e-03 1.354115665890276432e-03
8.450000000000000000e+02 1.321439075469970703e+01 6.849109530448913574e-01 -6.131443977355957031e-01 -4.189922511577606201e-01 -3.096409738063812256e-01 4.857075214385986328e-01
8.460000000000000000e+02 1.545253467559814453e+01 1.122182726860046387e+00 -4.435699880123138428e-01 -5.912463068962097168e-01 -3.104448914527893066e-01 5.058200955390930176e-01
8.470000000000000000e+02 1.605475997924804688e+01 -8.894962668418884277e-01 -7.608470320701599121e-01 -6.402723193168640137e-01 -4.203357994556427002e-01 6.373368501663208008e-01
8.480000000000000000e+02 1.801995658874511719e+01 -2.294262170791625977e+00 -8.240605592727661133e-01 -8.111711740493774414e-01 -4.905695021152496338e-01 7.305476665496826172e-01
8.490000000000000000e+02 2.099614334106445312e+01 -5.011215209960937500e+00 -8.158955574035644531e-01 -9.971429705619812012e-01 -5.439115762710571289e-01 8.015902638435363770e-01
8.500000000000000000e+02 2.153523445129394531e+01 -5.612981319427490234e+00 -8.021002411842346191e-01 -1.011361479759216309e+00 -5.440385341644287109e-01 8.008883595466613770e-01
8.510000000000000000e+02 2.253464698791503906e+01 -6.869042873382568359e+00 -7.577419281005859375e-01 -1.012818336486816406e+00 -5.311680436134338379e-01 7.959285378456115723e-01
8.520000000000000000e+02 2.302347183227539062e+01 -7.506086349487304688e+00 -7.267386913299560547e-01 -9.900129437446594238e-01 -5.150254964828491211e-01 7.824167013168334961e-01
8.530000000000000000e+02 2.348141479492187500e+01 -8.164486885070800781e+00 -7.012959718704223633e-01 -9.595468044281005859e-01 -4.982528388500213623e-01 7.652898430824279785e-01
8.540000000000000000e+02 2.432163619995117188e+01 -9.517487525939941406e+00 -6.363098621368408203e-01 -8.645069599151611328e-01 -4.502450525760650635e-01 7.321419715881347656e-01
8.550000000000000000e+02 2.577696037292480469e+01 -1.222451114654541016e+01 -5.017897486686706543e-01 -5.509687662124633789e-01 -3.158275485038757324e-01 6.491805315017700195e-01
8.560000000000000000e+02 2.641246986389160156e+01 -1.181595802307128906e+01 -5.479434132575988770e-01 -4.605520665645599365e-01 -3.025486469268798828e-01 6.725962758064270020e-01
8.570000000000000000e+02 2.643842124938964844e+01 -1.357731533050537109e+01 -4.276420772075653076e-01 -3.895350098609924316e-01 -2.451531291007995605e-01 5.633256435394287109e-01
8.580000000000000000e+02 2.676873970031738281e+01 -1.425897407531738281e+01 -4.132722020149230957e-01 -3.014508485794067383e-01 -2.144169211387634277e-01 5.306158065795898438e-01
8.590000000000000000e+02 2.737662696838378906e+01 -1.565521240234375000e+01 -4.490191042423248291e-01 -1.955467611551284790e-01 -1.933697611093521118e-01 4.065330326557159424e-01
8.600000000000000000e+02 3.034014320373535156e+01 -1.738349723815917969e+01 -8.362738490104675293e-01 -7.913049310445785522e-02 -2.746213078498840332e-01 3.027991354465484619e-01
8.610000000000000000e+02 3.908698654174804688e+01 -1.814698028564453125e+01 -2.417132377624511719e+00 -6.934129595756530762e-01 -9.331636428833007812e-01 9.069089889526367188e-01
8.620000000000000000e+02 4.247651290893554688e+01 -1.976386260986328125e+01 -1.779373168945312500e+00 3.634473681449890137e-01 -4.247777462005615234e-01 4.855367839336395264e-01
8.630000000000000000e+02 4.533510208129882812e+01 -1.822009277343750000e+01 -2.196080923080444336e+00 2.867500483989715576e-01 -5.727992653846740723e-01 6.992980837821960449e-01
8.640000000000000000e+02 4.545867538452148438e+01 -1.893793106079101562e+01 -2.609894514083862305e+00 2.657488882541656494e-01 -7.032436728477478027e-01 4.626184403896331787e-01
8.650000000000000000e+02 4.772302627563476562e+01 -1.842916679382324219e+01 -3.259874105453491211e+00 1.250900030136108398e-01 -9.404352307319641113e-01 4.727370738983154297e-01
8.660000000000000000e+02 4.847223281860351562e+01 -1.829373359680175781e+01 -3.457293987274169922e+00 2.096916437149047852e-01 -9.742807149887084961e-01 5.307874083518981934e-01
8.670000000000000000e+02 4.921563720703125000e+01 -1.815233230590820312e+01 -3.596368551254272461e+00 1.778636425733566284e-01 -1.025551557540893555e+00 4.934453368186950684e-01
8.680000000000000000e+02 5.074924087524414062e+01 -1.782202148437500000e+01 -3.483843803405761719e+00 2.151455283164978027e-01 -9.806095361709594727e-01 4.158994853496551514e-01
8.690000000000000000e+02 5.148976898193359375e+01 -1.776230812072753906e+01 -3.415411710739135742e+00 4.182616770267486572e-01 -8.991450071334838867e-01 3.898947834968566895e-01
8.700000000000000000e+02 5.438951492309570312e+01 -1.726667976379394531e+01 -6.982384324073791504e-01 2.070289611816406250e+00 4.116153717041015625e-01 -3.056511402130126953e+00
8.710000000000000000e+02 5.500103759765625000e+01 -1.728463363647460938e+01 -7.083764076232910156e-01 2.883862495422363281e+00 6.526458263397216797e-01 -3.753373861312866211e+00
8.720000000000000000e+02 5.547556686401367188e+01 -1.705017280578613281e+01 9.783508181571960449e-01 3.528385400772094727e+00 1.352020859718322754e+00 -6.281929492950439453e+00
8.730000000000000000e+02 5.574391174316406250e+01 -1.703826332092285156e+01 2.430511236190795898e+00 3.361477136611938477e+00 1.737596511840820312e+00 -8.350003242492675781e+00
8.740000000000000000e+02 5.491925811767578125e+01 -1.587761688232421875e+01 1.179288864135742188e+01 5.178170680999755859e+00 5.091317653656005859e+00 -6.751120090484619141e+00
8.750000000000000000e+02 5.615115356445312500e+01 -1.695367622375488281e+01 1.950126171112060547e+00 -4.617690443992614746e-01 4.465071558952331543e-01 -8.352968215942382812e+00
8.760000000000000000e+02 5.665866470336914062e+01 -1.686404800415039062e+01 1.113915324211120605e+00 -8.416799902915954590e-01 8.167058974504470825e-02 -8.610236167907714844e+00
8.770000000000000000e+02 5.663902664184570312e+01 -1.668560028076171875e+01 -8.394319415092468262e-01 -2.029979676008224487e-01 -3.127289712429046631e-01 -7.932353019714355469e+00
8.780000000000000000e+02 5.611868286132812500e+01 -1.657847213745117188e+01 -1.792806833982467651e-01 9.266868233680725098e-03 -5.100414529442787170e-02 -7.248198509216308594e+00
8.790000000000000000e+02 5.681480026245117188e+01 -1.679391098022460938e+01 4.141192138195037842e-01 2.276436835527420044e-01 1.925288736820220947e-01 -9.228001594543457031e+00
8.800000000000000000e+02 5.695672988891601562e+01 -1.671032905578613281e+01 -1.703343391418457031e+00 7.827728986740112305e-02 -4.875198006629943848e-01 -8.296916007995605469e+00
8.810000000000000000e+02 5.655868530273437500e+01 -1.617391395568847656e+01 -1.567239284515380859e+00 -8.451151847839355469e-02 -4.955252408981323242e-01 -3.533055067062377930e+00
8.820000000000000000e+02 5.616037368774414062e+01 -2.039032936096191406e+01 -3.350186944007873535e-01 2.062702894210815430e+00 5.183053016662597656e-01 2.028337001800537109e+00
8.830000000000000000e+02 5.573631286621093750e+01 -2.049231529235839844e+01 -5.143635272979736328e-01 1.603930354118347168e+00 3.268700540065765381e-01 1.711772918701171875e+00
8.840000000000000000e+02 5.514239120483398438e+01 -2.073590087890625000e+01 -9.047102332115173340e-01 1.229861021041870117e+00 9.754525125026702881e-02 1.240784764289855957e+00
8.850000000000000000e+02 5.337295150756835938e+01 -2.111801528930664062e+01 -1.476085662841796875e+00 5.067703127861022949e-01 -2.907945811748504639e-01 2.224874496459960938e-01
8.860000000000000000e+02 5.456008148193359375e+01 -2.084992599487304688e+01 -1.147659063339233398e+00 9.843094944953918457e-01 -4.900485277175903320e-02 8.389920592308044434e-01
8.870000000000000000e+02 5.571099853515625000e+01 -2.084804344177246094e+01 -6.923833489418029785e-01 1.858686566352844238e+00 3.498909473419189453e-01 1.819679737091064453e+00
8.880000000000000000e+02 4.990297317504882812e+01 -2.183069419860839844e+01 -1.396417856216430664e+00 -5.343380570411682129e-02 -4.349555075168609619e-01 -6.953398585319519043e-01
8.890000000000000000e+02 4.917900848388671875e+01 -2.195952606201171875e+01 -1.289574503898620605e+00 -1.091642454266548157e-01 -4.196216464042663574e-01 -7.596278190612792969e-01
8.900000000000000000e+02 4.634812927246093750e+01 -2.261523246765136719e+01 -6.833288073539733887e-01 -2.878391742706298828e-01 -2.913503944873809814e-01 -8.085965514183044434e-01
8.910000000000000000e+02 4.704810714721679688e+01 -2.241824913024902344e+01 -8.462722897529602051e-01 -2.635078430175781250e-01 -3.329340219497680664e-01 -8.272181153297424316e-01
8.920000000000000000e+02 4.493397140502929688e+01 -2.304721832275390625e+01 -3.698427975177764893e-01 -3.808286488056182861e-01 -2.252014279365539551e-01 -7.195160388946533203e-01
8.930000000000000000e+02 7.092343902587890625e+01 -3.059095764160156250e+01 7.362111806869506836e-01 6.692074298858642578e+00 2.228485584259033203e+00 1.807040810585021973e+00
8.940000000000000000e+02 6.676473236083984375e+01 -3.387590408325195312e+01 -1.685162186622619629e+00 2.807785058394074440e-03 -5.047063231468200684e-01 -5.453392863273620605e-01
8.950000000000000000e+02 6.264575576782226562e+01 -3.500968933105468750e+01 -1.672326564788818359e+00 -1.469776928424835205e-01 -5.457912683486938477e-01 -3.069306612014770508e-01
8.960000000000000000e+02 5.657006835937500000e+01 -2.588466644287109375e+01 7.481638193130493164e-01 5.034304618835449219e+00 1.734740495681762695e+00 1.870046377182006836e+00
8.970000000000000000e+02 5.975348663330078125e+01 -2.382035827636718750e+01 -9.629083871841430664e-01 1.849785685539245605e+00 2.660631835460662842e-01 7.586289048194885254e-01
8.980000000000000000e+02 6.316211700439453125e+01 3.753438568115234375e+01 -1.723406016826629639e-01 -4.157599061727523804e-03 -5.294946208596229553e-02 2.331018894910812378e-01
8.990000000000000000e+02 6.851206970214843750e+01 2.976530075073242188e+01 5.609290599822998047e-01 4.205649852752685547e+00 1.429973602294921875e+00 -1.284055590629577637e+00
9.000000000000000000e+02 6.970027923583984375e+01 2.565373420715332031e+01 3.041339218616485596e-01 8.816897392272949219e+00 2.736309289932250977e+00 -8.670510649681091309e-01
9.010000000000000000e+02 6.988404083251953125e+01 2.284284591674804688e+01 9.916979074478149414e-02 9.352185249328613281e+00 2.835406541824340820e+00 -7.962741702795028687e-02
9.020000000000000000e+02 6.990189361572265625e+01 2.144533157348632812e+01 9.140705224126577377e-04 9.198080062866210938e+00 2.759698152542114258e+00 4.030137136578559875e-02
9.030000000000000000e+02 6.995250701904296875e+01 1.867046546936035156e+01 3.163723507896065712e-03 9.386629104614257812e+00 2.816937923431396484e+00 7.612782716751098633e-02
9.040000000000000000e+02 7.004206085205078125e+01 1.440896129608154297e+01 2.165763229131698608e-01 1.005474853515625000e+01 3.081397533416748047e+00 3.935181796550750732e-01
9.050000000000000000e+02 6.990624237060546875e+01 1.298283767700195312e+01 4.079715814441442490e-03 8.994918823242187500e+00 2.699699640274047852e+00 5.153167843818664551e-01
9.060000000000000000e+02 6.978676605224609375e+01 1.159292030334472656e+01 -4.357537925243377686e-01 7.887459278106689453e+00 2.235511541366577148e+00 5.318942293524742126e-02
9.070000000000000000e+02 6.983746337890625000e+01 1.022549152374267578e+01 -1.665523499250411987e-01 8.517230987548828125e+00 2.505203723907470703e+00 -6.247243881225585938e-01
9.080000000000000000e+02 7.143567657470703125e+01 3.399067163467407227e+00 4.236158132553100586e-01 1.113454818725585938e+01 3.467449188232421875e+00 5.520208477973937988e-01
9.090000000000000000e+02 7.025991821289062500e+01 1.879056453704833984e+00 5.461538434028625488e-01 1.297839832305908203e+01 4.057365894317626953e+00 9.490473270416259766e-01
9.100000000000000000e+02 6.830634307861328125e+01 -5.027404785156250000e+00 7.595643401145935059e-01 6.338161945343017578e+00 2.129317760467529297e+00 2.028362989425659180e+00
9.110000000000000000e+02 6.645367431640625000e+01 -8.884489059448242188e+00 7.123329639434814453e-01 3.365700960159301758e+00 1.223410129547119141e+00 1.404786944389343262e+00
9.120000000000000000e+02 7.000733184814453125e+01 -7.397554397583007812e+00 1.060002371668815613e-01 6.114624500274658203e+00 1.866187453269958496e+00 6.521316766738891602e-01
9.130000000000000000e+02 6.297987365722656250e+01 -1.340607070922851562e+01 7.956189513206481934e-01 9.808998703956604004e-01 5.329556465148925781e-01 8.063642382621765137e-01
9.140000000000000000e+02 6.071815109252929688e+01 -1.506192970275878906e+01 -2.049626350402832031e+00 3.727962672710418701e-01 -5.030490159988403320e-01 -1.417085081338882446e-01
9.150000000000000000e+02 5.885837173461914062e+01 -1.645048713684082031e+01 -7.319334983825683594e+00 1.099321961402893066e+00 -1.866003990173339844e+00 1.060029864311218262e+00
9.160000000000000000e+02 5.014030838012695312e+01 -7.401059150695800781e+00 4.399366974830627441e-01 3.580258846282958984e+00 1.206058621406555176e+00 -1.292281627655029297e+00
9.170000000000000000e+02 4.972073745727539062e+01 -6.088850975036621094e+00 4.452200233936309814e-01 3.281350851058959961e+00 1.117971301078796387e+00 -1.192850232124328613e+00
9.180000000000000000e+02 4.768479919433593750e+01 -3.838154554367065430e+00 4.489974379539489746e-01 2.460027456283569336e+00 8.727074861526489258e-01 -1.163542866706848145e+00
9.190000000000000000e+02 4.780347061157226562e+01 -9.420495033264160156e-01 4.447623491287231445e-01 2.293160676956176758e+00 8.213768601417541504e-01 -1.070526361465454102e+00
9.200000000000000000e+02 4.720378112792968750e+01 2.944673895835876465e-01 5.341957807540893555e-01 2.286229133605957031e+00 8.461274504661560059e-01 -1.132072687149047852e+00
9.210000000000000000e+02 4.657853698730468750e+01 1.525544762611389160e+00 5.753105878829956055e-01 2.281983852386474609e+00 8.571883440017700195e-01 -1.155519723892211914e+00
9.220000000000000000e+02 4.593714141845703125e+01 2.751689195632934570e+00 5.914037823677062988e-01 2.237869024276733398e+00 8.487818241119384766e-01 -1.191886782646179199e+00
9.230000000000000000e+02 4.328260040283203125e+01 7.696927547454833984e+00 6.328551173210144043e-01 3.200494289398193359e+00 1.150004863739013672e+00 -1.338652372360229492e+00
9.240000000000000000e+02 4.220238494873046875e+01 1.186142635345458984e+01 1.700288802385330200e-01 3.735746383666992188e+00 1.171732544898986816e+00 -2.153295278549194336e-01
9.250000000000000000e+02 4.232116317749023438e+01 1.474998474121093750e+01 5.947555229067802429e-02 2.905828237533569336e+00 8.895911574363708496e-01 1.619527041912078857e-01
9.260000000000000000e+02 4.272473907470703125e+01 1.760467147827148438e+01 1.378902345895767212e-01 2.438005208969116211e+00 7.727686166763305664e-01 4.352921247482299805e-01
9.270000000000000000e+02 4.388817214965820312e+01 2.172774696350097656e+01 2.282353490591049194e-01 1.767656683921813965e+00 5.987676382064819336e-01 5.379359126091003418e-01
9.280000000000000000e+02 4.649546432495117188e+01 2.683031845092773438e+01 2.485905885696411133e-01 9.071004390716552734e-01 3.467073142528533936e-01 4.483656287193298340e-01
9.290000000000000000e+02 4.815673828125000000e+01 2.921998214721679688e+01 1.765055656433105469e-01 5.350071191787719727e-01 2.134537994861602783e-01 3.070986568927764893e-01
9.300000000000000000e+02 5.009952163696289062e+01 3.148404884338378906e+01 5.758989229798316956e-02 2.875688076019287109e-01 1.035476103425025940e-01 1.577053517103195190e-01
9.310000000000000000e+02 5.582083892822265625e+01 3.529450988769531250e+01 -4.068104922771453857e-01 -4.138158634305000305e-02 -1.344576179981231689e-01 -1.150521710515022278e-01
9.320000000000000000e+02 5.594607925415039062e+01 -1.699420547485351562e+01 1.771615028381347656e+00 -1.457965075969696045e-01 4.877455532550811768e-01 -8.290073394775390625e+00
9.330000000000000000e+02 5.649813079833984375e+01 -1.692560577392578125e+01 1.847289919853210449e+00 -6.449353098869323730e-01 3.607063889503479004e-01 -8.547656059265136719e+00
9.340000000000000000e+02 5.472154998779296875e+01 -1.700422477722167969e+01 8.651760816574096680e-01 1.992578864097595215e+00 8.573264479637145996e-01 -3.751996517181396484e+00
9.350000000000000000e+02 5.709103012084960938e+01 -1.660588264465332031e+01 -1.157675147056579590e+00 -2.270823270082473755e-01 -4.154272377490997314e-01 -7.770777225494384766e+00
9.360000000000000000e+02 4.113967132568359375e+01 -2.022170257568359375e+01 -1.139515280723571777e+00 -5.371832102537155151e-02 -3.579700887203216553e-01 5.517974495887756348e-01
9.370000000000000000e+02 4.179621505737304688e+01 -1.998851394653320312e+01 -1.526368021965026855e+00 1.917401999235153198e-01 -4.003883600234985352e-01 5.989691019058227539e-01
9.380000000000000000e+02 5.769029617309570312e+01 -1.995689773559570312e+01 -1.293220967054367065e-01 6.284771442413330078e+00 1.846634864807128906e+00 2.788958549499511719e+00
9.390000000000000000e+02 5.594504547119140625e+01 -2.045196914672851562e+01 -4.656298458576202393e-01 1.823808431625366211e+00 4.074535965919494629e-01 1.876840233802795410e+00
9.400000000000000000e+02 5.811660385131835938e+01 -1.985033798217773438e+01 -5.965837463736534119e-02 7.551208972930908203e+00 2.247465133666992188e+00 1.886201381683349609e+00
9.410000000000000000e+02 5.724027252197265625e+01 -2.006922340393066406e+01 3.251786343753337860e-03 4.521030902862548828e+00 1.357284784317016602e+00 2.967166662216186523e+00
9.420000000000000000e+02 5.637481689453125000e+01 -2.031861114501953125e+01 -2.492437213659286499e-01 2.452600955963134766e+00 6.610071659088134766e-01 2.266423702239990234e+00
9.430000000000000000e+02 5.746612548828125000e+01 -2.004672241210937500e+01 -1.395245641469955444e-01 5.407048702239990234e+00 1.580257177352905273e+00 2.968987941741943359e+00
9.440000000000000000e+02 5.652177047729492188e+01 -2.065881919860839844e+01 -4.305302798748016357e-01 3.009977102279663086e+00 7.738339900970458984e-01 2.449358463287353516e+00
9.450000000000000000e+02 5.921342086791992188e+01 -2.482773590087890625e+01 1.144623756408691406e-01 1.810885548591613770e+00 5.776043534278869629e-01 1.276910543441772461e+00
9.460000000000000000e+02 5.396691894531250000e+01 -2.097650909423828125e+01 -1.366807341575622559e+00 7.367043495178222656e-01 -1.890309154987335205e-01 4.839090704917907715e-01
9.470000000000000000e+02 5.774985122680664062e+01 -2.029057502746582031e+01 -4.885534644126892090e-01 6.285339355468750000e+00 1.739035725593566895e+00 2.597394227981567383e+00
9.480000000000000000e+02 5.225216674804687500e+01 -2.212495422363281250e+01 -1.054045796394348145e+00 6.007376909255981445e-01 -1.359924226999282837e-01 -8.588580787181854248e-02
9.490000000000000000e+02 5.751922607421875000e+01 -2.506608390808105469e+01 5.476339533925056458e-02 4.215599060058593750e+00 1.281108736991882324e+00 2.045342445373535156e+00
9.500000000000000000e+02 5.210263442993164062e+01 -2.140618705749511719e+01 -1.546511054039001465e+00 2.654247283935546875e-01 -3.843258917331695557e-01 -2.268726080656051636e-01
9.510000000000000000e+02 5.683027267456054688e+01 -2.438878822326660156e+01 -5.694287419319152832e-01 4.525530815124511719e+00 1.186830639839172363e+00 1.868228316307067871e+00
9.520000000000000000e+02 5.137453079223632812e+01 -2.155353546142578125e+01 -1.546808719635009766e+00 1.328044384717941284e-01 -4.242012798786163330e-01 -4.502895474433898926e-01
9.530000000000000000e+02 5.438330078125000000e+01 -2.392896080017089844e+01 -3.369478583335876465e-01 2.722167730331420898e+00 7.155659794807434082e-01 9.131059050559997559e-01
9.540000000000000000e+02 4.319992065429687500e+01 -1.955553627014160156e+01 -1.954853177070617676e+00 3.638066947460174561e-01 -4.773139655590057373e-01 4.886688590049743652e-01
9.550000000000000000e+02 4.133773422241210938e+01 -1.836434173583984375e+01 -1.842522501945495605e+00 1.875901669263839722e-01 -4.964797198772430420e-01 6.388632059097290039e-01
9.560000000000000000e+02 4.118194961547851562e+01 -1.746148490905761719e+01 -1.763762593269348145e+00 1.527478992938995361e-01 -4.833043813705444336e-01 6.022756099700927734e-01
9.570000000000000000e+02 3.956480407714843750e+01 -1.918442916870117188e+01 -2.010255336761474609e+00 -8.250251412391662598e-01 -8.505841493606567383e-01 1.147836327552795410e+00
9.580000000000000000e+02 1.628927421569824219e+01 -5.576781749725341797e+00 6.862822829134529456e-06 3.817604010691866279e-06 3.204128006473183632e-06 2.830279072441044264e-06
9.590000000000000000e+02 1.574269962310791016e+01 -5.162025451660156250e+00 -6.662512078037252650e-06 -3.554894874469027855e-06 -3.065222017539781518e-06 -2.864316456907545216e-06
9.600000000000000000e+02 1.404314231872558594e+01 -3.986896276473999023e+00 5.538394361792597920e-06 4.484417786443373188e-06 3.006843598996056244e-06 1.346289650427934248e-06
9.610000000000000000e+02 1.583432483673095703e+01 -6.025482654571533203e+00 -6.838421995780663565e-06 -3.872313300234964117e-06 -3.213220452380483039e-06 -2.175172312490758486e-06
9.620000000000000000e+02 1.531065082550048828e+01 -5.629909038543701172e+00 6.936827048775739968e-06 3.518665380397578701e-06 3.136647819701465778e-06 1.959315341082401574e-06
9.630000000000000000e+02 1.825372123718261719e+01 -7.493435382843017578e+00 4.306699338485486805e-06 4.877078936260659248e-06 2.755133436949108727e-06 3.658606374301598407e-06
9.640000000000000000e+02 1.624735069274902344e+01 -1.057768535614013672e+01 1.578540945956774522e-06 -4.469517534744227305e-06 -8.672930107422871515e-07 3.398674266463785898e-07
9.650000000000000000e+02 1.362226676940917969e+01 -4.547027111053466797e+00 -6.298321295616915450e-06 -4.502750925894360989e-06 -3.240321575503912754e-06 -6.437534949554901686e-08
9.660000000000000000e+02 1.153323364257812500e+01 -2.646439552307128906e+00 1.374534804199356586e-06 9.309359484177548438e-06 3.205168241038336419e-06 5.352263769964338280e-07
9.670000000000000000e+02 1.303420162200927734e+01 -4.216988563537597656e+00 5.465093636303208768e-06 6.046651833457872272e-06 3.453523731877794489e-06 -1.048425701810629107e-06
9.680000000000000000e+02 1.148099708557128906e+01 -4.186969280242919922e+00 -1.811281890695681795e-06 -1.174318458652123809e-05 -4.066339897690340877e-06 3.476795200185733847e-06
9.690000000000000000e+02 1.930847167968750000e+01 -1.027021217346191406e+01 -3.142081823170883581e-06 -8.157676347764208913e-06 -3.389927314856322482e-06 1.132382408286503050e-06
9.700000000000000000e+02 1.911573410034179688e+01 -8.593383789062500000e+00 1.637640707485843450e-06 6.854326784377917647e-06 2.547590156609658152e-06 3.198512786184437573e-06
9.710000000000000000e+02 1.954236412048339844e+01 -9.165362358093261719e+00 -1.633912575016438495e-06 -6.908727755217114463e-06 -2.562792133176117204e-06 -1.477707087360613514e-06
9.720000000000000000e+02 1.762339401245117188e+01 -1.133497238159179688e+01 -2.748718770817504264e-06 -8.585127034166362137e-06 -3.400153900656732731e-06 -4.011838825590530178e-07
9.730000000000000000e+02 2.069570922851562500e+01 -1.165549278259277344e+01 1.739776507747592404e-06 9.817053978622425348e-06 3.467049054961535148e-06 7.627471404703101143e-06
9.740000000000000000e+02 1.984608650207519531e+01 -1.080024051666259766e+01 6.096399374655447900e-06 3.773221123992698267e-06 2.960886149594443850e-06 2.597749926280812360e-07
9.750000000000000000e+02 2.036608695983886719e+01 -1.121110725402832031e+01 -5.102624527353327721e-06 -4.088362857146421447e-06 -2.757296215349924751e-06 -4.807331151823746040e-06
9.760000000000000000e+02 4.341233825683593750e+01 -2.355729484558105469e+01 -1.210306510329246521e-01 -4.700734317302703857e-01 -1.773312240839004517e-01 -4.604352116584777832e-01
9.770000000000000000e+02 4.489532089233398438e+01 -2.474080467224121094e+01 -8.451191335916519165e-02 -6.218878030776977539e-01 -2.119199186563491821e-01 -8.190214633941650391e-01
9.780000000000000000e+02 4.658847808837890625e+01 -2.339947319030761719e+01 -4.272382855415344238e-01 -3.308217227458953857e-01 -2.274180054664611816e-01 -9.023665785789489746e-01
9.790000000000000000e+02 4.351883697509765625e+01 -2.565962600708007812e+01 -1.055129896849393845e-02 -1.004885554313659668e+00 -3.046310544013977051e-01 -6.177427172660827637e-01
9.800000000000000000e+02 2.176481437683105469e+01 -1.345935535430908203e+01 -3.471626314421882853e-06 1.628108634577074554e-06 -5.530553721655451227e-07 2.363264002269716002e-07
9.810000000000000000e+02 4.727243423461914062e+01 -2.315936088562011719e+01 -5.657907128334045410e-01 -2.491970807313919067e-01 -2.444963306188583374e-01 -8.940365314483642578e-01
9.820000000000000000e+02 4.878292465209960938e+01 -2.343380546569824219e+01 -4.799742102622985840e-01 -7.084164768457412720e-02 -1.652447581291198730e-01 -8.241397738456726074e-01
9.830000000000000000e+02 4.846335601806640625e+01 -2.209735870361328125e+01 -1.148091673851013184e+00 -1.778329610824584961e-01 -3.977773785591125488e-01 -8.188317418098449707e-01
9.840000000000000000e+02 4.862133026123046875e+01 -2.277962684631347656e+01 -7.673276662826538086e-01 -1.235095486044883728e-01 -2.672511637210845947e-01 -8.383138775825500488e-01
9.850000000000000000e+02 5.063789367675781250e+01 -2.169643974304199219e+01 -1.492202877998352051e+00 4.332683980464935303e-02 -4.346627891063690186e-01 -5.828305482864379883e-01
9.860000000000000000e+02 5.380136489868164062e+01 -1.509403324127197266e+01 8.119948387145996094e+00 6.378421306610107422e+00 4.349511146545410156e+00 -6.711652755737304688e+00
9.870000000000000000e+02 5.214706039428710938e+01 -1.768765640258789062e+01 -3.305615663528442383e+00 4.925202727317810059e-01 -8.439286351203918457e-01 1.490076333284378052e-01
9.880000000000000000e+02 5.182206726074218750e+01 -1.286654472351074219e+01 3.350353002548217773e+00 6.610848426818847656e+00 2.988360404968261719e+00 -3.854565143585205078e+00
9.890000000000000000e+02 5.358321762084960938e+01 -1.650205039978027344e+01 3.129089832305908203e+00 2.837576627731323242e+00 1.789999961853027344e+00 -2.222115755081176758e+00
9.900000000000000000e+02 5.305206298828125000e+01 -1.564929962158203125e+01 5.526513099670410156e+00 3.676312208175659180e+00 2.760847568511962891e+00 -3.335979223251342773e+00
9.910000000000000000e+02 8.439826011657714844e+00 3.315100431442260742e+00 -2.282669991254806519e-01 -1.864881068468093872e-01 -1.244265362620353699e-01 2.977492511272430420e-01
9.920000000000000000e+02 8.455011367797851562e+00 2.591890811920166016e+00 -2.574833631515502930e-01 -1.546487808227539062e-01 -1.236396431922912598e-01 2.730469107627868652e-01
9.930000000000000000e+02 1.659166932106018066e+00 7.713385105133056641e+00 -5.167494062334299088e-03 -1.905723363161087036e-01 -5.872195214033126831e-02 7.997179776430130005e-02
9.940000000000000000e+02 5.530034065246582031e+00 1.886105298995971680e+00 -1.243219003081321716e-01 -3.431832417845726013e-02 -4.759206622838973999e-02 9.353271871805191040e-02
9.950000000000000000e+02 9.182145118713378906e+00 2.640144586563110352e+00 -2.905654013156890869e-01 -1.987713724374771118e-01 -1.468010246753692627e-01 3.097811937332153320e-01
9.960000000000000000e+02 7.728899478912353516e+00 1.861148238182067871e+00 -2.592948973178863525e-01 -6.453266739845275879e-02 -9.714826941490173340e-02 1.827801614999771118e-01
9.970000000000000000e+02 7.016904354095458984e+00 2.598790645599365234e+00 -1.978800743818283081e-01 -8.426298201084136963e-02 -8.464291691780090332e-02 1.894383579492568970e-01
9.980000000000000000e+02 7.749809265136718750e+00 3.308004617691040039e+00 -1.965772062540054321e-01 -1.571547836065292358e-01 -1.061195954680442810e-01 2.617920935153961182e-01
9.990000000000000000e+02 1.768674254417419434e+00 3.827970981597900391e+00 -1.670289225876331329e-02 -5.095425993204116821e-02 -2.029714547097682953e-02 3.909071907401084900e-02
1.000000000000000000e+03 4.153097629547119141e+00 3.680108308792114258e+00 -7.229229062795639038e-02 -8.463634550571441650e-02 -4.707859084010124207e-02 1.103406921029090881e-01
1.001000000000000000e+03 1.239351034164428711e+00 3.195369720458984375e+00 -1.089834887534379959e-02 -2.848196588456630707e-02 -1.181409414857625961e-02 1.881796494126319885e-02
1.002000000000000000e+03 2.586391210556030273e+00 1.972554922103881836e+00 -2.972477488219738007e-02 -2.013089507818222046e-02 -1.495670061558485031e-02 2.344258502125740051e-02
1.003000000000000000e+03 2.610810470581054688e+01 -1.289967536926269531e+01 -4.552946388721466064e-01 -4.861197471618652344e-01 -2.824243307113647461e-01 6.146204471588134766e-01
1.004000000000000000e+03 2.676739120483398438e+01 -1.249297428131103516e+01 -5.295993685722351074e-01 -3.905026316642761230e-01 -2.760306000709533691e-01 6.566425561904907227e-01
1.005000000000000000e+03 2.710030174255371094e+01 -1.495201778411865234e+01 -4.211468100547790527e-01 -2.620180845260620117e-01 -2.049494683742523193e-01 4.724572002887725830e-01
1.006000000000000000e+03 2.605549049377441406e+01 -1.113975620269775391e+01 -5.745005011558532715e-01 -5.228047966957092285e-01 -3.291915953159332275e-01 6.859501004219055176e-01
1.007000000000000000e+03 2.510798072814941406e+01 -1.087423419952392578e+01 -5.678431391716003418e-01 -7.128461599349975586e-01 -3.842068016529083252e-01 6.839270591735839844e-01
1.008000000000000000e+03 2.807541656494140625e+01 -1.159395313262939453e+01 -5.786061286926269531e-01 -2.782964706420898438e-01 -2.570707798004150391e-01 6.997358202934265137e-01
1.009000000000000000e+03 2.712124443054199219e+01 -1.317468547821044922e+01 -5.094560384750366211e-01 -3.351331055164337158e-01 -2.533767223358154297e-01 6.374639868736267090e-01
1.010000000000000000e+03 2.568659210205078125e+01 -1.046181583404541016e+01 -5.985898375511169434e-01 -5.882686376571655273e-01 -3.560575544834136963e-01 6.898565292358398438e-01
1.011000000000000000e+03 3.088501358032226562e+01 -1.638918876647949219e+01 -8.917781114578247070e-01 -4.571297019720077515e-02 -2.812473177909851074e-01 4.290592670440673828e-01
1.012000000000000000e+03 2.783116531372070312e+01 -1.457427406311035156e+01 -5.091758370399475098e-01 -2.392806559801101685e-01 -2.245369404554367065e-01 5.443452596664428711e-01
1.013000000000000000e+03 5.409252166748046875e+01 -2.154484939575195312e+01 -1.045169115066528320e+00 1.146867513656616211e+00 3.050952777266502380e-02 7.699649930000305176e-01
1.014000000000000000e+03 5.292715454101562500e+01 -2.194682121276855469e+01 -1.074316501617431641e+00 7.396707534790039062e-01 -1.003937274217605591e-01 1.881522536277770996e-01
1.015000000000000000e+03 4.931634521484375000e+01 -2.266469192504882812e+01 -8.527717590332031250e-01 -2.232778631150722504e-02 -2.625298798084259033e-01 -7.803233861923217773e-01
1.016000000000000000e+03 5.003306198120117188e+01 -2.257303237915039062e+01 -9.124308228492736816e-01 7.675708085298538208e-02 -2.507021129131317139e-01 -6.597743630409240723e-01
1.017000000000000000e+03 5.064577484130859375e+01 -1.703126525878906250e+01 -1.494297862052917480e+00 4.259946346282958984e-01 -3.204909861087799072e-01 6.359205245971679688e-01
1.018000000000000000e+03 4.985517501831054688e+01 -1.725032424926757812e+01 -1.955757737159729004e+00 2.764779031276702881e-01 -5.037839412689208984e-01 7.088227272033691406e-01
1.019000000000000000e+03 4.966366958618164062e+01 -1.279096889495849609e+01 2.873926877975463867e+00 2.251318454742431641e+00 1.537573575973510742e+00 -1.900414943695068359e+00
1.020000000000000000e+03 5.145719528198242188e+01 -1.666944885253906250e+01 -2.030096389353275299e-02 7.229791879653930664e-01 2.108034789562225342e-01 2.240091934800148010e-02
1.021000000000000000e+03 4.911826705932617188e+01 -1.742942428588867188e+01 -2.202702999114990234e+00 2.952368557453155518e-01 -5.722398161888122559e-01 7.918741703033447266e-01
1.022000000000000000e+03 4.696635818481445312e+01 -1.857538223266601562e+01 -3.051495075225830078e+00 1.789317578077316284e-01 -8.617690205574035645e-01 4.863954782485961914e-01
1.023000000000000000e+03 4.686818695068359375e+01 -1.778196716308593750e+01 -2.223950386047363281e+00 1.937416940927505493e-01 -6.090626120567321777e-01 7.606790661811828613e-01
1.024000000000000000e+03 4.839450454711914062e+01 -1.754636383056640625e+01 -2.293879032135009766e+00 1.929042935371398926e-01 -6.302924752235412598e-01 7.610610127449035645e-01
1.025000000000000000e+03 4.765118026733398438e+01 -1.764005279541015625e+01 -2.273582935333251953e+00 2.004983574151992798e-01 -6.219254136085510254e-01 7.993150949478149414e-01
1.026000000000000000e+03 4.607795715332031250e+01 -1.797747039794921875e+01 -2.235939502716064453e+00 2.509393692016601562e-01 -5.955000519752502441e-01 7.441104054450988770e-01
1.027000000000000000e+03 5.958545303344726562e+01 -1.572668075561523438e+01 -7.610859870910644531e+00 -1.235317066311836243e-01 -2.320317506790161133e+00 -6.264498233795166016e-01
1.028000000000000000e+03 5.974926757812500000e+01 -1.784497451782226562e+01 6.228117465972900391e+00 1.711310267448425293e+00 2.381828308105468750e+00 2.213223457336425781e+00
1.029000000000000000e+03 6.486174011230468750e+01 -2.119404983520507812e+01 -8.790907859802246094e-01 -1.184670180082321167e-01 -2.992673516273498535e-01 -1.412522494792938232e-01
1.030000000000000000e+03 5.968863677978515625e+01 -1.898607254028320312e+01 5.251342296600341797e+00 3.629719257354736328e+00 2.664318561553955078e+00 -1.445395588874816895e+00
1.031000000000000000e+03 6.255123901367187500e+01 -1.512989616394042969e+01 -9.275714308023452759e-02 1.192501664161682129e+00 3.299233615398406982e-01 1.034495234489440918e+00
1.032000000000000000e+03 4.450541305541992188e+01 -1.779539299011230469e+01 -1.892877697944641113e+00 3.502032458782196045e-01 -4.628023505210876465e-01 7.507660388946533203e-01
1.033000000000000000e+03 4.395759201049804688e+01 -1.935655212402343750e+01 -2.187063455581665039e+00 3.855657875537872314e-01 -5.404493212699890137e-01 4.663129150867462158e-01
1.034000000000000000e+03 4.386051559448242188e+01 -1.863181495666503906e+01 -2.061547040939331055e+00 3.834599256515502930e-01 -5.034261345863342285e-01 6.384959816932678223e-01
1.035000000000000000e+03 4.309143829345703125e+01 -1.879971694946289062e+01 -1.999794244766235352e+00 4.474995136260986328e-01 -4.656884372234344482e-01 6.213634610176086426e-01
1.036000000000000000e+03 2.529430198669433594e+01 -9.780233383178710938e+00 -6.224617958068847656e-01 -6.565710306167602539e-01 -3.837098479270935059e-01 6.962539553642272949e-01
1.037000000000000000e+03 2.473239707946777344e+01 -1.019605445861816406e+01 -5.987757444381713867e-01 -7.914563417434692383e-01 -4.170696139335632324e-01 7.090467810630798340e-01
1.038000000000000000e+03 2.488433265686035156e+01 -9.099211692810058594e+00 -6.436722278594970703e-01 -7.149499654769897461e-01 -4.075866639614105225e-01 7.001767754554748535e-01
1.039000000000000000e+03 2.446276664733886719e+01 -8.419612884521484375e+00 -6.639665961265563965e-01 -7.689957618713378906e-01 -4.298886954784393311e-01 7.033261656761169434e-01
1.040000000000000000e+03 2.402097702026367188e+01 -7.739736557006835938e+00 -6.803666353225708008e-01 -8.121525049209594727e-01 -4.477557539939880371e-01 7.061044573783874512e-01
1.041000000000000000e+03 2.306533432006835938e+01 -6.413352489471435547e+00 -7.078898549079895020e-01 -8.736197948455810547e-01 -4.744528830051422119e-01 7.088413834571838379e-01
1.042000000000000000e+03 2.148011779785156250e+01 -4.524560928344726562e+00 -7.270937561988830566e-01 -9.017880558967590332e-01 -4.886645376682281494e-01 7.000203132629394531e-01
1.043000000000000000e+03 2.256201362609863281e+01 -5.772270202636718750e+00 -7.172843813896179199e-01 -8.925305008888244629e-01 -4.829444587230682373e-01 7.067773938179016113e-01
1.044000000000000000e+03 2.359311866760253906e+01 -5.944285869598388672e+00 -6.524066925048828125e-01 -7.579182982444763184e-01 -4.230974912643432617e-01 6.361210942268371582e-01
1.045000000000000000e+03 1.685799407958984375e+01 2.437861710786819458e-01 -4.974860846996307373e-01 -6.707773208618164062e-01 -3.504790365695953369e-01 5.393069982528686523e-01
1.046000000000000000e+03 1.243876647949218750e+01 1.035032510757446289e+00 -5.745013952255249023e-01 -3.671809136867523193e-01 -2.825047075748443604e-01 4.416353106498718262e-01
1.047000000000000000e+03 1.466438865661621094e+01 -8.088833838701248169e-02 -6.997659206390380859e-01 -5.244610905647277832e-01 -3.672681152820587158e-01 5.693238973617553711e-01
1.048000000000000000e+03 1.536176872253417969e+01 -4.814130961894989014e-01 -7.323967814445495605e-01 -5.827901363372802734e-01 -3.945560753345489502e-01 6.039389967918395996e-01
1.049000000000000000e+03 2.042783164978027344e+01 -4.437823295593261719e+00 -8.319432735443115234e-01 -9.768681526184082031e-01 -5.426434278488159180e-01 7.989678382873535156e-01
1.050000000000000000e+03 1.865838050842285156e+01 -2.786718845367431641e+00 -8.329042792320251465e-01 -8.588593006134033203e-01 -5.075290799140930176e-01 7.499322295188903809e-01
1.051000000000000000e+03 2.031940269470214844e+01 -3.359726428985595703e+00 -7.215321660041809082e-01 -8.787196874618530273e-01 -4.800755679607391357e-01 6.855250597000122070e-01
1.052000000000000000e+03 2.078045082092285156e+01 -2.830656290054321289e+00 -6.161434054374694824e-01 -8.129699826240539551e-01 -4.287340342998504639e-01 6.002733707427978516e-01
1.053000000000000000e+03 2.203514289855957031e+01 -5.140513896942138672e+00 -7.234031558036804199e-01 -9.003317356109619141e-01 -4.871204793453216553e-01 7.045145630836486816e-01
1.054000000000000000e+03 1.844783592224121094e+01 -1.751859426498413086e+00 -6.869812011718750000e-01 -7.913462519645690918e-01 -4.434982240200042725e-01 6.478439569473266602e-01
1.055000000000000000e+03 1.779761314392089844e+01 -1.260344982147216797e+00 -6.671041846275329590e-01 -7.524511814117431641e-01 -4.258666038513183594e-01 6.301315426826477051e-01
1.056000000000000000e+03 1.672725105285644531e+01 -1.333637714385986328e+00 -7.883901596069335938e-01 -6.951211690902709961e-01 -4.450533986091613770e-01 6.707803010940551758e-01
1.057000000000000000e+03 1.971345138549804688e+01 -2.801138401031494141e+00 -7.151601910591125488e-01 -8.555573225021362305e-01 -4.712152481079101562e-01 6.757808327674865723e-01
1.058000000000000000e+03 6.013128757476806641e+00 -1.902294874191284180e+00 -3.029329491255339235e-06 -3.223226940463064238e-06 -1.875766997727623675e-06 -3.625110593930003233e-06
1.059000000000000000e+03 7.510892868041992188e+00 -2.694120168685913086e+00 7.265466024364286568e-07 6.526363449665950611e-06 2.175873078158474527e-06 6.572211077582323924e-07
1.060000000000000000e+03 6.715555191040039062e+00 -2.706007719039916992e+00 -9.181307518701942172e-07 -5.846247859153663740e-06 -2.029313691309653223e-06 -3.415008450247114524e-06
1.061000000000000000e+03 5.013260841369628906e+00 -3.558439970016479492e+00 5.045046236773487180e-06 4.229067599226254970e-06 2.782234105325187556e-06 9.108169251703657210e-06
1.062000000000000000e+03 1.711473226547241211e+00 -9.208440780639648438e+00 2.388082066318020225e-05 -7.269143509347486543e-08 7.142438789742300287e-06 1.599817551323212683e-06
1.063000000000000000e+03 1.987949609756469727e+00 -2.054845094680786133e+00 7.734601240372285247e-06 4.505007382249459624e-06 3.671882495837053284e-06 -5.363848686101846397e-06
1.064000000000000000e+03 5.708716511726379395e-01 -6.430742263793945312e+00 -2.357177800149656832e-05 8.352129157174204011e-07 -6.820969247200991958e-06 -3.078967438341351226e-06
1.065000000000000000e+03 6.213670372962951660e-01 -4.962121963500976562e+00 1.848412284743972123e-05 1.356284997200418729e-06 5.952122592134401202e-06 3.279788415966322646e-06
1.066000000000000000e+03 5.512927770614624023e-01 -3.518495559692382812e+00 -1.535713090561330318e-05 1.650799731578445062e-06 -4.111899670533603057e-06 -5.353841515898238868e-06
1.067000000000000000e+03 1.206715774536132812e+01 2.115976572036743164e+00 -3.952171206474304199e-01 -3.892851173877716064e-01 -2.353506684303283691e-01 4.195722043514251709e-01
1.068000000000000000e+03 1.358609771728515625e+01 1.325927495956420898e+00 -4.932130277156829834e-01 -4.668470323085784912e-01 -2.880180180072784424e-01 4.759449660778045654e-01
1.069000000000000000e+03 1.433175945281982422e+01 9.306640028953552246e-01 -5.285401344299316406e-01 -5.170937180519104004e-01 -3.136901557445526123e-01 5.093069672584533691e-01
1.070000000000000000e+03 1.158023738861083984e+01 -5.147004604339599609e+00 -5.436214451037812978e-06 -9.673691238276660442e-06 -4.532971615844871849e-06 5.588533440459286794e-06
1.071000000000000000e+03 1.049947452545166016e+01 -3.024945974349975586e+00 1.614736333976907190e-06 8.702712875674478710e-06 3.095234887950937264e-06 -1.378295792164863087e-06
1.072000000000000000e+03 4.237076950073242188e+01 -2.574758338928222656e+01 -2.569215930998325348e-02 -1.218383669853210449e+00 -3.732227385044097900e-01 -2.361921519041061401e-01
1.073000000000000000e+03 4.237986373901367188e+01 -2.704548645019531250e+01 1.150850020349025726e-02 -1.828777551651000977e+00 -5.451807379722595215e-01 -2.520753145217895508e-01
1.074000000000000000e+03 5.571250152587890625e+01 -3.034618186950683594e+01 1.018064975738525391e+00 8.937808990478515625e+00 2.986762285232543945e+00 3.495190441608428955e-01
1.075000000000000000e+03 6.971761322021484375e+01 -2.178050231933593750e+01 5.868710875511169434e-01 2.223815917968750000e+00 8.432061076164245605e-01 -1.665333628654479980e+00
1.076000000000000000e+03 6.640096282958984375e+01 -1.965371322631835938e+01 2.705093622207641602e-01 2.088850438594818115e-01 1.438183188438415527e-01 5.075690895318984985e-02
1.077000000000000000e+03 6.091442489624023438e+01 -1.855758285522460938e+01 4.124962329864501953e+00 6.651092767715454102e-01 1.437021493911743164e+00 1.099127292633056641e+00
1.078000000000000000e+03 6.193589019775390625e+01 -2.329314613342285156e+01 -2.711760759353637695e+00 -5.171664357185363770e-01 -9.686781167984008789e-01 -8.849722146987915039e-01
1.079000000000000000e+03 7.176445007324218750e+01 -2.443796539306640625e+01 1.619923233985900879e+00 1.324444866180419922e+01 4.459311485290527344e+00 -2.187806606292724609e+00
1.080000000000000000e+03 7.233278656005859375e+01 -2.161459732055664062e+01 -4.791355729103088379e-01 7.988450527191162109e+00 2.252794504165649414e+00 -3.937307298183441162e-01
1.081000000000000000e+03 7.824919128417968750e+01 -2.474428176879882812e+01 1.785842925310134888e-01 6.991312026977539062e+00 2.150968790054321289e+00 1.222999095916748047e-01
1.082000000000000000e+03 7.205883026123046875e+01 -3.000745582580566406e+01 5.849410295486450195e-01 8.867053985595703125e+00 2.835598468780517578e+00 8.987256884574890137e-01
1.083000000000000000e+03 3.280442428588867188e+01 -1.786735153198242188e+01 -1.228469848632812500e+00 -7.486852817237377167e-03 -3.707870244979858398e-01 1.996698081493377686e-01
1.084000000000000000e+03 7.316632080078125000e+01 -2.838760185241699219e+01 1.083040475845336914e+00 9.492508888244628906e+00 3.172664880752563477e+00 -5.492475628852844238e-01
1.085000000000000000e+03 4.023143005371093750e+01 -1.982488632202148438e+01 -1.276817679405212402e+00 -5.409982204437255859e-01 -5.453447699546813965e-01 8.531064391136169434e-01
1.086000000000000000e+03 6.795503997802734375e+01 -3.314681243896484375e+01 -1.111063003540039062e+00 1.751540154218673706e-01 -2.807726860046386719e-01 -1.406045854091644287e-01
1.087000000000000000e+03 5.546556091308593750e+01 -2.752968978881835938e+01 1.501723170280456543e+00 5.597458839416503906e+00 2.129754543304443359e+00 1.448011398315429688e+00
1.088000000000000000e+03 5.733473205566406250e+01 -2.667112541198730469e+01 2.230726480484008789e+00 5.030853271484375000e+00 2.178473949432373047e+00 3.146888017654418945e+00
1.089000000000000000e+03 5.449890518188476562e+01 -2.976232528686523438e+01 1.983744144439697266e+00 5.116788387298583984e+00 2.130159616470336914e+00 6.964898109436035156e-01
1.090000000000000000e+03 5.507503128051757812e+01 -3.149507904052734375e+01 1.573477983474731445e+00 6.510340690612792969e+00 2.425145626068115234e+00 2.545942552387714386e-02
1.091000000000000000e+03 3.548154067993164062e+01 -1.697645378112792969e+01 -1.811067938804626465e+00 -1.587641090154647827e-01 -5.909496545791625977e-01 5.989835262298583984e-01
1.092000000000000000e+03 3.671466827392578125e+01 -1.803578758239746094e+01 -2.908101081848144531e+00 -1.776582151651382446e-01 -9.257277846336364746e-01 5.274471044540405273e-01
1.093000000000000000e+03 2.855537414550781250e+01 -1.619223785400390625e+01 -6.371711492538452148e-01 -1.720817536115646362e-01 -2.427758574485778809e-01 3.767220377922058105e-01
1.094000000000000000e+03 3.409488296508789062e+01 -1.793396377563476562e+01 -1.632808089256286621e+00 3.908888902515172958e-03 -4.886697828769683838e-01 1.908484548330307007e-01
1.095000000000000000e+03 6.741748046875000000e+01 -3.518058013916015625e+01 -1.193132638931274414e+00 9.152581691741943359e-01 -8.336234092712402344e-02 4.299244284629821777e-01
1.096000000000000000e+03 3.191920089721679688e+01 -1.664697265625000000e+01 -1.056719064712524414e+00 -2.764084562659263611e-02 -3.253079950809478760e-01 4.230728447437286377e-01
1.097000000000000000e+03 6.504959106445312500e+01 -3.810249328613281250e+01 1.109174191951751709e-01 3.059449493885040283e-01 1.250587105751037598e-01 -1.002180352807044983e-01
1.098000000000000000e+03 6.133036422729492188e+01 -3.738352584838867188e+01 -1.425448209047317505e-01 -2.567634359002113342e-02 -5.046635121107101440e-02 -5.035551190376281738e-01
1.099000000000000000e+03 6.339127349853515625e+01 -4.092741775512695312e+01 4.756191372871398926e-01 3.708449602127075195e-01 2.539392113685607910e-01 -1.242678090929985046e-01
1.100000000000000000e+03 5.457357788085937500e+01 -3.427238845825195312e+01 -1.088040769100189209e-01 3.364376544952392578e+00 9.766717553138732910e-01 4.086987972259521484e-01
1.101000000000000000e+03 7.586459350585937500e+01 -2.930475997924804688e+01 2.795718610286712646e-01 8.301134109497070312e+00 2.574211835861206055e+00 -1.039313912391662598e+00
1.102000000000000000e+03 5.880545806884765625e+01 -2.342141532897949219e+01 -1.052510142326354980e+00 3.588671207427978516e+00 7.608483433723449707e-01 1.781647086143493652e+00
1.103000000000000000e+03 6.569891357421875000e+01 -2.053772544860839844e+01 -1.591126024723052979e-01 -8.129844814538955688e-02 -7.212331146001815796e-02 1.297854632139205933e-01
1.104000000000000000e+03 6.390486526489257812e+01 -2.169194412231445312e+01 -8.166361451148986816e-01 -4.559547081589698792e-02 -2.586694657802581787e-01 -5.494378209114074707e-01
1.105000000000000000e+03 7.181752014160156250e+01 -3.239336776733398438e+01 -1.141105055809020996e+00 6.662393093109130859e+00 1.656386375427246094e+00 1.390198171138763428e-01
1.106000000000000000e+03 5.629728698730468750e+01 3.904805755615234375e+01 -2.352517992258071899e-01 -1.422623544931411743e-01 -1.132542490959167480e-01 1.835831701755523682e-01
1.107000000000000000e+03 6.521536254882812500e+01 3.902553176879882812e+01 1.154044345021247864e-01 9.796311259269714355e-01 3.285106718540191650e-01 -8.878463506698608398e-02
1.108000000000000000e+03 8.430426597595214844e+00 -2.678612709045410156e+01 1.897616020869463682e-04 9.301996033173054457e-05 8.483447163598611951e-05 -3.380459020263515413e-06
1.109000000000000000e+03 4.190266418457031250e+01 -3.047741317749023438e+01 -7.162027359008789062e-01 -1.939645290374755859e+00 -7.967544198036193848e-01 -7.811647653579711914e-01
1.110000000000000000e+03 4.296368408203125000e+01 -2.954104614257812500e+01 -5.452336072921752930e-01 -1.814762234687805176e+00 -7.079987525939941406e-01 -5.803061723709106445e-01
1.111000000000000000e+03 4.372559738159179688e+01 -2.791276550292968750e+01 -2.887278497219085693e-01 -1.031418800354003906e+00 -3.960440158843994141e-01 -7.004334330558776855e-01
1.112000000000000000e+03 9.926357269287109375e+00 -1.498232078552246094e+01 8.123995939968153834e-06 2.162011696782428771e-05 8.923233508539851755e-06 -1.199029156850883737e-05
1.113000000000000000e+03 3.643280410766601562e+01 -3.313835144042968750e+01 -3.690941631793975830e-01 -8.728876709938049316e-02 -1.369148790836334229e-01 -1.757108420133590698e-01
1.114000000000000000e+03 4.047380447387695312e+01 -3.266953659057617188e+01 -5.161830186843872070e-01 -8.142371773719787598e-01 -3.991260528564453125e-01 -5.427993535995483398e-01
1.115000000000000000e+03 5.575974655151367188e+01 3.733144760131835938e+01 -4.581559598445892334e-01 -2.323515526950359344e-02 -1.444173306226730347e-01 1.251967102289199829e-01
1.116000000000000000e+03 1.164694118499755859e+01 -2.897783470153808594e+01 8.210149244405329227e-04 -6.052938988432288170e-05 2.281456690980121493e-04 -4.142411344218999147e-04
1.117000000000000000e+03 1.207006168365478516e+01 -3.081733131408691406e+01 2.714222762733697891e-03 -3.456535050645470619e-04 7.105707190930843353e-04 2.619377337396144867e-04
1.118000000000000000e+03 6.356245040893554688e+01 3.498654937744140625e+01 -1.399861693382263184e+00 -3.294814229011535645e-01 -5.188029408454895020e-01 6.290878653526306152e-01
1.119000000000000000e+03 5.041057586669921875e+01 -1.629142189025878906e+01 5.002038478851318359e-01 6.241750717163085938e-01 3.373136818408966064e-01 2.916494905948638916e-01
1.120000000000000000e+03 2.317712974548339844e+01 -3.292433547973632812e+01 1.515735313296318054e-02 -1.509295310825109482e-03 4.094417206943035126e-03 3.249257802963256836e-03
1.121000000000000000e+03 4.222713088989257812e+01 1.330817222595214844e+01 7.457163929939270020e-02 3.194437980651855469e+00 9.807028770446777344e-01 3.914635628461837769e-02
1.122000000000000000e+03 4.090318298339843750e+01 1.168613433837890625e+01 4.671809077262878418e-01 2.947213888168334961e+00 1.024318456649780273e+00 -4.878710508346557617e-01
1.123000000000000000e+03 1.611750984191894531e+01 -3.288327789306640625e+01 6.431150715798139572e-03 8.666871581226587296e-04 2.189351478591561317e-03 3.513464238494634628e-03
1.124000000000000000e+03 6.814533996582031250e+01 3.278393173217773438e+01 -6.359540224075317383e-01 2.901758193969726562e+00 6.797412633895874023e-01 -4.594340622425079346e-01
1.125000000000000000e+03 3.677784729003906250e+01 -3.486676788330078125e+01 -1.614059507846832275e-01 -2.484179139137268066e-01 -1.229471564292907715e-01 -2.936868965625762939e-01
1.126000000000000000e+03 3.974425888061523438e+01 1.803799247741699219e+01 2.140344530344009399e-01 1.925001621246337891e+00 6.417108178138732910e-01 -3.139776736497879028e-02
1.127000000000000000e+03 4.108449554443359375e+01 1.634096717834472656e+01 2.013673484325408936e-01 2.354692459106445312e+00 7.668179273605346680e-01 7.644836604595184326e-02
1.128000000000000000e+03 7.396339416503906250e+01 7.239523887634277344e+00 1.814579069614410400e-01 8.690110206604003906e+00 2.661470413208007812e+00 4.996249079704284668e-01
1.129000000000000000e+03 7.595692634582519531e+00 -2.239406776428222656e+01 6.085632412577979267e-05 -2.781666626106016338e-05 9.911897905112709850e-06 -2.025746289291419089e-05
1.130000000000000000e+03 1.014560222625732422e+01 -2.919921112060546875e+01 7.453772705048322678e-04 -2.061995764961466193e-04 1.617533125681802630e-04 -1.728887582430616021e-04
1.131000000000000000e+03 1.711712646484375000e+01 -8.212548255920410156e+00 5.980265996186062694e-06 3.458939545453176834e-06 2.831761776178609580e-06 4.025930593343218789e-06
1.132000000000000000e+03 7.934598541259765625e+01 -3.468766021728515625e+01 1.346919964998960495e-02 9.471747398376464844e+00 2.845564842224121094e+00 -1.886127442121505737e-01
1.133000000000000000e+03 7.703283691406250000e+01 -2.913555335998535156e+01 2.761403620243072510e-01 7.888058662414550781e+00 2.449259757995605469e+00 -9.528769254684448242e-01
1.134000000000000000e+03 7.935701751708984375e+01 -2.778135490417480469e+01 5.439686030149459839e-02 6.637757778167724609e+00 2.007646322250366211e+00 -1.888870000839233398e-01
1.135000000000000000e+03 7.783583831787109375e+01 3.232223129272460938e+01 -4.449136182665824890e-02 8.953884124755859375e+00 2.672817707061767578e+00 3.939550220966339111e-01
1.136000000000000000e+03 7.929501342773437500e+01 3.612072753906250000e+01 -5.726340785622596741e-02 1.012934398651123047e+01 3.021624088287353516e+00 2.188192913308739662e-03
1.137000000000000000e+03 7.944297027587890625e+01 -2.085094261169433594e+01 -3.650170564651489258e-02 7.299934864044189453e+00 2.179029941558837891e+00 1.933624148368835449e-01
1.138000000000000000e+03 7.516442871093750000e+01 -2.220626640319824219e+01 2.239421606063842773e-01 8.119626998901367188e+00 2.503070831298828125e+00 6.030949354171752930e-01
1.139000000000000000e+03 7.807091522216796875e+01 -2.614049911499023438e+01 2.782727181911468506e-01 7.097182273864746094e+00 2.212636470794677734e+00 -1.852137446403503418e-01
1.140000000000000000e+03 7.942438507080078125e+01 -3.057687377929687500e+01 -1.759346388280391693e-02 7.772038936614990234e+00 2.326333761215209961e+00 -2.834052145481109619e-01
1.141000000000000000e+03 7.803611755371093750e+01 -3.438317108154296875e+01 -2.177658677101135254e-01 8.816277503967285156e+00 2.579553365707397461e+00 -4.880232214927673340e-01
1.142000000000000000e+03 7.814850616455078125e+01 -3.304371261596679688e+01 -1.124823987483978271e-01 8.606395721435546875e+00 2.548173904418945312e+00 -6.708780527114868164e-01
1.143000000000000000e+03 7.597487640380859375e+01 -3.767821121215820312e+01 -4.098337292671203613e-01 8.316925048828125000e+00 2.372127294540405273e+00 -3.191089034080505371e-01
1.144000000000000000e+03 7.736962127685546875e+01 -3.812053680419921875e+01 -1.436143070459365845e-01 8.869390487670898438e+00 2.617733001708984375e+00 8.155075460672378540e-02
1.145000000000000000e+03 7.656188964843750000e+01 -3.908302688598632812e+01 -2.087406665086746216e-01 8.721047401428222656e+00 2.553692102432250977e+00 -4.670388624072074890e-02
1.146000000000000000e+03 7.797799682617187500e+01 -4.163616561889648438e+01 2.605250775814056396e-01 9.278647422790527344e+00 2.861751556396484375e+00 7.342566549777984619e-02
1.147000000000000000e+03 7.825759124755859375e+01 1.421832466125488281e+01 -3.569745644927024841e-02 6.981808662414550781e+00 2.083833217620849609e+00 1.634239554405212402e-01
1.148000000000000000e+03 7.946117401123046875e+01 1.541374778747558594e+01 -1.645806804299354553e-02 6.705482482910156250e+00 2.006707191467285156e+00 5.716232582926750183e-02
1.149000000000000000e+03 7.821713256835937500e+01 2.102363777160644531e+01 4.025558009743690491e-02 7.457858085632324219e+00 2.249433994293212891e+00 2.123729288578033447e-01
1.150000000000000000e+03 7.941085052490234375e+01 2.235299491882324219e+01 1.883871853351593018e-02 7.397632122039794922e+00 2.224941253662109375e+00 1.056311056017875671e-01
1.151000000000000000e+03 7.798334503173828125e+01 3.084524345397949219e+01 -3.261845558881759644e-02 8.831635475158691406e+00 2.639705181121826172e+00 4.265445768833160400e-01
1.152000000000000000e+03 7.814027404785156250e+01 2.805737304687500000e+01 -5.576468072831630707e-03 8.402969360351562500e+00 2.519217729568481445e+00 4.560725092887878418e-01
1.153000000000000000e+03 7.937935638427734375e+01 2.794261169433593750e+01 -6.516114226542413235e-04 8.599948883056640625e+00 2.579789161682128906e+00 1.783970296382904053e-01
1.154000000000000000e+03 7.827014923095703125e+01 2.530986595153808594e+01 3.477302566170692444e-02 7.958758831024169922e+00 2.398059606552124023e+00 3.693207800388336182e-01
1.155000000000000000e+03 7.828318786621093750e+01 2.390112304687500000e+01 4.615974053740501404e-02 7.762594699859619141e+00 2.342626333236694336e+00 3.047853112220764160e-01
1.156000000000000000e+03 7.656872558593750000e+01 1.628369331359863281e+01 1.014158409088850021e-02 7.570549011230468750e+00 2.274207115173339844e+00 2.318556010723114014e-01
1.157000000000000000e+03 7.840447235107421875e+01 1.558641242980957031e+01 8.551231585443019867e-03 7.027851104736328125e+00 2.110920667648315430e+00 1.296237260103225708e-01
1.158000000000000000e+03 7.840151977539062500e+01 1.689000892639160156e+01 -2.677051350474357605e-03 7.110939502716064453e+00 2.132478713989257812e+00 1.345973759889602661e-01
1.159000000000000000e+03 7.819506835937500000e+01 1.277264118194580078e+01 -2.651251852512359619e-02 6.885917186737060547e+00 2.057821273803710938e+00 2.136416286230087280e-01
1.160000000000000000e+03 7.253524017333984375e+01 8.710315704345703125e+00 -4.605458304286003113e-02 9.335954666137695312e+00 2.786969900131225586e+00 4.560028612613677979e-01
1.161000000000000000e+03 7.807010650634765625e+01 8.539148330688476562e+00 4.392038099467754364e-03 6.471189022064208984e+00 1.942674398422241211e+00 3.027968108654022217e-01
1.162000000000000000e+03 7.937779235839843750e+01 9.808408737182617188e+00 -5.329190287739038467e-03 6.006813049316406250e+00 1.800445079803466797e+00 1.125646457076072693e-01
1.163000000000000000e+03 7.943267059326171875e+01 -1.946770477294921875e+01 6.997120566666126251e-03 7.731258869171142578e+00 2.321476936340332031e+00 1.560799628496170044e-01
1.164000000000000000e+03 7.837145233154296875e+01 -2.342577743530273438e+01 1.406547278165817261e-01 7.038947582244873047e+00 2.153880834579467773e+00 3.248024880886077881e-01
1.165000000000000000e+03 7.938993072509765625e+01 -1.394316864013671875e+01 -6.652561016380786896e-03 8.210945129394531250e+00 2.461287736892700195e+00 -5.387784913182258606e-02
1.166000000000000000e+03 7.932661437988281250e+01 -6.976879596710205078e+00 -1.336752902716398239e-02 7.032838344573974609e+00 2.105841159820556641e+00 -1.724810898303985596e-01
1.167000000000000000e+03 7.812073516845703125e+01 2.772546112537384033e-01 1.002975925803184509e-01 6.139105796813964844e+00 1.871820926666259766e+00 -2.388864457607269287e-01
1.168000000000000000e+03 7.942477416992187500e+01 1.477888703346252441e+00 7.081248797476291656e-03 5.187651634216308594e+00 1.558419942855834961e+00 -4.706237465143203735e-02
1.169000000000000000e+03 7.677462768554687500e+01 7.190441131591796875e+00 8.199667185544967651e-02 7.079865455627441406e+00 2.148558616638183594e+00 4.163160920143127441e-01
1.170000000000000000e+03 7.806088256835937500e+01 2.944120025634765625e+01 -1.761772297322750092e-02 8.637456893920898438e+00 2.585951805114746094e+00 4.500482976436614990e-01
1.171000000000000000e+03 7.801478576660156250e+01 4.168587875366210938e+01 3.038705885410308838e-01 9.540440559387207031e+00 2.953293323516845703e+00 -8.538066595792770386e-02
1.172000000000000000e+03 7.812471771240234375e+01 9.932934761047363281e+00 -1.088923495262861252e-02 6.613403320312500000e+00 1.980754137039184570e+00 3.067354261875152588e-01
1.173000000000000000e+03 7.244474029541015625e+01 4.884256839752197266e+00 4.548411667346954346e-01 1.002067565917968750e+01 3.142655134201049805e+00 2.837660610675811768e-01
1.174000000000000000e+03 7.835057067871093750e+01 3.000396966934204102e+00 6.415398418903350830e-02 5.885042190551757812e+00 1.784758925437927246e+00 1.829194650053977966e-02
1.175000000000000000e+03 7.628705596923828125e+01 -8.899861574172973633e-02 2.300607860088348389e-01 7.021666049957275391e+00 2.175518035888671875e+00 -3.170622289180755615e-01
1.176000000000000000e+03 7.796742248535156250e+01 -1.223193168640136719e+00 8.326394110918045044e-02 6.323565006256103516e+00 1.922048687934875488e+00 -3.448988795280456543e-01
1.177000000000000000e+03 7.931597137451171875e+01 -2.763896703720092773e+00 1.431428454816341400e-02 5.980791568756103516e+00 1.798531770706176758e+00 -1.768497377634048462e-01
1.178000000000000000e+03 7.799996185302734375e+01 -8.416673660278320312e+00 -4.211403802037239075e-02 7.231436729431152344e+00 2.156796693801879883e+00 -3.888969719409942627e-01
1.179000000000000000e+03 7.795799255371093750e+01 -5.616425037384033203e+00 -2.206370607018470764e-02 6.860236644744873047e+00 2.051451921463012695e+00 -4.499038159847259521e-01
1.180000000000000000e+03 7.934391021728515625e+01 -9.766445159912109375e+00 -1.321371365338563919e-02 7.637261867523193359e+00 2.287214517593383789e+00 -1.369778066873550415e-01
1.181000000000000000e+03 7.823303222656250000e+01 -1.535402584075927734e+01 -5.859885364770889282e-02 7.875397205352783203e+00 2.345039606094360352e+00 -3.382596001029014587e-02
1.182000000000000000e+03 7.812121582031250000e+01 -1.261737537384033203e+01 -4.462161287665367126e-02 7.704475402832031250e+00 2.297955989837646484e+00 -2.036025822162628174e-01
1.183000000000000000e+03 7.942774963378906250e+01 -1.670689773559570312e+01 3.625408047810196877e-03 8.227029800415039062e+00 2.469196557998657227e+00 2.994638122618198395e-02
1.184000000000000000e+03 7.730841827392578125e+01 -2.102658843994140625e+01 -3.926895931363105774e-02 7.675957679748535156e+00 2.291006565093994141e+00 5.909982323646545410e-01
1.185000000000000000e+03 7.828034973144531250e+01 -1.939724349975585938e+01 -1.514454036951065063e-01 7.696696758270263672e+00 2.263575315475463867e+00 3.878130912780761719e-01
1.186000000000000000e+03 1.032530689239501953e+01 -1.738624954223632812e+01 -1.357178371108602732e-05 3.383717739779967815e-06 -3.056419927816023119e-06 5.464644800667883828e-06
1.187000000000000000e+03 8.502107620239257812e+00 -1.834160423278808594e+01 -2.713788853725418448e-05 -1.820062971091829240e-05 -1.360155511065386236e-05 1.158823852165369317e-05
1.188000000000000000e+03 2.451913642883300781e+01 -3.300087356567382812e+01 1.460154075175523758e-02 -2.666661515831947327e-03 3.580463817343115807e-03 1.245161169208586216e-03
1.189000000000000000e+03 2.586944389343261719e+01 -3.310777664184570312e+01 1.343743503093719482e-02 -2.041189698502421379e-03 3.418873529881238937e-03 1.667899341555312276e-04
1.190000000000000000e+03 3.811661148071289062e+01 -3.442131042480468750e+01 -2.274636030197143555e-01 -3.803136646747589111e-01 -1.823331862688064575e-01 -3.920983076095581055e-01
1.191000000000000000e+03 8.853203773498535156e+00 -1.722521781921386719e+01 2.688050335564184934e-05 -5.391446393332444131e-06 6.446717179642291740e-06 -8.991125469037797302e-06
1.192000000000000000e+03 3.924216461181640625e+01 -3.427056884765625000e+01 -1.157539337873458862e-01 -5.827760696411132812e-01 -2.095589935779571533e-01 -3.621582686901092529e-01
1.193000000000000000e+03 4.051035690307617188e+01 -3.445143127441406250e+01 5.847718194127082825e-02 -8.090302944183349609e-01 -2.251659333705902100e-01 -2.539250254631042480e-01
1.194000000000000000e+03 7.119097137451171875e+01 1.147696304321289062e+01 -6.227893233299255371e-01 9.412538528442382812e+00 2.636924743652343750e+00 -7.760837674140930176e-03
1.195000000000000000e+03 2.916510391235351562e+01 -3.209266662597656250e+01 2.241286821663379669e-02 -2.946375869214534760e-03 5.839947611093521118e-03 -7.163629867136478424e-03
1.196000000000000000e+03 2.967840576171875000e+01 -3.448755645751953125e+01 -1.863292418420314789e-02 -1.368268299847841263e-02 -9.694682434201240540e-03 -2.168186381459236145e-02
1.197000000000000000e+03 1.743910074234008789e+00 -2.461657714843750000e+01 -2.481333649484440684e-05 -1.632340172363910824e-05 -1.234102182934293523e-05 -2.286930066475179046e-05
1.198000000000000000e+03 7.456802368164062500e+00 -2.380791282653808594e+01 -1.100054432754404843e-04 -2.682280319277197123e-05 -4.104847175767645240e-05 8.729110413696616888e-05
1.199000000000000000e+03 2.781418418884277344e+01 -3.183699226379394531e+01 2.772880345582962036e-02 2.964173909276723862e-04 8.407566696405410767e-03 -2.948684617877006531e-03
1.200000000000000000e+03 9.111248970031738281e+00 -2.876085090637207031e+01 7.552584283985197544e-04 4.814917701878584921e-05 2.410222805337980390e-04 -8.330541459145024419e-05
1.201000000000000000e+03 2.718107604980468750e+01 -3.337151336669921875e+01 8.389412425458431244e-03 -3.041002666577696800e-03 1.604523044079542160e-03 -2.934646327048540115e-03
1.202000000000000000e+03 1.470359611511230469e+01 -3.218066406250000000e+01 5.453370511531829834e-03 -1.213604718941496685e-05 1.632370287552475929e-03 1.671395380981266499e-03
1.203000000000000000e+03 4.621484756469726562e+01 -2.445773124694824219e+01 -1.347025036811828613e-01 -4.223218262195587158e-01 -1.671072989702224731e-01 -9.056836366653442383e-01
1.204000000000000000e+03 2.064859771728515625e+01 -3.287976837158203125e+01 1.158500928431749344e-02 -6.508014048449695110e-04 3.280262462794780731e-03 4.447699990123510361e-03
1.205000000000000000e+03 1.925491523742675781e+01 -3.297726058959960938e+01 9.547265246510505676e-03 1.500224345363676548e-03 3.314246889203786850e-03 4.342370666563510895e-03
1.206000000000000000e+03 5.210591506958007812e+01 -1.482662677764892578e+01 4.706198215484619141e+00 3.808228254318237305e+00 2.554327964782714844e+00 -3.144437074661254883e+00
1.207000000000000000e+03 5.275460815429687500e+01 -1.407392311096191406e+01 5.170606613159179688e+00 6.582304954528808594e+00 3.525873422622680664e+00 -5.377099037170410156e+00
1.208000000000000000e+03 5.245256805419921875e+01 3.324674224853515625e+01 -8.825174719095230103e-02 5.425790697336196899e-02 -1.019815169274806976e-02 8.447050116956233978e-03
1.209000000000000000e+03 6.603193664550781250e+01 3.508787155151367188e+01 -6.471199393272399902e-01 1.124017596244812012e+00 1.430692970752716064e-01 -1.551398634910583496e-01
1.210000000000000000e+03 7.087310028076171875e+01 2.436234474182128906e+01 3.812490701675415039e-01 8.590665817260742188e+00 2.691574335098266602e+00 -1.892371922731399536e-01
1.211000000000000000e+03 7.129825592041015625e+01 1.287798881530761719e+01 -2.859427928924560547e-01 9.021632194519042969e+00 2.620707035064697266e+00 -1.797832995653152466e-01
1.212000000000000000e+03 4.605912017822265625e+01 -2.038186192512512207e-01 4.696324169635772705e-01 2.204379320144653320e+00 8.022035360336303711e-01 -1.086250782012939453e+00
1.213000000000000000e+03 5.892761230468750000e+01 3.838385772705078125e+01 -2.901946902275085449e-01 -3.015462458133697510e-01 -1.775222718715667725e-01 1.902337968349456787e-01
1.214000000000000000e+03 6.571895599365234375e+01 -1.011660099029541016e+01 6.806696057319641113e-01 2.604028463363647461e+00 9.854094386100769043e-01 1.279030919075012207e+00
1.215000000000000000e+03 6.945369720458984375e+01 2.705515861511230469e+01 3.911467790603637695e-01 7.674133300781250000e+00 2.419584035873413086e+00 -1.239850282669067383e+00
1.216000000000000000e+03 7.017176055908203125e+01 2.873402023315429688e+01 2.245278805494308472e-01 6.423615455627441406e+00 1.994443058967590332e+00 -4.430962502956390381e-01
1.217000000000000000e+03 6.662490844726562500e+01 -1.080407524108886719e+01 5.923084616661071777e-01 3.156601428985595703e+00 1.124673008918762207e+00 1.009081602096557617e+00
1.218000000000000000e+03 6.474049377441406250e+01 -1.317430400848388672e+01 7.888121008872985840e-01 1.741233706474304199e+00 7.590137720108032227e-01 8.791136145591735840e-01
1.219000000000000000e+03 6.714807891845703125e+01 3.394103240966796875e+01 -7.149147391319274902e-01 1.973169565200805664e+00 3.774764537811279297e-01 -2.749546468257904053e-01
1.220000000000000000e+03 4.095561218261718750e+01 1.480830669403076172e+01 1.959088295698165894e-01 2.617773771286010742e+00 8.441047668457031250e-01 -2.790026739239692688e-02
1.221000000000000000e+03 4.596835327148437500e+01 2.889406967163085938e+01 5.976354703307151794e-02 8.467321395874023438e-01 2.719486951828002930e-01 2.613791823387145996e-01
1.222000000000000000e+03 4.293312072753906250e+01 2.366492843627929688e+01 1.533868908882141113e-01 1.478315353393554688e+00 4.895106852054595947e-01 3.037358224391937256e-01
1.223000000000000000e+03 4.684338378906250000e+01 3.021859550476074219e+01 1.172166131436824799e-02 7.155082225799560547e-01 2.181689739227294922e-01 2.269885092973709106e-01
1.224000000000000000e+03 4.361985778808593750e+01 2.501940536499023438e+01 1.310501843690872192e-01 1.318455219268798828e+00 4.348516166210174561e-01 3.240696489810943604e-01
1.225000000000000000e+03 6.895558929443359375e+01 3.152492141723632812e+01 -4.796652793884277344e-01 4.130559921264648438e+00 1.095268368721008301e+00 -4.323738515377044678e-01
1.226000000000000000e+03 6.368319702148437500e+01 -1.422600746154785156e+01 2.845207750797271729e-01 1.306691050529479980e+00 4.773635268211364746e-01 1.000431418418884277e+00
1.227000000000000000e+03 6.187343597412109375e+01 -1.428541469573974609e+01 -1.286309659481048584e-01 5.549429059028625488e-01 1.278935819864273071e-01 5.770861506462097168e-01
1.228000000000000000e+03 4.835578536987304688e+01 -1.025829315185546875e+01 1.426632523536682129e+00 2.337794780731201172e+00 1.129328131675720215e+00 -1.737283945083618164e+00
1.229000000000000000e+03 4.343847274780273438e+01 2.036832809448242188e+01 1.735628396272659302e-01 1.945213556289672852e+00 6.356329321861267090e-01 5.113744139671325684e-01
1.230000000000000000e+03 4.928661727905273438e+01 -4.782110214233398438e+00 3.849908709526062012e-01 2.982978105545043945e+00 1.010390758514404297e+00 -1.106879472732543945e+00
1.231000000000000000e+03 6.051817703247070312e+01 -1.750615119934082031e+01 2.786843776702880859e+00 5.682682394981384277e-01 1.006533622741699219e+00 3.123726367950439453e+00
1.232000000000000000e+03 7.118431091308593750e+01 1.013814449310302734e+01 -5.400741696357727051e-01 9.467295646667480469e+00 2.678166389465332031e+00 1.804400831460952759e-01
1.233000000000000000e+03 5.465556335449218750e+01 -1.647530937194824219e+01 4.273616313934326172e+00 4.079118251800537109e+00 2.505820512771606445e+00 -4.334347724914550781e+00
1.234000000000000000e+03 4.088111495971679688e+01 1.326087760925292969e+01 2.360643297433853149e-01 2.824847698211669922e+00 9.182735681533813477e-01 -2.573798298835754395e-01
1.235000000000000000e+03 6.773583984375000000e+01 -6.331475257873535156e+00 7.154563665390014648e-01 5.114334106445312500e+00 1.748937129974365234e+00 1.812208294868469238e+00
1.236000000000000000e+03 6.997152709960937500e+01 -4.154268264770507812e+00 3.615165650844573975e-01 7.666786670684814453e+00 2.408490896224975586e+00 1.238062262535095215e+00
1.237000000000000000e+03 6.971537780761718750e+01 -9.876798391342163086e-01 6.618018150329589844e-01 1.035003852844238281e+01 3.303552150726318359e+00 2.141065359115600586e+00
1.238000000000000000e+03 4.172180175781250000e+01 5.381079673767089844e+00 5.461798310279846191e-01 2.428805828094482422e+00 8.924956917762756348e-01 -8.331934809684753418e-01
1.239000000000000000e+03 7.076668548583984375e+01 2.580119705200195312e+01 4.301973879337310791e-01 8.108526229858398438e+00 2.561617136001586914e+00 -2.776144742965698242e-01
1.240000000000000000e+03 4.815238952636718750e+01 -5.082688808441162109e+00 5.131573677062988281e-01 2.635338068008422852e+00 9.445486068725585938e-01 -1.214662551879882812e+00
1.241000000000000000e+03 4.834177017211914062e+01 -2.202093362808227539e+00 3.853248357772827148e-01 2.461503267288208008e+00 8.540484309196472168e-01 -1.041140675544738770e+00
1.242000000000000000e+03 6.944454956054687500e+01 -5.514656066894531250e+00 3.510951101779937744e-01 6.673056602478027344e+00 2.107245445251464844e+00 1.206009626388549805e+00
1.243000000000000000e+03 7.046093750000000000e+01 -2.779317378997802734e+00 4.029768705368041992e-01 8.652961730957031250e+00 2.716781616210937500e+00 1.155085206031799316e+00
1.244000000000000000e+03 4.544004058837890625e+01 9.949873089790344238e-01 5.124899744987487793e-01 2.173192262649536133e+00 8.057046532630920410e-01 -1.114896416664123535e+00
1.245000000000000000e+03 4.526235580444335938e+01 3.965552091598510742e+00 6.803083419799804688e-01 2.315508365631103516e+00 8.987450003623962402e-01 -1.259680986404418945e+00
1.246000000000000000e+03 4.515486526489257812e+01 2.760413932800292969e+01 1.013418585062026978e-01 9.856973886489868164e-01 3.261117637157440186e-01 3.044036030769348145e-01
1.247000000000000000e+03 4.664238739013671875e+01 -1.403323531150817871e+00 4.267820417881011963e-01 2.268117189407348633e+00 8.084697723388671875e-01 -1.118573188781738281e+00
1.248000000000000000e+03 6.886089324951171875e+01 -6.873381614685058594e+00 2.853223979473114014e-01 5.790049552917480469e+00 1.822611570358276367e+00 1.204203128814697266e+00
1.249000000000000000e+03 6.745315551757812500e+01 -9.530488967895507812e+00 3.852598071098327637e-01 3.991055965423583984e+00 1.312894701957702637e+00 1.080274701118469238e+00
1.250000000000000000e+03 6.820111083984375000e+01 -8.215604782104492188e+00 3.761378228664398193e-01 4.834819316864013672e+00 1.563287138938903809e+00 1.142169237136840820e+00
1.251000000000000000e+03 7.022907257080078125e+01 4.743279457092285156e+00 2.973462827503681183e-02 1.202751731872558594e+01 3.617175579071044922e+00 6.329306960105895996e-02
1.252000000000000000e+03 7.133278656005859375e+01 6.161947727203369141e+00 4.338840842247009277e-01 1.081670761108398438e+01 3.375177621841430664e+00 -1.094100698828697205e-01
1.253000000000000000e+03 7.124275207519531250e+01 8.817004203796386719e+00 1.378594338893890381e-02 9.911616325378417969e+00 2.977620601654052734e+00 1.583578139543533325e-01
1.254000000000000000e+03 4.153854751586914062e+01 1.933655357360839844e+01 1.434803307056427002e-01 2.011489868164062500e+00 6.464910507202148438e-01 2.279011458158493042e-01
1.255000000000000000e+03 6.752156066894531250e+01 -1.151959037780761719e+01 3.446587026119232178e-01 3.594100952148437500e+00 1.181627869606018066e+00 7.114274501800537109e-01
1.256000000000000000e+03 4.962579727172851562e+01 -1.020640754699707031e+01 1.153654456138610840e+00 3.565904617309570312e+00 1.415867805480957031e+00 -1.945206761360168457e+00
1.257000000000000000e+03 5.126605224609375000e+01 -1.145422554016113281e+01 1.347409605979919434e+00 5.490571975708007812e+00 2.051394462585449219e+00 -2.399810075759887695e+00
1.258000000000000000e+03 4.982408523559570312e+01 -1.155659294128417969e+01 1.980309486389160156e+00 3.299046516418457031e+00 1.583806872367858887e+00 -2.310809612274169922e+00
1.259000000000000000e+03 5.034281921386718750e+01 3.385916519165039062e+01 -1.360095441341400146e-01 3.338162004947662354e-01 5.934200063347816467e-02 8.516196161508560181e-02
1.260000000000000000e+03 4.437260818481445312e+01 2.631933212280273438e+01 1.218112707138061523e-01 1.154210686683654785e+00 3.828065693378448486e-01 3.325928747653961182e-01
1.261000000000000000e+03 4.161014556884765625e+01 8.633292198181152344e+00 6.147148013114929199e-01 3.041757106781005859e+00 1.096941590309143066e+00 -7.335248589515686035e-01
1.262000000000000000e+03 4.219162368774414062e+01 7.233519554138183594e+00 6.119811534881591797e-01 2.924372911453247070e+00 1.060906171798706055e+00 -9.718171954154968262e-01
1.263000000000000000e+03 4.347349929809570312e+01 4.639039039611816406e+00 5.810731649398803711e-01 2.501958370208740234e+00 9.249094724655151367e-01 -1.089421510696411133e+00
1.264000000000000000e+03 4.281971740722656250e+01 5.909404277801513672e+00 6.124004125595092773e-01 2.637711763381958008e+00 9.750336408615112305e-01 -1.056722879409790039e+00
1.265000000000000000e+03 4.781965255737304688e+01 3.158065223693847656e+01 -4.245121777057647705e-02 5.722048878669738770e-01 1.589260995388031006e-01 1.773797571659088135e-01
1.266000000000000000e+03 7.093144226074218750e+01 2.294958496093750000e+01 2.182853221893310547e-01 8.836875915527343750e+00 2.716548204421997070e+00 -8.059773594141006470e-02
1.267000000000000000e+03 4.368273925781250000e+01 1.645940661430358887e+00 4.662487208843231201e-01 2.117143869400024414e+00 7.750177383422851562e-01 -1.016329884529113770e+00
1.268000000000000000e+03 7.026357269287109375e+01 3.329064846038818359e+00 1.254204064607620239e-01 1.249705314636230469e+01 3.786742210388183594e+00 2.588751316070556641e-01
1.269000000000000000e+03 6.992330932617187500e+01 2.005627250671386719e+01 1.289656944572925568e-02 9.271854400634765625e+00 2.785425186157226562e+00 5.841041356325149536e-02
1.270000000000000000e+03 7.106171417236328125e+01 2.019599342346191406e+01 2.229874953627586365e-02 9.016585350036621094e+00 2.711665153503417969e+00 1.361938863992691040e-01
1.271000000000000000e+03 7.513723754882812500e+01 1.574054908752441406e+01 1.065720804035663605e-02 7.976459026336669922e+00 2.396134853363037109e+00 2.365358173847198486e-01
1.272000000000000000e+03 7.099047851562500000e+01 2.156050300598144531e+01 8.291651308536529541e-02 8.994951248168945312e+00 2.723360538482666016e+00 4.126580059528350830e-02
1.273000000000000000e+03 7.126294708251953125e+01 1.746608734130859375e+01 2.955478429794311523e-02 9.144338607788085938e+00 2.752168178558349609e+00 2.173544168472290039e-01
1.274000000000000000e+03 7.114767456054687500e+01 1.884505844116210938e+01 3.601210936903953552e-02 9.094798088073730469e+00 2.739243268966674805e+00 1.783294975757598877e-01
1.275000000000000000e+03 1.307898283004760742e+00 -4.012654113769531250e+01 3.090886457357555628e-05 1.583901816047728062e-03 4.844432114623486996e-04 1.612650521565228701e-04
1.276000000000000000e+03 7.632069587707519531e-01 3.737855911254882812e+01 4.684315528720617294e-03 -7.090826034545898438e-01 -2.113194912672042847e-01 -9.493838995695114136e-03
1.277000000000000000e+03 6.830301284790039062e-01 3.462623977661132812e+01 2.035036915913224220e-03 -7.325302362442016602e-01 -2.191485613584518433e-01 -3.978728316724300385e-03
1.278000000000000000e+03 6.937441229820251465e-01 3.323594665527343750e+01 -2.139407006325200200e-04 -7.385283708572387695e-01 -2.216226905584335327e-01 -1.781336730346083641e-03
1.279000000000000000e+03 6.995388269424438477e-01 2.763319778442382812e+01 1.522644190117716789e-03 -7.435434460639953613e-01 -2.226062417030334473e-01 1.138865016400814056e-03
1.280000000000000000e+03 6.879673004150390625e-01 2.622319793701171875e+01 1.034483502735383809e-04 -7.392182350158691406e-01 -2.217344343662261963e-01 2.822281792759895325e-03
1.281000000000000000e+03 7.659169435501098633e-01 -3.605092620849609375e+01 1.784908221225123270e-07 8.565416792407631874e-04 2.570160431787371635e-04 1.559599768370389938e-04
1.282000000000000000e+03 2.177984237670898438e+00 -3.319834518432617188e+01 5.858307849848642945e-05 3.918394795618951321e-04 1.351267710560932755e-04 3.623087541200220585e-04
1.283000000000000000e+03 3.384023904800415039e+00 2.617380332946777344e+01 1.058902684599161148e-02 -6.026915311813354492e-01 -1.776307523250579834e-01 1.309129036962985992e-02
1.284000000000000000e+03 3.394627094268798828e+00 2.481392097473144531e+01 1.123918406665325165e-02 -5.982203483581542969e-01 -1.760943531990051270e-01 2.148030139505863190e-02
1.285000000000000000e+03 2.030104875564575195e+00 3.443804931640625000e+01 2.518620342016220093e-03 -6.710171699523925781e-01 -2.005495727062225342e-01 -7.921312004327774048e-03
1.286000000000000000e+03 2.095727682113647461e+00 3.311557006835937500e+01 3.313825698569417000e-03 -6.717373728752136230e-01 -2.005270719528198242e-01 -6.049370858818292618e-03
1.287000000000000000e+03 3.400050401687622070e+00 3.916209411621093750e+01 1.440784893929958344e-03 -6.382251381874084473e-01 -1.910353004932403564e-01 -8.675316348671913147e-03
1.288000000000000000e+03 2.101288557052612305e+00 -2.889058113098144531e+01 5.980449350317940116e-05 4.979909499525092542e-05 3.288107473053969443e-05 3.872242450597696006e-05
1.289000000000000000e+03 2.304855346679687500e+00 -3.714443206787109375e+01 -1.058756333804922178e-05 1.017563277855515480e-03 3.020927251782268286e-04 4.360859456937760115e-04
1.290000000000000000e+03 1.780122756958007812e+00 -1.627462959289550781e+01 -2.696240517252590507e-05 -1.597192635927058291e-06 -8.567879376641940325e-06 3.902845548964251066e-07
1.291000000000000000e+03 3.074629068374633789e+00 -2.180052947998046875e+01 1.230386806128080934e-05 4.564958726405166090e-05 1.738603714329656214e-05 -2.718600626394618303e-05
1.292000000000000000e+03 6.655477285385131836e-01 2.058100509643554688e+01 8.278894820250570774e-04 -6.787018179893493652e-01 -2.033621817827224731e-01 1.204083114862442017e-02
1.293000000000000000e+03 6.584137678146362305e-01 1.916834449768066406e+01 1.891955733299255371e-03 -6.493763327598571777e-01 -1.942453235387802124e-01 1.494087465107440948e-02
1.294000000000000000e+03 6.418350338935852051e-01 1.491119861602783203e+01 1.139247906394302845e-03 -5.170714259147644043e-01 -1.547796577215194702e-01 2.518153563141822815e-02
1.295000000000000000e+03 6.334453225135803223e-01 1.348753738403320312e+01 1.559860305860638618e-03 -4.576990008354187012e-01 -1.368417441844940186e-01 2.813177742063999176e-02
1.296000000000000000e+03 5.558033585548400879e-01 7.813237667083740234e+00 -1.023227931000292301e-03 -1.711580157279968262e-01 -5.165437236428260803e-02 2.823014743626117706e-02
1.297000000000000000e+03 3.430487871170043945e+00 -3.930779266357421875e+01 -1.284046011278405786e-04 1.396309118717908859e-03 3.803713480010628700e-04 5.114526720717549324e-04
1.298000000000000000e+03 3.823775291442871094e+00 -3.444936752319335938e+01 6.791751366108655930e-05 5.572031950578093529e-04 1.875362213468179107e-04 7.391785038635134697e-04
1.299000000000000000e+03 2.265507459640502930e+00 -3.457056427001953125e+01 3.023953649972099811e-05 6.502345786429941654e-04 2.041422412730753422e-04 4.162968543823808432e-04
1.300000000000000000e+03 2.118292570114135742e+00 -3.179184532165527344e+01 1.196751254610717297e-04 2.162510936614125967e-04 1.007778628263622522e-04 2.344690728932619095e-04
1.301000000000000000e+03 2.013324260711669922e+00 -2.743479156494140625e+01 1.047650130203692243e-05 -2.652333023434039205e-06 2.347250529055600055e-06 1.961963062058202922e-05
1.302000000000000000e+03 1.859359979629516602e+00 -2.601531410217285156e+01 2.974877679662313312e-05 -2.409676926617976278e-05 1.695602691142994445e-06 -3.238861245336011052e-05
1.303000000000000000e+03 2.804047822952270508e+00 -2.317592811584472656e+01 -3.684864714159630239e-05 -1.485984739701962098e-05 -1.551254899823106825e-05 -1.317198712058598176e-05
1.304000000000000000e+03 1.832257866859436035e+00 -1.905721282958984375e+01 -3.283852129243314266e-05 4.638393420464126393e-06 -8.460037861368618906e-06 5.907391823711805046e-06
1.305000000000000000e+03 6.064724922180175781e-01 -1.913802528381347656e+01 3.258562719565816224e-05 -1.760176587595196906e-06 9.247634807252325118e-06 -4.718965556094190106e-06
1.306000000000000000e+03 3.076949596405029297e+00 -1.893098449707031250e+01 1.779925878508947790e-05 -7.625007128808647394e-06 3.052275360460043885e-06 -5.530569978873245418e-06
1.307000000000000000e+03 2.924400329589843750e+00 -1.340480709075927734e+01 1.939487810886930674e-05 2.151113903892110102e-06 6.463797490141587332e-06 7.315382077877075062e-09
1.308000000000000000e+03 5.881131291389465332e-01 -1.207686710357666016e+01 -3.277130963397212327e-05 -5.279852643980120774e-07 -9.989788850361946970e-06 -1.301761358263320290e-06
1.309000000000000000e+03 1.764014720916748047e+00 -1.202144336700439453e+01 2.545280040067154914e-05 2.622524789330782369e-06 8.422597602475434542e-06 6.616887162635975983e-07
1.310000000000000000e+03 1.686346769332885742e+00 -6.437871932983398438e+00 2.427979597996454686e-05 8.916393881008843891e-07 7.551430371677270159e-06 1.836147248468478210e-06
1.311000000000000000e+03 2.951094388961791992e+00 -2.940098762512207031e+00 -1.022107608150690794e-05 -1.198000063595827669e-05 -6.660322924290085211e-06 7.370985713350819424e-06
1.312000000000000000e+03 3.137895345687866211e+00 -4.188046932220458984e+00 -1.724311186990235001e-05 -6.585451046703383327e-06 -7.148569238779600710e-06 -9.438839697395451367e-06
1.313000000000000000e+03 1.528719186782836914e+00 -3.012995719909667969e+00 -9.615502676751930267e-06 -7.752429155516438186e-06 -5.210379640629980713e-06 1.709076400402409490e-06
1.314000000000000000e+03 5.269180536270141602e-01 4.957095623016357422e+00 -3.100971225649118423e-03 -4.488551616668701172e-02 -1.439594570547342300e-02 1.770141720771789551e-02
1.315000000000000000e+03 6.451741695404052734e+00 4.250330924987792969e+00 -1.281718015670776367e-01 -1.509340554475784302e-01 -8.373175561428070068e-02 2.237457484006881714e-01
1.316000000000000000e+03 1.793803453445434570e+00 1.054330730438232422e+01 1.862339326180517673e-03 -3.169194757938385010e-01 -9.451714158058166504e-02 8.862331509590148926e-02
1.317000000000000000e+03 6.027024388313293457e-01 1.064219093322753906e+01 4.883750225417315960e-04 -3.198461830615997314e-01 -9.580733627080917358e-02 3.148374333977699280e-02
1.318000000000000000e+03 1.886120319366455078e+00 1.342994594573974609e+01 6.014966405928134918e-03 -4.321183562278747559e-01 -1.278310120105743408e-01 7.946016639471054077e-02
1.319000000000000000e+03 1.969331383705139160e+00 1.916717338562011719e+01 6.856589578092098236e-03 -5.926946401596069336e-01 -1.757514178752899170e-01 4.319933429360389709e-02
1.320000000000000000e+03 2.045163154602050781e+00 2.479560661315917969e+01 4.190898500382900238e-03 -6.600733995437622070e-01 -1.967647522687911987e-01 1.403829455375671387e-02
1.321000000000000000e+03 1.934819602966308594e+01 -1.147238636016845703e+01 -3.832883521681651473e-06 -5.855682047695154324e-06 -2.906569534388836473e-06 1.162752027994429227e-06
1.322000000000000000e+03 1.302227020263671875e+01 -1.312757301330566406e+01 -1.470725146646145731e-05 -1.609986793482676148e-05 -9.242136002285405993e-06 1.363693900202633813e-05
1.323000000000000000e+03 5.370466995239257812e+01 -3.802713775634765625e+01 -5.993937253952026367e-01 2.424987792968750000e+00 5.476781725883483887e-01 1.759523898363113403e-01
1.324000000000000000e+03 1.099439239501953125e+01 -1.454058933258056641e+01 -1.352776052954141051e-05 -2.896620753745082766e-05 -1.274819078389555216e-05 8.845188858686015010e-06
1.325000000000000000e+03 5.805318832397460938e+01 -2.046231269836425781e+01 -7.419220209121704102e-01 6.516282558441162109e+00 1.732308149337768555e+00 1.978640913963317871e+00
1.326000000000000000e+03 5.727034378051757812e+01 -2.073932838439941406e+01 -6.918317675590515137e-01 4.654304504394531250e+00 1.188741803169250488e+00 2.735433578491210938e+00
1.327000000000000000e+03 5.663850021362304688e+01 -2.099895477294921875e+01 -7.191536426544189453e-01 3.524166345596313477e+00 8.415037393569946289e-01 2.535545587539672852e+00
1.328000000000000000e+03 5.795518875122070312e+01 -2.021516227722167969e+01 -4.062169194221496582e-01 6.490392684936523438e+00 1.825252771377563477e+00 2.277818441390991211e+00
1.329000000000000000e+03 5.790116882324218750e+01 -1.989279556274414062e+01 -2.468260973691940308e-01 7.229712009429931641e+00 2.094865798950195312e+00 2.518813610076904297e+00
1.330000000000000000e+03 5.891156387329101562e+01 -2.028812026977539062e+01 3.649451136589050293e-01 6.036797523498535156e+00 1.920522809028625488e+00 3.313641548156738281e-01
1.331000000000000000e+03 5.669271087646484375e+01 -1.657942581176757812e+01 -8.755785971879959106e-02 1.843902915716171265e-01 2.904973179101943970e-02 -7.819813251495361328e+00
1.332000000000000000e+03 5.626230621337890625e+01 -1.675396728515625000e+01 2.250112295150756836e+00 -4.681341946125030518e-01 5.345934033393859863e-01 -7.878787040710449219e+00
1.333000000000000000e+03 5.640750122070312500e+01 -1.684472084045410156e+01 1.139359951019287109e+00 -6.507689356803894043e-01 1.465772837400436401e-01 -8.582365989685058594e+00
1.334000000000000000e+03 5.507071685791015625e+01 -1.709252738952636719e+01 6.082159280776977539e-01 3.543034791946411133e+00 1.245375156402587891e+00 -4.304603099822998047e+00
1.335000000000000000e+03 5.545067977905273438e+01 -1.665482139587402344e+01 5.167489051818847656e+00 4.866609096527099609e+00 3.010229587554931641e+00 -6.878614425659179688e+00
1.336000000000000000e+03 5.465491867065429688e+01 -2.141959571838378906e+01 -9.569354653358459473e-01 1.449234008789062500e+00 1.476895511150360107e-01 1.096031188964843750e+00
1.337000000000000000e+03 5.570957565307617188e+01 -2.132774925231933594e+01 -7.636531591415405273e-01 2.209254741668701172e+00 4.336804449558258057e-01 1.841870784759521484e+00
1.338000000000000000e+03 4.155789947509765625e+01 -1.917907333374023438e+01 -1.870782017707824707e+00 2.938388288021087646e-01 -4.730829298496246338e-01 6.218877434730529785e-01
1.339000000000000000e+03 5.352979278564453125e+01 -2.174267387390136719e+01 -1.080971240997314453e+00 9.352911114692687988e-01 -4.370402172207832336e-02 4.402863979339599609e-01
1.340000000000000000e+03 5.244858169555664062e+01 -2.285007286071777344e+01 -6.466454267501831055e-01 9.741741418838500977e-01 9.825862944126129150e-02 4.345438629388809204e-02
1.341000000000000000e+03 5.152338027954101562e+01 -2.228891181945800781e+01 -1.004163146018981934e+00 3.967263102531433105e-01 -1.822310388088226318e-01 -3.175869882106781006e-01
1.342000000000000000e+03 5.379000091552734375e+01 -2.235118484497070312e+01 -7.838588356971740723e-01 1.436492085456848145e+00 1.957899928092956543e-01 7.030051350593566895e-01
1.343000000000000000e+03 1.613349342346191406e+01 -9.768482208251953125e+00 -2.359125346629298292e-06 3.717793106261524372e-06 4.076003676800610265e-07 7.291363885997270700e-07
1.344000000000000000e+03 1.674065780639648438e+01 -7.727335929870605469e+00 -7.476230621250579134e-06 -2.870136086130514741e-06 -3.103909875790122896e-06 -2.414924892946146429e-06
1.345000000000000000e+03 5.425886154174804688e+01 -2.204145622253417969e+01 -8.505264520645141602e-01 1.508889555931091309e+00 1.975089162588119507e-01 9.372179508209228516e-01
1.346000000000000000e+03 1.398852157592773438e+01 -6.353668212890625000e+00 -7.519795872212853283e-06 -2.611710669953026809e-06 -3.039451939912396483e-06 1.396013772136939224e-06
1.347000000000000000e+03 1.859846496582031250e+01 -1.088410854339599609e+01 3.475956191323348321e-06 1.298318966291844845e-05 4.937743597110966220e-06 2.146918420820043139e-09
1.348000000000000000e+03 1.679838752746582031e+01 -6.895941734313964844e+00 -6.709216449962696061e-06 -3.938545432902174070e-06 -3.194328655808931217e-06 -2.392309852439211681e-06
1.349000000000000000e+03 1.884331321716308594e+01 -9.653957366943359375e+00 1.351841206087556202e-06 9.923720426741056144e-06 3.382668637641472742e-06 2.320008661627070978e-06
1.350000000000000000e+03 4.585548782348632812e+01 -2.370981025695800781e+01 -3.043389618396759033e-01 -3.948318064212799072e-01 -2.097512334585189819e-01 -8.730918169021606445e-01
1.351000000000000000e+03 4.754029846191406250e+01 -2.388348388671875000e+01 -3.039641380310058594e-01 -2.180981785058975220e-01 -1.566186994314193726e-01 -9.134462475776672363e-01
1.352000000000000000e+03 4.231837463378906250e+01 -1.897399139404296875e+01 -1.867345333099365234e+00 3.545096516609191895e-01 -4.538507163524627686e-01 6.412758827209472656e-01
1.353000000000000000e+03 1.490363693237304688e+01 -6.121847152709960938e+00 -7.498270861105993390e-06 -2.634619477248634212e-06 -3.039867124243755825e-06 -1.401108420395758003e-06
1.354000000000000000e+03 1.476229381561279297e+01 -5.251832008361816406e+00 -7.016024937911424786e-06 -3.244291519877151586e-06 -3.078095005548675545e-06 -1.477993237131158821e-06
1.355000000000000000e+03 1.435949039459228516e+01 -5.780891418457031250e+00 7.531832125096116215e-06 3.000714286827133037e-06 3.159763764415401965e-06 6.168269006678883670e-09
1.356000000000000000e+03 1.767367744445800781e+01 -7.880701541900634766e+00 -5.192344815441174433e-06 -4.385440206533530727e-06 -2.873335461117676459e-06 -4.119368441024562344e-06
1.357000000000000000e+03 1.119884872436523438e+01 -3.277616262435913086e+00 -1.367709387523063924e-06 -9.312317160947714001e-06 -3.204007953172549605e-06 1.521765966572274920e-06
1.358000000000000000e+03 1.261896133422851562e+01 -4.818244457244873047e+00 -6.137438504083547741e-06 -6.036003469489514828e-06 -3.652032773970859125e-06 2.572792936916812323e-06
1.359000000000000000e+03 1.184343910217285156e+01 -3.575367689132690430e+00 2.361268798267701641e-06 1.013394739857176319e-05 3.748564722627634183e-06 -1.791748445612029172e-06
1.360000000000000000e+03 1.089773559570312500e+01 -3.908938646316528320e+00 1.728871893647010438e-06 9.311623216490261257e-06 3.312148464829078875e-06 -1.401145823365368415e-06
1.361000000000000000e+03 1.773678779602050781e+01 -9.398790359497070312e+00 4.025730504508828744e-06 5.998882897984003648e-06 3.007383838848909363e-06 4.682623057306045666e-06
1.362000000000000000e+03 1.843934059143066406e+01 -9.029062271118164062e+00 -2.588901679700938985e-06 -7.446519248333061114e-06 -3.010626187460729852e-06 -4.697000804299023002e-06
1.363000000000000000e+03 1.742993164062500000e+01 -8.770810127258300781e+00 -4.780289600603282452e-06 -4.353186795924557373e-06 -2.740042873483616859e-06 -4.848409844271373004e-06
1.364000000000000000e+03 1.516997718811035156e+01 -1.144375514984130859e+01 8.129927664413116872e-06 -6.486823622253723443e-06 4.929312922286044341e-07 -6.580598324035236146e-07
1.365000000000000000e+03 8.127552032470703125e+00 -4.241181373596191406e+00 2.661023927430505864e-06 -4.994601113139651716e-06 -7.000732011874788441e-07 3.295822807558579370e-06
1.366000000000000000e+03 1.026400947570800781e+01 -3.702799081802368164e+00 -3.319540383017738350e-06 -6.773979748686542735e-06 -3.028055971299181692e-06 2.161885959139908664e-06
1.367000000000000000e+03 4.436786270141601562e+01 -2.419740486145019531e+01 -1.346450448036193848e-01 -5.884207487106323242e-01 -2.169197350740432739e-01 -7.310647964477539062e-01
1.368000000000000000e+03 4.452951812744140625e+01 -2.565395164489746094e+01 -6.481204926967620850e-02 -7.999758124351501465e-01 -2.594363391399383545e-01 -8.473557829856872559e-01
1.369000000000000000e+03 4.939789962768554688e+01 -2.339341926574707031e+01 -4.522460997104644775e-01 9.109342843294143677e-02 -1.083457991480827332e-01 -7.450937628746032715e-01
1.370000000000000000e+03 4.688904190063476562e+01 -2.411647224426269531e+01 -2.369698286056518555e-01 -2.890915870666503906e-01 -1.578184217214584351e-01 -9.268975257873535156e-01
1.371000000000000000e+03 5.263610076904296875e+01 -1.681919097900390625e+01 5.478608012199401855e-01 1.559799075126647949e+00 6.322979927062988281e-01 -7.276764512062072754e-01
1.372000000000000000e+03 5.223457717895507812e+01 -1.617125892639160156e+01 1.804355859756469727e+00 1.653691530227661133e+00 1.037414193153381348e+00 -7.659161090850830078e-01
1.373000000000000000e+03 5.567965030670166016e+00 2.665091037750244141e+00 -1.298370808362960815e-01 -6.035589426755905151e-02 -5.705789476633071899e-02 1.297294050455093384e-01
1.374000000000000000e+03 3.345489978790283203e+00 2.868924617767333984e+00 -5.231867358088493347e-02 -4.788286611437797546e-02 -3.006046265363693237e-02 6.099312752485275269e-02
1.375000000000000000e+03 4.083637714385986328e+00 2.792952299118041992e+00 -7.480530440807342529e-02 -5.035131797194480896e-02 -3.754698857665061951e-02 8.111764490604400635e-02
1.376000000000000000e+03 5.629406452178955078e+00 3.462221622467041016e+00 -1.274248957633972168e-01 -9.421037882566452026e-02 -6.649058312177658081e-02 1.656083166599273682e-01
1.377000000000000000e+03 9.090726852416992188e+00 3.317284584045410156e+00 -2.314072996377944946e-01 -2.279700040817260742e-01 -1.378131955862045288e-01 3.265211582183837891e-01
1.378000000000000000e+03 7.054455757141113281e+00 3.345830440521240234e+00 -1.771542876958847046e-01 -1.264205127954483032e-01 -9.107244014739990234e-02 2.261416763067245483e-01
1.379000000000000000e+03 6.296525478363037109e+00 2.629653692245483398e+00 -1.649200469255447388e-01 -7.145028561353683472e-02 -7.091110199689865112e-02 1.606923937797546387e-01
1.380000000000000000e+03 1.907855987548828125e+00 2.951613903045654297e+00 -2.476872876286506653e-02 -3.343687579035758972e-02 -1.746168173849582672e-02 2.954404056072235107e-02
1.381000000000000000e+03 5.077559280395507812e+01 -2.244329833984375000e+01 -9.542418718338012695e-01 2.199328094720840454e-01 -2.202927172183990479e-01 -5.325176119804382324e-01
1.382000000000000000e+03 9.956631660461425781e+00 2.791100978851318359e+00 -2.891840040683746338e-01 -2.701284885406494141e-01 -1.677937507629394531e-01 3.528133332729339600e-01
1.383000000000000000e+03 5.000132369995117188e+01 -1.471959972381591797e+01 2.511792659759521484e+00 1.034406065940856934e+00 1.063859701156616211e+00 -6.329782605171203613e-01
1.384000000000000000e+03 2.626783943176269531e+01 -1.002085208892822266e+01 -6.075550913810729980e-01 -4.883055686950683594e-01 -3.287582099437713623e-01 6.860178112983703613e-01
1.385000000000000000e+03 2.747401428222656250e+01 -1.386513423919677734e+01 -4.923920929431915283e-01 -2.934425175189971924e-01 -2.357503920793533325e-01 5.988211631774902344e-01
1.386000000000000000e+03 2.704148674011230469e+01 -1.138116073608398438e+01 -5.776889324188232422e-01 -3.796902596950531006e-01 -2.872137427330017090e-01 6.917928457260131836e-01
1.387000000000000000e+03 2.665953063964843750e+01 -1.070191287994384766e+01 -5.916368365287780762e-01 -4.349334836006164551e-01 -3.079710900783538818e-01 6.886379122734069824e-01
1.388000000000000000e+03 2.780093002319335938e+01 -1.274608898162841797e+01 -5.577204823493957520e-01 -2.881292700767517090e-01 -2.537549436092376709e-01 6.721310019493103027e-01
1.389000000000000000e+03 2.942245483398437500e+01 -1.545916938781738281e+01 -6.913751363754272461e-01 -1.392869055271148682e-01 -2.491986006498336792e-01 4.983949959278106689e-01
1.390000000000000000e+03 3.067169952392578125e+01 -1.513422393798828125e+01 -8.005585074424743652e-01 -8.694130927324295044e-02 -2.662499547004699707e-01 5.683469176292419434e-01
1.391000000000000000e+03 5.169495391845703125e+01 -2.302908134460449219e+01 -5.764272212982177734e-01 7.020609974861145020e-01 3.769014775753021240e-02 -2.379274219274520874e-01
1.392000000000000000e+03 5.012600708007812500e+01 -2.337886810302734375e+01 -4.429070055484771729e-01 2.465824931859970093e-01 -5.889735370874404907e-02 -6.395016908645629883e-01
1.393000000000000000e+03 5.363928222656250000e+01 -2.414161109924316406e+01 -1.583342403173446655e-01 2.313493013381958008e+00 6.465476751327514648e-01 5.204055905342102051e-01
1.394000000000000000e+03 5.167131805419921875e+01 -1.558343219757080078e+01 3.135267972946166992e+00 1.557784080505371094e+00 1.407915592193603516e+00 -9.522619843482971191e-01
1.395000000000000000e+03 4.968399429321289062e+01 -1.652723312377929688e+01 -5.284022092819213867e-01 4.418746531009674072e-01 -2.595826238393783569e-02 7.634703516960144043e-01
1.396000000000000000e+03 4.676863479614257812e+01 -1.698394012451171875e+01 -1.405122876167297363e+00 2.253984361886978149e-01 -3.539173305034637451e-01 8.541604280471801758e-01
1.397000000000000000e+03 4.461114501953125000e+01 -1.844948959350585938e+01 -2.147147893905639648e+00 3.690150380134582520e-01 -5.334398746490478516e-01 6.663056612014770508e-01
1.398000000000000000e+03 4.837615585327148438e+01 -1.679243850708007812e+01 -1.107147812843322754e+00 2.856397926807403564e-01 -2.464524060487747192e-01 8.501524925231933594e-01
1.399000000000000000e+03 6.136505508422851562e+01 -1.961431503295898438e+01 2.624630212783813477e+00 7.704577445983886719e-01 1.018526434898376465e+00 2.644068896770477295e-01
1.400000000000000000e+03 4.378914260864257812e+01 -1.790757751464843750e+01 -1.876922607421875000e+00 4.140159785747528076e-01 -4.388720095157623291e-01 7.431734800338745117e-01
1.401000000000000000e+03 4.512752914428710938e+01 -1.752091217041015625e+01 -1.763036012649536133e+00 3.244748413562774658e-01 -4.315683543682098389e-01 8.003122806549072266e-01
1.402000000000000000e+03 4.211872482299804688e+01 -1.736024856567382812e+01 -1.622292995452880859e+00 3.099832534790039062e-01 -3.936929106712341309e-01 6.423501372337341309e-01
1.403000000000000000e+03 4.015787506103515625e+01 -1.772721099853515625e+01 -1.817529082298278809e+00 -1.081585139036178589e-01 -5.777062773704528809e-01 5.535420775413513184e-01
1.404000000000000000e+03 4.218841552734375000e+01 -1.818185043334960938e+01 -1.881256818771362305e+00 3.826350569725036621e-01 -4.495865106582641602e-01 6.593206524848937988e-01
1.405000000000000000e+03 4.352057266235351562e+01 -2.682198715209960938e+01 -1.015364304184913635e-01 -1.311575889587402344e+00 -4.239336848258972168e-01 -7.446737885475158691e-01
1.406000000000000000e+03 2.501540565490722656e+01 -7.975900650024414062e+00 -6.426362395286560059e-01 -6.437086462974548340e-01 -3.859034776687622070e-01 6.606260538101196289e-01
1.407000000000000000e+03 2.412257385253906250e+01 -5.460244178771972656e+00 -5.922567844390869141e-01 -6.529155373573303223e-01 -3.735516965389251709e-01 5.723170638084411621e-01
1.408000000000000000e+03 2.307894706726074219e+01 -5.290545940399169922e+00 -6.508203744888305664e-01 -7.810767292976379395e-01 -4.295691251754760742e-01 6.278839707374572754e-01
1.409000000000000000e+03 1.645282363891601562e+01 -3.263847231864929199e-01 -6.212661266326904297e-01 -6.604066491127014160e-01 -3.845018148422241211e-01 5.866265892982482910e-01
1.410000000000000000e+03 1.399012184143066406e+01 1.960258483886718750e+00 -3.788139224052429199e-01 -5.092642903327941895e-01 -2.664234638214111328e-01 4.634336829185485840e-01
1.411000000000000000e+03 1.713344573974609375e+01 -7.833670377731323242e-01 -6.476094722747802734e-01 -7.082661390304565430e-01 -4.067626893520355225e-01 6.114020943641662598e-01
1.412000000000000000e+03 1.656889533996582031e+01 1.277014851570129395e+00 -3.638018965721130371e-01 -6.388335824012756348e-01 -3.007906377315521240e-01 4.836490452289581299e-01
1.413000000000000000e+03 1.282684326171875000e+01 1.715746879577636719e+00 -4.446794986724853516e-01 -4.268121421337127686e-01 -2.614474892616271973e-01 4.424521327018737793e-01
1.414000000000000000e+03 1.908729553222656250e+01 -2.263316869735717773e+00 -7.015954256057739258e-01 -8.271244168281555176e-01 -4.586159288883209229e-01 6.617917418479919434e-01
1.415000000000000000e+03 2.090641403198242188e+01 -3.932486772537231445e+00 -7.266223430633544922e-01 -8.922311067581176758e-01 -4.856560528278350830e-01 6.943268775939941406e-01
1.416000000000000000e+03 2.138333702087402344e+01 -3.414004564285278320e+00 -6.270461678504943848e-01 -8.165090680122375488e-01 -4.330665767192840576e-01 6.066890358924865723e-01
1.417000000000000000e+03 2.196954917907714844e+01 -4.019742012023925781e+00 -6.382691860198974609e-01 -8.112698197364807129e-01 -4.348616898059844971e-01 6.133682131767272949e-01
1.418000000000000000e+03 1.887585639953613281e+01 -1.199432969093322754e+00 -5.621420145034790039e-01 -7.670694589614868164e-01 -3.987634479999542236e-01 5.750306248664855957e-01
1.419000000000000000e+03 1.821704483032226562e+01 -7.001726627349853516e-01 -5.436604022979736328e-01 -7.388536334037780762e-01 -3.847542107105255127e-01 5.650920867919921875e-01
1.420000000000000000e+03 1.754355239868164062e+01 -2.192985713481903076e-01 -5.204949975013732910e-01 -7.066839933395385742e-01 -3.681536912918090820e-01 5.524200201034545898e-01
1.421000000000000000e+03 1.108081817626953125e+01 -4.787144660949707031e+00 1.523645778434001841e-07 1.579471972945611924e-05 4.784125394508009776e-06 -1.092371803679270670e-06
1.422000000000000000e+03 5.915563106536865234e+00 -2.717810869216918945e+00 2.491668738002772443e-06 4.150294898863648996e-06 1.992588977373088710e-06 5.574152964982204139e-06
1.423000000000000000e+03 6.632381916046142578e+00 -3.529453992843627930e+00 -8.218419793593056966e-07 5.848383352713426575e-06 1.507962451796629466e-06 3.332226697239093482e-06
1.424000000000000000e+03 4.351094245910644531e+00 -2.703014135360717773e+00 1.116994826588779688e-05 -3.115426352451322600e-06 2.416356664980412461e-06 7.955894943734165281e-06
1.425000000000000000e+03 5.824842929840087891e+00 -3.556758403778076172e+00 -9.464081927035294939e-07 -5.450974640552885830e-06 -1.919214810186531395e-06 -6.329536972771165892e-06
1.426000000000000000e+03 5.751726627349853516e+00 -4.430521965026855469e+00 -1.349651824966713320e-06 6.455270977312466130e-06 1.531685711597674526e-06 5.112303824716946110e-06
1.427000000000000000e+03 3.849419116973876953e+00 -7.721283435821533203e+00 -6.126409971329849213e-06 -1.594800210114044603e-06 -2.316363179488689639e-06 -3.785516128118615597e-06
1.428000000000000000e+03 5.121170997619628906e+00 -2.717998027801513672e+00 -5.495733148563886061e-06 -1.453751224289590027e-06 -2.084845164063153788e-06 -7.273621577041922137e-06
1.429000000000000000e+03 7.422698974609375000e+00 -3.494635343551635742e+00 1.552505864310660399e-06 -6.429690529330400750e-06 -1.463155399505922105e-06 -4.368913550933939405e-07
1.430000000000000000e+03 2.251667499542236328e+00 -3.745221376419067383e+00 2.013400626310613006e-05 1.035909190250094980e-05 9.147929631581064314e-06 -2.536860392865492031e-06
1.431000000000000000e+03 1.796029925346374512e+00 -5.030280590057373047e+00 -2.287315328430850059e-05 -6.462231340265134349e-06 -8.800615432846825570e-06 2.200789367634570226e-06
1.432000000000000000e+03 4.587465667724609375e+01 -1.718680191040039062e+01 -1.580270409584045410e+00 2.468673139810562134e-01 -4.000209271907806396e-01 8.366095423698425293e-01
1.433000000000000000e+03 1.252415466308593750e+01 2.796324014663696289e+00 -2.985008955001831055e-01 -4.319610893726348877e-01 -2.191386073827743530e-01 4.190697371959686279e-01
1.434000000000000000e+03 1.185886192321777344e+01 3.217405080795288086e+00 -2.564887702465057373e-01 -4.065451622009277344e-01 -1.989101767539978027e-01 4.099623858928680420e-01
1.435000000000000000e+03 1.130288314819335938e+01 2.574154376983642578e+00 -3.309360742568969727e-01 -3.535258173942565918e-01 -2.053385674953460693e-01 3.905659019947052002e-01
1.436000000000000000e+03 9.779044151306152344e+00 -2.839576482772827148e+00 -1.651706156735599507e-06 -8.718770004634279758e-06 -3.111142859779647551e-06 1.414589405612787232e-06
1.437000000000000000e+03 2.456267547607421875e+01 -7.291216850280761719e+00 -6.491335630416870117e-01 -6.883488893508911133e-01 -4.012447297573089600e-01 6.525836586952209473e-01
1.438000000000000000e+03 2.408709335327148438e+01 -6.611460208892822266e+00 -6.524115204811096191e-01 -7.253386974334716797e-01 -4.133250415325164795e-01 6.437389254570007324e-01
1.439000000000000000e+03 2.253725433349609375e+01 -4.647715568542480469e+00 -6.456261873245239258e-01 -8.003363609313964844e-01 -4.337887763977050781e-01 6.203089356422424316e-01
1.440000000000000000e+03 2.015952301025390625e+01 -2.265578508377075195e+00 -5.992064476013183594e-01 -8.050129413604736328e-01 -4.212658107280731201e-01 5.921553373336791992e-01
1.441000000000000000e+03 1.952301597595214844e+01 -1.720381021499633789e+00 -5.831109285354614258e-01 -7.886309623718261719e-01 -4.115225672721862793e-01 5.844768285751342773e-01
1.442000000000000000e+03 1.472695732116699219e+01 1.543293118476867676e+00 -4.144954979419708252e-01 -5.480113625526428223e-01 -2.887520790100097656e-01 4.853284060955047607e-01
1.443000000000000000e+03 8.910171508789062500e+00 -3.488874912261962891e+00 -7.757325874990783632e-07 -7.006278792687226087e-06 -2.334603550480096601e-06 3.660848278741468675e-06
1.444000000000000000e+03 6.056147003173828125e+01 -1.928215217590332031e+01 3.811638593673706055e+00 1.547354936599731445e+00 1.607698082923889160e+00 4.310415312647819519e-02
1.445000000000000000e+03 1.121070861816406250e+01 -1.290804386138916016e+01 -1.450517356715863571e-05 -2.054856668110005558e-05 -1.051612252922495827e-05 8.682527550263330340e-06
1.446000000000000000e+03 8.948687553405761719e+00 -1.620051765441894531e+01 -2.566982402640860528e-05 3.966191070503555238e-05 4.197626367385964841e-06 1.819573299144394696e-06
1.447000000000000000e+03 7.259275054931640625e+01 1.267415904998779297e+01 -2.869825363159179688e-01 8.889006614685058594e+00 2.580607175827026367e+00 1.382848769426345825e-01
1.448000000000000000e+03 3.004411888122558594e+01 -1.598898696899414062e+01 -7.669568657875061035e-01 -1.181121543049812317e-01 -2.655207216739654541e-01 4.487378299236297607e-01
1.449000000000000000e+03 3.305467605590820312e+01 -1.680147361755371094e+01 -1.253822803497314453e+00 -9.247528389096260071e-03 -3.789210915565490723e-01 4.485328197479248047e-01
1.450000000000000000e+03 3.223542785644531250e+01 -1.561696815490722656e+01 -9.981607794761657715e-01 -5.586312711238861084e-02 -3.162071704864501953e-01 5.713744163513183594e-01
1.451000000000000000e+03 2.961990737915039062e+01 -1.427929878234863281e+01 -6.573362946510314941e-01 -1.657515168190002441e-01 -2.469263523817062378e-01 6.118195652961730957e-01
1.452000000000000000e+03 2.538872718811035156e+01 -3.438779830932617188e+01 2.176722744479775429e-03 -3.950285725295543671e-03 -5.320688942447304726e-04 -9.570805123075842857e-04
1.453000000000000000e+03 3.425098800659179688e+01 -1.690126609802246094e+01 -1.494668364524841309e+00 -7.624947279691696167e-02 -4.712753295898437500e-01 4.938712418079376221e-01
1.454000000000000000e+03 2.830348014831542969e+01 -3.622249221801757812e+01 -1.847141422331333160e-02 -2.168586477637290955e-02 -1.204718369990587234e-02 -2.261324413120746613e-02
1.455000000000000000e+03 4.494699859619140625e+01 -3.473152399063110352e+00 5.149545073509216309e-01 1.901258230209350586e+00 7.248638272285461426e-01 -1.077061414718627930e+00
1.456000000000000000e+03 4.493817901611328125e+01 -7.068601250648498535e-01 4.499669075012207031e-01 2.070087432861328125e+00 7.560163140296936035e-01 -1.068830013275146484e+00
1.457000000000000000e+03 4.479816055297851562e+01 2.196451425552368164e+00 5.327112674713134766e-01 2.235632419586181641e+00 8.305031061172485352e-01 -1.133770465850830078e+00
1.458000000000000000e+03 4.933332061767578125e+01 -8.897428512573242188e+00 7.892881631851196289e-01 3.271101951599121094e+00 1.218116998672485352e+00 -1.608659505844116211e+00
1.459000000000000000e+03 4.844213485717773438e+01 -1.145146369934082031e+01 1.875064730644226074e+00 1.863350272178649902e+00 1.121524453163146973e+00 -1.550031781196594238e+00
1.460000000000000000e+03 2.841492843627929688e+01 -3.383119964599609375e+01 1.055634813383221626e-03 -6.289537530392408371e-03 -1.570170745253562927e-03 -6.800801493227481842e-03
1.461000000000000000e+03 4.546250104904174805e-01 3.526968479156494141e+00 -3.752991091459989548e-03 -7.701312191784381866e-03 -3.436290891841053963e-03 8.640339598059654236e-03
1.462000000000000000e+03 2.745279312133789062e+01 -3.517816925048828125e+01 -9.589981287717819214e-03 -8.788131177425384521e-03 -5.513433832675218582e-03 -9.142487309873104095e-03
1.463000000000000000e+03 7.130554962158203125e+01 7.488976478576660156e+00 4.019667208194732666e-01 1.028256988525390625e+01 3.205361127853393555e+00 3.519418090581893921e-02
1.464000000000000000e+03 7.707817840576171875e+01 1.146445655822753906e+01 -7.695955038070678711e-02 7.216815948486328125e+00 2.141957044601440430e+00 3.365206122398376465e-01
1.465000000000000000e+03 4.898231887817382812e+01 -7.611344814300537109e+00 6.557990312576293945e-01 3.084044456481933594e+00 1.121953129768371582e+00 -1.432672023773193359e+00
1.466000000000000000e+03 4.813441848754882812e+01 -9.035609245300292969e+00 1.011253595352172852e+00 2.554728507995605469e+00 1.069794654846191406e+00 -1.582824230194091797e+00
1.467000000000000000e+03 4.296549224853515625e+01 2.712054061889648438e+01 1.650193147361278534e-02 1.159055709838867188e+00 3.526673018932342529e-01 1.789263188838958740e-01
1.468000000000000000e+03 6.808769226074218750e+01 -1.926559066772460938e+01 3.463573455810546875e-01 1.405552506446838379e+00 5.255729556083679199e-01 -8.576909899711608887e-01
1.469000000000000000e+03 5.827184295654296875e+01 -2.425400733947753906e+01 -6.504908204078674316e-01 3.928164720535278320e+00 9.833021759986877441e-01 1.899332642555236816e+00
1.470000000000000000e+03 4.302883148193359375e+01 2.855796098709106445e+00 4.831329882144927979e-01 2.216976165771484375e+00 8.100327253341674805e-01 -9.688202142715454102e-01
1.471000000000000000e+03 4.702558135986328125e+01 -5.402045726776123047e+00 5.703552365303039551e-01 2.286707162857055664e+00 8.571187257766723633e-01 -1.231593489646911621e+00
1.472000000000000000e+03 3.442399978637695312e+01 -1.583483028411865234e+01 -1.265053868293762207e+00 -1.361285001039505005e-01 -4.203547239303588867e-01 6.646770238876342773e-01
1.473000000000000000e+03 3.329239654541015625e+01 -1.573098754882812500e+01 -1.126895666122436523e+00 -8.993225544691085815e-02 -3.650483787059783936e-01 6.143068671226501465e-01
1.474000000000000000e+03 7.251585388183593750e+01 6.135471343994140625e+00 3.677996397018432617e-01 9.809054374694824219e+00 3.053056001663208008e+00 2.750805914402008057e-01
1.475000000000000000e+03 4.608347320556640625e+01 -2.604062080383300781e+01 7.067502290010452271e-02 -4.435345828533172607e-01 -1.118578687310218811e-01 -8.207365870475769043e-01
1.476000000000000000e+03 7.307714843750000000e+01 -2.710198211669921875e+01 1.207056403160095215e+00 1.056819057464599609e+01 3.532573938369750977e+00 -6.562633067369461060e-02
1.477000000000000000e+03 1.013102531433105469e+01 -3.184733963012695312e+01 1.682100584730505943e-03 -3.898707509506493807e-04 3.876689297612756491e-04 8.616037666797637939e-04
1.478000000000000000e+03 4.745050811767578125e+01 -6.603393077850341797e+00 6.778212785720825195e-01 2.403121471405029297e+00 9.242828488349914551e-01 -1.321554183959960938e+00
1.479000000000000000e+03 7.157956695556640625e+01 1.833621621131896973e+00 8.160484433174133301e-01 1.050054550170898438e+01 3.394978046417236328e+00 6.143841147422790527e-01
1.480000000000000000e+03 7.797557067871093750e+01 -3.571817398071289062e+01 -1.887984424829483032e-01 8.952050209045410156e+00 2.628975391387939453e+00 -2.639995813369750977e-01
1.481000000000000000e+03 7.456602478027343750e+01 -3.687823867797851562e+01 -4.027356505393981934e-01 7.140881061553955078e+00 2.021443605422973633e+00 -2.637781500816345215e-01
1.482000000000000000e+03 7.283847808837890625e+01 -3.173391914367675781e+01 -6.589680314064025879e-01 7.349738121032714844e+00 2.007230997085571289e+00 -4.141419827938079834e-01
1.483000000000000000e+03 7.711479187011718750e+01 1.813275527954101562e+01 1.253240928053855896e-02 7.509869575500488281e+00 2.256720542907714844e+00 2.200764268636703491e-01
1.484000000000000000e+03 7.787860870361328125e+01 3.579397201538085938e+01 -1.450060158967971802e-01 9.246086120605468750e+00 2.730324029922485352e+00 1.355271637439727783e-01
1.485000000000000000e+03 7.615543365478515625e+01 3.329066467285156250e+01 -2.037993967533111572e-01 8.307332992553710938e+00 2.431060075759887695e+00 4.389260411262512207e-01
1.486000000000000000e+03 7.707745361328125000e+01 -2.438889312744140625e+01 4.492129087448120117e-01 7.506610393524169922e+00 2.386746883392333984e+00 2.140884846448898315e-01
1.487000000000000000e+03 7.819583892822265625e+01 -2.909437942504882812e+01 1.009289324283599854e-01 7.566156387329101562e+00 2.300125598907470703e+00 -6.552883386611938477e-01
1.488000000000000000e+03 7.467267608642578125e+01 -2.952582550048828125e+01 4.910068213939666748e-01 8.532470703125000000e+00 2.707043170928955078e+00 -9.805589914321899414e-01
1.489000000000000000e+03 7.842264556884765625e+01 -2.212351036071777344e+01 4.696233198046684265e-02 7.213871955871582031e+00 2.178250312805175781e+00 4.466764926910400391e-01
1.490000000000000000e+03 7.464834594726562500e+01 -2.344514083862304688e+01 8.339293003082275391e-01 8.564908027648925781e+00 2.819651126861572266e+00 2.559591531753540039e-01
1.491000000000000000e+03 7.804912567138671875e+01 -2.763202095031738281e+01 2.304191440343856812e-01 7.322140216827392578e+00 2.265767812728881836e+00 -5.083579421043395996e-01
1.492000000000000000e+03 7.685443115234375000e+01 -3.539413070678710938e+01 -4.222099781036376953e-01 8.561483383178710938e+00 2.441781997680664062e+00 -4.373201131820678711e-01
1.493000000000000000e+03 7.687143707275390625e+01 -3.433029937744140625e+01 -3.112220168113708496e-01 8.480002403259277344e+00 2.450634002685546875e+00 -5.823509097099304199e-01
1.494000000000000000e+03 7.458530426025390625e+01 -3.259498214721679688e+01 -7.331560254096984863e-01 7.933209896087646484e+00 2.160016059875488281e+00 -8.675947785377502441e-01
1.495000000000000000e+03 7.825719451904296875e+01 2.246848487854003906e+01 3.228390961885452271e-02 7.602038860321044922e+00 2.290296792984008789e+00 2.615577280521392822e-01
1.496000000000000000e+03 7.699427032470703125e+01 1.960374641418457031e+01 6.224834173917770386e-02 7.616971969604492188e+00 2.303766250610351562e+00 2.552454769611358643e-01
1.497000000000000000e+03 7.720877075195312500e+01 2.402756500244140625e+01 8.463028818368911743e-02 7.832444190979003906e+00 2.375122308731079102e+00 4.233518242835998535e-01
1.498000000000000000e+03 7.701850891113281250e+01 2.111790084838867188e+01 6.808081269264221191e-02 7.691618919372558594e+00 2.327909946441650391e+00 3.029006421566009521e-01
1.499000000000000000e+03 7.660353851318359375e+01 1.366289329528808594e+01 -8.043645322322845459e-02 7.518352508544921875e+00 2.231374740600585938e+00 2.667225897312164307e-01
1.500000000000000000e+03 7.712438964843750000e+01 1.273525810241699219e+01 -7.639767974615097046e-02 7.259567260742187500e+00 2.154950857162475586e+00 2.494244128465652466e-01
1.501000000000000000e+03 7.192941284179687500e+01 2.303499794006347656e+01 2.820556759834289551e-01 8.516128540039062500e+00 2.639455080032348633e+00 6.429308652877807617e-02
1.502000000000000000e+03 7.821701049804687500e+01 2.668842887878417969e+01 3.309063985943794250e-02 8.173051834106445312e+00 2.461842775344848633e+00 4.149810373783111572e-01
1.503000000000000000e+03 7.520050811767578125e+01 1.317687702178955078e+01 -1.654590517282485962e-01 8.029617309570312500e+00 2.359247446060180664e+00 2.744336128234863281e-01
1.504000000000000000e+03 7.831604003906250000e+01 -2.078648567199707031e+01 -1.950007863342761993e-02 7.488800525665283203e+00 2.240790128707885742e+00 4.990632534027099609e-01
1.505000000000000000e+03 7.729437255859375000e+01 -2.317938232421875000e+01 2.516648471355438232e-01 7.466817855834960938e+00 2.315544843673706055e+00 4.793609082698822021e-01
1.506000000000000000e+03 7.563504791259765625e+01 2.802752685546875000e+01 3.304688259959220886e-02 7.900637149810791016e+00 2.380105257034301758e+00 6.900383830070495605e-01
1.507000000000000000e+03 7.728153228759765625e+01 -1.803356742858886719e+01 -3.110602200031280518e-01 7.721055984497070312e+00 2.222998857498168945e+00 2.610922455787658691e-01
1.508000000000000000e+03 7.660355377197265625e+01 -2.016382026672363281e+01 -2.896394133567810059e-01 7.734698772430419922e+00 2.233517885208129883e+00 5.714991688728332520e-01
1.509000000000000000e+03 7.530236053466796875e+01 -8.701854705810546875e+00 -1.371941715478897095e-01 6.994926452636718750e+00 2.057319641113281250e+00 -4.937866628170013428e-01
1.510000000000000000e+03 7.696296691894531250e+01 -1.411640548706054688e+01 -1.277707368135452271e-01 7.486600875854492188e+00 2.207648992538452148e+00 -1.862652152776718140e-01
1.511000000000000000e+03 7.657948303222656250e+01 -7.107534408569335938e+00 -6.689295917749404907e-02 7.081366539001464844e+00 2.104341983795166016e+00 -5.500754117965698242e-01
1.512000000000000000e+03 7.817316436767578125e+01 5.716998577117919922e+00 3.350967541337013245e-02 6.139660358428955078e+00 1.851951003074645996e+00 2.203509509563446045e-01
1.513000000000000000e+03 7.691835784912109375e+01 5.701007843017578125e+00 1.447906643152236938e-01 6.899060249328613281e+00 2.113155126571655273e+00 2.875681221485137939e-01
1.514000000000000000e+03 7.757287597656250000e+01 3.716685485839843750e+01 -1.243585199117660522e-01 9.330780982971191406e+00 2.761926651000976562e+00 9.181951731443405151e-02
1.515000000000000000e+03 7.809299468994140625e+01 7.130253791809082031e+00 4.330701380968093872e-02 6.324308395385742188e+00 1.910284519195556641e+00 2.723114788532257080e-01
1.516000000000000000e+03 7.540110778808593750e+01 7.168007850646972656e+00 1.359904855489730835e-01 7.870261669158935547e+00 2.401875734329223633e+00 4.730127751827239990e-01
1.517000000000000000e+03 7.661962890625000000e+01 -2.737986564636230469e+00 8.881581574678421021e-02 6.924228191375732422e+00 2.103913307189941406e+00 -5.147197246551513672e-01
1.518000000000000000e+03 7.671484375000000000e+01 -9.938225746154785156e+00 -1.057155355811119080e-01 7.197805881500244141e+00 2.127627134323120117e+00 -4.324028789997100830e-01
1.519000000000000000e+03 7.714519500732421875e+01 -1.679360961914062500e+01 -1.761319339275360107e-01 7.638097286224365234e+00 2.238589525222778320e+00 8.315281569957733154e-02
1.520000000000000000e+03 7.661334991455078125e+01 3.216934204101562500e+01 -1.721744835376739502e-01 8.423675537109375000e+00 2.475450277328491211e+00 4.777046144008636475e-01
1.521000000000000000e+03 7.432164001464843750e+01 3.323044204711914062e+01 -3.698485791683197021e-01 7.348938941955566406e+00 2.093727111816406250e+00 4.111720919609069824e-01
1.522000000000000000e+03 7.666521453857421875e+01 3.087934494018554688e+01 -7.346689701080322266e-02 8.390540122985839844e+00 2.495121955871582031e+00 5.962846875190734863e-01
1.523000000000000000e+03 7.683493041992187500e+01 1.012603378295898438e+01 -5.953339114785194397e-02 7.274096965789794922e+00 2.164369106292724609e+00 3.888961970806121826e-01
1.524000000000000000e+03 7.817572021484375000e+01 -1.399269866943359375e+01 -8.498535305261611938e-02 7.801571846008300781e+00 2.314975976943969727e+00 -1.131479218602180481e-01
1.525000000000000000e+03 7.707590484619140625e+01 -1.544831466674804688e+01 -2.215429693460464478e-01 7.565662860870361328e+00 2.203236103057861328e+00 -3.793719410896301270e-02
1.526000000000000000e+03 7.797007751464843750e+01 -7.019059181213378906e+00 -1.799712330102920532e-02 7.048211097717285156e+00 2.109064340591430664e+00 -4.185523092746734619e-01
1.527000000000000000e+03 7.665055084228515625e+01 -8.522988319396972656e+00 -7.863561064004898071e-02 7.144048213958740234e+00 2.119623899459838867e+00 -4.851144254207611084e-01
1.528000000000000000e+03 7.830381011962890625e+01 1.669754505157470703e+00 9.242178499698638916e-02 5.921477317810058594e+00 1.804169774055480957e+00 -9.452713280916213989e-02
1.529000000000000000e+03 7.666902160644531250e+01 -1.259606122970581055e+00 1.591137647628784180e-01 6.873400688171386719e+00 2.109754323959350586e+00 -4.364924728870391846e-01
1.530000000000000000e+03 7.636275482177734375e+01 3.532690048217773438e+01 -1.909791529178619385e-01 8.409022331237792969e+00 2.465412855148315430e+00 2.846207916736602783e-01
1.531000000000000000e+03 7.560768127441406250e+01 2.709515810012817383e+00 3.874967396259307861e-01 7.564496994018554688e+00 2.385598182678222656e+00 6.154016405344009399e-02
1.532000000000000000e+03 7.720526885986328125e+01 4.327793598175048828e+00 1.529948562383651733e-01 6.686668395996093750e+00 2.051898956298828125e+00 1.822250485420227051e-01
1.533000000000000000e+03 7.728340148925781250e+01 3.120673179626464844e+00 1.819927841424942017e-01 6.554636478424072266e+00 2.020988702774047852e+00 3.515902161598205566e-02
1.534000000000000000e+03 7.556255340576171875e+01 -9.303057789802551270e-01 2.769913077354431152e-01 7.409590244293212891e+00 2.305974483489990234e+00 -4.017404317855834961e-01
1.535000000000000000e+03 7.656563568115234375e+01 -5.679285526275634766e+00 -1.822515204548835754e-02 7.021334648132324219e+00 2.100932836532592773e+00 -5.615276098251342773e-01
1.536000000000000000e+03 7.661837768554687500e+01 -4.230828285217285156e+00 9.685015305876731873e-03 6.968803882598876953e+00 2.093546628952026367e+00 -5.657644271850585938e-01
1.537000000000000000e+03 7.687155151367187500e+01 -1.275510692596435547e+01 -1.473740488290786743e-01 7.372386455535888672e+00 2.167503595352172852e+00 -2.687491476535797119e-01
1.538000000000000000e+03 7.679043579101562500e+01 -1.135206794738769531e+01 -1.012224480509757996e-01 7.293213844299316406e+00 2.157597303390502930e+00 -3.621574938297271729e-01
1.539000000000000000e+03 7.148468017578125000e+01 1.440455055236816406e+01 1.756570786237716675e-01 8.828312873840332031e+00 2.701190948486328125e+00 1.532820910215377808e-01
1.540000000000000000e+03 7.146109008789062500e+01 1.598594284057617188e+01 1.107691302895545959e-01 9.142875671386718750e+00 2.776093482971191406e+00 3.023703098297119141e-01
1.541000000000000000e+03 7.141991424560546875e+01 1.908097565174102783e-01 7.725908160209655762e-01 1.011677265167236328e+01 3.266809225082397461e+00 5.547681450843811035e-01
1.542000000000000000e+03 7.203423309326171875e+01 2.168901824951171875e+01 1.588604450225830078e-01 8.639470100402832031e+00 2.639499187469482422e+00 1.223334074020385742e-01
1.543000000000000000e+03 7.219007873535156250e+01 2.037359809875488281e+01 7.944160699844360352e-02 8.745441436767578125e+00 2.647464990615844727e+00 1.852501630783081055e-01
1.544000000000000000e+03 4.432352066040039062e+01 4.617450237274169922e-01 4.612495601177215576e-01 2.086551427841186523e+00 7.643402814865112305e-01 -1.035026073455810547e+00
1.545000000000000000e+03 4.323261642456054688e+01 -7.113192230463027954e-02 4.364125728607177734e-01 1.914376735687255859e+00 7.052367925643920898e-01 -9.457167387008666992e-01
1.546000000000000000e+03 6.963530731201171875e+01 3.016810035705566406e+01 -1.272159218788146973e-01 5.280226230621337891e+00 1.545903086662292480e+00 -3.816470503807067871e-01
1.547000000000000000e+03 6.960015869140625000e+01 3.353556442260742188e+01 -7.070213556289672852e-01 4.423119544982910156e+00 1.114829540252685547e+00 -2.701482474803924561e-01
1.548000000000000000e+03 2.112912178039550781e+01 -3.401350402832031250e+01 7.860645651817321777e-03 -1.709691598080098629e-03 1.845286227762699127e-03 4.917673766613006592e-03
1.549000000000000000e+03 4.124547481536865234e+00 -1.618123245239257812e+01 -1.489327041781507432e-05 -1.890034945972729474e-05 -1.013808559946483001e-05 2.212500248788273893e-06
1.550000000000000000e+03 1.822104835510253906e+01 -3.441532897949218750e+01 4.319132771342992783e-03 1.401490997523069382e-03 1.716187107376754284e-03 4.932434763759374619e-03
1.551000000000000000e+03 5.143993854522705078e+00 3.644335556030273438e+01 2.901050960645079613e-03 -5.223513245582580566e-01 -1.558350771665573120e-01 -4.224041011184453964e-03
1.552000000000000000e+03 2.087976694107055664e+00 2.758549499511718750e+01 3.444248577579855919e-03 -6.695290207862854004e-01 -1.998254209756851196e-01 4.241934046149253845e-03
1.553000000000000000e+03 3.735739231109619141e+00 3.032334518432617188e+01 5.717819556593894958e-03 -5.935303568840026855e-01 -1.763437688350677490e-01 -2.452080370858311653e-04
1.554000000000000000e+03 6.404180049896240234e+00 2.824640655517578125e+01 2.192406915128231049e-02 -4.691653549671173096e-01 -1.341723799705505371e-01 1.894959714263677597e-03
1.555000000000000000e+03 3.746636629104614258e+00 3.175843429565429688e+01 2.864119131118059158e-03 -5.937234759330749512e-01 -1.772578060626983643e-01 -5.136896856129169464e-03
1.556000000000000000e+03 2.052106857299804688e+00 2.619056129455566406e+01 4.600847139954566956e-03 -6.668974161148071289e-01 -1.986889839172363281e-01 9.111899882555007935e-03
1.557000000000000000e+03 3.437458515167236328e+00 2.751746368408203125e+01 8.136790245771408081e-03 -6.015768051147460938e-01 -1.780320107936859131e-01 7.036109454929828644e-03
1.558000000000000000e+03 3.596761226654052734e+00 2.889718055725097656e+01 5.869909655302762985e-03 -5.963214635848999023e-01 -1.771354675292968750e-01 3.216733690351247787e-03
1.559000000000000000e+03 2.208601236343383789e+00 3.702091979980468750e+01 -9.926090715453028679e-04 -6.590895056724548340e-01 -1.980246454477310181e-01 -9.438438341021537781e-03
1.560000000000000000e+03 3.275396347045898438e+00 3.431145477294921875e+01 1.025651209056377411e-02 -6.135129332542419434e-01 -1.809769123792648315e-01 -1.019027736037969589e-02
1.561000000000000000e+03 5.101232528686523438e+00 3.345994567871093750e+01 5.671900231391191483e-03 -5.166426301002502441e-01 -1.532912254333496094e-01 -8.935636840760707855e-03
1.562000000000000000e+03 3.969000816345214844e+00 -3.589181137084960938e+01 -4.888842158834449947e-05 8.914067875593900681e-04 2.527555043343454599e-04 7.414798019453883171e-04
1.563000000000000000e+03 3.652474880218505859e+00 -3.725859832763671875e+01 -6.783451681258156896e-05 1.087005366571247578e-03 3.057512512896209955e-04 6.418059929274022579e-04
1.564000000000000000e+03 3.594107151031494141e+00 -3.308388900756835938e+01 2.879207313526421785e-04 3.597783506847918034e-04 1.943097304319962859e-04 5.283909267745912075e-04
1.565000000000000000e+03 2.108805894851684570e+00 -3.035356903076171875e+01 6.879083230160176754e-05 8.853962208377197385e-05 4.719913704320788383e-05 1.318342838203534484e-04
1.566000000000000000e+03 3.531677961349487305e+00 -2.876275634765625000e+01 1.009551124298013747e-04 3.911504245479591191e-05 4.202104537398554385e-05 8.573492232244461775e-05
1.567000000000000000e+03 7.066346168518066406e+00 -2.656076240539550781e+01 2.546706309658475220e-05 -6.092721014283597469e-05 -1.063804393197642639e-05 2.019765452132560313e-05
1.568000000000000000e+03 2.016103506088256836e+00 2.198265457153320312e+01 5.829342175275087357e-03 -6.356569528579711914e-01 -1.889482736587524414e-01 2.754637785255908966e-02
1.569000000000000000e+03 3.378132343292236328e+00 2.340740203857421875e+01 1.442141830921173096e-02 -5.893452763557434082e-01 -1.724771559238433838e-01 3.156213834881782532e-02
1.570000000000000000e+03 2.929138422012329102e+00 -1.054379653930664062e+01 1.843735299189575016e-05 1.719486419915483566e-07 5.582790436164941639e-06 -5.233870297161047347e-07
1.571000000000000000e+03 1.772555232048034668e+00 -1.486955833435058594e+01 2.662700171640608460e-05 1.616065333109872881e-06 8.472919944324530661e-06 6.519787802972132340e-07
1.572000000000000000e+03 1.993345379829406738e+00 2.057816505432128906e+01 7.032928057014942169e-03 -6.165385842323303223e-01 -1.828516870737075806e-01 3.472998365759849548e-02
1.573000000000000000e+03 3.355463981628417969e+00 2.199215316772460938e+01 1.512749679386615753e-02 -5.780755281448364258e-01 -1.688844114542007446e-01 4.255559295415878296e-02
1.574000000000000000e+03 3.044585704803466797e+00 1.190117263793945312e+01 1.102322991937398911e-02 -3.689255714416503906e-01 -1.073706969618797302e-01 1.308526098728179932e-01
1.575000000000000000e+03 3.226584911346435547e+00 1.775193595886230469e+01 1.850992068648338318e-02 -5.220168828964233398e-01 -1.510520875453948975e-01 8.042070269584655762e-02
1.576000000000000000e+03 1.814357876777648926e+00 -2.183247947692871094e+01 -2.539068191254045814e-05 -2.280030275869648904e-05 -1.445729594706790522e-05 -5.333493845682824031e-06
1.577000000000000000e+03 2.991853475570678711e+00 -1.756830024719238281e+01 -2.016706457652617246e-05 3.511373051878763363e-06 -4.996707502868957818e-06 2.317018925168667920e-06
1.578000000000000000e+03 2.941476583480834961e+00 -1.196744060516357422e+01 -1.851044362410902977e-05 -5.317678642313694581e-06 -7.148436907300492749e-06 1.577060686486220220e-07
1.579000000000000000e+03 1.678121328353881836e+00 -7.819157600402832031e+00 -2.335413591936230659e-05 6.002514965075533837e-07 -6.826165190432220697e-06 -2.761574933174415492e-06
1.580000000000000000e+03 4.026518821716308594e+00 -4.385913372039794922e+00 9.491958735452499241e-06 6.752183253411203623e-06 4.873242687608581036e-06 1.073474777513183653e-05
1.581000000000000000e+03 2.594491481781005859e+00 5.009989261627197266e+00 -2.973775006830692291e-02 -1.080080121755599976e-01 -4.132372885942459106e-02 8.796435594558715820e-02
1.582000000000000000e+03 2.745269298553466797e+00 7.610237121582031250e+00 -1.157737430185079575e-02 -2.063689976930618286e-01 -6.538391113281250000e-02 1.247937306761741638e-01
1.583000000000000000e+03 1.911874175071716309e+00 1.487839698791503906e+01 7.723015267401933670e-03 -4.818652570247650146e-01 -1.422426700592041016e-01 7.114647328853607178e-02
1.584000000000000000e+03 3.194186687469482422e+00 1.631388473510742188e+01 1.898492313921451569e-02 -4.920498132705688477e-01 -1.419194638729095459e-01 9.438551217317581177e-02
1.585000000000000000e+03 2.846774578094482422e+00 9.002801895141601562e+00 -2.414599293842911720e-03 -2.632453739643096924e-01 -7.969798892736434937e-02 1.336118429899215698e-01
1.586000000000000000e+03 2.776287794113159180e+00 -7.786508083343505859e+00 1.670900201133918017e-05 3.157830121836013859e-07 5.107435754325706512e-06 3.225321734134922735e-06
1.587000000000000000e+03 1.736961007118225098e+00 -2.322274780273437500e+01 1.484207587054697797e-05 -3.335591372888302431e-06 3.451945531196543016e-06 -2.031875192187726498e-05
1.588000000000000000e+03 2.318665027618408203e+00 -3.589941787719726562e+01 4.701213356383959763e-07 8.351817959919571877e-04 2.506955934222787619e-04 4.208601603750139475e-04
1.589000000000000000e+03 2.849950075149536133e+00 -9.142699241638183594e+00 -1.800162499421276152e-05 2.078395255011855625e-06 -4.776969035447109491e-06 -2.254082119179656729e-06
1.590000000000000000e+03 2.953312873840332031e+00 -1.621986198425292969e+01 1.852463356044609100e-05 3.372231049070251174e-06 6.569059223693329841e-06 -3.003132633239147253e-06
1.591000000000000000e+03 2.945628881454467773e+00 -1.483347606658935547e+01 -1.954157050931826234e-05 -8.752738835937634576e-07 -6.125053459982154891e-06 2.441032393107889220e-06
1.592000000000000000e+03 6.043580532073974609e+00 -3.072555541992187500e+01 6.327583105303347111e-04 1.099729779525659978e-04 2.228193770861253142e-04 3.463147440925240517e-04
1.593000000000000000e+03 4.177181243896484375e+00 -2.531378173828125000e+01 1.443136534362565726e-05 -2.553026661189505830e-07 4.252819053363054991e-06 -4.196997542749159038e-05
1.594000000000000000e+03 2.802058696746826172e+00 -2.446595954895019531e+01 1.658823202888015658e-05 5.135478659212822095e-06 6.517112979054218158e-06 -3.454461329965852201e-05
1.595000000000000000e+03 6.742479324340820312e+00 -1.941010284423828125e+01 -3.672861566883511841e-05 -3.941076283808797598e-05 -2.284181391587480903e-05 4.404757055453956127e-05
1.596000000000000000e+03 2.955002069473266602e+00 1.043823242187500000e+01 5.659556016325950623e-03 -3.177161514759063721e-01 -9.361697733402252197e-02 1.348290890455245972e-01
1.597000000000000000e+03 3.106591463088989258e+00 1.337781047821044922e+01 1.637596823275089264e-02 -4.159051179885864258e-01 -1.198587417602539062e-01 1.208110600709915161e-01
1.598000000000000000e+03 4.447335243225097656e+00 1.631749916076660156e+01 3.100804425776004791e-02 -4.668072164058685303e-01 -1.307397484779357910e-01 1.189773455262184143e-01
1.599000000000000000e+03 7.488385772705078125e+01 -1.855205535888671875e+00 2.546326816082000732e-01 7.572844028472900391e+00 2.348242998123168945e+00 -3.879172205924987793e-01
1.600000000000000000e+03 7.093901824951171875e+01 -1.353888392448425293e+00 4.620051383972167969e-01 9.601905822753906250e+00 3.019173383712768555e+00 9.034330248832702637e-01
1.601000000000000000e+03 6.173562240600585938e+01 -2.236839294433593750e+01 -6.321744322776794434e-01 3.991497159004211426e-01 -6.990740448236465454e-02 -9.996518492698669434e-02
1.602000000000000000e+03 5.993441772460937500e+01 -2.281560325622558594e+01 -1.401867151260375977e+00 2.690229654312133789e+00 3.865087628364562988e-01 7.678464055061340332e-01
1.603000000000000000e+03 4.209248352050781250e+01 2.580895614624023438e+01 4.942721873521804810e-02 1.290085673332214355e+00 4.018538594245910645e-01 1.569779962301254272e-01
1.604000000000000000e+03 4.127795410156250000e+01 1.785782623291015625e+01 1.751792728900909424e-01 2.207365751266479492e+00 7.147634625434875488e-01 1.394231766462326050e-01
1.605000000000000000e+03 4.234523773193359375e+01 2.224112510681152344e+01 1.652915924787521362e-01 1.637171626091003418e+00 5.407389998435974121e-01 3.042182028293609619e-01
1.606000000000000000e+03 3.988024139404296875e+01 1.962240600585937500e+01 1.768194884061813354e-01 1.796954631805419922e+00 5.921322703361511230e-01 1.383641082793474197e-02
1.607000000000000000e+03 4.379537963867187500e+01 2.841266632080078125e+01 -1.354123558849096298e-02 1.042054295539855957e+00 3.085539042949676514e-01 1.874296814203262329e-01
1.608000000000000000e+03 2.012309837341308594e+01 -1.171256065368652344e+01 -2.981687202918692492e-06 1.732468149384658318e-06 -3.747656762698170496e-07 -4.131009973207255825e-06
1.609000000000000000e+03 4.263123703002929688e+01 3.385347366333007812e+01 -2.502719759941101074e-01 9.041295647621154785e-01 1.961572766304016113e-01 3.617437928915023804e-02
1.610000000000000000e+03 7.060243225097656250e+01 -5.979239940643310547e+00 6.989266723394393921e-02 6.936255455017089844e+00 2.101844549179077148e+00 6.098100543022155762e-01
1.611000000000000000e+03 4.017770767211914062e+01 2.119514083862304688e+01 1.433873325586318970e-01 1.658997774124145508e+00 5.407155156135559082e-01 6.052443385124206543e-02
1.612000000000000000e+03 2.894632911682128906e+01 -1.482350254058837891e+01 -6.171299815177917480e-01 -1.947480142116546631e-01 -2.435633987188339233e-01 5.389721393585205078e-01
1.613000000000000000e+03 2.819030189514160156e+01 -1.532706069946289062e+01 -5.258179306983947754e-01 -2.105067521333694458e-01 -2.208974063396453857e-01 4.827480912208557129e-01
1.614000000000000000e+03 7.961714267730712891e+00 -2.834642028808593750e+01 3.181046922691166401e-04 -1.093467653845436871e-04 6.262737588258460164e-05 3.522205588524229825e-05
1.615000000000000000e+03 6.333733081817626953e+00 -2.936131477355957031e+01 3.726161958184093237e-04 -4.423523205332458019e-05 9.851429058471694589e-05 1.754832774167880416e-04
1.616000000000000000e+03 7.054531860351562500e+01 2.726511955261230469e+01 3.664255142211914062e-01 7.407938957214355469e+00 2.332309246063232422e+00 -3.802824020385742188e-01
1.617000000000000000e+03 6.961454010009765625e+01 -3.389675140380859375e+01 -8.595856428146362305e-01 3.202706575393676758e+00 7.029362916946411133e-01 7.627595067024230957e-01
1.618000000000000000e+03 7.531267547607421875e+01 -3.380491256713867188e+01 -6.337075233459472656e-01 8.074983596801757812e+00 2.232382774353027344e+00 -5.804432034492492676e-01
1.619000000000000000e+03 7.300811767578125000e+01 2.185602188110351562e+01 1.989459991455078125e-01 8.399085044860839844e+00 2.579409360885620117e+00 2.101004570722579956e-01
1.620000000000000000e+03 4.160011291503906250e+01 2.806588745117187500e+01 -5.466464906930923462e-02 1.150562763214111328e+00 3.287694156169891357e-01 7.456417381763458252e-02
1.621000000000000000e+03 4.107307815551757812e+01 6.721437454223632812e+00 6.005849838256835938e-01 2.482547521591186523e+00 9.249397516250610352e-01 -6.986819505691528320e-01
1.622000000000000000e+03 7.119612121582031250e+01 -7.893937587738037109e+00 -9.415377676486968994e-02 6.428393363952636719e+00 1.900271892547607422e+00 2.032824158668518066e-01
1.623000000000000000e+03 1.486944961547851562e+01 -3.448572921752929688e+01 2.887985901907086372e-03 1.094199600629508495e-03 1.194655662402510643e-03 4.004679620265960693e-03
1.624000000000000000e+03 4.782689666748046875e+01 3.443568801879882812e+01 -2.095156461000442505e-01 5.762228965759277344e-01 1.100121736526489258e-01 1.035619378089904785e-01
1.625000000000000000e+03 5.261051559448242188e+01 3.437447738647460938e+01 -1.570767611265182495e-01 1.010243371129035950e-01 -1.681572571396827698e-02 1.618144847452640533e-02
1.626000000000000000e+03 6.326498413085937500e+01 -1.606902885437011719e+01 -6.418512016534805298e-02 1.213358044624328613e+00 3.447518944740295410e-01 1.694630622863769531e+00
1.627000000000000000e+03 6.138955688476562500e+01 -1.595012664794921875e+01 -1.779501080513000488e+00 1.305173635482788086e+00 -1.422982066869735718e-01 2.065752267837524414e+00
1.628000000000000000e+03 4.131552505493164062e+01 2.436501502990722656e+01 7.808645814657211304e-02 1.392987728118896484e+00 4.413222670555114746e-01 1.369967013597488403e-01
1.629000000000000000e+03 3.966048049926757812e+01 1.643855857849121094e+01 2.530016005039215088e-01 2.111259222030639648e+00 7.092782855033874512e-01 -1.080974936485290527e-01
1.630000000000000000e+03 6.654448699951171875e+01 -1.277966690063476562e+01 6.130977869033813477e-01 2.716162681579589844e+00 9.987781047821044922e-01 6.939280033111572266e-01
1.631000000000000000e+03 7.754876136779785156e+00 -1.612076377868652344e+01 4.998338044970296323e-05 -6.174898589961230755e-05 -3.529682317093829624e-06 -3.113608045168803073e-06
1.632000000000000000e+03 6.356145858764648438e+01 -1.832880210876464844e+01 1.472789764404296875e+00 1.752989888191223145e-01 4.944266080856323242e-01 1.185328006744384766e+00
1.633000000000000000e+03 6.917538452148437500e+01 -1.989068412780761719e+01 3.834188729524612427e-02 2.408685922622680664e+00 7.341083288192749023e-01 -1.776229262351989746e+00
1.634000000000000000e+03 6.446786499023437500e+01 -1.516029262542724609e+01 5.822265148162841797e-01 1.430474519729614258e+00 6.038103103637695312e-01 1.088362932205200195e+00
1.635000000000000000e+03 5.668671798706054688e+01 -3.806352233886718750e+01 -6.215394735336303711e-01 1.973805665969848633e+00 4.056798219680786133e-01 -6.227836012840270996e-01
1.636000000000000000e+03 7.628849792480468750e+01 -3.321557235717773438e+01 -4.812833070755004883e-01 8.287252426147460938e+00 2.341790914535522461e+00 -8.537948727607727051e-01
1.637000000000000000e+03 5.527838897705078125e+01 -2.203040122985839844e+01 -8.429127931594848633e-01 2.421370029449462891e+00 4.735371768474578857e-01 1.584085583686828613e+00
1.638000000000000000e+03 3.951449966430664062e+01 1.321410274505615234e+01 4.156267344951629639e-01 2.337081670761108398e+00 8.258125185966491699e-01 -3.550036847591400146e-01
1.639000000000000000e+03 1.272474193572998047e+01 -3.262754058837890625e+01 3.440154949203133583e-03 -2.181407617172226310e-04 9.666042751632630825e-04 1.730564516037702560e-03
1.640000000000000000e+03 7.191251373291015625e+01 2.442326545715332031e+01 3.962416052818298340e-01 8.212268829345703125e+00 2.582552909851074219e+00 6.591190397739410400e-02
1.641000000000000000e+03 7.189549255371093750e+01 2.588829040527343750e+01 4.052376151084899902e-01 7.842730522155761719e+00 2.474390506744384766e+00 1.199655011296272278e-01
1.642000000000000000e+03 3.976044845581054688e+01 9.711628913879394531e+00 6.839174628257751465e-01 2.352161884307861328e+00 9.108238220214843750e-01 -5.109659433364868164e-01
1.643000000000000000e+03 6.553190612792968750e+01 -1.398679924011230469e+01 5.124498605728149414e-01 2.008494615554809570e+00 7.562833428382873535e-01 7.805269956588745117e-01
1.644000000000000000e+03 7.257117462158203125e+01 7.407095909118652344e+00 2.752052247524261475e-01 9.577857017517089844e+00 2.955918788909912109e+00 3.479851782321929932e-01
1.645000000000000000e+03 1.233878612518310547e+01 -3.390939712524414062e+01 2.671648981049656868e-03 2.661383186932653189e-04 8.813362219370901585e-04 2.537179272621870041e-03
1.646000000000000000e+03 6.853876495361328125e+01 -3.443467712402343750e+01 -8.935629129409790039e-01 1.506908416748046875e+00 1.840036511421203613e-01 6.000286936759948730e-01
1.647000000000000000e+03 7.261658477783203125e+01 -3.393353652954101562e+01 -8.599644303321838379e-01 6.457076549530029297e+00 1.679133653640747070e+00 7.171186059713363647e-02
1.648000000000000000e+03 4.749577713012695312e+01 -2.943071174621582031e+01 4.506730437278747559e-01 2.380649149417877197e-01 2.066213786602020264e-01 -9.770473092794418335e-02
1.649000000000000000e+03 5.357451629638671875e+01 -2.908916473388671875e+01 1.898497581481933594e+00 3.687685489654541016e+00 1.675854921340942383e+00 6.834785938262939453e-01
1.650000000000000000e+03 3.190101385116577148e+00 -2.035080909729003906e+01 -4.032207289128564298e-05 1.685896313574630767e-05 -7.038933290459681302e-06 1.170635823655175045e-05
1.651000000000000000e+03 1.773511123657226562e+01 -3.303000259399414062e+01 7.444712799042463303e-03 5.709401448257267475e-04 2.404695842415094376e-03 3.608315717428922653e-03
1.652000000000000000e+03 5.816500473022460938e+01 -2.020587348937988281e+01 -5.327647328376770020e-01 7.052898406982421875e+00 1.956040143966674805e+00 1.965889453887939453e+00
1.653000000000000000e+03 6.893250274658203125e+01 -1.503958892822265625e+01 1.934515833854675293e-01 3.713230371475219727e+00 1.172004580497741699e+00 -1.970810741186141968e-01
1.654000000000000000e+03 4.397759628295898438e+01 -3.054820251464843750e+01 -3.864046335220336914e-01 -7.387895584106445312e-01 -3.375582396984100342e-01 -1.269865632057189941e-01
1.655000000000000000e+03 4.420624923706054688e+01 -2.893177604675292969e+01 -2.616521418094635010e-01 -8.592097163200378418e-01 -3.362585604190826416e-01 -4.185189604759216309e-01
1.656000000000000000e+03 6.024293899536132812e+01 4.016629409790039062e+01 1.093330979347229004e-01 -2.910345792770385742e-01 -5.451044067740440369e-02 1.409833431243896484e-01
1.657000000000000000e+03 7.730265808105468750e+01 -3.155698013305664062e+01 -6.043420732021331787e-02 8.282609939575195312e+00 2.466652631759643555e+00 -9.733470678329467773e-01
1.658000000000000000e+03 7.342879486083984375e+01 -2.976958084106445312e+01 2.217320799827575684e-01 9.140313148498535156e+00 2.808613538742065430e+00 -6.260496377944946289e-01
1.659000000000000000e+03 7.286650848388671875e+01 1.411494922637939453e+01 -1.057201772928237915e-01 8.726166725158691406e+00 2.586133956909179688e+00 1.043273806571960449e-01
1.660000000000000000e+03 4.237019729614257812e+01 2.931550216674804688e+01 -9.785883128643035889e-02 1.050381183624267578e+00 2.857566773891448975e-01 9.147155284881591797e-02
1.661000000000000000e+03 7.313079071044921875e+01 -2.451315879821777344e+01 1.619004607200622559e+00 9.679363250732421875e+00 3.389510393142700195e+00 -3.256398141384124756e-01
1.662000000000000000e+03 7.533261871337890625e+01 -2.607297134399414062e+01 9.801220297813415527e-01 8.445732116699218750e+00 2.827756166458129883e+00 -3.342921435832977295e-01
1.663000000000000000e+03 1.923449134826660156e+01 -1.234753131866455078e+01 1.258563202100049239e-06 -9.932043212756980211e-06 -2.602043878141557798e-06 -3.078628878938616253e-06
1.664000000000000000e+03 4.196028137207031250e+01 -3.497929382324218750e+01 1.990516632795333862e-01 -6.018619537353515625e-01 -1.208430901169776917e-01 3.259411081671714783e-02
1.665000000000000000e+03 7.277497100830078125e+01 -2.040423774719238281e+01 -7.836068868637084961e-01 7.753554821014404297e+00 2.090984344482421875e+00 -4.841129183769226074e-01
1.666000000000000000e+03 7.172817993164062500e+01 2.742961692810058594e+01 2.946316897869110107e-01 7.361542701721191406e+00 2.296852350234985352e+00 1.587023735046386719e-01
1.667000000000000000e+03 7.327613067626953125e+01 3.252626419067382812e+01 -4.693194329738616943e-01 6.872113704681396484e+00 1.920838236808776855e+00 3.961566090583801270e-01
1.668000000000000000e+03 5.223544311523437500e+01 3.637665939331054688e+01 -2.594010531902313232e-01 1.768638789653778076e-01 -2.476115338504314423e-02 7.251214981079101562e-02
1.669000000000000000e+03 5.033772277832031250e+01 3.748675155639648438e+01 -2.680808603763580322e-01 3.524748384952545166e-01 2.531819790601730347e-02 7.589542865753173828e-02
1.670000000000000000e+03 3.534521865844726562e+01 -3.685578918457031250e+01 1.823887601494789124e-02 -2.171202600002288818e-01 -5.966441333293914795e-02 -2.014471292495727539e-01
1.671000000000000000e+03 1.796002388000488281e+01 -1.233567714691162109e+01 9.757200132298748940e-07 1.039507151290308684e-05 3.411237685213563964e-06 1.338797687822079752e-06
1.672000000000000000e+03 3.786517333984375000e+01 -1.707738113403320312e+01 -1.762835502624511719e+00 -6.228294968605041504e-01 -7.156994938850402832e-01 6.458783149719238281e-01
1.673000000000000000e+03 4.042146682739257812e+01 8.147220611572265625e+00 6.823431253433227539e-01 2.468077659606933594e+00 9.451262354850769043e-01 -6.011050939559936523e-01
1.674000000000000000e+03 3.890198898315429688e+01 -1.701465225219726562e+01 -1.804769992828369141e+00 -4.790873229503631592e-01 -6.851571798324584961e-01 5.138363838195800781e-01
1.675000000000000000e+03 3.558194732666015625e+01 -1.592738246917724609e+01 -1.337640881538391113e+00 -3.160911798477172852e-01 -4.961196184158325195e-01 7.418210506439208984e-01
1.676000000000000000e+03 5.097854995727539062e+01 -1.537202835083007812e+01 2.998860836029052734e+00 1.443511486053466797e+00 1.332711696624755859e+00 -8.228927254676818848e-01
1.677000000000000000e+03 5.070672988891601562e+01 -1.343018245697021484e+01 3.344567060470581055e+00 3.048246145248413086e+00 1.917843937873840332e+00 -2.175715684890747070e+00
1.678000000000000000e+03 5.698252487182617188e+01 4.131541442871093750e+01 3.161429986357688904e-02 -2.360369712114334106e-01 -6.132680177688598633e-02 7.146026939153671265e-02
1.679000000000000000e+03 1.655388641357421875e+01 -1.245394134521484375e+01 1.228771566275099758e-06 -1.181444713438395411e-05 -3.175702659063972533e-06 -1.012420739243680146e-06
1.680000000000000000e+03 5.418877792358398438e+01 -2.828744506835937500e+01 1.806819915771484375e+00 4.121981143951416016e+00 1.778640270233154297e+00 5.255069732666015625e-01
1.681000000000000000e+03 5.545409774780273438e+01 -2.640212059020996094e+01 1.032441258430480957e+00 4.850142955780029297e+00 1.764775276184082031e+00 1.195502638816833496e+00
1.682000000000000000e+03 1.006696891784667969e+01 -3.039196395874023438e+01 1.768875285051763058e-03 -1.725946931401267648e-04 4.788842052221298218e-04 2.260401524836197495e-04
1.683000000000000000e+03 1.146415996551513672e+01 -3.204200744628906250e+01 2.881136955693364143e-03 -1.921579387271776795e-04 8.066936861723661423e-04 1.184420427307486534e-03
1.684000000000000000e+03 8.844913482666015625e+00 -1.522785377502441406e+01 3.469127705102437176e-06 -2.266535011585801840e-05 -5.758866791438777000e-06 3.109626277364441194e-06
1.685000000000000000e+03 1.509209537506103516e+01 -1.250550746917724609e+01 -7.833818926883395761e-06 1.126657662098295987e-05 1.029827444654074498e-06 1.708905870145827066e-06
1.686000000000000000e+03 1.370801258087158203e+01 -1.215466594696044922e+01 1.661733404034748673e-05 2.475457222317345440e-06 5.727837105951039121e-06 -1.445896759832976386e-05
1.687000000000000000e+03 3.383738040924072266e+00 -2.718897438049316406e+01 7.737584382994100451e-05 5.124408562551252544e-05 3.858597847283817828e-05 -9.231248441210482270e-06
1.688000000000000000e+03 7.289512157440185547e+00 -2.518088150024414062e+01 5.315229282132349908e-05 1.292887463932856917e-04 5.473231067298911512e-05 -4.608448580256663263e-05
1.689000000000000000e+03 6.036464309692382812e+01 -3.968664169311523438e+01 3.366858931258320808e-03 7.027049660682678223e-01 2.118215560913085938e-01 -4.412097930908203125e-01
1.690000000000000000e+03 4.881046772003173828e+00 -4.061143875122070312e+01 -5.292918067425489426e-04 1.083999639376997948e-03 1.664123701630160213e-04 4.198640235699713230e-04
1.691000000000000000e+03 5.423208999633789062e+01 -3.256636047363281250e+01 9.722126722335815430e-01 4.004500389099121094e+00 1.493013858795166016e+00 8.210421204566955566e-01
1.692000000000000000e+03 5.418541717529296875e+01 -3.578771972656250000e+01 -5.698060393333435059e-01 3.134162187576293945e+00 7.693068385124206543e-01 3.076477646827697754e-01
1.693000000000000000e+03 6.320407867431640625e+01 -3.671919631958007812e+01 -4.482740759849548340e-01 -2.111227959394454956e-01 -1.978190541267395020e-01 -5.487644672393798828e-01
1.694000000000000000e+03 5.705293655395507812e+01 -2.037017822265625000e+01 -1.883192956447601318e-01 4.032134532928466797e+00 1.153144478797912598e+00 2.889995098114013672e+00
1.695000000000000000e+03 5.677651977539062500e+01 -2.054485702514648438e+01 -4.069512784481048584e-01 3.561732053756713867e+00 9.464342594146728516e-01 2.670351505279541016e+00
1.696000000000000000e+03 5.634597015380859375e+01 -2.168036079406738281e+01 -8.582534193992614746e-01 3.260532617568969727e+00 7.206837534904479980e-01 2.258448839187622070e+00
1.697000000000000000e+03 5.600868988037109375e+01 -2.083906936645507812e+01 -6.248567104339599609e-01 2.255196571350097656e+00 4.891019463539123535e-01 1.984760880470275879e+00
1.698000000000000000e+03 5.627153015136718750e+01 -2.075535964965820312e+01 -5.783309936523437500e-01 2.705166578292846680e+00 6.380506753921508789e-01 2.263282060623168945e+00
1.699000000000000000e+03 6.029168701171875000e+01 -1.992122650146484375e+01 2.670899152755737305e+00 2.561056375503540039e+00 1.569586634635925293e+00 -7.254700064659118652e-01
1.700000000000000000e+03 5.521073150634765625e+01 -2.135679244995117188e+01 -8.381324410438537598e-01 1.864945888519287109e+00 3.080440461635589600e-01 1.539989709854125977e+00
1.701000000000000000e+03 5.750286865234375000e+01 -2.369502449035644531e+01 -9.319064021110534668e-01 4.201700687408447266e+00 9.809383153915405273e-01 2.048434972763061523e+00
1.702000000000000000e+03 5.317723083496093750e+01 -2.264992141723632812e+01 -7.132712006568908691e-01 1.258728027343750000e+00 1.636370420455932617e-01 3.873199224472045898e-01
1.703000000000000000e+03 5.471984100341796875e+01 -2.194742965698242188e+01 -8.302500844001770020e-01 1.809410452842712402e+00 2.937480807304382324e-01 1.231855750083923340e+00
1.704000000000000000e+03 1.541266632080078125e+01 -6.478415489196777344e+00 6.542446499224752188e-06 4.109411747776903212e-06 3.195557383151026443e-06 1.866173420239647385e-06
1.705000000000000000e+03 1.320926856994628906e+01 -5.133002281188964844e+00 7.043650384730426595e-06 4.515960426942910999e-06 3.467883061603060924e-06 -1.694761976978043094e-06
1.706000000000000000e+03 1.203921318054199219e+01 -4.501986026763916016e+00 4.821099082619184628e-06 8.791450454737059772e-06 4.083764906681608409e-06 -4.103598257643170655e-06
1.707000000000000000e+03 1.340664672851562500e+01 -6.051064014434814453e+00 7.603865924465935677e-06 3.460425205048522912e-06 3.319287316116970032e-06 -2.058297923213103786e-06
1.708000000000000000e+03 1.219933509826660156e+01 -5.451796054840087891e+00 7.154574632295407355e-06 6.319369731500046328e-06 4.042183263663901016e-06 -4.723317033494822681e-06
1.709000000000000000e+03 1.724023818969726562e+01 -1.043417549133300781e+01 3.309500471004866995e-06 4.848314802075037733e-06 2.447344513711868785e-06 1.916980636451626197e-06
1.710000000000000000e+03 5.092171478271484375e+01 -2.320574951171875000e+01 -5.085806250572204590e-01 4.622879922389984131e-01 -1.388778630644083023e-02 -4.478340446949005127e-01
1.711000000000000000e+03 5.422908020019531250e+01 -2.276062011718750000e+01 -6.747067570686340332e-01 1.950254797935485840e+00 3.826644122600555420e-01 9.377738237380981445e-01
1.712000000000000000e+03 5.791315460205078125e+01 -2.099518585205078125e+01 -1.059386372566223145e+00 5.460561752319335938e+00 1.320352673530578613e+00 2.253149747848510742e+00
1.713000000000000000e+03 1.179480838775634766e+01 -6.110620975494384766e+00 -9.625778147892560810e-06 -5.507267360371770337e-06 -4.539913334156153724e-06 6.670165475952671841e-06
1.714000000000000000e+03 4.528118515014648438e+01 -2.655144500732421875e+01 6.765943020582199097e-03 -6.654979586601257324e-01 -1.976196020841598511e-01 -7.847422957420349121e-01
1.715000000000000000e+03 4.955094909667968750e+01 -2.460339546203613281e+01 5.348673462867736816e-02 3.064893782138824463e-01 1.079928278923034668e-01 -6.796757578849792480e-01
1.716000000000000000e+03 4.817670440673828125e+01 -2.365838623046875000e+01 -4.004411995410919189e-01 -1.277512758970260620e-01 -1.584577411413192749e-01 -8.734055161476135254e-01
1.717000000000000000e+03 5.412732315063476562e+01 -2.328150367736816406e+01 -5.209594368934631348e-01 2.191425323486328125e+00 5.011397600173950195e-01 8.583070635795593262e-01
1.718000000000000000e+03 5.458265304565429688e+01 -2.237049102783203125e+01 -7.857566475868225098e-01 1.969996213912963867e+00 3.552718758583068848e-01 1.168086171150207520e+00
1.719000000000000000e+03 1.724955368041992188e+01 -7.369319915771484375e+00 6.156698873382993042e-06 3.990624009020393714e-06 3.044196773771545850e-06 3.094437943218508735e-06
1.720000000000000000e+03 1.676912117004394531e+01 -9.003784179687500000e+00 2.901218977058306336e-06 2.751185320448712446e-06 1.695721266514738090e-06 2.995940349137526937e-06
1.721000000000000000e+03 1.454436588287353516e+01 -6.653652191162109375e+00 7.881893907324410975e-06 1.521712420071708038e-06 2.821081807269365527e-06 -4.544272371731494786e-07
1.722000000000000000e+03 1.631015968322753906e+01 -7.296884059906005859e+00 7.238068974402267486e-06 4.067620466230437160e-06 3.391706968614016660e-06 6.652126671724545304e-07
1.723000000000000000e+03 1.810194015502929688e+01 -1.010348987579345703e+01 -3.306871803943067789e-06 -9.377191418025176972e-06 -3.805218966590473428e-06 -4.281897872715489939e-06
1.724000000000000000e+03 1.697046661376953125e+01 -9.660980224609375000e+00 -2.680855004655313678e-06 -3.751736130652716383e-06 -1.929777454279246740e-06 -2.300120058862376027e-06
1.725000000000000000e+03 9.178983688354492188e+00 3.952133417129516602e+00 -1.860282570123672485e-01 -2.598748207092285156e-01 -1.337709128856658936e-01 3.337923288345336914e-01
1.726000000000000000e+03 8.468984603881835938e+00 4.076848983764648438e+00 -1.713555604219436646e-01 -2.267930358648300171e-01 -1.194445788860321045e-01 3.120591044425964355e-01
1.727000000000000000e+03 4.782763290405273438e+01 -2.465133285522460938e+01 -4.582193866372108459e-02 -1.221913695335388184e-01 -5.040399357676506042e-02 -8.634092807769775391e-01
1.728000000000000000e+03 4.848582839965820312e+01 -2.436715507507324219e+01 -8.513502776622772217e-02 -2.529346616938710213e-03 -2.629931271076202393e-02 -8.358348608016967773e-01
1.729000000000000000e+03 6.351422309875488281e+00 3.411083221435546875e+00 -1.503828763961791992e-01 -1.052577719092369080e-01 -7.669219374656677246e-02 1.912892758846282959e-01
1.730000000000000000e+03 4.986763000488281250e+00 4.331765174865722656e+00 -9.517227858304977417e-02 -1.166285872459411621e-01 -6.354025751352310181e-02 1.646503955125808716e-01
1.731000000000000000e+03 7.766553878784179688e+00 4.010084152221679688e+00 -1.714364141225814819e-01 -1.877109855413436890e-01 -1.077442169189453125e-01 2.814646661281585693e-01
1.732000000000000000e+03 5.692622184753417969e+00 4.289136409759521484e+00 -1.071586906909942627e-01 -1.292112469673156738e-01 -7.091098278760910034e-02 1.863655894994735718e-01
1.733000000000000000e+03 3.711184024810791016e+00 6.164234161376953125e+00 -3.613870218396186829e-02 -1.687623709440231323e-01 -6.147032231092453003e-02 1.469725370407104492e-01
1.734000000000000000e+03 4.892318725585937500e+00 3.539510726928710938e+00 -9.816130250692367554e-02 -8.813175559043884277e-02 -5.588791891932487488e-02 1.370912343263626099e-01
1.735000000000000000e+03 3.550728321075439453e+00 4.909045219421386719e+00 -4.918117448687553406e-02 -1.199643164873123169e-01 -5.074364691972732544e-02 1.208067536354064941e-01
1.736000000000000000e+03 4.885776042938232422e+00 5.113963127136230469e+00 -7.044161111116409302e-02 -1.497894078493118286e-01 -6.606930494308471680e-02 1.744102686643600464e-01
1.737000000000000000e+03 3.397273302078247070e+00 3.832759857177734375e+00 -5.339506268501281738e-02 -7.666154205799102783e-02 -3.901698067784309387e-02 8.781149238348007202e-02
1.738000000000000000e+03 1.580587506294250488e+00 4.952751636505126953e+00 -1.367284730076789856e-02 -8.093184232711791992e-02 -2.838140726089477539e-02 5.079277232289314270e-02
1.739000000000000000e+03 2.598462104797363281e+00 3.906793355941772461e+00 -3.343260660767555237e-02 -7.159262150526046753e-02 -3.150757029652595520e-02 6.559640914201736450e-02
1.740000000000000000e+03 2.872439384460449219e+01 -1.108446311950683594e+01 -5.728214383125305176e-01 -2.363154590129852295e-01 -2.427410632371902466e-01 6.945051550865173340e-01
1.741000000000000000e+03 2.848954010009765625e+01 -1.228010177612304688e+01 -5.851593017578125000e-01 -2.475205212831497192e-01 -2.498039454221725464e-01 6.924654245376586914e-01
1.742000000000000000e+03 2.817467117309570312e+01 -1.343796539306640625e+01 -5.618920326232910156e-01 -2.515422105789184570e-01 -2.440302819013595581e-01 6.392635107040405273e-01
1.743000000000000000e+03 2.918344688415527344e+01 -1.177134609222412109e+01 -5.816001892089843750e-01 -2.045011669397354126e-01 -2.358303964138031006e-01 7.034607529640197754e-01
1.744000000000000000e+03 3.006547927856445312e+01 -1.318064212799072266e+01 -6.618597507476806641e-01 -1.549242883920669556e-01 -2.450352162122726440e-01 6.847944855690002441e-01
1.745000000000000000e+03 4.966161346435546875e+01 -1.381523418426513672e+01 2.463095188140869141e+00 1.384703993797302246e+00 1.154339790344238281e+00 -1.108240246772766113e+00
1.746000000000000000e+03 5.342174530029296875e+01 -2.338995552062988281e+01 -4.295114278793334961e-01 1.777540326118469238e+00 4.044086933135986328e-01 5.033801198005676270e-01
1.747000000000000000e+03 4.300688171386718750e+01 -1.803851127624511719e+01 -1.819440126419067383e+00 4.016136527061462402e-01 -4.253479540348052979e-01 6.987971663475036621e-01
1.748000000000000000e+03 5.030867004394531250e+01 -2.419375228881835938e+01 -7.555349171161651611e-02 4.482426941394805908e-01 1.118067577481269836e-01 -5.453732609748840332e-01
1.749000000000000000e+03 5.110591125488281250e+01 -2.395759963989257812e+01 -1.396693438291549683e-01 7.227703928947448730e-01 1.749303191900253296e-01 -4.004201591014862061e-01
1.750000000000000000e+03 5.111782073974609375e+01 -1.603468513488769531e+01 1.074177861213684082e+00 1.057214975357055664e+00 6.394178271293640137e-01 -5.433237925171852112e-02
1.751000000000000000e+03 4.753644180297851562e+01 -1.598752593994140625e+01 -3.684753775596618652e-01 2.088286876678466797e-01 -4.789400473237037659e-02 7.630645632743835449e-01
1.752000000000000000e+03 4.901148223876953125e+01 -1.675445175170898438e+01 -9.461537003517150879e-01 2.085420787334442139e-01 -2.212834805250167847e-01 8.008162379264831543e-01
1.753000000000000000e+03 4.762947845458984375e+01 -1.680442237854003906e+01 -1.179520130157470703e+00 1.689153313636779785e-01 -3.031814396381378174e-01 8.403826355934143066e-01
1.754000000000000000e+03 4.873042297363281250e+01 -1.619323730468750000e+01 -2.453886717557907104e-01 2.958212792873382568e-01 1.512978319078683853e-02 6.733177900314331055e-01
1.755000000000000000e+03 4.834633255004882812e+01 -1.558454608917236328e+01 5.154935717582702637e-01 3.665513098239898682e-01 2.646134495735168457e-01 4.898906052112579346e-01
1.756000000000000000e+03 5.208827590942382812e+01 -2.450200653076171875e+01 1.174469143152236938e-01 1.392394304275512695e+00 4.529523551464080811e-01 -1.239372268319129944e-01
1.757000000000000000e+03 2.854778861999511719e+01 -1.413240623474121094e+01 -5.672791004180908203e-01 -2.227286547422409058e-01 -2.370023280382156372e-01 6.079869270324707031e-01
1.758000000000000000e+03 3.242282485961914062e+01 -1.458098125457763672e+01 -8.818928599357604980e-01 -1.114800572395324707e-01 -2.980118691921234131e-01 6.711552143096923828e-01
1.759000000000000000e+03 4.459282302856445312e+01 -1.715720939636230469e+01 -1.529986023902893066e+00 3.355025649070739746e-01 -3.583450317382812500e-01 8.315073251724243164e-01
1.760000000000000000e+03 4.378888702392578125e+01 -1.717610359191894531e+01 -1.518053770065307617e+00 3.629355430603027344e-01 -3.465354442596435547e-01 7.657319307327270508e-01
1.761000000000000000e+03 1.616241264343261719e+01 6.902542710304260254e-01 -4.714268445968627930e-01 -6.306603550910949707e-01 -3.306261599063873291e-01 5.226599574089050293e-01
1.762000000000000000e+03 1.627560997009277344e+01 2.316116809844970703e+00 -2.459018826484680176e-01 -6.103498935699462891e-01 -2.568755447864532471e-01 4.397870898246765137e-01
1.763000000000000000e+03 2.544515991210937500e+01 -8.657019615173339844e+00 -6.333282589912414551e-01 -5.964047908782958984e-01 -3.689199090003967285e-01 6.698781847953796387e-01
1.764000000000000000e+03 2.556395721435546875e+01 -7.511919498443603516e+00 -6.080904006958007812e-01 -5.395109057426452637e-01 -3.442803919315338135e-01 6.205889582633972168e-01
1.765000000000000000e+03 8.185067176818847656e+00 -3.473692893981933594e+00 -6.679173338852706365e-07 6.422165824915282428e-06 1.726274604152422398e-06 -1.913043206513975747e-06
1.766000000000000000e+03 1.062339401245117188e+01 -4.508492469787597656e+00 -3.977675532951252535e-06 -4.064269887749105692e-06 -2.412583626210107468e-06 -1.010310370475053787e-06
1.767000000000000000e+03 2.465945434570312500e+01 -4.963778495788574219e+00 -5.255538225173950195e-01 -5.601184964179992676e-01 -3.257016837596893311e-01 5.166840553283691406e-01
1.768000000000000000e+03 1.726681327819824219e+01 8.273407220840454102e-01 -3.861415386199951172e-01 -6.687469482421875000e-01 -3.164665400981903076e-01 4.921936094760894775e-01
1.769000000000000000e+03 4.297104263305664062e+01 -1.726343917846679688e+01 -1.611287474632263184e+00 3.657341897487640381e-01 -3.736659884452819824e-01 7.158293724060058594e-01
1.770000000000000000e+03 2.236579132080078125e+01 -2.315689086914062500e+00 -4.401920735836029053e-01 -6.685866117477416992e-01 -3.326336145401000977e-01 4.640128016471862793e-01
1.771000000000000000e+03 2.124839019775390625e+01 -2.280226945877075195e+00 -5.129276514053344727e-01 -7.498269081115722656e-01 -3.788263797760009766e-01 5.248807668685913086e-01
1.772000000000000000e+03 2.186733627319335938e+01 -2.876613855361938477e+00 -5.340300202369689941e-01 -7.412031292915344238e-01 -3.825699388980865479e-01 5.312886834144592285e-01
1.773000000000000000e+03 1.930660057067871094e+01 -6.265003085136413574e-01 -4.519832134246826172e-01 -7.347970008850097656e-01 -3.560340702533721924e-01 5.101270675659179688e-01
1.774000000000000000e+03 2.586176872253417969e+01 -9.337925910949707031e+00 -6.215112805366516113e-01 -5.433124303817749023e-01 -3.494471013545989990e-01 6.767512559890747070e-01
1.775000000000000000e+03 8.159066200256347656e+00 -5.013869285583496094e+00 -3.279099928477080539e-06 -3.125358034594682977e-07 -1.077490765055699740e-06 -2.716548124226392247e-06
1.776000000000000000e+03 7.378565311431884766e+00 -4.308079242706298828e+00 -2.895165152949630283e-06 4.575571438181214035e-06 5.041218287260562647e-07 -3.909901522547443165e-07
1.777000000000000000e+03 3.490111351013183594e+00 -3.370448112487792969e+00 2.575623148004524410e-05 -1.913781488838139921e-06 7.152735179261071607e-06 9.164702532871160656e-06
1.778000000000000000e+03 3.807574510574340820e+00 -6.500168323516845703e+00 5.514260919881053269e-06 5.090971171739511192e-06 3.181569582011434250e-06 5.193023298488697037e-06
1.779000000000000000e+03 2.865299463272094727e+00 -5.259066104888916016e+00 1.225098822033032775e-05 8.574491403123829514e-06 6.247643796086777002e-06 4.574513695843052119e-06
1.780000000000000000e+03 4.589091491699218750e+01 -1.560090446472167969e+01 -4.595339894294738770e-01 2.429333627223968506e-01 -6.498019397258758545e-02 6.783261895179748535e-01
1.781000000000000000e+03 4.575270462036132812e+01 -1.635464286804199219e+01 -9.701829552650451660e-01 2.551565766334533691e-01 -2.145079076290130615e-01 8.161438703536987305e-01
1.782000000000000000e+03 2.766437149047851562e+01 -1.091320037841796875e+01 -5.831807255744934082e-01 -3.198446631431579590e-01 -2.709076106548309326e-01 6.930291652679443359e-01
1.783000000000000000e+03 2.725672149658203125e+01 -1.023403263092041016e+01 -5.895184874534606934e-01 -3.588714599609375000e-01 -2.845169901847839355e-01 6.856834292411804199e-01
1.784000000000000000e+03 1.295939254760742188e+01 3.475376129150390625e+00 -2.097261250019073486e-01 -4.693848192691802979e-01 -2.037332803010940552e-01 4.187777340412139893e-01
1.785000000000000000e+03 1.324983119964599609e+01 2.376927137374877930e+00 -3.409156501293182373e-01 -4.691393673419952393e-01 -2.430165112018585205e-01 4.419227242469787598e-01
1.786000000000000000e+03 2.684566116333007812e+01 -9.554219245910644531e+00 -5.972706675529479980e-01 -4.059223532676696777e-01 -3.009579181671142578e-01 6.689842939376831055e-01
1.787000000000000000e+03 1.071052265167236328e+01 3.224405527114868164e+00 -2.549998462200164795e-01 -3.306816816329956055e-01 -1.757044643163681030e-01 3.787219822406768799e-01
1.788000000000000000e+03 2.510352706909179688e+01 -6.824293136596679688e+00 -6.065009236335754395e-01 -5.808715820312500000e-01 -3.562117516994476318e-01 6.027827262878417969e-01
1.789000000000000000e+03 2.462245178222656250e+01 -6.138186931610107422e+00 -5.999845862388610840e-01 -6.198123097419738770e-01 -3.659390807151794434e-01 5.878134369850158691e-01
1.790000000000000000e+03 8.795822143554687500e+00 -4.879590034484863281e+00 3.216684035578509793e-06 -5.294721745485730935e-07 8.061635412559553515e-07 8.853870895109139383e-06
1.791000000000000000e+03 2.359873580932617188e+01 -4.792737483978271484e+00 -5.803507566452026367e-01 -6.832613945007324219e-01 -3.790836334228515625e-01 5.595816373825073242e-01
1.792000000000000000e+03 2.304663276672363281e+01 -4.136462688446044922e+00 -5.673561096191406250e-01 -7.076637148857116699e-01 -3.825059533119201660e-01 5.476900935173034668e-01
1.793000000000000000e+03 1.767757797241210938e+01 1.431637763977050781e+00 -2.868117690086364746e-01 -6.587472558021545410e-01 -2.836677134037017822e-01 4.475261569023132324e-01
1.794000000000000000e+03 1.863797760009765625e+01 -1.219648346304893494e-01 -4.291840493679046631e-01 -7.180799245834350586e-01 -3.441791832447052002e-01 5.050914883613586426e-01
1.795000000000000000e+03 1.795667648315429688e+01 3.623447716236114502e-01 -4.088883101940155029e-01 -6.956716179847717285e-01 -3.313679993152618408e-01 4.994626939296722412e-01
1.796000000000000000e+03 1.585967350006103516e+01 1.716319322586059570e+00 -3.395010828971862793e-01 -6.039606928825378418e-01 -2.830385267734527588e-01 4.730182588100433350e-01
1.797000000000000000e+03 1.514058303833007812e+01 2.150944232940673828e+00 -3.121690154075622559e-01 -5.711054205894470215e-01 -2.649823427200317383e-01 4.607861340045928955e-01
1.798000000000000000e+03 2.061338424682617188e+01 -1.705449104309082031e+00 -4.942590594291687012e-01 -7.505851387977600098e-01 -3.734532594680786133e-01 5.198349356651306152e-01
1.799000000000000000e+03 1.996468734741210938e+01 -1.153449177742004395e+00 -4.709693193435668945e-01 -7.466403245925903320e-01 -3.652828931808471680e-01 5.146563053131103516e-01
1.800000000000000000e+03 6.544570159912109375e+01 -1.895322799682617188e+01 6.641308069229125977e-01 2.172939330339431763e-01 2.644274234771728516e-01 4.729467630386352539e-01
1.801000000000000000e+03 1.441647720336914062e+01 2.586873054504394531e+00 -2.820124626159667969e-01 -5.351489186286926270e-01 -2.451484203338623047e-01 4.471725821495056152e-01
1.802000000000000000e+03 9.601082801818847656e+00 -3.562659502029418945e+00 3.269001354055944830e-06 6.351769116008654237e-06 2.886231186494114809e-06 -3.934433152608107775e-06
1.803000000000000000e+03 1.024802589416503906e+01 3.968819379806518555e+00 -1.945206671953201294e-01 -3.213103413581848145e-01 -1.547493040561676025e-01 3.681510090827941895e-01
1.804000000000000000e+03 9.664048194885253906e+00 3.498381137847900391e+00 -2.180692404508590698e-01 -2.774645388126373291e-01 -1.486601382493972778e-01 3.485573828220367432e-01
1.805000000000000000e+03 3.132533454895019531e+01 -1.548107624053955078e+01 -8.983613848686218262e-01 -7.836374640464782715e-02 -2.930175364017486572e-01 5.501536726951599121e-01
1.806000000000000000e+03 4.472180175781250000e+01 -2.754120254516601562e+01 -7.560668885707855225e-02 -7.846891283988952637e-01 -2.580887377262115479e-01 -6.195291280746459961e-01
1.807000000000000000e+03 1.219722270965576172e+01 3.894039154052734375e+00 -1.842683106660842896e-01 -4.322201907634735107e-01 -1.849465519189834595e-01 4.029898941516876221e-01
1.808000000000000000e+03 1.143047142028808594e+01 3.815288305282592773e+00 -2.010569274425506592e-01 -3.930652737617492676e-01 -1.782366633415222168e-01 3.967115581035614014e-01
1.809000000000000000e+03 7.117697143554687500e+01 -1.577927970886230469e+01 -2.068717032670974731e-01 5.119678020477294922e+00 1.473841905593872070e+00 -5.953866839408874512e-01
1.810000000000000000e+03 6.003664398193359375e+01 -2.207833480834960938e+01 -9.970777630805969238e-01 2.910368442535400391e+00 5.739872455596923828e-01 8.623297810554504395e-01
1.811000000000000000e+03 6.282998275756835938e+01 -2.201338386535644531e+01 -6.107477545738220215e-01 -2.891500890254974365e-01 -2.699693739414215088e-01 -5.730967521667480469e-01
1.812000000000000000e+03 1.258085441589355469e+01 -1.144253253936767578e+01 -1.129874272010056302e-05 -1.374071052850922570e-05 -7.511835974582936615e-06 1.648059696890413761e-05
1.813000000000000000e+03 7.905654907226562500e+00 -1.345362758636474609e+01 3.794435770032578148e-06 -3.071644823648966849e-05 -8.076603990048170090e-06 1.578520459588617086e-05
1.814000000000000000e+03 3.010465812683105469e+01 -1.472095775604248047e+01 -7.223027348518371582e-01 -1.427447944879531860e-01 -2.595142424106597900e-01 5.795055031776428223e-01
1.815000000000000000e+03 6.495760345458984375e+01 -1.982712364196777344e+01 5.009139180183410645e-01 -9.565632045269012451e-02 1.215772777795791626e-01 3.132026791572570801e-01
1.816000000000000000e+03 6.062241744995117188e+01 -2.197837448120117188e+01 -4.333087205886840820e-01 2.065381288528442383e+00 4.896217584609985352e-01 2.191279828548431396e-01
1.817000000000000000e+03 4.277030944824218750e+01 -1.729202628135681152e+00 4.446988403797149658e-01 1.691760063171386719e+00 6.409376859664916992e-01 -8.860346674919128418e-01
1.818000000000000000e+03 4.590766525268554688e+01 -5.739834785461425781e+00 6.499578952789306641e-01 1.947944402694702148e+00 7.793707251548767090e-01 -1.186657905578613281e+00
1.819000000000000000e+03 5.102632522583007812e+01 -1.451523399353027344e+01 3.430955886840820312e+00 2.720320463180541992e+00 1.845382928848266602e+00 -1.751533746719360352e+00
1.820000000000000000e+03 4.045624542236328125e+01 -1.866739082336425781e+01 -2.066085338592529297e+00 3.021072596311569214e-02 -6.107624173164367676e-01 6.549105644226074219e-01
1.821000000000000000e+03 4.462593078613281250e+01 2.971043205261230469e+01 -4.606673121452331543e-02 9.328694939613342285e-01 2.660408318042755127e-01 1.802364289760589600e-01
1.822000000000000000e+03 4.655788040161132812e+01 -4.212113857269287109e+00 5.271664261817932129e-01 2.200671434402465820e+00 8.183513879776000977e-01 -1.184240579605102539e+00
1.823000000000000000e+03 3.349027252197265625e+01 -1.464912605285644531e+01 -9.369546175003051758e-01 -1.279486715793609619e-01 -3.194709718227386475e-01 6.927707791328430176e-01
1.824000000000000000e+03 4.226795959472656250e+01 -3.339047908782958984e+00 4.761710762977600098e-01 1.433444380760192871e+00 5.728846192359924316e-01 -8.064948916435241699e-01
1.825000000000000000e+03 4.544715881347656250e+01 -4.603840827941894531e+00 5.537881851196289062e-01 1.920467495918273926e+00 7.422766685485839844e-01 -1.126252293586730957e+00
1.826000000000000000e+03 4.237314224243164062e+01 4.097369670867919922e+00 5.089523196220397949e-01 2.288098335266113281e+00 8.391151428222656250e-01 -9.101096987724304199e-01
1.827000000000000000e+03 4.259296417236328125e+01 1.096631407737731934e+00 4.389612376689910889e-01 1.969275951385498047e+00 7.224711775779724121e-01 -8.887635469436645508e-01
1.828000000000000000e+03 6.737207794189453125e+01 -1.354085731506347656e+01 3.841994404792785645e-01 3.078496217727661133e+00 1.038808703422546387e+00 4.029999077320098877e-01
1.829000000000000000e+03 8.441981315612792969e+00 -1.438138103485107422e+01 2.253656020911876112e-05 1.714377503958530724e-05 1.190410057461122051e-05 -2.649274392751976848e-05
1.830000000000000000e+03 1.033707904815673828e+01 -1.348641967773437500e+01 1.507401248090900481e-05 2.105492967530153692e-05 1.083868301066104323e-05 -1.031135525408899412e-05
1.831000000000000000e+03 6.929021453857421875e+01 -8.818069458007812500e+00 8.280272781848907471e-02 5.355842113494873047e+00 1.631593465805053711e+00 7.008900642395019531e-01
1.832000000000000000e+03 7.247570800781250000e+01 1.131556320190429688e+01 -4.382112324237823486e-01 9.050520896911621094e+00 2.583692789077758789e+00 1.693141907453536987e-01
1.833000000000000000e+03 4.519539260864257812e+01 -2.840352630615234375e+01 -4.230372235178947449e-02 -6.210370063781738281e-01 -1.990022212266921997e-01 -5.475715994834899902e-01
1.834000000000000000e+03 4.578156661987304688e+01 3.571034240722656250e+01 -2.729988396167755127e-01 7.030781507492065430e-01 1.290237903594970703e-01 8.507549017667770386e-02
1.835000000000000000e+03 7.419467926025390625e+01 4.422422885894775391e+00 4.664298593997955322e-01 8.563267707824707031e+00 2.708909273147583008e+00 3.026131987571716309e-01
1.836000000000000000e+03 7.253752136230468750e+01 3.579612731933593750e+00 5.631103515625000000e-01 9.989157676696777344e+00 3.165680408477783203e+00 3.988263010978698730e-01
1.837000000000000000e+03 4.834004211425781250e+01 -1.260333347320556641e+01 1.948827147483825684e+00 1.379593133926391602e+00 9.985260963439941406e-01 -1.114276409149169922e+00
1.838000000000000000e+03 4.714538955688476562e+01 -1.029740715026855469e+01 1.346780776977539062e+00 1.596351504325866699e+00 8.829396963119506836e-01 -1.272367238998413086e+00
1.839000000000000000e+03 4.721502685546875000e+01 -1.138329696655273438e+01 1.474650025367736816e+00 1.297666668891906738e+00 8.316950201988220215e-01 -1.087754487991333008e+00
1.840000000000000000e+03 7.711507415771484375e+01 1.463226985931396484e+01 -2.551435492932796478e-02 7.340009689331054688e+00 2.194348573684692383e+00 2.109197378158569336e-01
1.841000000000000000e+03 7.493997955322265625e+01 1.207174491882324219e+01 -1.881257444620132446e-01 8.176138877868652344e+00 2.396403789520263672e+00 3.805478215217590332e-01
1.842000000000000000e+03 7.701667785644531250e+01 7.489930391311645508e-01 2.378722280263900757e-01 6.692108154296875000e+00 2.078994274139404297e+00 -2.458400577306747437e-01
1.843000000000000000e+03 7.722212219238281250e+01 1.910026431083679199e+00 1.646484583616256714e-01 6.561057090759277344e+00 2.017711639404296875e+00 -6.185065954923629761e-02
1.844000000000000000e+03 7.627371215820312500e+01 1.658813476562500000e+00 3.172220885753631592e-01 7.157292842864990234e+00 2.242354631423950195e+00 -1.061008200049400330e-01
1.845000000000000000e+03 7.343064117431640625e+01 4.849659919738769531e+00 5.023788809776306152e-01 9.212128639221191406e+00 2.914352416992187500e+00 4.009500145912170410e-01
1.846000000000000000e+03 7.475725555419921875e+01 5.287374019622802734e+00 3.768996894359588623e-01 8.214642524719238281e+00 2.577462673187255859e+00 3.645667731761932373e-01
1.847000000000000000e+03 7.637542724609375000e+01 3.718103647232055664e+00 2.540753185749053955e-01 7.140984535217285156e+00 2.218518018722534180e+00 1.572290062904357910e-01
1.848000000000000000e+03 7.286719512939453125e+01 2.159964084625244141e+00 7.019078135490417480e-01 9.424349784851074219e+00 3.037877321243286133e+00 2.989945113658905029e-01
1.849000000000000000e+03 7.669102478027343750e+01 8.678941726684570312e+00 1.641807495616376400e-03 7.264490127563476562e+00 2.179839611053466797e+00 4.398655593395233154e-01
1.850000000000000000e+03 7.511759948730468750e+01 -7.256101131439208984e+00 -9.161843359470367432e-02 7.084969997406005859e+00 2.098005533218383789e+00 -5.003080964088439941e-01
1.851000000000000000e+03 7.279560852050781250e+01 -3.669846534729003906e+00 1.652398109436035156e-01 7.907605648040771484e+00 2.421853780746459961e+00 -9.450248628854751587e-02
1.852000000000000000e+03 7.572389984130859375e+01 1.059046077728271484e+01 -1.149140149354934692e-01 7.800398349761962891e+00 2.305645227432250977e+00 4.657079279422760010e-01
1.853000000000000000e+03 7.509788513183593750e+01 -5.730936050415039062e+00 -6.114791333675384521e-02 7.184765338897705078e+00 2.137085199356079102e+00 -5.440934896469116211e-01
1.854000000000000000e+03 7.432455444335937500e+01 -2.810910224914550781e+00 2.143359780311584473e-01 7.684039592742919922e+00 2.369512557983398438e+00 -4.001881480216979980e-01
1.855000000000000000e+03 7.529662322998046875e+01 -4.245365142822265625e+00 4.888680949807167053e-02 7.245955467224121094e+00 2.188452720642089844e+00 -5.479648113250732422e-01
1.856000000000000000e+03 7.361414337158203125e+01 1.805294799804687500e+01 9.358573704957962036e-02 8.386466979980468750e+00 2.544015884399414062e+00 3.019917309284210205e-01
1.857000000000000000e+03 7.734413146972656250e+01 1.687116813659667969e+01 3.468376025557518005e-02 7.402728080749511719e+00 2.231223583221435547e+00 1.976077705621719360e-01
1.858000000000000000e+03 7.608036804199218750e+01 1.522075366973876953e+01 -2.697542123496532440e-02 7.767916679382324219e+00 2.322282314300537109e+00 2.275400906801223755e-01
1.859000000000000000e+03 7.355127716064453125e+01 1.932467651367187500e+01 8.348973840475082397e-02 8.420236587524414062e+00 2.551117897033691406e+00 2.820720076560974121e-01
1.860000000000000000e+03 7.521260833740234375e+01 2.035727119445800781e+01 1.197425872087478638e-01 7.996281147003173828e+00 2.434807062149047852e+00 3.262209892272949219e-01
1.861000000000000000e+03 7.572197723388671875e+01 -1.434835910797119141e+01 -2.796219587326049805e-01 7.145627498626708984e+00 2.059801816940307617e+00 -2.203745692968368530e-01
1.862000000000000000e+03 7.040197753906250000e+01 -9.435997962951660156e+00 -2.257928950712084770e-03 5.690285682678222656e+00 1.706408381462097168e+00 2.912142574787139893e-01
1.863000000000000000e+03 7.664689636230468750e+01 -2.175293350219726562e+01 3.809180110692977905e-02 7.728766441345214844e+00 2.330057382583618164e+00 6.674118638038635254e-01
1.864000000000000000e+03 7.609576416015625000e+01 -1.682931518554687500e+01 -3.895717561244964600e-01 7.438145637512207031e+00 2.114572048187255859e+00 8.947522938251495361e-02
1.865000000000000000e+03 7.624935913085937500e+01 -2.663022041320800781e+01 7.933364510536193848e-01 7.861338138580322266e+00 2.596402406692504883e+00 -4.776713252067565918e-01
1.866000000000000000e+03 7.561473846435546875e+01 -2.808569145202636719e+01 8.077324032783508301e-01 8.286668777465820312e+00 2.728320121765136719e+00 -9.378864765167236328e-01
1.867000000000000000e+03 7.342394256591796875e+01 -2.186332511901855469e+01 1.634665876626968384e-01 8.693733215332031250e+00 2.657159805297851562e+00 6.974235177040100098e-02
1.868000000000000000e+03 7.561330413818359375e+01 -1.297241687774658203e+01 -1.900941580533981323e-01 7.076593875885009766e+00 2.065949916839599609e+00 -3.229857981204986572e-01
1.869000000000000000e+03 7.537812042236328125e+01 -1.012363147735595703e+01 -1.449293643236160278e-01 6.995875835418701172e+00 2.055283784866333008e+00 -4.416259825229644775e-01
1.870000000000000000e+03 7.551139068603515625e+01 -1.155269241333007812e+01 -1.897690296173095703e-01 6.992335319519042969e+00 2.040769815444946289e+00 -3.837747871875762939e-01
1.871000000000000000e+03 7.721195983886718750e+01 -1.915552711486816406e+01 -1.600435078144073486e-01 7.740513324737548828e+00 2.274141073226928711e+00 4.261949658393859863e-01
1.872000000000000000e+03 7.585456085205078125e+01 -2.112410163879394531e+01 -6.756693869829177856e-02 7.992675304412841797e+00 2.377532482147216797e+00 6.025023460388183594e-01
1.873000000000000000e+03 7.518689727783203125e+01 -1.706480979919433594e+01 -4.662012457847595215e-01 7.304852008819580078e+00 2.051595211029052734e+00 -9.314582496881484985e-02
1.874000000000000000e+03 7.383071136474609375e+01 -1.661618995666503906e+01 -5.181473493576049805e-01 6.798359394073486328e+00 1.884063601493835449e+00 -3.656573593616485596e-01
1.875000000000000000e+03 7.425902557373046875e+01 -2.707279777526855469e+01 1.295171856880187988e+00 9.121704101562500000e+00 3.125062704086303711e+00 -8.343377113342285156e-01
1.876000000000000000e+03 7.560100555419921875e+01 -2.507883644104003906e+01 1.040416717529296875e+00 8.105188369750976562e+00 2.743681430816650391e+00 -9.276079945266246796e-03
1.877000000000000000e+03 7.343480682373046875e+01 3.539493179321289062e+01 -4.190431535243988037e-01 6.793621063232421875e+00 1.912373423576354980e+00 1.676882803440093994e-01
1.878000000000000000e+03 7.510319519042968750e+01 3.446274185180664062e+01 -2.928839027881622314e-01 7.751903057098388672e+00 2.237705707550048828e+00 3.703407943248748779e-01
1.879000000000000000e+03 7.133181762695312500e+01 3.397732925415039062e+01 -6.211130619049072266e-01 5.601354122161865234e+00 1.494072318077087402e+00 -3.085019625723361969e-02
1.880000000000000000e+03 7.386927032470703125e+01 2.213030433654785156e+01 2.286380678415298462e-01 8.183713912963867188e+00 2.523705720901489258e+00 3.039621114730834961e-01
1.881000000000000000e+03 7.284503936767578125e+01 2.307943344116210938e+01 2.950807809829711914e-01 8.271583557128906250e+00 2.569999456405639648e+00 1.929309666156768799e-01
1.882000000000000000e+03 7.426207733154296875e+01 2.560870742797851562e+01 2.503505051136016846e-01 7.830593585968017578e+00 2.424283266067504883e+00 5.241048932075500488e-01
1.883000000000000000e+03 7.705737304687500000e+01 2.675048065185546875e+01 5.249183252453804016e-02 8.054903984069824219e+00 2.432218790054321289e+00 5.742752552032470703e-01
1.884000000000000000e+03 7.425669860839843750e+01 2.331027030944824219e+01 2.383166551589965820e-01 8.027359008789062500e+00 2.479702711105346680e+00 4.031200110912322998e-01
1.885000000000000000e+03 7.719906616210937500e+01 -3.040883827209472656e+01 2.408441156148910522e-02 8.084671974182128906e+00 2.432626962661743164e+00 -9.838806986808776855e-01
1.886000000000000000e+03 7.532157135009765625e+01 -3.567786407470703125e+01 -6.853361725807189941e-01 7.978552818298339844e+00 2.187964916229248047e+00 -3.431607484817504883e-01
1.887000000000000000e+03 7.675014495849609375e+01 2.948910713195800781e+01 -6.179092824459075928e-02 8.256437301635742188e+00 2.458394050598144531e+00 6.384384632110595703e-01
1.888000000000000000e+03 7.615151214599609375e+01 2.545969390869140625e+01 1.416732519865036011e-01 7.902888298034667969e+00 2.413368463516235352e+00 5.586680173873901367e-01
1.889000000000000000e+03 7.643410491943359375e+01 -3.165126419067382812e+01 -2.178881466388702393e-01 8.249373435974121094e+00 2.409445762634277344e+00 -1.092487812042236328e+00
1.890000000000000000e+03 7.555785369873046875e+01 -3.206995773315429688e+01 -3.103971779346466064e-01 8.242301940917968750e+00 2.379571437835693359e+00 -9.819628596305847168e-01
1.891000000000000000e+03 7.706582641601562500e+01 -3.252971267700195312e+01 -2.099113166332244873e-01 8.401563644409179688e+00 2.457495689392089844e+00 -8.762854933738708496e-01
1.892000000000000000e+03 7.393283843994140625e+01 -3.122909355163574219e+01 -1.717382371425628662e-01 8.244659423828125000e+00 2.421876430511474609e+00 -6.849877238273620605e-01
1.893000000000000000e+03 7.503804779052734375e+01 -3.082749557495117188e+01 -1.147000938653945923e-01 8.395910263061523438e+00 2.484363079071044922e+00 -1.107360839843750000e+00
1.894000000000000000e+03 7.227038574218750000e+01 3.078698348999023438e+01 -3.581444621086120605e-01 6.654809474945068359e+00 1.888999581336975098e+00 3.566439747810363770e-01
1.895000000000000000e+03 7.539308166503906250e+01 2.948566436767578125e+01 -5.465421453118324280e-02 7.853192806243896484e+00 2.339561462402343750e+00 7.013183832168579102e-01
1.896000000000000000e+03 7.542414855957031250e+01 8.573341369628906250e-01 4.346764683723449707e-01 7.589147090911865234e+00 2.407146930694580078e+00 -1.630769968032836914e-01
1.897000000000000000e+03 4.047822189331054688e+01 -1.621135139465332031e+01 -1.353044867515563965e+00 -5.739996209740638733e-02 -4.231334626674652100e-01 4.556815326213836670e-01
1.898000000000000000e+03 3.779908370971679688e+01 -1.601290512084960938e+01 -1.357745170593261719e+00 -4.757518768310546875e-01 -5.500491261482238770e-01 6.229034066200256348e-01
1.899000000000000000e+03 7.597097015380859375e+01 3.839748764038085938e+01 -2.639962434768676758e-01 8.510379791259765625e+00 2.473914861679077148e+00 3.323023617267608643e-01
1.900000000000000000e+03 7.585664367675781250e+01 3.691275405883789062e+01 -2.841265797615051270e-01 8.149872779846191406e+00 2.359723806381225586e+00 2.141506969928741455e-01
1.901000000000000000e+03 7.359507751464843750e+01 9.060922265052795410e-01 6.497421860694885254e-01 8.716906547546386719e+00 2.809994697570800781e+00 5.565972253680229187e-02
1.902000000000000000e+03 7.274845123291015625e+01 1.641440582275390625e+01 1.164515912532806396e-01 8.637851715087890625e+00 2.626291036605834961e+00 2.860497236251831055e-01
1.903000000000000000e+03 7.349763488769531250e+01 1.535692501068115234e+01 1.646195724606513977e-02 8.417308807373046875e+00 2.530131101608276367e+00 1.832256466150283813e-01
1.904000000000000000e+03 7.233126831054687500e+01 1.907161331176757812e+01 5.679485574364662170e-02 8.754141807556152344e+00 2.643280982971191406e+00 2.394142746925354004e-01
1.905000000000000000e+03 7.246741485595703125e+01 1.775826072692871094e+01 6.808347254991531372e-02 8.787007331848144531e+00 2.656527280807495117e+00 2.854697704315185547e-01
1.906000000000000000e+03 7.643936920166015625e+01 -3.643580627441406250e+01 -3.794352412223815918e-01 8.185637474060058594e+00 2.341860771179199219e+00 -2.463873028755187988e-01
1.907000000000000000e+03 5.509327697753906250e+01 -2.545470619201660156e+01 2.865862846374511719e-01 3.976645231246948242e+00 1.278969407081604004e+00 1.020423650741577148e+00
1.908000000000000000e+03 5.444395065307617188e+01 -2.747388839721679688e+01 1.386028885841369629e+00 4.414617538452148438e+00 1.740193963050842285e+00 5.038095712661743164e-01
1.909000000000000000e+03 4.475038909912109375e+01 3.354364776611328125e+01 -2.078052759170532227e-01 8.095663189888000488e-01 1.805282980203628540e-01 9.217263758182525635e-02
1.910000000000000000e+03 4.782461166381835938e+01 -7.814754962921142578e+00 7.895519137382507324e-01 2.470217466354370117e+00 9.779307842254638672e-01 -1.417052149772644043e+00
1.911000000000000000e+03 3.840390396118164062e+01 8.889777183532714844e+00 6.987002491950988770e-01 1.895900726318359375e+00 7.783802747726440430e-01 -4.515286087989807129e-01
1.912000000000000000e+03 4.146397113800048828e+00 -1.481208229064941406e+01 1.558677286084275693e-05 -5.975505246169632301e-06 2.883380147977732122e-06 -9.278370271204039454e-06
1.913000000000000000e+03 4.694797039031982422e+00 2.202934837341308594e+01 2.707446180284023285e-02 -5.293532609939575195e-01 -1.506836414337158203e-01 5.273409187793731689e-02
1.914000000000000000e+03 6.514563560485839844e+00 -2.089016151428222656e+01 5.001133831683546305e-05 -2.130342909367755055e-05 8.612372766947373748e-06 -3.301870674476958811e-05
1.915000000000000000e+03 4.340672016143798828e+00 -1.869226455688476562e+01 -2.741326170507818460e-06 -1.300828353123506531e-05 -4.724883183371275663e-06 1.195168442791327834e-05
1.916000000000000000e+03 5.822668552398681641e+00 -2.630791854858398438e+01 1.198371392092667520e-04 1.290301297558471560e-04 7.466017996193841100e-05 -5.253895142232067883e-05
1.917000000000000000e+03 3.691105842590332031e+00 -2.328017044067382812e+01 -1.357766814180649817e-05 9.335020149592310190e-05 2.393175964243710041e-05 -3.770680268644355237e-05
1.918000000000000000e+03 7.245103359222412109e+00 -1.806930160522460938e+01 2.845596827683039010e-05 4.100021760677918792e-05 2.083685467368923128e-05 -2.620894156279973686e-05
1.919000000000000000e+03 5.510334968566894531e+00 -1.891683769226074219e+01 8.488503766557187191e-08 8.910188626032322645e-05 2.675603172974660993e-05 -4.690413334174081683e-05
1.920000000000000000e+03 4.151116847991943359e+00 -2.217830848693847656e+01 -1.060599515767535195e-05 -8.014019840629771352e-05 -2.722385761444456875e-05 -2.580744194347062148e-06
1.921000000000000000e+03 3.038010597229003906e+00 -2.576864624023437500e+01 -8.511417036061175168e-06 4.163790435995906591e-05 9.937946742866188288e-06 -8.068423085205722600e-06
1.922000000000000000e+03 5.450213432312011719e+00 -2.755911064147949219e+01 8.235656423494219780e-05 6.053664492355892435e-06 2.652307011885568500e-05 3.191286668879911304e-05
1.923000000000000000e+03 3.320880889892578125e+00 2.058754158020019531e+01 1.572124473750591278e-02 -5.642787814140319824e-01 -1.645672619342803955e-01 5.341951921582221985e-02
1.924000000000000000e+03 6.051644802093505859e+00 2.214186668395996094e+01 4.337560012936592102e-02 -4.835721254348754883e-01 -1.320589482784271240e-01 5.861174687743186951e-02
1.925000000000000000e+03 4.770678997039794922e+00 2.490273284912109375e+01 2.101660892367362976e-02 -5.371217727661132812e-01 -1.548315435647964478e-01 2.511672489345073700e-02
1.926000000000000000e+03 5.033174514770507812e+00 2.869485473632812500e+01 1.169582176953554153e-02 -5.329234600067138672e-01 -1.563683003187179565e-01 3.329996252432465553e-03
1.927000000000000000e+03 4.486449241638183594e+00 1.776525497436523438e+01 3.471284359693527222e-02 -4.884942471981048584e-01 -1.361344307661056519e-01 1.024547591805458069e-01
1.928000000000000000e+03 3.270492553710937500e+00 1.917738151550292969e+01 1.886663958430290222e-02 -5.460034012794494629e-01 -1.581410318613052368e-01 6.607554852962493896e-02
1.929000000000000000e+03 4.566296577453613281e+00 1.918133926391601562e+01 3.293564170598983765e-02 -5.066593289375305176e-01 -1.421170979738235474e-01 8.400115370750427246e-02
1.930000000000000000e+03 3.153964281082153320e+00 1.485557174682617188e+01 1.701065339148044586e-02 -4.571937322616577148e-01 -1.320549249649047852e-01 1.078602448105812073e-01
1.931000000000000000e+03 4.215932846069335938e+00 1.181740570068359375e+01 2.023035846650600433e-02 -3.657224774360656738e-01 -1.036476343870162964e-01 1.669027805328369141e-01
1.932000000000000000e+03 4.292196750640869141e+00 1.332815361022949219e+01 2.749508805572986603e-02 -4.056399166584014893e-01 -1.134434491395950317e-01 1.548197120428085327e-01
1.933000000000000000e+03 4.691052913665771484e+00 2.345098876953125000e+01 2.614051662385463715e-02 -5.356828570365905762e-01 -1.528626978397369385e-01 3.861989080905914307e-02
1.934000000000000000e+03 4.687327861785888672e+00 2.622714996337890625e+01 1.782013475894927979e-02 -5.432670116424560547e-01 -1.576340645551681519e-01 1.707259565591812134e-02
1.935000000000000000e+03 4.157382488250732422e+00 -1.046201801300048828e+01 -1.182077994599239901e-05 4.111715043109143153e-06 -2.312719516339711845e-06 -1.477465843890968245e-06
1.936000000000000000e+03 3.974981546401977539e+00 -9.031572341918945312e+00 7.684919182793237269e-06 -2.117271833412814885e-06 1.670294182076759171e-06 4.351782081357669085e-06
1.937000000000000000e+03 4.024005889892578125e+00 -1.337712955474853516e+01 -1.925847391248680651e-05 1.286544716094795149e-06 -5.391578724811552092e-06 2.072951247100718319e-06
1.938000000000000000e+03 4.088753700256347656e+00 1.032518768310546875e+01 9.667031466960906982e-03 -3.224335908889770508e-01 -9.382996708154678345e-02 1.741204112768173218e-01
1.939000000000000000e+03 5.532619476318359375e+00 3.188614082336425781e+01 5.765160080045461655e-03 -5.030423998832702637e-01 -1.491831839084625244e-01 -6.440982222557067871e-03
1.940000000000000000e+03 6.700758457183837891e+00 3.632562637329101562e+01 -2.330842893570661545e-03 -4.436059892177581787e-01 -1.337810456752777100e-01 -8.241759613156318665e-03
1.941000000000000000e+03 3.462954759597778320e+00 -3.030776786804199219e+01 2.327355032321065664e-04 1.487927220296114683e-04 1.144584603025577962e-04 2.080469712382182479e-04
1.942000000000000000e+03 4.971562385559082031e+00 -2.892577552795410156e+01 2.969803172163665295e-04 1.357117580482736230e-04 1.298076240345835686e-04 1.099882792914286256e-04
1.943000000000000000e+03 4.133657455444335938e+00 -1.194427776336669922e+01 1.747573878674302250e-05 9.601225428923498839e-06 8.123089173750486225e-06 7.837530233700817917e-07
1.944000000000000000e+03 4.814590930938720703e+00 -5.403650760650634766e+00 -5.552512334361381363e-07 7.570911293441895396e-06 2.104698069160804152e-06 6.351354841171996668e-06
1.945000000000000000e+03 6.303294658660888672e+00 3.457620239257812500e+01 4.377117380499839783e-03 -4.599547684192657471e-01 -1.366732865571975708e-01 -8.075446821749210358e-03
1.946000000000000000e+03 3.546005487442016602e+00 3.311949539184570312e+01 4.292952362447977066e-03 -6.015852689743041992e-01 -1.791876852512359619e-01 -4.199853632599115372e-03
1.947000000000000000e+03 5.354319095611572266e+00 3.019393539428710938e+01 1.107561774551868439e-02 -5.112383961677551270e-01 -1.500488221645355225e-01 -4.093309398740530014e-03
1.948000000000000000e+03 5.413474082946777344e+00 -3.415766143798828125e+01 4.520395013969391584e-04 4.417346790432929993e-04 2.681322512216866016e-04 8.996166288852691650e-04
1.949000000000000000e+03 4.773198127746582031e+00 -3.040615844726562500e+01 2.656785072758793831e-04 8.242844342021271586e-05 1.044320815708488226e-04 2.789983700495213270e-04
1.950000000000000000e+03 4.656280040740966797e+00 -3.169527626037597656e+01 4.405797517392784357e-04 1.897990005090832710e-04 1.891136344056576490e-04 4.400835023261606693e-04
1.951000000000000000e+03 3.453050136566162109e+00 -3.172840690612792969e+01 1.671033096499741077e-04 2.198465226683765650e-04 1.160849496955052018e-04 3.470955416560173035e-04
1.952000000000000000e+03 3.932575941085815430e+00 8.885543823242187500e+00 -3.046484664082527161e-03 -2.723904252052307129e-01 -8.263107389211654663e-02 1.728946417570114136e-01
1.953000000000000000e+03 3.867131471633911133e+00 -5.380568027496337891e+00 -6.516669145639752969e-06 -7.452284989994950593e-06 -4.190686468064086512e-06 -7.390832251985557377e-06
1.954000000000000000e+03 2.764206886291503906e+00 -6.484320640563964844e+00 -1.466941648686770350e-05 -4.096784323337487876e-06 -5.629860424960497767e-06 -2.083704202959779650e-06
1.955000000000000000e+03 5.767428398132324219e+00 -3.575505447387695312e+01 -5.854981282027438283e-05 6.968273664824664593e-04 1.914832682814449072e-04 1.176574616692960262e-03
1.956000000000000000e+03 3.672121810913085938e+01 -1.599539089202880859e+01 -1.321524620056152344e+00 -4.367674887180328369e-01 -5.274876356124877930e-01 6.709929108619689941e-01
1.957000000000000000e+03 7.270960235595703125e+01 -3.387506008148193359e-01 6.176975965499877930e-01 8.950066566467285156e+00 2.870329141616821289e+00 1.294576227664947510e-01
1.958000000000000000e+03 7.031019592285156250e+01 3.201140594482421875e+01 -5.926958918571472168e-01 5.328428745269775391e+00 1.420719861984252930e+00 -8.355087786912918091e-02
1.959000000000000000e+03 1.659812355041503906e+01 -8.466234207153320312e+00 -4.911597443424398080e-06 -1.970464836631435901e-06 -2.064618684016750194e-06 -3.406780933801201172e-06
1.960000000000000000e+03 4.128175354003906250e+01 3.534706592559814453e+00 4.782698154449462891e-01 2.085011959075927734e+00 7.689844965934753418e-01 -7.575193047523498535e-01
1.961000000000000000e+03 4.193924713134765625e+01 2.298463582992553711e+00 4.504326879978179932e-01 2.004287719726562500e+00 7.364161610603332520e-01 -8.293561935424804688e-01
1.962000000000000000e+03 7.113479614257812500e+01 -4.597749233245849609e+00 1.586970835924148560e-01 7.637574672698974609e+00 2.338881492614746094e+00 5.205591917037963867e-01
1.963000000000000000e+03 7.436061096191406250e+01 2.113893127441406250e+01 1.414300054311752319e-01 8.146681785583496094e+00 2.486433506011962891e+00 2.991816401481628418e-01
1.964000000000000000e+03 6.844338226318359375e+01 -1.019738864898681641e+01 2.749313414096832275e-01 4.443764209747314453e+00 1.415608644485473633e+00 7.155991196632385254e-01
1.965000000000000000e+03 7.259064483642578125e+01 -9.336076736450195312e+00 -1.679078489542007446e-01 6.454253673553466797e+00 1.885903835296630859e+00 -1.616767793893814087e-01
1.966000000000000000e+03 7.332144165039062500e+01 -2.315725898742675781e+01 8.366521000862121582e-01 9.343175888061523438e+00 3.053948402404785156e+00 1.640767902135848999e-01
1.967000000000000000e+03 7.438945007324218750e+01 -2.471379280090332031e+01 1.162973046302795410e+00 9.086766242980957031e+00 3.074921846389770508e+00 7.730914652347564697e-02
1.968000000000000000e+03 7.162256622314453125e+01 -3.219558000564575195e+00 2.161118537187576294e-01 8.300384521484375000e+00 2.554948806762695312e+00 4.200102686882019043e-01
1.969000000000000000e+03 7.211724090576171875e+01 -1.809129714965820312e+00 4.357850551605224609e-01 8.803771018981933594e+00 2.771866798400878906e+00 2.130481004714965820e-01
1.970000000000000000e+03 7.300343322753906250e+01 -6.828595161437988281e+00 -1.198385283350944519e-01 7.053349018096923828e+00 2.080053091049194336e+00 -2.014311999082565308e-01
1.971000000000000000e+03 7.133107757568359375e+01 -1.020098590850830078e+01 -1.282703578472137451e-01 5.948351383209228516e+00 1.746024250984191895e+00 3.041675873100757599e-02
1.972000000000000000e+03 6.712220191955566406e+00 -2.796895980834960938e+01 3.470742376521229744e-04 1.101714224205352366e-04 1.371737016597762704e-04 3.995303995907306671e-05
1.973000000000000000e+03 6.069355487823486328e+00 -2.495555114746093750e+01 -3.110566467512398958e-05 -4.082855230080895126e-05 -2.158026472898200154e-05 3.645032120402902365e-05
1.974000000000000000e+03 4.913075637817382812e+01 -1.508083534240722656e+01 1.449355721473693848e+00 6.104307174682617188e-01 6.179358959197998047e-01 -6.518726050853729248e-02
1.975000000000000000e+03 3.774275970458984375e+01 2.571909713745117188e+01 5.397176370024681091e-03 1.187869310379028320e+00 3.579799532890319824e-01 -1.058078408241271973e-01
1.976000000000000000e+03 3.814055633544921875e+01 1.325730419158935547e+01 5.065516233444213867e-01 1.947525143623352051e+00 7.362230420112609863e-01 -3.954247832298278809e-01
1.977000000000000000e+03 7.178315734863281250e+01 -6.407035350799560547e+00 -2.293044142425060272e-02 7.047009944915771484e+00 2.107223749160766602e+00 1.250798404216766357e-01
1.978000000000000000e+03 6.797438049316406250e+01 -3.869591522216796875e+01 1.739090830087661743e-01 2.023416757583618164e+00 6.591977477073669434e-01 4.048528671264648438e-01
1.979000000000000000e+03 6.928117370605468750e+01 -1.304778861999511719e+01 9.169643372297286987e-02 4.370157718658447266e+00 1.338556289672851562e+00 7.965548336505889893e-02
1.980000000000000000e+03 6.940763092041015625e+01 -1.089123249053955078e+01 6.179705262184143066e-02 4.824884891510009766e+00 1.466004610061645508e+00 3.724641501903533936e-01
1.981000000000000000e+03 7.676023483276367188e+00 -1.703192520141601562e+01 -3.873971945722587407e-05 -1.657430766499601305e-05 -1.659420740907080472e-05 1.529749715700745583e-05
1.982000000000000000e+03 5.803586959838867188e+01 -2.297745132446289062e+01 -1.313396811485290527e+00 4.374508857727050781e+00 9.183335304260253906e-01 1.937483549118041992e+00
1.983000000000000000e+03 3.799847793579101562e+01 1.980900001525878906e+01 2.022982537746429443e-01 1.543264031410217285e+00 5.236687064170837402e-01 -1.449073851108551025e-01
1.984000000000000000e+03 3.822290802001953125e+01 1.644522476196289062e+01 3.205551505088806152e-01 1.824156522750854492e+00 6.434135437011718750e-01 -2.365076392889022827e-01
1.985000000000000000e+03 7.484796905517578125e+01 2.646631240844726562e+01 1.841493546962738037e-01 7.804036617279052734e+00 2.396455764770507812e+00 6.061947345733642578e-01
1.986000000000000000e+03 4.666656494140625000e+01 -2.592768287658691406e+01 9.461302310228347778e-02 -2.901066541671752930e-01 -5.864809080958366394e-02 -8.373027443885803223e-01
1.987000000000000000e+03 4.046497344970703125e+01 2.684538078308105469e+01 -2.556728012859821320e-02 1.206382393836975098e+00 3.542445302009582520e-01 3.626093640923500061e-02
1.988000000000000000e+03 6.208390426635742188e+01 -1.677680778503417969e+01 9.546291232109069824e-01 8.567897677421569824e-01 5.434256792068481445e-01 2.813225984573364258e+00
1.989000000000000000e+03 7.311176300048828125e+01 2.584575462341308594e+01 3.385854065418243408e-01 7.782580852508544922e+00 2.436349868774414062e+00 3.889279663562774658e-01
1.990000000000000000e+03 7.138220214843750000e+01 2.899048614501953125e+01 1.200152561068534851e-02 6.754072189331054688e+00 2.029822111129760742e+00 1.616818159818649292e-01
1.991000000000000000e+03 3.793579483032226562e+01 1.155398082733154297e+01 6.207497715950012207e-01 1.868314027786254883e+00 7.467191219329833984e-01 -4.267052412033081055e-01
1.992000000000000000e+03 6.595864868164062500e+01 -1.787956619262695312e+01 8.420700430870056152e-01 8.300442695617675781e-01 5.016342997550964355e-01 5.127216577529907227e-01
1.993000000000000000e+03 3.661676025390625000e+01 1.788346672058105469e+01 3.175738155841827393e-01 1.484895706176757812e+00 5.407408475875854492e-01 -2.688741683959960938e-01
1.994000000000000000e+03 7.178736114501953125e+01 3.233552932739257812e+01 -5.636136531829833984e-01 6.196278572082519531e+00 1.689799547195434570e+00 1.616620868444442749e-01
1.995000000000000000e+03 5.601291275024414062e+01 -2.500833129882812500e+01 -1.389221996068954468e-01 4.237985134124755859e+00 1.229718923568725586e+00 1.407243967056274414e+00
1.996000000000000000e+03 7.442119598388671875e+01 -2.826622772216796875e+01 7.300934195518493652e-01 9.021697044372558594e+00 2.925537109375000000e+00 -7.560576796531677246e-01
1.997000000000000000e+03 1.396937084197998047e+01 -3.760408782958984375e+01 -1.575296395458281040e-03 2.296038437634706497e-03 2.162226592190563679e-04 3.338845213875174522e-03
1.998000000000000000e+03 1.788050270080566406e+01 -3.750922393798828125e+01 -3.930581733584403992e-03 1.976755447685718536e-03 -5.861478857696056366e-04 4.003446083515882492e-03
1.999000000000000000e+03 5.474242401123046875e+01 3.629927062988281250e+01 -4.145376980304718018e-01 4.803030937910079956e-02 -1.099522188305854797e-01 1.552520785480737686e-02
2.000000000000000000e+03 5.294655227661132812e+01 3.901165390014648438e+01 -2.266368865966796875e-01 1.584939509630203247e-01 -2.044287882745265961e-02 9.721247106790542603e-02
2.001000000000000000e+03 7.344530487060546875e+01 -3.539401245117187500e+01 -8.908760547637939453e-01 6.597401618957519531e+00 1.711957693099975586e+00 -1.105842441320419312e-01
2.002000000000000000e+03 1.280510234832763672e+01 -3.559742736816406250e+01 2.891082549467682838e-04 9.379736147820949554e-04 3.681245434563606977e-04 3.426793729886412621e-03
2.003000000000000000e+03 3.612030410766601562e+01 -1.269820117950439453e+01 -4.775612950325012207e-01 -2.034639418125152588e-01 -2.043075710535049438e-01 5.783399939537048340e-01
2.004000000000000000e+03 7.434428405761718750e+01 2.776023292541503906e+01 1.170432418584823608e-01 7.667394638061523438e+00 2.335331439971923828e+00 6.498774290084838867e-01
2.005000000000000000e+03 6.342974472045898438e+01 4.123236465454101562e+01 3.398933708667755127e-01 3.033916950225830078e-01 1.929855346679687500e-01 2.816400118172168732e-02
2.006000000000000000e+03 6.849893951416015625e+01 3.478373718261718750e+01 -6.180623173713684082e-01 3.353865385055541992e+00 8.207408785820007324e-01 -4.141240715980529785e-01
2.007000000000000000e+03 8.853142738342285156e+00 -3.018731117248535156e+01 1.013698638416826725e-03 -2.992381341755390167e-04 2.143381425412371755e-04 3.105230571236461401e-04
2.008000000000000000e+03 9.417036056518554688e+00 -3.445328903198242188e+01 8.023324189707636833e-04 3.475391422398388386e-04 3.449614741839468479e-04 1.863542478531599045e-03
2.009000000000000000e+03 7.808418750762939453e+00 -1.512254047393798828e+01 -4.007570169051177800e-05 5.465750291477888823e-06 -1.038298523781122640e-05 2.872948971344158053e-05
2.010000000000000000e+03 5.130002975463867188e+00 -1.669357490539550781e+01 -9.955162568076048046e-06 8.304884249810129404e-05 2.192810461565386504e-05 -1.329707629338372499e-05
2.011000000000000000e+03 4.189688682556152344e+00 -1.740918159484863281e+01 1.537186653877142817e-05 -2.623371619847603142e-05 -3.258554670537705533e-06 -9.161331945506390184e-06
2.012000000000000000e+03 5.245471572875976562e+01 4.124906158447265625e+01 -2.299908101558685303e-01 1.593319624662399292e-01 -2.119765244424343109e-02 3.967931121587753296e-02
2.013000000000000000e+03 6.658390808105468750e+01 3.730603790283203125e+01 -1.673084050416946411e-01 1.695989370346069336e+00 4.586042761802673340e-01 -2.612740993499755859e-01
2.014000000000000000e+03 6.764988708496093750e+01 -4.126095962524414062e+01 5.017845034599304199e-01 1.761328935623168945e+00 6.789340376853942871e-01 1.642990857362747192e-01
2.015000000000000000e+03 6.631039428710937500e+01 -3.617507171630859375e+01 -5.274308323860168457e-01 4.436217844486236572e-01 -2.514272369444370270e-02 4.713283851742744446e-02
2.016000000000000000e+03 1.076736354827880859e+01 -3.329942703247070312e+01 2.079385332763195038e-03 -1.013605142361484468e-04 5.934074288234114647e-04 2.003801753744482994e-03
2.017000000000000000e+03 4.465227508544921875e+01 -3.152021408081054688e+01 9.134028106927871704e-02 -5.492389202117919922e-01 -1.373695880174636841e-01 1.569129973649978638e-01
2.018000000000000000e+03 7.424526977539062500e+01 -2.589667701721191406e+01 1.482223272323608398e+00 8.923587799072265625e+00 3.121743202209472656e+00 -1.749774366617202759e-01
2.019000000000000000e+03 7.359692382812500000e+01 -3.321946334838867188e+01 -9.047284722328186035e-01 7.454210758209228516e+00 1.964844703674316406e+00 -3.129895031452178955e-01
2.020000000000000000e+03 7.247483825683593750e+01 1.000749778747558594e+01 -3.408474028110504150e-01 9.334887504577636719e+00 2.698212146759033203e+00 3.529042601585388184e-01
2.021000000000000000e+03 5.693387985229492188e+01 -2.093723869323730469e+01 -6.655687093734741211e-01 3.936056375503540039e+00 9.811462759971618652e-01 2.631777763366699219e+00
2.022000000000000000e+03 5.778774261474609375e+01 -2.059987258911132812e+01 -6.453646421432495117e-01 5.583498477935791016e+00 1.481440186500549316e+00 2.332069396972656250e+00
2.023000000000000000e+03 1.366790294647216797e+01 -6.967195987701416016e+00 7.324528269236907363e-06 2.631095867400290444e-06 2.986687150041689165e-06 -3.388083541722153313e-06
2.024000000000000000e+03 1.280718803405761719e+01 -5.753909111022949219e+00 -7.883892067184206098e-06 -4.239205736666917801e-06 -3.636929477579542436e-06 2.929187303379876539e-06
2.025000000000000000e+03 1.048002910614013672e+01 -5.800799369812011719e+00 -7.391714120785763953e-07 2.685794697754317895e-06 5.839870027557481080e-07 4.991546575183747336e-06
2.026000000000000000e+03 1.242377758026123047e+01 -6.403417587280273438e+00 8.576349500799551606e-06 4.233694198774173856e-06 3.843013018922647461e-06 -3.980055225838441402e-06
2.027000000000000000e+03 5.265691375732421875e+01 -2.358112335205078125e+01 -3.139978647232055664e-01 1.382660984992980957e+00 3.205989301204681396e-01 1.261654049158096313e-01
2.028000000000000000e+03 1.488167190551757812e+01 -7.436358451843261719e+00 6.725290859321830794e-06 -3.841904799628537148e-06 8.650157496958854608e-07 -9.322667438027565368e-07
2.029000000000000000e+03 1.504953193664550781e+01 -6.929327011108398438e+00 -7.354173249041195959e-06 -1.809660147955582943e-06 -2.749149871306144632e-06 -2.119169948855414987e-06
2.030000000000000000e+03 1.444442272186279297e+01 -9.508441925048828125e+00 -1.181203151645604521e-05 4.102712864550994709e-06 -2.312795686520985328e-06 5.009572305425535887e-06
2.031000000000000000e+03 4.665439987182617188e+01 -2.501873779296875000e+01 -5.999930948019027710e-02 -3.447834253311157227e-01 -1.214348226785659790e-01 -9.114254713058471680e-01
2.032000000000000000e+03 1.639612770080566406e+01 -1.148716449737548828e+01 -1.292187675971945282e-06 6.985339950915658846e-06 1.707945671114430297e-06 3.894254518854722846e-07
2.033000000000000000e+03 1.587303733825683594e+01 -6.875340938568115234e+00 -6.027357812854461372e-06 -5.270796009426703677e-06 -3.389445964785409160e-06 -9.293984817304590251e-07
2.034000000000000000e+03 1.582049655914306641e+01 -7.731049537658691406e+00 -8.125248314172495157e-06 -3.695126679303939454e-06 -3.546112566255033016e-06 1.229372855959809385e-06
2.035000000000000000e+03 5.510858917236328125e+01 -2.263684654235839844e+01 -7.529693245887756348e-01 2.575744628906250000e+00 5.468325614929199219e-01 1.464828133583068848e+00
2.036000000000000000e+03 9.454870223999023438e+00 -4.251510620117187500e+00 -5.239537586021469906e-06 -4.021256700070807710e-06 -2.778238240352948196e-06 7.663279575353953987e-06
2.037000000000000000e+03 1.052346611022949219e+01 -5.099845886230468750e+00 5.111787231726339087e-06 -7.280744739546207711e-06 -6.506871841338579543e-07 -1.061032321558741387e-06
2.038000000000000000e+03 5.506959915161132812e+01 -2.360060882568359375e+01 -5.804719328880310059e-01 3.044636487960815430e+00 7.392493486404418945e-01 1.253155708312988281e+00
2.039000000000000000e+03 4.659191131591796875e+01 -2.719946670532226562e+01 2.159228771924972534e-01 -2.846860289573669434e-01 -2.062894590198993683e-02 -6.592401862144470215e-01
2.040000000000000000e+03 4.886574935913085938e+01 -2.513507461547851562e+01 1.738043129444122314e-01 1.634353995323181152e-01 1.011719182133674622e-01 -7.146521210670471191e-01
2.041000000000000000e+03 5.698472499847412109e+00 5.158452033996582031e+00 -8.790305256843566895e-02 -1.688733100891113281e-01 -7.703290879726409912e-02 2.102497965097427368e-01
2.042000000000000000e+03 4.764256477355957031e+00 6.153336048126220703e+00 -5.078416317701339722e-02 -1.884195804595947266e-01 -7.176112383604049683e-02 1.871806085109710693e-01
2.043000000000000000e+03 6.463716506958007812e+00 5.091851234436035156e+00 -1.011383458971977234e-01 -1.869544237852096558e-01 -8.642783015966415405e-02 2.395482659339904785e-01
2.044000000000000000e+03 4.911133956909179688e+01 -2.398766708374023438e+01 -2.160295993089675903e-01 9.272544085979461670e-02 -3.699124604463577271e-02 -7.603014111518859863e-01
2.045000000000000000e+03 4.762276077270507812e+01 -2.586222839355468750e+01 1.977284401655197144e-01 -1.024420112371444702e-01 2.858592942357063293e-02 -7.741698622703552246e-01
2.046000000000000000e+03 8.999901771545410156e+00 5.149978637695312500e+00 -1.177666857838630676e-01 -2.897756695747375488e-01 -1.222627088427543640e-01 3.350782990455627441e-01
2.047000000000000000e+03 2.784716987609863281e+01 -9.733802795410156250e+00 -5.698291659355163574e-01 -2.993504405021667480e-01 -2.607538998126983643e-01 6.665564775466918945e-01
2.048000000000000000e+03 7.146939754486083984e+00 4.098134040832519531e+00 -1.452813297510147095e-01 -1.684124916791915894e-01 -9.410814940929412842e-02 2.500329613685607910e-01
2.049000000000000000e+03 8.337653160095214844e+00 4.836830139160156250e+00 -1.309809684753417969e-01 -2.497932314872741699e-01 -1.142322570085525513e-01 3.109074831008911133e-01
2.050000000000000000e+03 4.333358287811279297e+00 4.589237689971923828e+00 -6.956584751605987549e-02 -1.214449554681777954e-01 -5.730323866009712219e-02 1.432362496852874756e-01
2.051000000000000000e+03 4.993798828125000000e+01 -2.529224014282226562e+01 3.066991269588470459e-01 5.261850357055664062e-01 2.498652338981628418e-01 -5.259112119674682617e-01
2.052000000000000000e+03 5.020315551757812500e+01 -1.553228187561035156e+01 1.725680828094482422e+00 1.039408087730407715e+00 8.295266628265380859e-01 -3.285078704357147217e-02
2.053000000000000000e+03 2.889242172241210938e+01 -1.297163009643554688e+01 -6.009115576744079590e-01 -2.123699635267257690e-01 -2.439844608306884766e-01 6.790644526481628418e-01
2.054000000000000000e+03 3.100008583068847656e+01 -1.266702079772949219e+01 -6.370785236358642578e-01 -1.468559950590133667e-01 -2.351803481578826904e-01 6.980121731758117676e-01
2.055000000000000000e+03 2.927202224731445312e+01 -1.364862728118896484e+01 -6.258809566497802734e-01 -1.938966363668441772e-01 -2.459332793951034546e-01 6.332905888557434082e-01
2.056000000000000000e+03 8.816719055175781250e+00 -4.206473827362060547e+00 3.818455240889306879e-07 4.368179816083284095e-06 1.425007667421596125e-06 -6.307859166554408148e-06
2.057000000000000000e+03 9.017508506774902344e+00 -5.466123104095458984e+00 -5.082702955405693501e-06 -2.043304630205966532e-05 -7.654724868189077824e-06 6.020875844114925712e-06
2.058000000000000000e+03 4.732912063598632812e+01 -1.524987792968750000e+01 3.982955217361450195e-01 2.582493722438812256e-01 1.969634741544723511e-01 4.491555690765380859e-01
2.059000000000000000e+03 4.944047927856445312e+01 -1.581272792816162109e+01 9.452425241470336914e-01 3.981054723262786865e-01 4.030044078826904297e-01 3.371113836765289307e-01
2.060000000000000000e+03 4.780763244628906250e+01 -2.707716941833496094e+01 4.258705377578735352e-01 5.483851954340934753e-02 1.442127227783203125e-01 -5.627864003181457520e-01
2.061000000000000000e+03 5.188575363159179688e+01 -2.376399993896484375e+01 -2.353671491146087646e-01 1.032101154327392578e+00 2.390202134847640991e-01 -1.537053436040878296e-01
2.062000000000000000e+03 4.627098846435546875e+01 -1.498684692382812500e+01 2.690033316612243652e-01 2.409024387598037720e-01 1.529717296361923218e-01 5.472382903099060059e-01
2.063000000000000000e+03 4.668418121337890625e+01 -1.621778297424316406e+01 -7.264292836189270020e-01 2.001183182001113892e-01 -1.578932851552963257e-01 8.009802103042602539e-01
2.064000000000000000e+03 4.870510101318359375e+01 -1.426101016998291016e+01 1.873656272888183594e+00 8.256705403327941895e-01 8.097980022430419922e-01 -3.752045929431915283e-01
2.065000000000000000e+03 5.435258102416992188e+01 -2.659792137145996094e+01 1.034689068794250488e+00 3.917141199111938477e+00 1.485549092292785645e+00 6.349735856056213379e-01
2.066000000000000000e+03 1.601196289062500000e+01 3.368033885955810547e+00 -1.424809247255325317e-01 -5.841215252876281738e-01 -2.179807424545288086e-01 4.045478701591491699e-01
2.067000000000000000e+03 5.587219238281250000e+01 -2.196623229980468750e+01 -8.747748136520385742e-01 2.960455894470214844e+00 6.257042884826660156e-01 1.994938015937805176e+00
2.068000000000000000e+03 2.600299072265625000e+01 -8.195027351379394531e+00 -6.075075864791870117e-01 -4.961659312248229980e-01 -3.311020433902740479e-01 6.365113258361816406e-01
2.069000000000000000e+03 5.132804870605468750e+01 -2.469031715393066406e+01 1.666574031114578247e-01 9.871217012405395508e-01 3.461337387561798096e-01 -2.897682189941406250e-01
2.070000000000000000e+03 7.402564048767089844e+00 -5.142481327056884766e+00 2.643831521709216759e-06 -1.110583696117828367e-07 7.598319484714011196e-07 2.358737674512667581e-06
2.071000000000000000e+03 4.897620677947998047e+00 -4.443801879882812500e+00 -2.452287844789680094e-06 -6.916521670063957572e-06 -2.810642854456091300e-06 -8.628136129118502140e-06
2.072000000000000000e+03 2.246802139282226562e+01 -3.495858669281005859e+00 -5.504966974258422852e-01 -7.276784777641296387e-01 -3.834525346755981445e-01 5.384560227394104004e-01
2.073000000000000000e+03 2.172804069519042969e+01 -1.703888297080993652e+00 -4.178590476512908936e-01 -6.847367882728576660e-01 -3.307787477970123291e-01 4.587385058403015137e-01
2.074000000000000000e+03 4.383356475830078125e+01 -1.642370414733886719e+01 -1.201102972030639648e+00 3.269273638725280762e-01 -2.622526884078979492e-01 7.304553985595703125e-01
2.075000000000000000e+03 4.126874542236328125e+01 -1.647155952453613281e+01 -1.386901021003723145e+00 1.189150586724281311e-01 -3.803957998752593994e-01 5.340260267257690430e-01
2.076000000000000000e+03 2.611096191406250000e+01 -7.034017086029052734e+00 -5.637086033821105957e-01 -4.505203962326049805e-01 -3.042687177658081055e-01 5.789542198181152344e-01
2.077000000000000000e+03 5.966721343994140625e+01 -2.135412979125976562e+01 -5.081023573875427246e-01 3.899091958999633789e+00 1.017296910285949707e+00 5.779343843460083008e-01
2.078000000000000000e+03 6.581673145294189453e+00 -4.379137992858886719e+00 2.975267534566228278e-06 -5.412190148490481079e-06 -7.310768523893784732e-07 -1.928906158354948275e-06
2.079000000000000000e+03 5.717894554138183594e+00 -5.357327938079833984e+00 4.312755663704592735e-06 -6.340962045214837417e-06 -6.084619599278084934e-07 -2.408008640486514196e-06
2.080000000000000000e+03 4.216123962402343750e+01 -1.648938179016113281e+01 -1.377355098724365234e+00 2.460678368806838989e-01 -3.393861949443817139e-01 6.068384647369384766e-01
2.081000000000000000e+03 4.475306701660156250e+01 -1.639377021789550781e+01 -1.090138673782348633e+00 2.914519906044006348e-01 -2.396060228347778320e-01 7.661447525024414062e-01
2.082000000000000000e+03 5.946757125854492188e+01 -2.190861892700195312e+01 -1.028300166130065918e+00 3.753593683242797852e+00 8.175880908966064453e-01 9.671884775161743164e-01
2.083000000000000000e+03 5.915851211547851562e+01 -2.258176231384277344e+01 -1.274657249450683594e+00 3.555716753005981445e+00 6.843178272247314453e-01 1.339831829071044922e+00
2.084000000000000000e+03 5.947362136840820312e+01 -2.025734138488769531e+01 7.350715994834899902e-01 5.129543781280517578e+00 1.759384632110595703e+00 -2.549260854721069336e-01
2.085000000000000000e+03 6.022318649291992188e+01 -2.150637054443359375e+01 -2.366098016500473022e-01 3.119038105010986328e+00 8.647285103797912598e-01 1.783460080623626709e-01
2.086000000000000000e+03 4.299883270263671875e+01 -1.646205329895019531e+01 -1.256825804710388184e+00 2.961413264274597168e-01 -2.882053256034851074e-01 6.690558195114135742e-01
2.087000000000000000e+03 4.308028411865234375e+01 -1.560719585418701172e+01 -9.173347353935241699e-01 2.477782517671585083e-01 -2.008669525384902954e-01 6.017144322395324707e-01
2.088000000000000000e+03 1.368955993652343750e+01 3.027166604995727539e+00 -2.482568621635437012e-01 -5.029312372207641602e-01 -2.253564298152923584e-01 4.315155744552612305e-01
2.089000000000000000e+03 3.132674026489257812e+01 -1.365170955657958984e+01 -7.271218895912170410e-01 -1.257378309965133667e-01 -2.558579146862030029e-01 6.865488290786743164e-01
2.090000000000000000e+03 9.327429771423339844e+00 -4.900482177734375000e+00 9.322347068518865854e-06 3.573691856217919849e-06 3.868811745633138344e-06 -1.430184784112498164e-05
2.091000000000000000e+03 1.005740642547607422e+01 -4.370009422302246094e+00 7.990869562490843236e-06 1.406987848895369098e-06 2.819357177941128612e-06 -4.599080057232640684e-06
2.092000000000000000e+03 2.516223716735839844e+01 -5.653584957122802734e+00 -5.426886081695556641e-01 -5.249410271644592285e-01 -3.202888965606689453e-01 5.353798270225524902e-01
2.093000000000000000e+03 4.571004867553710938e+01 -1.474397659301757812e+01 1.958357691764831543e-01 2.659549713134765625e-01 1.385372281074523926e-01 4.378206133842468262e-01
2.094000000000000000e+03 4.534533309936523438e+01 -1.528474426269531250e+01 -2.931536436080932617e-01 2.317071557044982910e-01 -1.843395084142684937e-02 6.788098812103271484e-01
2.095000000000000000e+03 2.699089431762695312e+01 -8.391036033630371094e+00 -5.709389448165893555e-01 -3.731489181518554688e-01 -2.832263410091400146e-01 6.248434185981750488e-01
2.096000000000000000e+03 1.906043624877929688e+01 4.819892644882202148e-01 -3.272024095058441162e-01 -6.898503899574279785e-01 -3.051158487796783447e-01 4.502187073230743408e-01
2.097000000000000000e+03 2.298295402526855469e+01 -2.949902772903442383e+00 -4.654527604579925537e-01 -6.472406983375549316e-01 -3.338080346584320068e-01 4.722446799278259277e-01
2.098000000000000000e+03 1.974117660522460938e+01 -2.751577459275722504e-02 -3.470458388328552246e-01 -6.981686353683471680e-01 -3.135643303394317627e-01 4.510824382305145264e-01
2.099000000000000000e+03 1.837156867980957031e+01 9.678434729576110840e-01 -3.055268526077270508e-01 -6.766704320907592773e-01 -2.946591973304748535e-01 4.495425820350646973e-01
2.100000000000000000e+03 6.449720001220703125e+01 -1.850881004333496094e+01 1.361686587333679199e+00 1.216363608837127686e-01 4.449968934059143066e-01 9.416605234146118164e-01
2.101000000000000000e+03 2.827972602844238281e+01 -1.040682220458984375e+01 -5.684105157852172852e-01 -2.618004381656646729e-01 -2.490632832050323486e-01 6.868704557418823242e-01
2.102000000000000000e+03 2.741925430297851562e+01 -9.062561035156250000e+00 -5.704525113105773926e-01 -3.323775827884674072e-01 -2.708490192890167236e-01 6.496567726135253906e-01
2.103000000000000000e+03 1.341338539123535156e+01 4.151511192321777344e+00 -1.444757878780364990e-01 -4.935864210128784180e-01 -1.914186626672744751e-01 4.089236855506896973e-01
2.104000000000000000e+03 2.564503669738769531e+01 -6.344462871551513672e+00 -5.538184046745300293e-01 -4.883071482181549072e-01 -3.126376569271087646e-01 5.576215386390686035e-01
2.105000000000000000e+03 1.414961338043212891e+01 3.668752431869506836e+00 -1.683350801467895508e-01 -5.232585668563842773e-01 -2.074780911207199097e-01 4.186677932739257812e-01
2.106000000000000000e+03 6.182210922241210938e+01 -2.080069541931152344e+01 9.445060491561889648e-01 6.376943588256835938e-01 4.746601283550262451e-01 -4.140071570873260498e-02
2.107000000000000000e+03 2.413061904907226562e+01 -4.278147220611572266e+00 -5.080265998840332031e-01 -5.923644900321960449e-01 -3.301173150539398193e-01 4.978424608707427979e-01
2.108000000000000000e+03 2.357243728637695312e+01 -3.604442358016967773e+00 -4.865633547306060791e-01 -6.215724945068359375e-01 -3.324407637119293213e-01 4.838027656078338623e-01
2.109000000000000000e+03 1.025790405273437500e+01 5.274391174316406250e+00 -1.034332513809204102e-01 -3.549211919307708740e-01 -1.375063359737396240e-01 3.649190366268157959e-01
2.110000000000000000e+03 2.041227531433105469e+01 -5.604431629180908203e-01 -3.708195388317108154e-01 -6.997888088226318359e-01 -3.211824893951416016e-01 4.519970417022705078e-01
2.111000000000000000e+03 5.472391510009765625e+01 -2.464392852783203125e+01 -1.209435239434242249e-01 3.312324285507202148e+00 9.574142694473266602e-01 9.230003952980041504e-01
2.112000000000000000e+03 1.556899929046630859e+01 2.756975173950195312e+00 -2.226345986127853394e-01 -5.801038146018981934e-01 -2.408215105533599854e-01 4.340724647045135498e-01
2.113000000000000000e+03 1.486146450042724609e+01 3.208786487579345703e+00 -1.972369551658630371e-01 -5.530837774276733398e-01 -2.250962257385253906e-01 4.262489378452301025e-01
2.114000000000000000e+03 3.143227767944335938e+01 -1.463801956176757812e+01 -8.240087032318115234e-01 -1.003263667225837708e-01 -2.773005366325378418e-01 6.259224414825439453e-01
2.115000000000000000e+03 4.715730667114257812e+01 -1.240319919586181641e+01 1.502671480178833008e+00 9.218235611915588379e-01 7.273485064506530762e-01 -7.550073266029357910e-01
2.116000000000000000e+03 4.794638824462890625e+01 -1.363607883453369141e+01 1.754644393920898438e+00 7.892755866050720215e-01 7.631759643554687500e-01 -5.470373630523681641e-01
2.117000000000000000e+03 7.476615142822265625e+01 1.099453830718994141e+01 -1.920104920864105225e-01 8.275106430053710938e+00 2.424928903579711914e+00 3.705525696277618408e-01
2.118000000000000000e+03 3.366685867309570312e+01 -1.356770801544189453e+01 -7.448061704635620117e-01 -1.715617030858993530e-01 -2.749103605747222900e-01 7.196844816207885742e-01
2.119000000000000000e+03 2.964386367797851562e+01 -1.247024154663085938e+01 -6.102988123893737793e-01 -1.878572851419448853e-01 -2.394468337297439575e-01 6.954694986343383789e-01
2.120000000000000000e+03 4.449689865112304688e+01 -2.663702201843261719e+01 -1.086049601435661316e-01 -7.361167669296264648e-01 -2.534165382385253906e-01 -7.608378529548645020e-01
2.121000000000000000e+03 7.588112640380859375e+01 -2.392889213562011719e+01 6.242640018463134766e-01 8.034276008605957031e+00 2.597562074661254883e+00 4.020182490348815918e-01
2.122000000000000000e+03 7.376628875732421875e+01 5.936694145202636719e+00 3.794447183609008789e-01 8.889181137084960938e+00 2.780587673187255859e+00 4.175800085067749023e-01
2.123000000000000000e+03 3.882293701171875000e+01 -1.594698619842529297e+01 -1.239643692970275879e+00 -4.045593738555908203e-01 -4.932608902454376221e-01 5.300360918045043945e-01
2.124000000000000000e+03 6.061910629272460938e+01 -2.095324897766113281e+01 7.934873104095458984e-01 2.450051784515380859e+00 9.730617403984069824e-01 -1.330367922782897949e-01
2.125000000000000000e+03 1.232140922546386719e+01 -8.750797271728515625e+00 5.048455022915732116e-06 -9.306984793511219323e-06 -1.277559022128116339e-06 -9.733154911373276263e-06
2.126000000000000000e+03 1.112639141082763672e+01 -1.141224765777587891e+01 -1.298721235798439011e-05 -1.974440419871825725e-05 -9.819485057960264385e-06 1.250294826604658738e-05
2.127000000000000000e+03 4.494123077392578125e+01 -2.992394638061523438e+01 -2.071511298418045044e-01 -6.420017480850219727e-01 -2.547458708286285400e-01 -2.174635231494903564e-01
2.128000000000000000e+03 3.846166610717773438e+01 3.470243215560913086e+00 4.873608648777008057e-01 1.550481557846069336e+00 6.113527417182922363e-01 -4.489995241165161133e-01
2.129000000000000000e+03 3.922659301757812500e+01 7.478161811828613281e+00 6.611299514770507812e-01 2.057435750961303711e+00 8.155697584152221680e-01 -4.895206689834594727e-01
2.130000000000000000e+03 5.567511749267578125e+01 -2.309903335571289062e+01 -7.980452775955200195e-01 3.371066093444824219e+00 7.719062566757202148e-01 1.701878786087036133e+00
2.131000000000000000e+03 4.441287612915039062e+01 -2.346513986587524414e+00 4.634517729282379150e-01 1.893501877784729004e+00 7.070860862731933594e-01 -1.034950971603393555e+00
2.132000000000000000e+03 4.278082656860351562e+01 -4.404220104217529297e+00 5.361468195915222168e-01 1.395654559135437012e+00 5.795404314994812012e-01 -8.452753424644470215e-01
2.133000000000000000e+03 3.479690933227539062e+01 -1.367213344573974609e+01 -7.303476929664611816e-01 -2.103313207626342773e-01 -2.822037041187286377e-01 6.895126700401306152e-01
2.134000000000000000e+03 3.460201644897460938e+01 -1.475027942657470703e+01 -9.761874079704284668e-01 -2.240407764911651611e-01 -3.600684404373168945e-01 7.317804694175720215e-01
2.135000000000000000e+03 4.536778259277343750e+01 -2.582370376586914062e+01 -3.512767329812049866e-02 -5.352022051811218262e-01 -1.710989624261856079e-01 -8.281720280647277832e-01
2.136000000000000000e+03 1.168458366394042969e+01 -1.075214385986328125e+01 8.130129572236910462e-06 1.759006045176647604e-05 7.716057552897837013e-06 -1.829957545851357281e-05
2.137000000000000000e+03 6.701989746093750000e+01 -1.856275367736816406e+01 5.082584023475646973e-01 7.455017566680908203e-01 3.761280477046966553e-01 -1.258125752210617065e-01
2.138000000000000000e+03 6.982131958007812500e+01 -1.850271606445312500e+01 -2.342712581157684326e-01 4.061021327972412109e+00 1.148025035858154297e+00 -1.331861257553100586e+00
2.139000000000000000e+03 4.565641021728515625e+01 -2.506025505065917969e+01 -9.409260749816894531e-02 -5.055338740348815918e-01 -1.798879504203796387e-01 -9.120621085166931152e-01
2.140000000000000000e+03 2.658802509307861328e+00 6.267307281494140625e+00 -2.010797150433063507e-02 -1.526680886745452881e-01 -5.183281749486923218e-02 1.074436753988265991e-01
2.141000000000000000e+03 6.655775451660156250e+01 -1.670709419250488281e+01 7.394499778747558594e-01 1.454978942871093750e+00 6.583287119865417480e-01 4.225635230541229248e-01
2.142000000000000000e+03 5.622731399536132812e+01 -2.372570610046386719e+01 -7.512531280517578125e-01 3.866024732589721680e+00 9.344314932823181152e-01 1.706397533416748047e+00
2.143000000000000000e+03 4.385768127441406250e+01 -3.927162408828735352e+00 5.200526118278503418e-01 1.648897051811218262e+00 6.506848931312561035e-01 -9.791930317878723145e-01
2.144000000000000000e+03 3.653630447387695312e+01 1.194772529602050781e+01 6.049876809120178223e-01 1.518402338027954102e+00 6.370170116424560547e-01 -3.971254229545593262e-01
2.145000000000000000e+03 3.677435684204101562e+01 1.338527679443359375e+01 5.446767210960388184e-01 1.609764814376831055e+00 6.463324427604675293e-01 -3.864085376262664795e-01
2.146000000000000000e+03 4.122035217285156250e+01 -3.870462894439697266e+00 4.700701236724853516e-01 1.208596110343933105e+00 5.035998821258544922e-01 -6.619791984558105469e-01
2.147000000000000000e+03 4.087470245361328125e+01 1.721075773239135742e+00 4.347641468048095703e-01 1.804265618324279785e+00 6.717089414596557617e-01 -7.038707733154296875e-01
2.148000000000000000e+03 4.598425292968750000e+01 -2.785519981384277344e+01 9.058587998151779175e-02 -3.302599489688873291e-01 -7.190221548080444336e-02 -5.546586513519287109e-01
2.149000000000000000e+03 4.520725631713867188e+01 -7.180962085723876953e+00 7.796133160591125488e-01 1.571568965911865234e+00 7.053546905517578125e-01 -1.099291920661926270e+00
2.150000000000000000e+03 4.632125473022460938e+01 -6.879359245300292969e+00 7.391803264617919922e-01 1.950072646141052246e+00 8.067758679389953613e-01 -1.237757205963134766e+00
2.151000000000000000e+03 4.384239578247070312e+01 -1.214329123497009277e+00 4.519855380058288574e-01 1.902244210243225098e+00 7.062689065933227539e-01 -9.832487702369689941e-01
2.152000000000000000e+03 7.377441406250000000e+01 1.697169876098632812e+01 4.240388423204421997e-02 8.357175827026367188e+00 2.519873857498168945e+00 2.485586553812026978e-01
2.153000000000000000e+03 7.473297882080078125e+01 1.933883285522460938e+01 9.625484794378280640e-02 8.098020553588867188e+00 2.458282709121704102e+00 3.000226318836212158e-01
2.154000000000000000e+03 6.333293533325195312e+01 -1.935916137695312500e+01 1.645797967910766602e+00 -9.571151435375213623e-02 4.650259315967559814e-01 7.517728805541992188e-01
2.155000000000000000e+03 6.431541442871093750e+01 -2.036687469482421875e+01 5.160823464393615723e-01 -1.485649198293685913e-01 1.102552339434623718e-01 1.951381862163543701e-01
2.156000000000000000e+03 7.627374172210693359e+00 -3.529308319091796875e+01 3.791593480855226517e-04 7.080001523718237877e-04 3.261478559579700232e-04 1.433550729416310787e-03
2.157000000000000000e+03 6.840370178222656250e+01 -1.225864982604980469e+01 2.942447364330291748e-01 3.946280479431152344e+00 1.272157549858093262e+00 4.104015827178955078e-01
2.158000000000000000e+03 6.639009857177734375e+01 -1.477555465698242188e+01 6.033580303192138672e-01 2.161983251571655273e+00 8.296023607254028320e-01 5.876418352127075195e-01
2.159000000000000000e+03 9.058173179626464844e+00 -1.167103481292724609e+01 2.009633681154809892e-05 1.366472770314430818e-05 1.012831944535719231e-05 -5.521521416085306555e-06
2.160000000000000000e+03 3.677396392822265625e+01 -1.494490432739257812e+01 -9.997758269309997559e-01 -3.756949603557586670e-01 -4.126412272453308105e-01 6.714637875556945801e-01
2.161000000000000000e+03 4.582501602172851562e+01 -9.319354057312011719e+00 1.041999220848083496e+00 1.349128961563110352e+00 7.173384428024291992e-01 -1.062870144844055176e+00
2.162000000000000000e+03 7.524685668945312500e+01 3.101538848876953125e+01 -2.082906067371368408e-01 7.774036407470703125e+00 2.269723892211914062e+00 6.311439275741577148e-01
2.163000000000000000e+03 4.153239822387695312e+01 5.391702055931091309e-01 4.229280650615692139e-01 1.753494262695312500e+00 6.529266834259033203e-01 -7.712570428848266602e-01
2.164000000000000000e+03 7.590509796142578125e+01 2.142989349365234375e+01 1.216898784041404724e-01 7.856566905975341797e+00 2.393476963043212891e+00 3.333322405815124512e-01
2.165000000000000000e+03 7.333682250976562500e+01 2.062335586547851562e+01 1.280699968338012695e-01 8.390729904174804688e+00 2.555639982223510742e+00 2.570675015449523926e-01
2.166000000000000000e+03 3.994470596313476562e+01 6.117887020111083984e+00 5.975931286811828613e-01 2.119975566864013672e+00 8.152706027030944824e-01 -5.775976777076721191e-01
2.167000000000000000e+03 7.593156433105468750e+01 2.671064567565917969e+01 1.194208264350891113e-01 7.910040855407714844e+00 2.408838510513305664e+00 6.421741247177124023e-01
2.168000000000000000e+03 7.613242340087890625e+01 2.279382514953613281e+01 1.300934553146362305e-01 7.844737529754638672e+00 2.392449378967285156e+00 4.116296768188476562e-01
2.169000000000000000e+03 7.622271728515625000e+01 -2.277833747863769531e+01 3.693092167377471924e-01 7.952556133270263672e+00 2.496559619903564453e+00 5.482681989669799805e-01
2.170000000000000000e+03 7.643141174316406250e+01 -1.851053237915039062e+01 -3.769097626209259033e-01 7.611330986022949219e+00 2.170326471328735352e+00 3.060830831527709961e-01
2.171000000000000000e+03 7.504363250732421875e+01 -2.041299247741699219e+01 -4.447073936462402344e-01 7.918378829956054688e+00 2.242101430892944336e+00 4.610046446323394775e-01
2.172000000000000000e+03 7.449583435058593750e+01 -1.486424350738525391e+01 -3.511923551559448242e-01 6.829924583435058594e+00 1.943619728088378906e+00 -3.178371191024780273e-01
2.173000000000000000e+03 7.601203155517578125e+01 1.172577667236328125e+01 -1.308858096599578857e-01 7.692438125610351562e+00 2.268465757369995117e+00 3.546326160430908203e-01
2.174000000000000000e+03 7.560044860839843750e+01 1.420786952972412109e+01 -8.813883364200592041e-02 7.838166713714599609e+00 2.325008392333984375e+00 2.474198043346405029e-01
2.175000000000000000e+03 7.428076934814453125e+01 1.623260116577148438e+01 4.267947375774383545e-02 8.240454673767089844e+00 2.484940290451049805e+00 2.592900097370147705e-01
2.176000000000000000e+03 7.375627899169921875e+01 -7.701003551483154297e+00 -1.410709023475646973e-01 6.962564945220947266e+00 2.046448230743408203e+00 -3.920359015464782715e-01
2.177000000000000000e+03 7.387290191650390625e+01 8.618933677673339844e+00 -2.005583047866821289e-02 8.757228851318359375e+00 2.621151685714721680e+00 4.983699917793273926e-01
2.178000000000000000e+03 7.485376739501953125e+01 3.628599405288696289e+00 4.225471615791320801e-01 8.044290542602539062e+00 2.540051221847534180e+00 1.740134954452514648e-01
2.179000000000000000e+03 7.555175781250000000e+01 4.530902385711669922e+00 2.976457178592681885e-01 7.625777244567871094e+00 2.377027034759521484e+00 2.570308744907379150e-01
2.180000000000000000e+03 7.539013671875000000e+01 -2.882159948348999023e+00 1.155114471912384033e-01 7.323556900024414062e+00 2.231720447540283203e+00 -5.209283232688903809e-01
2.181000000000000000e+03 7.401694488525390625e+01 -4.064083576202392578e+00 6.356395035982131958e-02 7.585726261138916016e+00 2.294787168502807617e+00 -3.937133550643920898e-01
2.182000000000000000e+03 7.590499877929687500e+01 1.809272384643554688e+01 4.860224947333335876e-02 7.787027835845947266e+00 2.350688934326171875e+00 2.672632336616516113e-01
2.183000000000000000e+03 7.582596588134765625e+01 1.941337966918945312e+01 5.850242823362350464e-02 7.836456775665283203e+00 2.368487834930419922e+00 2.841069400310516357e-01
2.184000000000000000e+03 7.566466522216796875e+01 1.683909034729003906e+01 2.553317137062549591e-02 7.863016605377197266e+00 2.366564989089965820e+00 2.489715963602066040e-01
2.185000000000000000e+03 7.283599853515625000e+01 -1.119468593597412109e+01 -1.869182139635086060e-01 6.221654891967773438e+00 1.810421109199523926e+00 -2.851185798645019531e-01
2.186000000000000000e+03 7.452599334716796875e+01 -1.303000450134277344e+01 -2.485010176897048950e-01 6.740027427673339844e+00 1.947457909584045410e+00 -3.440307080745697021e-01
2.187000000000000000e+03 7.574063873291015625e+01 -1.781094360351562500e+01 -4.335737228393554688e-01 7.566516399383544922e+00 2.139882802963256836e+00 8.884926140308380127e-02
2.188000000000000000e+03 7.573234558105468750e+01 -1.943222045898437500e+01 -4.049168527126312256e-01 7.840626716613769531e+00 2.230712890625000000e+00 3.477449715137481689e-01
2.189000000000000000e+03 7.458727264404296875e+01 -5.229824781417846680e-02 4.434833824634552002e-01 7.930240631103515625e+00 2.512117147445678711e+00 -2.042556852102279663e-01
2.190000000000000000e+03 7.464356231689453125e+01 1.832904338836669922e+00 5.371425151824951172e-01 8.117802619934082031e+00 2.596483469009399414e+00 2.273444831371307373e-02
2.191000000000000000e+03 7.521734619140625000e+01 2.545379638671875000e+01 1.879522800445556641e-01 7.892663002014160156e+00 2.424184560775756836e+00 5.660490393638610840e-01
2.192000000000000000e+03 7.619318389892578125e+01 1.279908275604248047e+01 -1.040948331356048584e-01 7.653893947601318359e+00 2.264939785003662109e+00 3.396234214305877686e-01
2.193000000000000000e+03 7.409364318847656250e+01 1.360531425476074219e+01 -1.597439199686050415e-01 8.343805313110351562e+00 2.455218315124511719e+00 2.347457259893417358e-01
2.194000000000000000e+03 7.384192657470703125e+01 -1.114169597625732422e+00 4.064466357231140137e-01 8.129055976867675781e+00 2.560650825500488281e+00 -2.271573096513748169e-01
2.195000000000000000e+03 7.595127105712890625e+01 -1.563230133056640625e+01 -2.745284736156463623e-01 7.326738357543945312e+00 2.115663051605224609e+00 -1.303311735391616821e-01
2.196000000000000000e+03 7.402458190917968750e+01 2.938082885742187500e+01 -7.964224368333816528e-02 7.468485355377197266e+00 2.216652870178222656e+00 6.411424875259399414e-01
2.197000000000000000e+03 7.397407531738281250e+01 -8.968675613403320312e+00 -1.461417526006698608e-01 6.871328830718994141e+00 2.017556190490722656e+00 -3.842524886131286621e-01
2.198000000000000000e+03 7.339149475097656250e+01 -1.556892871856689453e+01 -4.505694806575775146e-01 6.415729045867919922e+00 1.789547801017761230e+00 -3.593140542507171631e-01
2.199000000000000000e+03 7.439306640625000000e+01 -3.454762649536132812e+01 -7.128149867057800293e-01 7.407605171203613281e+00 2.008436918258666992e+00 -5.259596705436706543e-01
2.200000000000000000e+03 7.185961151123046875e+01 -1.988409233093261719e+01 -8.383587002754211426e-01 6.688395977020263672e+00 1.755011200904846191e+00 -1.114175558090209961e+00
2.201000000000000000e+03 3.680089187622070312e+01 1.634866333007812500e+01 3.726792335510253906e-01 1.580424785614013672e+00 5.859311819076538086e-01 -3.078423440456390381e-01
2.202000000000000000e+03 3.683752822875976562e+01 1.485809993743896484e+01 4.520440101623535156e-01 1.619549274444580078e+00 6.214780211448669434e-01 -3.556725382804870605e-01
2.203000000000000000e+03 4.474929809570312500e+01 -9.507656097412109375e+00 9.011104702949523926e-01 9.908989071846008301e-01 5.676028132438659668e-01 -8.161462545394897461e-01
2.204000000000000000e+03 4.600059127807617188e+01 -1.036866474151611328e+01 1.138313293457031250e+00 1.143376469612121582e+00 6.845069527626037598e-01 -9.582945108413696289e-01
2.205000000000000000e+03 7.544018554687500000e+01 3.238605117797851562e+01 -2.555947005748748779e-01 7.892081260681152344e+00 2.290946006774902344e+00 5.659731030464172363e-01
2.206000000000000000e+03 7.602391815185546875e+01 -3.480644226074218750e+01 -4.795754551887512207e-01 8.034326553344726562e+00 2.266425132751464844e+00 -5.836332440376281738e-01
2.207000000000000000e+03 4.687470436096191406e+00 2.739790534973144531e+01 1.308129634708166122e-02 -5.466066598892211914e-01 -1.600576043128967285e-01 9.584029205143451691e-03
2.208000000000000000e+03 5.170788764953613281e+00 -1.224654006958007812e+01 -1.910618630063254386e-05 -2.833323742379434407e-05 -1.423182675353018567e-05 7.578442819067277014e-06
2.209000000000000000e+03 5.376631259918212891e+00 -1.014913558959960938e+01 -7.629902029293589294e-06 -1.134515423473203555e-05 -5.692517333955038339e-06 -9.103998195314488839e-07
2.210000000000000000e+03 5.928038597106933594e+00 2.353021621704101562e+01 3.725480660796165466e-02 -4.932862520217895508e-01 -1.368094384670257568e-01 4.257187247276306152e-02
2.211000000000000000e+03 5.991148471832275391e+00 -1.563696193695068359e+01 -1.095528295991243795e-05 -6.111180846346542239e-05 -2.162012788176070899e-05 2.061059240077156574e-05
2.212000000000000000e+03 5.272935867309570312e+00 -1.454395961761474609e+01 -6.028380084899254143e-06 3.319959432701580226e-05 8.151364454533904791e-06 1.774048359948210418e-05
2.213000000000000000e+03 6.092936515808105469e+00 -1.755507087707519531e+01 -1.206975321110803634e-05 -8.142748265527188778e-05 -2.804916948662139475e-05 3.766336885746568441e-05
2.214000000000000000e+03 5.059034347534179688e+00 -2.445126342773437500e+01 -2.230343852716032416e-05 1.726932678138837218e-04 4.511695078690536320e-05 -7.968071145114663523e-07
2.215000000000000000e+03 6.546365261077880859e+00 -2.229338836669921875e+01 -7.849201210774481297e-05 1.864021396613679826e-05 -1.795553907868452370e-05 5.820648220833390951e-05
2.216000000000000000e+03 4.653053760528564453e+00 -2.660875511169433594e+01 7.574322080472484231e-05 7.801772881066426635e-05 4.612828706740401685e-05 5.498027530848048627e-05
2.217000000000000000e+03 4.369690895080566406e+00 1.483157348632812500e+01 3.314138203859329224e-02 -4.403066635131835938e-01 -1.221495866775512695e-01 1.366484314203262329e-01
2.218000000000000000e+03 6.834049701690673828e+00 1.842903518676757812e+01 6.527953594923019409e-02 -4.456326067447662354e-01 -1.141059175133705139e-01 1.169454827904701233e-01
2.219000000000000000e+03 5.741237163543701172e+00 1.633100128173828125e+01 5.083893984556198120e-02 -4.466043710708618164e-01 -1.187296286225318909e-01 1.372551023960113525e-01
2.220000000000000000e+03 4.667187690734863281e+00 2.060005760192871094e+01 3.008364327251911163e-02 -5.189339518547058105e-01 -1.466550827026367188e-01 6.853204965591430664e-02
2.221000000000000000e+03 6.033457279205322266e+00 2.480211448669433594e+01 3.058556281030178070e-02 -4.920847713947296143e-01 -1.384497582912445068e-01 3.022046014666557312e-02
2.222000000000000000e+03 5.440059661865234375e+00 1.327798938751220703e+01 4.247049242258071899e-02 -4.011603295803070068e-01 -1.076069474220275879e-01 1.793868690729141235e-01
2.223000000000000000e+03 6.623562335968017578e+00 -1.255957221984863281e+01 -2.163750423278543167e-06 -2.376938209636136889e-05 -7.779939551255665720e-06 -3.369853800450073322e-07
2.224000000000000000e+03 7.002327442169189453e+00 2.981002998352050781e+01 1.730797253549098969e-02 -4.445391893386840820e-01 -1.281693726778030396e-01 -6.474491674453020096e-03
2.225000000000000000e+03 5.735697269439697266e+00 1.779248046875000000e+01 4.952595010399818420e-02 -4.623382389545440674e-01 -1.238436847925186157e-01 1.181145608425140381e-01
2.226000000000000000e+03 6.075441360473632812e+00 2.057672119140625000e+01 4.824437573552131653e-02 -4.752189218997955322e-01 -1.280923634767532349e-01 7.977153360843658447e-02
2.227000000000000000e+03 4.915202140808105469e+00 -3.283651733398437500e+01 3.093106206506490707e-04 2.959541161544620991e-04 1.815794239519163966e-04 6.437155534513294697e-04
2.228000000000000000e+03 7.318332672119140625e+00 -3.117479133605957031e+01 7.247941684909164906e-04 -7.648111932212486863e-05 1.944939140230417252e-04 5.255803116597235203e-04
2.229000000000000000e+03 5.384314060211181641e+00 1.172959327697753906e+01 3.106259182095527649e-02 -3.675037324428558350e-01 -1.009323447942733765e-01 1.984728276729583740e-01
2.230000000000000000e+03 5.213713169097900391e+00 1.018305683135986328e+01 1.620549894869327545e-02 -3.285695314407348633e-01 -9.370920807123184204e-02 2.079716771841049194e-01
2.231000000000000000e+03 5.782452106475830078e+00 -1.303630352020263672e+01 -1.014361714624101296e-05 3.795918019022792578e-05 8.344668458448722959e-06 1.973388498299755156e-05
2.232000000000000000e+03 4.984648704528808594e+00 8.756251335144042969e+00 -6.010451819747686386e-03 -2.823362052440643311e-01 -8.650399744510650635e-02 2.078036963939666748e-01
2.233000000000000000e+03 3.805566310882568359e+00 7.510653018951416016e+00 -1.942824386060237885e-02 -2.219451367855072021e-01 -7.241201400756835938e-02 1.650629788637161255e-01
2.234000000000000000e+03 4.803455352783203125e+00 -6.455599308013916016e+00 2.227458480774657801e-06 -5.102482191432500258e-06 -8.625071359347202815e-07 -3.909583028871566057e-06
2.235000000000000000e+03 3.814767837524414062e+01 1.807668113708496094e+01 2.627414166927337646e-01 1.703451156616210938e+00 5.898577570915222168e-01 -1.845590323209762573e-01
2.236000000000000000e+03 4.555558013916015625e+01 -8.254358291625976562e+00 8.993078470230102539e-01 1.468581676483154297e+00 7.103669047355651855e-01 -1.110121011734008789e+00
2.237000000000000000e+03 4.988157272338867188e+00 3.535779953002929688e+01 -1.311100320890545845e-03 -5.344655513763427734e-01 -1.607329845428466797e-01 -8.439982309937477112e-03
2.238000000000000000e+03 4.887080669403076172e+00 -7.596424102783203125e+00 -3.279000566180911846e-06 9.029492389345250558e-07 -7.128153924895741511e-07 2.536049350965186022e-06
2.239000000000000000e+03 5.890104770660400391e+00 -7.392110824584960938e+00 8.494197572872508317e-06 1.042630515257769730e-06 2.861048415070399642e-06 1.128486815105134156e-06
2.240000000000000000e+03 7.364511871337890625e+01 -5.499217033386230469e+00 -2.504732646048069000e-02 7.332493782043457031e+00 2.192234039306640625e+00 -3.442645370960235596e-01
2.241000000000000000e+03 5.060419464111328125e+01 -2.492867660522460938e+01 2.579078674316406250e-01 7.315866947174072266e-01 2.968483865261077881e-01 -4.783654212951660156e-01
2.242000000000000000e+03 7.456755065917968750e+01 1.471669387817382812e+01 -7.060034573078155518e-02 8.212421417236328125e+00 2.442546367645263672e+00 2.283069789409637451e-01
2.243000000000000000e+03 7.091020965576171875e+01 -1.914915466308593750e+01 -6.538751125335693359e-01 5.353955745697021484e+00 1.410024285316467285e+00 -1.213899135589599609e+00
2.244000000000000000e+03 1.478275299072265625e+01 -8.068299293518066406e+00 -7.427184755215421319e-06 1.212859274346556049e-06 -1.864297587417240720e-06 3.273628635724890046e-06
2.245000000000000000e+03 1.402402877807617188e+01 -1.115371799468994141e+01 -1.595696448930539191e-05 4.477187303564278409e-06 -3.443932882873923518e-06 8.589628123445436358e-06
2.246000000000000000e+03 7.354375457763671875e+01 -1.218402385711669922e+01 -2.393667697906494141e-01 6.380000591278076172e+00 1.842190027236938477e+00 -3.576823472976684570e-01
2.247000000000000000e+03 4.067541885375976562e+01 2.279033660888671875e+01 1.132715046405792236e-01 1.515776991844177246e+00 4.887145459651947021e-01 9.569808095693588257e-02
2.248000000000000000e+03 7.233638763427734375e+01 -5.034934997558593750e+00 -1.401696470566093922e-03 7.531467914581298828e+00 2.259019851684570312e+00 4.265458509325981140e-02
2.249000000000000000e+03 7.362361907958984375e+01 2.309583282470703125e+01 2.774091362953186035e-01 8.140186309814453125e+00 2.525278568267822266e+00 2.865501344203948975e-01
2.250000000000000000e+03 7.124607086181640625e+01 3.576358795166015625e+01 -4.719907641410827637e-01 5.255542755126953125e+00 1.435065507888793945e+00 -9.960734099149703979e-02
2.251000000000000000e+03 7.140982818603515625e+01 -1.213294601440429688e+01 -1.321531534194946289e-01 5.596174240112304688e+00 1.639206409454345703e+00 -1.452426314353942871e-01
2.252000000000000000e+03 7.380342864990234375e+01 1.238491153717041016e+01 -2.631622254848480225e-01 8.567106246948242188e+00 2.491183280944824219e+00 1.997158080339431763e-01
2.253000000000000000e+03 8.840191841125488281e+00 -1.302615928649902344e+01 6.087218935135751963e-06 2.247642441943753511e-05 8.569093552068807185e-06 -1.085194344341289252e-05
2.254000000000000000e+03 7.489420318603515625e+01 2.369501113891601562e+01 1.945315301418304443e-01 7.958580970764160156e+00 2.445933818817138672e+00 4.248487055301666260e-01
2.255000000000000000e+03 7.380545043945312500e+01 3.714000320434570312e+01 -2.817764580249786377e-01 6.891272544860839844e+00 1.982848882675170898e+00 1.450472325086593628e-01
2.256000000000000000e+03 7.158810424804687500e+01 3.956048202514648438e+01 -7.208453863859176636e-02 5.342156410217285156e+00 1.581021547317504883e+00 -8.251083642244338989e-02
2.257000000000000000e+03 7.434832000732421875e+01 -2.143044662475585938e+01 -4.850688949227333069e-02 8.529985427856445312e+00 2.544443607330322266e+00 4.915684163570404053e-01
2.258000000000000000e+03 7.097132873535156250e+01 -3.861583709716796875e+01 -1.250948160886764526e-01 4.288265705108642578e+00 1.248951196670532227e+00 3.987738192081451416e-01
2.259000000000000000e+03 7.327448272705078125e+01 -3.805179977416992188e+01 -3.872718811035156250e-01 6.053936958312988281e+00 1.699999451637268066e+00 -4.767512530088424683e-02
2.260000000000000000e+03 8.702142715454101562e+00 -3.170922088623046875e+01 1.382123096846044064e-03 -2.512504761398304254e-05 4.070994327776134014e-04 7.222559652291238308e-04
2.261000000000000000e+03 7.614768981933593750e+00 -2.979094696044921875e+01 8.379342616535723209e-04 3.061921961489133537e-05 2.605660411063581705e-04 1.906515681184828281e-04
2.262000000000000000e+03 7.293481445312500000e+01 2.435804939270019531e+01 3.447429537773132324e-01 8.073534011840820312e+00 2.525483131408691406e+00 2.695917785167694092e-01
2.263000000000000000e+03 3.859324264526367188e+01 -1.403983306884765625e+01 -6.209473013877868652e-01 -2.594552338123321533e-01 -2.641207575798034668e-01 4.635102748870849609e-01
2.264000000000000000e+03 6.823291778564453125e+00 -1.650129508972167969e+01 1.649451974117255304e-06 8.573264494771137834e-05 2.621462772367522120e-05 -2.868816409318242222e-05
2.265000000000000000e+03 7.301469421386718750e+01 2.752883720397949219e+01 1.870857328176498413e-01 7.487773895263671875e+00 2.302457809448242188e+00 4.919637143611907959e-01
2.266000000000000000e+03 6.077829360961914062e+00 -3.888800811767578125e+01 -5.140801076777279377e-04 1.302212011069059372e-03 2.364395768381655216e-04 6.010795477777719498e-04
2.267000000000000000e+03 6.822279453277587891e+00 -1.470334148406982422e+01 2.685796789592131972e-05 2.778231282718479633e-05 1.639208312553819269e-05 -3.310727697680704296e-05
2.268000000000000000e+03 7.267812347412109375e+01 2.919940376281738281e+01 -5.985675752162933350e-02 7.121511936187744141e+00 2.118496417999267578e+00 4.796436429023742676e-01
2.269000000000000000e+03 4.044319915771484375e+01 3.369789123535156250e+01 -2.624051570892333984e-01 9.488354325294494629e-01 2.059290856122970581e-01 -2.786665409803390503e-02
2.270000000000000000e+03 4.066468429565429688e+01 2.949748420715332031e+01 -1.275965124368667603e-01 1.080993056297302246e+00 2.860189378261566162e-01 9.587506763637065887e-03
2.271000000000000000e+03 6.364285659790039062e+01 -1.718421936035156250e+01 1.334416985511779785e+00 5.847472548484802246e-01 5.757492780685424805e-01 1.741490840911865234e+00
2.272000000000000000e+03 6.483341979980468750e+01 -1.730508613586425781e+01 8.789017200469970703e-01 7.281382083892822266e-01 4.821119606494903564e-01 1.186141848564147949e+00
2.273000000000000000e+03 7.325292205810546875e+01 -2.336376428604125977e+00 2.923428714275360107e-01 8.145106315612792969e+00 2.531234502792358398e+00 -1.717381924390792847e-01
2.274000000000000000e+03 6.867795562744140625e+01 -1.799027061462402344e+01 2.663947045803070068e-01 2.566247224807739258e+00 8.497925996780395508e-01 -8.814767003059387207e-01
2.275000000000000000e+03 3.728104782104492188e+01 9.981411933898925781e+00 6.811586022377014160e-01 1.676082372665405273e+00 7.071722745895385742e-01 -4.136883020401000977e-01
2.276000000000000000e+03 3.598889160156250000e+01 1.064840984344482422e+01 6.476703882217407227e-01 1.385215878486633301e+00 6.098659038543701172e-01 -3.774170875549316406e-01
2.277000000000000000e+03 4.752049636840820312e+01 4.115466690063476562e+01 -3.259107470512390137e-01 5.513458251953125000e-01 6.763052940368652344e-02 1.551435794681310654e-02
2.278000000000000000e+03 4.697763061523437500e+01 3.835711669921875000e+01 -3.054093718528747559e-01 5.921344161033630371e-01 8.601751178503036499e-02 5.758411437273025513e-02
2.279000000000000000e+03 7.304801177978515625e+01 3.390184402465820312e+01 -4.897618889808654785e-01 6.646173477172851562e+00 1.846923470497131348e+00 2.432085871696472168e-01
2.280000000000000000e+03 7.374140930175781250e+01 3.101384544372558594e+01 -2.882907688617706299e-01 7.246178150177001953e+00 2.087366342544555664e+00 5.492514967918395996e-01
2.281000000000000000e+03 8.208446502685546875e+00 -3.706624221801757812e+01 -5.772548029199242592e-04 1.003949670121073723e-03 1.280084397876635194e-04 1.818762859329581261e-03
2.282000000000000000e+03 5.610650253295898438e+01 -2.125090408325195312e+01 -7.566688060760498047e-01 2.815540790557861328e+00 6.176615357398986816e-01 2.177211761474609375e+00
2.283000000000000000e+03 5.828728103637695312e+01 -2.070523262023925781e+01 -6.809271574020385742e-01 6.053709983825683594e+00 1.611834764480590820e+00 1.636336803436279297e+00
2.284000000000000000e+03 5.855894470214843750e+01 -2.108007812500000000e+01 -8.673944473266601562e-01 5.499632358551025391e+00 1.389671444892883301e+00 1.419798493385314941e+00
2.285000000000000000e+03 5.902082824707031250e+01 -2.089619255065917969e+01 -5.448110699653625488e-01 5.306654930114746094e+00 1.428553104400634766e+00 7.900714874267578125e-01
2.286000000000000000e+03 5.865263366699218750e+01 -2.161012649536132812e+01 -1.147875189781188965e+00 4.786323070526123047e+00 1.091534376144409180e+00 1.482870101928710938e+00
2.287000000000000000e+03 6.002118682861328125e+01 -2.049483489990234375e+01 1.022953748703002930e+00 3.941443920135498047e+00 1.489319324493408203e+00 -5.064011812210083008e-01
2.288000000000000000e+03 5.551564025878906250e+01 -2.425046730041503906e+01 -3.986087441444396973e-01 3.706067562103271484e+00 9.922376871109008789e-01 1.411754131317138672e+00
2.289000000000000000e+03 6.103400039672851562e+01 -2.032372856140136719e+01 1.850388884544372559e+00 1.625918507575988770e+00 1.042892217636108398e+00 -1.022688075900077820e-01
2.290000000000000000e+03 1.094742870330810547e+01 -1.017646121978759766e+01 -5.623093784379307181e-06 -1.759257065714336932e-05 -6.964698968658922240e-06 1.812840491766110063e-05
2.291000000000000000e+03 1.301688385009765625e+01 -1.064762878417968750e+01 1.258646716451039538e-05 5.968072400719393045e-06 5.566361778619466349e-06 -1.597871596459299326e-05
2.292000000000000000e+03 2.246409034729003906e+01 8.101332187652587891e-01 -1.258697509765625000e-01 -5.246642231941223145e-01 -1.951601952314376831e-01 2.946588397026062012e-01
2.293000000000000000e+03 4.718295669555664062e+01 -2.479952239990234375e+01 -3.520588949322700500e-02 -2.275156974792480469e-01 -7.881647348403930664e-02 -8.945145010948181152e-01
2.294000000000000000e+03 5.104543685913085938e+01 -2.634992980957031250e+01 7.521482706069946289e-01 1.224657535552978516e+00 5.930417776107788086e-01 -2.315056920051574707e-01
2.295000000000000000e+03 1.206685733795166016e+01 -7.079388618469238281e+00 -8.585237083025276661e-06 -5.233968295215163380e-06 -4.145761522522661835e-06 5.109417088533518836e-06
2.296000000000000000e+03 5.845156097412109375e+01 -2.225835037231445312e+01 -1.315216183662414551e+00 4.489184379577636719e+00 9.521903991699218750e-01 1.852265119552612305e+00
2.297000000000000000e+03 5.821648406982421875e+01 -2.140587234497070312e+01 -1.165313601493835449e+00 5.156164646148681641e+00 1.197255373001098633e+00 2.015428304672241211e+00
2.298000000000000000e+03 5.286441421508789062e+01 -2.432614898681640625e+01 -2.370588108897209167e-02 1.822158932685852051e+00 5.395358800888061523e-01 1.946408599615097046e-01
2.299000000000000000e+03 5.468135452270507812e+01 -2.308718681335449219e+01 -6.079487204551696777e-01 2.611523866653442383e+00 6.010725498199462891e-01 1.218329548835754395e+00
2.300000000000000000e+03 8.441257476806640625e+00 -1.089585304260253906e+01 -2.769648745015729219e-05 -1.030629937304183841e-05 -1.140083622885867953e-05 8.542388059140648693e-06
2.301000000000000000e+03 4.852171897888183594e+00 7.433448791503906250e+00 -2.434510737657546997e-02 -2.373411804437637329e-01 -7.850588113069534302e-02 1.996485143899917603e-01
2.302000000000000000e+03 6.603904724121093750e+00 5.881404399871826172e+00 -7.049415260553359985e-02 -2.292691767215728760e-01 -8.992899954319000244e-02 2.560435235500335693e-01
2.303000000000000000e+03 9.630055427551269531e+00 4.585889816284179688e+00 -1.464807689189910889e-01 -3.049864172935485840e-01 -1.354401558637619019e-01 3.512628078460693359e-01
2.304000000000000000e+03 4.821543884277343750e+01 -2.627229690551757812e+01 3.819374740123748779e-01 1.266191601753234863e-01 1.525669991970062256e-01 -6.627790927886962891e-01
2.305000000000000000e+03 4.935547637939453125e+01 -2.583977127075195312e+01 4.221110343933105469e-01 4.193568229675292969e-01 2.524403631687164307e-01 -6.003017425537109375e-01
2.306000000000000000e+03 3.041435623168945312e+01 -1.190170574188232422e+01 -5.831260681152343750e-01 -1.502729505300521851e-01 -2.200197130441665649e-01 7.021465301513671875e-01
2.307000000000000000e+03 7.571331024169921875e+00 4.652751445770263672e+00 -1.322095096111297607e-01 -2.086036056280136108e-01 -1.022439301013946533e-01 2.832591235637664795e-01
2.308000000000000000e+03 5.784341335296630859e+00 6.161923408508300781e+00 -6.011443212628364563e-02 -2.140494585037231445e-01 -8.224916458129882812e-02 2.290332019329071045e-01
2.309000000000000000e+03 2.986553955078125000e+01 -1.120590400695800781e+01 -5.592116117477416992e-01 -1.769439429044723511e-01 -2.208466529846191406e-01 6.906270980834960938e-01
2.310000000000000000e+03 8.358459472656250000e+00 5.535063266754150391e+00 -9.178514778614044189e-02 -2.739180624485015869e-01 -1.097109690308570862e-01 3.130046725273132324e-01
2.311000000000000000e+03 2.935883903503417969e+01 -1.052841281890869141e+01 -5.438693165779113770e-01 -1.888280212879180908e-01 -2.198092043399810791e-01 6.838593482971191406e-01
2.312000000000000000e+03 7.150189876556396484e+00 5.301372528076171875e+00 -1.020683348178863525e-01 -2.221355289220809937e-01 -9.726116061210632324e-02 2.749082446098327637e-01
2.313000000000000000e+03 5.086672592163085938e+01 -2.562010383605957031e+01 4.955316185951232910e-01 9.439318776130676270e-01 4.318390488624572754e-01 -3.329267203807830811e-01
2.314000000000000000e+03 4.743967819213867188e+01 -1.449740505218505859e+01 9.421644806861877441e-01 3.894229829311370850e-01 3.994762301445007324e-01 2.065673768520355225e-01
2.315000000000000000e+03 2.888366889953613281e+01 -9.862010002136230469e+00 -5.377767086029052734e-01 -2.186644971370697021e-01 -2.269323617219924927e-01 6.619158387184143066e-01
2.316000000000000000e+03 4.667621612548828125e+01 -1.425634765625000000e+01 8.377584815025329590e-01 3.824653923511505127e-01 3.660671710968017578e-01 1.209025606513023376e-01
2.317000000000000000e+03 4.660813140869140625e+01 -1.548745727539062500e+01 -1.519522219896316528e-01 2.293140143156051636e-01 2.320853993296623230e-02 6.353681683540344238e-01
2.318000000000000000e+03 3.033853721618652344e+01 -1.394234371185302734e+01 -7.058137655258178711e-01 -1.346675157546997070e-01 -2.521443963050842285e-01 6.342715620994567871e-01
2.319000000000000000e+03 3.391374206542968750e+01 -1.248959064483642578e+01 -5.743199586868286133e-01 -1.487680226564407349e-01 -2.169263958930969238e-01 6.726021170616149902e-01
2.320000000000000000e+03 5.415149688720703125e+01 -2.573242187500000000e+01 6.190776228904724121e-01 3.407968997955322266e+00 1.208114027976989746e+00 5.006964802742004395e-01
2.321000000000000000e+03 4.696528244018554688e+01 -1.335528469085693359e+01 1.293802142143249512e+00 6.525180935859680176e-01 5.838961005210876465e-01 -3.255423009395599365e-01
2.322000000000000000e+03 5.326415252685546875e+01 -2.592151832580566406e+01 7.111148238182067871e-01 2.612541913986206055e+00 9.970970153808593750e-01 2.617128491401672363e-01
2.323000000000000000e+03 6.654030799865722656e+00 -6.175633907318115234e+00 6.932079486432485282e-06 -1.109512936636747327e-06 1.746769953570037615e-06 5.414043243945343420e-06
2.324000000000000000e+03 6.836618900299072266e+00 -7.109176158905029297e+00 -1.005735157377785072e-05 -2.801054961310001090e-06 -3.857521733152680099e-06 -5.708277967642061412e-06
2.325000000000000000e+03 1.118578624725341797e+01 -5.814519882202148438e+00 8.789191269897855818e-06 6.534715339512331411e-06 4.597171937348321080e-06 -1.168060134659754112e-05
2.326000000000000000e+03 9.648848533630371094e+00 -5.831493377685546875e+00 1.294302637688815594e-05 3.367915269336663187e-06 4.893282493867445737e-06 -7.146937150537269190e-06
2.327000000000000000e+03 6.581546306610107422e+00 -5.263510227203369141e+00 -4.489425464271334931e-06 3.208755288142128848e-06 -3.842010016796848504e-07 -1.302977011619077530e-06
2.328000000000000000e+03 5.753178119659423828e+00 -6.346013545989990234e+00 -7.150496003305306658e-06 4.235219876136397943e-06 -8.745828381506726146e-07 1.510172609187065973e-07
2.329000000000000000e+03 5.187179946899414062e+01 -2.695599174499511719e+01 9.850039482116699219e-01 1.842460870742797852e+00 8.482394218444824219e-01 -1.254170294851064682e-02
2.330000000000000000e+03 5.154285812377929688e+01 -2.542603492736816406e+01 4.953811168670654297e-01 1.319254875183105469e+00 5.443907976150512695e-01 -2.546172738075256348e-01
2.331000000000000000e+03 4.067214202880859375e+01 -1.319145488739013672e+01 -2.664825916290283203e-01 -1.823250669986009598e-03 -8.049175888299942017e-02 2.666194438934326172e-01
2.332000000000000000e+03 4.152395248413085938e+01 -1.551458072662353516e+01 -9.996244907379150391e-01 1.033888757228851318e-01 -2.688706815242767334e-01 4.793511331081390381e-01
2.333000000000000000e+03 1.697888183593750000e+01 1.878383874893188477e+00 -2.663892805576324463e-01 -6.356854438781738281e-01 -2.706224322319030762e-01 4.448915719985961914e-01
2.334000000000000000e+03 1.646599197387695312e+01 3.984725952148437500e+00 -6.976883113384246826e-02 -5.781709551811218262e-01 -1.943819373846054077e-01 3.749716281890869141e-01
2.335000000000000000e+03 1.739036750793457031e+01 2.504768371582031250e+00 -1.784306317567825317e-01 -6.258685588836669922e-01 -2.412897646427154541e-01 4.060369431972503662e-01
2.336000000000000000e+03 2.665843772888183594e+01 -6.542675018310546875e+00 -5.087349414825439453e-01 -3.702648580074310303e-01 -2.636999487876892090e-01 5.396773219108581543e-01
2.337000000000000000e+03 2.521116638183593750e+01 -4.456734657287597656e+00 -4.573377370834350586e-01 -4.730247557163238525e-01 -2.791087627410888672e-01 4.637680947780609131e-01
2.338000000000000000e+03 6.247898101806640625e+01 -1.911921310424804688e+01 2.025260686874389648e+00 1.491100788116455078e-01 6.523112654685974121e-01 9.010630249977111816e-01
2.339000000000000000e+03 1.630178070068359375e+01 -8.073478698730468750e+00 8.430128218606114388e-06 2.544295512052485719e-06 3.292327164672315121e-06 1.519769170954532456e-06
2.340000000000000000e+03 4.229740142822265625e+01 -1.558545112609863281e+01 -9.371820688247680664e-01 1.700257509946823120e-01 -2.301468998193740845e-01 5.302479267120361328e-01
2.341000000000000000e+03 1.669785308837890625e+01 2.931081056594848633e+00 -1.613619476556777954e-01 -6.060059666633605957e-01 -2.302103787660598755e-01 4.069449603557586670e-01
2.342000000000000000e+03 2.288040924072265625e+01 -1.724194049835205078e+00 -3.517832756042480469e-01 -5.964401364326477051e-01 -2.844670116901397705e-01 4.043691456317901611e-01
2.343000000000000000e+03 2.107528305053710938e+01 -1.118582725524902344e+00 -3.910805284976959229e-01 -6.960915327072143555e-01 -3.261516094207763672e-01 4.547154009342193604e-01
2.344000000000000000e+03 9.882198333740234375e+00 -5.054782390594482422e+00 -1.310805237153545022e-05 2.869330046451068483e-06 -3.071616902161622420e-06 6.309966011031065136e-06
2.345000000000000000e+03 8.344653129577636719e+00 -5.797204017639160156e+00 -2.767205160125740804e-06 1.219795740325935185e-05 2.829225877576391213e-06 2.597837692519533448e-06
2.346000000000000000e+03 2.754936599731445312e+01 -7.883575439453125000e+00 -5.259132981300354004e-01 -3.015566170215606689e-01 -2.482409775257110596e-01 5.938379168510437012e-01
2.347000000000000000e+03 2.843028450012207031e+01 -9.201766967773437500e+00 -5.337421894073486328e-01 -2.394402474164962769e-01 -2.319547384977340698e-01 6.446025371551513672e-01
2.348000000000000000e+03 6.128675460815429688e+01 -2.153549194335937500e+01 9.912926703691482544e-02 1.235227584838867188e+00 4.003070592880249023e-01 -4.805683717131614685e-02
2.349000000000000000e+03 4.589639282226562500e+01 -1.405297851562500000e+01 5.932970046997070312e-01 3.523848354816436768e-01 2.837045490741729736e-01 1.623846739530563354e-01
2.350000000000000000e+03 1.548007678985595703e+01 -8.290762901306152344e+00 7.641398042323999107e-06 5.670535188073699828e-07 2.462535576341906562e-06 -3.471511263342108577e-06
2.351000000000000000e+03 1.534594917297363281e+01 -8.970224380493164062e+00 -8.329811862495262176e-06 3.493576741675497033e-06 -1.450870513508561999e-06 2.679691760931746103e-06
2.352000000000000000e+03 5.737485122680664062e+01 -2.248629379272460938e+01 -1.204688310623168945e+00 4.312694072723388672e+00 9.324016571044921875e-01 2.263526678085327148e+00
2.353000000000000000e+03 5.625990295410156250e+01 -2.257595252990722656e+01 -9.450990557670593262e-01 3.499560832977294922e+00 7.663385272026062012e-01 2.008399009704589844e+00
2.354000000000000000e+03 4.501833343505859375e+01 -1.144314289093017578e+01 9.016631841659545898e-01 6.729927062988281250e-01 4.723967909812927246e-01 -5.020890235900878906e-01
2.355000000000000000e+03 5.389804077148437500e+01 -2.491076278686523438e+01 1.276733577251434326e-01 2.827575445175170898e+00 8.865746855735778809e-01 5.421648025512695312e-01
2.356000000000000000e+03 3.005095672607421875e+01 -8.657367706298828125e+00 -4.294362664222717285e-01 -1.314893811941146851e-01 -1.682776957750320435e-01 5.884997248649597168e-01
2.357000000000000000e+03 2.619189262390136719e+01 -5.855216979980468750e+00 -4.963663518428802490e-01 -4.069528877735137939e-01 -2.709957659244537354e-01 5.118308663368225098e-01
2.358000000000000000e+03 6.168343734741210938e+01 -1.885335922241210938e+01 3.005594491958618164e+00 2.266732007265090942e-01 9.696803092956542969e-01 1.160285353660583496e+00
2.359000000000000000e+03 1.248104858398437500e+01 -8.017530441284179688e+00 -5.736438197345705703e-06 -3.361438757565338165e-06 -2.729363131948048249e-06 7.440553872584132478e-06
2.360000000000000000e+03 1.522677612304687500e+01 -1.052478599548339844e+01 -8.511326996085699648e-06 5.851070909557165578e-06 -7.980767691151413601e-07 1.331947260041488335e-06
2.361000000000000000e+03 1.808893394470214844e+01 2.064697980880737305e+00 -1.941654980182647705e-01 -6.406256556510925293e-01 -2.504373490810394287e-01 4.052477777004241943e-01
2.362000000000000000e+03 1.878850746154785156e+01 1.601642131805419922e+00 -2.130399048328399658e-01 -6.507127285003662109e-01 -2.591257691383361816e-01 4.021722972393035889e-01
2.363000000000000000e+03 2.352245140075683594e+01 -2.371464729309082031e+00 -3.775694668292999268e-01 -5.677334666252136230e-01 -2.835908830165863037e-01 4.117290377616882324e-01
2.364000000000000000e+03 2.468641853332519531e+01 -3.744370222091674805e+00 -4.303990602493286133e-01 -5.069342851638793945e-01 -2.812000215053558350e-01 4.432911276817321777e-01
2.365000000000000000e+03 2.221587371826171875e+01 -1.099006295204162598e+00 -3.202846348285675049e-01 -6.208760142326354980e-01 -2.823482155799865723e-01 3.987240195274353027e-01
2.366000000000000000e+03 6.269630050659179688e+01 -2.105745124816894531e+01 5.331940054893493652e-01 1.159799471497535706e-01 1.947521716356277466e-01 -1.088153496384620667e-01
2.367000000000000000e+03 1.396707820892333984e+01 4.806867599487304688e+00 -7.677343487739562988e-02 -5.094422101974487305e-01 -1.758646965026855469e-01 3.916823863983154297e-01
2.368000000000000000e+03 3.184715080261230469e+01 -1.185736656188964844e+01 -5.724366307258605957e-01 -1.164526194334030151e-01 -2.066667675971984863e-01 6.914818882942199707e-01
2.369000000000000000e+03 3.985820388793945312e+01 -1.680634307861328125e+01 -1.689579844474792480e+00 -2.540847063064575195e-01 -5.830993652343750000e-01 5.163806080818176270e-01
2.370000000000000000e+03 1.466196346282958984e+01 4.319083213806152344e+00 -1.003847196698188782e-01 -5.350270867347717285e-01 -1.906235367059707642e-01 3.970057964324951172e-01
2.371000000000000000e+03 2.655767822265625000e+01 -7.716675281524658203e+00 -5.680791735649108887e-01 -4.101066887378692627e-01 -2.934557497501373291e-01 6.039946675300598145e-01
2.372000000000000000e+03 7.373054504394531250e+01 9.901408195495605469e+00 -1.995831578969955444e-01 8.696146965026855469e+00 2.548969030380249023e+00 4.617556333541870117e-01
2.373000000000000000e+03 8.055947303771972656e+00 -7.446463108062744141e+00 -1.153717403212795034e-05 -1.840688491938635707e-05 -8.983217412605881691e-06 2.302867642356432043e-06
2.374000000000000000e+03 1.305220222473144531e+01 -6.687657833099365234e+00 -7.700421519984956831e-06 -3.604099902076995932e-06 -3.391356585780158639e-06 3.323359806017833762e-06
2.375000000000000000e+03 1.097988033294677734e+01 4.590597152709960938e+00 -1.426084637641906738e-01 -3.778729140758514404e-01 -1.561444103717803955e-01 3.815936446189880371e-01
2.376000000000000000e+03 1.259214115142822266e+01 4.678443908691406250e+00 -1.138417273759841919e-01 -4.576569199562072754e-01 -1.714496016502380371e-01 3.982219994068145752e-01
2.377000000000000000e+03 5.684375762939453125e+01 -2.313458251953125000e+01 -1.098835349082946777e+00 4.250188350677490234e+00 9.454058408737182617e-01 2.040213346481323242e+00
2.378000000000000000e+03 5.678900527954101562e+01 -2.205549430847167969e+01 -1.109036803245544434e+00 4.038843631744384766e+00 8.789420127868652344e-01 2.297230243682861328e+00
2.379000000000000000e+03 8.348052978515625000e+00 -1.215111923217773438e+01 -9.465346920478623360e-06 -1.974136830540373921e-05 -8.762014658714178950e-06 -4.209488224660162814e-07
2.380000000000000000e+03 5.996561050415039062e+00 -1.140568733215332031e+01 1.850825174187775701e-05 2.083320578094571829e-05 1.180243725684704259e-05 -7.731570804025977850e-06
2.381000000000000000e+03 4.479980850219726562e+01 -6.100674152374267578e+00 6.648880243301391602e-01 1.600503802299499512e+00 6.796175241470336914e-01 -1.059796094894409180e+00
2.382000000000000000e+03 7.330236053466796875e+01 -1.928703880310058594e+01 -8.578575849533081055e-01 7.238698959350585938e+00 1.914252400398254395e+00 -3.673530220985412598e-01
2.383000000000000000e+03 4.333231735229492188e+01 -2.834187746047973633e+00 4.860884249210357666e-01 1.672744870185852051e+00 6.476500034332275391e-01 -9.306960701942443848e-01
2.384000000000000000e+03 4.325936889648437500e+01 -5.457330226898193359e+00 5.836932659149169922e-01 1.343277692794799805e+00 5.780912637710571289e-01 -8.758051395416259766e-01
2.385000000000000000e+03 4.547774124145507812e+01 -2.719936561584472656e+01 3.746195137500762939e-02 -5.466791391372680664e-01 -1.527651548385620117e-01 -7.321078181266784668e-01
2.386000000000000000e+03 4.594744491577148438e+01 -2.670110702514648438e+01 5.839896202087402344e-02 -3.710349500179290771e-01 -9.379079192876815796e-02 -7.482903599739074707e-01
2.387000000000000000e+03 6.271339416503906250e+01 -1.828523445129394531e+01 2.105679988861083984e+00 1.389498710632324219e-01 6.733889579772949219e-01 1.518555879592895508e+00
2.388000000000000000e+03 4.049620437622070312e+01 -3.895756974816322327e-02 4.144237339496612549e-01 1.551499128341674805e+00 5.897768735885620117e-01 -6.519445776939392090e-01
2.389000000000000000e+03 5.307589721679687500e+01 -2.510174369812011719e+01 3.551424443721771240e-01 2.290555238723754883e+00 7.937092781066894531e-01 1.732356399297714233e-01
2.390000000000000000e+03 4.713595199584960938e+01 -2.651371383666992188e+01 2.280675619840621948e-01 -1.401259452104568481e-01 2.638248167932033539e-02 -7.176665663719177246e-01
2.391000000000000000e+03 1.527687740325927734e+01 -9.706980705261230469e+00 7.874287803133483976e-06 -4.114036528335418552e-06 1.128075268752581906e-06 -1.808663341762439813e-06
2.392000000000000000e+03 1.327197647094726562e+01 5.385860919952392578e+00 -4.856912419199943542e-02 -4.811746776103973389e-01 -1.589231342077255249e-01 3.799581825733184814e-01
2.393000000000000000e+03 1.176185417175292969e+01 5.400829792022705078e+00 -7.756634056568145752e-02 -4.262641370296478271e-01 -1.511491388082504272e-01 3.808102309703826904e-01
2.394000000000000000e+03 4.218440246582031250e+01 -5.942004680633544922e+00 5.685699582099914551e-01 1.077570676803588867e+00 4.938422143459320068e-01 -7.038065791130065918e-01
2.395000000000000000e+03 4.434796142578125000e+01 -5.015439510345458984e+00 5.976776480674743652e-01 1.632738351821899414e+00 6.691248416900634766e-01 -1.023573279380798340e+00
2.396000000000000000e+03 5.338708496093750000e+01 -2.682062339782714844e+01 1.140173912048339844e+00 3.008310556411743164e+00 1.244545340538024902e+00 2.184733152389526367e-01
2.397000000000000000e+03 4.079621887207031250e+01 -1.531329441070556641e+01 -9.863963127136230469e-01 -4.337486624717712402e-02 -3.089313507080078125e-01 4.270023405551910400e-01
2.398000000000000000e+03 3.987112426757812500e+01 -1.396440029144287109e+01 -5.466929078102111816e-01 -1.443048417568206787e-01 -2.072993218898773193e-01 3.655333220958709717e-01
2.399000000000000000e+03 3.871181869506835938e+01 -1.493831920623779297e+01 -9.120672345161437988e-01 -3.261298537254333496e-01 -3.714591264724731445e-01 4.969424903392791748e-01
2.400000000000000000e+03 3.689970397949218750e+01 -1.388992023468017578e+01 -6.801551580429077148e-01 -3.059515655040740967e-01 -2.958320081233978271e-01 5.934329032897949219e-01
2.401000000000000000e+03 3.983578109741210938e+01 1.113890647888183594e+00 4.197303950786590576e-01 1.562437415122985840e+00 5.946503281593322754e-01 -5.856847167015075684e-01
2.402000000000000000e+03 3.110927200317382812e+01 -9.837950706481933594e+00 -4.436117410659790039e-01 -1.137019917368888855e-01 -1.671941131353378296e-01 6.288505196571350098e-01
2.403000000000000000e+03 4.112748336791992188e+01 -1.161845088005065918e+00 4.198244512081146240e-01 1.508578658103942871e+00 5.785209536552429199e-01 -7.105319499969482422e-01
2.404000000000000000e+03 4.216912078857421875e+01 -6.083422899246215820e-01 4.312826097011566162e-01 1.732628226280212402e+00 6.491732597351074219e-01 -8.286628127098083496e-01
2.405000000000000000e+03 6.545701599121093750e+01 -1.601148223876953125e+01 6.208180785179138184e-01 1.447554349899291992e+00 6.205117106437683105e-01 8.707022666931152344e-01
2.406000000000000000e+03 4.394717407226562500e+01 -1.063301658630371094e+01 7.302020192146301270e-01 6.246628761291503906e-01 4.064594805240631104e-01 -4.739482402801513672e-01
2.407000000000000000e+03 6.960646629333496094e+00 -3.379671478271484375e+01 5.165735492482781410e-04 2.974635863211005926e-04 2.442111435811966658e-04 1.216545584611594677e-03
2.408000000000000000e+03 4.388151550292968750e+01 -3.530621337890625000e+01 2.640268802642822266e-01 -2.512207031250000000e-01 3.841853002086281776e-03 2.954686880111694336e-01
2.409000000000000000e+03 4.573432540893554688e+01 -3.099548912048339844e+01 1.371264606714248657e-01 -1.569925695657730103e-01 -5.959833506494760513e-03 1.525112390518188477e-01
2.410000000000000000e+03 3.723313140869140625e+01 7.781198501586914062e+00 6.540932655334472656e-01 1.546401381492614746e+00 6.601483821868896484e-01 -3.822147250175476074e-01
2.411000000000000000e+03 3.953080368041992188e+01 4.167568683624267578e+00 5.131157040596008301e-01 1.831284761428833008e+00 7.033201456069946289e-01 -5.511141419410705566e-01
2.412000000000000000e+03 5.729024887084960938e+00 -3.202743530273437500e+01 5.222460022196173668e-04 1.138725710916332901e-04 1.908355770865455270e-04 6.382372812367975712e-04
2.413000000000000000e+03 4.394146728515625000e+01 -1.479914569854736328e+01 -3.083071708679199219e-01 2.368133068084716797e-01 -2.144815586507320404e-02 4.936534464359283447e-01
2.414000000000000000e+03 4.062105560302734375e+01 4.806239604949951172e+00 5.242590308189392090e-01 2.110803365707397461e+00 7.905187606811523438e-01 -6.579516530036926270e-01
2.415000000000000000e+03 8.605739593505859375e+00 2.906512260437011719e+01 2.925762347877025604e-02 -3.778451979160308838e-01 -1.045762747526168823e-01 -7.180391810834407806e-03
2.416000000000000000e+03 1.053187656402587891e+01 3.271211624145507812e+01 8.720546960830688477e-03 -2.765717506408691406e-01 -8.035536110401153564e-02 -2.932832948863506317e-02
2.417000000000000000e+03 6.916686248779296875e+01 -1.675030517578125000e+01 1.624497920274734497e-01 3.523247718811035156e+00 1.105709195137023926e+00 -6.843668818473815918e-01
2.418000000000000000e+03 7.420378112792968750e+01 -1.970832252502441406e+01 -6.548098921775817871e-01 7.883973121643066406e+00 2.168748855590820312e+00 6.696463562548160553e-03
2.419000000000000000e+03 7.492319488525390625e+01 -1.866737365722656250e+01 -6.167111992835998535e-01 7.499366283416748047e+00 2.064796447753906250e+00 9.791228175163269043e-02
2.420000000000000000e+03 7.349849700927734375e+01 3.866376161575317383e+00 5.708440542221069336e-01 9.087902069091796875e+00 2.897623777389526367e+00 3.132693171501159668e-01
2.421000000000000000e+03 7.397332763671875000e+01 2.849882125854492188e+00 5.342451930046081543e-01 8.632637977600097656e+00 2.750064849853515625e+00 1.625141650438308716e-01
2.422000000000000000e+03 7.367894744873046875e+01 1.114093303680419922e+01 -2.962728738784790039e-01 8.717542648315429688e+00 2.526381015777587891e+00 3.674036860466003418e-01
2.423000000000000000e+03 7.407317352294921875e+01 -1.021503734588623047e+01 -2.133965343236923218e-01 6.698323726654052734e+00 1.945478081703186035e+00 -3.745376765727996826e-01
2.424000000000000000e+03 7.332618713378906250e+01 -1.824483489990234375e+01 -6.398956775665283203e-01 6.953571319580078125e+00 1.894102692604064941e+00 -4.612894654273986816e-01
2.425000000000000000e+03 7.486144256591796875e+01 -1.602204704284667969e+01 -4.520043432712554932e-01 7.057397365570068359e+00 1.981617808341979980e+00 -1.591859906911849976e-01
2.426000000000000000e+03 7.195522308349609375e+01 -1.524972915649414062e+01 -3.157126605510711670e-01 5.600486755371093750e+00 1.585432291030883789e+00 -4.711396992206573486e-01
2.427000000000000000e+03 7.247688293457031250e+01 -8.093597412109375000e+00 -1.148319169878959656e-01 6.667180061340332031e+00 1.965704441070556641e+00 -8.483266085386276245e-02
2.428000000000000000e+03 7.427675628662109375e+01 -1.771008491516113281e+01 -6.344748735427856445e-01 7.175010681152343750e+00 1.962160706520080566e+00 -1.551753282546997070e-01
2.429000000000000000e+03 7.566731262207031250e+01 5.707228660583496094e+00 2.497068494558334351e-01 7.656222820281982422e+00 2.371778964996337891e+00 4.018605947494506836e-01
2.430000000000000000e+03 7.467966461181640625e+01 1.709526634216308594e+01 3.918559476733207703e-02 8.102945327758789062e+00 2.442639350891113281e+00 2.722197771072387695e-01
2.431000000000000000e+03 8.004329681396484375e+00 1.938485145568847656e+01 8.406122028827667236e-02 -4.229451715946197510e-01 -1.016651839017868042e-01 1.034105420112609863e-01
2.432000000000000000e+03 7.754665374755859375e+00 2.339137840270996094e+01 5.724100768566131592e-02 -4.315786957740783691e-01 -1.123013049364089966e-01 4.447545483708381653e-02
2.433000000000000000e+03 8.244910240173339844e+00 3.369393920898437500e+01 3.634301479905843735e-03 -3.750220835208892822e-01 -1.114163398742675781e-01 -1.766856759786605835e-02
2.434000000000000000e+03 6.758742332458496094e+00 2.613754463195800781e+01 3.224037587642669678e-02 -4.624281227588653564e-01 -1.290563195943832397e-01 1.775050535798072815e-02
2.435000000000000000e+03 4.585449218750000000e+00 -1.998444557189941406e+01 -5.424009486887371168e-06 -4.815166539628989995e-05 -1.607270314707420766e-05 -6.041989877303421963e-07
2.436000000000000000e+03 5.158118724822998047e+00 -2.122258186340332031e+01 -3.236436532461084425e-05 7.461142376996576786e-05 1.267411698790965602e-05 2.162028613383881748e-05
2.437000000000000000e+03 7.915668487548828125e+00 -1.008337020874023438e+01 1.295165657211327925e-05 1.455460642318939790e-05 8.251879080489743501e-06 -4.328641352913109586e-06
2.438000000000000000e+03 7.034687805175781250e+01 -1.163532352447509766e+01 -3.300053533166646957e-03 5.147675514221191406e+00 1.543312668800354004e+00 1.094114258885383606e-01
2.439000000000000000e+03 8.194673538208007812e+00 1.560991287231445312e+01 9.439056366682052612e-02 -4.087359309196472168e-01 -9.430360794067382812e-02 1.732743978500366211e-01
2.440000000000000000e+03 5.553862571716308594e+00 1.477918910980224609e+01 4.907792061567306519e-02 -4.261129796504974365e-01 -1.131105199456214905e-01 1.602458655834197998e-01
2.441000000000000000e+03 6.695553779602050781e+00 1.464652633666992188e+01 6.658517569303512573e-02 -4.170258939266204834e-01 -1.051322147250175476e-01 1.774670779705047607e-01
2.442000000000000000e+03 6.142032146453857422e+00 -8.481985092163085938e+00 -7.339361673075472936e-06 -9.387272257299628109e-06 -5.017990133637795225e-06 -3.103340986854163930e-06
2.443000000000000000e+03 5.071341991424560547e+00 -8.817776679992675781e+00 5.336687991075450554e-06 2.960917527161655016e-06 2.489281769157969393e-06 -4.293621316264761845e-07
2.444000000000000000e+03 6.574713230133056641e+00 1.325498676300048828e+01 5.724469572305679321e-02 -3.978131711483001709e-01 -1.021705418825149536e-01 1.986413449048995972e-01
2.445000000000000000e+03 5.862300872802734375e+00 1.912067222595214844e+01 5.144159495830535889e-02 -4.721796810626983643e-01 -1.262214332818984985e-01 9.713939577341079712e-02
2.446000000000000000e+03 3.529261398315429688e+01 1.754850006103515625e+01 3.568576574325561523e-01 1.295065522193908691e+00 4.955769479274749756e-01 -3.155403733253479004e-01
2.447000000000000000e+03 6.906241416931152344e+00 -3.248637390136718750e+01 9.117996087297797203e-04 7.785570778651162982e-05 2.968965854961425066e-04 6.973261479288339615e-04
2.448000000000000000e+03 7.702558994293212891e+00 2.753913307189941406e+01 3.373924270272254944e-02 -4.218871593475341797e-01 -1.164443716406822205e-01 4.907863214612007141e-03
2.449000000000000000e+03 7.675038814544677734e+00 5.851129531860351562e+00 -8.651068806648254395e-02 -2.540054321289062500e-01 -1.021548360586166382e-01 2.939814925193786621e-01
2.450000000000000000e+03 6.022030830383300781e+00 8.600980758666992188e+00 -2.772241830825805664e-03 -2.970433235168457031e-01 -8.994466811418533325e-02 2.366161793470382690e-01
2.451000000000000000e+03 1.044843673706054688e+01 -1.200185203552246094e+01 1.613020322110969573e-05 1.810361936804838479e-05 1.027014695864636451e-05 -7.987312528712209314e-06
2.452000000000000000e+03 4.625249862670898438e+01 -2.546117401123046875e+01 9.612568654119968414e-03 -3.961351811885833740e-01 -1.159567832946777344e-01 -8.614553213119506836e-01
2.453000000000000000e+03 7.734682083129882812e+00 -1.149138259887695312e+01 3.312057378934696317e-05 9.413487532583530992e-06 1.276021794183179736e-05 -1.362529360449116211e-06
2.454000000000000000e+03 4.601319503784179688e+01 -1.323641395568847656e+01 9.420696496963500977e-01 4.705091118812561035e-01 4.237736165523529053e-01 -1.673166602849960327e-01
2.455000000000000000e+03 4.607834243774414062e+01 -1.137924861907958984e+01 1.195795536041259766e+00 9.075864553451538086e-01 6.310145854949951172e-01 -7.369979023933410645e-01
2.456000000000000000e+03 7.130609035491943359e+00 9.654411315917968750e+00 2.384223230183124542e-02 -3.399698436260223389e-01 -9.483828395605087280e-02 2.614549696445465088e-01
2.457000000000000000e+03 4.982069015502929688e+00 -1.334031581878662109e+01 1.573385088704526424e-05 -1.038223217619815841e-05 1.605485408617823850e-06 -1.817044358176644892e-05
2.458000000000000000e+03 6.973817825317382812e+00 -1.368350601196289062e+01 -2.884058449126314372e-05 4.026249735034070909e-05 3.426574039622209966e-06 3.637201189121697098e-06
2.459000000000000000e+03 6.419426727294921875e+01 -1.951024246215820312e+01 8.798885941505432129e-01 -6.970631331205368042e-02 2.430546730756759644e-01 4.843483865261077881e-01
2.460000000000000000e+03 7.611961364746093750e+01 -3.053499794006347656e+01 1.007768660783767700e-01 8.220778465270996094e+00 2.496466636657714844e+00 -1.106914997100830078e+00
2.461000000000000000e+03 3.250545501708984375e+01 -1.347464370727539062e+01 -7.339095473289489746e-01 -1.220285892486572266e-01 -2.567814290523529053e-01 6.987614035606384277e-01
2.462000000000000000e+03 1.606930351257324219e+01 -9.072333335876464844e+00 3.018795950993080623e-06 -2.543825075917993672e-06 1.424913165237740031e-07 -1.738502987791434862e-06
2.463000000000000000e+03 5.228676605224609375e+01 -2.525987625122070312e+01 4.224851131439208984e-01 1.704005837440490723e+00 6.379472613334655762e-01 -2.088647708296775818e-02
2.464000000000000000e+03 3.415693283081054688e+01 1.214554309844970703e+01 5.944546461105346680e-01 1.068213701248168945e+00 4.988004863262176514e-01 -3.529566228389739990e-01
2.465000000000000000e+03 3.627625274658203125e+01 8.734446525573730469e+00 6.782449483871459961e-01 1.390156745910644531e+00 6.205205321311950684e-01 -3.654105663299560547e-01
2.466000000000000000e+03 3.826243591308593750e+01 2.159489059448242188e+01 1.476936638355255127e-01 1.456463575363159180e+00 4.812471568584442139e-01 -1.094406917691230774e-01
2.467000000000000000e+03 3.472461700439453125e+01 1.869054222106933594e+01 3.176978230476379395e-01 1.188677787780761719e+00 4.519127011299133301e-01 -3.023500740528106689e-01
2.468000000000000000e+03 7.358776092529296875e+01 -1.311672973632812500e+01 -2.806967198848724365e-01 6.447305679321289062e+00 1.849982738494873047e+00 -3.578725755214691162e-01
2.469000000000000000e+03 3.731721878051757812e+01 2.393189811706542969e+01 7.980099320411682129e-02 1.269817590713500977e+00 4.048855900764465332e-01 -1.359777599573135376e-01
2.470000000000000000e+03 3.894274520874023438e+01 2.336474227905273438e+01 8.928583562374114990e-02 1.374995112419128418e+00 4.392842948436737061e-01 -4.654231667518615723e-02
2.471000000000000000e+03 8.430366516113281250e+00 -6.629426479339599609e+00 9.775345461093820632e-06 -9.854069560333300615e-08 2.903041377066983841e-06 -1.130209329858189449e-05
2.472000000000000000e+03 9.765983581542968750e+00 -1.113410854339599609e+01 -1.682291986071504653e-05 -1.762476676958613098e-05 -1.033430635288823396e-05 8.693991730979178101e-06
2.473000000000000000e+03 4.370484542846679688e+01 -6.499225616455078125e+00 6.709930300712585449e-01 1.295374155044555664e+00 5.899101495742797852e-01 -8.979994058609008789e-01
2.474000000000000000e+03 4.304256439208984375e+01 -7.940379142761230469e+00 6.849162578582763672e-01 9.338099956512451172e-01 4.856178760528564453e-01 -6.869425177574157715e-01
2.475000000000000000e+03 7.028812408447265625e+01 -1.500732803344726562e+01 -4.583238437771797180e-02 4.717848300933837891e+00 1.401604771614074707e+00 -3.620943129062652588e-01
2.476000000000000000e+03 7.123273468017578125e+01 -1.357791900634765625e+01 -1.441859006881713867e-01 5.351691246032714844e+00 1.562251687049865723e+00 -2.191449850797653198e-01
2.477000000000000000e+03 5.224356079101562500e+01 -3.488064575195312500e+01 1.972117274999618530e-02 2.531690120697021484e+00 7.654234170913696289e-01 7.768983244895935059e-01
2.478000000000000000e+03 4.586976623535156250e+01 -2.929545211791992188e+01 6.390795856714248657e-02 -2.560712099075317383e-01 -5.764897540211677551e-02 -2.770137786865234375e-01
2.479000000000000000e+03 7.364668273925781250e+01 -2.079245185852050781e+01 -7.581757903099060059e-01 8.041172027587890625e+00 2.184898853302001953e+00 -1.143858022987842560e-02
2.480000000000000000e+03 6.821576690673828125e+01 -1.618437385559082031e+01 4.100989997386932373e-01 2.774297714233398438e+00 9.553189873695373535e-01 -1.911685317754745483e-01
2.481000000000000000e+03 6.961539459228515625e+01 -1.567358684539794922e+01 3.566665947437286377e-02 4.143158912658691406e+00 1.253647685050964355e+00 -3.774199485778808594e-01
2.482000000000000000e+03 6.423939228057861328e+00 -2.361893081665039062e+01 1.201064151246100664e-05 8.562867878936231136e-05 2.929179572674911469e-05 -2.957640208478551358e-05
2.483000000000000000e+03 7.396431732177734375e+01 -1.392852306365966797e+01 -2.978411912918090820e-01 6.601121425628662109e+00 1.890984058380126953e+00 -3.288629055023193359e-01
2.484000000000000000e+03 3.473069000244140625e+01 -3.881136703491210938e+01 7.910484820604324341e-02 -2.303556948900222778e-01 -4.537525400519371033e-02 -1.338884085416793823e-01
2.485000000000000000e+03 2.258192062377929688e+01 -3.455688476562500000e+01 4.076907411217689514e-03 -2.436277223750948906e-03 4.921890213154256344e-04 2.852594014257192612e-03
2.486000000000000000e+03 3.128908348083496094e+01 -3.653504562377929688e+01 -2.285656705498695374e-02 -6.574241071939468384e-02 -2.657969295978546143e-02 -6.480267643928527832e-02
2.487000000000000000e+03 1.206609249114990234e+01 -4.119049453735351562e+01 -3.696458414196968079e-03 3.010803135111927986e-03 -2.056965167867019773e-04 8.859449299052357674e-04
2.488000000000000000e+03 1.049107646942138672e+01 -3.643460464477539062e+01 1.794712879927828908e-04 1.161889755167067051e-03 4.024083027616143227e-04 2.366294851526618004e-03
2.489000000000000000e+03 5.274693298339843750e+01 -2.994758987426757812e+01 1.709675908088684082e+00 3.101955413818359375e+00 1.443489432334899902e+00 6.745678186416625977e-01
2.490000000000000000e+03 5.285818099975585938e+01 -2.831248855590820312e+01 1.530805587768554688e+00 2.769000530242919922e+00 1.289941906929016113e+00 2.452895045280456543e-01
2.491000000000000000e+03 7.495680999755859375e+01 -4.028335952758789062e+01 -4.433643072843551636e-02 7.388678073883056641e+00 2.203302383422851562e+00 -2.069801241159439087e-01
2.492000000000000000e+03 1.970428085327148438e+01 -3.553375625610351562e+01 -2.953422663267701864e-04 9.728565928526222706e-04 2.032542979577556252e-04 5.793146323412656784e-03
2.493000000000000000e+03 3.648072433471679688e+01 2.231913185119628906e+01 1.436313688755035400e-01 1.270565867424011230e+00 4.242591559886932373e-01 -1.940620839595794678e-01
2.494000000000000000e+03 3.613074874877929688e+01 1.950490188598632812e+01 2.540341615676879883e-01 1.341450333595275879e+00 4.786453545093536377e-01 -2.529452145099639893e-01
2.495000000000000000e+03 6.328676700592041016e+00 3.825792312622070312e+01 -1.640179893001914024e-03 -4.531372487545013428e-01 -1.364332288503646851e-01 -2.608156064525246620e-03
2.496000000000000000e+03 5.294680404663085938e+01 -3.216801452636718750e+01 1.193945884704589844e+00 3.332311630249023438e+00 1.357877254486083984e+00 9.174256324768066406e-01
2.497000000000000000e+03 2.625227737426757812e+01 -3.714105987548828125e+01 -1.178215816617012024e-02 -1.904070563614368439e-02 -9.246859699487686157e-03 -1.179870963096618652e-02
2.498000000000000000e+03 2.926923370361328125e+01 -3.786597824096679688e+01 -1.423950307071208954e-02 -4.850789904594421387e-02 -1.882422156631946564e-02 -3.691540285944938660e-02
2.499000000000000000e+03 5.747962951660156250e+01 -2.130937957763671875e+01 -1.018722534179687500e+00 4.693481922149658203e+00 1.102427840232849121e+00 2.460424184799194336e+00
2.500000000000000000e+03 1.138368701934814453e+01 -6.785198211669921875e+00 1.099123073800001293e-05 6.105419288360280916e-06 5.128994871483882889e-06 -5.820678779855370522e-06
2.501000000000000000e+03 1.072351741790771484e+01 -6.410817623138427734e+00 -1.266319759452017024e-05 -9.630763997847680002e-06 -6.688188477710355073e-06 8.052394150581676513e-06
2.502000000000000000e+03 6.216156005859375000e+01 -1.994491577148437500e+01 1.935542464256286621e+00 2.389598190784454346e-01 6.523507237434387207e-01 3.979891538619995117e-01
2.503000000000000000e+03 5.144590759277343750e+01 -2.818911933898925781e+01 1.316382527351379395e+00 1.845442414283752441e+00 9.485474824905395508e-01 1.041870042681694031e-01
2.504000000000000000e+03 5.923969268798828125e+00 7.345210075378417969e+00 -3.160233050584793091e-02 -2.566577792167663574e-01 -8.647803962230682373e-02 2.371530681848526001e-01
2.505000000000000000e+03 3.112971687316894531e+01 -1.119776916503906250e+01 -5.326753258705139160e-01 -1.377502083778381348e-01 -2.011276632547378540e-01 6.796637773513793945e-01
2.506000000000000000e+03 9.808551788330078125e+00 -8.047551155090332031e+00 -8.516528396285139024e-06 -8.117624020087532699e-06 -4.990245543012861162e-06 1.051044364430708811e-05
2.507000000000000000e+03 2.996924972534179688e+01 -9.921353340148925781e+00 -4.987414777278900146e-01 -1.586187034845352173e-01 -1.972080618143081665e-01 6.511729359626770020e-01
2.508000000000000000e+03 5.915038299560546875e+01 -2.149467849731445312e+01 -8.422119021415710449e-01 4.475570678710937500e+00 1.090007662773132324e+00 1.108566403388977051e+00
2.509000000000000000e+03 4.729289627075195312e+01 -2.786077690124511719e+01 3.690315783023834229e-01 2.531871572136878967e-02 1.183050870895385742e-01 -4.706823527812957764e-01
2.510000000000000000e+03 4.990196990966796875e+01 -2.631125640869140625e+01 5.744379162788391113e-01 7.098184227943420410e-01 3.852768838405609131e-01 -4.137583374977111816e-01
2.511000000000000000e+03 1.407367897033691406e+01 -7.857709407806396484e+00 7.132347946026129648e-06 1.098451775760622695e-06 2.469239916536025703e-06 -5.902723387407604605e-06
2.512000000000000000e+03 4.799972534179687500e+01 -1.490250492095947266e+01 8.666056990623474121e-01 3.821791112422943115e-01 3.746354281902313232e-01 2.201169133186340332e-01
2.513000000000000000e+03 5.028932571411132812e+01 -2.586081886291503906e+01 5.209543704986572266e-01 7.770202755928039551e-01 3.893924057483673096e-01 -4.438920021057128906e-01
2.514000000000000000e+03 5.171952438354492188e+01 -2.618504333496093750e+01 7.902185320854187012e-01 1.503597021102905273e+00 6.881446242332458496e-01 -1.215181574225425720e-01
2.515000000000000000e+03 9.476281166076660156e+00 5.822646141052246094e+00 -7.599050551652908325e-02 -3.303698301315307617e-01 -1.219080984592437744e-01 3.435379266738891602e-01
2.516000000000000000e+03 6.212460517883300781e+00 9.851549148559570312e+00 1.812595129013061523e-02 -3.327673673629760742e-01 -9.439242631196975708e-02 2.359599769115447998e-01
2.517000000000000000e+03 7.505160331726074219e+00 -5.975237369537353516e+00 -9.495544759374752175e-07 -5.612048425973625854e-06 -1.968480773939518258e-06 -7.589236702187918127e-06
2.518000000000000000e+03 7.573846817016601562e+00 -9.079099655151367188e+00 -4.858403372054453939e-06 -1.390626766806235537e-05 -5.629401130136102438e-06 -3.963323706557275727e-06
2.519000000000000000e+03 4.665883255004882812e+01 -2.860859489440917969e+01 2.566512525081634521e-01 -1.665019541978836060e-01 2.704478427767753601e-02 -3.676493167877197266e-01
2.520000000000000000e+03 1.018524742126464844e+01 -7.131843566894531250e+00 9.508991752227302641e-06 9.123782547248993069e-06 5.589832653640769422e-06 -7.748561074549797922e-06
2.521000000000000000e+03 1.317487049102783203e+01 -8.245624542236328125e+00 6.210329956957139075e-06 2.292054205099702813e-06 2.550715180404949933e-06 -9.880306606646627188e-06
2.522000000000000000e+03 5.245959854125976562e+01 -2.605104255676269531e+01 7.788608670234680176e-01 2.125272989273071289e+00 8.712401390075683594e-01 -1.813922636210918427e-02
2.523000000000000000e+03 2.710904312133789062e+01 -7.218579769134521484e+00 -5.197964906692504883e-01 -3.378332555294036865e-01 -2.572889328002929688e-01 5.650138854980468750e-01
2.524000000000000000e+03 4.243001937866210938e+01 -1.466303634643554688e+01 -5.725851655006408691e-01 1.565952152013778687e-01 -1.247969791293144226e-01 4.248766005039215088e-01
2.525000000000000000e+03 4.385999298095703125e+01 -1.562902832031250000e+01 -8.063362836837768555e-01 2.707387804985046387e-01 -1.606792509555816650e-01 6.457768082618713379e-01
2.526000000000000000e+03 1.689862060546875000e+01 4.597911834716796875e+00 -8.533407002687454224e-03 -5.674116015434265137e-01 -1.727835088968276978e-01 3.445471525192260742e-01
2.527000000000000000e+03 4.515975570678710938e+01 -1.471587181091308594e+01 -2.750047296285629272e-02 2.581570446491241455e-01 6.919697672128677368e-02 4.571287930011749268e-01
2.528000000000000000e+03 2.571110725402832031e+01 -5.160927772521972656e+00 -4.777038991451263428e-01 -4.398964345455169678e-01 -2.752800881862640381e-01 4.877728521823883057e-01
2.529000000000000000e+03 2.409647750854492188e+01 -1.736126780509948730e+00 -2.893737852573394775e-01 -4.895374774932861328e-01 -2.336733788251876831e-01 3.552087247371673584e-01
2.530000000000000000e+03 1.273989486694335938e+01 -7.343043327331542969e+00 7.383167940133716911e-06 3.830154582828981802e-06 3.363996711414074525e-06 -5.231639988778624684e-06
2.531000000000000000e+03 5.784693145751953125e+01 -2.187547683715820312e+01 -1.315193772315979004e+00 4.830345153808593750e+00 1.054545402526855469e+00 2.146064043045043945e+00
2.532000000000000000e+03 4.172280883789062500e+01 -1.465904617309570312e+01 -6.215581297874450684e-01 6.697371602058410645e-02 -1.663753241300582886e-01 3.969088792800903320e-01
2.533000000000000000e+03 3.503057861328125000e+01 -1.260642623901367188e+01 -5.422334671020507812e-01 -1.919291317462921143e-01 -2.202487736940383911e-01 6.479896903038024902e-01
2.534000000000000000e+03 1.584945297241210938e+01 4.465429782867431641e+00 -4.842219129204750061e-02 -5.590865612030029297e-01 -1.822526156902313232e-01 3.726427257061004639e-01
2.535000000000000000e+03 1.533469963073730469e+01 3.836034059524536133e+00 -1.187575310468673706e-01 -5.578241348266601562e-01 -2.029744982719421387e-01 4.014800786972045898e-01
2.536000000000000000e+03 4.438341522216796875e+01 -1.423646450042724609e+01 -6.673579104244709015e-03 2.698753476142883301e-01 7.896053045988082886e-02 3.128704428672790527e-01
2.537000000000000000e+03 2.749165344238281250e+01 -3.666131734848022461e+00 -2.689175903797149658e-01 -2.127214372158050537e-01 -1.444917172193527222e-01 3.511658906936645508e-01
2.538000000000000000e+03 2.627585029602050781e+01 -4.661776065826416016e+00 -4.112044572830200195e-01 -3.629664182662963867e-01 -2.322512716054916382e-01 4.404681921005249023e-01
2.539000000000000000e+03 2.017685890197753906e+01 6.001704335212707520e-01 -2.529278099536895752e-01 -6.568900942802429199e-01 -2.729453742504119873e-01 3.969069123268127441e-01
2.540000000000000000e+03 1.753186416625976562e+01 4.281709671020507812e+00 -1.407505292445421219e-02 -5.771608352661132812e-01 -1.773707568645477295e-01 3.388898372650146484e-01
2.541000000000000000e+03 2.855372619628906250e+01 -7.997786045074462891e+00 -4.788550138473510742e-01 -2.115107476711273193e-01 -2.071097344160079956e-01 5.832008123397827148e-01
2.542000000000000000e+03 2.810714912414550781e+01 -7.353452682495117188e+00 -4.714270234107971191e-01 -2.427410334348678589e-01 -2.142504155635833740e-01 5.533252954483032227e-01
2.543000000000000000e+03 1.541821193695068359e+01 -7.301474571228027344e+00 4.339594397606560960e-06 7.377055226243101060e-06 3.514994887154898606e-06 4.008932990018365672e-07
2.544000000000000000e+03 2.798832130432128906e+01 -8.543667793273925781e+00 -5.304897427558898926e-01 -2.735005915164947510e-01 -2.411970943212509155e-01 6.171613335609436035e-01
2.545000000000000000e+03 2.947405815124511719e+01 -9.279156684875488281e+00 -4.912373423576354980e-01 -1.668833643198013306e-01 -1.974362134933471680e-01 6.347184777259826660e-01
2.546000000000000000e+03 2.412665557861328125e+01 -3.043303489685058594e+00 -4.047263562679290771e-01 -5.387734770774841309e-01 -2.830499410629272461e-01 4.237768352031707764e-01
2.547000000000000000e+03 2.340552139282226562e+01 -1.089046955108642578e+00 -2.554420232772827148e-01 -5.237488746643066406e-01 -2.337572723627090454e-01 3.479637503623962402e-01
2.548000000000000000e+03 2.200485992431640625e+01 1.374938488006591797e-01 -2.086474299430847168e-01 -5.816428661346435547e-01 -2.370870858430862427e-01 3.434079289436340332e-01
2.549000000000000000e+03 2.578942871093750000e+01 -3.942789077758789062e+00 -3.832377791404724121e-01 -3.912740051746368408e-01 -2.323535382747650146e-01 4.147259294986724854e-01
2.550000000000000000e+03 2.528193092346191406e+01 -3.191723823547363281e+00 -3.505367934703826904e-01 -4.198825359344482422e-01 -2.311258018016815186e-01 3.891614675521850586e-01
2.551000000000000000e+03 2.721024703979492188e+01 -6.037197113037109375e+00 -4.492678940296173096e-01 -3.006097972393035889e-01 -2.249633073806762695e-01 4.961075484752655029e-01
2.552000000000000000e+03 1.607983779907226562e+01 -8.498813629150390625e+00 -4.545756837615044788e-06 -7.172220506390658556e-08 -1.385243763252219651e-06 1.960730969585711136e-06
2.553000000000000000e+03 2.270246124267578125e+01 -4.631136059761047363e-01 -2.345633357763290405e-01 -5.568823218345642090e-01 -2.374337017536163330e-01 3.426868319511413574e-01
2.554000000000000000e+03 2.317705345153808594e+01 2.140109837055206299e-01 -1.492094397544860840e-01 -4.941653907299041748e-01 -1.930124461650848389e-01 2.944589853286743164e-01
2.555000000000000000e+03 6.202523422241210938e+01 -1.807748413085937500e+01 2.350222349166870117e+00 2.952174842357635498e-01 7.936319708824157715e-01 1.809579253196716309e+00
2.556000000000000000e+03 1.920801925659179688e+01 2.269299030303955078e+00 -1.248454526066780090e-01 -6.194183826446533203e-01 -2.232791632413864136e-01 3.572407066822052002e-01
2.557000000000000000e+03 1.850194740295410156e+01 2.734792709350585938e+00 -1.109479516744613647e-01 -6.145924925804138184e-01 -2.176621258258819580e-01 3.629654943943023682e-01
2.558000000000000000e+03 1.460957622528076172e+01 -8.773944854736328125e+00 9.798684004636015743e-06 -3.057285539398435503e-06 2.022419494096538983e-06 -4.452393568499246612e-06
2.559000000000000000e+03 1.425635147094726562e+01 -1.029023265838623047e+01 1.294044250244041905e-05 -3.395421799723408185e-06 2.863506324501940981e-06 -6.436434887291397899e-06
2.560000000000000000e+03 7.792982101440429688e+00 1.441729259490966797e+01 8.264078199863433838e-02 -4.071202278137207031e-01 -9.734383225440979004e-02 1.883529424667358398e-01
2.561000000000000000e+03 7.746329307556152344e+00 1.327345752716064453e+01 7.934062182903289795e-02 -3.994089066982269287e-01 -9.602048248052597046e-02 2.147306799888610840e-01
2.562000000000000000e+03 8.677105903625488281e+00 1.689133262634277344e+01 1.036196798086166382e-01 -4.068747758865356445e-01 -9.097652882337570190e-02 1.490710824728012085e-01
2.563000000000000000e+03 1.456381893157958984e+01 5.482741832733154297e+00 -1.167946215718984604e-02 -5.159138441085815430e-01 -1.582780033349990845e-01 3.639091849327087402e-01
2.564000000000000000e+03 4.050414276123046875e+01 -1.414249324798583984e+01 -5.584179162979125977e-01 -5.958960577845573425e-02 -1.854022592306137085e-01 3.642797768115997314e-01
2.565000000000000000e+03 4.006389617919921875e+01 -1.503832626342773438e+01 -8.970294594764709473e-01 -1.773884147405624390e-01 -3.223253488540649414e-01 4.277641475200653076e-01
2.566000000000000000e+03 1.948494338989257812e+01 1.114322781562805176e+00 -2.307474464178085327e-01 -6.565450429916381836e-01 -2.661877572536468506e-01 3.996090292930603027e-01
2.567000000000000000e+03 1.780238533020019531e+01 3.168119907379150391e+00 -9.655855596065521240e-02 -6.079862117767333984e-01 -2.113634347915649414e-01 3.695242404937744141e-01
2.568000000000000000e+03 8.729893684387207031e+00 -9.737195014953613281e+00 -3.561561015885672532e-06 -1.286879523831885308e-05 -4.929107035422930494e-06 -1.123327251661976334e-06
2.569000000000000000e+03 3.996725845336914062e+01 -1.319600677490234375e+01 -3.629262447357177734e-01 -9.171959012746810913e-02 -1.363937556743621826e-01 3.150684237480163574e-01
2.570000000000000000e+03 4.262511444091796875e+01 -6.955490589141845703e+00 6.146882176399230957e-01 9.993216991424560547e-01 4.842029809951782227e-01 -7.060164213180541992e-01
2.571000000000000000e+03 3.173994064331054688e+01 -1.037988662719726562e+01 -4.544474780559539795e-01 -9.552744030952453613e-02 -1.649924814701080322e-01 6.421728730201721191e-01
2.572000000000000000e+03 4.171735763549804688e+01 -4.913501739501953125e+00 5.052903294563293457e-01 1.140952825546264648e+00 4.938729703426361084e-01 -6.854612827301025391e-01
2.573000000000000000e+03 4.171808624267578125e+01 -2.260247230529785156e+00 4.479096531867980957e-01 1.482060194015502930e+00 5.789909362792968750e-01 -7.604587674140930176e-01
2.574000000000000000e+03 1.366471385955810547e+01 -9.215673446655273438e+00 1.234615501743974164e-05 -1.795651883185200859e-06 3.165150928907678463e-06 -9.759276508702896535e-06
2.575000000000000000e+03 3.279477310180664062e+01 -1.230907630920410156e+01 -5.928992033004760742e-01 -1.426247060298919678e-01 -2.206571847200393677e-01 6.968293786048889160e-01
2.576000000000000000e+03 3.616301345825195312e+01 6.761582374572753906e+00 6.223449707031250000e-01 1.289944887161254883e+00 5.736869573593139648e-01 -3.345862925052642822e-01
2.577000000000000000e+03 5.361515045166015625e+01 -2.768806648254394531e+01 1.465420484542846680e+00 3.285166263580322266e+00 1.425176024436950684e+00 4.565934240818023682e-01
2.578000000000000000e+03 4.010582733154296875e+01 -1.740866303443908691e+00 4.102993011474609375e-01 1.302208781242370605e+00 5.137524008750915527e-01 -5.837234854698181152e-01
2.579000000000000000e+03 6.729724884033203125e+01 -1.550666713714599609e+01 4.978432655334472656e-01 2.457552671432495117e+00 8.866187930107116699e-01 1.809938549995422363e-01
2.580000000000000000e+03 6.760823059082031250e+01 -1.737895393371582031e+01 6.130247116088867188e-01 1.899539947509765625e+00 7.537693977355957031e-01 -2.777271866798400879e-01
2.581000000000000000e+03 4.607563018798828125e+01 -1.233699417114257812e+01 1.108246326446533203e+00 7.067587971687316895e-01 5.445015430450439453e-01 -4.793488979339599609e-01
2.582000000000000000e+03 3.882123184204101562e+01 4.723134636878967285e-01 4.055191874504089355e-01 1.344499468803405762e+00 5.250055789947509766e-01 -4.800350368022918701e-01
2.583000000000000000e+03 9.882631301879882812e+00 6.599152565002441406e+00 -3.684584796428680420e-02 -3.594545125961303711e-01 -1.188901066780090332e-01 3.415020406246185303e-01
2.584000000000000000e+03 4.447061920166015625e+01 -8.525197029113769531e+00 8.427075147628784180e-01 1.131893277168273926e+00 5.923802256584167480e-01 -8.795315027236938477e-01
2.585000000000000000e+03 4.403201675415039062e+01 -1.155172920227050781e+01 6.971018314361572266e-01 4.797267019748687744e-01 3.530485630035400391e-01 -2.878042161464691162e-01
2.586000000000000000e+03 3.779224014282226562e+01 -1.400822353363037109e+01 -6.877995729446411133e-01 -2.985577583312988281e-01 -2.959071993827819824e-01 5.392017364501953125e-01
2.587000000000000000e+03 3.797897338867187500e+01 -1.305898380279541016e+01 -4.267485141754150391e-01 -1.955398768186569214e-01 -1.866865158081054688e-01 4.559047222137451172e-01
2.588000000000000000e+03 3.882707595825195312e+01 5.408590316772460938e+00 5.674729943275451660e-01 1.788594961166381836e+00 7.068204283714294434e-01 -4.680734872817993164e-01
2.589000000000000000e+03 4.020735931396484375e+01 2.934805631637573242e+00 4.614179730415344238e-01 1.817406892776489258e+00 6.836474537849426270e-01 -6.230978369712829590e-01
2.590000000000000000e+03 8.809536933898925781e+00 2.442205619812011719e+01 6.147672235965728760e-02 -3.909226953983306885e-01 -9.883379191160202026e-02 3.105749189853668213e-02
2.591000000000000000e+03 6.495713710784912109e+00 -9.605447769165039062e+00 6.418163138732779771e-06 1.655758387641981244e-05 6.892724286444718018e-06 3.737558699867804535e-06
2.592000000000000000e+03 9.684533119201660156e+00 -1.254253578186035156e+01 -1.512983089924091473e-05 -1.981614332180470228e-05 -1.048379181156633422e-05 6.775401288905413821e-06
2.593000000000000000e+03 7.381408691406250000e+01 -1.128480148315429688e+01 -1.728623211383819580e-01 6.556847095489501953e+00 1.915195465087890625e+00 -3.597165942192077637e-01
2.594000000000000000e+03 7.203178405761718750e+01 -1.091788005828857422e+01 -1.367095261812210083e-01 6.008744716644287109e+00 1.761610627174377441e+00 -1.304747164249420166e-01
2.595000000000000000e+03 7.284443664550781250e+01 -1.726411247253417969e+01 -6.036244630813598633e-01 6.415210247039794922e+00 1.743475794792175293e+00 -4.464230537414550781e-01
2.596000000000000000e+03 8.862711906433105469e+00 -7.817086219787597656e+00 1.195760250993771479e-05 6.956403012736700475e-06 5.674201474903384224e-06 -4.840984729526098818e-06
2.597000000000000000e+03 3.597976303100585938e+01 2.444780540466308594e+01 7.044161111116409302e-02 1.147853255271911621e+00 3.654884696006774902e-01 -1.990849971771240234e-01
2.598000000000000000e+03 3.948173522949218750e+01 -6.459453105926513672e-01 3.964657783508300781e-01 1.321560025215148926e+00 5.154077410697937012e-01 -5.328921079635620117e-01
2.599000000000000000e+03 8.651450157165527344e+00 1.813560104370117188e+01 9.955054521560668945e-02 -4.089076519012451172e-01 -9.280712902545928955e-02 1.250812411308288574e-01
2.600000000000000000e+03 3.742121124267578125e+01 2.726543426513671875e+00 4.652553498744964600e-01 1.303589701652526855e+00 5.306535363197326660e-01 -3.712852299213409424e-01
2.601000000000000000e+03 3.807126235961914062e+01 6.636940002441406250e+00 6.341771483421325684e-01 1.692860484123229980e+00 6.981112957000732422e-01 -4.168362617492675781e-01
2.602000000000000000e+03 1.044286346435546875e+01 -1.067144203186035156e+01 8.736896234040614218e-06 2.100470555888023227e-05 8.922480446926783770e-06 -1.403923488396685570e-05
2.603000000000000000e+03 6.999986171722412109e+00 7.346932411193847656e+00 -3.146655485033988953e-02 -2.807536721229553223e-01 -9.366606920957565308e-02 2.701592743396759033e-01
2.604000000000000000e+03 9.231641769409179688e+00 7.884358406066894531e+00 1.821709447540342808e-03 -3.578524589538574219e-01 -1.068092286586761475e-01 3.173277080059051514e-01
2.605000000000000000e+03 7.250974273681640625e+01 -1.342876434326171875e+01 -2.499139010906219482e-01 5.976243495941162109e+00 1.717898845672607422e+00 -3.670462369918823242e-01
2.606000000000000000e+03 4.516975021362304688e+01 -3.292629241943359375e+01 2.434768080711364746e-01 -1.858968436717987061e-01 1.727399230003356934e-02 3.266602158546447754e-01
2.607000000000000000e+03 4.768520355224609375e+01 -3.136381530761718750e+01 5.224038958549499512e-01 4.888592660427093506e-01 3.033789396286010742e-01 3.798299431800842285e-01
2.608000000000000000e+03 1.266637325286865234e+01 3.130716705322265625e+01 2.578522637486457825e-02 -1.952845156192779541e-01 -5.084978789091110229e-02 -3.823652118444442749e-02
2.609000000000000000e+03 1.155017566680908203e+01 -8.637555122375488281e+00 -8.862929462338797748e-06 -8.581269526075629983e-07 -2.916317043855087832e-06 1.151143169408896938e-05
2.610000000000000000e+03 7.805555820465087891e+00 1.202745056152343750e+01 6.790195405483245850e-02 -3.869516849517822266e-01 -9.571491926908493042e-02 2.345729619264602661e-01
2.611000000000000000e+03 6.577697277069091797e+00 1.182950973510742188e+01 4.701822623610496521e-02 -3.757049143314361572e-01 -9.860600531101226807e-02 2.194776087999343872e-01
2.612000000000000000e+03 3.408000183105468750e+01 1.756261444091796875e+01 3.785286843776702881e-01 1.105423212051391602e+00 4.451855719089508057e-01 -3.288484811782836914e-01
2.613000000000000000e+03 3.539537811279296875e+01 1.621425819396972656e+01 4.197194278240203857e-01 1.329218029975891113e+00 5.246812105178833008e-01 -3.368555009365081787e-01
2.614000000000000000e+03 7.181207275390625000e+01 -1.802159118652343750e+01 -5.760944485664367676e-01 5.970284461975097656e+00 1.618257045745849609e+00 -9.004206061363220215e-01
2.615000000000000000e+03 4.411486434936523438e+01 -7.526127815246582031e+00 7.474554777145385742e-01 1.209754347801208496e+00 5.871629714965820312e-01 -9.015030860900878906e-01
2.616000000000000000e+03 3.540984344482421875e+01 1.347852516174316406e+01 5.519075393676757812e-01 1.321134209632873535e+00 5.619125366210937500e-01 -3.741587996482849121e-01
2.617000000000000000e+03 4.375448989868164062e+01 -9.748656272888183594e+00 7.674255371093750000e-01 7.477359175682067871e-01 4.545484185218811035e-01 -5.892765522003173828e-01
2.618000000000000000e+03 7.254545593261718750e+01 -1.222696399688720703e+01 -1.889936625957489014e-01 6.070806980133056641e+00 1.764544010162353516e+00 -2.850741744041442871e-01
2.619000000000000000e+03 3.557707595825195312e+01 2.737065696716308594e+01 -3.107060305774211884e-02 1.036805391311645508e+00 3.017204403877258301e-01 -1.785656213760375977e-01
2.620000000000000000e+03 3.612215805053710938e+01 2.574011421203613281e+01 1.234076637774705887e-02 1.112727880477905273e+00 3.375205993652343750e-01 -1.807683557271957397e-01
2.621000000000000000e+03 7.021865081787109375e+01 -1.709927368164062500e+01 -1.992738842964172363e-01 4.534246921539306641e+00 1.300491929054260254e+00 -8.429971337318420410e-01
2.622000000000000000e+03 5.332086944580078125e+01 -3.349887466430664062e+01 1.745759993791580200e-01 3.381083726882934570e+00 1.066697955131530762e+00 8.405352830886840820e-01
2.623000000000000000e+03 5.161201477050781250e+01 -3.014865493774414062e+01 1.548674583435058594e+00 2.141366720199584961e+00 1.107012391090393066e+00 5.287737250328063965e-01
2.624000000000000000e+03 8.921029090881347656e+00 3.589041900634765625e+01 -3.071158425882458687e-03 -3.286280632019042969e-01 -9.950976818799972534e-02 -1.682576164603233337e-02
2.625000000000000000e+03 2.021383094787597656e+01 -3.864970779418945312e+01 -8.987403474748134613e-03 3.259449440520256758e-04 -2.598437713459134102e-03 4.063696600496768951e-03
2.626000000000000000e+03 7.873555183410644531e+00 2.535397720336914062e+01 4.911099746823310852e-02 -4.208168685436248779e-01 -1.115117594599723816e-01 2.278657630085945129e-02
2.627000000000000000e+03 8.933156967163085938e+00 2.662449836730957031e+01 4.676051065325737000e-02 -3.770536780357360840e-01 -9.908794611692428589e-02 9.114750660955905914e-03
2.628000000000000000e+03 5.205457687377929688e+01 -2.906921195983886719e+01 1.493736743927001953e+00 2.202917575836181641e+00 1.108996272087097168e+00 3.783293664455413818e-01
2.629000000000000000e+03 5.224268722534179688e+01 -2.762344551086425781e+01 1.311836600303649902e+00 2.204604387283325195e+00 1.054932236671447754e+00 2.048544883728027344e-01
2.630000000000000000e+03 4.951196289062500000e+01 -3.942835235595703125e+01 -2.872256338596343994e-01 1.574107766151428223e+00 3.860646486282348633e-01 3.334182500839233398e-01
2.631000000000000000e+03 4.363785743713378906e+00 -2.372624206542968750e+01 1.817056363506708294e-05 -6.684750405838713050e-05 -1.460308158129919320e-05 -4.658492252929136157e-05
2.632000000000000000e+03 3.480120086669921875e+01 1.123621463775634766e+01 6.186816096305847168e-01 1.170477032661437988e+00 5.367475748062133789e-01 -3.558461666107177734e-01
2.633000000000000000e+03 3.528762054443359375e+01 7.663805484771728516e+00 6.232370734214782715e-01 1.167202711105346680e+00 5.371319055557250977e-01 -3.109610974788665771e-01
2.634000000000000000e+03 3.498310852050781250e+01 2.107036781311035156e+01 2.049273848533630371e-01 1.161131978034973145e+00 4.098178148269653320e-01 -2.532783150672912598e-01
2.635000000000000000e+03 2.654456138610839844e+01 -3.900674438476562500e+01 -7.683603558689355850e-03 -3.415866568684577942e-02 -1.255268137902021408e-02 -1.450553536415100098e-02
2.636000000000000000e+03 2.618371772766113281e+01 -3.576070022583007812e+01 -9.482622146606445312e-03 -9.720721282064914703e-03 -5.761002656072378159e-03 -7.187886163592338562e-03
2.637000000000000000e+03 2.331288528442382812e+01 -3.920538711547851562e+01 -9.373078122735023499e-03 -1.371862832456827164e-02 -6.927512120455503464e-03 1.087827840819954872e-03
2.638000000000000000e+03 5.700646972656250000e+01 -2.146378517150878906e+01 -1.006195664405822754e+00 4.154677867889404297e+00 9.445447325706481934e-01 2.548132658004760742e+00
2.639000000000000000e+03 3.051432800292968750e+01 -1.055970478057861328e+01 -5.121317505836486816e-01 -1.341575235128402710e-01 -1.938867866992950439e-01 6.723189353942871094e-01
2.640000000000000000e+03 3.055223464965820312e+01 -9.260321617126464844e+00 -4.384841024875640869e-01 -1.103178933262825012e-01 -1.646405905485153198e-01 6.143755316734313965e-01
2.641000000000000000e+03 4.967941284179687500e+01 -2.707804489135742188e+01 7.926928997039794922e-01 7.318230271339416504e-01 4.573547840118408203e-01 -3.842417299747467041e-01
2.642000000000000000e+03 4.893084335327148438e+01 -2.664317893981933594e+01 5.374577045440673828e-01 3.679345548152923584e-01 2.716176807880401611e-01 -5.293245911598205566e-01
2.643000000000000000e+03 1.129822921752929688e+01 -9.472050666809082031e+00 7.244418611662695184e-06 1.114974020310910419e-05 5.518247689906274900e-06 -1.461446299799717963e-05
2.644000000000000000e+03 1.176057338714599609e+01 -7.806269168853759766e+00 8.280576366814784706e-06 4.382874976727180183e-06 3.799035312113119289e-06 -7.211532192741287872e-06
2.645000000000000000e+03 9.302189826965332031e+00 -6.782190322875976562e+00 -1.258961674466263503e-05 -3.747474920601234771e-06 -4.901127340417588130e-06 6.814352218498243019e-06
2.646000000000000000e+03 9.485780715942382812e+00 -9.773840904235839844e+00 -1.785861422831658274e-05 3.056782816202030517e-06 -4.440549673745408654e-06 1.316880388912977651e-05
2.647000000000000000e+03 7.170616626739501953e+00 6.433199882507324219e+00 -5.996787548065185547e-02 -2.559586167335510254e-01 -9.477794170379638672e-02 2.733646631240844727e-01
2.648000000000000000e+03 8.014000892639160156e+00 7.305712699890136719e+00 -2.955764159560203552e-02 -3.100827634334564209e-01 -1.018921285867691040e-01 2.984656095504760742e-01
2.649000000000000000e+03 3.226218032836914062e+01 -9.538702964782714844e+00 -3.564541339874267578e-01 -7.416937500238418579e-02 -1.291870474815368652e-01 5.817294716835021973e-01
2.650000000000000000e+03 2.957648086547851562e+01 -8.046502113342285156e+00 -4.253295958042144775e-01 -1.374836415052413940e-01 -1.688439697027206421e-01 5.668324828147888184e-01
2.651000000000000000e+03 2.766185951232910156e+01 -6.701480388641357422e+00 -4.609727263450622559e-01 -2.677779793739318848e-01 -2.186252027750015259e-01 5.262910127639770508e-01
2.652000000000000000e+03 2.732108497619628906e+01 -4.853123188018798828e+00 -3.649049997329711914e-01 -2.601677179336547852e-01 -1.875218152999877930e-01 4.236184954643249512e-01
2.653000000000000000e+03 5.256523895263671875e+01 -2.689354133605957031e+01 1.148397088050842285e+00 2.248910665512084961e+00 1.019192337989807129e+00 1.280265152454376221e-01
2.654000000000000000e+03 5.044450759887695312e+01 -2.646148872375488281e+01 7.055961489677429199e-01 9.296342134475708008e-01 4.905691146850585938e-01 -3.088997900485992432e-01
2.655000000000000000e+03 4.945693969726562500e+01 -2.806785392761230469e+01 8.739507794380187988e-01 7.338652610778808594e-01 4.823448061943054199e-01 -1.724535375833511353e-01
2.656000000000000000e+03 5.044279861450195312e+01 -2.727445030212402344e+01 9.037283062934875488e-01 1.120937108993530273e+00 6.073996424674987793e-01 -2.217905372381210327e-01
2.657000000000000000e+03 4.416872406005859375e+01 -1.346453571319580078e+01 2.771651148796081543e-01 2.841718494892120361e-01 1.684010922908782959e-01 1.536317765712738037e-01
2.658000000000000000e+03 4.322114944458007812e+01 -1.466132068634033203e+01 -4.024721086025238037e-01 1.922046989202499390e-01 -6.308022141456604004e-02 4.352122843265533447e-01
2.659000000000000000e+03 4.226810836791992188e+01 -1.069658946990966797e+01 4.457322359085083008e-01 3.676117658615112305e-01 2.440032064914703369e-01 -1.999494135379791260e-01
2.660000000000000000e+03 2.866703605651855469e+01 -6.805835247039794922e+00 -4.077995121479034424e-01 -1.791771352291107178e-01 -1.760929971933364868e-01 5.112200379371643066e-01
2.661000000000000000e+03 1.712169075012207031e+01 3.574539899826049805e+00 -8.488854765892028809e-02 -5.961284637451171875e-01 -2.043050974607467651e-01 3.721962869167327881e-01
2.662000000000000000e+03 1.600175476074218750e+01 5.681264400482177734e+00 3.754306957125663757e-02 -5.353479981422424316e-01 -1.493414789438247681e-01 3.343226611614227295e-01
2.663000000000000000e+03 1.262086772918701172e+01 -9.418181419372558594e+00 8.438813893008045852e-06 1.429101212124805897e-05 6.818947440478950739e-06 -1.336673449259251356e-05
2.664000000000000000e+03 1.297551250457763672e+01 -8.882266998291015625e+00 -9.031378795043565333e-06 1.242891869424056495e-07 -2.672126811376074329e-06 1.375743795506423339e-05
2.665000000000000000e+03 2.900682830810546875e+01 -8.638475418090820312e+00 -4.841499030590057373e-01 -1.943038552999496460e-01 -2.035361230373382568e-01 6.066763401031494141e-01
2.666000000000000000e+03 1.821459579467773438e+01 3.889314651489257812e+00 -2.102883905172348022e-02 -5.796627998352050781e-01 -1.802074909210205078e-01 3.295479118824005127e-01
2.667000000000000000e+03 4.512936019897460938e+01 -1.404613494873046875e+01 3.443072438240051270e-01 2.953181862831115723e-01 1.918876320123672485e-01 2.237542569637298584e-01
2.668000000000000000e+03 4.230571746826171875e+01 -1.276381874084472656e+01 6.799235939979553223e-02 1.713215559720993042e-01 7.179417461156845093e-02 1.291684061288833618e-01
2.669000000000000000e+03 4.508531570434570312e+01 -1.326692390441894531e+01 5.909642577171325684e-01 3.908576071262359619e-01 2.945465743541717529e-01 -4.604116547852754593e-03
2.670000000000000000e+03 2.640745735168457031e+01 -3.431476831436157227e+00 -3.100368082523345947e-01 -3.147466480731964111e-01 -1.874350458383560181e-01 3.668531179428100586e-01
2.671000000000000000e+03 2.437308502197265625e+01 3.975355327129364014e-01 -8.416438847780227661e-02 -3.928088545799255371e-01 -1.430919766426086426e-01 2.469349950551986694e-01
2.672000000000000000e+03 3.635371398925781250e+01 -1.161737060546875000e+01 -3.108862042427062988e-01 -1.348296552896499634e-01 -1.337147504091262817e-01 4.989138841629028320e-01
2.673000000000000000e+03 3.715798950195312500e+01 -1.280394458770751953e+01 -4.510318338871002197e-01 -2.159596234560012817e-01 -2.000974416732788086e-01 5.174675583839416504e-01
2.674000000000000000e+03 2.472795104980468750e+01 -2.436823606491088867e+00 -3.180868327617645264e-01 -4.544769227504730225e-01 -2.317691296339035034e-01 3.680756390094757080e-01
2.675000000000000000e+03 2.471963119506835938e+01 -9.996924400329589844e-01 -1.855284720659255981e-01 -3.995453119277954102e-01 -1.755221337080001831e-01 2.950490713119506836e-01
2.676000000000000000e+03 4.112504577636718750e+01 -1.443811988830566406e+01 -5.944781899452209473e-01 1.240753009915351868e-02 -1.746211946010589600e-01 3.693546950817108154e-01
2.677000000000000000e+03 3.862916946411132812e+01 -1.322869586944580078e+01 -4.501642286777496338e-01 -2.234313637018203735e-01 -2.020786702632904053e-01 4.187988042831420898e-01
2.678000000000000000e+03 1.991229057312011719e+01 1.776483297348022461e+00 -1.436373442411422729e-01 -6.188943386077880859e-01 -2.287595123052597046e-01 3.519643247127532959e-01
2.679000000000000000e+03 1.641805267333984375e+01 5.024130344390869141e+00 1.020769309252500534e-02 -5.513438582420349121e-01 -1.623408496379852295e-01 3.431517779827117920e-01
2.680000000000000000e+03 1.524690723419189453e+01 5.033930778503417969e+00 -2.247823029756546021e-02 -5.373063087463378906e-01 -1.679353564977645874e-01 3.660639822483062744e-01
2.681000000000000000e+03 1.086076641082763672e+01 6.108112335205078125e+00 -4.662196710705757141e-02 -3.925661742687225342e-01 -1.317564398050308228e-01 3.622034788131713867e-01
2.682000000000000000e+03 2.391920280456542969e+01 -3.899374902248382568e-01 -1.709717065095901489e-01 -4.537240564823150635e-01 -1.874087303876876831e-01 2.938114404678344727e-01
2.683000000000000000e+03 7.659955978393554688e+00 -6.776860713958740234e+00 4.439391886990051717e-06 6.232176019693724811e-06 3.201470462954603136e-06 1.332254578301217407e-05
2.684000000000000000e+03 7.204745292663574219e+00 -8.056588172912597656e+00 9.160173249256331474e-06 1.363509818474994972e-05 6.838581157353473827e-06 1.319289367529563606e-06
2.685000000000000000e+03 2.593412971496582031e+01 -2.643399477005004883e+00 -2.682723999023437500e-01 -3.357408046722412109e-01 -1.812039613723754883e-01 3.390617072582244873e-01
2.686000000000000000e+03 2.541575431823730469e+01 -1.768958926200866699e+00 -2.203900814056396484e-01 -3.613812327384948730e-01 -1.745314002037048340e-01 3.080874085426330566e-01
2.687000000000000000e+03 1.099212455749511719e+01 -7.520399093627929688e+00 -8.356620128324721009e-06 -7.140240541048115119e-06 -4.649058155337115750e-06 7.191226814029505476e-06
2.688000000000000000e+03 2.034664154052734375e+01 2.469850063323974609e+00 -6.048458069562911987e-02 -5.771805047988891602e-01 -1.912995278835296631e-01 3.071877658367156982e-01
2.689000000000000000e+03 7.019676685333251953e+00 -1.071007919311523438e+01 -1.428933683200739324e-05 -2.088063411065377295e-05 -1.055099164659623057e-05 5.970745860395254567e-06
2.690000000000000000e+03 1.023770332336425781e+01 -9.922705650329589844e+00 7.453592388628749177e-06 -1.594404011484584771e-06 1.757756422193779144e-06 -7.624787940585520118e-06
2.691000000000000000e+03 2.291928100585937500e+01 1.519581317901611328e+00 -4.458516836166381836e-02 -4.671541750431060791e-01 -1.535218060016632080e-01 2.506885528564453125e-01
2.692000000000000000e+03 2.130995750427246094e+01 7.098156809806823730e-01 -1.861063838005065918e-01 -6.005032062530517578e-01 -2.359828799962997437e-01 3.441879749298095703e-01
2.693000000000000000e+03 4.157410049438476562e+01 -7.472772598266601562e+00 5.422990918159484863e-01 7.439553737640380859e-01 3.858763575553894043e-01 -4.957207739353179932e-01
2.694000000000000000e+03 4.068593597412109375e+01 -2.815513372421264648e+00 4.285026788711547852e-01 1.249927520751953125e+00 5.035290718078613281e-01 -6.263751983642578125e-01
2.695000000000000000e+03 4.113632202148437500e+01 -6.468824386596679688e+00 4.975216686725616455e-01 8.325946927070617676e-01 3.990349173545837402e-01 -5.143826603889465332e-01
2.696000000000000000e+03 2.911709022521972656e+01 -7.430614471435546875e+00 -4.167011976242065430e-01 -1.633794456720352173e-01 -1.740241944789886475e-01 5.382547974586486816e-01
2.697000000000000000e+03 1.398091983795166016e+01 5.954140186309814453e+00 4.353441763669252396e-03 -4.946341216564178467e-01 -1.470842063426971436e-01 3.602575361728668213e-01
2.698000000000000000e+03 4.910210037231445312e+01 -2.916247367858886719e+01 8.408967256546020508e-01 7.351132631301879883e-01 4.728029966354370117e-01 4.896949976682662964e-03
2.699000000000000000e+03 3.528973007202148438e+01 -1.155168724060058594e+01 -3.631823360919952393e-01 -1.266223490238189697e-01 -1.469414085149765015e-01 5.574358701705932617e-01
2.700000000000000000e+03 1.214379405975341797e+01 -1.001850795745849609e+01 -6.544776169903343543e-06 -1.600193718331865966e-05 -6.764013960491865873e-06 1.668353979766834527e-05
2.701000000000000000e+03 1.337775039672851562e+01 -9.913481712341308594e+00 -1.380515641358215362e-05 -2.088907649522298016e-06 -4.768219241668703035e-06 1.112455811380641535e-05
2.702000000000000000e+03 4.019722747802734375e+01 -4.423104763031005859e+00 4.290159046649932861e-01 9.768359661102294922e-01 4.217555522918701172e-01 -5.047691464424133301e-01
2.703000000000000000e+03 3.783118820190429688e+01 -2.063185870647430420e-01 3.762613832950592041e-01 1.117583632469177246e+00 4.481534957885742188e-01 -3.720444142818450928e-01
2.704000000000000000e+03 4.505602264404296875e+01 -1.238078880310058594e+01 8.118152618408203125e-01 4.896308779716491699e-01 3.904338479042053223e-01 -2.486086189746856689e-01
2.705000000000000000e+03 4.409142684936523438e+01 -1.250047969818115234e+01 5.039445757865905762e-01 3.820289075374603271e-01 2.657920420169830322e-01 -1.048125252127647400e-01
2.706000000000000000e+03 7.240249633789062500e+01 -1.625215911865234375e+01 -4.770468473434448242e-01 6.158552169799804688e+00 1.704451680183410645e+00 -5.548006296157836914e-01
2.707000000000000000e+03 4.669667816162109375e+01 -3.027549934387207031e+01 2.684525847434997559e-01 7.364543154835700989e-03 8.274513483047485352e-02 2.916613407433032990e-02
2.708000000000000000e+03 3.687540435791015625e+01 -9.144783020019531250e-01 3.437902033329010010e-01 9.189847707748413086e-01 3.788324892520904541e-01 -2.717194557189941406e-01
2.709000000000000000e+03 2.061309051513671875e+01 1.256640076637268066e+00 -1.627257168292999268e-01 -6.124147772789001465e-01 -2.325421422719955444e-01 3.478687405586242676e-01
2.710000000000000000e+03 3.740778732299804688e+01 -1.166823196411132812e+01 -2.167485803365707397e-01 -1.132224947214126587e-01 -9.899132698774337769e-02 4.082056581974029541e-01
2.711000000000000000e+03 1.263529014587402344e+01 6.154148101806640625e+00 -1.379183772951364517e-02 -4.570059478282928467e-01 -1.412393450736999512e-01 3.666367530822753906e-01
2.712000000000000000e+03 7.135234069824218750e+01 -1.690125846862792969e+01 -3.891863524913787842e-01 5.274736881256103516e+00 1.465665102005004883e+00 -7.751359343528747559e-01
2.713000000000000000e+03 7.112680435180664062e+00 8.510853767395019531e+00 3.223707899451255798e-04 -3.165990710258483887e-01 -9.488300979137420654e-02 2.674674987792968750e-01
2.714000000000000000e+03 8.518031120300292969e+00 1.072407054901123047e+01 6.099142506718635559e-02 -3.802309334278106689e-01 -9.577184915542602539e-02 2.663593590259552002e-01
2.715000000000000000e+03 3.594861984252929688e+01 4.842966079711914062e+00 5.412904620170593262e-01 1.167767524719238281e+00 5.127174258232116699e-01 -3.004971146583557129e-01
2.716000000000000000e+03 3.369877243041992188e+01 -1.022250843048095703e+01 -3.291881382465362549e-01 -7.463844865560531616e-02 -1.211479827761650085e-01 5.662981271743774414e-01
2.717000000000000000e+03 4.343103790283203125e+01 -8.867055892944335938e+00 7.297778129577636719e-01 8.298141360282897949e-01 4.678775966167449951e-01 -6.532304883003234863e-01
2.718000000000000000e+03 1.001472759246826172e+01 2.551630783081054688e+01 6.776809692382812500e-02 -3.426965177059173584e-01 -8.247852325439453125e-02 1.322706416249275208e-02
2.719000000000000000e+03 1.009119606018066406e+01 2.801031494140625000e+01 4.706802591681480408e-02 -3.240772485733032227e-01 -8.310276269912719727e-02 -8.403686806559562683e-03
2.720000000000000000e+03 1.132019805908203125e+01 8.070869445800781250e+00 4.822258651256561279e-02 -4.186951220035552979e-01 -1.111417561769485474e-01 3.303575813770294189e-01
2.721000000000000000e+03 3.813177871704101562e+01 1.605308532714843750e+00 4.240794777870178223e-01 1.330671668052673340e+00 5.264253616333007812e-01 -4.209350645542144775e-01
2.722000000000000000e+03 3.849287796020507812e+01 -1.287543416023254395e+00 3.767858147621154785e-01 1.115872621536254883e+00 4.477975070476531982e-01 -4.181959927082061768e-01
2.723000000000000000e+03 3.915686035156250000e+01 2.291386604309082031e+00 4.498390555381774902e-01 1.577889442443847656e+00 6.083185672760009766e-01 -5.213128328323364258e-01
2.724000000000000000e+03 7.738117218017578125e+00 1.088855075836181641e+01 5.200942605733871460e-02 -3.700402975082397461e-01 -9.540926665067672729e-02 2.500789165496826172e-01
2.725000000000000000e+03 9.805676460266113281e+00 1.642952537536621094e+01 1.252425163984298706e-01 -3.928447365760803223e-01 -8.028066903352737427e-02 1.560699194669723511e-01
2.726000000000000000e+03 9.584810256958007812e+00 -8.932541847229003906e+00 1.148317733168369159e-05 2.671302468115754891e-07 3.525092097333981656e-06 -1.394959690514951944e-05
2.727000000000000000e+03 3.525595855712890625e+01 2.331722831726074219e+01 1.214978322386741638e-01 1.135745644569396973e+00 3.771730363368988037e-01 -2.306232154369354248e-01
2.728000000000000000e+03 3.497259902954101562e+01 2.519396591186523438e+01 4.758117347955703735e-02 1.047910571098327637e+00 3.286475241184234619e-01 -2.194653004407882690e-01
2.729000000000000000e+03 5.118489456176757812e+01 -2.718860244750976562e+01 9.580902457237243652e-01 1.386579632759094238e+00 7.034009695053100586e-01 -1.136236712336540222e-01
2.730000000000000000e+03 7.286991882324218750e+01 -1.454762077331542969e+01 -3.298434913158416748e-01 6.162373542785644531e+00 1.749759078025817871e+00 -3.977611958980560303e-01
2.731000000000000000e+03 7.508974075317382812e+00 2.078643226623535156e+01 6.698328256607055664e-02 -4.384383261203765869e-01 -1.114365160465240479e-01 8.258343487977981567e-02
2.732000000000000000e+03 1.388066196441650391e+01 -8.522967338562011719e+00 -9.118072739511262625e-06 9.632223054722999223e-07 -2.446455027893534862e-06 8.108078873192425817e-06
2.733000000000000000e+03 1.134090900421142578e+01 2.955382156372070312e+01 3.934441506862640381e-02 -2.604265511035919189e-01 -6.632464379072189331e-02 -2.494113706052303314e-02
2.734000000000000000e+03 9.530184745788574219e+00 3.077658843994140625e+01 2.226079255342483521e-02 -3.302613794803619385e-01 -9.240017831325531006e-02 -1.993845030665397644e-02
2.735000000000000000e+03 3.405302429199218750e+01 1.341772460937500000e+01 5.505792498588562012e-01 1.073588013648986816e+00 4.872502088546752930e-01 -3.538598716259002686e-01
2.736000000000000000e+03 4.198930740356445312e+01 -8.459808349609375000e+00 5.715197324752807617e-01 6.521765589714050293e-01 3.671088814735412598e-01 -4.688263535499572754e-01
2.737000000000000000e+03 3.852959060668945312e+01 -1.250233745574951172e+01 -2.961980998516082764e-01 -1.548726707696914673e-01 -1.353212296962738037e-01 3.865449130535125732e-01
2.738000000000000000e+03 8.916434288024902344e+00 1.176772880554199219e+01 8.464775234460830688e-02 -3.918647170066833496e-01 -9.216509014368057251e-02 2.474849820137023926e-01
2.739000000000000000e+03 5.133866119384765625e+01 -3.181137657165527344e+01 1.041948199272155762e+00 2.087603807449340820e+00 9.388656020164489746e-01 8.956555724143981934e-01
2.740000000000000000e+03 3.542639160156250000e+01 1.483009243011474609e+01 4.859877228736877441e-01 1.336348295211791992e+00 5.467008352279663086e-01 -3.611764013767242432e-01
2.741000000000000000e+03 3.397723770141601562e+01 1.617283821105957031e+01 4.399395883083343506e-01 1.087040305137634277e+00 4.580939710140228271e-01 -3.427813351154327393e-01
2.742000000000000000e+03 3.437928771972656250e+01 8.459904670715332031e+00 6.361526846885681152e-01 1.032689809799194336e+00 5.006527304649353027e-01 -2.931596636772155762e-01
2.743000000000000000e+03 4.598878097534179688e+01 -3.477818679809570312e+01 2.817764282226562500e-01 2.500798404216766357e-01 1.595568805932998657e-01 5.480799078941345215e-01
2.744000000000000000e+03 9.579803466796875000e+00 2.333855819702148438e+01 8.047183603048324585e-02 -3.689482808113098145e-01 -8.654293417930603027e-02 4.156882315874099731e-02
2.745000000000000000e+03 1.137350559234619141e+01 2.671304512023925781e+01 6.641262769699096680e-02 -2.828729748725891113e-01 -6.493810564279556274e-02 -5.338074173778295517e-03
2.746000000000000000e+03 5.295771789550781250e+01 -4.091713333129882812e+01 -6.413493752479553223e-01 2.047195434570312500e+00 4.217538237571716309e-01 8.532372117042541504e-02
2.747000000000000000e+03 1.266404819488525391e+01 3.759947204589843750e+01 -2.475908026099205017e-02 -1.503371000289916992e-01 -5.252885445952415466e-02 -2.736742608249187469e-02
2.748000000000000000e+03 6.175781250000000000e+00 -3.733074569702148438e+01 -4.534756590146571398e-04 1.371329766698181629e-03 2.753562584985047579e-04 8.982692961581051350e-04
2.749000000000000000e+03 3.766828536987304688e+01 -4.135895919799804688e+01 2.565746009349822998e-01 -3.460868597030639648e-01 -2.685368061065673828e-02 -3.893684968352317810e-02
2.750000000000000000e+03 3.165159034729003906e+01 -9.071076393127441406e+00 -3.637609779834747314e-01 -6.291098147630691528e-02 -1.280015856027603149e-01 5.733013749122619629e-01
2.751000000000000000e+03 2.105485153198242188e+01 1.940706133842468262e+00 -8.042006194591522217e-02 -5.658497214317321777e-01 -1.938809454441070557e-01 3.016058206558227539e-01
2.752000000000000000e+03 1.068780803680419922e+01 -8.336144447326660156e+00 7.298655418708221987e-06 6.461973043769830838e-06 4.128188265895005316e-06 -1.232575959875248373e-05
2.753000000000000000e+03 2.777300834655761719e+01 -5.521967411041259766e+00 -3.815537095069885254e-01 -2.307375073432922363e-01 -1.836873590946197510e-01 4.537653625011444092e-01
2.754000000000000000e+03 3.061513328552246094e+01 -7.997772693634033203e+00 -3.617020547389984131e-01 -7.585138827562332153e-02 -1.312660276889801025e-01 5.387803912162780762e-01
2.755000000000000000e+03 4.243212890625000000e+01 -1.373225212097167969e+01 -1.813065409660339355e-01 1.427326351404190063e-01 -1.157217100262641907e-02 2.705894410610198975e-01
2.756000000000000000e+03 4.326874160766601562e+01 -1.364312362670898438e+01 -1.992399804294109344e-02 2.154791206121444702e-01 5.866653472185134888e-02 2.380872964859008789e-01
2.757000000000000000e+03 1.019299411773681641e+01 7.464913845062255859e+00 7.579015800729393959e-05 -3.798758685588836670e-01 -1.139400228857994080e-01 3.361792564392089844e-01
2.758000000000000000e+03 8.676617622375488281e+00 9.294743537902832031e+00 3.361647203564643860e-02 -3.624284565448760986e-01 -9.864359349012374878e-02 2.886812984943389893e-01
2.759000000000000000e+03 2.822076416015625000e+01 -6.170689105987548828e+00 -3.977918028831481934e-01 -2.071559727191925049e-01 -1.814843267202377319e-01 4.812477529048919678e-01
2.760000000000000000e+03 3.111104393005371094e+01 -8.550468444824218750e+00 -3.611488640308380127e-01 -7.919425517320632935e-02 -1.321029365062713623e-01 5.564482212066650391e-01
2.761000000000000000e+03 1.788529586791992188e+01 5.107251644134521484e+00 6.050645187497138977e-02 -5.449812412261962891e-01 -1.453424394130706787e-01 2.980592250823974609e-01
2.762000000000000000e+03 3.245031738281250000e+01 -1.085981178283691406e+01 -4.545302689075469971e-01 -1.151089891791343689e-01 -1.708917766809463501e-01 6.492138504981994629e-01
2.763000000000000000e+03 3.327630615234375000e+01 -1.121607971191406250e+01 -4.419207572937011719e-01 -1.037669181823730469e-01 -1.637063026428222656e-01 6.327027678489685059e-01
2.764000000000000000e+03 1.892048645019531250e+01 3.448093652725219727e+00 -2.982632257044315338e-02 -5.839456915855407715e-01 -1.841316074132919312e-01 3.213624954223632812e-01
2.765000000000000000e+03 2.546059608459472656e+01 8.874198794364929199e-01 1.156276743859052658e-02 -2.719365358352661133e-01 -7.811213284730911255e-02 1.906263977289199829e-01
2.766000000000000000e+03 2.707447052001953125e+01 -2.941039323806762695e+00 -2.333890497684478760e-01 -2.336344718933105469e-01 -1.401070505380630493e-01 3.239867091178894043e-01
2.767000000000000000e+03 2.686720275878906250e+01 -4.159404277801513672e+00 -3.386144936084747314e-01 -2.860205769538879395e-01 -1.873905211687088013e-01 3.968819081783294678e-01
2.768000000000000000e+03 1.690678596496582031e+01 6.111501216888427734e+00 9.576886147260665894e-02 -5.249508023262023926e-01 -1.287545859813690186e-01 2.961339950561523438e-01
2.769000000000000000e+03 1.935192871093750000e+01 4.197434425354003906e+00 4.203295335173606873e-02 -5.485084652900695801e-01 -1.519426554441452026e-01 2.808574438095092773e-01
2.770000000000000000e+03 2.791624259948730469e+01 -4.349690914154052734e+00 -2.927526533603668213e-01 -1.882738769054412842e-01 -1.443079710006713867e-01 3.809347152709960938e-01
2.771000000000000000e+03 2.854360389709472656e+01 -3.854259490966796875e+00 -2.222202122211456299e-01 -1.175182089209556580e-01 -1.019215285778045654e-01 3.336195647716522217e-01
2.772000000000000000e+03 2.935692596435546875e+01 -5.097908973693847656e+00 -2.596670389175415039e-01 -8.301854878664016724e-02 -1.028056740760803223e-01 3.860010504722595215e-01
2.773000000000000000e+03 2.519141960144042969e+01 -7.941604405641555786e-02 -9.126415103673934937e-02 -3.295879960060119629e-01 -1.262556463479995728e-01 2.410162836313247681e-01
2.774000000000000000e+03 2.625713729858398438e+01 -1.251872301101684570e+00 -1.386887282133102417e-01 -2.667676508426666260e-01 -1.216369122266769409e-01 2.593621611595153809e-01
2.775000000000000000e+03 2.175933074951171875e+01 1.386476159095764160e+00 -1.015469133853912354e-01 -5.480865836143493652e-01 -1.948900520801544189e-01 2.977823615074157715e-01
2.776000000000000000e+03 3.921490859985351562e+01 -4.978963375091552734e+00 3.852018117904663086e-01 7.959442734718322754e-01 3.543438315391540527e-01 -3.573891520500183105e-01
2.777000000000000000e+03 4.058254241943359375e+01 -8.000685691833496094e+00 4.313058853149414062e-01 5.302702188491821289e-01 2.884728312492370605e-01 -3.024641275405883789e-01
2.778000000000000000e+03 4.067619705200195312e+01 -5.455158233642578125e+00 4.745263159275054932e-01 9.158648848533630371e-01 4.171173572540283203e-01 -5.188234448432922363e-01
2.779000000000000000e+03 8.631744384765625000e+00 -8.834926605224609375e+00 -7.576492862426675856e-06 6.453672995121451095e-06 -3.368459147168323398e-07 7.049173291306942701e-06
2.780000000000000000e+03 2.363151359558105469e+01 9.453036189079284668e-01 -6.733438372611999512e-02 -4.328535795211791992e-01 -1.500563919544219971e-01 2.478527724742889404e-01
2.781000000000000000e+03 7.982976436614990234e+00 9.986913681030273438e+00 3.810651227831840515e-02 -3.586461544036865234e-01 -9.616189450025558472e-02 2.687766849994659424e-01
2.782000000000000000e+03 1.772290611267089844e+01 6.571474075317382812e+00 1.386520415544509888e-01 -5.053516626358032227e-01 -1.100098863244056702e-01 2.631646096706390381e-01
2.783000000000000000e+03 3.870561218261718750e+01 -3.991014480590820312e+00 3.613955080509185791e-01 8.394336104393005371e-01 3.602487444877624512e-01 -3.453243970870971680e-01
2.784000000000000000e+03 3.294084167480468750e+01 -9.927333831787109375e+00 -3.465259075164794922e-01 -5.633454769849777222e-02 -1.208581328392028809e-01 5.725275278091430664e-01
2.785000000000000000e+03 3.424039077758789062e+01 -1.143239879608154297e+01 -4.227804243564605713e-01 -1.284739524126052856e-01 -1.653763204813003540e-01 6.157585382461547852e-01
2.786000000000000000e+03 4.243581771850585938e+01 -9.348549842834472656e+00 6.171314120292663574e-01 6.140471100807189941e-01 3.693535625934600830e-01 -4.358726441860198975e-01
2.787000000000000000e+03 3.928389739990234375e+01 -1.394373130798339844e+01 -5.785953998565673828e-01 -2.473454177379608154e-01 -2.477822303771972656e-01 4.150830805301666260e-01
2.788000000000000000e+03 3.014098930358886719e+01 -7.424871921539306641e+00 -3.529926836490631104e-01 -9.611288458108901978e-02 -1.347316652536392212e-01 5.142007470130920410e-01
2.789000000000000000e+03 2.967922782897949219e+01 -6.842005252838134766e+00 -3.477967679500579834e-01 -1.024354919791221619e-01 -1.350696831941604614e-01 4.894195795059204102e-01
2.790000000000000000e+03 3.335628128051757812e+01 -9.046385765075683594e+00 -2.464996874332427979e-01 -2.499911375343799591e-02 -8.144964277744293213e-02 5.043930411338806152e-01
2.791000000000000000e+03 3.671237182617187500e+01 -9.399599075317382812e+00 -1.326094754040241241e-02 7.863430678844451904e-02 1.961200870573520660e-02 2.760082185268402100e-01
2.792000000000000000e+03 3.872211074829101562e+01 -6.416871070861816406e+00 3.373105227947235107e-01 5.548843145370483398e-01 2.676584422588348389e-01 -2.069962173700332642e-01
2.793000000000000000e+03 3.995655822753906250e+01 -1.244030284881591797e+01 -1.473749577999114990e-01 -6.020759046077728271e-02 -6.227476522326469421e-02 2.500042617321014404e-01
2.794000000000000000e+03 1.537966632843017578e+01 7.448425292968750000e+00 1.199093163013458252e-01 -4.894500374794006348e-01 -1.108622178435325623e-01 2.988036572933197021e-01
2.795000000000000000e+03 1.474660205841064453e+01 6.247294902801513672e+00 4.216231778264045715e-02 -5.115149617195129395e-01 -1.408057957887649536e-01 3.443810641765594482e-01
2.796000000000000000e+03 2.079520606994628906e+01 3.192746400833129883e+00 1.476194988936185837e-02 -5.320178270339965820e-01 -1.551767587661743164e-01 2.640404701232910156e-01
2.797000000000000000e+03 3.967823410034179688e+01 -3.391373157501220703e+00 4.069225788116455078e-01 1.047683715820312500e+00 4.363818764686584473e-01 -4.866717159748077393e-01
2.798000000000000000e+03 3.814452362060546875e+01 -2.990926504135131836e+00 3.492707610130310059e-01 8.883183598518371582e-01 3.712767362594604492e-01 -3.282688260078430176e-01
2.799000000000000000e+03 9.129141807556152344e+00 -1.041527652740478516e+01 2.654732270457316190e-05 1.040959523379569873e-05 1.108707510866224766e-05 -9.389979823026806116e-06
2.800000000000000000e+03 1.044346809387207031e+01 -9.144992828369140625e+00 -8.436903954134322703e-06 -6.492577540484489873e-06 -4.478844402910908684e-06 1.335095294052734971e-05
2.801000000000000000e+03 4.309216308593750000e+01 -1.165842533111572266e+01 4.726716876029968262e-01 3.694160878658294678e-01 2.526263296604156494e-01 -1.653688997030258179e-01
2.802000000000000000e+03 1.120873737335205078e+01 7.102731227874755859e+00 2.229083795100450516e-03 -4.133924841880798340e-01 -1.233490183949470520e-01 3.502133488655090332e-01
2.803000000000000000e+03 9.256301879882812500e+00 1.020254802703857422e+01 6.673671305179595947e-02 -3.859620094299316406e-01 -9.576759487390518188e-02 2.793109714984893799e-01
2.804000000000000000e+03 4.657420730590820312e+01 -3.229022598266601562e+01 3.710245788097381592e-01 1.587540358304977417e-01 1.589335799217224121e-01 3.995931446552276611e-01
2.805000000000000000e+03 5.029862213134765625e+01 -2.969153976440429688e+01 1.163509488105773926e+00 1.320684194564819336e+00 7.452580928802490234e-01 3.276973366737365723e-01
2.806000000000000000e+03 1.359179782867431641e+01 6.661031246185302734e+00 3.323313593864440918e-02 -4.817394912242889404e-01 -1.345518976449966431e-01 3.510071635246276855e-01
2.807000000000000000e+03 3.712981414794921875e+01 8.806439638137817383e-01 3.957169055938720703e-01 1.110990047454833984e+00 4.520120918750762939e-01 -3.310984969139099121e-01
2.808000000000000000e+03 3.123790168762207031e+01 -4.987400054931640625e+00 -1.325509548187255859e-01 6.143393367528915405e-02 -2.133510634303092957e-02 3.163442909717559814e-01
2.809000000000000000e+03 3.721759414672851562e+01 -3.663657188415527344e+00 2.976083755493164062e-01 6.923898458480834961e-01 2.969994544982910156e-01 -1.975205540657043457e-01
2.810000000000000000e+03 3.484663009643554688e+01 -9.441734313964843750e+00 -1.832573860883712769e-01 -3.176264697685837746e-03 -5.593009293079376221e-02 4.438861012458801270e-01
2.811000000000000000e+03 7.034751892089843750e+01 -1.591564083099365234e+01 -1.118043735623359680e-01 4.641232967376708984e+00 1.358828663825988770e+00 -5.562319159507751465e-01
2.812000000000000000e+03 4.166547775268554688e+01 -1.389361000061035156e+01 -3.766297698020935059e-01 6.801737844944000244e-02 -9.258372336626052856e-02 3.047134280204772949e-01
2.813000000000000000e+03 4.145948791503906250e+01 -1.300401496887207031e+01 -1.093338653445243835e-01 8.835820853710174561e-02 -6.292697973549365997e-03 2.171720564365386963e-01
2.814000000000000000e+03 4.764977264404296875e+01 -3.379375457763671875e+01 4.315510690212249756e-01 6.937528252601623535e-01 3.375911712646484375e-01 6.593842506408691406e-01
2.815000000000000000e+03 1.055634021759033203e+01 1.047680473327636719e+01 9.981225430965423584e-02 -4.050724208354949951e-01 -9.157805144786834717e-02 2.793196439743041992e-01
2.816000000000000000e+03 3.774167633056640625e+01 4.627645492553710938e+00 5.445342063903808594e-01 1.497976541519165039e+00 6.127532124519348145e-01 -3.969703018665313721e-01
2.817000000000000000e+03 8.763875961303710938e+00 1.382854843139648438e+01 1.001295745372772217e-01 -3.993659019470214844e-01 -8.977089822292327881e-02 2.092153877019882202e-01
2.818000000000000000e+03 1.064499855041503906e+01 1.753674888610839844e+01 1.372877061367034912e-01 -3.759116232395172119e-01 -7.158717513084411621e-02 1.304301172494888306e-01
2.819000000000000000e+03 9.941518783569335938e+00 1.873069000244140625e+01 1.178313419222831726e-01 -3.824972808361053467e-01 -7.939977943897247314e-02 1.125049144029617310e-01
2.820000000000000000e+03 4.306885528564453125e+01 -1.078740406036376953e+01 5.867090225219726562e-01 4.528071880340576172e-01 3.118548691272735596e-01 -2.940355837345123291e-01
2.821000000000000000e+03 4.287800598144531250e+01 -1.007527160644531250e+01 5.909641981124877930e-01 5.436664223670959473e-01 3.403891921043395996e-01 -4.050304591655731201e-01
2.822000000000000000e+03 1.170506000518798828e+01 1.579545783996582031e+01 1.664889901876449585e-01 -3.719667494297027588e-01 -6.164332479238510132e-02 1.577981561422348022e-01
2.823000000000000000e+03 1.136878395080566406e+01 1.665648460388183594e+01 1.570512801408767700e-01 -3.691952526569366455e-01 -6.364319473505020142e-02 1.421721130609512329e-01
2.824000000000000000e+03 7.316443443298339844e+00 2.221245002746582031e+01 5.614943057298660278e-02 -4.455609917640686035e-01 -1.168234720826148987e-01 6.076119840145111084e-02
2.825000000000000000e+03 1.020514106750488281e+01 2.210098838806152344e+01 1.013602912425994873e-01 -3.576680719852447510e-01 -7.689233869314193726e-02 5.523499101400375366e-02
2.826000000000000000e+03 8.872372627258300781e+00 2.136793899536132812e+01 8.623277395963668823e-02 -3.960238099098205566e-01 -9.293731302022933960e-02 7.178002595901489258e-02
2.827000000000000000e+03 4.857495117187500000e+01 -2.759510803222656250e+01 6.330079436302185059e-01 3.710235357284545898e-01 3.012094497680664062e-01 -4.047814309597015381e-01
2.828000000000000000e+03 4.852231979370117188e+01 -3.028354454040527344e+01 7.116505503654479980e-01 6.073472499847412109e-01 3.956993520259857178e-01 2.236779779195785522e-01
2.829000000000000000e+03 4.149089050292968750e+01 -1.008451747894287109e+01 4.071163237094879150e-01 3.454758524894714355e-01 2.257776558399200439e-01 -1.895877569913864136e-01
2.830000000000000000e+03 1.090171432495117188e+01 2.425821495056152344e+01 8.810145407915115356e-02 -3.202233314514160156e-01 -6.963656097650527954e-02 2.254499308764934540e-02
2.831000000000000000e+03 9.651414871215820312e+00 1.286204242706298828e+01 1.118144989013671875e-01 -3.998086154460906982e-01 -8.639823645353317261e-02 2.290898114442825317e-01
2.832000000000000000e+03 4.067758178710937500e+01 -1.098727130889892578e+01 2.221471220254898071e-01 1.815051883459091187e-01 1.210956946015357971e-01 9.276449680328369141e-03
2.833000000000000000e+03 1.161382389068603516e+01 2.290122222900390625e+01 1.116499975323677063e-01 -3.056076467037200928e-01 -5.818729102611541748e-02 3.320017829537391663e-02
2.834000000000000000e+03 3.264528656005859375e+01 1.794958305358886719e+01 3.730694055557250977e-01 9.210461974143981934e-01 3.882346749305725098e-01 -3.306909799575805664e-01
2.835000000000000000e+03 5.046493911743164062e+01 -2.837348556518554688e+01 1.182382822036743164e+00 1.262613534927368164e+00 7.334989309310913086e-01 -7.896657101809978485e-03
2.836000000000000000e+03 3.516224288940429688e+01 5.810057163238525391e+00 5.607716441154479980e-01 1.070396780967712402e+00 4.893505275249481201e-01 -2.753740549087524414e-01
2.837000000000000000e+03 3.409360885620117188e+01 1.019906711578369141e+01 6.314907073974609375e-01 1.028665661811828613e+00 4.980469048023223877e-01 -3.286521136760711670e-01
2.838000000000000000e+03 3.215892028808593750e+01 -8.296714782714843750e+00 -2.750811874866485596e-01 -2.721869386732578278e-02 -9.068996459245681763e-02 5.036453604698181152e-01
2.839000000000000000e+03 4.317654037475585938e+01 -1.263097953796386719e+01 3.047995567321777344e-01 2.688806056976318359e-01 1.721040457487106323e-01 2.508238703012466431e-02
2.840000000000000000e+03 3.117481231689453125e+01 -7.296935558319091797e+00 -2.769747078418731689e-01 -3.447954356670379639e-02 -9.343627095222473145e-02 4.742352068424224854e-01
2.841000000000000000e+03 2.834940910339355469e+01 -5.003521919250488281e+00 -3.147745728492736816e-01 -1.663313508033752441e-01 -1.443317830562591553e-01 4.068691432476043701e-01
2.842000000000000000e+03 2.920813751220703125e+01 -3.386031389236450195e+00 -1.539939641952514648e-01 -4.052854329347610474e-02 -5.835675448179244995e-02 2.866480350494384766e-01
2.843000000000000000e+03 2.922826957702636719e+01 -6.245190143585205078e+00 -3.400852084159851074e-01 -1.260299682617187500e-01 -1.398345530033111572e-01 4.623476862907409668e-01
2.844000000000000000e+03 3.069982528686523438e+01 -6.770572662353515625e+00 -2.774029374122619629e-01 -3.288582339882850647e-02 -9.308663010597229004e-02 4.546018838882446289e-01
2.845000000000000000e+03 2.894227600097656250e+01 -4.492238044738769531e+00 -2.417979985475540161e-01 -9.846495091915130615e-02 -1.020788848400115967e-01 3.611100614070892334e-01
2.846000000000000000e+03 2.150749015808105469e+01 2.652688264846801758e+00 -1.574713853187859058e-03 -5.161628127098083496e-01 -1.553212553262710571e-01 2.577749490737915039e-01
2.847000000000000000e+03 1.963408470153808594e+01 2.972755193710327148e+00 -4.508414864540100098e-02 -5.832158923149108887e-01 -1.884900033473968506e-01 3.138992488384246826e-01
2.848000000000000000e+03 1.908284378051757812e+01 5.448735713958740234e+00 1.155073419213294983e-01 -5.148883461952209473e-01 -1.198142990469932556e-01 2.517685592174530029e-01
2.849000000000000000e+03 1.862988281250000000e+01 4.664098262786865234e+00 5.475314334034919739e-02 -5.485935211181640625e-01 -1.481521129608154297e-01 2.891969680786132812e-01
2.850000000000000000e+03 1.834391403198242188e+01 5.932645320892333984e+00 1.244131848216056824e-01 -5.154520273208618164e-01 -1.173116490244865417e-01 2.615584433078765869e-01
2.851000000000000000e+03 1.710948562622070312e+01 5.296462535858154297e+00 5.113279074430465698e-02 -5.451837182044982910e-01 -1.482152789831161499e-01 3.141457438468933105e-01
2.852000000000000000e+03 2.816256904602050781e+01 -3.187327146530151367e+00 -1.946139186620712280e-01 -1.343685984611511230e-01 -9.869475662708282471e-02 3.076944053173065186e-01
2.853000000000000000e+03 2.221374320983886719e+01 2.092466354370117188e+00 -2.244108729064464569e-02 -4.947658777236938477e-01 -1.551620811223983765e-01 2.534449398517608643e-01
2.854000000000000000e+03 2.007512855529785156e+01 3.707416296005249023e+00 3.084955364465713501e-02 -5.425697565078735352e-01 -1.535160690546035767e-01 2.722775638103485107e-01
2.855000000000000000e+03 2.053835868835449219e+01 4.470823764801025391e+00 9.807500243186950684e-02 -4.974752068519592285e-01 -1.198200583457946777e-01 2.309838086366653442e-01
2.856000000000000000e+03 3.456678771972656250e+01 -1.041665363311767578e+01 -2.778120934963226318e-01 -6.569106131792068481e-02 -1.030509397387504578e-01 5.236263275146484375e-01
2.857000000000000000e+03 3.271764373779296875e+01 -8.727313995361328125e+00 -2.660405039787292480e-01 -1.034497469663619995e-02 -8.291564136743545532e-02 5.041312575340270996e-01
2.858000000000000000e+03 2.475874328613281250e+01 1.234485030174255371e+00 3.156409133225679398e-03 -3.298694491386413574e-01 -9.801391512155532837e-02 1.977807134389877319e-01
2.859000000000000000e+03 2.609640693664550781e+01 -2.292807847261428833e-01 -6.528542190790176392e-02 -2.520564198493957520e-01 -9.520255029201507568e-02 2.205346971750259399e-01
2.860000000000000000e+03 2.666079711914062500e+01 -2.152302503585815430e+00 -1.972987651824951172e-01 -2.559133470058441162e-01 -1.359636336565017700e-01 2.938765585422515869e-01
2.861000000000000000e+03 3.023456192016601562e+01 -6.232201099395751953e+00 -2.737176418304443359e-01 -5.386338382959365845e-02 -9.827430546283721924e-02 4.336228966712951660e-01
2.862000000000000000e+03 1.833287429809570312e+01 7.109652519226074219e+00 1.837836354970932007e-01 -4.777295291423797607e-01 -8.818376809358596802e-02 2.282570451498031616e-01
2.863000000000000000e+03 1.654217529296875000e+01 6.971196174621582031e+00 1.302836090326309204e-01 -5.033949613571166992e-01 -1.119333952665328979e-01 2.833494842052459717e-01
2.864000000000000000e+03 2.619011497497558594e+01 7.624530792236328125e-01 2.399470657110214233e-02 -2.086352109909057617e-01 -5.539214983582496643e-02 1.738005280494689941e-01
2.865000000000000000e+03 2.745928573608398438e+01 -1.718675732612609863e+00 -1.185244098305702209e-01 -1.612633466720581055e-01 -8.393632620573043823e-02 2.479309737682342529e-01
2.866000000000000000e+03 3.753724670410156250e+01 -1.961897015571594238e+00 3.373164534568786621e-01 9.063751101493835449e-01 3.731074631214141846e-01 -3.004879057407379150e-01
2.867000000000000000e+03 1.045618152618408203e+01 8.353010177612304688e+00 3.678829595446586609e-02 -3.979268968105316162e-01 -1.083415821194648743e-01 3.241669833660125732e-01
2.868000000000000000e+03 1.228172492980957031e+01 7.110154151916503906e+00 2.289996482431888580e-02 -4.439620971679687500e-01 -1.263186335563659668e-01 3.506485819816589355e-01
2.869000000000000000e+03 1.420446109771728516e+01 7.897750377655029297e+00 1.069056913256645203e-01 -4.752283990383148193e-01 -1.104968115687370300e-01 3.106310069561004639e-01
2.870000000000000000e+03 2.978647232055664062e+01 -5.674439907073974609e+00 -2.664485871791839600e-01 -6.213353201746940613e-02 -9.857463836669921875e-02 4.098279774188995361e-01
2.871000000000000000e+03 4.093503952026367188e+01 -9.074405670166015625e+00 4.288448393344879150e-01 4.246037304401397705e-01 2.560345828533172607e-01 -2.342638820409774780e-01
2.872000000000000000e+03 3.631920623779296875e+01 -4.342735290527343750e+00 2.281444221735000610e-01 5.359205007553100586e-01 2.292194813489913940e-01 -6.997904926538467407e-02
2.873000000000000000e+03 1.078163337707519531e+01 1.587870788574218750e+01 1.457389742136001587e-01 -3.843384981155395508e-01 -7.157985121011734009e-02 1.636687964200973511e-01
2.874000000000000000e+03 1.449091529846191406e+01 7.064115524291992188e+00 8.110873401165008545e-02 -4.942052066326141357e-01 -1.239289417862892151e-01 3.273082077503204346e-01
2.875000000000000000e+03 3.968988800048828125e+01 -1.056138038635253906e+01 1.626307368278503418e-01 1.344528198242187500e-01 8.912506699562072754e-02 6.171298772096633911e-02
2.876000000000000000e+03 3.553715515136718750e+01 -1.051157093048095703e+01 -2.269322276115417480e-01 -6.103159859776496887e-02 -8.638914674520492554e-02 4.761908650398254395e-01
2.877000000000000000e+03 3.436858749389648438e+01 -8.368871688842773438e+00 -1.223973408341407776e-01 5.782966688275337219e-02 -1.937030255794525146e-02 3.920119702816009521e-01
2.878000000000000000e+03 1.145183086395263672e+01 8.856191635131835938e+00 7.425502687692642212e-02 -4.199426472187042236e-01 -1.037062853574752808e-01 3.134318888187408447e-01
2.879000000000000000e+03 1.047544765472412109e+01 1.193984413146972656e+01 1.211684271693229675e-01 -4.018960893154144287e-01 -8.421829342842102051e-02 2.488522678613662720e-01
2.880000000000000000e+03 4.811462783813476562e+01 -2.852418518066406250e+01 5.910079479217529297e-01 2.838164865970611572e-01 2.624473273754119873e-01 -2.282384186983108521e-01
2.881000000000000000e+03 1.305466461181640625e+01 8.350085258483886719e+00 9.379173070192337036e-02 -4.532216787338256836e-01 -1.078289896249771118e-01 3.162242770195007324e-01
2.882000000000000000e+03 4.012603378295898438e+01 -7.022617340087890625e+00 4.282836019992828369e-01 6.244819164276123047e-01 3.158296644687652588e-01 -3.270736634731292725e-01
2.883000000000000000e+03 3.615960693359375000e+01 1.265391111373901367e-01 3.505076169967651367e-01 8.990510702133178711e-01 3.748675882816314697e-01 -2.353109121322631836e-01
2.884000000000000000e+03 3.655669021606445312e+01 -1.052716732025146484e+01 -1.336754411458969116e-01 -3.854352235794067383e-02 -5.166568607091903687e-02 3.869304060935974121e-01
2.885000000000000000e+03 1.219043731689453125e+01 8.068808555603027344e+00 6.605733931064605713e-02 -4.374535083770751953e-01 -1.114188507199287415e-01 3.275284767150878906e-01
2.886000000000000000e+03 1.002826690673828125e+01 9.657103538513183594e+00 6.821410357952117920e-02 -3.947642445564270020e-01 -9.796504676342010498e-02 2.953845262527465820e-01
2.887000000000000000e+03 3.889688491821289062e+01 -8.495420455932617188e+00 2.642893195152282715e-01 2.848303318023681641e-01 1.647358983755111694e-01 -2.963850833475589752e-02
2.888000000000000000e+03 1.056455612182617188e+01 1.473717212677001953e+01 1.391033679246902466e-01 -3.908499181270599365e-01 -7.552396506071090698e-02 1.883749067783355713e-01
2.889000000000000000e+03 9.381657600402832031e+00 2.007799530029296875e+01 1.009679287672042847e-01 -3.901792168617248535e-01 -8.676338940858840942e-02 9.026231616735458374e-02
2.890000000000000000e+03 9.801818847656250000e+00 1.111798572540283203e+01 9.571527689695358276e-02 -3.983611166477203369e-01 -9.079375118017196655e-02 2.652429044246673584e-01
2.891000000000000000e+03 3.422170639038085938e+01 4.918083667755126953e+00 5.135864019393920898e-01 8.824526667594909668e-01 4.188117384910583496e-01 -2.255055308341979980e-01
2.892000000000000000e+03 3.269263839721679688e+01 1.323839855194091797e+01 5.524809956550598145e-01 8.730890750885009766e-01 4.276710450649261475e-01 -3.283227980136871338e-01
2.893000000000000000e+03 3.669664001464843750e+01 3.810432910919189453e+00 4.992879331111907959e-01 1.240680575370788574e+00 5.219905972480773926e-01 -3.247450888156890869e-01
2.894000000000000000e+03 3.399767303466796875e+01 1.476772975921630859e+01 5.071637034416198730e-01 1.081276655197143555e+00 4.765321016311645508e-01 -3.513426482677459717e-01
2.895000000000000000e+03 3.432179260253906250e+01 6.699714183807373047e+00 5.912971496582031250e-01 9.585118293762207031e-01 4.649426937103271484e-01 -2.619173824787139893e-01
2.896000000000000000e+03 3.844567108154296875e+01 -1.161125278472900391e+01 -1.314774602651596069e-01 -6.542279571294784546e-02 -5.907007679343223572e-02 3.199453055858612061e-01
2.897000000000000000e+03 3.155143737792968750e+01 2.090309524536132812e+01 2.588919997215270996e-01 8.233045339584350586e-01 3.246589601039886475e-01 -2.990416288375854492e-01
2.898000000000000000e+03 2.959390258789062500e+01 1.818723297119140625e+01 3.784798979759216309e-01 5.829090476036071777e-01 2.884166836738586426e-01 -2.918825149536132812e-01
2.899000000000000000e+03 1.219401645660400391e+01 2.150315856933593750e+01 1.361080855131149292e-01 -3.024657964706420898e-01 -4.990731179714202881e-02 4.672605171799659729e-02
2.900000000000000000e+03 1.315861129760742188e+01 2.372216796875000000e+01 1.212646588683128357e-01 -2.459472268819808960e-01 -3.740476816892623901e-02 6.973297800868749619e-03
2.901000000000000000e+03 1.290337467193603516e+01 2.803769302368164062e+01 6.501771509647369385e-02 -2.096600681543350220e-01 -4.339270293712615967e-02 -2.956836670637130737e-02
2.902000000000000000e+03 1.076222133636474609e+01 2.079419326782226562e+01 1.191259101033210754e-01 -3.484883904457092285e-01 -6.880874186754226685e-02 7.061709463596343994e-02
2.903000000000000000e+03 3.278205490112304688e+01 2.486767768859863281e+01 7.745927572250366211e-02 8.985263109207153320e-01 2.927956879138946533e-01 -2.399929910898208618e-01
2.904000000000000000e+03 2.197662544250488281e+01 3.392894268035888672e+00 7.020371407270431519e-02 -4.637407362461090088e-01 -1.180611103773117065e-01 2.151117175817489624e-01
2.905000000000000000e+03 2.806050872802734375e+01 -5.428208112716674805e-01 2.643510466441512108e-03 -6.663364917039871216e-02 -1.919704116880893707e-02 1.739023327827453613e-01
2.906000000000000000e+03 3.165943527221679688e+01 -7.804020404815673828e+00 -2.819494903087615967e-01 -2.017852663993835449e-02 -9.063840657472610474e-02 4.914280474185943604e-01
2.907000000000000000e+03 3.224188232421875000e+01 -7.025983810424804688e+00 -1.854935437440872192e-01 3.224143013358116150e-02 -4.597563296556472778e-02 4.119388163089752197e-01
2.908000000000000000e+03 2.406720542907714844e+01 1.714666724205017090e+00 1.511673070490360260e-02 -3.736450970172882080e-01 -1.075585111975669861e-01 2.047005444765090942e-01
2.909000000000000000e+03 2.337330818176269531e+01 2.258270502090454102e+00 3.414533287286758423e-02 -4.082739353179931641e-01 -1.122385784983634949e-01 2.071922272443771362e-01
2.910000000000000000e+03 2.779875373840332031e+01 -2.477823019027709961e+00 -1.621499210596084595e-01 -1.505230963230133057e-01 -9.380190819501876831e-02 2.796427309513092041e-01
2.911000000000000000e+03 3.076510429382324219e+01 -5.607302188873291016e+00 -1.984377354383468628e-01 1.447872072458267212e-02 -5.518770590424537659e-02 3.728536963462829590e-01
2.912000000000000000e+03 3.862189865112304688e+01 -7.297783374786376953e+00 3.122217059135437012e-01 4.471258223056793213e-01 2.278042584657669067e-01 -1.246656849980354309e-01
2.913000000000000000e+03 3.807436370849609375e+01 -8.257149696350097656e+00 1.942061930894851685e-01 2.544560134410858154e-01 1.345986723899841309e-01 4.307155683636665344e-02
2.914000000000000000e+03 1.980802154541015625e+01 4.970100879669189453e+00 1.098818033933639526e-01 -5.078615546226501465e-01 -1.193939298391342163e-01 2.418098449707031250e-01
2.915000000000000000e+03 1.328776645660400391e+01 7.482224464416503906e+00 6.671037524938583374e-02 -4.688225984573364258e-01 -1.206336691975593567e-01 3.346632719039916992e-01
2.916000000000000000e+03 3.829796981811523438e+01 -5.535851478576660156e+00 3.227715790271759033e-01 6.086018085479736328e-01 2.794120311737060547e-01 -2.113665640354156494e-01
2.917000000000000000e+03 3.611579895019531250e+01 -7.765419483184814453e+00 8.339583128690719604e-02 2.039060890674591064e-01 8.619058132171630859e-02 1.839686483144760132e-01
2.918000000000000000e+03 1.956611061096191406e+01 6.233351230621337891e+00 1.739478707313537598e-01 -4.727650880813598633e-01 -8.964516222476959229e-02 2.120857238769531250e-01
2.919000000000000000e+03 3.662798690795898438e+01 -2.645963191986083984e+00 2.916600108146667480e-01 7.288931012153625488e-01 3.061659336090087891e-01 -1.870857775211334229e-01
2.920000000000000000e+03 3.689344024658203125e+01 -5.339322090148925781e+00 2.299123555421829224e-01 4.786342084407806396e-01 2.125639766454696655e-01 -5.895981937646865845e-02
2.921000000000000000e+03 3.033301162719726562e+01 -5.100236415863037109e+00 -1.989725828170776367e-01 -9.169866330921649933e-03 -6.244273111224174500e-02 3.563822507858276367e-01
2.922000000000000000e+03 2.993058776855468750e+01 -4.571832656860351562e+00 -1.852533668279647827e-01 -1.786029711365699768e-02 -6.093409657478332520e-02 3.367814719676971436e-01
2.923000000000000000e+03 3.572918701171875000e+01 -9.499983787536621094e+00 -1.022152230143547058e-01 2.126338146626949310e-02 -2.428555116057395935e-02 3.728046715259552002e-01
2.924000000000000000e+03 3.509494018554687500e+01 -8.496139526367187500e+00 -6.227069348096847534e-02 7.092156261205673218e-02 2.595259808003902435e-03 3.446789383888244629e-01
2.925000000000000000e+03 2.267723655700683594e+01 2.825373172760009766e+00 5.393582209944725037e-02 -4.390785992145538330e-01 -1.155428290367126465e-01 2.106340825557708740e-01
2.926000000000000000e+03 2.000881576538085938e+01 7.040400505065917969e+00 2.230139970779418945e-01 -4.282658398151397705e-01 -6.157555431127548218e-02 1.754626184701919556e-01
2.927000000000000000e+03 2.857688331604003906e+01 -2.036712884902954102e+00 -8.271485567092895508e-02 -6.359691917896270752e-02 -4.389353469014167786e-02 2.344541400671005249e-01
2.928000000000000000e+03 2.571601676940917969e+01 1.705507278442382812e+00 7.470510900020599365e-02 -2.294631451368331909e-01 -4.642741009593009949e-02 1.550088673830032349e-01
2.929000000000000000e+03 2.629235839843750000e+01 1.605456948280334473e+00 9.721695631742477417e-02 -1.684982627630233765e-01 -2.138439007103443146e-02 1.393164694309234619e-01
2.930000000000000000e+03 2.717208290100097656e+01 -9.103809595108032227e-01 -6.186842545866966248e-02 -1.671780943870544434e-01 -6.871395558118820190e-02 2.167369574308395386e-01
2.931000000000000000e+03 3.123676490783691406e+01 -6.082311630249023438e+00 -1.967067569494247437e-01 1.732282340526580811e-02 -5.381518229842185974e-02 3.873623013496398926e-01
2.932000000000000000e+03 3.155075836181640625e+01 -3.396030664443969727e+00 -1.885552518069744110e-02 1.557206213474273682e-01 4.105952754616737366e-02 2.084628194570541382e-01
2.933000000000000000e+03 1.391301250457763672e+01 8.767086982727050781e+00 1.307460218667984009e-01 -4.586741030216217041e-01 -9.837841987609863281e-02 2.931148111820220947e-01
2.934000000000000000e+03 1.444036388397216797e+01 1.014760589599609375e+01 1.805867254734039307e-01 -4.359928071498870850e-01 -7.662182301282882690e-02 2.499415874481201172e-01
2.935000000000000000e+03 4.054793167114257812e+01 -1.232016658782958984e+01 -5.479754507541656494e-02 4.931002855300903320e-02 -1.646254560910165310e-03 1.876852512359619141e-01
2.936000000000000000e+03 1.600232315063476562e+01 8.793261528015136719e+00 1.843234896659851074e-01 -4.572115242481231689e-01 -8.186641335487365723e-02 2.501218616962432861e-01
2.937000000000000000e+03 3.777738189697265625e+01 -4.631706714630126953e+00 3.106904029846191406e-01 6.645014286041259766e-01 2.925575375556945801e-01 -2.122551053762435913e-01
2.938000000000000000e+03 3.429768753051757812e+01 -5.818053722381591797e+00 2.403551526367664337e-02 2.262584865093231201e-01 7.508820295333862305e-02 2.088966667652130127e-01
2.939000000000000000e+03 3.756880569458007812e+01 -1.052868652343750000e+01 -6.088863685727119446e-02 -1.861124532297253609e-03 -1.882492750883102417e-02 3.002542257308959961e-01
2.940000000000000000e+03 3.597617721557617188e+01 -1.627568602561950684e+00 2.899997830390930176e-01 7.353629469871520996e-01 3.076088130474090576e-01 -1.690652817487716675e-01
2.941000000000000000e+03 1.357578277587890625e+01 9.656723976135253906e+00 1.476007401943206787e-01 -4.415974915027618408e-01 -8.819902688264846802e-02 2.773361504077911377e-01
2.942000000000000000e+03 1.077548217773437500e+01 9.185211181640625000e+00 7.183978706598281860e-02 -4.075536727905273438e-01 -1.007141694426536560e-01 3.071211576461791992e-01
2.943000000000000000e+03 3.931084060668945312e+01 -7.674784183502197266e+00 3.291106224060058594e-01 4.519015252590179443e-01 2.343036383390426636e-01 -1.735999882221221924e-01
2.944000000000000000e+03 3.747769165039062500e+01 -6.181982040405273438e+00 2.485834807157516479e-01 4.485715627670288086e-01 2.091465145349502563e-01 -6.643409281969070435e-02
2.945000000000000000e+03 4.214538574218750000e+01 -1.169273281097412109e+01 3.056198060512542725e-01 2.454420179128646851e-01 1.653185486793518066e-01 -4.396710544824600220e-02
2.946000000000000000e+03 3.640528488159179688e+01 1.946692943572998047e+00 4.207483232021331787e-01 1.070755600929260254e+00 4.474512040615081787e-01 -2.896784543991088867e-01
2.947000000000000000e+03 1.625847434997558594e+01 7.868829250335693359e+00 1.591646671295166016e-01 -4.810809493064880371e-01 -9.657488763332366943e-02 2.672444880008697510e-01
2.948000000000000000e+03 3.567825317382812500e+01 2.974877357482910156e+00 4.602278470993041992e-01 1.022421121597290039e+00 4.447946846485137939e-01 -2.618629634380340576e-01
2.949000000000000000e+03 3.343670272827148438e+01 5.802284240722656250e+00 5.278174281120300293e-01 7.945988774299621582e-01 3.967248797416687012e-01 -2.152462601661682129e-01
2.950000000000000000e+03 1.129622173309326172e+01 1.948616600036621094e+01 1.399431526660919189e-01 -3.461192250251770020e-01 -6.185282394289970398e-02 8.790221810340881348e-02
2.951000000000000000e+03 3.983321380615234375e+01 -9.443977355957031250e+00 2.833363115787506104e-01 2.726366221904754639e-01 1.667918860912322998e-01 -6.403284519910812378e-02
2.952000000000000000e+03 3.874803543090820312e+01 -9.467096328735351562e+00 1.635339856147766113e-01 1.747100949287414551e-01 1.014732271432876587e-01 7.780471444129943848e-02
2.953000000000000000e+03 1.184467506408691406e+01 1.826614379882812500e+01 1.560212075710296631e-01 -3.446812927722930908e-01 -5.659802258014678955e-02 1.052029430866241455e-01
2.954000000000000000e+03 1.268965816497802734e+01 2.012112617492675781e+01 1.569051742553710938e-01 -3.019527792930603027e-01 -4.351428151130676270e-02 6.276775896549224854e-02
2.955000000000000000e+03 3.269916152954101562e+01 8.405480384826660156e+00 5.948060750961303711e-01 7.568781375885009766e-01 4.055052697658538818e-01 -2.484389096498489380e-01
2.956000000000000000e+03 3.259904861450195312e+01 9.390717506408691406e+00 6.019870042800903320e-01 7.658286094665527344e-01 4.103446900844573975e-01 -2.702319920063018799e-01
2.957000000000000000e+03 1.177271938323974609e+01 1.479726028442382812e+01 1.686578691005706787e-01 -3.825268447399139404e-01 -6.416068971157073975e-02 1.791624426841735840e-01
2.958000000000000000e+03 3.256232833862304688e+01 1.465554714202880859e+01 5.064074993133544922e-01 8.768510222434997559e-01 4.149775505065917969e-01 -3.363938033580780029e-01
2.959000000000000000e+03 4.013053512573242188e+01 -1.176259040832519531e+01 -1.638669893145561218e-02 2.253449894487857819e-02 1.844340353272855282e-03 1.670801043510437012e-01
2.960000000000000000e+03 3.132498931884765625e+01 1.300513362884521484e+01 5.418662428855895996e-01 6.908614635467529297e-01 3.698183000087738037e-01 -3.019131124019622803e-01
2.961000000000000000e+03 3.029036712646484375e+01 1.143780708312988281e+01 5.482750535011291504e-01 5.316463112831115723e-01 3.239763975143432617e-01 -2.514783740043640137e-01
2.962000000000000000e+03 3.283576965332031250e+01 1.053920269012451172e+01 6.071964502334594727e-01 8.393240571022033691e-01 4.339561462402343750e-01 -3.035693168640136719e-01
2.963000000000000000e+03 3.101409149169921875e+01 1.793028450012207031e+01 3.797409534454345703e-01 7.318426370620727539e-01 3.334750831127166748e-01 -3.131514787673950195e-01
2.964000000000000000e+03 3.092505455017089844e+01 1.608209419250488281e+01 4.583128690719604492e-01 7.076591253280639648e-01 3.497916162014007568e-01 -3.177496194839477539e-01
2.965000000000000000e+03 1.372853946685791016e+01 2.216671180725097656e+01 1.489898711442947388e-01 -2.426694780588150024e-01 -2.810388430953025818e-02 1.937301270663738251e-02
2.966000000000000000e+03 1.185824871063232422e+01 1.178104972839355469e+01 1.453806906938552856e-01 -4.061530828475952148e-01 -7.823172211647033691e-02 2.448669821023941040e-01
2.967000000000000000e+03 1.075719261169433594e+01 1.354059791564941406e+01 1.413087993860244751e-01 -3.979324996471405029e-01 -7.698711752891540527e-02 2.112604677677154541e-01
2.968000000000000000e+03 3.392666244506835938e+01 2.645512962341308594e+01 1.453176606446504593e-02 9.566818475723266602e-01 2.913640737533569336e-01 -2.204039394855499268e-01
2.969000000000000000e+03 3.326131439208984375e+01 -7.271083354949951172e+00 -1.266407668590545654e-01 7.907209545373916626e-02 -1.427060086280107498e-02 3.677672147750854492e-01
2.970000000000000000e+03 3.267036437988281250e+01 -7.571965217590332031e+00 -1.902551352977752686e-01 4.083207994699478149e-02 -4.482691735029220581e-02 4.275596141815185547e-01
2.971000000000000000e+03 3.406186676025390625e+01 -9.281373977661132812e+00 -2.122761309146881104e-01 -8.273639716207981110e-03 -6.616493314504623413e-02 4.745491445064544678e-01
2.972000000000000000e+03 2.247447967529296875e+01 4.158645629882812500e+00 1.395039856433868408e-01 -4.068339765071868896e-01 -8.019900321960449219e-02 1.734010875225067139e-01
2.973000000000000000e+03 2.694355583190917969e+01 8.363265991210937500e-01 5.291464552283287048e-02 -1.367526650428771973e-01 -2.515140362083911896e-02 1.485095918178558350e-01
2.974000000000000000e+03 2.955159759521484375e+01 -4.005194187164306641e+00 -1.719641238451004028e-01 -3.339692950248718262e-02 -6.160831823945045471e-02 3.106344342231750488e-01
2.975000000000000000e+03 2.991127777099609375e+01 -2.974147796630859375e+00 -8.776938170194625854e-02 2.757025323808193207e-02 -1.805973798036575317e-02 2.438838332891464233e-01
2.976000000000000000e+03 3.222754669189453125e+01 -5.747750759124755859e+00 -1.103088781237602234e-01 9.832361340522766113e-02 -3.595577320083975792e-03 3.251995146274566650e-01
2.977000000000000000e+03 3.051155471801757812e+01 -4.049706935882568359e+00 -1.212232559919357300e-01 4.522887617349624634e-02 -2.279831469058990479e-02 2.819792926311492920e-01
2.978000000000000000e+03 3.476372909545898438e+01 -6.641055107116699219e+00 2.601952850818634033e-02 2.087915092706680298e-01 7.044330984354019165e-02 2.282099574804306030e-01
2.979000000000000000e+03 2.514472198486328125e+01 2.054996490478515625e+00 8.257689327001571655e-02 -2.701704800128936768e-01 -5.627807602286338806e-02 1.554210036993026733e-01
2.980000000000000000e+03 2.450422286987304688e+01 2.491356372833251953e+00 9.384415298700332642e-02 -3.074948191642761230e-01 -6.409519165754318237e-02 1.597385257482528687e-01
2.981000000000000000e+03 2.699561500549316406e+01 -4.969303309917449951e-02 -1.174444053322076797e-02 -1.585049927234649658e-01 -5.107482895255088806e-02 1.816758662462234497e-01
2.982000000000000000e+03 2.028355598449707031e+01 5.765370845794677734e+00 1.689821183681488037e-01 -4.624778330326080322e-01 -8.804871886968612671e-02 2.013550698757171631e-01
2.983000000000000000e+03 2.126431083679199219e+01 3.944825172424316406e+00 8.698648214340209961e-02 -4.827256500720977783e-01 -1.187217533588409424e-01 2.221692055463790894e-01
2.984000000000000000e+03 2.315796279907226562e+01 3.574236392974853516e+00 1.222728788852691650e-01 -3.799153864383697510e-01 -7.729275524616241455e-02 1.684448868036270142e-01
2.985000000000000000e+03 2.102267265319824219e+01 5.263667106628417969e+00 1.634860187768936157e-01 -4.475226402282714844e-01 -8.521098643541336060e-02 1.906919479370117188e-01
2.986000000000000000e+03 2.938526916503906250e+01 -1.640544891357421875e+00 -1.999853644520044327e-03 3.326532244682312012e-02 9.379641152918338776e-03 1.870591342449188232e-01
2.987000000000000000e+03 2.830286979675292969e+01 -1.301687955856323242e+00 -3.742907196283340454e-02 -6.960178166627883911e-02 -3.210925683379173279e-02 2.009287625551223755e-01
2.988000000000000000e+03 1.572534465789794922e+01 9.722349166870117188e+00 2.013615518808364868e-01 -4.384696185588836670e-01 -7.113242149353027344e-02 2.341981381177902222e-01
2.989000000000000000e+03 3.799433135986328125e+01 -6.895741939544677734e+00 2.563154101371765137e-01 4.141558706760406494e-01 2.011413872241973877e-01 -7.156135141849517822e-02
2.990000000000000000e+03 3.577509307861328125e+01 -3.290095567703247070e+00 2.321951538324356079e-01 5.693004727363586426e-01 2.404486984014511108e-01 -7.825022190809249878e-02
2.991000000000000000e+03 3.485424423217773438e+01 -5.874069213867187500e+00 7.951593399047851562e-02 2.858889698982238770e-01 1.096214726567268372e-01 1.534062772989273071e-01
2.992000000000000000e+03 1.734290313720703125e+01 7.374010086059570312e+00 1.676462888717651367e-01 -4.850866496562957764e-01 -9.523210674524307251e-02 2.512948513031005859e-01
2.993000000000000000e+03 1.226829910278320312e+01 1.301298522949218750e+01 1.765001565217971802e-01 -3.970738053321838379e-01 -6.617209315299987793e-02 2.114413529634475708e-01
2.994000000000000000e+03 1.122915840148925781e+01 9.919415473937988281e+00 1.003552675247192383e-01 -4.144248068332672119e-01 -9.422086179256439209e-02 2.903059422969818115e-01
2.995000000000000000e+03 1.209255409240722656e+01 8.857322692871093750e+00 8.908621221780776978e-02 -4.317375719547271729e-01 -1.027954071760177612e-01 3.114275634288787842e-01
2.996000000000000000e+03 1.889466667175292969e+01 6.669233322143554688e+00 1.765249967575073242e-01 -4.765948057174682617e-01 -9.002094715833663940e-02 2.228086590766906738e-01
2.997000000000000000e+03 1.930534934997558594e+01 7.422519683837890625e+00 2.229751944541931152e-01 -4.401544332504272461e-01 -6.515377759933471680e-02 1.890387684106826782e-01
2.998000000000000000e+03 3.171365165710449219e+01 -5.352102279663085938e+00 -1.239776536822319031e-01 8.257504552602767944e-02 -1.242078095674514771e-02 3.191885352134704590e-01
2.999000000000000000e+03 2.918533134460449219e+01 -8.958616852760314941e-01 3.191472217440605164e-02 3.094109147787094116e-02 1.885674521327018738e-02 1.561769992113113403e-01
3.000000000000000000e+03 2.383223152160644531e+01 3.007208347320556641e+00 1.079007759690284729e-01 -3.481986522674560547e-01 -7.208935916423797607e-02 1.650657951831817627e-01
3.001000000000000000e+03 3.772905731201171875e+01 -9.372716903686523438e+00 8.428605645895004272e-02 1.263240277767181396e-01 6.318302452564239502e-02 1.725776940584182739e-01
3.002000000000000000e+03 3.461233139038085938e+01 -7.479954719543457031e+00 -3.404279425740242004e-02 1.375818252563476562e-01 3.106171078979969025e-02 2.909545898437500000e-01
3.003000000000000000e+03 3.583534240722656250e+01 -8.586362838745117188e+00 -3.819081932306289673e-02 9.305351972579956055e-02 1.645881123840808868e-02 3.082000315189361572e-01
3.004000000000000000e+03 3.151144409179687500e+01 -4.282326221466064453e+00 -6.805787235498428345e-02 1.190645545721054077e-01 1.530200522392988205e-02 2.543872594833374023e-01
3.005000000000000000e+03 3.524938964843750000e+01 -6.447902321815490723e-01 3.051743805408477783e-01 7.230880260467529297e-01 3.084787428379058838e-01 -1.512991636991500854e-01
3.006000000000000000e+03 1.117390537261962891e+01 1.118700790405273438e+01 1.257824748754501343e-01 -4.096694588661193848e-01 -8.516609668731689453e-02 2.619262337684631348e-01
3.007000000000000000e+03 3.495634841918945312e+01 3.966941595077514648e+00 4.827448427677154541e-01 9.551131129264831543e-01 4.313573837280273438e-01 -2.339594662189483643e-01
3.008000000000000000e+03 3.548809814453125000e+01 -6.631801128387451172e+00 8.435399830341339111e-02 2.437772750854492188e-01 9.843938052654266357e-02 1.626868844032287598e-01
3.009000000000000000e+03 1.378804302215576172e+01 1.633768653869628906e+01 2.070541977882385254e-01 -3.317280709743499756e-01 -3.740216046571731567e-02 1.194274574518203735e-01
3.010000000000000000e+03 3.339527511596679688e+01 7.529471397399902344e+00 5.897532105445861816e-01 8.336723446846008301e-01 4.270276725292205811e-01 -2.495375275611877441e-01
3.011000000000000000e+03 3.352479171752929688e+01 9.131067276000976562e+00 6.244960427284240723e-01 9.133682250976562500e-01 4.613592922687530518e-01 -2.942928969860076904e-01
3.012000000000000000e+03 3.522254943847656250e+01 9.507999420166015625e+00 6.670399904251098633e-01 1.228194952011108398e+00 5.685704946517944336e-01 -3.461420834064483643e-01
3.013000000000000000e+03 1.132326507568359375e+01 1.256118488311767578e+01 1.419163495302200317e-01 -4.025759696960449219e-01 -7.819788157939910889e-02 2.351181805133819580e-01
3.014000000000000000e+03 3.257106399536132812e+01 6.597252368927001953e+00 5.493681430816650391e-01 6.997328996658325195e-01 3.747303187847137451e-01 -2.038334757089614868e-01
3.015000000000000000e+03 1.294643688201904297e+01 1.488835239410400391e+01 1.954548656940460205e-01 -3.659616112709045410e-01 -5.115202069282531738e-02 1.615349948406219482e-01
3.016000000000000000e+03 3.156375503540039062e+01 1.048468494415283203e+01 5.803538560867309570e-01 6.503829956054687500e-01 3.692210614681243896e-01 -2.621307373046875000e-01
3.017000000000000000e+03 1.270966529846191406e+01 1.604427528381347656e+01 1.874445378780364990e-01 -3.549733459949493408e-01 -5.025864392518997192e-02 1.408851295709609985e-01
3.018000000000000000e+03 1.239095020294189453e+01 2.525728607177734375e+01 9.343328326940536499e-02 -2.561066448688507080e-01 -4.880200326442718506e-02 -2.186043420806527138e-03
3.019000000000000000e+03 3.000566673278808594e+01 1.263298797607421875e+01 5.312014222145080566e-01 5.157641172409057617e-01 3.140896558761596680e-01 -2.677991986274719238e-01
3.020000000000000000e+03 2.654068183898925781e+01 1.664614105224609375e+01 4.105512201786041260e-01 2.919762134552001953e-01 2.107582241296768188e-01 -2.237112373113632202e-01
3.021000000000000000e+03 3.330952072143554688e+01 4.095139026641845703e+00 4.530246257781982422e-01 7.049568295478820801e-01 3.473944365978240967e-01 -1.688113361597061157e-01
3.022000000000000000e+03 3.734886169433593750e+01 -7.718678951263427734e+00 1.712162047624588013e-01 2.758097350597381592e-01 1.341077834367752075e-01 7.279150933027267456e-02
3.023000000000000000e+03 3.938878250122070312e+01 -1.156070137023925781e+01 -1.528968382626771927e-02 -7.257977966219186783e-03 -6.764298770576715469e-03 2.219902873039245605e-01
3.024000000000000000e+03 3.067092704772949219e+01 -2.645537376403808594e+00 -1.279068272560834885e-02 1.114042922854423523e-01 2.958408184349536896e-02 1.933065205812454224e-01
3.025000000000000000e+03 3.015629577636718750e+01 -3.583819866180419922e+00 -1.129695773124694824e-01 3.657277300953865051e-02 -2.291904203593730927e-02 2.685761749744415283e-01
3.026000000000000000e+03 2.151341819763183594e+01 6.084323883056640625e+00 2.211045175790786743e-01 -3.931721448898315430e-01 -5.162028223276138306e-02 1.488839983940124512e-01
3.027000000000000000e+03 2.494856834411621094e+01 3.248042106628417969e+00 1.638613790273666382e-01 -2.498677223920822144e-01 -2.580190449953079224e-02 1.179359778761863708e-01
3.028000000000000000e+03 3.038982772827148438e+01 -1.979735255241394043e+00 2.351944334805011749e-02 1.112470030784606934e-01 4.042993485927581787e-02 1.689023673534393311e-01
3.029000000000000000e+03 2.963472557067871094e+01 -2.329646587371826172e+00 -5.036064237356185913e-02 2.956194989383220673e-02 -6.239606998860836029e-03 2.176555693149566650e-01
3.030000000000000000e+03 3.340640640258789062e+01 -6.428637027740478516e+00 -6.903432309627532959e-02 1.293647289276123047e-01 1.809911988675594330e-02 3.126383721828460693e-01
3.031000000000000000e+03 1.247471237182617188e+01 1.122108936309814453e+01 1.555128842592239380e-01 -4.154729247093200684e-01 -7.798801362514495850e-02 2.509266138076782227e-01
3.032000000000000000e+03 3.538322830200195312e+01 -7.533905982971191406e+00 1.967071555554866791e-02 1.757356524467468262e-01 5.862190946936607361e-02 2.344148308038711548e-01
3.033000000000000000e+03 3.553910827636718750e+01 -5.777612209320068359e+00 1.257769316434860229e-01 3.491069972515106201e-01 1.424651741981506348e-01 8.779718726873397827e-02
3.034000000000000000e+03 3.468777084350585938e+01 -5.223293304443359375e+00 8.266022056341171265e-02 3.241550624370574951e-01 1.220445856451988220e-01 1.163519248366355896e-01
3.035000000000000000e+03 3.209650039672851562e+01 -4.582571029663085938e+00 -5.170636624097824097e-02 1.498578339815139771e-01 2.944543771445751190e-02 2.510539889335632324e-01
3.036000000000000000e+03 2.074738121032714844e+01 6.584972381591796875e+00 2.232694625854492188e-01 -4.137898087501525879e-01 -5.715610459446907043e-02 1.613418161869049072e-01
3.037000000000000000e+03 2.176096725463867188e+01 4.727882385253906250e+00 1.511101126670837402e-01 -4.292652308940887451e-01 -8.344653248786926270e-02 1.801692098379135132e-01
3.038000000000000000e+03 2.229241561889648438e+01 5.545440673828125000e+00 2.159906029701232910e-01 -3.696209490299224854e-01 -4.608910158276557922e-02 1.373556256294250488e-01
3.039000000000000000e+03 2.616350555419921875e+01 2.335386514663696289e+00 1.464671045541763306e-01 -1.631179004907608032e-01 -4.995238501578569412e-03 1.108145639300346375e-01
3.040000000000000000e+03 2.563318824768066406e+01 2.852914333343505859e+00 1.582531183958053589e-01 -1.934874355792999268e-01 -1.057029329240322113e-02 1.140293776988983154e-01
3.041000000000000000e+03 3.496728897094726562e+01 -3.837719440460205078e+00 1.730939149856567383e-01 4.593858718872070312e-01 1.897439360618591309e-01 1.059784088283777237e-02
3.042000000000000000e+03 2.367663002014160156e+01 4.312359333038330078e+00 1.869784444570541382e-01 -3.159182965755462646e-01 -3.868195787072181702e-02 1.325129270553588867e-01
3.043000000000000000e+03 2.302903938293457031e+01 4.945650100708007812e+00 2.024321556091308594e-01 -3.479565382003784180e-01 -4.365731030702590942e-02 1.308367848396301270e-01
3.044000000000000000e+03 2.896154212951660156e+01 -1.327363997697830200e-01 6.939157843589782715e-02 2.792303077876567841e-02 2.919438295066356659e-02 1.296656280755996704e-01
3.045000000000000000e+03 3.365822219848632812e+01 -4.526647567749023438e+00 3.639630600810050964e-02 2.853031754493713379e-01 9.650984406471252441e-02 1.566017419099807739e-01
3.046000000000000000e+03 3.243051528930664062e+01 -3.179115295410156250e+00 6.237208843231201172e-02 2.535882592201232910e-01 9.478810429573059082e-02 1.433301568031311035e-01
3.047000000000000000e+03 3.660518264770507812e+01 -8.401822090148925781e+00 6.734985113143920898e-02 1.615567654371261597e-01 6.867198646068572998e-02 1.984378993511199951e-01
3.048000000000000000e+03 2.039119148254394531e+01 7.874034404754638672e+00 2.669633924961090088e-01 -3.844160735607147217e-01 -3.523580357432365417e-02 1.413124203681945801e-01
3.049000000000000000e+03 1.711845970153808594e+01 8.238919258117675781e+00 1.943303346633911133e-01 -4.637018442153930664e-01 -8.081145584583282471e-02 2.350521683692932129e-01
3.050000000000000000e+03 2.832208061218261719e+01 1.404017567634582520e+00 1.455774754285812378e-01 2.169964089989662170e-02 5.018313601613044739e-02 8.309061825275421143e-02
3.051000000000000000e+03 2.697498703002929688e+01 1.723312139511108398e+00 1.301649659872055054e-01 -1.089126467704772949e-01 6.375694181770086288e-03 1.134823113679885864e-01
3.052000000000000000e+03 1.397953510284423828e+01 1.335601902008056641e+01 2.137419730424880981e-01 -3.775185048580169678e-01 -4.913296177983283997e-02 1.793705821037292480e-01
3.053000000000000000e+03 1.312316608428955078e+01 1.056366157531738281e+01 1.589659899473190308e-01 -4.275659918785095215e-01 -8.058000355958938599e-02 2.601841688156127930e-01
3.054000000000000000e+03 3.673081970214843750e+01 -6.955438137054443359e+00 1.431708931922912598e-01 3.106063008308410645e-01 1.361331492662429810e-01 7.768237590789794922e-02
3.055000000000000000e+03 1.278946781158447266e+01 9.189895629882812500e+00 1.165850088000297546e-01 -4.396999776363372803e-01 -9.693448990583419800e-02 2.976565062999725342e-01
3.056000000000000000e+03 1.478853416442871094e+01 9.229304313659667969e+00 1.656352728605270386e-01 -4.536585807800292969e-01 -8.640699088573455811e-02 2.667935490608215332e-01
3.057000000000000000e+03 3.515329742431640625e+01 -2.316623926162719727e+00 2.368597537279129028e-01 5.892513394355773926e-01 2.478333264589309692e-01 -7.612179964780807495e-02
3.058000000000000000e+03 1.803587150573730469e+01 7.683356285095214844e+00 1.974688023328781128e-01 -4.677473604679107666e-01 -8.108356595039367676e-02 2.233248949050903320e-01
3.059000000000000000e+03 3.219144439697265625e+01 -2.261989593505859375e+00 9.547769278287887573e-02 2.825122475624084473e-01 1.133969798684120178e-01 1.026913747191429138e-01
3.060000000000000000e+03 4.125000000000000000e+01 -1.192439270019531250e+01 1.205501705408096313e-01 1.414327472448348999e-01 7.859487086534500122e-02 5.636618286371231079e-02
3.061000000000000000e+03 1.402797985076904297e+01 1.113104248046875000e+01 1.868960261344909668e-01 -4.171058833599090576e-01 -6.906295567750930786e-02 2.350216507911682129e-01
3.062000000000000000e+03 2.533948516845703125e+01 3.974780321121215820e+00 2.084492892026901245e-01 -2.084479182958602905e-01 4.116119214359059697e-07 9.014672785997390747e-02
3.063000000000000000e+03 3.540758514404296875e+01 1.137787938117980957e+00 3.711832165718078613e-01 8.662388324737548828e-01 3.712266385555267334e-01 -2.110667526721954346e-01
3.064000000000000000e+03 2.429802513122558594e+01 3.734010457992553711e+00 1.662096232175827026e-01 -2.815907001495361328e-01 -3.461432829499244690e-02 1.223081946372985840e-01
3.065000000000000000e+03 1.187337875366210938e+01 1.382115364074707031e+01 1.665544062852859497e-01 -3.871321976184844971e-01 -6.617334485054016113e-02 1.945664733648300171e-01
3.066000000000000000e+03 1.351161670684814453e+01 1.754706192016601562e+01 1.941581964492797852e-01 -3.177619576454162598e-01 -3.708112984895706177e-02 9.779273718595504761e-02
3.067000000000000000e+03 4.911754989624023438e+01 -3.541848373413085938e+01 1.178963780403137207e-01 1.381313920021057129e+00 4.497630894184112549e-01 7.121879458427429199e-01
3.068000000000000000e+03 3.260961532592773438e+01 4.984031677246093750e+00 4.777422845363616943e-01 6.317371726036071777e-01 3.328438401222229004e-01 -1.600363999605178833e-01
3.069000000000000000e+03 3.145127296447753906e+01 6.832308292388916016e+00 5.248687267303466797e-01 5.512772798538208008e-01 3.228437900543212891e-01 -1.790003478527069092e-01
3.070000000000000000e+03 1.468265342712402344e+01 1.436783027648925781e+01 2.313357591629028320e-01 -3.501895964145660400e-01 -3.565615415573120117e-02 1.445837616920471191e-01
3.071000000000000000e+03 1.477120113372802734e+01 1.784942626953125000e+01 2.171380519866943359e-01 -2.787133455276489258e-01 -1.847258768975734711e-02 6.796621531248092651e-02
3.072000000000000000e+03 2.886313247680664062e+01 1.202519321441650391e+01 5.167824029922485352e-01 3.839627504348754883e-01 2.702235281467437744e-01 -2.272720187902450562e-01
3.073000000000000000e+03 1.538082218170166016e+01 1.062947082519531250e+01 2.132657766342163086e-01 -4.225832223892211914e-01 -6.279522925615310669e-02 2.209912836551666260e-01
3.074000000000000000e+03 1.290392017364501953e+01 1.375425434112548828e+01 1.929316073656082153e-01 -3.812187314033508301e-01 -5.648613721132278442e-02 1.840167194604873657e-01
3.075000000000000000e+03 3.395244598388671875e+01 3.111904621124267578e+00 4.349818229675292969e-01 7.687324881553649902e-01 3.611142933368682861e-01 -1.779061704874038696e-01
3.076000000000000000e+03 3.048638153076171875e+01 1.941264533996582031e+01 3.307302892208099365e-01 7.176842093467712402e-01 3.145243525505065918e-01 -3.087090551853179932e-01
3.077000000000000000e+03 2.519132423400878906e+01 1.763341903686523438e+01 3.714495301246643066e-01 2.080289721488952637e-01 1.738435477018356323e-01 -1.915780305862426758e-01
3.078000000000000000e+03 2.929793548583984375e+01 1.563740825653076172e+01 4.588071405887603760e-01 5.135386586189270020e-01 2.917037606239318848e-01 -2.788816094398498535e-01
3.079000000000000000e+03 2.813080406188964844e+01 1.308374881744384766e+01 4.994423389434814453e-01 3.441824913024902344e-01 2.530874609947204590e-01 -2.198594659566879272e-01
3.080000000000000000e+03 1.959911918640136719e+01 8.236927032470703125e+00 2.578733563423156738e-01 -4.030544161796569824e-01 -4.355432465672492981e-02 1.589656621217727661e-01
3.081000000000000000e+03 1.695991134643554688e+01 9.194436073303222656e+00 2.223901450634002686e-01 -4.400352239608764648e-01 -6.529352068901062012e-02 2.140167951583862305e-01
3.082000000000000000e+03 3.078263854980468750e+01 -3.413967847824096680e+00 -6.082446128129959106e-02 8.575063198804855347e-02 7.477850653231143951e-03 2.333541214466094971e-01
3.083000000000000000e+03 3.160318946838378906e+01 -1.734183430671691895e+00 9.451040625572204590e-02 2.429390102624893188e-01 1.012348234653472900e-01 1.075659692287445068e-01
3.084000000000000000e+03 3.144760513305664062e+01 -2.505625247955322266e+00 4.203122854232788086e-02 1.814859062433242798e-01 6.705514341592788696e-02 1.560789644718170166e-01
3.085000000000000000e+03 3.277503585815429688e+01 -6.147548675537109375e+00 -9.812919795513153076e-02 1.162522360682487488e-01 5.436911713331937790e-03 3.186577558517456055e-01
3.086000000000000000e+03 3.408819961547851562e+01 -6.565203666687011719e+00 -1.266669668257236481e-02 1.704266667366027832e-01 4.732799157500267029e-02 2.641852498054504395e-01
3.087000000000000000e+03 2.239037704467773438e+01 7.783224105834960938e+00 3.113180994987487793e-01 -2.916480898857116699e-01 5.901006516069173813e-03 7.634056359529495239e-02
3.088000000000000000e+03 2.597829627990722656e+01 3.716015815734863281e+00 2.216063588857650757e-01 -1.339324563741683960e-01 2.630217187106609344e-02 7.817142456769943237e-02
3.089000000000000000e+03 1.181853675842285156e+01 1.056036090850830078e+01 1.291857808828353882e-01 -4.183723032474517822e-01 -8.675596117973327637e-02 2.741889059543609619e-01
3.090000000000000000e+03 2.429341125488281250e+01 4.975646495819091797e+00 2.523061037063598633e-01 -2.387509644031524658e-01 4.066544584929943085e-03 8.978632837533950806e-02
3.091000000000000000e+03 2.371426010131835938e+01 5.754980087280273438e+00 2.658027112483978271e-01 -2.668454945087432861e-01 -3.128382377326488495e-04 8.213795721530914307e-02
3.092000000000000000e+03 2.691977310180664062e+01 2.685910224914550781e+00 1.841488927602767944e-01 -8.543598651885986328e-02 2.961387112736701965e-02 8.161037415266036987e-02
3.093000000000000000e+03 3.616503906250000000e+01 -6.162879467010498047e+00 1.437521725893020630e-01 3.539465069770812988e-01 1.493096053600311279e-01 6.864172220230102539e-02
3.094000000000000000e+03 3.171663093566894531e+01 1.634323000907897949e+00 2.938846647739410400e-01 4.091474413871765137e-01 2.109096348285675049e-01 -4.353651776909828186e-02
3.095000000000000000e+03 3.018676757812500000e+01 -1.354190587997436523e+00 5.026505887508392334e-02 1.210498586297035217e-01 5.139447376132011414e-02 1.422298699617385864e-01
3.096000000000000000e+03 3.262513351440429688e+01 -4.923858165740966797e+00 -2.857652865350246429e-02 1.748416423797607422e-01 4.387953132390975952e-02 2.363885194063186646e-01
3.097000000000000000e+03 3.375941085815429688e+01 -5.572368144989013672e+00 1.181341614574193954e-02 2.188886255025863647e-01 6.921061128377914429e-02 2.124047130346298218e-01
3.098000000000000000e+03 2.284374237060546875e+01 6.412014961242675781e+00 2.707305550575256348e-01 -3.031164407730102539e-01 -9.715760126709938049e-03 9.401449561119079590e-02
3.099000000000000000e+03 3.329955673217773438e+01 -3.899824380874633789e+00 5.967160314321517944e-02 2.721697092056274414e-01 9.955239295959472656e-02 1.490604877471923828e-01
3.100000000000000000e+03 1.178819561004638672e+01 9.435958862304687500e+00 1.021562144160270691e-01 -4.243681728839874268e-01 -9.666357934474945068e-02 2.986276149749755859e-01
3.101000000000000000e+03 3.417613601684570312e+01 -4.857844829559326172e+00 6.417952477931976318e-02 3.046242296695709229e-01 1.106411293148994446e-01 1.456757336854934692e-01
3.102000000000000000e+03 3.442972564697265625e+01 -2.955686330795288086e+00 1.798080056905746460e-01 4.608381092548370361e-01 1.921938359737396240e-01 6.318044383078813553e-03
3.103000000000000000e+03 3.442543029785156250e+01 -1.431549191474914551e+00 2.352811247110366821e-01 5.670469999313354492e-01 2.406984418630599976e-01 -6.411182135343551636e-02
3.104000000000000000e+03 3.362287521362304688e+01 -6.129147410392761230e-01 2.521062195301055908e-01 5.314624905586242676e-01 2.350706309080123901e-01 -5.164853110909461975e-02
3.105000000000000000e+03 3.187532234191894531e+01 4.242656707763671875e+00 4.317834079265594482e-01 5.304183959960937500e-01 2.886605262756347656e-01 -1.227341070771217346e-01
3.106000000000000000e+03 2.767560577392578125e+01 9.961233139038085938e-01 9.247321635484695435e-02 -6.969022005796432495e-02 6.834900472313165665e-03 1.190549507737159729e-01
3.107000000000000000e+03 2.994244956970214844e+01 3.221278488636016846e-01 1.490484625101089478e-01 1.546171158552169800e-01 9.109967201948165894e-02 7.313014566898345947e-02
3.108000000000000000e+03 3.465327072143554688e+01 2.120867967605590820e+00 3.971176147460937500e-01 8.151335716247558594e-01 3.636753559112548828e-01 -1.863296180963516235e-01
3.109000000000000000e+03 2.978653526306152344e+01 2.347721099853515625e+00 2.645323276519775391e-01 2.030386924743652344e-01 1.402713060379028320e-01 9.025805629789829254e-03
3.110000000000000000e+03 2.949250793457031250e+01 1.114577054977416992e+00 1.648654788732528687e-01 1.302148103713989258e-01 8.852408826351165771e-02 6.060286238789558411e-02
3.111000000000000000e+03 1.401814651489257812e+01 1.517451190948486328e+01 2.173386365175247192e-01 -3.491214811801910400e-01 -3.953485563397407532e-02 1.409076005220413208e-01
3.112000000000000000e+03 1.616165924072265625e+01 1.666480255126953125e+01 2.563698589801788330e-01 -2.597162127494812012e-01 -1.003910787403583527e-03 6.005574017763137817e-02
3.113000000000000000e+03 1.270319843292236328e+01 1.211860179901123047e+01 1.708256900310516357e-01 -4.064876735210418701e-01 -7.069858908653259277e-02 2.292790859937667847e-01
3.114000000000000000e+03 1.796002006530761719e+01 8.459703445434570312e+00 2.236250638961791992e-01 -4.454662203788757324e-01 -6.655234098434448242e-02 2.053228318691253662e-01
3.115000000000000000e+03 3.859929656982421875e+01 -1.052912712097167969e+01 4.785495251417160034e-02 6.143189221620559692e-02 3.278605267405509949e-02 1.873393803834915161e-01
3.116000000000000000e+03 2.783252334594726562e+01 2.793541431427001953e+00 2.257051467895507812e-01 1.093042921274900436e-02 7.099067419767379761e-02 4.990774393081665039e-02
3.117000000000000000e+03 2.681244468688964844e+01 3.788640975952148438e+00 2.523783743381500244e-01 -6.528341025114059448e-02 5.612849444150924683e-02 4.854805022478103638e-02
3.118000000000000000e+03 1.639402580261230469e+01 1.117612266540527344e+01 2.561568319797515869e-01 -3.922636508941650391e-01 -4.083204641938209534e-02 1.779423654079437256e-01
3.119000000000000000e+03 3.238423156738281250e+01 3.411248683929443359e+00 4.012982547283172607e-01 5.527048707008361816e-01 2.862009108066558838e-01 -1.167021393775939941e-01
3.120000000000000000e+03 2.117698669433593750e+01 7.422523021697998047e+00 2.676599621772766113e-01 -3.649575710296630859e-01 -2.918927930295467377e-02 1.256440132856369019e-01
3.121000000000000000e+03 1.451116943359375000e+01 1.921266174316406250e+01 1.960318088531494141e-01 -2.616819441318511963e-01 -1.969504356384277344e-02 4.998828470706939697e-02
3.122000000000000000e+03 3.147160911560058594e+01 8.110764503479003906e+00 5.593870282173156738e-01 5.942755341529846191e-01 3.460987508296966553e-01 -2.103454619646072388e-01
3.123000000000000000e+03 1.596474742889404297e+01 1.950555419921875000e+01 2.182534784078598022e-01 -2.112707495689392090e-01 2.094817114993929863e-03 1.862218044698238373e-02
3.124000000000000000e+03 1.416322612762451172e+01 2.065006256103515625e+01 1.750445514917373657e-01 -2.501128315925598145e-01 -2.252048812806606293e-02 3.325248882174491882e-02
3.125000000000000000e+03 2.703324127197265625e+01 1.419853305816650391e+01 4.606438577175140381e-01 2.719612717628479004e-01 2.197815328836441040e-01 -2.096562981605529785e-01
3.126000000000000000e+03 2.874466133117675781e+01 4.092232227325439453e+00 3.308568894863128662e-01 1.446320861577987671e-01 1.426467001438140869e-01 -1.774422451853752136e-02
3.127000000000000000e+03 2.579650497436523438e+01 8.560200691223144531e+00 4.206172823905944824e-01 -1.275039743632078171e-02 1.223600655794143677e-01 -5.369576811790466309e-02
3.128000000000000000e+03 2.709988212585449219e+01 1.171331977844238281e+01 4.849424064159393311e-01 1.942631155252456665e-01 2.037616521120071411e-01 -1.631849557161331177e-01
3.129000000000000000e+03 3.147889137268066406e+01 9.316087722778320312e+00 5.814536809921264648e-01 6.244336366653442383e-01 3.617661893367767334e-01 -2.404914945363998413e-01
3.130000000000000000e+03 2.867543601989746094e+01 6.341211199760437012e-01 1.189528107643127441e-01 3.531939536333084106e-02 4.628166183829307556e-02 1.025933995842933655e-01
3.131000000000000000e+03 3.017300605773925781e+01 -5.425113439559936523e-01 1.079579442739486694e-01 1.484915316104888916e-01 7.693484425544738770e-02 1.056806072592735291e-01
3.132000000000000000e+03 2.524767303466796875e+01 7.044535636901855469e+00 3.709849119186401367e-01 -9.806724637746810913e-02 8.187530189752578735e-02 -1.116036088205873966e-03
3.133000000000000000e+03 2.476387977600097656e+01 4.396724224090576172e+00 2.184693217277526855e-01 -2.339364737272262573e-01 -4.640146624296903610e-03 8.949197083711624146e-02
3.134000000000000000e+03 3.283668518066406250e+01 2.282320022583007812e+00 3.570730686187744141e-01 5.660095810890197754e-01 2.769247889518737793e-01 -9.918592870235443115e-02
3.135000000000000000e+03 3.090759277343750000e+01 -1.419829368591308594e+00 7.994061708450317383e-02 1.854218691587448120e-01 7.960874587297439575e-02 1.170216947793960571e-01
3.136000000000000000e+03 3.391975021362304688e+01 -7.375177860260009766e+00 -8.909590542316436768e-02 1.103907600045204163e-01 6.388456560671329498e-03 3.443178236484527588e-01
3.137000000000000000e+03 1.794432067871093750e+01 9.406213760375976562e+00 2.512877583503723145e-01 -4.171819090843200684e-01 -4.976824671030044556e-02 1.827004551887512207e-01
3.138000000000000000e+03 1.865930747985839844e+01 7.694869041442871094e+00 2.143712192773818970e-01 -4.493047893047332764e-01 -7.048007100820541382e-02 2.022805064916610718e-01
3.139000000000000000e+03 3.262350082397460938e+01 -4.114047050476074219e+00 4.346884787082672119e-03 2.177138775587081909e-01 6.661822646856307983e-02 1.899609565734863281e-01
3.140000000000000000e+03 3.385546875000000000e+01 -3.510796308517456055e+00 1.301311254501342773e-01 3.827122747898101807e-01 1.538530141115188599e-01 6.927457451820373535e-02
3.141000000000000000e+03 3.319822311401367188e+01 -5.223946094512939453e+00 -6.196145899593830109e-03 1.906171441078186035e-01 5.532630160450935364e-02 2.325829267501831055e-01
3.142000000000000000e+03 3.359719848632812500e+01 1.211368680000305176e+00 3.270296156406402588e-01 6.136561632156372070e-01 2.822057306766510010e-01 -1.097002178430557251e-01
3.143000000000000000e+03 2.197493743896484375e+01 6.924028396606445312e+00 2.692883908748626709e-01 -3.406807482242584229e-01 -2.141771279275417328e-02 1.108906269073486328e-01
3.144000000000000000e+03 2.483630371093750000e+01 7.950349330902099609e+00 3.809156715869903564e-01 -1.116318404674530029e-01 8.078514784574508667e-02 -1.421205326914787292e-02
3.145000000000000000e+03 3.120132064819335938e+01 -5.194261074066162109e-01 1.478611528873443604e-01 2.580832540988922119e-01 1.217833161354064941e-01 6.666090339422225952e-02
3.146000000000000000e+03 2.445293807983398438e+01 6.527431964874267578e+00 3.190798163414001465e-01 -1.947178244590759277e-01 3.730859979987144470e-02 4.056607931852340698e-02
3.147000000000000000e+03 3.424542236328125000e+01 -4.176736354827880859e+00 1.184849217534065247e-01 3.498435914516448975e-01 1.404985487461090088e-01 8.653714507818222046e-02
3.148000000000000000e+03 2.581201362609863281e+01 4.586188793182373047e+00 2.747467458248138428e-01 -1.283929944038391113e-01 4.390612617135047913e-02 5.117460712790489197e-02
3.149000000000000000e+03 2.532798194885253906e+01 6.076278209686279297e+00 3.237060904502868652e-01 -1.291818022727966309e-01 5.835728719830513000e-02 2.725886739790439606e-02
3.150000000000000000e+03 2.777065849304199219e+01 3.973222970962524414e+00 2.945921719074249268e-01 3.940710797905921936e-02 1.001997888088226318e-01 1.502305455505847931e-02
3.151000000000000000e+03 3.289939117431640625e+01 -1.550499916076660156e+00 1.590984165668487549e-01 3.829391896724700928e-01 1.626112759113311768e-01 3.806668147444725037e-02
3.152000000000000000e+03 3.324884033203125000e+01 -3.098533153533935547e+00 1.045788526535034180e-01 3.324199616909027100e-01 1.310996413230895996e-01 9.395687282085418701e-02
3.153000000000000000e+03 1.797015571594238281e+01 1.055030345916748047e+01 2.740154862403869629e-01 -3.800660967826843262e-01 -3.181518614292144775e-02 1.522076427936553955e-01
3.154000000000000000e+03 3.310658264160156250e+01 -7.989590167999267578e+00 -1.875017732381820679e-01 2.172842249274253845e-02 -4.973200708627700806e-02 4.418741762638092041e-01
3.155000000000000000e+03 1.469448471069335938e+01 1.260336685180664062e+01 2.252076864242553711e-01 -3.811984360218048096e-01 -4.679722711443901062e-02 1.811249554157257080e-01
3.156000000000000000e+03 1.892121696472167969e+01 9.367728233337402344e+00 2.727084457874298096e-01 -3.899616003036499023e-01 -3.517594933509826660e-02 1.525667160749435425e-01
3.157000000000000000e+03 1.680976486206054688e+01 1.342269134521484375e+01 2.799378633499145508e-01 -3.276751339435577393e-01 -1.432118099182844162e-02 1.152828186750411987e-01
3.158000000000000000e+03 1.238455867767333984e+01 9.937613487243652344e+00 1.240912601351737976e-01 -4.270964264869689941e-01 -9.090155363082885742e-02 2.837750613689422607e-01
3.159000000000000000e+03 3.445859146118164062e+01 2.917188107967376709e-01 3.099795579910278320e-01 6.773704290390014648e-01 2.962050139904022217e-01 -1.243251487612724304e-01
3.160000000000000000e+03 1.609921455383300781e+01 1.804903602600097656e+01 2.354080229997634888e-01 -2.341421097517013550e-01 3.797741374000906944e-04 3.960556536912918091e-02
3.161000000000000000e+03 1.573471069335937500e+01 2.106626129150390625e+01 1.912932097911834717e-01 -1.886588037014007568e-01 7.903204532340168953e-04 -5.222948384471237659e-04
3.162000000000000000e+03 2.769279289245605469e+01 5.194067478179931641e+00 3.553409278392791748e-01 6.586159020662307739e-02 1.263607591390609741e-01 -2.247101254761219025e-02
3.163000000000000000e+03 3.027424240112304688e+01 9.350211143493652344e+00 5.493384003639221191e-01 4.684960246086120605e-01 3.053503036499023438e-01 -2.078766375780105591e-01
3.164000000000000000e+03 3.005809211730957031e+01 8.131866455078125000e+00 5.249838829040527344e-01 4.084035754203796387e-01 2.800162434577941895e-01 -1.711465120315551758e-01
3.165000000000000000e+03 3.029158401489257812e+01 2.935417413711547852e+00 3.189563751220703125e-01 2.747783958911895752e-01 1.781204342842102051e-01 -3.064513020217418671e-02
3.166000000000000000e+03 1.371430492401123047e+01 1.223576641082763672e+01 1.938993036746978760e-01 -4.018512368202209473e-01 -6.238558143377304077e-02 2.119195610284805298e-01
3.167000000000000000e+03 2.864090347290039062e+01 8.080860137939453125e+00 4.855127632617950439e-01 2.477428317070007324e-01 2.199766784906387329e-01 -1.272128820419311523e-01
3.168000000000000000e+03 2.922092628479003906e+01 1.107673549652099609e+01 5.329471230506896973e-01 3.893161416053771973e-01 2.766789793968200684e-01 -2.243805378675460815e-01
3.169000000000000000e+03 2.262574958801269531e+01 1.019021987915039062e+01 3.846688866615295410e-01 -1.911648809909820557e-01 5.805119872093200684e-02 8.892223238945007324e-03
3.170000000000000000e+03 1.619795036315917969e+01 1.530421924591064453e+01 2.649525701999664307e-01 -2.969630062580108643e-01 -9.603137150406837463e-03 8.856978267431259155e-02
3.171000000000000000e+03 3.272030258178710938e+01 1.487221270799636841e-01 2.450227886438369751e-01 4.521013200283050537e-01 2.091372311115264893e-01 -2.834418416023254395e-02
3.172000000000000000e+03 2.875774765014648438e+01 2.932882308959960938e+00 2.590997517108917236e-01 1.072531715035438538e-01 1.099058762192726135e-01 1.899520307779312134e-02
3.173000000000000000e+03 2.903264236450195312e+01 1.933489680290222168e+00 2.106287628412246704e-01 1.039170250296592712e-01 9.436373412609100342e-02 4.613034799695014954e-02
3.174000000000000000e+03 2.622234725952148438e+01 7.398527622222900391e+00 4.033783972263336182e-01 -1.131360325962305069e-02 1.176194325089454651e-01 -3.708706796169281006e-02
3.175000000000000000e+03 3.103735351562500000e+01 2.437745332717895508e+00 3.162960708141326904e-01 3.549311459064483643e-01 2.013681679964065552e-01 -4.190335795283317566e-02
3.176000000000000000e+03 2.642650222778320312e+01 6.181331634521484375e+00 3.605909943580627441e-01 -3.082488104701042175e-02 9.892982989549636841e-02 -1.180085353553295135e-02
3.177000000000000000e+03 1.679695129394531250e+01 1.026922702789306641e+01 2.430851906538009644e-01 -4.117338657379150391e-01 -5.059460550546646118e-02 1.908187419176101685e-01
3.178000000000000000e+03 3.083218955993652344e+01 9.762997031211853027e-01 2.045193761587142944e-01 2.517554163932800293e-01 1.368824392557144165e-01 2.384801581501960754e-02
3.179000000000000000e+03 2.165461921691894531e+01 1.074114704132080078e+01 3.681369125843048096e-01 -2.283492237329483032e-01 4.193630442023277283e-02 2.747678756713867188e-02
3.180000000000000000e+03 2.400275039672851562e+01 7.378259181976318359e+00 3.372850418090820312e-01 -2.034233659505844116e-01 4.015850648283958435e-02 3.200101479887962341e-02
3.181000000000000000e+03 3.368957519531250000e+01 -2.251009702682495117e+00 1.734030693769454956e-01 4.330108165740966797e-01 1.819241642951965332e-01 2.043475210666656494e-02
3.182000000000000000e+03 2.600449371337890625e+01 1.277611827850341797e+01 4.658809006214141846e-01 1.289426386356353760e-01 1.784470528364181519e-01 -1.523992717266082764e-01
3.183000000000000000e+03 2.319683074951171875e+01 7.315118312835693359e+00 3.170997202396392822e-01 -2.548716068267822266e-01 1.866843923926353455e-02 6.143380701541900635e-02
3.184000000000000000e+03 1.571982288360595703e+01 1.300670051574707031e+01 2.455138564109802246e-01 -3.693382143974304199e-01 -3.714730218052864075e-02 1.597619056701660156e-01
3.185000000000000000e+03 1.501856231689453125e+01 1.157320499420166016e+01 2.245620787143707275e-01 -4.026821255683898926e-01 -5.343601480126380920e-02 1.977176815271377563e-01
3.186000000000000000e+03 1.986710166931152344e+01 9.130401611328125000e+00 2.924561798572540283e-01 -3.620654046535491943e-01 -2.088276110589504242e-02 1.264365464448928833e-01
3.187000000000000000e+03 2.159196472167968750e+01 8.286064147949218750e+00 3.118631541728973389e-01 -3.151848912239074707e-01 -9.965240024030208588e-04 9.060642868280410767e-02
3.188000000000000000e+03 1.598891258239746094e+01 1.200049781799316406e+01 2.444288283586502075e-01 -3.782215416431427002e-01 -4.013781249523162842e-02 1.693413704633712769e-01
3.189000000000000000e+03 3.147857093811035156e+01 3.365902185440063477e+00 3.792265951633453369e-01 4.454129338264465332e-01 2.473918497562408447e-01 -8.595871180295944214e-02
3.190000000000000000e+03 2.018308830261230469e+01 1.012496852874755859e+01 3.248907923698425293e-01 -3.195415735244750977e-01 1.604770077392458916e-03 8.981700986623764038e-02
3.191000000000000000e+03 2.970275115966796875e+01 4.088198184967041016e+00 3.530327081680297852e-01 2.433806508779525757e-01 1.789240092039108276e-01 -4.555598273873329163e-02
3.192000000000000000e+03 2.995318984985351562e+01 5.316002368927001953e+00 4.294721782207489014e-01 3.191289007663726807e-01 2.245803326368331909e-01 -9.478906542062759399e-02
3.193000000000000000e+03 1.735983657836914062e+01 1.674204635620117188e+01 2.708078622817993164e-01 -2.252704948186874390e-01 1.366121135652065277e-02 3.555670380592346191e-02
3.194000000000000000e+03 2.116439628601074219e+01 9.702735900878906250e+00 3.400904238224029541e-01 -2.879951894283294678e-01 1.562856510281562805e-02 6.999048590660095215e-02
3.195000000000000000e+03 3.009090232849121094e+01 6.708001136779785156e+00 4.810869395732879639e-01 3.714016973972320557e-01 2.557466030120849609e-01 -1.307359933853149414e-01
3.196000000000000000e+03 2.663524055480957031e+01 4.969074249267578125e+00 3.145682513713836670e-01 -4.238879680633544922e-02 8.165383338928222656e-02 1.735579036176204681e-02
3.197000000000000000e+03 2.827945327758789062e+01 9.601279258728027344e+00 5.026468038558959961e-01 2.538284361362457275e-01 2.269425690174102783e-01 -1.546273082494735718e-01
3.198000000000000000e+03 2.756663703918457031e+01 6.458002567291259766e+00 4.046193659305572510e-01 9.223915636539459229e-02 1.490575522184371948e-01 -5.098564550280570984e-02
3.199000000000000000e+03 3.166628074645996094e+01 5.521327257156372070e-01 2.321782112121582031e-01 3.609775006771087646e-01 1.779467165470123291e-01 8.429936133325099945e-03
3.200000000000000000e+03 2.570095252990722656e+01 1.514446163177490234e+01 4.268158376216888428e-01 1.801587492227554321e-01 1.820923835039138794e-01 -1.780765503644943237e-01
3.201000000000000000e+03 3.060793495178222656e+01 3.826107263565063477e+00 3.644654750823974609e-01 3.333857059478759766e-01 2.093553543090820312e-01 -6.679650396108627319e-02
3.202000000000000000e+03 3.103227424621582031e+01 4.908221244812011719e+00 4.431010484695434570e-01 4.392337501049041748e-01 2.647004425525665283e-01 -1.190979033708572388e-01
3.203000000000000000e+03 2.510112190246582031e+01 1.154941940307617188e+01 4.449056386947631836e-01 2.629626728594303131e-02 1.413605660200119019e-01 -1.023640185594558716e-01
3.204000000000000000e+03 2.818387222290039062e+01 1.101295471191406250e+01 5.064535140991210938e-01 2.800528109073638916e-01 2.359518855810165405e-01 -1.779232025146484375e-01
3.205000000000000000e+03 1.748648452758789062e+01 1.966397285461425781e+01 2.390295714139938354e-01 -1.517045348882675171e-01 2.619750984013080597e-02 -1.861545257270336151e-02
3.206000000000000000e+03 3.211266326904296875e+01 -9.024565219879150391e-01 1.626394093036651611e-01 3.389268815517425537e-01 1.504698842763900757e-01 4.578685387969017029e-02
3.207000000000000000e+03 2.205953788757324219e+01 9.203729629516601562e+00 3.478504717350006104e-01 -2.584644854068756104e-01 2.681579813361167908e-02 5.098078772425651550e-02
3.208000000000000000e+03 2.357099723815917969e+01 8.098394393920898438e+00 3.548324108123779297e-01 -1.999813020229339600e-01 4.645533114671707153e-02 2.779201976954936981e-02
3.209000000000000000e+03 2.484379386901855469e+01 1.370802211761474609e+01 4.369142353534698486e-01 7.542274147272109985e-02 1.537010967731475830e-01 -1.366485357284545898e-01
3.210000000000000000e+03 2.877162742614746094e+01 6.653899669647216797e+00 4.460672736167907715e-01 2.162123024463653564e-01 1.986838728189468384e-01 -9.508763998746871948e-02
3.211000000000000000e+03 2.879053497314453125e+01 5.330340385437011719e+00 3.933485746383666992e-01 1.834072470664978027e-01 1.730267405509948730e-01 -5.504325777292251587e-02
3.212000000000000000e+03 2.958512306213378906e+01 3.100093126296997070e+00 2.976533472537994385e-01 2.028505951166152954e-01 1.501511782407760620e-01 -1.578204333782196045e-02
3.213000000000000000e+03 3.028838920593261719e+01 1.692625522613525391e+00 2.321742027997970581e-01 2.245600968599319458e-01 1.370202898979187012e-01 1.645192131400108337e-02
3.214000000000000000e+03 1.883822059631347656e+01 1.799926757812500000e+01 2.883170247077941895e-01 -1.370110064744949341e-01 4.539180546998977661e-02 -2.948278747498989105e-02
3.215000000000000000e+03 1.739506340026855469e+01 2.134502410888671875e+01 2.084688991308212280e-01 -1.180611476302146912e-01 2.712232619524002075e-02 -3.757119923830032349e-02
3.216000000000000000e+03 2.059884262084960938e+01 1.121820640563964844e+01 3.510616123676300049e-01 -2.655754387378692627e-01 2.564585208892822266e-02 5.391552299261093140e-02
3.217000000000000000e+03 2.693272781372070312e+01 9.204489707946777344e+00 4.657009541988372803e-01 1.070962771773338318e-01 1.718391627073287964e-01 -1.065657362341880798e-01
3.218000000000000000e+03 2.614003753662109375e+01 1.051047325134277344e+01 4.668485820293426514e-01 8.005433529615402222e-02 1.640708744525909424e-01 -1.143135279417037964e-01
3.219000000000000000e+03 1.717326164245605469e+01 2.317503738403320312e+01 1.710237413644790649e-01 -9.143922477960586548e-02 2.387535385787487030e-02 -5.188101530075073242e-02
3.220000000000000000e+03 2.735004806518554688e+01 7.782402992248535156e+00 4.441643953323364258e-01 1.040879562497138977e-01 1.644757091999053955e-01 -8.174148947000503540e-02
3.221000000000000000e+03 1.700277137756347656e+01 1.215388774871826172e+01 2.743979692459106445e-01 -3.530059754848480225e-01 -2.358241006731987000e-02 1.378495991230010986e-01
3.222000000000000000e+03 1.752862167358398438e+01 1.550907516479492188e+01 2.884898185729980469e-01 -2.533004581928253174e-01 1.055680494755506516e-02 5.489628016948699951e-02
3.223000000000000000e+03 2.112813568115234375e+01 1.241042232513427734e+01 3.692823648452758789e-01 -2.004805058240890503e-01 5.064056068658828735e-02 9.529855102300643921e-03
3.224000000000000000e+03 2.425717735290527344e+01 1.050112628936767578e+01 4.276748895645141602e-01 -7.340552657842636108e-02 1.062808111310005188e-01 -5.231900513172149658e-02
3.225000000000000000e+03 2.402955627441406250e+01 1.241065597534179688e+01 4.283735156059265137e-01 -2.759078145027160645e-02 1.202348247170448303e-01 -8.321369439363479614e-02
3.226000000000000000e+03 2.350288009643554688e+01 9.553227424621582031e+00 3.881051540374755859e-01 -1.548682153224945068e-01 6.997108459472656250e-02 -4.348574206233024597e-03
3.227000000000000000e+03 1.799683380126953125e+01 1.421496582031250000e+01 3.062370419502258301e-01 -2.739840745925903320e-01 9.675893001258373260e-03 6.606760621070861816e-02
3.228000000000000000e+03 1.911671257019042969e+01 1.042611885070800781e+01 3.033983409404754639e-01 -3.459402620792388916e-01 -1.276257261633872986e-02 1.170112788677215576e-01
3.229000000000000000e+03 2.287015914916992188e+01 8.657958030700683594e+00 3.563914895057678223e-01 -2.272092252969741821e-01 3.875467553734779358e-02 3.551917150616645813e-02
3.230000000000000000e+03 2.223888969421386719e+01 1.187781715393066406e+01 3.910254836082458496e-01 -1.576420813798904419e-01 7.001502066850662231e-02 -1.483822427690029144e-02
3.231000000000000000e+03 2.172846984863281250e+01 1.370900917053222656e+01 3.794377446174621582e-01 -1.253775060176849365e-01 7.621807605028152466e-02 -3.683805838227272034e-02
3.232000000000000000e+03 2.362287521362304688e+01 1.449594116210937500e+01 4.066965281963348389e-01 1.244148053228855133e-02 1.257413923740386963e-01 -1.091389805078506470e-01
3.233000000000000000e+03 1.819653129577636719e+01 1.195075321197509766e+01 3.051275312900543213e-01 -3.312368392944335938e-01 -7.832791656255722046e-03 1.097227931022644043e-01
3.234000000000000000e+03 1.845318794250488281e+01 1.648457717895507812e+01 3.005915284156799316e-01 -1.965946853160858154e-01 3.119905106723308563e-02 9.471240453422069550e-03
3.235000000000000000e+03 2.785548210144042969e+01 1.572400569915771484e+01 4.482792019844055176e-01 3.831254541873931885e-01 2.494214028120040894e-01 -2.521826028823852539e-01
3.236000000000000000e+03 2.222011566162109375e+01 1.906738853454589844e+01 3.122422695159912109e-01 6.234036386013031006e-02 1.123747900128364563e-01 -1.313357651233673096e-01
3.237000000000000000e+03 1.913427543640136719e+01 2.145462417602539062e+01 2.250872701406478882e-01 -3.965475037693977356e-02 5.562975257635116577e-02 -7.762776315212249756e-02
3.238000000000000000e+03 1.408394336700439453e+01 2.632093048095703125e+01 9.271162003278732300e-02 -1.815135478973388672e-01 -2.664057910442352295e-02 -2.675804495811462402e-02
3.239000000000000000e+03 1.880363464355468750e+01 1.329003524780273438e+01 3.207941353321075439e-01 -2.764701247215270996e-01 1.329720299690961838e-02 6.491369009017944336e-02
3.240000000000000000e+03 1.588019847869873047e+01 1.407277584075927734e+01 2.620306015014648438e-01 -3.349114954471588135e-01 -2.186427079141139984e-02 1.247867867350578308e-01
3.241000000000000000e+03 2.512254524230957031e+01 9.606323242187500000e+00 4.263718128204345703e-01 -3.830599784851074219e-02 1.164197474718093872e-01 -5.967942997813224792e-02
3.242000000000000000e+03 2.328648376464843750e+01 1.125119495391845703e+01 4.079231619834899902e-01 -1.127819195389747620e-01 8.854237198829650879e-02 -3.837439045310020447e-02
3.243000000000000000e+03 2.290242958068847656e+01 1.312232875823974609e+01 4.056893289089202881e-01 -7.650967687368392944e-02 9.875389933586120605e-02 -6.386008113622665405e-02
3.244000000000000000e+03 2.438155746459960938e+01 1.600959205627441406e+01 3.981246352195739746e-01 1.078322082757949829e-01 1.517870575189590454e-01 -1.552018672227859497e-01
3.245000000000000000e+03 2.236318588256835938e+01 1.514031696319580078e+01 3.813242614269256592e-01 -4.589468613266944885e-02 1.006288677453994751e-01 -8.265015482902526855e-02
3.246000000000000000e+03 1.904874801635742188e+01 1.965266609191894531e+01 2.607057094573974609e-01 -8.476389199495315552e-02 5.278254672884941101e-02 -5.592990666627883911e-02
3.247000000000000000e+03 1.928284645080566406e+01 1.453699970245361328e+01 3.282357156276702881e-01 -2.110185027122497559e-01 3.516516834497451782e-02 2.170442044734954834e-02
3.248000000000000000e+03 1.996964836120605469e+01 1.286322879791259766e+01 3.438024222850799561e-01 -2.424933463335037231e-01 3.039272502064704895e-02 4.023044183850288391e-02
3.249000000000000000e+03 1.908360099792480469e+01 2.342617988586425781e+01 1.816893517971038818e-01 1.850309054134413600e-04 5.456231161952018738e-02 -9.232349693775177002e-02
3.250000000000000000e+03 2.869136810302734375e+01 1.698741912841796875e+01 4.132889211177825928e-01 4.971598982810974121e-01 2.731346487998962402e-01 -2.809595465660095215e-01
3.251000000000000000e+03 1.464030647277832031e+01 2.954321670532226562e+01 4.943715408444404602e-02 -1.169292107224464417e-01 -2.024761587381362915e-02 -4.797824472188949585e-02
3.252000000000000000e+03 2.110553169250488281e+01 2.344334411621093750e+01 1.920335143804550171e-01 1.019988581538200378e-01 8.820971101522445679e-02 -1.335720866918563843e-01
3.253000000000000000e+03 1.746677589416503906e+01 1.812310600280761719e+01 2.622074186801910400e-01 -1.910426169633865356e-01 2.134943939745426178e-02 8.788328617811203003e-03
3.254000000000000000e+03 2.051815032958984375e+01 1.418493270874023438e+01 3.533593118190765381e-01 -1.699094027280807495e-01 5.503497272729873657e-02 -9.204173460602760315e-03
3.255000000000000000e+03 2.303403472900390625e+01 1.672445106506347656e+01 3.671651184558868408e-01 4.147502407431602478e-02 1.225920468568801880e-01 -1.242345720529556274e-01
3.256000000000000000e+03 1.676552581787109375e+01 2.518711471557617188e+01 1.305086761713027954e-01 -7.126302272081375122e-02 1.777369342744350433e-02 -5.942318215966224670e-02
3.257000000000000000e+03 2.744183158874511719e+01 1.802422523498535156e+01 3.812494874000549316e-01 4.144507050514221191e-01 2.387100607156753540e-01 -2.606204152107238770e-01
3.258000000000000000e+03 2.163812446594238281e+01 1.728165626525878906e+01 3.385050296783447266e-01 -2.361550368368625641e-02 9.446685761213302612e-02 -9.216284006834030151e-02
3.259000000000000000e+03 2.908325195312500000e+01 2.027219772338867188e+01 2.987307906150817871e-01 5.974481105804443359e-01 2.688536643981933594e-01 -2.883399426937103271e-01
3.260000000000000000e+03 2.063036537170410156e+01 1.945575141906738281e+01 2.845596075057983398e-01 -1.551514305174350739e-02 8.071333914995193481e-02 -9.396538883447647095e-02
3.261000000000000000e+03 2.319740867614746094e+01 2.320821380615234375e+01 2.039348632097244263e-01 2.141490131616592407e-01 1.254251599311828613e-01 -1.764198690652847290e-01
3.262000000000000000e+03 1.967558288574218750e+01 1.603254127502441406e+01 3.271892666816711426e-01 -1.558175683021545410e-01 5.141150578856468201e-02 -1.641605980694293976e-02
3.263000000000000000e+03 2.022079658508300781e+01 1.769890022277832031e+01 3.122560977935791016e-01 -8.028009533882141113e-02 6.959280371665954590e-02 -5.950229614973068237e-02
3.264000000000000000e+03 2.462371444702148438e+01 2.042071342468261719e+01 2.926429808139801025e-01 2.483163774013519287e-01 1.622878015041351318e-01 -2.029255330562591553e-01
3.265000000000000000e+03 2.618130302429199219e+01 1.931112861633300781e+01 3.320933878421783447e-01 3.306810855865478516e-01 1.988323330879211426e-01 -2.341370731592178345e-01
3.266000000000000000e+03 2.093282890319824219e+01 2.135809516906738281e+01 2.427389621734619141e-01 4.857987910509109497e-02 8.739565312862396240e-02 -1.193098351359367371e-01
3.267000000000000000e+03 1.158724308013916016e+01 3.494467544555664062e+01 -3.423341317102313042e-03 -2.190327495336532593e-01 -6.673683226108551025e-02 -3.580063581466674805e-02
3.268000000000000000e+03 2.368925857543945312e+01 2.822083282470703125e+01 6.111144274473190308e-02 3.294049203395843506e-01 1.171549111604690552e-01 -1.752434223890304565e-01
3.269000000000000000e+03 5.109640884399414062e+01 -3.699913024902343750e+01 -3.039653599262237549e-01 2.098176956176757812e+00 5.382634401321411133e-01 6.440953016281127930e-01
3.270000000000000000e+03 2.840640830993652344e+01 1.912710189819335938e+01 3.535088598728179932e-01 4.984016716480255127e-01 2.555731534957885742e-01 -2.729760408401489258e-01
3.271000000000000000e+03 3.245016098022460938e+01 2.829437255859375000e+01 -3.912695869803428650e-02 8.458893299102783203e-01 2.420287132263183594e-01 -2.092663645744323730e-01
3.272000000000000000e+03 3.749739074707031250e+01 2.762250900268554688e+01 -6.013260781764984131e-02 1.102127432823181152e+00 3.125984370708465576e-01 -1.064339801669120789e-01
3.273000000000000000e+03 2.533347129821777344e+01 2.270611572265625000e+01 2.213781625032424927e-01 3.401657044887542725e-01 1.684631556272506714e-01 -2.207090109586715698e-01
3.274000000000000000e+03 2.580618095397949219e+01 2.522540664672851562e+01 1.392613500356674194e-01 4.163095951080322266e-01 1.666712760925292969e-01 -2.222921699285507202e-01
3.275000000000000000e+03 7.904662132263183594e+00 -4.134464645385742188e+01 -1.246932893991470337e-03 1.826622523367404938e-03 1.739068829920142889e-04 2.090691996272653341e-04
3.276000000000000000e+03 1.848243713378906250e+01 -4.114575576782226562e+01 -8.617777377367019653e-03 1.538028940558433533e-03 -2.123924670740962029e-03 5.187983042560517788e-04
3.277000000000000000e+03 2.472729301452636719e+01 -3.552812194824218750e+01 -2.737471368163824081e-03 -6.743262521922588348e-03 -2.844220260158181190e-03 -1.149781048297882080e-03
3.278000000000000000e+03 4.071792984008789062e+01 -3.619335937500000000e+01 2.294149100780487061e-01 -5.075664520263671875e-01 -8.344545960426330566e-02 -5.882149189710617065e-02
3.279000000000000000e+03 4.282260894775390625e+01 3.607579803466796875e+01 -3.103323280811309814e-01 8.375486135482788086e-01 1.581648737192153931e-01 1.872461847960948944e-02
3.280000000000000000e+03 8.199058532714843750e+00 4.104002761840820312e+01 -1.407697051763534546e-02 -3.793814480304718018e-01 -1.180375218391418457e-01 -1.652680919505655766e-03
3.281000000000000000e+03 1.605527687072753906e+01 2.742096328735351562e+01 8.436992764472961426e-02 -7.228612154722213745e-02 3.625141223892569542e-03 -5.746880173683166504e-02
3.282000000000000000e+03 1.886560821533203125e+01 2.560788154602050781e+01 1.314300149679183960e-01 2.845400944352149963e-02 4.796520620584487915e-02 -9.766847640275955200e-02
3.283000000000000000e+03 7.419522094726562500e+01 3.897295379638671875e+01 -1.504650712013244629e-01 6.875818729400634766e+00 2.017606019973754883e+00 1.515987068414688110e-01
3.284000000000000000e+03 3.773753356933593750e+01 3.180609321594238281e+01 -2.032047659158706665e-01 9.976512193679809570e-01 2.383339256048202515e-01 -8.725639432668685913e-02
3.285000000000000000e+03 4.035208129882812500e+01 3.157098770141601562e+01 -1.969872117042541504e-01 1.015776395797729492e+00 2.456367462873458862e-01 -1.329770591109991074e-02
3.286000000000000000e+03 7.140310668945312500e+01 3.763045883178710938e+01 -3.120184838771820068e-01 5.156250476837158203e+00 1.453269600868225098e+00 -1.320235580205917358e-01
3.287000000000000000e+03 4.247090148925781250e+01 3.191918945312500000e+01 -1.872391849756240845e-01 9.646272659301757812e-01 2.332164198160171509e-01 5.399031192064285278e-02
3.288000000000000000e+03 7.189993286132812500e+01 -4.120414352416992188e+01 3.490054979920387268e-02 4.945341110229492188e+00 1.494072556495666504e+00 6.402361392974853516e-02
3.289000000000000000e+03 4.216214370727539062e+01 -4.123827743530273438e+01 2.916522920131683350e-01 -6.736072152853012085e-02 6.728746742010116577e-02 2.059933729469776154e-02
3.290000000000000000e+03 1.126686477661132812e+01 -3.870676040649414062e+01 -2.180123003199696541e-03 1.862761331722140312e-03 -9.520853927824646235e-05 2.394959097728133202e-03
3.291000000000000000e+03 6.778428649902343750e+01 4.156450271606445312e+01 2.394475340843200684e-01 2.539769172668457031e+00 8.337650299072265625e-01 -9.660252183675765991e-02
3.292000000000000000e+03 6.889401245117187500e+01 3.776786422729492188e+01 -2.159106582403182983e-01 3.526022672653198242e+00 9.930335879325866699e-01 -3.044850528240203857e-01
3.293000000000000000e+03 4.648955154418945312e+01 -4.092166137695312500e+01 -4.284908622503280640e-02 8.428318500518798828e-01 2.399948388338088989e-01 1.363617032766342163e-01
3.294000000000000000e+03 3.835999679565429688e+01 3.413006591796875000e+01 -2.694099843502044678e-01 9.552839994430541992e-01 2.057622075080871582e-01 -5.901917070150375366e-02
3.295000000000000000e+03 2.757887268066406250e+01 3.740962219238281250e+01 -1.778612881898880005e-01 5.933524370193481445e-01 1.246473416686058044e-01 -8.380069583654403687e-02
3.296000000000000000e+03 3.213555145263671875e+01 3.690524673461914062e+01 -2.491247504949569702e-01 7.912258505821228027e-01 1.626303344964981079e-01 -8.691961318254470825e-02
3.297000000000000000e+03 1.584262752532958984e+01 3.558941650390625000e+01 -2.495228499174118042e-02 -7.111067418009042740e-03 -9.619005955755710602e-03 -4.686636477708816528e-02
3.298000000000000000e+03 3.053993225097656250e+01 -3.994995498657226562e+01 1.703962124884128571e-02 -1.026298329234123230e-01 -2.567706443369388580e-02 -3.422141447663307190e-02
3.299000000000000000e+03 2.803487777709960938e+01 2.464132308959960938e+01 1.408595591783523560e-01 5.491805076599121094e-01 2.070120126008987427e-01 -2.491537630558013916e-01
3.300000000000000000e+03 2.754985427856445312e+01 2.037712478637695312e+01 2.976349592208862305e-01 4.509308338165283203e-01 2.245697379112243652e-01 -2.613780796527862549e-01
3.301000000000000000e+03 2.956369018554687500e+01 2.186249351501464844e+01 2.344623059034347534e-01 6.421737074851989746e-01 2.629908025264739990e-01 -2.824914455413818359e-01
3.302000000000000000e+03 3.471379470825195312e+01 3.243342590332031250e+01 -1.869724243879318237e-01 8.988856673240661621e-01 2.135739773511886597e-01 -1.329642683267593384e-01
3.303000000000000000e+03 2.276926231384277344e+01 -4.140496444702148438e+01 -1.305454503744840622e-02 -8.328156545758247375e-03 -6.414810195565223694e-03 1.772090443409979343e-03
3.304000000000000000e+03 2.348348045349121094e+01 2.561238670349121094e+01 1.363808810710906982e-01 2.801381945610046387e-01 1.249557211995124817e-01 -1.839439570903778076e-01
3.305000000000000000e+03 3.117045593261718750e+01 3.324556732177734375e+01 -1.595796942710876465e-01 7.615173459053039551e-01 1.805813014507293701e-01 -1.515122503042221069e-01
3.306000000000000000e+03 3.100208282470703125e+01 2.603520584106445312e+01 6.046674028038978577e-02 7.627363801002502441e-01 2.469609379768371582e-01 -2.464180439710617065e-01
3.307000000000000000e+03 2.105763626098632812e+01 2.823723220825195312e+01 7.187131792306900024e-02 1.896557509899139404e-01 7.845812290906906128e-02 -1.368612796068191528e-01
3.308000000000000000e+03 1.827737998962402344e+01 3.061234092712402344e+01 2.857724577188491821e-02 7.374680787324905396e-02 3.069721721112728119e-02 -8.909846842288970947e-02
3.309000000000000000e+03 2.362050247192382812e+01 3.418921279907226562e+01 -7.499008625745773315e-02 3.741946518421173096e-01 8.976136893033981323e-02 -1.118879914283752441e-01
3.310000000000000000e+03 3.589797973632812500e+01 3.562502670288085938e+01 -2.754372656345367432e-01 8.961715698242187500e-01 1.862202882766723633e-01 -8.066484332084655762e-02
3.311000000000000000e+03 2.378222084045410156e+01 3.107381820678710938e+01 -1.205456536263227463e-02 3.648661375045776367e-01 1.058434695005416870e-01 -1.508905291557312012e-01
3.312000000000000000e+03 3.004736137390136719e+01 2.996469688415527344e+01 -6.066482141613960266e-02 7.126166820526123047e-01 1.955855637788772583e-01 -1.989964842796325684e-01
3.313000000000000000e+03 2.633775329589843750e+01 2.787973594665527344e+01 5.090299993753433228e-02 4.819460213184356689e-01 1.598547101020812988e-01 -2.073295265436172485e-01
3.314000000000000000e+03 2.691024017333984375e+01 3.079968070983886719e+01 -4.083487391471862793e-02 5.326314568519592285e-01 1.475389599800109863e-01 -1.774818450212478638e-01
3.315000000000000000e+03 2.087434959411621094e+01 3.092957305908203125e+01 1.495799422264099121e-02 2.092047184705734253e-01 6.724881380796432495e-02 -1.218435466289520264e-01
3.316000000000000000e+03 1.770330429077148438e+01 3.300119400024414062e+01 -5.934208631515502930e-03 7.908628135919570923e-02 2.194562181830406189e-02 -7.143401354551315308e-02
3.317000000000000000e+03 2.027918815612792969e+01 3.383772277832031250e+01 -3.357880562543869019e-02 2.007522284984588623e-01 5.015202611684799194e-02 -9.405522793531417847e-02
3.318000000000000000e+03 9.211134910583496094e+00 -1.924106478691101074e+00 9.688454838396864943e-07 -9.028579370351508260e-06 -2.417920313746435568e-06 8.562950597479357384e-07
3.319000000000000000e+03 5.526854705810546875e+01 -1.714449882507324219e+01 4.366753697395324707e-01 3.098285675048828125e+00 1.060488343238830566e+00 -5.162651062011718750e+00
3.320000000000000000e+03 5.582005691528320312e+01 -1.678942489624023438e+01 3.500707149505615234e+00 1.912828803062438965e+00 1.624060750007629395e+00 -7.600512981414794922e+00
3.321000000000000000e+03 5.726576614379882812e+01 -1.644407463073730469e+01 -7.056540012359619141e+00 -2.941658258438110352e+00 -2.999459505081176758e+00 -5.268289566040039062e+00
3.322000000000000000e+03 5.845927810668945312e+01 -2.028549194335937500e+01 -4.093215763568878174e-01 7.088923454284667969e+00 2.003880500793457031e+00 9.609290957450866699e-01
3.323000000000000000e+03 5.754370117187500000e+01 -2.045875167846679688e+01 -4.570748209953308105e-01 5.246760368347167969e+00 1.436905622482299805e+00 2.740896940231323242e+00
3.324000000000000000e+03 5.690189361572265625e+01 -2.004686164855957031e+01 1.269242763519287109e-01 3.289481639862060547e+00 1.024921774864196777e+00 2.827761650085449219e+00
3.325000000000000000e+03 5.675986862182617188e+01 -2.012787246704101562e+01 3.737797588109970093e-02 3.138097047805786133e+00 9.526425600051879883e-01 2.640266656875610352e+00
3.326000000000000000e+03 5.659013748168945312e+01 -2.023290252685546875e+01 -4.122828319668769836e-02 2.724835634231567383e+00 8.050822615623474121e-01 2.499067306518554688e+00
3.327000000000000000e+03 5.553206634521484375e+01 -2.059261131286621094e+01 -7.010770440101623535e-01 1.572900056838989258e+00 2.615469098091125488e-01 1.582524180412292480e+00
3.328000000000000000e+03 7.526561737060546875e+01 4.071629714965820312e+01 -8.034840226173400879e-03 7.934126377105712891e+00 2.377827405929565430e+00 2.360635995864868164e-01
3.329000000000000000e+03 4.196423721313476562e+01 -2.414443969726562500e+01 2.820305060595273972e-03 -6.226501464843750000e-01 -1.859489381313323975e-01 -4.763196781277656555e-02
3.330000000000000000e+03 4.256664276123046875e+01 -2.381978988647460938e+01 -2.305992320179939270e-02 -4.996578693389892578e-01 -1.568153351545333862e-01 -2.954517602920532227e-01
3.331000000000000000e+03 4.253255462646484375e+01 -2.467306327819824219e+01 -3.639940917491912842e-02 -8.122687935829162598e-01 -2.546004652976989746e-01 -2.914288043975830078e-01
3.332000000000000000e+03 5.926597213745117188e+01 -3.753355407714843750e+01 -4.030177295207977295e-01 1.120152831077575684e+00 2.151405215263366699e-01 -8.178783655166625977e-01
3.333000000000000000e+03 5.586356735229492188e+01 -3.423388290405273438e+01 -4.147154390811920166e-01 4.264804363250732422e+00 1.155026674270629883e+00 -4.516534209251403809e-01
3.334000000000000000e+03 2.056901168823242188e+01 -1.321524429321289062e+01 -3.555729108484229073e-06 -1.484448875999078155e-05 -5.520065315067768097e-06 7.279285455297213048e-06
3.335000000000000000e+03 6.108665847778320312e+01 3.809743881225585938e+01 -2.011428475379943848e-01 -2.387521862983703613e-01 -1.319685131311416626e-01 2.588193118572235107e-01
3.336000000000000000e+03 5.644091415405273438e+01 -1.651415061950683594e+01 -1.300717234611511230e+00 -5.047797560691833496e-01 -5.416491031646728516e-01 -7.651639938354492188e+00
3.337000000000000000e+03 5.667246246337890625e+01 -1.643545150756835938e+01 -9.657182693481445312e-01 3.969763591885566711e-02 -2.778061926364898682e-01 -8.002514839172363281e+00
3.338000000000000000e+03 5.579167938232421875e+01 -1.630657768249511719e+01 6.564898967742919922e+00 2.477380037307739258e+00 2.712683677673339844e+00 -4.998358249664306641e+00
3.339000000000000000e+03 5.645902633666992188e+01 -1.666407203674316406e+01 3.848880529403686523e-01 -5.133826732635498047e-01 -3.854838386178016663e-02 -7.255607128143310547e+00
3.340000000000000000e+03 6.744269561767578125e+01 3.588803482055664062e+01 -4.505626261234283447e-01 2.289218187332153320e+00 5.515967011451721191e-01 -3.701848685741424561e-01
3.341000000000000000e+03 5.380690383911132812e+01 3.738352203369140625e+01 -3.169527947902679443e-01 1.154147982597351074e-01 -6.046139448881149292e-02 1.293076425790786743e-01
3.342000000000000000e+03 5.133850097656250000e+01 3.498629760742187500e+01 -1.886574923992156982e-01 2.185769230127334595e-01 8.975828066468238831e-03 5.112585425376892090e-02
3.343000000000000000e+03 3.383540344238281250e+01 -3.613895034790039062e+01 -4.467584937810897827e-02 -1.159324124455451965e-01 -4.818247631192207336e-02 -1.468264460563659668e-01
3.344000000000000000e+03 2.411960029602050781e+01 -3.449576950073242188e+01 3.491863375529646873e-03 -4.385395906865596771e-03 -2.680598117876797915e-04 1.961522037163376808e-03
3.345000000000000000e+03 2.020444869995117188e+01 -1.238830852508544922e+01 6.370818823597801384e-07 1.656229687796439976e-05 5.159813554200809449e-06 4.542495389614487067e-06
3.346000000000000000e+03 4.007450103759765625e+01 3.561346435546875000e+01 -3.050673007965087891e-01 9.228219389915466309e-01 1.853263825178146362e-01 -3.148387372493743896e-02
3.347000000000000000e+03 5.654209136962890625e+01 -1.676542854309082031e+01 1.357131123542785645e+00 -6.789177656173706055e-01 2.034639865159988403e-01 -8.456823348999023438e+00
3.348000000000000000e+03 4.082506179809570312e+01 -1.944490242004394531e+01 -1.794803023338317871e+00 -6.364841014146804810e-02 -5.575354099273681641e-01 8.691712021827697754e-01
3.349000000000000000e+03 5.957627487182617188e+01 -2.079704284667968750e+01 3.088739812374114990e-01 4.276723384857177734e+00 1.375679254531860352e+00 2.392276376485824585e-01
3.350000000000000000e+03 6.940238189697265625e+01 -3.556457901000976562e+01 -7.775920629501342773e-01 3.050251483917236328e+00 6.817978620529174805e-01 7.959163784980773926e-01
3.351000000000000000e+03 3.407238483428955078e+00 3.717324066162109375e+01 7.243439555168151855e-03 -6.294878721237182617e-01 -1.866733282804489136e-01 -1.632106117904186249e-02
3.352000000000000000e+03 5.692966079711914062e+01 -2.017490196228027344e+01 -6.679833680391311646e-02 3.527825832366943359e+00 1.038308262825012207e+00 2.758444309234619141e+00
3.353000000000000000e+03 7.083805847167968750e+01 -3.627646255493164062e+01 -6.607624888420104980e-01 4.382493019104003906e+00 1.116519212722778320e+00 5.888875722885131836e-01
3.354000000000000000e+03 7.728109741210937500e+01 3.382375335693359375e+01 -1.633231192827224731e-01 8.806996345520019531e+00 2.593101978302001953e+00 3.102027177810668945e-01
3.355000000000000000e+03 2.642816543579101562e+01 -8.874505043029785156e+00 -6.030829548835754395e-01 -4.502930939197540283e-01 -3.160127997398376465e-01 6.554585099220275879e-01
3.356000000000000000e+03 7.233183288574218750e+01 -3.617348480224609375e+01 -5.495348572731018066e-01 5.638280391693115234e+00 1.526623606681823730e+00 2.534682452678680420e-01
3.357000000000000000e+03 9.401216506958007812e+00 -1.395863723754882812e+01 -1.297118251386564225e-05 -2.196228706452529877e-05 -1.048004105541622266e-05 1.613449603610206395e-05
3.358000000000000000e+03 3.893105697631835938e+01 -3.577874755859375000e+01 1.090540960431098938e-01 -4.571197330951690674e-01 -1.044196933507919312e-01 -2.306078970432281494e-01
3.359000000000000000e+03 7.250878906250000000e+01 -1.884794807434082031e+01 -8.502933979034423828e-01 6.679092884063720703e+00 1.748639941215515137e+00 -6.687026619911193848e-01
3.360000000000000000e+03 3.974011993408203125e+01 -1.593477439880371094e+01 -1.239690899848937988e+00 -2.906318306922912598e-01 -4.590968191623687744e-01 4.506783485412597656e-01
3.361000000000000000e+03 3.776512145996093750e+01 -1.499190807342529297e+01 -9.360140562057495117e-01 -3.995310366153717041e-01 -4.006635248661041260e-01 5.811348557472229004e-01
3.362000000000000000e+03 5.661088562011718750e+01 -2.134416580200195312e+01 -8.619292974472045898e-01 3.584914207458496094e+00 8.168954849243164062e-01 2.381270170211791992e+00
3.363000000000000000e+03 5.639081954956054688e+01 -2.109506416320800781e+01 -6.699588298797607422e-01 3.015858888626098633e+00 7.037700414657592773e-01 2.331494569778442383e+00
3.364000000000000000e+03 1.376995086669921875e+01 -3.334718322753906250e+01 3.703124122694134712e-03 7.870011177146807313e-05 1.134547288529574871e-03 2.707163104787468910e-03
3.365000000000000000e+03 5.545806407928466797e+00 -2.339045524597167969e+01 -2.003728877753019333e-05 -5.454193524201400578e-05 -2.237376793345902115e-05 3.311270120320841670e-05
3.366000000000000000e+03 4.869329452514648438e+00 -2.290139770507812500e+01 -6.043573739589191973e-05 1.373974228044971824e-04 2.308850707777310163e-05 3.571287015802226961e-05
3.367000000000000000e+03 6.353483200073242188e+01 -2.079472160339355469e+01 3.140405416488647461e-01 -3.274906575679779053e-01 -4.035035613924264908e-03 -5.035267397761344910e-02
3.368000000000000000e+03 8.162610054016113281e+00 -3.308930969238281250e+01 1.174332690425217152e-03 2.891784606617875397e-05 3.609751584008336067e-04 1.186195295304059982e-03
3.369000000000000000e+03 3.382241964340209961e+00 3.532347869873046875e+01 3.380767302587628365e-03 -6.176170706748962402e-01 -1.842708885669708252e-01 -7.445404771715402603e-03
3.370000000000000000e+03 4.408757781982421875e+01 3.182703781127929688e+01 -1.599409133195877075e-01 8.846466541290283203e-01 2.174117118120193481e-01 1.053736954927444458e-01
3.371000000000000000e+03 4.320904159545898438e+01 3.056688308715820312e+01 -1.274202466011047363e-01 9.789165258407592773e-01 2.554488778114318848e-01 9.600649774074554443e-02
3.372000000000000000e+03 7.547329902648925781e+00 -1.237051963806152344e+01 -1.581587821419816464e-05 2.075504744425415993e-05 1.481750359744182788e-06 -4.081822680745972320e-06
3.373000000000000000e+03 7.747179412841796875e+01 -2.206398200988769531e+01 1.060621365904808044e-01 7.548964500427246094e+00 2.296508073806762695e+00 5.916934609413146973e-01
3.374000000000000000e+03 6.818163299560546875e+01 -1.429125690460205078e+01 3.511501550674438477e-01 3.310308218002319336e+00 1.098437428474426270e+00 1.437342464923858643e-01
3.375000000000000000e+03 7.679621887207031250e+01 -2.777217292785644531e+01 4.429892599582672119e-01 7.789327621459960938e+00 2.469695091247558594e+00 -6.526696085929870605e-01
3.376000000000000000e+03 3.948115921020507812e+01 -1.460638618469238281e+01 -7.944624423980712891e-01 -2.560875713825225830e-01 -3.151650130748748779e-01 4.379500150680541992e-01
3.377000000000000000e+03 4.057240009307861328e+00 3.611500930786132812e+01 7.041928358376026154e-03 -5.838800668716430664e-01 -1.730514466762542725e-01 2.842763904482126236e-03
3.378000000000000000e+03 6.158370018005371094e+00 -1.399735927581787109e+01 2.149112333427183330e-05 -5.542934741242788732e-05 -1.018146758724469692e-05 -1.635148873901925981e-05
3.379000000000000000e+03 5.579797744750976562e+00 -2.237493515014648438e+01 -1.064831940311705694e-05 9.611627319827675819e-06 -3.110076534085237654e-07 -3.106805888819508255e-05
3.380000000000000000e+03 6.296445465087890625e+01 -2.023220825195312500e+01 1.104428172111511230e+00 8.710198849439620972e-02 3.574590682983398438e-01 3.632028698921203613e-01
3.381000000000000000e+03 6.262567138671875000e+01 -1.750425720214843750e+01 1.635694146156311035e+00 3.238549828529357910e-01 5.878646969795227051e-01 1.948951840400695801e+00
3.382000000000000000e+03 4.276342868804931641e+00 3.458728027343750000e+01 6.593652069568634033e-03 -5.549839138984680176e-01 -1.645170897245407104e-01 -9.026147890836000443e-04
3.383000000000000000e+03 7.680620574951171875e+01 -2.565775108337402344e+01 5.310847759246826172e-01 7.668066978454589844e+00 2.459745645523071289e+00 -1.167270019650459290e-01
3.384000000000000000e+03 6.994326019287109375e+01 -1.402933597564697266e+01 2.820551209151744843e-02 4.544312000274658203e+00 1.371755242347717285e+00 -1.428273767232894897e-01
3.385000000000000000e+03 7.741517639160156250e+01 1.578488922119140625e+01 -2.073365822434425354e-02 7.307410240173339844e+00 2.186002969741821289e+00 1.894991993904113770e-01
3.386000000000000000e+03 4.492972946166992188e+01 -1.048339843750000000e+01 9.510851502418518066e-01 8.403403759002685547e-01 5.374276638031005859e-01 -6.738036274909973145e-01
3.387000000000000000e+03 1.487108421325683594e+01 2.451286125183105469e+01 1.267986893653869629e-01 -1.657135635614395142e-01 -1.167446281760931015e-02 -2.237140201032161713e-02
3.388000000000000000e+03 3.929461669921875000e+01 -1.319294643402099609e+01 -4.051290452480316162e-01 -1.746508777141571045e-01 -1.739339828491210938e-01 3.733639419078826904e-01
3.389000000000000000e+03 7.526347351074218750e+01 8.671640396118164062e+00 -9.524414781481027603e-04 7.978830337524414062e+00 2.393363475799560547e+00 5.154111981391906738e-01
3.390000000000000000e+03 4.711164093017578125e+01 -2.541748809814453125e+01 9.672321379184722900e-02 -2.032245397567749023e-01 -3.195039555430412292e-02 -8.343997001647949219e-01
3.391000000000000000e+03 7.474079895019531250e+01 1.815205383300781250e+01 6.344069540500640869e-02 8.128294944763183594e+00 2.457520723342895508e+00 2.671415805816650391e-01
3.392000000000000000e+03 7.506097412109375000e+01 2.191084671020507812e+01 1.607264131307601929e-01 7.997282981872558594e+00 2.447402715682983398e+00 3.688587248325347900e-01
3.393000000000000000e+03 7.525726318359375000e+01 2.283843803405761719e+01 1.929150521755218506e-01 7.926198005676269531e+00 2.435733795166015625e+00 4.142674207687377930e-01
3.394000000000000000e+03 4.456148910522460938e+01 -1.486157226562500000e+01 -1.636294573545455933e-01 2.347319275140762329e-01 2.133074030280113220e-02 5.153207778930664062e-01
3.395000000000000000e+03 4.467290496826171875e+01 -1.557899761199951172e+01 -6.199588775634765625e-01 2.714094221591949463e-01 -1.045648455619812012e-01 6.811457276344299316e-01
3.396000000000000000e+03 8.958713531494140625e+00 7.017179489135742188e+00 -2.890826202929019928e-02 -3.343377709388732910e-01 -1.089738085865974426e-01 3.210542500019073486e-01
3.397000000000000000e+03 3.929409027099609375e+01 -1.240738105773925781e+01 -2.281940132379531860e-01 -8.365289866924285889e-02 -9.355407208204269409e-02 2.954731583595275879e-01
3.398000000000000000e+03 7.457260894775390625e+01 2.253790473937988281e+01 2.135779261589050293e-01 8.039277076721191406e+00 2.475856542587280273e+00 3.612595200538635254e-01
3.399000000000000000e+03 7.494249725341796875e+01 9.942844390869140625e+00 -1.369806379079818726e-01 8.185630798339843750e+00 2.414594888687133789e+00 4.552688300609588623e-01
3.400000000000000000e+03 3.219838714599609375e+01 2.291459465026855469e+01 1.743475645780563354e-01 8.766245841979980469e-01 3.152916431427001953e-01 -2.791185379028320312e-01
3.401000000000000000e+03 3.418901443481445312e+01 2.406815910339355469e+01 9.809474647045135498e-02 1.000023365020751953e+00 3.294354379177093506e-01 -2.421910464763641357e-01
3.402000000000000000e+03 4.817935180664062500e+01 -2.545958328247070312e+01 2.001924812793731689e-01 4.866980016231536865e-02 7.465868443250656128e-02 -7.711001634597778320e-01
3.403000000000000000e+03 7.376619720458984375e+01 2.398202896118164062e+01 2.906169593334197998e-01 8.002859115600585938e+00 2.488042831420898438e+00 3.586609661579132080e-01
3.404000000000000000e+03 7.525146484375000000e+01 2.439623641967773438e+01 2.085880637168884277e-01 7.877786636352539062e+00 2.425912380218505859e+00 5.136660933494567871e-01
3.405000000000000000e+03 3.401864624023437500e+01 2.261596870422363281e+01 1.598346531391143799e-01 1.028430819511413574e+00 3.564796447753906250e-01 -2.593418359756469727e-01
3.406000000000000000e+03 7.439957427978515625e+01 2.448672866821289062e+01 2.966292500495910645e-01 7.913465976715087891e+00 2.463028669357299805e+00 4.591559767723083496e-01
3.407000000000000000e+03 7.121571350097656250e+01 -1.479604625701904297e+01 -1.834443360567092896e-01 5.190780639648437500e+00 1.502200961112976074e+00 -3.981824517250061035e-01
3.408000000000000000e+03 8.686801910400390625e+00 6.236720085144042969e+00 -6.256324052810668945e-02 -3.048553466796875000e-01 -1.102255731821060181e-01 3.186170458793640137e-01
3.409000000000000000e+03 9.582396507263183594e+00 8.782557487487792969e+00 3.457816690206527710e-02 -3.767287433147430420e-01 -1.026451736688613892e-01 3.091398179531097412e-01
3.410000000000000000e+03 1.427448844909667969e+01 -7.232811450958251953e+00 -7.830171853129286319e-06 -5.166241976439778227e-07 -2.504038775441586040e-06 3.275790959378355183e-06
3.411000000000000000e+03 7.443879699707031250e+01 -1.191180706024169922e+01 -2.136134356260299683e-01 6.757403373718261719e+00 1.963136911392211914e+00 -3.791544139385223389e-01
3.412000000000000000e+03 7.290922546386718750e+01 -1.031630897521972656e+01 -1.749335378408432007e-01 6.380421638488769531e+00 1.861646413803100586e+00 -2.373758256435394287e-01
3.413000000000000000e+03 1.340232181549072266e+01 -7.602152824401855469e+00 -6.943162134120939299e-06 -2.659831579876481555e-06 -2.880898136936593801e-06 5.493538992595858872e-06
3.414000000000000000e+03 7.915754795074462891e+00 6.497888565063476562e+00 -5.142943561077117920e-02 -2.904489338397979736e-01 -1.025635153055191040e-01 2.986249625682830811e-01
3.415000000000000000e+03 3.338983154296875000e+01 1.975258064270019531e+01 2.876840233802795410e-01 1.006368041038513184e+00 3.882156014442443848e-01 -3.116291165351867676e-01
3.416000000000000000e+03 7.618473052978515625e+01 2.415638351440429688e+01 1.510330438613891602e-01 7.874349117279052734e+00 2.407614469528198242e+00 4.749087691307067871e-01
3.417000000000000000e+03 3.369584655761718750e+01 -8.199458122253417969e+00 -1.585380733013153076e-01 4.468554630875587463e-02 -3.415575623512268066e-02 4.154701828956604004e-01
3.418000000000000000e+03 5.713312625885009766e+00 2.690074157714843750e+01 2.114582806825637817e-02 -5.033264756202697754e-01 -1.446541845798492432e-01 1.361125521361827850e-02
3.419000000000000000e+03 3.172883605957031250e+01 -6.549515247344970703e+00 -1.931721419095993042e-01 3.549542278051376343e-02 -4.730301722884178162e-02 3.993871510028839111e-01
3.420000000000000000e+03 3.530649948120117188e+01 1.224878406524658203e+01 5.963697433471679688e-01 1.297702670097351074e+00 5.682217478752136230e-01 -3.684694170951843262e-01
3.421000000000000000e+03 3.969705200195312500e+01 -8.423002243041992188e+00 3.520394861698150635e-01 4.030619263648986816e-01 2.265304177999496460e-01 -1.525261551141738892e-01
3.422000000000000000e+03 2.954875946044921875e+01 1.401251983642578125e+01 5.035857558250427246e-01 5.090834498405456543e-01 3.038007616996765137e-01 -2.724210321903228760e-01
3.423000000000000000e+03 2.888276863098144531e+01 -2.733449697494506836e+00 -1.234168633818626404e-01 -5.129496753215789795e-02 -5.241354927420616150e-02 2.644481062889099121e-01
3.424000000000000000e+03 1.235855102539062500e+01 1.715090751647949219e+01 1.717052310705184937e-01 -3.468450605869293213e-01 -5.254194512963294983e-02 1.226096004247665405e-01
3.425000000000000000e+03 7.005563735961914062e+00 1.609121131896972656e+01 7.199517637491226196e-02 -4.277622401714324951e-01 -1.067301183938980103e-01 1.539004892110824585e-01
3.426000000000000000e+03 3.088138389587402344e+01 -4.526724338531494141e+00 -1.196589916944503784e-01 6.171865761280059814e-02 -1.738210022449493408e-02 2.982836365699768066e-01
3.427000000000000000e+03 3.044241142272949219e+01 1.036632919311523438e+01 5.700882673263549805e-01 5.306459665298461914e-01 3.302202820777893066e-01 -2.393738627433776855e-01
3.428000000000000000e+03 1.502039146423339844e+01 1.539255142211914062e+01 2.424107640981674194e-01 -3.224393427371978760e-01 -2.400857023894786835e-02 1.133611723780632019e-01
3.429000000000000000e+03 2.946545410156250000e+01 9.988415718078613281e+00 5.405636429786682129e-01 3.984632492065429688e-01 2.817080616950988770e-01 -2.032727748155593872e-01
3.430000000000000000e+03 2.773546981811523438e+01 1.788744926452636719e+00 1.531966328620910645e-01 -2.783598937094211578e-02 3.760819509625434875e-02 8.978437632322311401e-02
3.431000000000000000e+03 1.945493125915527344e+01 1.161360931396484375e+01 3.323576450347900391e-01 -3.026117384433746338e-01 8.923776447772979736e-03 7.871475070714950562e-02
3.432000000000000000e+03 3.541765594482421875e+01 -4.825757980346679688e+00 1.480252295732498169e-01 4.026139080524444580e-01 1.651917397975921631e-01 4.371206462383270264e-02
3.433000000000000000e+03 1.878847122192382812e+01 8.455280303955078125e+00 2.462689727544784546e-01 -4.238717257976531982e-01 -5.328082293272018433e-02 1.794604510068893433e-01
3.434000000000000000e+03 2.511118316650390625e+01 5.132959365844726562e+00 2.806063294410705566e-01 -1.751766949892044067e-01 3.162888810038566589e-02 5.440642684698104858e-02
3.435000000000000000e+03 1.605741500854492188e+01 -3.611289262771606445e+00 3.210447857782128267e-06 4.416587216837797314e-06 2.288110636072815396e-06 3.123800752291572280e-06
3.436000000000000000e+03 1.562254238128662109e+01 -4.210125446319580078e+00 -3.975032086600549519e-06 -3.815222498815273866e-06 -2.337076466574217193e-06 -2.728320396272465587e-06
3.437000000000000000e+03 1.505074691772460938e+01 -3.785051584243774414e+00 3.922408268408617005e-06 4.189339961158111691e-06 2.433524286971078254e-06 2.064611408059136011e-06
3.438000000000000000e+03 1.676181221008300781e+01 -5.065579891204833984e+00 -4.594736310536973178e-06 -4.181094482191838324e-06 -2.632749328768113628e-06 -3.273008587711956352e-06
3.439000000000000000e+03 1.619318008422851562e+01 -4.636556148529052734e+00 4.393501967570045963e-06 4.038057340949308127e-06 2.529467792555806227e-06 2.848400072252843529e-06
3.440000000000000000e+03 1.723610115051269531e+01 -4.496263980865478516e+00 4.129806256969459355e-06 5.052310370956547558e-06 2.754635033852537163e-06 3.976482275902526453e-06
3.441000000000000000e+03 1.546591091156005859e+01 -3.171455383300781250e+00 -2.514548896215273999e-06 -4.159888248977949843e-06 -2.002331257244804874e-06 -2.756315552687738091e-06
3.442000000000000000e+03 1.664776039123535156e+01 -4.052479743957519531e+00 -3.513838919388945214e-06 -4.660490048991050571e-06 -2.452298758726101369e-06 -3.734378651643055491e-06
3.443000000000000000e+03 1.831977081298828125e+01 -5.492505550384521484e+00 4.805115622730227187e-06 5.158974090591073036e-06 2.989226913996390067e-06 4.455525868252152577e-06
3.444000000000000000e+03 1.780974006652832031e+01 -6.028855800628662109e+00 -4.475224159250501543e-06 -4.635808636521687731e-06 -2.733309884206391871e-06 -3.566202622096170671e-06
3.445000000000000000e+03 1.730055999755859375e+01 -5.529824733734130859e+00 4.742450983030721545e-06 4.718052423413610086e-06 2.838150976458564401e-06 3.239232228224864230e-06
3.446000000000000000e+03 1.831691551208496094e+01 -6.530111789703369141e+00 4.124226961721433327e-06 5.012321253161644563e-06 2.740964646363863721e-06 3.630583023550570942e-06
3.447000000000000000e+03 1.882190132141113281e+01 -7.033396244049072266e+00 -3.617563379521016032e-06 -5.404548119258834049e-06 -2.706633495108690113e-06 -3.656813760244403966e-06
3.448000000000000000e+03 1.936644935607910156e+01 -6.531159877777099609e+00 4.399077624839264899e-06 4.795957465830724686e-06 2.758510618150467053e-06 4.104947038285899907e-06
3.449000000000000000e+03 1.779333305358886719e+01 -4.976417064666748047e+00 -4.431917204783530906e-06 -5.085131306259427220e-06 -2.855114644262357615e-06 -4.345285560702905059e-06
3.450000000000000000e+03 1.884420585632324219e+01 -6.010818481445312500e+00 -4.630533567251404747e-06 -4.980059202353004366e-06 -2.883177785406587645e-06 -4.552241534838685766e-06
3.451000000000000000e+03 2.031454658508300781e+01 -7.659852027893066406e+00 2.607052465464221314e-06 3.605445272114593536e-06 1.863749275798909366e-06 2.756229150691069663e-06
3.452000000000000000e+03 2.077073287963867188e+01 -8.240385055541992188e+00 -1.931110546138370410e-06 -2.681978230612003244e-06 -1.383926587550377008e-06 -1.760554823704296723e-06
3.453000000000000000e+03 1.929654693603515625e+01 -7.565644741058349609e+00 2.418182020846870728e-06 5.829715973959537223e-06 2.474369466654025018e-06 3.623636757765780203e-06
3.454000000000000000e+03 2.062350273132324219e+01 -9.254287719726562500e+00 -2.497059313100180589e-06 -4.068213002028642222e-06 -1.969581717276014388e-06 -1.150156208495900501e-06
3.455000000000000000e+03 2.018299865722656250e+01 -8.690117835998535156e+00 1.806568775464256760e-06 5.416121439338894561e-06 2.166807007597526535e-06 1.916599785545258783e-06
3.456000000000000000e+03 1.974063491821289062e+01 -8.127175331115722656e+00 -1.810800426937930752e-06 -5.874089765711687505e-06 -2.305466978214099072e-06 -2.884496552724158391e-06
3.457000000000000000e+03 2.122505760192871094e+01 -8.822144508361816406e+00 1.582616164341743570e-06 1.771843813003215473e-06 1.006338038678222802e-06 1.131530666498292703e-06
3.458000000000000000e+03 1.985663604736328125e+01 -7.080731868743896484e+00 -3.597491286200238392e-06 -4.166396593063836917e-06 -2.329166363779222593e-06 -3.678808980112080462e-06
3.459000000000000000e+03 2.203341293334960938e+01 -1.005728912353515625e+01 1.478351691730495077e-06 9.937116374203469604e-07 7.416190328513039276e-07 5.972979693069646601e-07
3.460000000000000000e+03 2.140859222412109375e+01 -1.045394611358642578e+01 -2.083014123854809441e-06 -2.640509364937315695e-06 -1.417056978425534908e-06 -1.067315906766452827e-06
3.461000000000000000e+03 2.103163337707519531e+01 -9.842617988586425781e+00 2.677845486687147059e-06 2.892504426199593581e-06 1.671104996603389736e-06 1.273624661735084374e-06
3.462000000000000000e+03 2.178438568115234375e+01 -1.106581783294677734e+01 2.201779579991125502e-06 2.063285364783951081e-06 1.279519437957787886e-06 5.098851829643535893e-07
3.463000000000000000e+03 2.215780448913574219e+01 -1.167914867401123047e+01 -1.972171958186663687e-06 -2.056707671727053821e-06 -1.208663888974115252e-06 -1.498411279499123339e-07
3.464000000000000000e+03 2.280443191528320312e+01 -1.131808185577392578e+01 1.884864218482107390e-06 1.024348762257432099e-06 8.727639055905456189e-07 2.558156779741693754e-07
3.465000000000000000e+03 2.164555168151855469e+01 -9.428166389465332031e+00 -1.399111965838528704e-06 -1.288134512833494227e-06 -8.061739436016068794e-07 -8.088686627161223441e-07
3.466000000000000000e+03 2.242011070251464844e+01 -1.068695640563964844e+01 -1.266554932044527959e-06 -7.769700687276781537e-07 -6.130574661256105173e-07 -7.136206932045752183e-07
3.467000000000000000e+03 2.317674064636230469e+01 -1.199929141998291016e+01 -2.028798007813747972e-06 -2.959228595500462689e-07 -6.974162829465058167e-07 -6.531158760481048375e-07
3.468000000000000000e+03 2.284523010253906250e+01 -1.300796508789062500e+01 -3.186017011103103869e-06 4.442648560143425129e-07 -8.225256351579446346e-07 -7.255197260747081600e-07
3.469000000000000000e+03 2.406083297729492188e+01 -1.497063064575195312e+01 -6.467207640525884926e-07 -8.382788223570969421e-07 -4.454998645542218583e-07 -9.927834980771876872e-07
3.470000000000000000e+03 2.462505912780761719e+01 -1.485978507995605469e+01 -3.435393637118977495e-06 3.707877169745188439e-07 -9.193818186759017408e-07 5.703640795218234416e-07
3.471000000000000000e+03 2.389264106750488281e+01 -1.346117115020751953e+01 -2.738878208674577763e-07 -1.477776663705299143e-06 -5.254993311609723605e-07 -1.164373912843075232e-07
3.472000000000000000e+03 2.353559875488281250e+01 -1.273112678527832031e+01 9.281617963097232860e-07 6.274600536926300265e-07 4.666865720537316520e-07 1.183794893222511746e-06
3.473000000000000000e+03 2.488323020935058594e+01 -1.545215702056884766e+01 1.906872284962446429e-06 2.971185040223645046e-07 6.611972480641270522e-07 2.295367238502876717e-07
3.474000000000000000e+03 2.424729537963867188e+01 -1.417472362518310547e+01 2.084295374515932053e-06 9.372909062221879140e-07 9.064758614840684459e-07 -1.264127035938145127e-06
3.475000000000000000e+03 2.350594520568847656e+01 -1.435108280181884766e+01 -1.267872107746370602e-06 -4.845760031457757577e-06 -1.834089630392554682e-06 9.932811053658952005e-07
3.476000000000000000e+03 2.317678260803222656e+01 -1.368776988983154297e+01 3.030246944035752676e-06 2.501975814084289595e-06 1.659666850173380226e-06 2.095572881444240920e-06
3.477000000000000000e+03 2.251189041137695312e+01 -1.232635593414306641e+01 1.559003521833801642e-06 1.435122953807876911e-06 8.982379426925035659e-07 -4.635663231056241784e-07
3.478000000000000000e+03 2.456154632568359375e+01 -1.316923522949218750e+01 -2.599523961544036865e-01 -7.670357823371887207e-01 -3.080964386463165283e-01 4.515357613563537598e-01
3.479000000000000000e+03 2.482023620605468750e+01 -1.197365283966064453e+01 -4.522099792957305908e-01 -7.886161208152770996e-01 -3.722478449344635010e-01 6.358013153076171875e-01
3.480000000000000000e+03 2.650333786010742188e+01 -1.565426826477050781e+01 -3.608973622322082520e-01 -2.249058187007904053e-01 -1.757409572601318359e-01 3.514303565025329590e-01
3.481000000000000000e+03 2.385268974304199219e+01 -1.163848972320556641e+01 -4.081926345825195312e-01 -1.156204819679260254e+00 -4.693192243576049805e-01 6.538717150688171387e-01
3.482000000000000000e+03 2.484836769104003906e+01 -1.395820903778076172e+01 -2.158911526203155518e-01 -6.323723196983337402e-01 -2.544790208339691162e-01 3.545183539390563965e-01
3.483000000000000000e+03 2.532261657714843750e+01 -1.399315357208251953e+01 -3.081680536270141602e-01 -5.017012953758239746e-01 -2.429607957601547241e-01 4.419440925121307373e-01
3.484000000000000000e+03 2.568108749389648438e+01 -1.559443092346191406e+01 -1.320604830980300903e-01 -1.609885990619659424e-01 -8.791472762823104858e-02 1.704976707696914673e-01
3.485000000000000000e+03 2.449533462524414062e+01 -1.126426315307617188e+01 -5.188673138618469238e-01 -8.667924404144287109e-01 -4.156979024410247803e-01 6.737734079360961914e-01
3.486000000000000000e+03 2.516623687744140625e+01 -1.270689773559570312e+01 -3.851752579212188721e-01 -6.673293113708496094e-01 -3.157513737678527832e-01 5.651999115943908691e-01
3.487000000000000000e+03 2.556309509277343750e+01 -1.336782169342041016e+01 -3.666847944259643555e-01 -5.153281092643737793e-01 -2.646038830280303955e-01 5.144280791282653809e-01
3.488000000000000000e+03 2.595065307617187500e+01 -1.390986061096191406e+01 -3.827558457851409912e-01 -4.117476046085357666e-01 -2.383510321378707886e-01 5.082582831382751465e-01
3.489000000000000000e+03 2.620536613464355469e+01 -1.446394062042236328e+01 -3.347092866897583008e-01 -3.346350789070129395e-01 -2.008033096790313721e-01 4.648541808128356934e-01
3.490000000000000000e+03 2.637091255187988281e+01 -1.507584285736083984e+01 -3.223521411418914795e-01 -2.436572760343551636e-01 -1.698028296232223511e-01 3.995606303215026855e-01
3.491000000000000000e+03 2.638264656066894531e+01 -1.612632179260253906e+01 -2.828963994979858398e-01 -1.168929114937782288e-01 -1.199367940425872803e-01 1.841074228286743164e-01
3.492000000000000000e+03 2.419656753540039062e+01 -1.239193534851074219e+01 -2.937557697296142578e-01 -9.547124505043029785e-01 -3.745404481887817383e-01 5.444641709327697754e-01
3.493000000000000000e+03 2.512793922424316406e+01 -1.461182594299316406e+01 -1.392157077789306641e-01 -4.203565418720245361e-01 -1.678716689348220825e-01 2.607047855854034424e-01
3.494000000000000000e+03 2.566095924377441406e+01 -1.495156669616699219e+01 -2.004581242799758911e-01 -3.119113147258758545e-01 -1.537108272314071655e-01 3.100164532661437988e-01
3.495000000000000000e+03 2.577541732788085938e+01 -1.432993030548095703e+01 -3.100994527339935303e-01 -4.026678800582885742e-01 -2.138302028179168701e-01 4.505218565464019775e-01
3.496000000000000000e+03 2.269077491760253906e+01 -9.641036033630371094e+00 -5.761888027191162109e-01 -1.330189824104309082e+00 -5.719135999679565430e-01 8.732637166976928711e-01
3.497000000000000000e+03 2.348543930053710938e+01 -1.093805503845214844e+01 -4.996591806411743164e-01 -1.239273667335510254e+00 -5.216798782348632812e-01 7.610310316085815430e-01
3.498000000000000000e+03 2.229273414611816406e+01 -8.991255760192871094e+00 -7.066836953163146973e-01 -1.426139593124389648e+00 -6.398469805717468262e-01 9.571880698204040527e-01
3.499000000000000000e+03 2.308835411071777344e+01 -1.029005146026611328e+01 -5.365260839462280273e-01 -1.258595943450927734e+00 -5.385366082191467285e-01 8.139229416847229004e-01
3.500000000000000000e+03 2.413209533691406250e+01 -1.057697391510009766e+01 -5.538418889045715332e-01 -9.766338467597961426e-01 -4.591427147388458252e-01 7.038041949272155762e-01
3.501000000000000000e+03 2.290665245056152344e+01 -8.576805114746093750e+00 -7.248706221580505371e-01 -1.121154427528381348e+00 -5.538074970245361328e-01 8.382380604743957520e-01
3.502000000000000000e+03 2.331559562683105469e+01 -9.244379997253417969e+00 -6.632284522056579590e-01 -1.105319142341613770e+00 -5.305642485618591309e-01 8.300805091857910156e-01
3.503000000000000000e+03 2.372407913208007812e+01 -9.911190032958984375e+00 -5.807916522026062012e-01 -1.069546580314636230e+00 -4.951014518737792969e-01 7.749072909355163574e-01
3.504000000000000000e+03 2.091797065734863281e+01 -7.169854164123535156e+00 -8.562433123588562012e-01 -1.319638609886169434e+00 -6.527645587921142578e-01 1.055608391761779785e+00
3.505000000000000000e+03 2.044657707214355469e+01 -6.570147991180419922e+00 -9.904757738113403320e-01 -1.348672270774841309e+00 -7.017443776130676270e-01 1.102674245834350586e+00
3.506000000000000000e+03 2.138868331909179688e+01 -7.768980979919433594e+00 -8.264696002006530762e-01 -1.317621231079101562e+00 -6.432272195816040039e-01 1.031944394111633301e+00
3.507000000000000000e+03 2.185866355895996094e+01 -8.367236137390136719e+00 -8.076372146606445312e-01 -1.399289011955261230e+00 -6.620778441429138184e-01 1.021915316581726074e+00
3.508000000000000000e+03 2.246022033691406250e+01 -7.935092449188232422e+00 -7.452352643013000488e-01 -1.174024701118469238e+00 -5.757780075073242188e-01 8.549874424934387207e-01
3.509000000000000000e+03 2.100666618347167969e+01 -6.085235118865966797e+00 -9.032728075981140137e-01 -1.119088172912597656e+00 -6.067082881927490234e-01 9.126709103584289551e-01
3.510000000000000000e+03 2.149188232421875000e+01 -6.702531337738037109e+00 -8.599261045455932617e-01 -1.153532266616821289e+00 -6.040375232696533203e-01 9.430236220359802246e-01
3.511000000000000000e+03 2.197641754150390625e+01 -7.319247722625732422e+00 -7.767789959907531738e-01 -1.193884968757629395e+00 -5.911992192268371582e-01 9.178291559219360352e-01
3.512000000000000000e+03 1.885587120056152344e+01 -4.930348396301269531e+00 -1.073437809944152832e+00 -1.063016891479492188e+00 -6.409363746643066406e-01 1.058635950088500977e+00
3.513000000000000000e+03 1.831238174438476562e+01 -4.393686294555664062e+00 -1.184665441513061523e+00 -1.047558069229125977e+00 -6.696670651435852051e-01 1.060364961624145508e+00
3.514000000000000000e+03 1.939846801757812500e+01 -5.466702461242675781e+00 -1.069374918937683105e+00 -1.104060053825378418e+00 -6.520304679870605469e-01 1.074151277542114258e+00
3.515000000000000000e+03 1.994004440307617188e+01 -6.002428531646728516e+00 -1.084708690643310547e+00 -1.247691631317138672e+00 -6.997200846672058105e-01 1.114313602447509766e+00
3.516000000000000000e+03 2.048459243774414062e+01 -5.500192165374755859e+00 -9.021287560462951660e-01 -1.123723864555358887e+00 -6.077557802200317383e-01 9.091182947158813477e-01
3.517000000000000000e+03 1.880515289306640625e+01 -3.840278863906860352e+00 -1.000710010528564453e+00 -9.337584376335144043e-01 -5.803405046463012695e-01 8.681326508522033691e-01
3.518000000000000000e+03 1.936590194702148438e+01 -4.393997669219970703e+00 -9.944977164268493652e-01 -9.909700751304626465e-01 -5.956403613090515137e-01 9.329392313957214355e-01
3.519000000000000000e+03 1.992575645446777344e+01 -4.947409152984619141e+00 -9.305436611175537109e-01 -1.081953406333923340e+00 -6.037490963935852051e-01 9.489012956619262695e-01
3.520000000000000000e+03 1.695117187500000000e+01 -2.380243301391601562e+00 -1.001207470893859863e+00 -7.186160683631896973e-01 -5.159470438957214355e-01 7.996329665184020996e-01
3.521000000000000000e+03 1.651630020141601562e+01 -2.979079723358154297e+00 -1.140285730361938477e+00 -6.968392729759216309e-01 -5.511375069618225098e-01 8.810885548591613770e-01
3.522000000000000000e+03 1.590384101867675781e+01 -2.523920059204101562e+00 -1.187706112861633301e+00 -6.607425808906555176e-01 -5.545346140861511230e-01 8.430479764938354492e-01
3.523000000000000000e+03 1.712716102600097656e+01 -3.436568260192871094e+00 -1.176980972290039062e+00 -7.529436349868774414e-01 -5.789774060249328613e-01 9.303797483444213867e-01
3.524000000000000000e+03 1.758174324035644531e+01 -2.852491855621337891e+00 -9.823747873306274414e-01 -8.264113664627075195e-01 -5.426358580589294434e-01 8.525140285491943359e-01
3.525000000000000000e+03 1.773609352111816406e+01 -3.896142244338989258e+00 -1.242902278900146484e+00 -9.136820435523986816e-01 -6.469752788543701172e-01 1.014481306076049805e+00
3.526000000000000000e+03 1.821038436889648438e+01 -3.326825857162475586e+00 -9.698825478553771973e-01 -9.069597721099853516e-01 -5.630527138710021973e-01 8.453459739685058594e-01
3.527000000000000000e+03 1.631900405883789062e+01 -1.910323858261108398e+00 -9.649592041969299316e-01 -6.633923053741455078e-01 -4.885054528713226318e-01 7.237046957015991211e-01
3.528000000000000000e+03 1.460399055480957031e+01 -1.730789542198181152e+00 -1.081903100013732910e+00 -4.266632497310638428e-01 -4.525699317455291748e-01 6.711639165878295898e-01
3.529000000000000000e+03 1.394003677368164062e+01 -1.356149435043334961e+00 -1.012548446655273438e+00 -3.818366527557373047e-01 -4.183155298233032227e-01 6.137619614601135254e-01
3.530000000000000000e+03 1.327490711212158203e+01 -9.841976165771484375e-01 -1.002767682075500488e+00 -3.511941134929656982e-01 -4.061885476112365723e-01 5.619074702262878418e-01
3.531000000000000000e+03 1.429506587982177734e+01 -7.068015336990356445e-01 -8.745263218879699707e-01 -4.491569399833679199e-01 -3.971049785614013672e-01 5.963348746299743652e-01
3.532000000000000000e+03 1.497913169860839844e+01 -1.092790365219116211e+00 -8.982453346252441406e-01 -5.367112159729003906e-01 -4.304869771003723145e-01 6.641329526901245117e-01
3.533000000000000000e+03 1.526644039154052734e+01 -2.107936620712280273e+00 -1.184029698371887207e+00 -5.492628216743469238e-01 -5.199877619743347168e-01 7.646101117134094238e-01
3.534000000000000000e+03 1.566169452667236328e+01 -1.481285929679870605e+00 -9.123916625976562500e-01 -6.205343604087829590e-01 -4.598777890205383301e-01 6.877828836441040039e-01
3.535000000000000000e+03 1.360982322692871094e+01 -3.235010504722595215e-01 -8.098843693733215332e-01 -4.079899489879608154e-01 -3.653622865676879883e-01 5.286412239074707031e-01
3.536000000000000000e+03 1.136861705780029297e+01 6.672526597976684570e-01 -6.656022667884826660e-01 -2.439738512039184570e-01 -2.728728353977203369e-01 3.647708892822265625e-01
3.537000000000000000e+03 1.043688488006591797e+01 2.462611943483352661e-01 -7.711521983146667480e-01 -1.692664772272109985e-01 -2.821255922317504883e-01 2.932040691375732422e-01
3.538000000000000000e+03 1.187135696411132812e+01 -3.428127467632293701e-01 -8.411777019500732422e-01 -2.042884528636932373e-01 -3.136398494243621826e-01 4.041694700717926025e-01
3.539000000000000000e+03 1.258574008941650391e+01 -6.459255814552307129e-01 -9.508868455886840820e-01 -2.777867615222930908e-01 -3.686020970344543457e-01 4.851022958755493164e-01
3.540000000000000000e+03 1.288842964172363281e+01 2.964896708726882935e-02 -7.461311817169189453e-01 -3.681849539279937744e-01 -3.342948257923126221e-01 4.855440855026245117e-01
3.541000000000000000e+03 1.060655117034912109e+01 9.770575761795043945e-01 -5.490510463714599609e-01 -2.326795905828475952e-01 -2.345191836357116699e-01 2.992986142635345459e-01
3.542000000000000000e+03 1.212970542907714844e+01 3.511690795421600342e-01 -7.023509740829467773e-01 -2.995990514755249023e-01 -3.005850017070770264e-01 4.454919397830963135e-01
3.543000000000000000e+03 1.115460968017578125e+01 -4.513646289706230164e-02 -7.661540508270263672e-01 -1.718051880598068237e-01 -2.813877761363983154e-01 3.583483397960662842e-01
3.544000000000000000e+03 9.852642059326171875e+00 1.127630591392517090e+00 -4.738112688064575195e-01 -1.883055865764617920e-01 -1.986350566148757935e-01 2.937807738780975342e-01
3.545000000000000000e+03 8.934872627258300781e+00 3.838182985782623291e-01 -4.189561009407043457e-01 -8.089725859463214874e-03 -1.281137466430664062e-01 7.535440474748611450e-02
3.546000000000000000e+03 8.173450469970703125e+00 3.805501461029052734e-01 -2.892173528671264648e-01 -1.257812604308128357e-02 -9.053864330053329468e-02 5.222682654857635498e-02
3.547000000000000000e+03 7.412311553955078125e+00 3.753647208213806152e-01 -1.982405781745910645e-01 -4.119266290217638016e-03 -6.070795282721519470e-02 3.670041263103485107e-02
3.548000000000000000e+03 6.650998592376708984e+00 3.733136355876922607e-01 -1.310282200574874878e-01 -4.307706374675035477e-03 -4.060078039765357971e-02 2.738573960959911346e-02
3.549000000000000000e+03 5.128288269042968750e+00 3.666210770606994629e-01 -4.374520853161811829e-02 -2.697436604648828506e-03 -1.393279340118169785e-02 1.493091508746147156e-02
3.550000000000000000e+03 4.367394924163818359e+00 3.671234846115112305e-01 -1.740293763577938080e-02 -1.819875673390924931e-03 -5.766843911260366440e-03 1.026901695877313614e-02
3.551000000000000000e+03 2.846046209335327148e+00 3.605891168117523193e-01 9.555721655488014221e-03 -2.205054741352796555e-03 2.205200027674436569e-03 2.790252910926938057e-03
3.552000000000000000e+03 2.087270975112915039e+00 3.584179878234863281e-01 1.094843354076147079e-02 -9.767183801159262657e-04 2.991514513269066811e-03 -3.111652331426739693e-04
3.553000000000000000e+03 2.412721395492553711e+00 1.098417997360229492e+00 -9.447522461414337158e-03 -8.294018916785717010e-03 -5.322462413460016251e-03 6.174347829073667526e-03
3.554000000000000000e+03 1.340976357460021973e+00 3.674286305904388428e-01 6.351270247250795364e-03 -1.109260017983615398e-03 1.572603126987814903e-03 -2.702654339373111725e-03
3.555000000000000000e+03 1.683374881744384766e+00 1.107428669929504395e+00 -2.537311753258109093e-03 -5.286467727273702621e-03 -2.347133820876479149e-03 -1.066563185304403305e-03
3.556000000000000000e+03 6.602545380592346191e-01 3.962357640266418457e-01 2.118451055139303207e-03 9.581352933309972286e-04 9.229758870787918568e-04 -1.729469979181885719e-03
3.557000000000000000e+03 3.572900295257568359e-01 9.584811329841613770e-01 -4.971043745172210038e-05 3.998080268502235413e-03 1.184510998427867889e-03 -2.187295816838741302e-03
3.558000000000000000e+03 3.154548645019531250e+00 1.100589156150817871e+00 -2.166278474032878876e-02 -8.319330401718616486e-03 -8.994634263217449188e-03 1.564693078398704529e-02
3.559000000000000000e+03 3.606354475021362305e+00 3.667278885841369629e-01 3.688049619086086750e-04 -1.275174785405397415e-03 -2.719109470490366220e-04 7.043720688670873642e-03
3.560000000000000000e+03 5.385946273803710938e+00 1.106621026992797852e+00 -9.414967894554138184e-02 -1.192190498113632202e-02 -3.182147443294525146e-02 5.144135653972625732e-02
3.561000000000000000e+03 5.889441967010498047e+00 3.716917037963867188e-01 -8.105406165122985840e-02 -2.438639523461461067e-03 -2.504781074821949005e-02 2.072824351489543915e-02
3.562000000000000000e+03 7.619125843048095703e+00 1.115364670753479004e+00 -2.540715336799621582e-01 -3.181001916527748108e-02 -8.576446026563644409e-02 1.171143203973770142e-01
3.563000000000000000e+03 8.363317489624023438e+00 1.120550155639648438e+00 -3.357435762882232666e-01 -3.779627382755279541e-02 -1.120619475841522217e-01 1.534779071807861328e-01
3.564000000000000000e+03 9.107789993286132812e+00 1.123818278312683105e+00 -4.454221129417419434e-01 -9.705654531717300415e-02 -1.627435982227325439e-01 2.336789667606353760e-01
3.565000000000000000e+03 9.696672439575195312e+00 3.876306116580963135e-01 -6.513422727584838867e-01 -9.515038877725601196e-02 -2.239478081464767456e-01 1.645418107509613037e-01
3.566000000000000000e+03 6.874760627746582031e+00 1.113313674926757812e+00 -1.880339980125427246e-01 -1.804265193641185760e-02 -6.182299554347991943e-02 8.838016539812088013e-02
3.567000000000000000e+03 6.130152225494384766e+00 1.111691713333129883e+00 -1.356970220804214478e-01 -1.634775102138519287e-02 -4.561343416571617126e-02 6.816592067480087280e-02
3.568000000000000000e+03 4.642001152038574219e+00 1.107123494148254395e+00 -6.217356771230697632e-02 -1.138615049421787262e-02 -2.206791564822196960e-02 3.801295161247253418e-02
3.569000000000000000e+03 3.897908926010131836e+00 1.106727957725524902e+00 -3.916629776358604431e-02 -8.879263885319232941e-03 -1.441366877406835556e-02 2.564586885273456573e-02
3.570000000000000000e+03 1.019601225852966309e+00 1.136235833168029785e+00 -1.220796402776613832e-04 -9.512176620773971081e-04 -3.219891805201768875e-04 -4.331038333475589752e-03
3.571000000000000000e+03 1.356510353088378906e+01 -2.044676303863525391e+00 1.654293555475305766e-06 4.691677531809546053e-06 1.903791371660190634e-06 1.880988293123664334e-06
3.572000000000000000e+03 1.321007442474365234e+01 -2.694024085998535156e+00 -2.027353048106306233e-06 -5.739637344959191978e-06 -2.330097231606487185e-06 -1.323093101746053435e-06
3.573000000000000000e+03 1.258673477172851562e+01 -2.342205762863159180e+00 1.841556468207272701e-06 7.256398930621799082e-06 2.729386551436618902e-06 1.279600155612570234e-06
3.574000000000000000e+03 1.420777034759521484e+01 -2.407426834106445312e+00 -1.709306388875120319e-06 -4.193995664536487311e-06 -1.770990593286114745e-06 -2.177639316869317554e-06
3.575000000000000000e+03 1.383262920379638672e+01 -3.045426130294799805e+00 2.919950475188670680e-06 4.840084784518694505e-06 2.328010623386944644e-06 1.353350057797797490e-06
3.576000000000000000e+03 1.445424365997314453e+01 -3.396085023880004883e+00 -3.130949835394858383e-06 -4.115160209039459005e-06 -2.173833081542397849e-06 -2.022559783654287457e-06
3.577000000000000000e+03 1.484949779510498047e+01 -2.769434452056884766e+00 2.242091341031482443e-06 4.151188022660790011e-06 1.917983809107681736e-06 2.320674639122444205e-06
3.578000000000000000e+03 1.292164993286132812e+01 -1.681509137153625488e+00 -1.230957195730297826e-06 -5.117672117194160819e-06 -1.904588771139970049e-06 -2.130854227289091796e-06
3.579000000000000000e+03 1.114702796936035156e+01 -1.674520134925842285e+00 2.618053713376866654e-06 8.350070856977254152e-06 3.290437234682030976e-06 2.561542942203232087e-06
3.580000000000000000e+03 1.155607700347900391e+01 -1.043098807334899902e+00 -1.579434297127590980e-06 -6.667458819720195606e-06 -2.474067969160387293e-06 -2.446168309688800946e-06
3.581000000000000000e+03 1.007052421569824219e+01 -1.379528045654296875e+00 -3.319575171190081164e-06 -4.538656867225654423e-06 -2.357469611524720676e-06 1.198616473629954271e-06
3.582000000000000000e+03 1.091052532196044922e+01 -7.195191383361816406e-01 1.555211042614246253e-06 7.934764653327874839e-06 2.846992629201849923e-06 3.063038548134500161e-06
3.583000000000000000e+03 1.189208316802978516e+01 -2.005299091339111328e+00 -1.132661623159947339e-06 -7.042702691251179203e-06 -2.452609351166756824e-06 -1.960294184755184688e-06
3.584000000000000000e+03 1.224500656127929688e+01 -1.350578069686889648e+00 1.531547127342491876e-06 5.306083494360791519e-06 2.051289129667566158e-06 2.154047933800029568e-06
3.585000000000000000e+03 1.012131404876708984e+01 -8.739756941795349121e-01 7.382151579804485664e-06 7.238157650135690346e-06 4.386092768982052803e-06 5.605737442238023505e-06
3.586000000000000000e+03 1.027311420440673828e+01 -4.096257984638214111e-01 -1.771163852026802488e-06 -6.981630576774477959e-06 -2.625838305903016590e-06 -2.991407200170215219e-06
3.587000000000000000e+03 1.058933448791503906e+01 -1.247088074684143066e+00 -3.138777174171991646e-06 -8.167605301423463970e-06 -3.391914788153371774e-06 -6.657226549577899277e-06
3.588000000000000000e+03 8.909210205078125000e+00 -3.212539851665496826e-01 7.930314495752099901e-06 -5.884017809876240790e-06 6.138891421869629994e-07 5.597469154849932238e-08
3.589000000000000000e+03 9.317807197570800781e+00 -1.205478549003601074e+00 7.974757636475260369e-07 9.720635716803371906e-06 3.155433432766585611e-06 4.336669917393010110e-06
3.590000000000000000e+03 9.460213661193847656e+00 -6.912539601325988770e-01 -1.267909738089656457e-05 3.377631117018609075e-07 -3.702400135807693005e-06 -6.183265213621780276e-06
3.591000000000000000e+03 8.266005516052246094e+00 -6.800254583358764648e-01 -1.454749963158974424e-05 -6.349300747388042510e-06 -6.269040113693336025e-06 -2.340774472031625919e-06
3.592000000000000000e+03 7.622209548950195312e+00 -4.054784178733825684e-01 9.858601515588816255e-06 1.081366099242586643e-05 6.201678843353874981e-06 8.633734069007914513e-06
3.593000000000000000e+03 6.825774669647216797e+00 -3.814763724803924561e-01 -4.443894340511178598e-06 -9.851385584624949843e-06 -4.288584023015573621e-06 -6.747757652192376554e-06
3.594000000000000000e+03 6.001619815826416016e+00 -3.739211261272430420e-01 6.318158284557284787e-06 9.194591257255524397e-06 4.653824817069107667e-06 6.974965799599885941e-06
3.595000000000000000e+03 5.174842834472656250e+00 -3.715220093727111816e-01 -5.331392912921728566e-06 -7.750071745249442756e-06 -3.924439624825026840e-06 -6.034218586137285456e-06
3.596000000000000000e+03 4.347759723663330078e+00 -3.725122809410095215e-01 5.081188191979890689e-06 6.018189196765888482e-06 3.329813353047939017e-06 4.899805844615912065e-06
3.597000000000000000e+03 3.520621299743652344e+00 -3.760701715946197510e-01 -3.859165644826134667e-06 -4.238067958794999868e-06 -2.429170081086340360e-06 -3.463149141680332832e-06
3.598000000000000000e+03 2.694509983062744141e+00 -3.805325925350189209e-01 2.919641474363743328e-06 2.367794650126597844e-06 1.586230837347102351e-06 2.413295533187920228e-06
3.599000000000000000e+03 1.143715500831604004e+00 -3.599454164505004883e-01 4.049786923587817000e-07 1.554947630211245269e-06 5.879778655071277171e-07 -5.134735943101986777e-07
3.600000000000000000e+03 4.021799862384796143e-01 -5.506002306938171387e-01 -6.098325115999614354e-07 -1.195296931655320805e-06 -5.415388386609265581e-07 -6.052782168808334973e-07
3.601000000000000000e+03 7.210693359375000000e-01 -1.099945425987243652e+00 -9.923249308485537767e-06 -2.281009528815047815e-06 -3.661277787614380941e-06 -3.270915840403176844e-06
3.602000000000000000e+03 8.506304740905761719e+00 -1.218084216117858887e+00 6.662084615527419373e-06 -1.831043846323154867e-05 -3.494506017887033522e-06 -6.161993724163039587e-07
3.603000000000000000e+03 7.803927898406982422e+00 -1.221213579177856445e+00 6.235607088456163183e-06 1.638437061046715826e-05 6.785993264202261344e-06 -7.685887339903274551e-07
3.604000000000000000e+03 7.101232528686523438e+00 -1.145478367805480957e+00 -8.804398021311499178e-06 -1.000500833470141515e-05 -5.642822088702814654e-06 -6.113350536907091737e-06
3.605000000000000000e+03 6.317089557647705078e+00 -1.121476411819458008e+00 6.483403012680355459e-06 8.886902833182830364e-06 4.611091753758955747e-06 7.195389116532169282e-06
3.606000000000000000e+03 5.505225658416748047e+00 -1.113921165466308594e+00 -6.977365956117864698e-06 -6.318759460555156693e-06 -3.988837761426111683e-06 -5.943432825006311759e-06
3.607000000000000000e+03 4.690740108489990234e+00 -1.111521959304809570e+00 7.417494089168030769e-06 4.728721251012757421e-06 3.643864602054236457e-06 4.861619800067273900e-06
3.608000000000000000e+03 3.875948190689086914e+00 -1.112512230873107910e+00 -6.111984475865028799e-06 -3.870307409670203924e-06 -2.994687520185834728e-06 -3.999140972155146301e-06
3.609000000000000000e+03 3.061101198196411133e+00 -1.116070151329040527e+00 6.959732672839891165e-06 2.937509179901098832e-06 2.969172555822296999e-06 3.733373205250245519e-06
3.610000000000000000e+03 2.247281074523925781e+00 -1.120532631874084473e+00 -6.005704562994651496e-06 -4.308927600504830480e-06 -3.094389739999314770e-06 -1.850338662734429818e-06
3.611000000000000000e+03 1.882497906684875488e+00 -3.807797729969024658e-01 -2.755226205408689566e-06 -9.764806918610702269e-07 -1.119512035074876621e-06 -7.272597599694563542e-07
3.612000000000000000e+03 9.580569267272949219e+00 -2.457754313945770264e-01 7.205282599898055196e-06 7.198744242487009615e-06 4.321208052715519443e-06 -1.393698425999900792e-06
3.613000000000000000e+03 1.447560310363769531e+00 -1.120779752731323242e+00 4.419466677063610405e-06 6.164425940369255841e-06 3.175167876179330051e-06 4.364590949990088120e-06
3.614000000000000000e+03 5.786980819702148438e+01 -1.816822052001953125e+01 1.247550773620605469e+01 7.911791801452636719e+00 6.116189479827880859e+00 9.179156303405761719e+00
3.615000000000000000e+03 5.787864685058593750e+01 -1.818556785583496094e+01 8.639632225036621094e+00 1.798608779907226562e+01 7.987716197967529297e+00 1.241683387756347656e+01
3.616000000000000000e+03 5.789068984985351562e+01 -1.820086288452148438e+01 7.428540706634521484e+00 2.552338409423828125e+01 9.885578155517578125e+00 1.205020713806152344e+01
3.617000000000000000e+03 5.790547943115234375e+01 -1.821352195739746094e+01 6.413533687591552734e+00 3.276439285278320312e+01 1.175337791442871094e+01 1.002838325500488281e+01
3.618000000000000000e+03 5.792245483398437500e+01 -1.822305870056152344e+01 6.263297557830810547e+00 3.857182312011718750e+01 1.345053577423095703e+01 6.772046089172363281e+00
3.619000000000000000e+03 5.794095611572265625e+01 -1.822910690307617188e+01 7.066987991333007812e+00 4.293444061279296875e+01 1.500042819976806641e+01 2.430419921875000000e+00
3.620000000000000000e+03 5.796028518676757812e+01 -1.823143959045410156e+01 9.004438400268554688e+00 4.527463912963867188e+01 1.628372383117675781e+01 -2.345609426498413086e+00
3.621000000000000000e+03 5.797969818115234375e+01 -1.822996330261230469e+01 1.236786270141601562e+01 4.557397842407226562e+01 1.738255310058593750e+01 -7.034057617187500000e+00
3.622000000000000000e+03 5.799845123291015625e+01 -1.822473526000976562e+01 1.652470588684082031e+01 4.381057739257812500e+01 1.810058403015136719e+01 -1.089434051513671875e+01
3.623000000000000000e+03 5.801583099365234375e+01 -1.821595764160156250e+01 2.177384567260742188e+01 4.080053329467773438e+01 1.877231407165527344e+01 -1.332892322540283203e+01
3.624000000000000000e+03 5.803116607666015625e+01 -1.820396423339843750e+01 2.681028175354003906e+01 3.663703918457031250e+01 1.903419685363769531e+01 -1.426090717315673828e+01
3.625000000000000000e+03 5.804387283325195312e+01 -1.818921470642089844e+01 3.150194931030273438e+01 3.281303787231445312e+01 1.929449653625488281e+01 -1.343176841735839844e+01
3.626000000000000000e+03 5.805346298217773438e+01 -1.817227363586425781e+01 3.490318298339843750e+01 2.904903221130371094e+01 1.918566513061523438e+01 -1.135874271392822266e+01
3.627000000000000000e+03 5.805957412719726562e+01 -1.815378952026367188e+01 3.738472366333007812e+01 2.736605453491210938e+01 1.942523384094238281e+01 -8.285838127136230469e+00
3.628000000000000000e+03 5.806196975708007812e+01 -1.813446998596191406e+01 3.803738403320312500e+01 2.572204208374023438e+01 1.912782859802246094e+01 -4.559875965118408203e+00
3.629000000000000000e+03 5.806055831909179688e+01 -1.811505317687988281e+01 3.750987625122070312e+01 2.580754470825195312e+01 1.899522590637207031e+01 -1.805160164833068848e+00
3.630000000000000000e+03 5.805539321899414062e+01 -1.809628105163574219e+01 3.619203567504882812e+01 2.883977699279785156e+01 1.950954437255859375e+01 1.201348066329956055e+00
3.631000000000000000e+03 5.804667282104492188e+01 -1.807887649536132812e+01 3.287748718261718750e+01 2.996571159362792969e+01 1.885295867919921875e+01 3.422525644302368164e+00
3.632000000000000000e+03 5.803473281860351562e+01 -1.806350135803222656e+01 3.087104415893554688e+01 3.340475082397460938e+01 1.928273773193359375e+01 3.834850311279296875e+00
3.633000000000000000e+03 5.802002716064453125e+01 -1.805074501037597656e+01 2.786179161071777344e+01 3.841582107543945312e+01 1.988328361511230469e+01 2.879130363464355469e+00
3.634000000000000000e+03 5.800311660766601562e+01 -1.804109573364257812e+01 2.320245361328125000e+01 3.968085479736328125e+01 1.886499214172363281e+01 1.938056468963623047e+00
3.635000000000000000e+03 5.798465347290039062e+01 -1.803492355346679688e+01 2.457856941223144531e+01 4.421345901489257812e+01 2.063760757446289062e+01 -2.074970960617065430e+00
3.636000000000000000e+03 5.796533966064453125e+01 -1.803246307373046875e+01 1.975850486755371094e+01 4.369467163085937500e+01 1.903595352172851562e+01 -5.976580142974853516e+00
3.637000000000000000e+03 5.794591903686523438e+01 -1.803380966186523438e+01 2.403354263305664062e+01 4.478042221069335938e+01 2.064418983459472656e+01 -9.961896896362304688e+00
3.638000000000000000e+03 5.792713165283203125e+01 -1.803891181945800781e+01 2.361684608459472656e+01 4.049922180175781250e+01 1.923482131958007812e+01 -1.525178432464599609e+01
3.639000000000000000e+03 5.790969467163085938e+01 -1.804757499694824219e+01 2.817959022521972656e+01 3.774269104003906250e+01 1.977668380737304688e+01 -1.765615081787109375e+01
3.640000000000000000e+03 5.789427947998046875e+01 -1.805946540832519531e+01 3.246492385864257812e+01 3.052682495117187500e+01 1.889752388000488281e+01 -1.988774108886718750e+01
3.641000000000000000e+03 5.788147735595703125e+01 -1.807412910461425781e+01 3.648666763305664062e+01 2.424332237243652344e+01 1.821899795532226562e+01 -1.975557899475097656e+01
3.642000000000000000e+03 5.787177276611328125e+01 -1.809100723266601562e+01 4.048397827148437500e+01 1.703515052795410156e+01 1.725573730468750000e+01 -1.741348075866699219e+01
3.643000000000000000e+03 5.786553955078125000e+01 -1.810944938659667969e+01 4.276085662841796875e+01 1.049416446685791016e+01 1.597650718688964844e+01 -1.332280063629150391e+01
3.644000000000000000e+03 5.786301422119140625e+01 -1.812875366210937500e+01 4.285176086425781250e+01 4.916781902313232422e+00 1.433056259155273438e+01 -7.708779811859130859e+00
3.645000000000000000e+03 5.786429595947265625e+01 -1.814818000793457031e+01 4.057592391967773438e+01 2.519070863723754883e+00 1.292849826812744141e+01 1.366606593132019043e+00
