# el_label, x, y, sXX, sYY, sZZ, sXY
1.000000000000000000e+00 7.592153930664062500e+01 -2.741367721557617188e+01 -1.042687606811523438e+01 -1.858533263206481934e+00 -3.685622930526733398e+00 -2.379154205322265625e+00
2.000000000000000000e+00 7.572333526611328125e+01 -2.743192291259765625e+01 -5.889900207519531250e+00 6.674495935440063477e-01 -1.566735267639160156e+00 3.093965351581573486e-01
3.000000000000000000e+00 7.552513122558593750e+01 -2.745017051696777344e+01 -6.160230159759521484e+00 -3.053918778896331787e-01 -1.939686536788940430e+00 -1.988579481840133667e-01
4.000000000000000000e+00 7.532692718505859375e+01 -2.746841621398925781e+01 -5.897189617156982422e+00 1.686519682407379150e-01 -1.718561291694641113e+00 -7.760154455900192261e-02
5.000000000000000000e+00 7.593255615234375000e+01 -2.747103309631347656e+01 1.678900837898254395e+00 -2.029680490493774414e+00 -1.052338629961013794e-01 5.502295494079589844e-01
6.000000000000000000e+00 7.574169921875000000e+01 -2.752751731872558594e+01 -2.646184921264648438e+00 1.104288026690483093e-01 -7.607268095016479492e-01 3.786755502223968506e-01
7.000000000000000000e+00 7.555084228515625000e+01 -2.758399963378906250e+01 -2.131536483764648438e+00 4.503409564495086670e-01 -5.043586492538452148e-01 1.009198546409606934e+00
8.000000000000000000e+00 7.535997772216796875e+01 -2.764048385620117188e+01 -2.535140275955200195e+00 1.387017071247100830e-01 -7.189316153526306152e-01 4.486597478389739990e-01
9.000000000000000000e+00 7.595452880859375000e+01 -2.752514648437500000e+01 6.118779182434082031e+00 1.470023393630981445e+00 2.276640653610229492e+00 5.578040122985839844e+00
1.000000000000000000e+01 7.577831268310546875e+01 -2.761770629882812500e+01 2.149977922439575195e+00 7.766689062118530273e-01 8.779940605163574219e-01 3.048935413360595703e+00
1.100000000000000000e+01 7.560210418701171875e+01 -2.771026611328125000e+01 3.408152461051940918e-01 1.285670876502990723e+00 4.879458248615264893e-01 2.238305330276489258e+00
1.200000000000000000e+01 7.542589569091796875e+01 -2.780282592773437500e+01 6.977540999650955200e-02 1.189293503761291504e+00 3.777206838130950928e-01 2.080946683883666992e+00
1.300000000000000000e+01 7.598661041259765625e+01 -2.757394790649414062e+01 7.834417819976806641e+00 6.359099864959716797e+00 4.258055210113525391e+00 9.593131065368652344e+00
1.400000000000000000e+01 7.583179473876953125e+01 -2.769904136657714844e+01 3.764544963836669922e+00 3.901477098464965820e+00 2.299806594848632812e+00 6.056255817413330078e+00
1.500000000000000000e+01 7.567697143554687500e+01 -2.782413482666015625e+01 2.418070316314697266e+00 3.219190120697021484e+00 1.691178202629089355e+00 4.540071010589599609e+00
1.600000000000000000e+01 7.552215576171875000e+01 -2.794922828674316406e+01 1.337920784950256348e+00 2.887422561645507812e+00 1.267603039741516113e+00 3.650429248809814453e+00
1.700000000000000000e+01 7.602758789062500000e+01 -2.761557006835937500e+01 6.822928905487060547e+00 1.266999721527099609e+01 5.847877979278564453e+00 1.220458412170410156e+01
1.800000000000000000e+01 7.590008544921875000e+01 -2.776840972900390625e+01 4.067486286163330078e+00 8.200462341308593750e+00 3.680384635925292969e+00 8.329582214355468750e+00
1.900000000000000000e+01 7.577258300781250000e+01 -2.792124938964843750e+01 2.564074993133544922e+00 6.521533012390136719e+00 2.725682258605957031e+00 6.407919883728027344e+00
2.000000000000000000e+01 7.564508056640625000e+01 -2.807409095764160156e+01 1.899680137634277344e+00 5.657115459442138672e+00 2.267038583755493164e+00 5.382648944854736328e+00
2.100000000000000000e+01 7.607588195800781250e+01 -2.764841651916503906e+01 4.950089931488037109e+00 1.931213760375976562e+01 7.278668403625488281e+00 1.291829490661621094e+01
2.200000000000000000e+01 7.598056793212890625e+01 -2.782315444946289062e+01 2.901816129684448242e+00 1.322711467742919922e+01 4.838679313659667969e+00 9.281119346618652344e+00
2.300000000000000000e+01 7.588526153564453125e+01 -2.799789428710937500e+01 1.993302583694458008e+00 1.058020305633544922e+01 3.772051572799682617e+00 7.507304191589355469e+00
2.400000000000000000e+01 7.578995513916015625e+01 -2.817263221740722656e+01 1.280232906341552734e+00 9.084846496582031250e+00 3.109524011611938477e+00 6.240854263305664062e+00
2.500000000000000000e+01 7.612964630126953125e+01 -2.767123413085937500e+01 2.663330316543579102e+00 2.557681846618652344e+01 8.472043991088867188e+00 1.160170555114746094e+01
2.600000000000000000e+01 7.607017517089843750e+01 -2.786118316650390625e+01 1.566091418266296387e+00 1.815659523010253906e+01 5.916806221008300781e+00 8.933578491210937500e+00
2.700000000000000000e+01 7.601071166992187500e+01 -2.805113410949707031e+01 7.491609454154968262e-01 1.481616210937500000e+01 4.669596672058105469e+00 7.334059238433837891e+00
2.800000000000000000e+01 7.595124053955078125e+01 -2.824108505249023438e+01 2.968224883079528809e-01 1.285669517517089844e+01 3.946055412292480469e+00 6.285109519958496094e+00
2.900000000000000000e+01 7.618682098388671875e+01 -2.768314743041992188e+01 1.223739504814147949e+00 3.058302116394042969e+01 9.542028427124023438e+00 8.783185005187988281e+00
3.000000000000000000e+01 7.616547393798828125e+01 -2.788104057312011719e+01 3.411222994327545166e-01 2.243357467651367188e+01 6.832409381866455078e+00 7.227293014526367188e+00
3.100000000000000000e+01 7.614411926269531250e+01 -2.807893371582031250e+01 -2.936449050903320312e-01 1.863263702392578125e+01 5.501698017120361328e+00 6.181907653808593750e+00
3.200000000000000000e+01 7.612277221679687500e+01 -2.827682685852050781e+01 -7.034422159194946289e-01 1.634898757934570312e+01 4.693663597106933594e+00 5.308680534362792969e+00
3.300000000000000000e+01 7.624521636962890625e+01 -2.768370246887207031e+01 9.730834960937500000e-01 3.380684661865234375e+01 1.043397903442382812e+01 4.948611259460449219e+00
3.400000000000000000e+01 7.626280212402343750e+01 -2.788196563720703125e+01 -8.155331760644912720e-02 2.562814712524414062e+01 7.663978576660156250e+00 4.738569736480712891e+00
3.500000000000000000e+01 7.628039550781250000e+01 -2.808022689819335938e+01 -8.450006842613220215e-01 2.154167938232421875e+01 6.209003925323486328e+00 4.100924968719482422e+00
3.600000000000000000e+01 7.629798126220703125e+01 -2.827849006652832031e+01 -1.176916956901550293e+00 1.902314376831054688e+01 5.353868007659912109e+00 3.667403459548950195e+00
3.700000000000000000e+01 7.630261230468750000e+01 -2.767287635803222656e+01 2.294386625289916992e+00 3.520101165771484375e+01 1.124861907958984375e+01 1.063732981681823730e+00
3.800000000000000000e+01 7.635845947265625000e+01 -2.786392211914062500e+01 3.872474730014801025e-01 2.738825798034667969e+01 8.332651138305664062e+00 1.779685735702514648e+00
3.900000000000000000e+01 7.641430664062500000e+01 -2.805496788024902344e+01 -4.870319962501525879e-01 2.336419105529785156e+01 6.863147735595703125e+00 1.722662329673767090e+00
4.000000000000000000e+01 7.647015380859375000e+01 -2.824601364135742188e+01 -1.040880918502807617e+00 2.066098594665527344e+01 5.886031627655029297e+00 1.445214152336120605e+00
4.100000000000000000e+01 7.635679626464843750e+01 -2.765108489990234375e+01 4.730837345123291016e+00 3.480416870117187500e+01 1.186050224304199219e+01 -2.310735464096069336e+00
4.200000000000000000e+01 7.644876861572265625e+01 -2.782760238647460938e+01 2.004199028015136719e+00 2.790233993530273438e+01 8.971961975097656250e+00 -9.265302419662475586e-01
4.300000000000000000e+01 7.654074096679687500e+01 -2.800411987304687500e+01 6.398405432701110840e-01 2.385335350036621094e+01 7.347958087921142578e+00 -7.006226181983947754e-01
4.400000000000000000e+01 7.663271331787109375e+01 -2.818063735961914062e+01 -7.670627534389495850e-02 2.141482162475585938e+01 6.401434421539306641e+00 -5.864742398262023926e-01
4.500000000000000000e+01 7.640570831298828125e+01 -2.761916160583496094e+01 8.085769653320312500e+00 3.340076065063476562e+01 1.244595909118652344e+01 -4.503766536712646484e+00
4.600000000000000000e+01 7.653028869628906250e+01 -2.777439689636230469e+01 4.308108329772949219e+00 2.710641479492187500e+01 9.424356460571289062e+00 -3.095685958862304688e+00
4.700000000000000000e+01 7.665486145019531250e+01 -2.792963027954101562e+01 2.609484910964965820e+00 2.350617218017578125e+01 7.834696769714355469e+00 -2.536936521530151367e+00
4.800000000000000000e+01 7.677943420410156250e+01 -2.808486747741699219e+01 1.511734604835510254e+00 2.089227485656738281e+01 6.721203327178955078e+00 -2.272495508193969727e+00
4.900000000000000000e+01 7.644746398925781250e+01 -2.757832717895507812e+01 1.154898452758789062e+01 3.125997543334960938e+01 1.284268856048583984e+01 -5.466197967529296875e+00
5.000000000000000000e+01 7.659988403320312500e+01 -2.770633888244628906e+01 7.122919559478759766e+00 2.574025726318359375e+01 9.858952522277832031e+00 -4.255224227905273438e+00
5.100000000000000000e+01 7.675228881835937500e+01 -2.783435058593750000e+01 4.940196037292480469e+00 2.226297569274902344e+01 8.160951614379882812e+00 -3.609056472778320312e+00
5.200000000000000000e+01 7.690470886230468750e+01 -2.796236228942871094e+01 3.585819721221923828e+00 1.997117424011230469e+01 7.067098617553710938e+00 -3.313418626785278320e+00
5.300000000000000000e+01 7.648047637939453125e+01 -2.753014373779296875e+01 1.472562217712402344e+01 2.926579666137695312e+01 1.319742584228515625e+01 -5.180764198303222656e+00
5.400000000000000000e+01 7.665489196777343750e+01 -2.762603378295898438e+01 9.833266258239746094e+00 2.397885131835937500e+01 1.014363574981689453e+01 -4.355144500732421875e+00
5.500000000000000000e+01 7.682930755615234375e+01 -2.772192382812500000e+01 7.347297191619873047e+00 2.085063171386718750e+01 8.459378242492675781e+00 -3.763815402984619141e+00
5.600000000000000000e+01 7.700373077392578125e+01 -2.781781387329101562e+01 5.622309207916259766e+00 1.879568290710449219e+01 7.325397968292236328e+00 -3.447777271270751953e+00
5.700000000000000000e+01 7.650347137451171875e+01 -2.747645759582519531e+01 1.709372520446777344e+01 2.761406135559082031e+01 1.341233539581298828e+01 -3.955826520919799805e+00
5.800000000000000000e+01 7.669322204589843750e+01 -2.753655624389648438e+01 1.209994888305664062e+01 2.250960159301757812e+01 1.038286495208740234e+01 -3.464477539062500000e+00
5.900000000000000000e+01 7.688297271728515625e+01 -2.759665679931640625e+01 9.260125160217285156e+00 1.953925704956054688e+01 8.639814376831054688e+00 -3.050826072692871094e+00
6.000000000000000000e+01 7.707272338867187500e+01 -2.765675544738769531e+01 7.405114173889160156e+00 1.769613075256347656e+01 7.530373573303222656e+00 -2.726620197296142578e+00
6.100000000000000000e+01 7.651557159423828125e+01 -2.741932106018066406e+01 1.849614906311035156e+01 2.674786567687988281e+01 1.357320404052734375e+01 -2.121991395950317383e+00
6.200000000000000000e+01 7.671339416503906250e+01 -2.744132995605468750e+01 1.345410251617431641e+01 2.155069541931152344e+01 1.050143909454345703e+01 -1.889001250267028809e+00
6.300000000000000000e+01 7.691121673583984375e+01 -2.746333694458007812e+01 1.045858860015869141e+01 1.878685951232910156e+01 8.773633956909179688e+00 -1.652841091156005859e+00
6.400000000000000000e+01 7.710903167724609375e+01 -2.748534584045410156e+01 8.445153236389160156e+00 1.690347862243652344e+01 7.604589939117431641e+00 -1.478260040283203125e+00
6.500000000000000000e+01 7.651631927490234375e+01 -2.736092185974121094e+01 1.876098442077636719e+01 2.663505554199218750e+01 1.361881160736083984e+01 -8.019062876701354980e-02
6.600000000000000000e+01 7.671464538574218750e+01 -2.734399604797363281e+01 1.375116157531738281e+01 2.145669174194335938e+01 1.056235599517822266e+01 -3.167106769979000092e-03
6.700000000000000000e+01 7.691296386718750000e+01 -2.732707214355468750e+01 1.068651676177978516e+01 1.865672683715820312e+01 8.802972793579101562e+00 2.069245465099811554e-02
6.800000000000000000e+01 7.711128234863281250e+01 -2.731014633178710938e+01 8.617119789123535156e+00 1.680737304687500000e+01 7.627347946166992188e+00 4.744323715567588806e-02
6.900000000000000000e+01 7.650568389892578125e+01 -2.730349349975585938e+01 1.793845939636230469e+01 2.737631416320800781e+01 1.359443187713623047e+01 1.806060314178466797e+00
7.000000000000000000e+01 7.669691467285156250e+01 -2.724828338623046875e+01 1.293040561676025391e+01 2.214711952209472656e+01 1.052325725555419922e+01 1.723432064056396484e+00
7.100000000000000000e+01 7.688814544677734375e+01 -2.719307327270507812e+01 9.964736938476562500e+00 1.927513313293457031e+01 8.771961212158203125e+00 1.565657019615173340e+00
7.200000000000000000e+01 7.707937622070312500e+01 -2.713786125183105469e+01 7.925632953643798828e+00 1.734975242614746094e+01 7.582615852355957031e+00 1.468771576881408691e+00
7.300000000000000000e+01 7.648407745361328125e+01 -2.724923324584960938e+01 1.612645721435546875e+01 2.883703804016113281e+01 1.348904895782470703e+01 3.181518077850341797e+00
7.400000000000000000e+01 7.666089630126953125e+01 -2.715785026550292969e+01 1.116022300720214844e+01 2.348619270324707031e+01 1.039392471313476562e+01 2.879395008087158203e+00
7.500000000000000000e+01 7.683772277832031250e+01 -2.706646919250488281e+01 8.425954818725585938e+00 2.045401382446289062e+01 8.663990974426269531e+00 2.552285671234130859e+00
7.600000000000000000e+01 7.701454925537109375e+01 -2.697508430480957031e+01 6.628102779388427734e+00 1.837533760070800781e+01 7.501031875610351562e+00 2.424070119857788086e+00
7.700000000000000000e+01 7.645231628417968750e+01 -2.720022010803222656e+01 1.348211574554443359e+01 3.070797157287597656e+01 1.325702667236328125e+01 3.748169183731079102e+00
7.800000000000000000e+01 7.660796356201171875e+01 -2.707616043090820312e+01 8.814669609069824219e+00 2.521292114257812500e+01 1.020827674865722656e+01 3.093517065048217773e+00
7.900000000000000000e+01 7.676361846923828125e+01 -2.695210266113281250e+01 6.347806453704833984e+00 2.182653045654296875e+01 8.452301025390625000e+00 2.765852451324462891e+00
8.000000000000000000e+01 7.691926574707031250e+01 -2.682804298400878906e+01 4.881928443908691406e+00 1.964276313781738281e+01 7.357407569885253906e+00 2.497821807861328125e+00
8.100000000000000000e+01 7.641162109375000000e+01 -2.715832710266113281e+01 1.050700759887695312e+01 3.277328109741210938e+01 1.298408699035644531e+01 3.160163640975952148e+00
8.200000000000000000e+01 7.654013824462890625e+01 -2.700634002685546875e+01 6.188009738922119141e+00 2.674385261535644531e+01 9.879558563232421875e+00 2.322632551193237305e+00
8.300000000000000000e+01 7.666866302490234375e+01 -2.685435295104980469e+01 4.255783557891845703e+00 2.312100791931152344e+01 8.213037490844726562e+00 1.947833657264709473e+00
8.400000000000000000e+01 7.679718017578125000e+01 -2.670236587524414062e+01 2.835408687591552734e+00 2.069660949707031250e+01 7.059605121612548828e+00 1.825912952423095703e+00
8.500000000000000000e+01 7.636354827880859375e+01 -2.712516021728515625e+01 7.422030448913574219e+00 3.442118072509765625e+01 1.255296325683593750e+01 1.380967020988464355e+00
8.600000000000000000e+01 7.646002197265625000e+01 -2.695105934143066406e+01 3.997107267379760742e+00 2.769124603271484375e+01 9.506505966186523438e+00 4.973731935024261475e-01
8.700000000000000000e+01 7.655648803710937500e+01 -2.677696037292480469e+01 2.284554004669189453e+00 2.381963348388671875e+01 7.831256389617919922e+00 3.325524926185607910e-01
8.800000000000000000e+01 7.665296173095703125e+01 -2.660286140441894531e+01 1.334322810173034668e+00 2.124359130859375000e+01 6.773374080657958984e+00 3.783153593540191650e-01
8.900000000000000000e+01 7.630993652343750000e+01 -2.710198402404785156e+01 5.013157844543457031e+00 3.509960937500000000e+01 1.203383064270019531e+01 -1.512400388717651367e+00
9.000000000000000000e+01 7.637067413330078125e+01 -2.691243553161621094e+01 2.413623094558715820e+00 2.761861419677734375e+01 9.009671211242675781e+00 -2.090149402618408203e+00
9.100000000000000000e+01 7.643140411376953125e+01 -2.672288513183593750e+01 1.069678068161010742e+00 2.353881835937500000e+01 7.382548809051513672e+00 -1.837378501892089844e+00
9.200000000000000000e+01 7.649213409423828125e+01 -2.653333473205566406e+01 3.403719961643218994e-01 2.092837715148925781e+01 6.380624771118164062e+00 -1.643071174621582031e+00
9.300000000000000000e+01 7.625284576416015625e+01 -2.708968925476074219e+01 3.689469099044799805e+00 3.431356048583984375e+01 1.140090847015380859e+01 -5.198334693908691406e+00
9.400000000000000000e+01 7.627550506591796875e+01 -2.689194297790527344e+01 1.779922962188720703e+00 2.622427940368652344e+01 8.401261329650878906e+00 -4.936905384063720703e+00
9.500000000000000000e+01 7.629817962646484375e+01 -2.669419670104980469e+01 7.643054723739624023e-01 2.207483673095703125e+01 6.851742744445800781e+00 -4.277174472808837891e+00
9.600000000000000000e+01 7.632084655761718750e+01 -2.649645042419433594e+01 3.758713603019714355e-03 1.951428604125976562e+01 5.855413436889648438e+00 -3.715551137924194336e+00
9.700000000000000000e+01 7.619444274902343750e+01 -2.708874511718750000e+01 3.683512926101684570e+00 3.167354774475097656e+01 1.060711765289306641e+01 -8.985594749450683594e+00
9.800000000000000000e+01 7.617817687988281250e+01 -2.689036941528320312e+01 2.247141838073730469e+00 2.343823432922363281e+01 7.705612659454345703e+00 -7.571772575378417969e+00
9.900000000000000000e+01 7.616191864013671875e+01 -2.669199371337890625e+01 1.209918856620788574e+00 1.947125625610351562e+01 6.204352855682373047e+00 -6.444571971893310547e+00
1.000000000000000000e+02 7.614565277099609375e+01 -2.649361991882324219e+01 5.838946700096130371e-01 1.699295043945312500e+01 5.273053646087646484e+00 -5.536258697509765625e+00
1.010000000000000000e+02 7.613698577880859375e+01 -2.709918785095214844e+01 5.132146835327148438e+00 2.721856117248535156e+01 9.705212593078613281e+00 -1.210388088226318359e+01
1.020000000000000000e+02 7.608241271972656250e+01 -2.690777397155761719e+01 3.443760871887207031e+00 1.941857337951660156e+01 6.858700275421142578e+00 -9.459320068359375000e+00
1.030000000000000000e+02 7.602783203125000000e+01 -2.671636199951171875e+01 2.383363008499145508e+00 1.589541339874267578e+01 5.483633041381835938e+00 -7.855953693389892578e+00
1.040000000000000000e+02 7.597326660156250000e+01 -2.652494812011718750e+01 1.623096108436584473e+00 1.378591442108154297e+01 4.622703075408935547e+00 -6.756698131561279297e+00
1.050000000000000000e+02 7.608265686035156250e+01 -2.712061882019042969e+01 7.451475620269775391e+00 2.123936080932617188e+01 8.607251167297363281e+00 -1.386676597595214844e+01
1.060000000000000000e+02 7.599185943603515625e+01 -2.694349098205566406e+01 5.117776393890380859e+00 1.458645057678222656e+01 5.911268234252929688e+00 -1.010450553894042969e+01
1.070000000000000000e+02 7.590106201171875000e+01 -2.676636505126953125e+01 3.688314914703369141e+00 1.176376056671142578e+01 4.635622501373291016e+00 -8.225050926208496094e+00
1.080000000000000000e+02 7.581027221679687500e+01 -2.658923912048339844e+01 2.849628925323486328e+00 1.024512195587158203e+01 3.928425312042236328e+00 -6.953331470489501953e+00
1.090000000000000000e+02 7.603353118896484375e+01 -2.715221595764160156e+01 9.864200592041015625e+00 1.453133010864257812e+01 7.318659305572509766e+00 -1.364193916320800781e+01
1.100000000000000000e+02 7.590998840332031250e+01 -2.699615478515625000e+01 6.587681770324707031e+00 9.506935119628906250e+00 4.828384876251220703e+00 -9.407149314880371094e+00
1.110000000000000000e+02 7.578645324707031250e+01 -2.684009170532226562e+01 4.725363254547119141e+00 7.604045867919921875e+00 3.698822736740112305e+00 -7.317523479461669922e+00
1.120000000000000000e+02 7.566291046142578125e+01 -2.668403053283691406e+01 3.605785846710205078e+00 6.676117897033691406e+00 3.084571123123168945e+00 -6.099339008331298828e+00
1.130000000000000000e+02 7.599150848388671875e+01 -2.719277000427246094e+01 1.167261409759521484e+01 7.888290882110595703e+00 5.868271350860595703e+00 -1.135842037200927734e+01
1.140000000000000000e+02 7.583994293212890625e+01 -2.706374549865722656e+01 6.833966732025146484e+00 4.893290042877197266e+00 3.518177032470703125e+00 -7.268507003784179688e+00
1.150000000000000000e+02 7.568838500976562500e+01 -2.693472099304199219e+01 5.013742923736572266e+00 4.155778884887695312e+00 2.750856637954711914e+00 -5.509668350219726562e+00
1.160000000000000000e+02 7.553682708740234375e+01 -2.680569648742675781e+01 3.657603263854980469e+00 3.479246854782104492e+00 2.141055107116699219e+00 -4.487504005432128906e+00
1.170000000000000000e+02 7.595817565917968750e+01 -2.724073219299316406e+01 1.086923027038574219e+01 2.220471858978271484e+00 3.926910638809204102e+00 -7.386010169982910156e+00
1.180000000000000000e+02 7.578440093994140625e+01 -2.714368247985839844e+01 5.902908325195312500e+00 1.598832130432128906e+00 2.250522136688232422e+00 -4.151932239532470703e+00
1.190000000000000000e+02 7.561062622070312500e+01 -2.704663085937500000e+01 3.445415258407592773e+00 1.698843479156494141e+00 1.543277621269226074e+00 -3.165243625640869141e+00
1.200000000000000000e+02 7.543684387207031250e+01 -2.694958114624023438e+01 2.836503505706787109e+00 1.793742775917053223e+00 1.389073848724365234e+00 -2.883859634399414062e+00
1.210000000000000000e+02 7.593482208251953125e+01 -2.729426574707031250e+01 7.541927814483642578e+00 -1.660624980926513672e+00 1.764390826225280762e+00 -1.927151322364807129e+00
1.220000000000000000e+02 7.574547576904296875e+01 -2.723290252685546875e+01 1.675610423088073730e+00 3.060929179191589355e-01 5.945110321044921875e-01 -1.190665721893310547e+00
1.230000000000000000e+02 7.555612945556640625e+01 -2.717153930664062500e+01 1.493138432502746582e+00 8.520693778991699219e-01 7.035623192787170410e-01 -1.648428201675415039e+00
1.240000000000000000e+02 7.536678314208984375e+01 -2.711017799377441406e+01 5.219456553459167480e-01 1.865625828504562378e-01 2.125524878501892090e-01 -9.499318599700927734e-01
1.250000000000000000e+02 7.592234039306640625e+01 -2.735132026672363281e+01 -3.745429039001464844e+00 -2.151607036590576172e+00 -1.769110798835754395e+00 1.974016308784484863e+00
1.260000000000000000e+02 7.572467041015625000e+01 -2.732799339294433594e+01 -1.112577915191650391e+00 9.213679432868957520e-01 -5.736299604177474976e-02 -6.421621441841125488e-01
1.270000000000000000e+02 7.552700042724609375e+01 -2.730466651916503906e+01 -2.235932826995849609e+00 -4.072231352329254150e-01 -7.929468154907226562e-01 3.178284317255020142e-02
1.280000000000000000e+02 7.532933044433593750e+01 -2.728134155273437500e+01 -2.427723407745361328e+00 2.801437675952911377e-01 -6.442738771438598633e-01 -4.269972443580627441e-02
1.290000000000000000e+02 7.304201507568359375e+01 -2.828083801269531250e+01 -1.377121090888977051e+00 1.121488437056541443e-01 -3.794916868209838867e-01 -1.010343551635742188e+00
1.300000000000000000e+02 7.122840118408203125e+01 -2.820027732849121094e+01 -1.786123961210250854e-01 -7.189329266548156738e-01 -2.692635953426361084e-01 -4.544100761413574219e-01
1.310000000000000000e+02 7.292177581787109375e+01 -2.872219848632812500e+01 -1.055002331733703613e+00 2.513848245143890381e-01 -2.410852313041687012e-01 -1.019317746162414551e+00
1.320000000000000000e+02 7.164220428466796875e+01 -2.847412872314453125e+01 -9.380865097045898438e-01 -7.511312961578369141e-01 -5.067653656005859375e-01 -1.266928076744079590e+00
1.330000000000000000e+02 7.206797790527343750e+01 -2.807563972473144531e+01 -1.053467273712158203e+00 -2.354375571012496948e-01 -3.866714537143707275e-01 -1.051901340484619141e+00
1.340000000000000000e+02 7.264607238769531250e+01 -2.849554252624511719e+01 -1.208845615386962891e+00 1.657822281122207642e-01 -3.129190206527709961e-01 -1.116351366043090820e+00
1.350000000000000000e+02 7.306073760986328125e+01 -2.757976722717285156e+01 -2.793967485427856445e+00 1.090169474482536316e-01 -8.054851889610290527e-01 -2.925160527229309082e-01
1.360000000000000000e+02 7.263317871093750000e+01 -2.752445411682128906e+01 -2.032049655914306641e+00 1.123994961380958557e-02 -6.062428951263427734e-01 -2.551576793193817139e-01
1.370000000000000000e+02 7.257658386230468750e+01 -2.789556121826171875e+01 -1.389344930648803711e+00 1.201337352395057678e-01 -3.807633817195892334e-01 -8.672221899032592773e-01
1.380000000000000000e+02 7.310469055175781250e+01 -2.773335266113281250e+01 -2.576972961425781250e+00 1.236652284860610962e-01 -7.359923124313354492e-01 -5.694304704666137695e-01
1.390000000000000000e+02 7.217868804931640625e+01 -2.854437255859375000e+01 -1.157200098037719727e+00 5.362676456570625305e-02 -3.310720026493072510e-01 -1.232539415359497070e+00
1.400000000000000000e+02 7.295243835449218750e+01 -2.798524093627929688e+01 -1.626937747001647949e+00 -3.321930766105651855e-02 -4.980471134185791016e-01 -8.332287073135375977e-01
1.410000000000000000e+02 7.184147644042968750e+01 -2.758713912963867188e+01 -5.383659005165100098e-01 1.433979161083698273e-02 -1.572078317403793335e-01 -2.703787982463836670e-01
1.420000000000000000e+02 7.275123596191406250e+01 -2.816609573364257812e+01 -1.364695668220520020e+00 1.673440635204315186e-01 -3.592054843902587891e-01 -1.075038909912109375e+00
1.430000000000000000e+02 7.290293121337890625e+01 -2.779620170593261719e+01 -1.974175691604614258e+00 -1.037599816918373108e-01 -6.233807206153869629e-01 -5.057663321495056152e-01
1.440000000000000000e+02 7.311820220947265625e+01 -2.791147232055664062e+01 -2.106385469436645508e+00 -1.554437447339296341e-02 -6.365789771080017090e-01 -6.281592249870300293e-01
1.450000000000000000e+02 7.310163116455078125e+01 -2.808586692810058594e+01 -1.590027928352355957e+00 4.627054929733276367e-02 -4.631272256374359131e-01 -9.310789108276367188e-01
1.460000000000000000e+02 7.300557708740234375e+01 -2.849965095520019531e+01 -1.152535796165466309e+00 2.318980693817138672e-01 -2.761912941932678223e-01 -1.058785676956176758e+00
1.470000000000000000e+02 7.484580993652343750e+01 -2.629463386535644531e+01 1.814655303955078125e+00 2.279682397842407227e+00 1.228301286697387695e+00 -2.267728805541992188e+00
1.480000000000000000e+02 7.335659790039062500e+01 -2.617533874511718750e+01 1.181269660592079163e-01 2.959927618503570557e-01 1.242359206080436707e-01 3.270955085754394531e-01
1.490000000000000000e+02 7.552398681640625000e+01 -2.595439720153808594e+01 1.186417698860168457e+00 7.688317298889160156e+00 2.662420511245727539e+00 -4.360342502593994141e+00
1.500000000000000000e+02 7.704727935791015625e+01 -2.806575202941894531e+01 2.847555398941040039e+00 1.861389923095703125e+01 6.438436031341552734e+00 -3.126809120178222656e+00
1.510000000000000000e+02 7.693078613281250000e+01 -2.822203826904296875e+01 9.981534481048583984e-01 1.925492477416992188e+01 6.075923442840576172e+00 -2.351328611373901367e+00
1.520000000000000000e+02 7.648220825195312500e+01 -2.873454475402832031e+01 -1.878470420837402344e+00 1.627086639404296875e+01 4.317718505859375000e+00 1.722057461738586426e+00
1.530000000000000000e+02 7.332036590576171875e+01 -2.722460556030273438e+01 -1.871406435966491699e+00 -1.225808039307594299e-01 -5.981962084770202637e-01 3.452869877219200134e-02
1.540000000000000000e+02 7.333331298828125000e+01 -2.681059074401855469e+01 -8.278977274894714355e-01 1.048080027103424072e-01 -2.169269174337387085e-01 5.088551044464111328e-01
1.550000000000000000e+02 7.472879028320312500e+01 -2.722105598449707031e+01 -2.637351512908935547e+00 -8.085520565509796143e-02 -8.154620528221130371e-01 9.600164741277694702e-02
1.560000000000000000e+02 7.496529388427734375e+01 -2.699806594848632812e+01 -2.125904709100723267e-01 2.261486351490020752e-01 4.067448433488607407e-03 -6.057159304618835449e-01
1.570000000000000000e+02 7.737759399414062500e+01 -2.665813446044921875e+01 3.146672964096069336e+00 1.590659713745117188e+01 5.715981006622314453e+00 2.472765207290649414e+00
1.580000000000000000e+02 7.632930755615234375e+01 -2.627924346923828125e+01 -3.776897788047790527e-01 1.751870536804199219e+01 5.142304420471191406e+00 -3.383148908615112305e+00
1.590000000000000000e+02 7.633116149902343750e+01 -2.602750587463378906e+01 -7.809272408485412598e-01 1.579934406280517578e+01 4.505525112152099609e+00 -3.131491184234619141e+00
1.600000000000000000e+02 7.535849761962890625e+01 -2.665458869934082031e+01 2.827090263366699219e+00 3.245851039886474609e+00 1.821882367134094238e+00 -3.814857721328735352e+00
1.610000000000000000e+02 7.517036437988281250e+01 -2.704825210571289062e+01 1.498490273952484131e-01 4.196177423000335693e-01 1.708400249481201172e-01 -8.693442940711975098e-01
1.620000000000000000e+02 7.493178558349609375e+01 -2.748831939697265625e+01 -5.478426456451416016e+00 9.553091973066329956e-02 -1.614868640899658203e+00 -1.615981310606002808e-01
1.630000000000000000e+02 7.729356384277343750e+01 -2.784418869018554688e+01 5.074988365173339844e+00 1.630615043640136719e+01 6.414341449737548828e+00 -2.861473798751831055e+00
1.640000000000000000e+02 7.495633697509765625e+01 -2.770798110961914062e+01 -3.029028892517089844e+00 1.238476559519767761e-01 -8.715543746948242188e-01 1.365697234869003296e-01
1.650000000000000000e+02 7.482288360595703125e+01 -2.849070739746093750e+01 3.221722543239593506e-01 2.119279861450195312e+00 7.324356436729431152e-01 1.682410478591918945e+00
1.660000000000000000e+02 7.391393280029296875e+01 -2.858464622497558594e+01 -6.948136687278747559e-01 7.992412447929382324e-01 3.132828697562217712e-02 -1.716035008430480957e-01
1.670000000000000000e+02 7.352333831787109375e+01 -2.787541961669921875e+01 -2.449632883071899414e+00 3.345810249447822571e-02 -7.248524427413940430e-01 -6.852155923843383789e-01
1.680000000000000000e+02 7.331486511230468750e+01 -2.747488975524902344e+01 -3.406975746154785156e+00 -5.492858588695526123e-02 -1.038571357727050781e+00 -1.011995822191238403e-01
1.690000000000000000e+02 7.328672027587890625e+01 -2.873959159851074219e+01 -8.941009640693664551e-01 7.299472093582153320e-01 -4.924612492322921753e-02 -7.838487029075622559e-01
1.700000000000000000e+02 7.447521972656250000e+01 -2.874374198913574219e+01 5.530158430337905884e-02 1.887832999229431152e+00 5.829403996467590332e-01 1.051326274871826172e+00
1.710000000000000000e+02 7.330401611328125000e+01 -2.830904388427734375e+01 -1.322080612182617188e+00 2.314667105674743652e-01 -3.271841704845428467e-01 -9.086174368858337402e-01
1.720000000000000000e+02 7.587969970703125000e+01 -2.842011260986328125e+01 4.289294779300689697e-02 1.136714839935302734e+01 3.423012256622314453e+00 5.527355194091796875e+00
1.730000000000000000e+02 7.519635009765625000e+01 -2.827532958984375000e+01 8.268830180168151855e-01 2.756400108337402344e+00 1.074985027313232422e+00 2.742542028427124023e+00
1.740000000000000000e+02 7.369625854492187500e+01 -2.874809265136718750e+01 -5.851776599884033203e-01 8.215973377227783203e-01 7.092589884996414185e-02 -3.190991282463073730e-01
1.750000000000000000e+02 7.680104064941406250e+01 -2.642845535278320312e+01 7.119463682174682617e-01 1.931928253173828125e+01 6.009368419647216797e+00 6.166341900825500488e-01
1.760000000000000000e+02 7.708037567138671875e+01 -2.668370437622070312e+01 3.506919384002685547e+00 1.803606605529785156e+01 6.462895870208740234e+00 2.384013414382934570e+00
1.770000000000000000e+02 7.726424407958984375e+01 -2.713065910339355469e+01 6.993019104003906250e+00 1.610958862304687500e+01 6.930782318115234375e+00 1.312523961067199707e+00
1.780000000000000000e+02 7.759928894042968750e+01 -2.729234504699707031e+01 5.425002098083496094e+00 1.410015487670898438e+01 5.857547283172607422e+00 -9.842327982187271118e-02
1.790000000000000000e+02 7.714300537109375000e+01 -2.791738510131835938e+01 4.607764244079589844e+00 1.760784149169921875e+01 6.664681911468505859e+00 -3.263383626937866211e+00
1.800000000000000000e+02 7.335876464843750000e+01 -2.595832061767578125e+01 2.802494168281555176e-01 7.127281427383422852e-01 2.978932559490203857e-01 1.079598441720008850e-01
1.810000000000000000e+02 7.376171875000000000e+01 -2.621121978759765625e+01 3.235652744770050049e-01 4.839225411415100098e-01 2.422463446855545044e-01 -5.685073137283325195e-02
1.820000000000000000e+02 7.591739654541015625e+01 -2.602891731262207031e+01 3.319645822048187256e-01 1.178994274139404297e+01 3.636572122573852539e+00 -4.669821262359619141e+00
1.830000000000000000e+02 7.757606506347656250e+01 -2.695989227294921875e+01 4.742774963378906250e+00 1.462333297729492188e+01 5.809832096099853516e+00 1.446446061134338379e+00
1.840000000000000000e+02 7.571196746826171875e+01 -2.638706207275390625e+01 2.096202850341796875e+00 9.146893501281738281e+00 3.372928857803344727e+00 -5.866896629333496094e+00
1.850000000000000000e+02 7.592024993896484375e+01 -2.630223274230957031e+01 1.028645753860473633e+00 1.238708114624023438e+01 4.024717807769775391e+00 -5.684522151947021484e+00
1.860000000000000000e+02 7.694688415527343750e+01 -2.654483795166015625e+01 2.141100645065307617e+00 1.890564537048339844e+01 6.314023494720458984e+00 1.809297800064086914e+00
1.870000000000000000e+02 7.613076019287109375e+01 -2.627680969238281250e+01 2.480724640190601349e-02 1.543370723724365234e+01 4.637554645538330078e+00 -4.788452625274658203e+00
1.880000000000000000e+02 7.542945861816406250e+01 -2.607827186584472656e+01 1.565281271934509277e+00 6.710170745849609375e+00 2.482635498046875000e+00 -4.351647853851318359e+00
1.890000000000000000e+02 7.651555633544921875e+01 -2.630651664733886719e+01 -3.526816070079803467e-01 1.882868766784667969e+01 5.542801856994628906e+00 -1.676228404045104980e+00
1.900000000000000000e+02 7.523757934570312500e+01 -2.683667182922363281e+01 2.014529943466186523e+00 1.169534444808959961e+00 9.552193284034729004e-01 -2.195734262466430664e+00
1.910000000000000000e+02 7.719210052490234375e+01 -2.683744430541992188e+01 5.143101692199707031e+00 1.707827568054199219e+01 6.666413307189941406e+00 2.294890165328979492e+00
1.920000000000000000e+02 7.506491851806640625e+01 -2.623237800598144531e+01 1.953267097473144531e+00 3.480966329574584961e+00 1.630270004272460938e+00 -3.102646589279174805e+00
1.930000000000000000e+02 7.569143676757812500e+01 -2.834424781799316406e+01 8.791267275810241699e-01 8.236128807067871094e+00 2.734576463699340820e+00 5.418374061584472656e+00
1.940000000000000000e+02 7.648525238037109375e+01 -2.847633171081542969e+01 -1.439883351325988770e+00 1.848139762878417969e+01 5.112453937530517578e+00 1.588683366775512695e+00
1.950000000000000000e+02 7.727689361572265625e+01 -2.798661422729492188e+01 3.640884160995483398e+00 1.655055999755859375e+01 6.057433128356933594e+00 -2.962493419647216797e+00
1.960000000000000000e+02 7.453869628906250000e+01 -2.751447868347167969e+01 -4.909245014190673828e+00 1.101697683334350586e-01 -1.439722657203674316e+00 -2.196228951215744019e-01
1.970000000000000000e+02 7.607964324951171875e+01 -2.848039436340332031e+01 -9.049616456031799316e-01 1.446461105346679688e+01 4.067894935607910156e+00 4.765724658966064453e+00
1.980000000000000000e+02 7.678698730468750000e+01 -2.835460090637207031e+01 -3.941536843776702881e-01 1.930139732360839844e+01 5.672173023223876953e+00 -9.826090335845947266e-01
1.990000000000000000e+02 7.579316711425781250e+01 -2.859133338928222656e+01 -7.740945555269718170e-03 1.030527019500732422e+01 3.089258909225463867e+00 4.942406654357910156e+00
2.000000000000000000e+02 7.729650878906250000e+01 -2.768011093139648438e+01 6.033546447753906250e+00 1.604918289184570312e+01 6.624818801879882812e+00 -2.454519510269165039e+00
2.010000000000000000e+02 7.512886047363281250e+01 -2.748336410522460938e+01 -5.718996047973632812e+00 -8.818084001541137695e-02 -1.742153048515319824e+00 -1.329112052917480469e-01
2.020000000000000000e+02 7.473597717285156250e+01 -2.749483108520507812e+01 -5.207129001617431641e+00 -7.191817462444305420e-02 -1.583714127540588379e+00 -1.585950553417205811e-01
2.030000000000000000e+02 7.530541229248046875e+01 -2.871502304077148438e+01 6.422615051269531250e-01 5.352059841156005859e+00 1.798296332359313965e+00 3.468945026397705078e+00
2.040000000000000000e+02 7.590961456298828125e+01 -2.880249404907226562e+01 -7.146046757698059082e-01 1.126640033721923828e+01 3.165538787841796875e+00 4.160923957824707031e+00
2.050000000000000000e+02 7.613140869140625000e+01 -2.602217292785644531e+01 -3.625918030738830566e-01 1.434162521362304688e+01 4.193709850311279297e+00 -4.022413730621337891e+00
2.060000000000000000e+02 7.667073059082031250e+01 -2.850996589660644531e+01 -1.235800147056579590e+00 1.842103195190429688e+01 5.155569553375244141e+00 2.244281172752380371e-01
2.070000000000000000e+02 7.651913452148437500e+01 -2.604831123352050781e+01 -7.866860628128051758e-01 1.640109825134277344e+01 4.684323310852050781e+00 -1.893054842948913574e+00
2.080000000000000000e+02 7.669776153564453125e+01 -2.627542877197265625e+01 2.423680201172828674e-02 1.842205810546875000e+01 5.533888339996337891e+00 -3.648574054241180420e-01
2.090000000000000000e+02 7.713040161132812500e+01 -2.844698333740234375e+01 2.075469791889190674e-01 1.726836204528808594e+01 5.242772579193115234e+00 -2.237825632095336914e+00
2.100000000000000000e+02 7.710910034179687500e+01 -2.828851318359375000e+01 1.043579816818237305e+00 1.772054100036621094e+01 5.629236221313476562e+00 -2.493745565414428711e+00
2.110000000000000000e+02 7.755421447753906250e+01 -2.768527412414550781e+01 5.174937248229980469e+00 1.442829704284667969e+01 5.880970478057861328e+00 -1.903691649436950684e+00
2.120000000000000000e+02 7.732421112060546875e+01 -2.748669052124023438e+01 6.964837074279785156e+00 1.561220836639404297e+01 6.773113727569580078e+00 -1.247043728828430176e+00
2.130000000000000000e+02 7.696482086181640625e+01 -2.854085731506347656e+01 -6.368864774703979492e-01 1.752811431884765625e+01 5.067368507385253906e+00 -1.473794817924499512e+00
2.140000000000000000e+02 7.732966613769531250e+01 -2.696728134155273438e+01 5.561785221099853516e+00 1.594034099578857422e+01 6.450637817382812500e+00 1.811349868774414062e+00
2.150000000000000000e+02 7.684449768066406250e+01 -2.613877296447753906e+01 -1.217516586184501648e-01 1.765251541137695312e+01 5.259228706359863281e+00 2.849194109439849854e-01
2.160000000000000000e+02 7.745568847656250000e+01 -2.803485488891601562e+01 3.393305778503417969e+00 1.565789699554443359e+01 5.715361118316650391e+00 -2.889809370040893555e+00
2.170000000000000000e+02 7.761593627929687500e+01 -2.711476707458496094e+01 4.841349601745605469e+00 1.412761020660400391e+01 5.690688133239746094e+00 6.461068987846374512e-01
2.180000000000000000e+02 7.748419952392578125e+01 -2.681134796142578125e+01 4.138063430786132812e+00 1.534909248352050781e+01 5.846146583557128906e+00 2.020485401153564453e+00
2.190000000000000000e+02 7.751709747314453125e+01 -2.786448860168457031e+01 4.407743453979492188e+00 1.502813243865966797e+01 5.830762863159179688e+00 -2.554261207580566406e+00
2.200000000000000000e+02 7.712621307373046875e+01 -2.636851119995117188e+01 1.390851497650146484e+00 1.699783325195312500e+01 5.516605377197265625e+00 1.880363106727600098e+00
2.210000000000000000e+02 7.681425476074218750e+01 -2.864902877807617188e+01 -1.192405343055725098e+00 1.756296920776367188e+01 4.911169528961181641e+00 -5.552372336387634277e-01
2.220000000000000000e+02 7.669348907470703125e+01 -2.607477378845214844e+01 -7.600632905960083008e-01 1.725304985046386719e+01 4.947895526885986328e+00 -8.907491564750671387e-01
2.230000000000000000e+02 7.456984710693359375e+01 -2.601332473754882812e+01 1.420787215232849121e+00 2.341262578964233398e+00 1.128614902496337891e+00 -1.831551432609558105e+00
2.240000000000000000e+02 7.477769470214843750e+01 -2.600904083251953125e+01 1.439081907272338867e+00 2.981764316558837891e+00 1.326253890991210938e+00 -2.369495868682861328e+00
2.250000000000000000e+02 7.498092651367187500e+01 -2.599420547485351562e+01 1.736669778823852539e+00 3.815099477767944336e+00 1.665530800819396973e+00 -3.032232999801635742e+00
2.260000000000000000e+02 7.557399749755859375e+01 -2.620499038696289062e+01 1.807020068168640137e+00 7.889868736267089844e+00 2.909066677093505859e+00 -5.042455673217773438e+00
2.270000000000000000e+02 7.535729980468750000e+01 -2.594748878479003906e+01 1.423090219497680664e+00 6.286878585815429688e+00 2.312990665435791016e+00 -4.000650405883789062e+00
2.280000000000000000e+02 7.356057739257812500e+01 -2.596658134460449219e+01 4.602266252040863037e-01 5.940716266632080078e-01 3.162894845008850098e-01 -2.965972013771533966e-02
2.290000000000000000e+02 7.411528015136718750e+01 -2.719042968750000000e+01 -2.406681299209594727e+00 4.903682321310043335e-02 -7.072933316230773926e-01 1.326166391372680664e-01
2.300000000000000000e+02 7.432164001464843750e+01 -2.719531631469726562e+01 -2.502902746200561523e+00 -5.022066086530685425e-02 -7.659370303153991699e-01 1.307658553123474121e-01
2.310000000000000000e+02 7.452622222900390625e+01 -2.720594596862792969e+01 -2.580215930938720703e+00 8.228765428066253662e-02 -7.493784427642822266e-01 1.102038696408271790e-01
2.320000000000000000e+02 7.356233978271484375e+01 -2.619347190856933594e+01 2.092211097478866577e-01 5.681995749473571777e-01 2.332261949777603149e-01 8.141972124576568604e-02
2.330000000000000000e+02 7.371170043945312500e+01 -2.721568107604980469e+01 -2.143439054489135742e+00 1.803227001801133156e-03 -6.424907445907592773e-01 1.409197300672531128e-01
2.340000000000000000e+02 7.493057250976562500e+01 -2.723854827880859375e+01 -2.649843454360961914e+00 1.673114150762557983e-01 -7.447596192359924316e-01 4.807905480265617371e-02
2.350000000000000000e+02 7.433044433593750000e+01 -2.754387664794921875e+01 -4.602811813354492188e+00 -3.590381518006324768e-02 -1.391614675521850586e+00 -2.480672001838684082e-01
2.360000000000000000e+02 7.351313018798828125e+01 -2.748012542724609375e+01 -3.675669670104980469e+00 -3.013141639530658722e-02 -1.111740350723266602e+00 -1.795121431350708008e-01
2.370000000000000000e+02 7.390283966064453125e+01 -2.751073074340820312e+01 -4.172473907470703125e+00 1.014749240130186081e-02 -1.248697996139526367e+00 -1.150410994887351990e-01
2.380000000000000000e+02 7.608797454833984375e+01 -2.878700256347656250e+01 -1.261798143386840820e+00 1.340182399749755859e+01 3.642007589340209961e+00 3.807053327560424805e+00
2.390000000000000000e+02 7.628383636474609375e+01 -2.875334739685058594e+01 -1.546235203742980957e+00 1.507186603546142578e+01 4.057689189910888672e+00 2.955098152160644531e+00
2.400000000000000000e+02 7.551663208007812500e+01 -2.823881340026855469e+01 1.343286395072937012e+00 5.125673770904541016e+00 1.940688133239746094e+00 4.448872089385986328e+00
2.410000000000000000e+02 7.552027130126953125e+01 -2.875272941589355469e+01 3.448047637939453125e-01 7.434100151062011719e+00 2.333671569824218750e+00 4.105931282043457031e+00
2.420000000000000000e+02 7.508393096923828125e+01 -2.870912170410156250e+01 6.236428618431091309e-01 3.889761447906494141e+00 1.354021310806274414e+00 2.762412786483764648e+00
2.430000000000000000e+02 7.500910949707031250e+01 -2.841803359985351562e+01 5.643872618675231934e-01 2.529491662979125977e+00 9.281637072563171387e-01 2.245513916015625000e+00
2.440000000000000000e+02 7.444440460205078125e+01 -2.849027252197265625e+01 -2.474653422832489014e-01 1.179390788078308105e+00 2.795776426792144775e-01 6.765616536140441895e-01
2.450000000000000000e+02 7.408328247070312500e+01 -2.876508522033691406e+01 -3.117522895336151123e-01 1.201919436454772949e+00 2.670501470565795898e-01 1.845712810754776001e-01
2.460000000000000000e+02 7.349563598632812500e+01 -2.873839187622070312e+01 -7.960965633392333984e-01 6.454488635063171387e-01 -4.519430175423622131e-02 -4.921241998672485352e-01
2.470000000000000000e+02 7.351655578613281250e+01 -2.722638893127441406e+01 -1.969359278678894043e+00 -1.265211729332804680e-03 -5.911873579025268555e-01 1.495001912117004395e-01
2.480000000000000000e+02 7.334638214111328125e+01 -2.660511779785156250e+01 -5.201953053474426270e-01 7.669005542993545532e-02 -1.330515742301940918e-01 4.572777152061462402e-01
2.490000000000000000e+02 7.352620697021484375e+01 -2.828377532958984375e+01 -1.352426528930664062e+00 2.663759291172027588e-01 -3.258152008056640625e-01 -7.209776043891906738e-01
2.500000000000000000e+02 7.330808258056640625e+01 -2.789356231689453125e+01 -2.277660369873046875e+00 9.900582581758499146e-02 -6.535964012145996094e-01 -7.062293887138366699e-01
2.510000000000000000e+02 7.415895080566406250e+01 -2.599730682373046875e+01 9.070693850517272949e-01 1.374843835830688477e+00 6.845739483833312988e-01 -8.856182694435119629e-01
2.520000000000000000e+02 7.376026153564453125e+01 -2.597489929199218750e+01 5.879288911819458008e-01 8.824464082717895508e-01 4.411126077175140381e-01 -2.508712112903594971e-01
2.530000000000000000e+02 7.518572235107421875e+01 -2.645710372924804688e+01 2.413480997085571289e+00 3.103384494781494141e+00 1.655059695243835449e+00 -3.342263221740722656e+00
2.540000000000000000e+02 7.496562194824218750e+01 -2.654659843444824219e+01 1.660684347152709961e+00 1.739091038703918457e+00 1.019932627677917480e+00 -2.105913877487182617e+00
2.550000000000000000e+02 7.513085174560546875e+01 -2.725858306884765625e+01 -2.589455366134643555e+00 -1.705352962017059326e-01 -8.279971480369567871e-01 1.185018569231033325e-02
2.560000000000000000e+02 7.332265472412109375e+01 -2.701533126831054688e+01 -1.187840461730957031e+00 -9.103398770093917847e-02 -3.836623430252075195e-01 3.680298626422882080e-01
2.570000000000000000e+02 7.367029571533203125e+01 -2.698164558410644531e+01 -1.382657051086425781e+00 2.142858877778053284e-02 -4.083685576915740967e-01 3.158973157405853271e-01
2.580000000000000000e+02 7.366535949707031250e+01 -2.773832321166992188e+01 -3.018978834152221680e+00 4.535390809178352356e-02 -8.920874595642089844e-01 -4.884711802005767822e-01
2.590000000000000000e+02 7.370732879638671875e+01 -2.749378967285156250e+01 -3.970662355422973633e+00 5.145971849560737610e-02 -1.175760746002197266e+00 -1.569511145353317261e-01
2.600000000000000000e+02 7.504234313964843750e+01 -2.805445098876953125e+01 -3.536968231201171875e-01 1.079664826393127441e+00 2.177903950214385986e-01 1.351171016693115234e+00
2.610000000000000000e+02 7.536296081542968750e+01 -2.809374046325683594e+01 1.107411384582519531e+00 2.867680788040161133e+00 1.192527651786804199e+00 3.269673109054565430e+00
2.620000000000000000e+02 7.329959106445312500e+01 -2.852203750610351562e+01 -1.160942554473876953e+00 3.494076430797576904e-01 -2.434604614973068237e-01 -8.458174467086791992e-01
2.630000000000000000e+02 7.552640533447265625e+01 -2.651603126525878906e+01 2.974024057388305664e+00 5.717944622039794922e+00 2.607590675354003906e+00 -5.152874469757080078e+00
2.640000000000000000e+02 7.523384857177734375e+01 -2.791048622131347656e+01 -3.906820416450500488e-01 1.016862034797668457e+00 1.878539919853210449e-01 1.497251868247985840e+00
2.650000000000000000e+02 7.538249969482421875e+01 -2.633961677551269531e+01 2.429370880126953125e+00 5.318916797637939453e+00 2.324486255645751953e+00 -4.500851631164550781e+00
2.660000000000000000e+02 7.412473297119140625e+01 -2.656195640563964844e+01 4.455351084470748901e-02 4.490977823734283447e-01 1.480953842401504517e-01 -1.639839708805084229e-01
2.670000000000000000e+02 7.454858398437500000e+01 -2.691421127319335938e+01 -6.781149506568908691e-01 7.245109975337982178e-02 -1.816991567611694336e-01 -1.624211370944976807e-01
2.680000000000000000e+02 7.386802673339843750e+01 -2.690070724487304688e+01 -1.085998415946960449e+00 8.388005942106246948e-02 -3.006355166435241699e-01 2.167345732450485229e-01
2.690000000000000000e+02 7.388971710205078125e+01 -2.876314163208007812e+01 -4.350998997688293457e-01 8.725247979164123535e-01 1.312274634838104248e-01 -6.017838791012763977e-02
2.700000000000000000e+02 7.415860748291015625e+01 -2.627352905273437500e+01 7.137094140052795410e-01 7.730034589767456055e-01 4.460138678550720215e-01 -5.187210440635681152e-01
2.710000000000000000e+02 7.489003753662109375e+01 -2.788127517700195312e+01 -1.715564966201782227e+00 3.023072183132171631e-01 -4.239773154258728027e-01 3.781985342502593994e-01
2.720000000000000000e+02 7.441053771972656250e+01 -2.785318183898925781e+01 -2.742832183837890625e+00 9.183908998966217041e-02 -7.952979207038879395e-01 -1.910234540700912476e-01
2.730000000000000000e+02 7.436001586914062500e+01 -2.823289871215820312e+01 -1.022819161415100098e+00 5.806878805160522461e-01 -1.326393783092498779e-01 1.671450734138488770e-01
2.740000000000000000e+02 7.486904907226562500e+01 -2.819340133666992188e+01 -2.277848869562149048e-01 1.141822814941406250e+00 2.742113769054412842e-01 1.180356144905090332e+00
2.750000000000000000e+02 7.384913635253906250e+01 -2.777752685546875000e+01 -3.133877515792846680e+00 8.507208526134490967e-02 -9.146416783332824707e-01 -5.499992370605468750e-01
2.760000000000000000e+02 7.353025817871093750e+01 -2.850363349914550781e+01 -1.037263751029968262e+00 5.065056681632995605e-01 -1.592274457216262817e-01 -6.339855790138244629e-01
2.770000000000000000e+02 7.356721496582031250e+01 -2.664738082885742188e+01 -5.272740721702575684e-01 1.663262993097305298e-01 -1.082843318581581116e-01 3.450513184070587158e-01
2.780000000000000000e+02 7.459346771240234375e+01 -2.662103843688964844e+01 6.626855134963989258e-01 7.824783325195312500e-01 4.335491657257080078e-01 -8.584910631179809570e-01
2.790000000000000000e+02 7.501730346679687500e+01 -2.676734352111816406e+01 1.472751617431640625e+00 1.199935317039489746e+00 8.018060922622680664e-01 -1.697191119194030762e+00
2.800000000000000000e+02 7.392449188232421875e+01 -2.648993682861328125e+01 3.676118329167366028e-02 3.023904860019683838e-01 1.017455011606216431e-01 -2.304589562118053436e-02
2.810000000000000000e+02 7.378884124755859375e+01 -2.664316558837890625e+01 -4.367761611938476562e-01 1.505987048149108887e-01 -8.585323393344879150e-02 2.781074345111846924e-01
2.820000000000000000e+02 7.371239471435546875e+01 -2.815747070312500000e+01 -1.705649971961975098e+00 1.942815631628036499e-01 -4.534105360507965088e-01 -6.231216192245483398e-01
2.830000000000000000e+02 7.407167816162109375e+01 -2.858724975585937500e+01 -5.321456193923950195e-01 8.628984093666076660e-01 9.922584146261215210e-02 7.038836181163787842e-02
2.840000000000000000e+02 7.435556793212890625e+01 -2.659116172790527344e+01 3.020892441272735596e-01 4.769096374511718750e-01 2.336996644735336304e-01 -4.186218380928039551e-01
2.850000000000000000e+02 7.353226470947265625e+01 -2.807466888427734375e+01 -1.940254449844360352e+00 1.199236288666725159e-01 -5.460992455482482910e-01 -7.202818393707275391e-01
2.860000000000000000e+02 7.374259948730468750e+01 -2.852674674987792969e+01 -9.225720763206481934e-01 5.030061602592468262e-01 -1.258697956800460815e-01 -4.130679965019226074e-01
2.870000000000000000e+02 7.416545104980468750e+01 -2.833415222167968750e+01 -9.589258432388305664e-01 5.688937306404113770e-01 -1.170096322894096375e-01 -3.731383755803108215e-02
2.880000000000000000e+02 7.330728912353515625e+01 -2.809932708740234375e+01 -1.776052713394165039e+00 8.223888278007507324e-02 -5.081441402435302734e-01 -8.243086934089660645e-01
2.890000000000000000e+02 7.349626922607421875e+01 -2.768893814086914062e+01 -3.042942285537719727e+00 -2.345881424844264984e-02 -9.199203252792358398e-01 -3.979068696498870850e-01
2.900000000000000000e+02 7.330799865722656250e+01 -2.768715667724609375e+01 -2.769508600234985352e+00 1.401168107986450195e-02 -8.266490697860717773e-01 -5.270541310310363770e-01
2.910000000000000000e+02 7.335254669189453125e+01 -2.639190292358398438e+01 -1.018440499901771545e-01 2.473446577787399292e-01 4.365018382668495178e-02 3.466691970825195312e-01
2.920000000000000000e+02 7.395827484130859375e+01 -2.623994445800781250e+01 5.083699822425842285e-01 7.106599211692810059e-01 3.657089769840240479e-01 -2.918615639209747314e-01
2.930000000000000000e+02 7.353465270996093750e+01 -2.684564590454101562e+01 -8.979966640472412109e-01 -3.733179345726966858e-02 -2.805985510349273682e-01 4.015522599220275879e-01
2.940000000000000000e+02 7.350450897216796875e+01 -2.702424240112304688e+01 -1.489612340927124023e+00 -3.950640559196472168e-02 -4.587356150150299072e-01 2.444211691617965698e-01
2.950000000000000000e+02 7.395929718017578125e+01 -2.598546791076660156e+01 7.025256752967834473e-01 9.579235911369323730e-01 4.981347918510437012e-01 -5.079596042633056641e-01
2.960000000000000000e+02 7.437245178222656250e+01 -2.629846572875976562e+01 9.139593243598937988e-01 1.125030875205993652e+00 6.116970181465148926e-01 -9.080529808998107910e-01
2.970000000000000000e+02 7.436222839355468750e+01 -2.600765609741210938e+01 1.192895054817199707e+00 1.630740404129028320e+00 8.470906019210815430e-01 -1.251954555511474609e+00
2.980000000000000000e+02 7.526052856445312500e+01 -2.616307258605957031e+01 2.021751642227172852e+00 4.990147590637207031e+00 2.103569746017456055e+00 -3.968015670776367188e+00
2.990000000000000000e+02 7.517689514160156250e+01 -2.597269630432128906e+01 1.591388106346130371e+00 4.999662399291992188e+00 1.977315187454223633e+00 -3.465672969818115234e+00
3.000000000000000000e+02 7.570590209960937500e+01 -2.600461387634277344e+01 8.067657351493835449e-01 9.692054748535156250e+00 3.149646043777465820e+00 -4.808951854705810547e+00
3.010000000000000000e+02 7.698359680175781250e+01 -2.624682235717773438e+01 5.501751303672790527e-01 1.721806526184082031e+01 5.330471992492675781e+00 1.112494707107543945e+00
3.020000000000000000e+02 7.726021575927734375e+01 -2.650766181945800781e+01 2.499882936477661133e+00 1.655976676940917969e+01 5.717895030975341797e+00 2.442104816436767578e+00
3.030000000000000000e+02 7.741925811767578125e+01 -2.721408271789550781e+01 6.158610343933105469e+00 1.487712287902832031e+01 6.310719966888427734e+00 4.609555602073669434e-01
3.040000000000000000e+02 7.757576751708984375e+01 -2.749019432067871094e+01 5.369673252105712891e+00 1.411338138580322266e+01 5.844916343688964844e+00 -1.052455663681030273e+00
3.050000000000000000e+02 7.719593811035156250e+01 -2.813159370422363281e+01 2.606220722198486328e+00 1.730247116088867188e+01 5.972607612609863281e+00 -3.007551908493041992e+00
3.060000000000000000e+02 7.736542510986328125e+01 -2.819591522216796875e+01 2.063260316848754883e+00 1.611784553527832031e+01 5.454331398010253906e+00 -2.817565202713012695e+00
3.070000000000000000e+02 7.726490020751953125e+01 -2.834150123596191406e+01 1.127263545989990234e+00 1.658066749572753906e+01 5.312378883361816406e+00 -2.806643009185791016e+00
3.080000000000000000e+02 7.665970611572265625e+01 -2.871140480041503906e+01 -1.712448716163635254e+00 1.707114601135253906e+01 4.607608795166015625e+00 8.130591511726379395e-01
3.090000000000000000e+02 7.628844451904296875e+01 -2.850164413452148438e+01 -1.501165390014648438e+00 1.677393722534179688e+01 4.581831455230712891e+00 3.330324888229370117e+00
3.100000000000000000e+02 7.598448181152343750e+01 -2.865384674072265625e+01 -7.547328472137451172e-01 1.269265556335449219e+01 3.581376791000366211e+00 4.419855117797851562e+00
3.110000000000000000e+02 7.572225189208984375e+01 -2.877911186218261719e+01 -1.501626074314117432e-01 9.513361930847167969e+00 2.808959722518920898e+00 4.280778408050537109e+00
3.120000000000000000e+02 7.559323883056640625e+01 -2.852840423583984375e+01 6.255105733871459961e-01 7.611747741699218750e+00 2.471177577972412109e+00 4.644362449645996094e+00
3.130000000000000000e+02 7.487350463867187500e+01 -2.873467063903808594e+01 4.522043466567993164e-01 2.842390060424804688e+00 9.883782863616943359e-01 2.068193197250366211e+00
3.140000000000000000e+02 7.467290496826171875e+01 -2.874207305908203125e+01 2.526447474956512451e-01 2.306634664535522461e+00 7.677838206291198730e-01 1.535919427871704102e+00
3.150000000000000000e+02 7.464312744140625000e+01 -2.849490165710449219e+01 -7.697028107941150665e-03 1.558097839355468750e+00 4.651202559471130371e-01 1.135354995727539062e+00
3.160000000000000000e+02 7.427891540527343750e+01 -2.875371551513671875e+01 -1.180460825562477112e-01 1.452037930488586426e+00 4.001975655555725098e-01 6.287791132926940918e-01
3.170000000000000000e+02 7.424700164794921875e+01 -2.853809547424316406e+01 -4.571875929832458496e-01 9.831689000129699707e-01 1.577943861484527588e-01 2.986828684806823730e-01
3.180000000000000000e+02 7.391030120849609375e+01 -2.719763946533203125e+01 -2.293425321578979492e+00 -2.529115788638591766e-02 -6.956149935722351074e-01 1.570619195699691772e-01
3.190000000000000000e+02 7.410401916503906250e+01 -2.687363815307617188e+01 -9.153145551681518555e-01 6.700175255537033081e-02 -2.544938325881958008e-01 1.680954992771148682e-01
3.200000000000000000e+02 7.433140563964843750e+01 -2.688991928100585938e+01 -8.131121397018432617e-01 2.196224778890609741e-01 -1.780469119548797607e-01 -2.009730972349643707e-02
3.210000000000000000e+02 7.475847625732421875e+01 -2.695413589477539062e+01 -5.065770149230957031e-01 3.761637806892395020e-01 -3.912396356463432312e-02 -3.680645227432250977e-01
3.220000000000000000e+02 7.404647827148437500e+01 -2.781757926940917969e+01 -2.972537279129028320e+00 -5.509144626557826996e-03 -8.934139013290405273e-01 -5.255345702171325684e-01
3.230000000000000000e+02 7.411250305175781250e+01 -2.753942298889160156e+01 -4.378603935241699219e+00 -8.986657857894897461e-02 -1.340541243553161621e+00 -1.799880266189575195e-01
3.240000000000000000e+02 7.460762023925781250e+01 -2.777553367614746094e+01 -3.164176940917968750e+00 1.000726372003555298e-01 -9.192312955856323242e-01 -1.697304695844650269e-01
3.250000000000000000e+02 7.478187561035156250e+01 -2.771351623535156250e+01 -3.425127029418945312e+00 1.323894262313842773e-01 -9.878212809562683105e-01 -7.842006534337997437e-02
3.260000000000000000e+02 7.515702819824218750e+01 -2.769944190979003906e+01 -2.579095125198364258e+00 2.546405196189880371e-01 -6.973363757133483887e-01 3.469554483890533447e-01
3.270000000000000000e+02 7.538477325439453125e+01 -2.844130325317382812e+01 9.083305001258850098e-01 5.001194953918457031e+00 1.772857666015625000e+00 3.869253396987915039e+00
3.280000000000000000e+02 7.729995727539062500e+01 -2.729604339599609375e+01 7.131867408752441406e+00 1.565100669860839844e+01 6.834862232208251953e+00 8.411430753767490387e-03
3.290000000000000000e+02 7.747945404052734375e+01 -2.706707000732421875e+01 5.384548664093017578e+00 1.486238574981689453e+01 6.074080467224121094e+00 1.126213073730468750e+00
3.300000000000000000e+02 7.356087493896484375e+01 -2.641933631896972656e+01 -5.791771411895751953e-02 2.345701903104782104e-01 5.299574509263038635e-02 2.614719569683074951e-01
3.310000000000000000e+02 7.460612487792968750e+01 -2.631712722778320312e+01 1.287816286087036133e+00 1.421885609626770020e+00 8.129105567932128906e-01 -1.423937678337097168e+00
3.320000000000000000e+02 7.481273651123046875e+01 -2.670031547546386719e+01 9.311708211898803711e-01 7.564893364906311035e-01 5.062980651855468750e-01 -1.145069956779479980e+00
3.330000000000000000e+02 7.470636749267578125e+01 -2.831111526489257812e+01 -2.438889741897583008e-01 1.259827852249145508e+00 3.047816455364227295e-01 1.026681184768676758e+00
3.340000000000000000e+02 7.403583526611328125e+01 -2.815417671203613281e+01 -1.580990791320800781e+00 2.892914414405822754e-01 -3.875097930431365967e-01 -3.058769106864929199e-01
3.350000000000000000e+02 7.455124664306640625e+01 -2.811698532104492188e+01 -1.025412321090698242e+00 5.189447402954101562e-01 -1.519402861595153809e-01 2.919167876243591309e-01
3.360000000000000000e+02 7.421651458740234375e+01 -2.798842239379882812e+01 -2.123752355575561523e+00 1.763037443161010742e-01 -5.842345356941223145e-01 -2.974478006362915039e-01
3.370000000000000000e+02 7.388716888427734375e+01 -2.798807716369628906e+01 -2.055778026580810547e+00 8.951974660158157349e-02 -5.898774862289428711e-01 -5.377649664878845215e-01
3.380000000000000000e+02 7.472627258300781250e+01 -2.799746894836425781e+01 -1.317778587341308594e+00 4.432216584682464600e-01 -2.623670697212219238e-01 4.529021978378295898e-01
3.390000000000000000e+02 7.375096130371093750e+01 -2.643297576904296875e+01 4.447864368557929993e-02 4.165401458740234375e-01 1.383056342601776123e-01 8.444892615079879761e-02
3.400000000000000000e+02 7.400237274169921875e+01 -2.844297409057617188e+01 -8.984748721122741699e-01 6.357244253158569336e-01 -7.882513105869293213e-02 -1.716779917478561401e-01
3.410000000000000000e+02 7.385980987548828125e+01 -2.831961059570312500e+01 -1.167706131935119629e+00 4.234319031238555908e-01 -2.232822477817535400e-01 -4.033737182617187500e-01
3.420000000000000000e+02 4.431189346313476562e+01 -2.324603271484375000e+01 -2.248600125312805176e-01 -3.889975845813751221e-01 -1.841572672128677368e-01 -5.600866079330444336e-01
3.430000000000000000e+02 4.398204421997070312e+01 -2.454467773437500000e+01 -7.069732248783111572e-02 -6.136230230331420898e-01 -2.052960991859436035e-01 -6.036613583564758301e-01
3.440000000000000000e+02 4.775762939453125000e+01 -2.225851440429687500e+01 -9.132333993911743164e-01 -2.411800473928451538e-01 -3.463240265846252441e-01 -8.041415810585021973e-01
3.450000000000000000e+02 4.567446136474609375e+01 -2.276126480102539062e+01 -4.770011007785797119e-01 -3.301619291305541992e-01 -2.421489059925079346e-01 -6.832783222198486328e-01
3.460000000000000000e+02 4.247568130493164062e+01 -2.855452728271484375e+01 -3.776082396507263184e-01 -2.010735273361206055e+00 -7.165030837059020996e-01 -5.382959842681884766e-01
3.470000000000000000e+02 4.449437332153320312e+01 -3.387199401855468750e+01 2.086322456598281860e-01 -4.484806060791015625e-01 -7.195451110601425171e-02 2.152559012174606323e-01
3.480000000000000000e+02 4.163548660278320312e+01 -3.071037101745605469e+01 -6.853604912757873535e-01 -1.510466337203979492e+00 -6.587480306625366211e-01 -6.902609467506408691e-01
3.490000000000000000e+02 3.622645568847656250e+01 -3.350876617431640625e+01 -2.238811254501342773e-01 -1.257220506668090820e-01 -1.048809513449668884e-01 -1.617407202720642090e-01
3.500000000000000000e+02 3.457336807250976562e+01 -3.330018615722656250e+01 -7.295675575733184814e-02 -1.566141843795776367e-02 -2.658545225858688354e-02 -5.199973657727241516e-02
3.510000000000000000e+02 3.358386230468750000e+01 -3.533283996582031250e+01 -7.801140099763870239e-02 -5.268179252743721008e-02 -3.920795768499374390e-02 -1.006354317069053650e-01
3.520000000000000000e+02 3.067263793945312500e+01 -3.208499908447265625e+01 3.976093605160713196e-02 -9.687549318186938763e-04 1.163765415549278259e-02 -5.895036272704601288e-03
3.530000000000000000e+02 2.538099288940429688e+01 -3.162328910827636719e+01 2.849437668919563293e-02 2.478630631230771542e-04 8.622671477496623993e-03 -4.154789712629280984e-05
3.540000000000000000e+02 1.970961189270019531e+01 -3.174248504638671875e+01 1.535675488412380219e-02 4.993599141016602516e-04 4.756834357976913452e-03 2.085484098643064499e-03
3.550000000000000000e+02 1.675283241271972656e+01 -3.129141044616699219e+01 9.728251956403255463e-03 2.009881281992420554e-04 2.978772157803177834e-03 4.213609208818525076e-04
3.560000000000000000e+02 1.538644886016845703e+01 -3.092294692993164062e+01 6.110968533903360367e-03 6.969673559069633484e-04 2.042380860075354576e-03 -3.097491280641406775e-04
3.570000000000000000e+02 1.362562847137451172e+01 -3.190627098083496094e+01 2.948825480416417122e-03 -2.403076359769329429e-04 8.125553140416741371e-04 1.348810270428657532e-03
3.580000000000000000e+02 9.503136634826660156e+00 -3.432284164428710938e+01 -4.630076873581856489e-04 2.527246833778917789e-04 -6.308490264927968383e-05 2.087764907628297806e-03
3.590000000000000000e+02 1.525809478759765625e+01 -3.666070556640625000e+01 3.602677315939217806e-04 2.396490424871444702e-03 8.270274265669286251e-04 3.914675675332546234e-03
3.600000000000000000e+02 2.557216072082519531e+01 -3.796923065185546875e+01 -1.152213942259550095e-02 -1.363047398626804352e-02 -7.545784115791320801e-03 -2.676732139661908150e-03
3.610000000000000000e+02 3.978432464599609375e+01 -3.778782653808593750e+01 2.014645040035247803e-01 -4.398502111434936523e-01 -7.151570916175842285e-02 -1.114768162369728088e-01
3.620000000000000000e+02 4.243444061279296875e+01 -4.125894546508789062e+01 2.299586832523345947e-01 -1.704461276531219482e-01 1.785376854240894318e-02 4.466789774596691132e-03
3.630000000000000000e+02 4.658150482177734375e+01 -3.891341400146484375e+01 2.165653929114341736e-02 4.011602699756622314e-01 1.268450468778610229e-01 3.109717369079589844e-01
3.640000000000000000e+02 6.832059478759765625e+01 -3.612367248535156250e+01 3.901256620883941650e-02 -5.525829195976257324e-01 -1.540710926055908203e-01 -4.138280749320983887e-01
3.650000000000000000e+02 7.814038085937500000e+01 -4.167309570312500000e+01 6.389536261558532715e-01 9.972362518310546875e+00 3.183394908905029297e+00 1.799449324607849121e-01
3.660000000000000000e+02 7.747151184082031250e+01 -3.798932266235351562e+01 -8.955270051956176758e-02 9.960952758789062500e+00 2.961420059204101562e+00 4.092510342597961426e-01
3.670000000000000000e+02 7.941342926025390625e+01 -3.347174072265625000e+01 -1.499892473220825195e-01 1.297795677185058594e+01 3.848390340805053711e+00 6.819641590118408203e-02
3.680000000000000000e+02 7.942213439941406250e+01 -3.204733657836914062e+01 -1.185328587889671326e-01 1.283135986328125000e+01 3.813848018646240234e+00 -2.672664225101470947e-01
3.690000000000000000e+02 7.762351226806640625e+01 -2.878084564208984375e+01 -6.104013323783874512e-02 1.478325939178466797e+01 4.416665554046630859e+00 -2.444024085998535156e+00
3.700000000000000000e+02 7.782556915283203125e+01 -2.643452835083007812e+01 2.026274681091308594e+00 1.394264888763427734e+01 4.790677070617675781e+00 2.182636022567749023e+00
3.710000000000000000e+02 1.088197326660156250e+01 -3.043781852722167969e+01 1.786870067007839680e-03 -7.281064608832821250e-05 5.142178270034492016e-04 3.040587471332401037e-04
3.720000000000000000e+02 4.735293865203857422e+00 -2.421518898010253906e+01 4.941561492159962654e-04 1.200265542138367891e-04 1.842548081185668707e-04 -5.304666956362780184e-06
3.730000000000000000e+02 6.936821937561035156e-01 -3.039166641235351562e+01 -6.129138637334108353e-04 -5.918953684158623219e-05 -2.016310172621160746e-04 -4.284206079319119453e-05
3.740000000000000000e+02 7.207602262496948242e-01 -3.180529594421386719e+01 6.233020103536546230e-04 1.325639095739461482e-05 1.909675193019211292e-04 8.719796460354700685e-05
3.750000000000000000e+02 9.226138591766357422e-01 -3.737309265136718750e+01 3.192909061908721924e-04 7.100994698703289032e-04 3.088171069975942373e-04 2.340230421395972371e-04
3.760000000000000000e+02 2.863535165786743164e+00 -3.826349258422851562e+01 4.337816208135336637e-04 9.087483049370348454e-04 4.027589748147875071e-04 6.669020513072609901e-04
3.770000000000000000e+02 1.053057003021240234e+01 -2.810374641418457031e+01 1.970851590158417821e-04 8.646403875900432467e-05 8.506476297043263912e-05 1.769291520758997649e-05
3.780000000000000000e+02 1.159014511108398438e+01 -2.913008117675781250e+01 7.003991631790995598e-04 -4.110207737539894879e-05 1.977891224669292569e-04 -1.878165494417771697e-04
3.790000000000000000e+02 8.711198806762695312e+00 -2.560611343383789062e+01 7.489005656680092216e-05 3.439699867158196867e-05 3.278611620771698654e-05 1.216188684338703752e-05
3.800000000000000000e+02 8.569705963134765625e+00 -2.258006286621093750e+01 1.691887300694361329e-04 -4.401710248203016818e-05 3.755148645723238587e-05 5.966859316686168313e-05
3.810000000000000000e+02 8.810602188110351562e+00 -2.116498374938964844e+01 -2.488242753315716982e-04 1.463400349166477099e-05 -7.025708328001201153e-05 -2.078643228742294014e-05
3.820000000000000000e+02 7.671424865722656250e+00 -2.102815818786621094e+01 4.594032943714410067e-04 -2.290236989210825413e-05 1.309502840740606189e-04 3.605156234698370099e-05
3.830000000000000000e+02 8.075245857238769531e+00 -1.964740943908691406e+01 -4.542448441497981548e-04 5.099146073916926980e-05 -1.209760157507844269e-04 -1.611167681403458118e-05
3.840000000000000000e+02 1.164276599884033203e+01 -1.569710063934326172e+01 -4.492459265748038888e-05 -1.093441824195906520e-04 -4.628063106792978942e-05 1.322525058640167117e-04
3.850000000000000000e+02 1.395055484771728516e+01 -1.417266941070556641e+01 -4.156590875936672091e-05 -1.378525485051795840e-04 -5.382553717936389148e-05 5.784526001662015915e-05
3.860000000000000000e+02 1.678059387207031250e+01 -1.334139442443847656e+01 -3.409494183870265260e-06 -1.248439075425267220e-04 -3.847601692541502416e-05 3.368313400642364286e-06
3.870000000000000000e+02 1.970386886596679688e+01 -1.327965164184570312e+01 5.367389348975848407e-06 -9.804113506106659770e-05 -2.780212344077881426e-05 2.071681137749692425e-07
3.880000000000000000e+02 1.825034904479980469e+01 -1.318164062500000000e+01 6.157417374197393656e-06 1.000605552690103650e-04 3.186539106536656618e-05 -4.360822913440642878e-06
3.890000000000000000e+02 2.135807800292968750e+01 -1.394256782531738281e+01 -1.959010296559426934e-05 2.899134051403962076e-05 2.820371037159929983e-06 -1.156609187091817148e-06
3.900000000000000000e+02 2.092345809936523438e+01 -1.265455150604248047e+01 -5.092647370474878699e-06 4.784277189173735678e-05 1.282503762922715396e-05 -1.800285303943383042e-06
3.910000000000000000e+02 2.220416069030761719e+01 -1.316534519195556641e+01 -2.292928911629132926e-05 -1.512734615971567109e-05 -1.141699067375157028e-05 -2.154710273316595703e-05
3.920000000000000000e+02 1.778846168518066406e+01 -7.031184673309326172e+00 5.658353620674461126e-05 2.953342664113733917e-05 2.583508830866776407e-05 2.364812826272100210e-05
3.930000000000000000e+02 1.638958168029785156e+01 -6.508368015289306641e+00 -6.514112465083599091e-05 -3.489222581265494227e-05 -3.001000550284516066e-05 -3.550995643308851868e-06
3.940000000000000000e+02 1.349058437347412109e+01 -3.677017688751220703e+00 3.850309803965501487e-05 8.261690527433529496e-05 3.633600135799497366e-05 3.971446494688279927e-05
3.950000000000000000e+02 1.078066730499267578e+01 -2.390298128128051758e+00 4.260934656485915184e-05 6.760950782336294651e-05 3.306565486127510667e-05 4.545202682493254542e-05
3.960000000000000000e+02 1.258602333068847656e+01 -3.991691112518310547e+00 3.870678847306407988e-05 8.281526970677077770e-05 3.645661854534409940e-05 4.335492121754214168e-05
3.970000000000000000e+02 9.223849296569824219e+00 -1.960112690925598145e+00 2.860363565559964627e-05 5.861982208443805575e-05 2.616703750391025096e-05 2.725156991800758988e-05
3.980000000000000000e+02 3.521280288696289062e+00 -2.091472387313842773e+00 -7.797131547704339027e-05 1.120071374316466972e-05 -2.003118061111308634e-05 -5.603105091722682118e-05
3.990000000000000000e+02 6.039992570877075195e-01 -1.064617061614990234e+01 -2.650601381901651621e-04 1.579528884576575365e-06 -7.904418453108519316e-05 -2.614315417304169387e-05
4.000000000000000000e+02 1.799086689949035645e+00 -1.056487655639648438e+01 2.692819689400494099e-04 -4.547119260678300634e-06 7.942045340314507484e-05 3.768887472688220441e-05
4.010000000000000000e+02 6.071732044219970703e-01 -1.770517349243164062e+01 4.267898038960993290e-04 1.372929182252846658e-05 1.321557210758328438e-04 5.293064896250143647e-05
4.020000000000000000e+02 9.255252838134765625e+00 -1.982828903198242188e+01 3.294257912784814835e-04 -1.564822923683095723e-05 9.413326915819197893e-05 -2.425469574518501759e-06
4.030000000000000000e+02 1.827710270881652832e+00 -1.760940170288085938e+01 -3.873279492836445570e-04 -3.506414577714167535e-05 -1.267176266992464662e-04 -7.051049033179879189e-05
4.040000000000000000e+02 6.552497148513793945e-01 -2.332123184204101562e+01 5.070004845038056374e-04 -5.214169050304917619e-06 1.505358959548175335e-04 4.791865285369567573e-05
4.050000000000000000e+02 7.647590637207031250e+01 3.935042572021484375e+01 -1.100396737456321716e-01 6.962554454803466797e+00 2.055754423141479492e+00 1.229489073157310486e-01
4.060000000000000000e+02 7.912471771240234375e+01 3.741526412963867188e+01 -3.146730735898017883e-02 7.455692768096923828e+00 2.227267742156982422e+00 9.021559730172157288e-03
4.070000000000000000e+02 7.938597106933593750e+01 3.063141059875488281e+01 -4.976862575858831406e-03 6.490658283233642578e+00 1.945704460144042969e+00 1.560272127389907837e-01
4.080000000000000000e+02 7.940595245361328125e+01 2.370792388916015625e+01 1.927543804049491882e-02 5.149100303649902344e+00 1.550512790679931641e+00 6.141864508390426636e-02
4.090000000000000000e+02 7.941004943847656250e+01 1.672791099548339844e+01 -7.784014567732810974e-03 4.975512504577636719e+00 1.490318536758422852e+00 -1.157323643565177917e-02
4.100000000000000000e+02 7.935140991210937500e+01 9.737056732177734375e+00 -9.706830605864524841e-03 4.858308315277099609e+00 1.454580545425415039e+00 3.435965627431869507e-02
4.110000000000000000e+02 7.938305664062500000e+01 2.731543540954589844e+00 2.101834490895271301e-02 4.664410591125488281e+00 1.405628681182861328e+00 -6.453005969524383545e-02
4.120000000000000000e+02 7.938211822509765625e+01 -5.609820842742919922e+00 -2.051139948889613152e-03 6.410633563995361328e+00 1.922574758529663086e+00 -1.853519380092620850e-01
4.130000000000000000e+02 7.943936920166015625e+01 -1.254907703399658203e+01 1.474300865083932877e-02 8.562543869018554688e+00 2.573186159133911133e+00 -2.402355223894119263e-01
4.140000000000000000e+02 7.943627929687500000e+01 -2.091023635864257812e+01 -4.207985103130340576e-02 1.226683044433593750e+01 3.667425155639648438e+00 -1.470469534397125244e-01
4.150000000000000000e+02 7.373783111572265625e+01 -2.564538574218750000e+01 6.815780401229858398e-01 1.208188176155090332e+00 5.669298768043518066e-01 -4.746624827384948730e-01
4.160000000000000000e+02 7.818657684326171875e+01 -8.462877273559570312e+00 2.778237685561180115e-02 6.948945045471191406e+00 2.093018293380737305e+00 -4.883123040199279785e-01
4.170000000000000000e+02 7.817006683349609375e+01 -1.539834976196289062e+00 3.884920477867126465e-02 5.754307746887207031e+00 1.737947106361389160e+00 -3.891586959362030029e-01
4.180000000000000000e+02 7.814362335205078125e+01 5.415276527404785156e+00 5.810356512665748596e-02 5.296512126922607422e+00 1.606384754180908203e+00 2.744407393038272858e-02
4.190000000000000000e+02 7.823596954345703125e+01 1.259727001190185547e+01 -3.472677618265151978e-02 5.480713844299316406e+00 1.633796215057373047e+00 2.563766948878765106e-02
4.200000000000000000e+02 7.822688293457031250e+01 1.956524848937988281e+01 3.078446723520755768e-02 5.471357345581054688e+00 1.650642514228820801e+00 1.016508694738149643e-02
4.210000000000000000e+02 7.345174407958984375e+01 2.272880363464355469e+01 2.911676168441772461e-01 7.333590507507324219e+00 2.287427425384521484e+00 -1.732462644577026367e-02
4.220000000000000000e+02 7.936653137207031250e+01 3.200697708129882812e+01 -6.013857666403055191e-03 6.806661128997802734e+00 2.040194034576416016e+00 1.429679095745086670e-01
4.230000000000000000e+02 7.192496490478515625e+01 4.134018707275390625e+01 -1.523879617452621460e-01 4.810796260833740234e+00 1.397522449493408203e+00 -4.699754994362592697e-03
4.240000000000000000e+02 7.110231018066406250e+01 3.689493942260742188e+01 -3.700408041477203369e-01 4.519066810607910156e+00 1.244707822799682617e+00 -1.050192341208457947e-01
4.250000000000000000e+02 6.470199584960937500e+01 3.434553146362304688e+01 -4.229138791561126709e-01 4.090043008327484131e-01 -4.172870889306068420e-03 -6.350052077323198318e-03
4.260000000000000000e+02 6.691175079345703125e+01 3.230802154541015625e+01 1.936392933130264282e-01 1.769951105117797852e+00 5.890771150588989258e-01 -7.367848753929138184e-01
4.270000000000000000e+02 6.782428741455078125e+01 3.108807563781738281e+01 5.440348982810974121e-01 3.066688299179077148e+00 1.083217024803161621e+00 -1.333801388740539551e+00
4.280000000000000000e+02 6.708545684814453125e+01 3.505729293823242188e+01 -3.034387230873107910e-01 2.414375543594360352e+00 6.332810521125793457e-01 -5.551271438598632812e-01
4.290000000000000000e+02 6.858796691894531250e+01 2.979906463623046875e+01 9.073606133460998535e-01 5.261949062347412109e+00 1.850792884826660156e+00 -1.780206441879272461e+00
4.300000000000000000e+02 6.913178253173828125e+01 2.841948890686035156e+01 7.139489650726318359e-01 7.101073741912841797e+00 2.344506740570068359e+00 -1.756432652473449707e+00
4.310000000000000000e+02 6.988298797607421875e+01 2.414122009277343750e+01 1.931572407484054565e-01 9.560243606567382812e+00 2.926020145416259766e+00 -4.750675261020660400e-01
4.320000000000000000e+02 6.993720245361328125e+01 2.271956443786621094e+01 9.952183812856674194e-02 9.384013175964355469e+00 2.845060586929321289e+00 -1.508162468671798706e-01
4.330000000000000000e+02 7.121353912353515625e+01 1.849840736389160156e+01 3.508548811078071594e-02 8.534976005554199219e+00 2.571018457412719727e+00 1.428483240306377411e-02
4.340000000000000000e+02 6.997705078125000000e+01 1.849353790283203125e+01 -3.299439325928688049e-03 9.048818588256835938e+00 2.713655710220336914e+00 3.542648861184716225e-03
4.350000000000000000e+02 6.986231994628906250e+01 1.282829761505126953e+01 -4.661865532398223877e-02 8.092148780822753906e+00 2.413658857345581055e+00 3.965187072753906250e-01
4.360000000000000000e+02 7.108860778808593750e+01 1.133522129058837891e+01 -5.846618413925170898e-01 8.378757476806640625e+00 2.338228702545166016e+00 -1.627717167139053345e-01
4.370000000000000000e+02 7.120369720458984375e+01 1.267034912109375000e+01 -3.075569868087768555e-01 8.112876892089843750e+00 2.341595888137817383e+00 -3.308229148387908936e-01
4.380000000000000000e+02 7.387807464599609375e+01 7.579034805297851562e+00 1.210061162710189819e-01 7.519148826599121094e+00 2.292046546936035156e+00 1.875024437904357910e-01
4.390000000000000000e+02 7.016970062255859375e+01 1.681357264518737793e+00 4.168288707733154297e-01 1.079383468627929688e+01 3.363199234008789062e+00 8.168150186538696289e-01
4.400000000000000000e+02 6.655492401123046875e+01 -9.112936973571777344e+00 8.083174824714660645e-01 2.702614545822143555e+00 1.053279638290405273e+00 1.257913351058959961e+00
4.410000000000000000e+02 6.768872070312500000e+01 -6.436028480529785156e+00 5.465385913848876953e-01 3.739865064620971680e+00 1.285921096801757812e+00 1.343715429306030273e+00
4.420000000000000000e+02 6.820642852783203125e+01 -2.142044258117675781e+01 -5.871201992034912109e+00 -8.870720267295837402e-01 -2.027482032775878906e+00 7.554867267608642578e-01
4.430000000000000000e+02 6.684346771240234375e+01 -2.164195632934570312e+01 -4.514157772064208984e+00 -3.552377820014953613e-01 -1.460818648338317871e+00 -7.686038613319396973e-01
4.440000000000000000e+02 6.794052124023437500e+01 -2.036270904541015625e+01 -2.167059898376464844e+00 -1.019624829292297363e+00 -9.560054540634155273e-01 4.744998514652252197e-01
4.450000000000000000e+02 7.065521240234375000e+01 -2.066085433959960938e+01 -1.645627260208129883e+00 4.064186513423919678e-01 -3.717625737190246582e-01 -5.150619149208068848e-01
4.460000000000000000e+02 7.102731323242187500e+01 -2.330405044555664062e+01 -1.284490227699279785e+00 -1.755005359649658203e+00 -9.118486642837524414e-01 1.342089176177978516e+00
4.470000000000000000e+02 7.228580474853515625e+01 -2.364284324645996094e+01 -8.162509799003601074e-01 6.213780641555786133e-01 -5.846187099814414978e-02 1.287693828344345093e-01
4.480000000000000000e+02 7.252899932861328125e+01 -2.554065513610839844e+01 6.008892878890037537e-02 5.530033633112907410e-02 3.461677953600883484e-02 4.165041744709014893e-01
4.490000000000000000e+02 7.203393554687500000e+01 -2.539688873291015625e+01 -5.268287658691406250e-02 -2.411303222179412842e-01 -8.814395964145660400e-02 5.510802865028381348e-01
4.500000000000000000e+02 7.146450805664062500e+01 -2.516054916381835938e+01 -1.221188232302665710e-01 -1.512543201446533203e+00 -4.903986155986785889e-01 3.718790113925933838e-01
4.510000000000000000e+02 6.264271926879882812e+01 3.723290252685546875e+01 -1.049926355481147766e-01 2.347073704004287720e-01 3.891441971063613892e-02 -4.433178901672363281e-02
4.520000000000000000e+02 6.189665985107421875e+01 3.554971694946289062e+01 -6.750093698501586914e-01 -3.761709481477737427e-02 -2.137879282236099243e-01 1.883324384689331055e-01
4.530000000000000000e+02 6.414933776855468750e+01 3.651759719848632812e+01 -1.069780960679054260e-01 3.330042660236358643e-01 6.780785322189331055e-02 -2.457152307033538818e-01
4.540000000000000000e+02 5.592779922485351562e+01 3.594589996337890625e+01 -1.627105325460433960e-01 -2.009039372205734253e-02 -5.484027788043022156e-02 4.614239931106567383e-02
4.550000000000000000e+02 5.769719696044921875e+01 3.611241531372070312e+01 -3.221414983272552490e-01 -2.219108864665031433e-02 -1.032997742295265198e-01 9.296771138906478882e-02
4.560000000000000000e+02 5.912398529052734375e+01 3.588914871215820312e+01 -5.155698060989379883e-01 -4.870825260877609253e-02 -1.692834198474884033e-01 1.472299098968505859e-01
4.570000000000000000e+02 6.043111038208007812e+01 3.573638153076171875e+01 -6.173658370971679688e-01 -5.097901821136474609e-02 -2.005034685134887695e-01 1.826116591691970825e-01
4.580000000000000000e+02 5.199251937866210938e+01 3.484733963012695312e+01 -3.421157225966453552e-02 1.023310888558626175e-02 -7.193538825958967209e-03 3.026681952178478241e-03
4.590000000000000000e+02 4.791566848754882812e+01 3.529662322998046875e+01 -7.415068801492452621e-03 2.070740447379648685e-04 -2.162398304790258408e-03 4.682936239987611771e-03
4.600000000000000000e+02 5.007720184326171875e+01 3.148751640319824219e+01 9.232196025550365448e-03 7.567714899778366089e-03 5.039973184466362000e-03 3.949970006942749023e-03
4.610000000000000000e+02 5.228480148315429688e+01 3.309936904907226562e+01 4.003540147095918655e-03 9.404688142240047455e-03 4.022468347102403641e-03 5.471053998917341232e-03
4.620000000000000000e+02 5.328552627563476562e+01 3.398442459106445312e+01 -7.368856575340032578e-03 3.251366550102829933e-03 -1.235247007571160793e-03 4.183221608400344849e-03
4.630000000000000000e+02 5.440301895141601562e+01 3.507073974609375000e+01 -6.151517853140830994e-02 1.880480995168909431e-04 -1.839813962578773499e-02 1.174917351454496384e-02
4.640000000000000000e+02 4.243883514404296875e+01 3.857320404052734375e+01 -2.203468000516295433e-03 -3.846026724204421043e-03 -1.814848394133150578e-03 5.281518097035586834e-04
4.650000000000000000e+02 4.245291900634765625e+01 4.117957305908203125e+01 -4.549893550574779510e-03 -2.344404114410281181e-03 -2.068289322778582573e-03 -2.194966655224561691e-03
4.660000000000000000e+02 4.576293182373046875e+01 3.056399917602539062e+01 5.687885452061891556e-03 -2.468552265781909227e-04 1.632309053093194962e-03 6.849959609098732471e-04
4.670000000000000000e+02 4.448909759521484375e+01 2.305268859863281250e+01 -4.202142299618571997e-04 1.965206116437911987e-03 4.634975921362638474e-04 1.657962799072265625e-03
4.680000000000000000e+02 4.276400756835937500e+01 1.758938026428222656e+01 -6.948639638721942902e-04 7.591166649945080280e-04 1.927581433847080916e-05 4.370491078589111567e-04
4.690000000000000000e+02 4.394554138183593750e+01 2.172367858886718750e+01 1.614337437786161900e-03 1.732952659949660301e-03 1.004187040962278843e-03 5.695853615179657936e-04
4.700000000000000000e+02 3.756140899658203125e+01 4.082466888427734375e+01 -2.495571970939636230e-03 -1.011333893984556198e-03 -1.052071689628064632e-03 9.470837539993226528e-04
4.710000000000000000e+02 3.838811111450195312e+01 3.784666824340820312e+01 -1.800472964532673359e-03 -9.099227027036249638e-04 -8.131187059916555882e-04 -2.292464720085263252e-03
4.720000000000000000e+02 3.808016204833984375e+01 2.874264526367187500e+01 1.153376506408676505e-04 -1.278919633477926254e-03 -3.490746021270751953e-04 -1.442879438400268555e-04
4.730000000000000000e+02 4.018859481811523438e+01 2.498645210266113281e+01 2.875324105843901634e-03 -3.399029665160924196e-04 7.606263388879597187e-04 4.944709362462162971e-04
4.740000000000000000e+02 3.976830673217773438e+01 1.478864669799804688e+01 -7.527616107836365700e-04 3.925662022083997726e-04 -1.080586225725710392e-04 2.781022049020975828e-04
4.750000000000000000e+02 3.991957473754882812e+01 1.000515460968017578e+01 8.256892324425280094e-04 6.327785376925021410e-05 2.666901273187249899e-04 2.162640739697962999e-04
4.760000000000000000e+02 3.959162139892578125e+01 3.426381349563598633e+00 1.061610055330675095e-05 1.533020549686625600e-04 4.917544356430880725e-05 -1.248634507646784186e-04
4.770000000000000000e+02 3.896583557128906250e+01 -9.985904097557067871e-01 -1.240642886841669679e-04 -5.336544563760980964e-05 -5.322891956893727183e-05 1.171924232039600611e-04
4.780000000000000000e+02 3.564944458007812500e+01 -1.488868999481201172e+01 -3.923649637727066875e-05 -2.107903128489851952e-05 -1.809465902624651790e-05 -9.440211215405724943e-06
4.790000000000000000e+02 3.540741729736328125e+01 -1.797233581542968750e+01 -8.749384505790658295e-06 -1.241836230292392429e-06 -2.997366209456231445e-06 4.521942173596471548e-06
4.800000000000000000e+02 3.673147201538085938e+01 -1.703539276123046875e+01 2.034437102338415571e-06 1.169902498077135533e-05 4.120038738619768992e-06 6.476723683590535074e-06
4.810000000000000000e+02 3.796303939819335938e+01 -1.821555328369140625e+01 -3.839888449874706566e-06 -6.242915333132259548e-06 -3.024841134902089834e-06 1.068640699486422818e-06
4.820000000000000000e+02 4.474188232421875000e+01 -1.913435363769531250e+01 2.302105895068962127e-05 -5.754773610533447936e-06 5.179885647521587089e-06 -4.687071850639767945e-07
4.830000000000000000e+02 4.625464630126953125e+01 -1.877521514892578125e+01 2.360294092795811594e-05 -2.206736098742112517e-06 6.418861630663741380e-06 -6.820601811341475695e-06
4.840000000000000000e+02 4.994904327392578125e+01 -1.805582237243652344e+01 -1.607649755897000432e-05 -2.233703526144381613e-05 -1.152406002802308649e-05 2.269548076583305374e-06
4.850000000000000000e+02 5.094860839843750000e+01 -9.958689689636230469e+00 2.131268847733736038e-04 4.632412583305267617e-06 6.532778934342786670e-05 1.776478711690288037e-05
4.860000000000000000e+02 4.809763717651367188e+01 -5.015429973602294922e+00 -2.520779962651431561e-04 -7.213714707177132368e-05 -9.726454300107434392e-05 -1.013766959658823907e-04
4.870000000000000000e+02 4.832340621948242188e+01 -2.163585901260375977e+00 3.618293849285691977e-04 4.792425170307978988e-05 1.229260960826650262e-04 1.403945934725925326e-04
4.880000000000000000e+02 4.778804779052734375e+01 -9.066223502159118652e-01 -4.071286530233919621e-04 -1.060831928043626249e-04 -1.539635559311136603e-04 -1.663379080127924681e-04
4.890000000000000000e+02 4.657484817504882812e+01 1.551136255264282227e+00 -5.004385020583868027e-04 -1.677228574408218265e-04 -2.004484122153371572e-04 -2.438346564304083586e-04
4.900000000000000000e+02 4.604529190063476562e+01 -2.909348726272583008e+00 2.386762062087655067e-04 1.466745889047160745e-04 1.156052385340444744e-04 1.519621000625193119e-04
4.910000000000000000e+02 4.568518447875976562e+01 -9.394671440124511719e+00 -1.550398592371493578e-04 -6.127348024165257812e-05 -6.489399675047025084e-05 -6.073549593565985560e-05
4.920000000000000000e+02 3.251229476928710938e+01 4.065336990356445312e+01 -2.145103877410292625e-03 -1.337935100309550762e-04 -6.836692336946725845e-04 -1.145495101809501648e-03
4.930000000000000000e+02 2.752415275573730469e+01 4.080849456787109375e+01 -9.246952249668538570e-04 -1.461773263145005330e-05 -2.817939093802124262e-04 3.063043695874512196e-04
4.940000000000000000e+02 2.963691139221191406e+01 2.964561462402343750e+01 1.104955561459064484e-03 -7.333247922360897064e-04 1.114892220357432961e-04 -6.105009815655648708e-04
4.950000000000000000e+02 3.192806625366210938e+01 2.305429458618164062e+01 1.578131690621376038e-03 -6.018464337103068829e-04 2.928855828940868378e-04 -2.328430564375594258e-04
4.960000000000000000e+02 3.290303421020507812e+01 2.050461387634277344e+01 1.438017236068844795e-03 -4.006221715826541185e-04 3.112185222562402487e-04 -1.578801166033372283e-04
4.970000000000000000e+02 3.293792343139648438e+01 1.262910079956054688e+01 -2.586469345260411501e-04 -3.907153222826309502e-05 -8.931553747970610857e-05 8.643361798021942377e-05
4.980000000000000000e+02 3.342124938964843750e+01 3.727295398712158203e+00 -4.820897302124649286e-04 9.888079512165859342e-05 -1.149626768892630935e-04 1.224537263624370098e-04
4.990000000000000000e+02 2.879227638244628906e+01 -5.546940803527832031e+00 -3.922284668078646064e-05 2.409244370937813073e-05 -4.539121164270909503e-06 3.074521009693853557e-05
5.000000000000000000e+02 2.544518280029296875e+01 -1.154980564117431641e+01 -8.806776349956635386e-06 6.947021120140561834e-06 -5.579263984145654831e-07 -3.586872310279431986e-07
5.010000000000000000e+02 2.751900672912597656e+01 -1.645758247375488281e+01 -3.802202400038368069e-06 3.596043825382366776e-05 9.647471415519248694e-06 2.079154364764690399e-05
5.020000000000000000e+02 2.924897384643554688e+01 -1.692470932006835938e+01 -5.022611003369092941e-05 -3.146971357637085021e-05 -2.450874671922065318e-05 -2.367215711274184287e-05
5.030000000000000000e+02 3.154615974426269531e+01 -1.769708442687988281e+01 -2.285919981659390032e-05 -2.234204293927177787e-05 -1.356037228106288239e-05 -1.394351602357346565e-05
5.040000000000000000e+02 1.776789665222167969e+01 4.058080673217773438e+01 -4.229971964377909899e-04 1.955011539394035935e-04 -6.824881711509078741e-05 1.478747726650908589e-04
5.050000000000000000e+02 2.266787147521972656e+01 4.079845809936523438e+01 -7.049109553918242455e-04 6.760955875506624579e-05 -1.911904109874740243e-04 -4.118995275348424911e-04
5.060000000000000000e+02 2.033008384704589844e+01 3.332637023925781250e+01 -2.827360876835882664e-04 1.066270924638956785e-04 -5.283270365907810628e-05 -1.098209177143871784e-04
5.070000000000000000e+02 2.635872840881347656e+01 1.819596481323242188e+01 6.380300037562847137e-04 -2.021517429966479540e-04 1.307634665863588452e-04 5.880706594325602055e-04
5.080000000000000000e+02 2.248714065551757812e+01 7.588757991790771484e+00 -7.384282071143388748e-05 -1.632899366086348891e-04 -7.113982428563758731e-05 -3.437710256548598409e-05
5.090000000000000000e+02 2.153185081481933594e+01 -5.037130117416381836e-01 1.510659203631803393e-04 -1.965580850082915276e-05 3.942303374060429633e-05 -6.605865928577259183e-05
5.100000000000000000e+02 1.927116775512695312e+01 -3.313280344009399414e+00 3.797900717472657561e-05 1.892516411317046732e-05 1.707125193206593394e-05 3.349678445374593139e-05
5.110000000000000000e+02 1.985421562194824219e+01 -3.872620582580566406e+00 2.779700662358663976e-05 -2.644132837303914130e-05 4.067032648435997544e-07 -4.913733937428332865e-05
5.120000000000000000e+02 2.204039192199707031e+01 -6.238890171051025391e+00 -1.303546014241874218e-06 -1.529106157249771059e-05 -4.978382094122935086e-06 -2.697165291465353221e-05
5.130000000000000000e+02 2.355436325073242188e+01 -7.067943572998046875e+00 6.317838597169611603e-06 -1.023070853989338502e-05 -1.173861051029234659e-06 2.580026193754747510e-05
5.140000000000000000e+02 2.390604591369628906e+01 -8.840436935424804688e+00 -6.969862624828238040e-06 -9.025104191096033901e-06 -4.798489953827811405e-06 -8.991294635052327067e-06
5.150000000000000000e+02 1.890855789184570312e+01 3.681103897094726562e+01 -2.887452428694814444e-04 8.626638737041503191e-05 -6.074365956010296941e-05 -5.022027762606739998e-04
5.160000000000000000e+02 1.573849487304687500e+01 3.069673728942871094e+01 -2.286551025463268161e-04 -3.744986679521389306e-05 -7.983149407664313912e-05 -3.592290449887514114e-04
5.170000000000000000e+02 1.645398330688476562e+01 2.249880790710449219e+01 1.805025967769324780e-04 8.593958773417398334e-05 7.993265171535313129e-05 -1.245214516529813409e-04
5.180000000000000000e+02 1.482005786895751953e+01 1.571760559082031250e+01 -1.248789048986509442e-04 -4.256876491126604378e-05 -5.023429912398569286e-05 -2.263508649775758386e-04
5.190000000000000000e+02 1.584322071075439453e+01 6.420035839080810547e+00 1.459959894418716431e-04 -8.212104148697108030e-05 1.916248584166169167e-05 -7.963717507664114237e-05
5.200000000000000000e+02 1.084764957427978516e+01 1.777284860610961914e+00 1.789284215192310512e-05 4.494670429266989231e-05 1.885186429717577994e-05 -3.106276562903076410e-05
5.210000000000000000e+02 1.395599746704101562e+01 3.144948482513427734e-01 4.001394336228258908e-05 5.941994095337577164e-05 2.983016565849538893e-05 -5.763967692473670468e-06
5.220000000000000000e+02 1.504819965362548828e+01 5.293678045272827148e-01 1.926165532495360821e-05 5.550626519834622741e-05 2.243037670268677175e-05 8.318702526821653009e-08
5.230000000000000000e+02 1.575358867645263672e+01 1.137104257941246033e-01 1.274926617043092847e-04 -4.684596933657303452e-05 2.419400880171451718e-05 -5.539195262826979160e-05
5.240000000000000000e+02 1.737627601623535156e+01 -1.808727502822875977e+00 7.448449468938633800e-05 -4.025808084406889975e-05 1.026792506308993325e-05 -6.095683784224092960e-05
5.250000000000000000e+02 1.280721569061279297e+01 4.067609786987304688e+01 -3.057448484469205141e-04 3.106540243607014418e-04 1.472754092901595868e-06 -1.982441026484593749e-04
5.260000000000000000e+02 8.137862205505371094e+00 4.099227523803710938e+01 -1.028413971653208137e-04 4.401349870022386312e-04 1.011880813166499138e-04 3.422275767661631107e-05
5.270000000000000000e+02 8.471694946289062500e+00 3.181591033935546875e+01 4.140709734201664105e-06 2.319992490811273456e-04 7.084198296070098877e-05 -3.182567597832530737e-04
5.280000000000000000e+02 8.198935508728027344e+00 2.214884948730468750e+01 1.624593423912301660e-04 2.261378831462934613e-04 1.165791618404909968e-04 -2.755404566414654255e-04
5.290000000000000000e+02 7.611731052398681641e+00 1.429422664642333984e+01 2.011720644077286124e-04 9.736084030009806156e-05 8.955987141234800220e-05 -5.327992766979150474e-05
5.300000000000000000e+02 8.612352371215820312e+00 8.078845024108886719e+00 -1.225252490257844329e-04 5.056164809502661228e-05 -2.158907955163158476e-05 -6.347051385091617703e-05
5.310000000000000000e+02 6.275701999664306641e+00 1.856146574020385742e+00 -7.889421794970985502e-06 -2.776659187020413810e-07 -2.450126203257241286e-06 -2.427006256766617298e-05
5.320000000000000000e+02 1.165704536437988281e+01 1.391690611839294434e+00 1.058199268300086260e-04 -1.877471004263497889e-05 2.611356467241421342e-05 -4.290913420845754445e-05
5.330000000000000000e+02 2.012051105499267578e+00 4.165183258056640625e+01 -4.836641164729371667e-05 7.638257811777293682e-04 2.146378101315349340e-04 -1.760661507432814687e-05
5.340000000000000000e+02 4.261077404022216797e+00 3.801145935058593750e+01 -3.929976446670480072e-05 6.598937325179576874e-04 1.861781929619610310e-04 -2.679923090909142047e-05
5.350000000000000000e+02 2.448314428329467773e+00 3.561913299560546875e+01 8.361759682884439826e-05 7.130499579943716526e-04 2.390002628089860082e-04 2.456972651998512447e-05
5.360000000000000000e+02 2.053520441055297852e+00 2.877802276611328125e+01 -1.866619277279824018e-04 5.291731795296072960e-04 1.027533871820196509e-04 -5.977217733743600547e-05
5.370000000000000000e+02 1.952816724777221680e+00 2.313197326660156250e+01 -1.431387499906122684e-04 3.474688564892858267e-04 6.129903340479359031e-05 -5.484756547957658768e-05
5.380000000000000000e+02 1.807162880897521973e+00 1.747235870361328125e+01 -1.168812232208438218e-04 1.927967241499572992e-04 2.277465137012768537e-05 -4.142672696616500616e-05
5.390000000000000000e+02 5.318239331245422363e-01 6.427732467651367188e+00 7.377829024335369468e-05 1.108760807255748659e-05 2.545976894907653332e-05 -9.496610800852067769e-06
5.400000000000000000e+02 1.583988428115844727e+00 9.175125122070312500e+00 -1.048673220793716609e-04 5.104971205582842231e-05 -1.614528264326509088e-05 -2.858824336726684123e-05
5.410000000000000000e+02 4.886413574218750000e+00 2.681342840194702148e+00 3.944925992982462049e-05 2.314184530405327678e-05 1.877733120636548847e-05 -1.475421322538750246e-05
5.420000000000000000e+02 4.069327545166015625e+01 -2.041535568237304688e+01 2.517205757612828165e-06 2.288137329742312431e-05 7.619573352712905034e-06 1.986714596569072455e-05
5.430000000000000000e+02 4.033063125610351562e+01 -2.046069717407226562e+01 -2.204702650487888604e-05 -1.075934324035188183e-05 -9.841911378316581249e-06 2.384362687735119835e-06
5.440000000000000000e+02 5.277843093872070312e+01 -1.737322616577148438e+01 -9.433189006813336164e-06 -5.685455107595771551e-05 -1.988632175198290497e-05 4.920461378787877038e-06
5.450000000000000000e+02 5.208024597167968750e+01 -1.758782005310058594e+01 1.309996696363668889e-05 3.352997009642422199e-05 1.398898075422039255e-05 -1.350989987258799374e-05
5.460000000000000000e+02 5.432681274414062500e+01 -1.696127510070800781e+01 4.251209247740916908e-06 -2.692980342544615269e-05 -6.803578344261040911e-06 -5.590782166109420359e-06
5.470000000000000000e+02 5.352563095092773438e+01 -1.707879066467285156e+01 4.125490886508487165e-05 4.166666985838674009e-05 2.487647361704148352e-05 6.866378953418461606e-06
5.480000000000000000e+02 5.775822830200195312e+01 -1.632304382324218750e+01 -4.012223871541209519e-05 3.885962723870761693e-05 -3.787832838497706689e-07 1.287054237764095888e-05
5.490000000000000000e+02 5.849058914184570312e+01 -1.577688789367675781e+01 8.563633309677243233e-05 4.587521834764629602e-05 3.945346543332561851e-05 8.584347233409062028e-05
5.500000000000000000e+02 5.910187530517578125e+01 -1.544298076629638672e+01 -4.274670573067851365e-06 5.453505582408979535e-05 1.507811521150870249e-05 1.095236621040385216e-05
5.510000000000000000e+02 4.482442474365234375e+01 2.204112529754638672e+00 -3.756561200134456158e-04 -2.167261409340426326e-04 -1.777146826498210430e-04 -2.569768694229424000e-04
5.520000000000000000e+02 4.045185852050781250e+01 2.431531906127929688e+00 5.105038871988654137e-05 -1.590735519130248576e-05 1.054291078617097810e-05 1.183482163469307125e-04
5.530000000000000000e+02 4.454500198364257812e+01 5.182090282440185547e+00 6.217684713192284107e-04 1.261509896721690893e-04 2.243758499389514327e-04 3.553315473254770041e-04
5.540000000000000000e+02 4.235902404785156250e+01 1.044960784912109375e+01 6.373749929480254650e-04 9.159184264717623591e-05 2.186900528613477945e-04 1.100079753086902201e-04
5.550000000000000000e+02 4.224301528930664062e+01 1.189541339874267578e+01 -6.512600230053067207e-04 1.854277506936341524e-04 -1.397496671415865421e-04 -2.306972237420268357e-05
5.560000000000000000e+02 4.227543640136718750e+01 1.333034992218017578e+01 7.446373929269611835e-04 2.407234715064987540e-04 2.956082462333142757e-04 8.285040530608966947e-05
5.570000000000000000e+02 3.853679656982421875e+01 1.803129959106445312e+01 1.524893101304769516e-03 3.002100675075780600e-05 4.664742446038872004e-04 4.509690334089100361e-04
5.580000000000000000e+02 4.311716461181640625e+01 2.362092590332031250e+01 2.686495427042245865e-03 1.094320556148886681e-03 1.134244725108146667e-03 9.098194423131644726e-04
5.590000000000000000e+02 4.581637191772460938e+01 2.558553886413574219e+01 -1.747180795064195991e-04 2.633884316310286522e-03 7.377498550340533257e-04 2.888325136154890060e-03
5.600000000000000000e+02 4.779528808593750000e+01 3.122160148620605469e+01 7.544768974184989929e-03 1.180344959720969200e-03 2.617534017190337181e-03 1.277684466913342476e-03
5.610000000000000000e+02 4.820551681518554688e+01 2.912832069396972656e+01 6.800203584134578705e-03 5.369327496737241745e-03 3.650859463959932327e-03 2.664998173713684082e-03
5.620000000000000000e+02 4.632350158691406250e+01 3.192021560668945312e+01 1.481753773987293243e-03 -2.346100809518247843e-04 3.741430991794914007e-04 9.729816229082643986e-04
5.630000000000000000e+02 6.470798492431640625e+01 -1.324367046356201172e+01 1.289598345756530762e+00 1.867707848548889160e+00 9.471918940544128418e-01 1.516115546226501465e+00
5.640000000000000000e+02 6.431810760498046875e+01 -1.403976440429687500e+01 1.304161667823791504e+00 1.680039882659912109e+00 8.952604532241821289e-01 1.657687306404113770e+00
5.650000000000000000e+02 6.346557617187500000e+01 -1.547491168975830078e+01 1.328677415847778320e+00 1.732488632202148438e+00 9.183498024940490723e-01 1.759915709495544434e+00
5.660000000000000000e+02 6.287602615356445312e+01 -2.302491760253906250e+01 -6.980897784233093262e-01 2.771099805831909180e-01 -1.262939423322677612e-01 3.451164960861206055e-01
5.670000000000000000e+02 6.354065704345703125e+01 -2.065395736694335938e+01 -1.162225961685180664e+00 1.175951361656188965e+00 4.117617383599281311e-03 9.324018359184265137e-01
5.680000000000000000e+02 6.099820327758789062e+01 -2.267406845092773438e+01 -1.581460088491439819e-01 1.787393331527709961e+00 4.887741804122924805e-01 1.556564569473266602e+00
5.690000000000000000e+02 6.230164337158203125e+01 -1.993777847290039062e+01 -7.819073796272277832e-01 1.918890714645385742e+00 3.410950005054473877e-01 1.323790550231933594e+00
5.700000000000000000e+02 6.148677825927734375e+01 -1.825244712829589844e+01 2.355457395315170288e-01 2.386495590209960938e+00 7.866124510765075684e-01 1.415135860443115234e+00
5.710000000000000000e+02 5.834117507934570312e+01 -1.997351455688476562e+01 -1.135443806648254395e+00 1.585846662521362305e+00 1.351208537817001343e-01 1.257917046546936035e+00
5.720000000000000000e+02 5.456857299804687500e+01 -2.172721290588378906e+01 -1.161624312400817871e+00 6.342587471008300781e-01 -1.582096815109252930e-01 -1.680309069342911243e-03
5.730000000000000000e+02 5.754214477539062500e+01 -2.022149276733398438e+01 -1.313141465187072754e+00 1.176660656929016113e+00 -4.094424843788146973e-02 9.964621067047119141e-01
5.740000000000000000e+02 6.150158309936523438e+01 -2.346017646789550781e+01 6.893426775932312012e-01 9.427596330642700195e-01 4.896306693553924561e-01 1.107778787612915039e+00
5.750000000000000000e+02 6.022541046142578125e+01 -2.424316406250000000e+01 2.126987695693969727e+00 1.817240953445434570e+00 1.183268666267395020e+00 1.897854208946228027e+00
5.760000000000000000e+02 5.363106536865234375e+01 -2.112625885009765625e+01 -1.785538315773010254e+00 1.845493018627166748e-01 -4.802967309951782227e-01 -3.956039845943450928e-01
5.770000000000000000e+02 5.622855758666992188e+01 -2.823897743225097656e+01 1.821379661560058594e+00 6.115335941314697266e+00 2.381014585494995117e+00 2.427837610244750977e+00
5.780000000000000000e+02 5.707318115234375000e+01 -2.714484786987304688e+01 2.492628335952758789e+00 4.699310302734375000e+00 2.157581567764282227e+00 3.209004402160644531e+00
5.790000000000000000e+02 5.306130981445312500e+01 -2.198231697082519531e+01 -1.164169907569885254e+00 2.751791179180145264e-01 -2.666972279548645020e-01 -4.262992739677429199e-01
5.800000000000000000e+02 4.793683242797851562e+01 -2.298944091796875000e+01 -6.161865592002868652e-01 -3.114218413829803467e-01 -2.782825231552124023e-01 -8.673750758171081543e-01
5.810000000000000000e+02 5.291246795654296875e+01 -3.156288909912109375e+01 1.018934845924377441e+00 2.089051723480224609e+00 9.323959350585937500e-01 7.417537569999694824e-01
5.820000000000000000e+02 4.386778640747070312e+01 -3.205215454101562500e+01 1.676199771463871002e-02 -6.498547792434692383e-01 -1.899278461933135986e-01 1.149329692125320435e-01
5.830000000000000000e+02 7.012895202636718750e+01 -3.095605659484863281e+01 -2.105093717575073242e+00 -2.480814933776855469e+00 -1.375772595405578613e+00 -2.137583255767822266e+00
5.840000000000000000e+02 6.968336486816406250e+01 -3.338555526733398438e+01 -1.668563604354858398e+00 -5.814183950424194336e-01 -6.749945878982543945e-01 -7.352668046951293945e-01
5.850000000000000000e+02 6.844339752197265625e+01 -3.285284423828125000e+01 -3.024142503738403320e+00 -1.943483114242553711e+00 -1.490287661552429199e+00 -2.105192184448242188e+00
5.860000000000000000e+02 6.665669250488281250e+01 -3.412353897094726562e+01 -3.005209922790527344e+00 -1.266573667526245117e+00 -1.281535148620605469e+00 -1.575424313545227051e+00
5.870000000000000000e+02 6.411183929443359375e+01 -3.483559799194335938e+01 -1.952535390853881836e+00 -3.465288579463958740e-01 -6.897192597389221191e-01 -6.866970062255859375e-01
5.880000000000000000e+02 5.965736770629882812e+01 -3.521828079223632812e+01 -5.353419780731201172e-01 4.364830553531646729e-01 -2.965766936540603638e-02 -4.795006215572357178e-01
5.890000000000000000e+02 5.810186004638671875e+01 -3.448705291748046875e+01 2.972094155848026276e-02 5.274092555046081543e-01 1.671390682458877563e-01 -6.681085824966430664e-01
5.900000000000000000e+02 5.698768615722656250e+01 -3.351156234741210938e+01 6.094104051589965820e-01 2.339053392410278320e+00 8.845391273498535156e-01 -9.674627780914306641e-01
5.910000000000000000e+02 5.695495605468750000e+01 -3.802156448364257812e+01 -4.563189446926116943e-01 1.242096781730651855e+00 2.357333749532699585e-01 -4.022606015205383301e-01
5.920000000000000000e+02 7.211682891845703125e+01 -2.915174674987792969e+01 -9.846178889274597168e-01 -2.436699718236923218e-02 -3.026954829692840576e-01 -1.156824350357055664e+00
5.930000000000000000e+02 7.086465454101562500e+01 -2.929739952087402344e+01 -9.259954094886779785e-01 -2.625471353530883789e+00 -1.065440058708190918e+00 -1.476798534393310547e+00
5.940000000000000000e+02 5.567320632934570312e+01 -3.316157150268554688e+01 5.045690536499023438e-01 3.476169586181640625e+00 1.194221615791320801e+00 -4.317413568496704102e-01
5.950000000000000000e+02 5.582995986938476562e+01 -3.146893310546875000e+01 6.587248444557189941e-01 5.308965206146240234e+00 1.790307044982910156e+00 -5.946121811866760254e-01
5.960000000000000000e+02 5.456330490112304688e+01 -3.019049453735351562e+01 1.455872178077697754e+00 3.508268594741821289e+00 1.489242196083068848e+00 5.428661108016967773e-01
5.970000000000000000e+02 5.532144165039062500e+01 -2.919471740722656250e+01 1.575357079505920410e+00 5.609110355377197266e+00 2.155340194702148438e+00 1.173134684562683105e+00
5.980000000000000000e+02 6.126988983154296875e+01 -3.510567474365234375e+01 -1.095847010612487793e+00 -1.652551144361495972e-01 -3.783306181430816650e-01 -1.817604154348373413e-01
5.990000000000000000e+02 6.534942626953125000e+01 -3.438756179809570312e+01 -2.634101390838623047e+00 -5.336164236068725586e-01 -9.503153562545776367e-01 -1.121100306510925293e+00
6.000000000000000000e+02 7.833438873291015625e+01 -1.527138710021972656e+01 3.181604668498039246e-02 8.870944023132324219e+00 2.670828104019165039e+00 -7.448641657829284668e-01
6.010000000000000000e+02 2.678761672973632812e+01 -3.168282890319824219e+01 3.284082934260368347e-02 -2.020157407969236374e-04 9.791644290089607239e-03 5.846142084919847548e-05
6.020000000000000000e+02 4.272765350341796875e+01 -3.871318817138671875e+01 2.248110622167587280e-01 -1.668851822614669800e-01 1.737776212394237518e-02 8.029910922050476074e-02
6.030000000000000000e+02 4.253173828125000000e+01 -3.245837020874023438e+01 9.475012123584747314e-02 -9.411131143569946289e-01 -2.539089024066925049e-01 -2.357514388859272003e-02
6.040000000000000000e+02 3.760390853881835938e+01 -3.880324172973632812e+01 1.579450666904449463e-01 -3.240892887115478516e-01 -4.984326288104057312e-02 -1.130413711071014404e-01
6.050000000000000000e+02 4.916270446777343750e+01 -3.438661575317382812e+01 2.739003002643585205e-01 7.920858263969421387e-01 3.197958469390869141e-01 6.349179148674011230e-01
6.060000000000000000e+02 5.115819931030273438e+01 -3.269079208374023438e+01 6.008107066154479980e-01 1.281456232070922852e+00 5.646800994873046875e-01 7.217607498168945312e-01
6.070000000000000000e+02 7.084472656250000000e+01 -3.445302581787109375e+01 -6.062495112419128418e-01 1.051728248596191406e+00 1.336436271667480469e-01 -3.143899142742156982e-03
6.080000000000000000e+02 1.203836727142333984e+01 -1.381894874572753906e+01 -7.677044050069525838e-05 -1.068990386556833982e-04 -5.510084520210511982e-05 8.880370296537876129e-05
6.090000000000000000e+02 1.211091327667236328e+01 -1.213625144958496094e+01 -1.248876360477879643e-04 -1.295559923164546490e-04 -7.633308996446430683e-05 1.514746691100299358e-05
6.100000000000000000e+02 6.713585662841796875e+01 -7.749742507934570312e+00 5.838491916656494141e-01 3.152919530868530273e+00 1.121030569076538086e+00 1.254868507385253906e+00
6.110000000000000000e+02 6.960131835937500000e+01 -1.115995526313781738e+00 4.854325354099273682e-01 8.092126846313476562e+00 2.573267936706542969e+00 1.706502199172973633e+00
6.120000000000000000e+02 7.025019073486328125e+01 3.108034372329711914e+00 1.560578346252441406e-01 1.058716487884521484e+01 3.222966909408569336e+00 2.150313258171081543e-01
6.130000000000000000e+02 3.607531356811523438e+01 2.938915252685546875e+01 1.729622832499444485e-03 -1.100334804505109787e-03 1.887864345917478204e-04 -7.900980999693274498e-04
6.140000000000000000e+02 2.677808570861816406e+01 3.029034805297851562e+01 -6.072720861993730068e-04 -3.415341197978705168e-04 -2.846418647095561028e-04 -9.452090016566216946e-04
6.150000000000000000e+02 2.311179542541503906e+01 3.733120727539062500e+01 -4.733208916150033474e-04 6.603996007470414042e-05 -1.221842685481533408e-04 1.848888678068760782e-05
6.160000000000000000e+02 1.385932445526123047e+01 3.282770156860351562e+01 8.190082735382020473e-05 2.911037881858646870e-04 1.119013832067139447e-04 -3.268703585490584373e-04
6.170000000000000000e+02 7.398167133331298828e+00 3.352083206176757812e+01 -3.371131606400012970e-04 4.728177154902368784e-04 4.071136572747491300e-05 -1.091549638658761978e-04
6.180000000000000000e+02 7.305404663085937500e+00 2.397527885437011719e+01 2.672599221114069223e-04 2.136584371328353882e-04 1.442755019525066018e-04 -2.288128598593175411e-04
6.190000000000000000e+02 1.367403411865234375e+01 2.592703628540039062e+01 8.567906479584053159e-05 8.602794696344062686e-05 5.151210280018858612e-05 -3.502024628687649965e-04
6.200000000000000000e+02 2.429253387451171875e+01 2.410578727722167969e+01 4.052510194014757872e-04 -2.923623542301356792e-04 3.386660318938083947e-05 2.069737638521473855e-05
6.210000000000000000e+02 2.978021240234375000e+01 2.149373245239257812e+01 1.546148792840540409e-03 -6.325541180558502674e-04 2.740783966146409512e-04 -1.740740117384120822e-04
6.220000000000000000e+02 3.969375610351562500e+01 2.766715431213378906e+01 2.827878808602690697e-03 -8.105898159556090832e-04 6.051867385394871235e-04 -3.335393848828971386e-04
6.230000000000000000e+02 2.150289773941040039e+00 3.158263397216796875e+01 -1.894274755613878369e-04 6.156795425340533257e-04 1.278756244573742151e-04 -8.164133032551035285e-05
6.240000000000000000e+02 6.654181957244873047e+00 1.850285148620605469e+01 1.570363820064812899e-04 2.061473205685615540e-04 1.089551151380874217e-04 -1.509394933236762881e-04
6.250000000000000000e+02 1.363881397247314453e+01 1.968310546875000000e+01 2.352089650230482221e-04 -1.534882321720942855e-04 2.451622094667982310e-05 -2.802955568768084049e-04
6.260000000000000000e+02 2.418284034729003906e+01 1.668751525878906250e+01 -5.359379065339453518e-05 -2.743857039604336023e-04 -9.839384438237175345e-05 -2.449948224239051342e-04
6.270000000000000000e+02 3.251370620727539062e+01 1.738646697998046875e+01 1.058653229847550392e-03 -2.627468493301421404e-04 2.387719141552224755e-04 9.103097545448690653e-05
6.280000000000000000e+02 6.261233806610107422e+00 1.053527355194091797e+01 1.288317289436236024e-04 1.017693211906589568e-04 6.918031431268900633e-05 -4.548294327832991257e-06
6.290000000000000000e+02 1.724687767028808594e+01 6.604271411895751953e+00 -9.826885798247531056e-05 -1.699696986179333180e-05 -3.457974889897741377e-05 -9.844738087849691510e-05
6.300000000000000000e+02 2.070944213867187500e+01 8.589579582214355469e+00 2.305747038917616010e-04 -7.782863576721865684e-06 6.683755054837092757e-05 -1.621834671823307872e-04
6.310000000000000000e+02 3.153461837768554688e+01 1.242329502105712891e+01 8.072786731645464897e-04 -1.044473028741776943e-04 2.108494081767275929e-04 2.663671621121466160e-04
6.320000000000000000e+02 3.843933105468750000e+01 1.474718379974365234e+01 1.164768938906490803e-03 5.385126132750883698e-05 3.655860782600939274e-04 3.309607564006000757e-04
6.330000000000000000e+02 1.775594472885131836e+00 1.607932472229003906e+01 1.177710728370584548e-04 1.763905020197853446e-04 8.824847463984042406e-05 -4.368228110251948237e-05
6.340000000000000000e+02 2.085925483703613281e+01 7.453826069831848145e-02 -1.682424408500082791e-05 -1.291597982344683260e-05 -8.922067536332178861e-06 5.454106576507911086e-05
6.350000000000000000e+02 2.819930458068847656e+01 -1.005628779530525208e-01 -6.177627074066549540e-05 5.021122342441231012e-05 -3.469514695098041557e-06 1.121855239034630358e-04
6.360000000000000000e+02 2.674090957641601562e+01 -5.294919013977050781e+00 -1.663240800553467125e-05 3.375112953563075280e-07 -4.888469447905663401e-06 2.946682434412650764e-05
6.370000000000000000e+02 3.989154815673828125e+01 -5.680851459503173828e+00 -1.427012612111866474e-04 -8.102056744974106550e-05 -6.711654714308679104e-05 -2.526448042772244662e-05
6.380000000000000000e+02 2.742097663879394531e+01 -1.206096839904785156e+01 1.016709211398847401e-05 6.261329872359056026e-06 4.928526777803199366e-06 -7.362839824054390192e-06
6.390000000000000000e+02 3.572606658935546875e+01 -1.388135051727294922e+01 4.082167288288474083e-05 2.814519575622398406e-05 2.069006040983367711e-05 1.124990103562595323e-05
6.400000000000000000e+02 5.130452346801757812e+01 -1.125338745117187500e+01 -1.887950638774782419e-04 -4.072053798154229298e-06 -5.786013571196235716e-05 -7.481880402337992564e-06
6.410000000000000000e+02 4.661785888671875000e+01 -7.990467071533203125e+00 -1.614753273315727711e-04 -7.437241583829745650e-05 -7.075432222336530685e-05 -8.633019024273380637e-05
6.420000000000000000e+02 4.567209243774414062e+01 -2.435187530517578125e+01 -1.808492392301559448e-01 -4.532179534435272217e-01 -1.902201622724533081e-01 -7.906726598739624023e-01
6.430000000000000000e+02 3.933678054809570312e+01 -3.233804702758789062e+01 -5.504351854324340820e-01 -5.017323493957519531e-01 -3.156502544879913330e-01 -4.663183987140655518e-01
6.440000000000000000e+02 3.789700317382812500e+01 -3.311294555664062500e+01 -3.694142997264862061e-01 -2.280530631542205811e-01 -1.792402118444442749e-01 -2.807495594024658203e-01
6.450000000000000000e+02 3.314389801025390625e+01 -3.286351013183593750e+01 3.674015402793884277e-03 -9.734267950989305973e-04 8.101765997707843781e-04 -2.380278520286083221e-02
6.460000000000000000e+02 3.192208480834960938e+01 -3.233457183837890625e+01 3.462594747543334961e-02 -4.088684800080955029e-04 1.026512403041124344e-02 -1.350704487413167953e-02
6.470000000000000000e+02 2.533902549743652344e+01 -3.546459197998046875e+01 -2.275902545079588890e-03 -4.012396559119224548e-03 -1.886489801108837128e-03 5.736277671530842781e-04
6.480000000000000000e+02 2.398436927795410156e+01 -3.151980209350585938e+01 2.450303547084331512e-02 -1.689211698248982430e-03 6.844147108495235443e-03 1.146216643974184990e-03
6.490000000000000000e+02 2.278920936584472656e+01 -3.322128295898437500e+01 1.181967835873365402e-02 -1.457167672924697399e-03 3.108753357082605362e-03 3.742133267223834991e-03
6.500000000000000000e+02 2.121174621582031250e+01 -3.162516784667968750e+01 1.816922239959239960e-02 4.287169940653257072e-05 5.463628098368644714e-03 2.468307968229055405e-03
6.510000000000000000e+02 2.260847473144531250e+01 -3.151818275451660156e+01 2.103619836270809174e-02 4.162080585956573486e-05 6.323345936834812164e-03 2.390034496784210205e-03
6.520000000000000000e+02 1.818141174316406250e+01 -3.163886833190917969e+01 1.298717781901359558e-02 6.452411762438714504e-04 4.089725669473409653e-03 1.408096402883529663e-03
6.530000000000000000e+02 1.405127334594726562e+01 -3.052768135070800781e+01 3.872229950502514839e-03 -3.808245528489351273e-04 1.047421596013009548e-03 -7.627035374753177166e-04
6.540000000000000000e+02 1.275966644287109375e+01 -2.997671699523925781e+01 2.289434662088751793e-03 2.104996674461290240e-04 7.499802741222083569e-04 -3.060769086005166173e-05
6.550000000000000000e+02 8.521749496459960938e+00 -2.405437088012695312e+01 -8.701279148226603866e-05 -3.345755612826906145e-05 -3.614110391936264932e-05 -6.962160114198923111e-05
6.560000000000000000e+02 9.782314300537109375e+00 -1.856894302368164062e+01 -3.824065206572413445e-04 1.766601963026914746e-05 -1.094221515813842416e-04 4.514254396781325340e-05
6.570000000000000000e+02 1.028237915039062500e+01 -1.607961654663085938e+01 -3.686305426526814699e-04 1.930928192450664937e-05 -1.047963742166757584e-04 -7.766792987240478396e-05
6.580000000000000000e+02 1.275264930725097656e+01 -1.495989990234375000e+01 3.486450077616609633e-05 1.899009803310036659e-04 6.742964615114033222e-05 -7.637673843419179320e-05
6.590000000000000000e+02 1.531644344329833984e+01 -1.360809993743896484e+01 -2.338227386644575745e-05 1.254006347153335810e-04 3.060550807276740670e-05 -4.575964339892379940e-05
6.600000000000000000e+02 1.808089637756347656e+01 -8.557697296142578125e+00 -7.321372686419636011e-05 -2.015643985942006111e-05 -2.801105074468068779e-05 -1.944660471053794026e-05
6.610000000000000000e+02 2.146286964416503906e+01 -1.207676601409912109e+01 -6.734003545716404915e-05 -9.834459888224955648e-06 -2.315234814886935055e-05 -1.939496723935008049e-05
6.620000000000000000e+02 2.251029396057128906e+01 -1.429018592834472656e+01 -9.962914191419258714e-06 -3.214075695723295212e-05 -1.263110061699990183e-05 1.881396542557922658e-06
6.630000000000000000e+02 2.236279296875000000e+01 -1.373554515838623047e+01 1.222285391122568399e-05 7.623762940056622028e-06 5.953984782536281273e-06 5.760558906331425533e-06
6.640000000000000000e+02 2.161735725402832031e+01 -1.301296424865722656e+01 1.847148632805328816e-05 -5.225292170507600531e-06 3.973857928940560669e-06 2.767902878986205906e-05
6.650000000000000000e+02 2.040327835083007812e+01 -1.033794116973876953e+01 4.742782766697928309e-05 3.156756429234519601e-05 2.369861613260582089e-05 7.516163123000296764e-07
6.660000000000000000e+02 2.110713958740234375e+01 -1.145290470123291016e+01 5.941969720879569650e-05 2.183056039939401671e-06 1.848082683864049613e-05 9.868429515336174518e-06
6.670000000000000000e+02 2.081231117248535156e+01 -1.087247562408447266e+01 -6.626220420002937317e-05 -1.571925395182915963e-06 -2.035023862845264375e-05 -9.018420314532704651e-06
6.680000000000000000e+02 1.998963546752929688e+01 -9.763043403625488281e+00 -3.444089452386833727e-05 -4.354830525699071586e-05 -2.339676029805559665e-05 -1.693872945907060057e-05
6.690000000000000000e+02 1.870344924926757812e+01 -8.063299179077148438e+00 5.506047455128282309e-05 2.381925878580659628e-05 2.366392072872258723e-05 2.462330849084537476e-05
6.700000000000000000e+02 1.683211517333984375e+01 -6.045441150665283203e+00 5.519422848010435700e-05 4.381555481813848019e-05 2.970293462567497045e-05 2.115433380822651088e-05
6.710000000000000000e+02 1.731421852111816406e+01 -6.531930923461914062e+00 -5.760299973189830780e-05 -3.371983984834514558e-05 -2.739685078267939389e-05 -2.268179014208726585e-05
6.720000000000000000e+02 1.434604930877685547e+01 -4.940716266632080078e+00 -4.394220377434976399e-05 -8.176374103641137481e-05 -3.771178307943046093e-05 -1.966831769095733762e-05
6.730000000000000000e+02 1.523029994964599609e+01 -4.771412849426269531e+00 -4.360405000625178218e-05 -7.579711382277309895e-05 -3.582034696592018008e-05 -2.699331707844976336e-05
6.740000000000000000e+02 1.467209148406982422e+01 -4.375978946685791016e+00 4.216157321934588253e-05 8.247467485489323735e-05 3.739087696885690093e-05 2.953796320070978254e-05
6.750000000000000000e+02 1.225090980529785156e+01 -3.014866590499877930e+00 4.751954475068487227e-05 7.617746450705453753e-05 3.710910459631122649e-05 5.268583117867819965e-05
6.760000000000000000e+02 1.287573719024658203e+01 -3.343989133834838867e+00 -4.127154170419089496e-05 -7.954589091241359711e-05 -3.624523014877922833e-05 -4.558907312457449734e-05
6.770000000000000000e+02 1.350187015533447266e+01 -5.225417137145996094e+00 -4.348701622802764177e-05 -8.731507841730490327e-05 -3.924062912119552493e-05 -1.303945555264363065e-05
6.780000000000000000e+02 9.078387260437011719e+00 -2.848417043685913086e+00 -5.997718108119443059e-05 -5.397313725552521646e-05 -3.418509732000529766e-05 -4.412244015838950872e-05
6.790000000000000000e+02 1.000178909301757812e+01 -2.113944292068481445e+00 -3.991485209553502500e-05 -6.423965533031150699e-05 -3.124635259155184031e-05 -3.722448673215694726e-05
6.800000000000000000e+02 8.437038421630859375e+00 -1.924194216728210449e+00 -5.437515574158169329e-05 -4.953887037117965519e-05 -3.117420783382840455e-05 -2.129547829099465162e-05
6.810000000000000000e+02 6.838884353637695312e+00 -1.905805468559265137e+00 -6.954282434890046716e-05 -1.517583314125658944e-05 -2.541559661040082574e-05 -1.464575962017988786e-05
6.820000000000000000e+02 7.640308380126953125e+00 -1.907960772514343262e+00 6.867269985377788544e-05 4.398306191433221102e-05 3.379672853043302894e-05 1.860159136413130909e-05
6.830000000000000000e+02 5.206114292144775391e+00 -1.961517810821533203e+00 -2.692243469937238842e-05 -5.252566097624367103e-06 -9.652500921220052987e-06 -1.914900894917082042e-05
6.840000000000000000e+02 1.935909271240234375e+00 -1.977970361709594727e+00 -4.887684553978033364e-05 -4.411590634845197201e-05 -2.789782593026757240e-05 4.273663580534048378e-05
6.850000000000000000e+02 3.341943264007568359e+00 -3.336552381515502930e+00 9.248869901057332754e-05 1.828388303692918271e-05 3.323177588754333556e-05 6.242558447411283851e-05
6.860000000000000000e+02 4.367350578308105469e+00 -2.033012866973876953e+00 2.019559724431019276e-05 6.341912467178190127e-06 7.961252777022309601e-06 4.462689321371726692e-05
6.870000000000000000e+02 2.688992738723754883e+00 -2.080800771713256836e+00 1.164582499768584967e-04 -1.184142547572264448e-05 3.138504689559340477e-05 2.061062559732818045e-06
6.880000000000000000e+02 1.217036008834838867e+00 -1.994314551353454590e+00 -2.385479820077307522e-05 6.150605622678995132e-05 1.129537668020930141e-05 9.739661436469759792e-06
6.890000000000000000e+02 4.219796359539031982e-01 -2.147040367126464844e+00 -8.796330075711011887e-05 -3.091690086876042187e-05 -3.566405939636752009e-05 -3.760963227250613272e-05
6.900000000000000000e+02 2.022288322448730469e+00 -4.166157150268554688e+01 -4.638113605324178934e-04 1.068600686267018318e-03 1.814367860788479447e-04 1.419883774360641837e-04
6.910000000000000000e+02 3.448215007781982422e+00 -3.937187194824218750e+01 -6.256952765397727489e-04 7.110358565114438534e-04 2.560216671554371715e-05 -7.926550460979342461e-05
6.920000000000000000e+02 1.035721421241760254e+00 -3.874862670898437500e+01 -5.343433003872632980e-04 7.643931894563138485e-04 6.901497545186430216e-05 -6.550719990627840161e-05
6.930000000000000000e+02 8.089198470115661621e-01 -3.460919952392578125e+01 3.395625972189009190e-04 3.118104359600692987e-04 1.954119070433080196e-04 3.231022856198251247e-05
6.940000000000000000e+02 7.614012956619262695e-01 -3.321205902099609375e+01 -4.999273805879056454e-04 1.864068763097748160e-04 -9.405614400748163462e-05 1.037896581692621112e-04
6.950000000000000000e+02 6.805698871612548828e-01 -2.897710609436035156e+01 6.141515914350748062e-04 -7.363763143075630069e-05 1.621541887288913131e-04 8.350020652869716287e-05
6.960000000000000000e+02 6.767331361770629883e-01 -2.756379699707031250e+01 -5.657587898895144463e-04 -9.911014058161526918e-05 -1.994606718653813004e-04 -9.127823432208970189e-05
6.970000000000000000e+02 6.699424982070922852e-01 -2.473472023010253906e+01 -5.118434783071279526e-04 -5.320020864019170403e-05 -1.695131068117916584e-04 -7.027224637567996979e-05
6.980000000000000000e+02 6.759217977523803711e-01 -2.614952468872070312e+01 5.299930344335734844e-04 -3.720012318808585405e-05 1.478378835599869490e-04 6.037654384272173047e-05
6.990000000000000000e+02 6.335096955299377441e-01 -2.191088485717773438e+01 -5.137588595971465111e-04 -1.283223991777049378e-05 -1.579773379489779472e-04 -6.147201929707080126e-05
7.000000000000000000e+02 6.141127347946166992e-01 -2.050643348693847656e+01 5.033300840295851231e-04 8.097506906779017299e-06 1.534282782813534141e-04 6.378927355399355292e-05
7.010000000000000000e+02 1.842355370521545410e+00 -2.035109138488769531e+01 -4.878779291175305843e-04 -3.748588824237231165e-06 -1.474879536544904113e-04 -7.240659761009737849e-05
7.020000000000000000e+02 6.117881536483764648e-01 -1.629795455932617188e+01 -3.798655525315552950e-04 -9.382938515045680106e-06 -1.167745431303046644e-04 -4.320246443967334926e-05
7.030000000000000000e+02 6.157193779945373535e-01 -1.488742923736572266e+01 3.423785674385726452e-04 1.319236071140039712e-05 1.066712793544866145e-04 3.137555177090689540e-05
7.040000000000000000e+02 6.154338121414184570e-01 -1.347589588165283203e+01 -3.154721925966441631e-04 -1.352192384729278274e-06 -9.504731860943138599e-05 -2.455429785186424851e-05
7.050000000000000000e+02 1.844692230224609375e+00 -1.339561462402343750e+01 3.117978631053119898e-04 1.408224397891899571e-05 9.776403021533042192e-05 3.143627327517606318e-05
7.060000000000000000e+02 6.034183502197265625e-01 -9.226720809936523438e+00 2.344609383726492524e-04 2.342973630220512860e-06 7.104116957634687424e-05 3.012828528881072998e-05
7.070000000000000000e+02 6.147777438163757324e-01 -7.801232337951660156e+00 -2.001875400310382247e-04 -2.445229256409220397e-06 -6.078982914914377034e-05 -3.117834421573206782e-05
7.080000000000000000e+02 4.310218811035156250e+00 -3.100465536117553711e+00 2.129118547600228339e-05 -8.425658961641602218e-06 3.859658136207144707e-06 -3.093704435741528869e-05
7.090000000000000000e+02 4.596341133117675781e+00 -3.852660417556762695e+00 -1.771996758179739118e-04 -5.417842476163059473e-05 -6.941342871868982911e-05 9.435391916667867918e-07
7.100000000000000000e+02 7.323974609375000000e+01 -3.879489517211914062e+01 7.115367054939270020e-01 4.371964454650878906e+00 1.525050282478332520e+00 5.691826939582824707e-01
7.110000000000000000e+02 1.255365276336669922e+01 -3.915552139282226562e+01 -2.245422918349504471e-03 3.013757523149251938e-03 2.305003727087751031e-04 1.180668012239038944e-03
7.120000000000000000e+02 7.864430999755859375e+01 4.014398193359375000e+01 -8.710513263940811157e-02 7.350576400756835938e+00 2.179041385650634766e+00 -9.245426207780838013e-02
7.130000000000000000e+02 7.894538116455078125e+01 3.876216125488281250e+01 -9.904949925839900970e-03 7.437505245208740234e+00 2.228280067443847656e+00 -1.525750942528247833e-02
7.140000000000000000e+02 7.928066253662109375e+01 3.608639526367187500e+01 -1.973226293921470642e-02 7.417090415954589844e+00 2.219207525253295898e+00 5.737609416246414185e-02
7.150000000000000000e+02 7.807264709472656250e+01 3.459197235107421875e+01 -5.846050381660461426e-02 6.930184841156005859e+00 2.061517238616943359e+00 2.595255076885223389e-01
7.160000000000000000e+02 7.934909057617187500e+01 3.338229370117187500e+01 -1.428446918725967407e-02 7.071702480316162109e+00 2.117225408554077148e+00 1.202182173728942871e-01
7.170000000000000000e+02 7.694431304931640625e+01 3.053399848937988281e+01 -2.387447096407413483e-02 6.386939525604248047e+00 1.908919453620910645e+00 5.359560251235961914e-01
7.180000000000000000e+02 7.941013336181640625e+01 2.648340606689453125e+01 1.814058236777782440e-02 5.545107841491699219e+00 1.668974637985229492e+00 1.159143671393394470e-01
7.190000000000000000e+02 7.707949066162109375e+01 2.656997489929199219e+01 1.145292222499847412e-01 6.097881793975830078e+00 1.863723278045654297e+00 3.951432108879089355e-01
7.200000000000000000e+02 7.940404510498046875e+01 2.231360054016113281e+01 -3.382935246918350458e-04 5.039666175842285156e+00 1.511798381805419922e+00 4.003789275884628296e-02
7.210000000000000000e+02 7.940509796142578125e+01 2.091862487792968750e+01 1.852838508784770966e-02 4.978156089782714844e+00 1.499005317687988281e+00 1.807393133640289307e-02
7.220000000000000000e+02 7.821382904052734375e+01 2.236956977844238281e+01 5.181562528014183044e-02 5.533156871795654297e+00 1.675491809844970703e+00 9.671573340892791748e-02
7.230000000000000000e+02 7.940695953369140625e+01 1.952224922180175781e+01 -6.526343058794736862e-03 4.955701828002929688e+00 1.484752655029296875e+00 4.650495015084743500e-03
7.240000000000000000e+02 7.941168212890625000e+01 1.533241558074951172e+01 4.735607188194990158e-03 4.995554447174072266e+00 1.500086903572082520e+00 -7.952271029353141785e-03
7.250000000000000000e+02 7.941276550292968750e+01 1.394155216217041016e+01 -7.295829709619283676e-03 5.005807399749755859e+00 1.499553442001342773e+00 -4.893218167126178741e-03
7.260000000000000000e+02 7.940602111816406250e+01 1.254998588562011719e+01 -9.059442207217216492e-03 4.987054347991943359e+00 1.493398547172546387e+00 1.468385383486747742e-02
7.270000000000000000e+02 7.938296508789062500e+01 1.114878368377685547e+01 5.183574976399540901e-04 4.932785034179687500e+00 1.479990959167480469e+00 2.434494346380233765e-02
7.280000000000000000e+02 7.933882141113281250e+01 8.325051307678222656e+00 1.703559188172221184e-03 4.765716552734375000e+00 1.430225968360900879e+00 4.311575368046760559e-02
7.290000000000000000e+02 7.935430908203125000e+01 6.919826984405517578e+00 3.935135435312986374e-03 4.666891574859619141e+00 1.401248097419738770e+00 3.721136599779129028e-02
7.300000000000000000e+02 7.806322479248046875e+01 6.815196990966796875e+00 4.267578944563865662e-02 5.359590530395507812e+00 1.620679855346679688e+00 8.839568495750427246e-02
7.310000000000000000e+02 7.937728118896484375e+01 5.522465229034423828e+00 1.973344758152961731e-02 4.594075679779052734e+00 1.384142756462097168e+00 1.226131897419691086e-02
7.320000000000000000e+02 7.937959289550781250e+01 1.340392827987670898e+00 9.085164405405521393e-03 4.819714546203613281e+00 1.448639869689941406e+00 -9.901737421751022339e-02
7.330000000000000000e+02 7.938394927978515625e+01 -5.145759880542755127e-02 1.762385480105876923e-02 5.043278217315673828e+00 1.518270611763000488e+00 -1.276790648698806763e-01
7.340000000000000000e+02 7.938966369628906250e+01 -1.441472530364990234e+00 9.896254166960716248e-03 5.333716392517089844e+00 1.603083729743957520e+00 -1.588457077741622925e-01
7.350000000000000000e+02 7.939042663574218750e+01 -2.828849792480468750e+00 3.091012127697467804e-03 5.675755977630615234e+00 1.703654050827026367e+00 -1.730920970439910889e-01
7.360000000000000000e+02 7.938502502441406250e+01 -7.001481056213378906e+00 7.390244398266077042e-03 6.785909175872802734e+00 2.037989854812622070e+00 -1.894571632146835327e-01
7.370000000000000000e+02 7.939691162109375000e+01 -8.391425132751464844e+00 -1.379244728013873100e-03 7.176042079925537109e+00 2.152398824691772461e+00 -1.954723596572875977e-01
7.380000000000000000e+02 7.941350555419921875e+01 -9.778634071350097656e+00 1.104405336081981659e-02 7.591862678527832031e+00 2.280871868133544922e+00 -2.047014683485031128e-01
7.390000000000000000e+02 7.944422912597656250e+01 -1.393167877197265625e+01 5.489762406796216965e-03 9.137140274047851562e+00 2.742789030075073242e+00 -2.641579806804656982e-01
7.400000000000000000e+02 7.944512176513671875e+01 -1.531359100341796875e+01 1.049443893134593964e-02 9.771258354187011719e+00 2.934525728225708008e+00 -2.826866507530212402e-01
7.410000000000000000e+02 7.943848419189453125e+01 -1.669853973388671875e+01 8.863906376063823700e-03 1.046095657348632812e+01 3.140946149826049805e+00 -3.056442737579345703e-01
7.420000000000000000e+02 7.948544311523437500e+01 -2.229784774780273438e+01 -1.203770115971565247e-01 1.238646316528320312e+01 3.679826021194458008e+00 6.632800400257110596e-02
7.430000000000000000e+02 7.747472381591796875e+01 -2.634640312194824219e+01 1.801722168922424316e+00 1.557927608489990234e+01 5.214299678802490234e+00 2.458028316497802734e+00
7.440000000000000000e+02 7.784735870361328125e+01 -2.710027694702148438e+01 3.905808210372924805e+00 1.322730255126953125e+01 5.139933109283447266e+00 5.743632912635803223e-01
7.450000000000000000e+02 7.743820953369140625e+01 -2.852070617675781250e+01 5.880926251411437988e-01 1.565155124664306641e+01 4.871893405914306641e+00 -2.602737188339233398e+00
7.460000000000000000e+02 7.656360626220703125e+01 -2.907200050354003906e+01 -1.890341758728027344e+00 1.491566944122314453e+01 3.907598257064819336e+00 1.411525487899780273e+00
7.470000000000000000e+02 7.932991790771484375e+01 -3.487496185302734375e+01 9.139203280210494995e-02 1.264726924896240234e+01 3.821598529815673828e+00 1.475424766540527344e-01
7.480000000000000000e+02 7.921865844726562500e+01 -3.630376434326171875e+01 -2.145619988441467285e-01 1.222286224365234375e+01 3.602490186691284180e+00 2.432254254817962646e-01
7.490000000000000000e+02 7.917541503906250000e+01 -3.772037887573242188e+01 2.318466827273368835e-02 1.164725971221923828e+01 3.501133203506469727e+00 4.328463971614837646e-01
7.500000000000000000e+02 7.924653625488281250e+01 -3.902569961547851562e+01 2.905243039131164551e-01 1.104932498931884766e+01 3.401954889297485352e+00 1.922442167997360229e-01
7.510000000000000000e+02 7.904320526123046875e+01 -4.024143981933593750e+01 -5.077257752418518066e-01 1.031527996063232422e+01 2.942266225814819336e+00 4.981143474578857422e-01
7.520000000000000000e+02 8.818676948547363281e+00 3.812209320068359375e+01 -2.208727091783657670e-04 3.030107473023235798e-04 2.464140925440005958e-05 -2.216290740761905909e-04
7.530000000000000000e+02 3.773483633995056152e-01 2.172060728073120117e+00 -5.143402449903078377e-05 -1.916685505420900881e-05 -2.118026350217405707e-05 -1.018298576127563138e-06
7.540000000000000000e+02 2.666178941726684570e+00 2.958175897598266602e+00 -6.536178989335894585e-05 5.714908184017986059e-06 -1.789406451280228794e-05 1.786832945072092116e-05
7.550000000000000000e+02 1.623204708099365234e+00 6.435683250427246094e+00 -9.380620031151920557e-05 1.753414107952266932e-05 -2.288161704200319946e-05 -1.880359377537388355e-05
7.560000000000000000e+02 5.245792865753173828e-01 9.232511520385742188e+00 9.374589717481285334e-05 4.290489960112608969e-05 4.099524085177108645e-05 -1.138859715865692124e-05
7.570000000000000000e+02 5.492610931396484375e-01 1.203240585327148438e+01 9.806867456063628197e-05 8.780532516539096832e-05 5.576220064540393651e-05 -1.511115806351881474e-05
7.580000000000000000e+02 1.655422568321228027e+00 1.190520954132080078e+01 -1.055263055604882538e-04 8.330408309120684862e-05 -6.666666195087600499e-06 -3.666797056212089956e-05
7.590000000000000000e+02 5.927733778953552246e-01 1.624924850463867188e+01 -1.010138221317902207e-04 1.703564048511907458e-04 2.080277590721379966e-05 -2.538929265938349999e-06
7.600000000000000000e+02 6.035681962966918945e-01 1.765750312805175781e+01 1.069678910425864160e-04 2.154868707293644547e-04 9.673643216956406832e-05 -2.999816024384927005e-05
7.610000000000000000e+02 6.388072371482849121e-01 2.189822959899902344e+01 -1.233350922120735049e-04 3.357180685270577669e-04 6.371489143930375576e-05 -4.577279014483792707e-06
7.620000000000000000e+02 6.518846154212951660e-01 2.331385231018066406e+01 1.326799101661890745e-04 3.916916029993444681e-04 1.573114568600431085e-04 -3.969808676629327238e-05
7.630000000000000000e+02 6.644335389137268066e-01 2.472963714599609375e+01 -1.406670926371589303e-04 4.309278156142681837e-04 8.707822416909039021e-05 -3.823364295385545120e-06
7.640000000000000000e+02 6.874231696128845215e-01 2.896536445617675781e+01 1.796725846361368895e-04 5.891953478567302227e-04 2.306603855686262250e-04 -4.649823677027598023e-05
7.650000000000000000e+02 7.009059786796569824e-01 3.037932968139648438e+01 -1.817469892557710409e-04 6.345323054119944572e-04 1.358355948468670249e-04 -5.528968813450774178e-06
7.660000000000000000e+02 2.090014219284057617e+00 3.018433952331542969e+01 1.808832312235608697e-04 5.521693965420126915e-04 2.199157897848635912e-04 -6.419171404559165239e-05
7.670000000000000000e+02 7.171826362609863281e-01 3.178926277160644531e+01 1.746250782161951065e-04 6.785655277781188488e-04 2.559571876190602779e-04 -3.317520895507186651e-05
7.680000000000000000e+02 8.207019567489624023e-01 3.597529983520507812e+01 -6.820326234446838498e-05 7.593579939566552639e-04 2.073464274872094393e-04 -1.307936690864153206e-05
7.690000000000000000e+02 2.775454521179199219e+00 3.820783615112304688e+01 5.251901529845781624e-05 7.379973540082573891e-04 2.371549198869615793e-04 -5.502698695636354387e-05
7.700000000000000000e+02 1.010194301605224609e+00 3.873483276367187500e+01 -8.649623487144708633e-05 7.566409185528755188e-04 2.010434109251946211e-04 3.002905032190028578e-05
7.710000000000000000e+02 1.307843685150146484e+00 4.011496353149414062e+01 1.014260487863793969e-04 7.514010649174451828e-04 2.558481355663388968e-04 -7.201669632195262238e-06
7.720000000000000000e+02 1.001120281219482422e+01 1.944808959960937500e+00 1.062591109075583518e-04 9.989086720452178270e-06 3.487446156213991344e-05 -7.377387646556599066e-06
7.730000000000000000e+02 9.212763786315917969e+00 1.889414906501770020e+00 1.651402089919429272e-05 1.426751896360656247e-05 9.234461685991846025e-06 -5.393805986386723816e-05
7.740000000000000000e+02 8.466891288757324219e+00 1.862574338912963867e+00 7.722022564848884940e-05 7.051108241284964606e-06 2.528140066715423018e-05 -1.328974849457154050e-05
7.750000000000000000e+02 7.749104499816894531e+00 2.550455093383789062e+00 8.569245983380824327e-05 8.314174010592978448e-06 2.820199006237089634e-05 -1.476609577366616577e-05
7.760000000000000000e+02 7.004601478576660156e+00 1.849658966064453125e+00 6.493200635304674506e-05 5.671843609889037907e-06 2.118115480698179454e-05 -9.344004865852184594e-06
7.770000000000000000e+02 4.808743476867675781e+00 1.894916296005249023e+00 -5.275302100926637650e-06 -1.350985803583171219e-05 -5.635547950078034773e-06 -4.896215159533312544e-06
7.780000000000000000e+02 4.072565555572509766e+00 1.926134228706359863e+00 2.818488792399875820e-05 2.492729254299774766e-05 1.593365414009895176e-05 -2.219929956481792033e-05
7.790000000000000000e+02 3.336935758590698242e+00 1.956803083419799805e+00 -2.458430572005454451e-05 -1.237940341525245458e-05 -1.108911328628892079e-05 1.636585147934965789e-05
7.800000000000000000e+02 1.863022923469543457e+00 2.012773275375366211e+00 -3.047677273571025580e-05 -3.701084096974227577e-06 -1.025335677695693448e-05 -8.501928277837578207e-06
7.810000000000000000e+02 1.123481750488281250e+00 2.084609508514404297e+00 1.502821532994857989e-06 2.474617213010787964e-05 7.874697985243983567e-06 1.526303094578906894e-05
7.820000000000000000e+02 1.321276378631591797e+01 6.853130459785461426e-01 1.082893068087287247e-04 -2.865432361431885511e-05 2.389049404882825911e-05 -5.149344724486581981e-05
7.830000000000000000e+02 1.543753623962402344e+01 1.130914807319641113e+00 1.535148476250469685e-04 -5.069787584943696856e-05 3.084509080508723855e-05 -5.028828672948293388e-05
7.840000000000000000e+02 1.605341339111328125e+01 -8.873559236526489258e-01 9.705519914859905839e-05 -4.302075103623792529e-05 1.621033516130410135e-05 -5.985073221381753683e-05
7.850000000000000000e+02 1.801972961425781250e+01 -2.292533874511718750e+00 3.766912413993850350e-05 3.261346500949002802e-05 2.108477747242432088e-05 3.015243055415339768e-05
7.860000000000000000e+02 2.099636077880859375e+01 -5.011046409606933594e+00 1.397832875227322802e-05 -1.905713725136592984e-05 -1.523642481515707914e-06 -4.043054650537669659e-05
7.870000000000000000e+02 2.153553390502929688e+01 -5.612865447998046875e+00 2.455501089571043849e-05 -1.314007931796368212e-06 6.972300980123691261e-06 3.015468428202439100e-05
7.880000000000000000e+02 2.253494071960449219e+01 -6.868911266326904297e+00 1.441723998141242191e-05 -8.001604328455869108e-06 1.924690650412230752e-06 2.795380532916169614e-05
7.890000000000000000e+02 2.302370452880859375e+01 -7.505935668945312500e+00 -3.678395387396449223e-06 -1.059433998307213187e-05 -4.281820565665839240e-06 -1.931048245751298964e-05
7.900000000000000000e+02 2.348157310485839844e+01 -8.164315223693847656e+00 6.106376531533896923e-06 -7.162799192883539945e-06 -3.169267586144997040e-07 2.249239332741126418e-05
7.910000000000000000e+02 2.432168197631835938e+01 -9.517336845397949219e+00 -2.394562443441827781e-06 -1.233372313436120749e-05 -4.418485787027748302e-06 1.920586146297864616e-05
7.920000000000000000e+02 2.577682495117187500e+01 -1.222450160980224609e+01 -4.326820544520160183e-06 -2.058625796053092927e-05 -7.473923687939532101e-06 1.989252450584899634e-05
7.930000000000000000e+02 2.641213607788085938e+01 -1.181590461730957031e+01 1.566181140333355870e-06 7.294219813047675416e-06 2.658120365595095791e-06 -6.841837603133171797e-06
7.940000000000000000e+02 2.643806838989257812e+01 -1.357729244232177734e+01 -2.847970608854666352e-05 -7.415412284217381966e-08 -8.566158612666185945e-06 2.202868745371233672e-05
7.950000000000000000e+02 2.676827430725097656e+01 -1.425892257690429688e+01 2.755686728050932288e-05 -1.730968506308272481e-05 3.074154847126919776e-06 8.154355782608035952e-06
7.960000000000000000e+02 2.737618637084960938e+01 -1.565506458282470703e+01 -9.989655609388137236e-07 -1.007678656606003642e-05 -3.322725660837022588e-06 -1.152908862422918901e-05
7.970000000000000000e+02 3.034103393554687500e+01 -1.738219261169433594e+01 8.544435331714339554e-06 2.877038605220150203e-05 1.119444641517475247e-05 2.403804319328628480e-05
7.980000000000000000e+02 3.909856033325195312e+01 -1.815151596069335938e+01 -3.657774141174741089e-05 -1.020041418087203056e-05 -1.403344685968477279e-05 -9.338906238554045558e-06
7.990000000000000000e+02 4.248608016967773438e+01 -1.975091743469238281e+01 -2.348521229578182101e-05 3.837426447717007250e-06 -5.894335572520503774e-06 -8.638954568596091121e-06
8.000000000000000000e+02 4.550067520141601562e+01 -1.821067047119140625e+01 3.401848880457691848e-05 -2.804845053105964325e-06 9.364093784824945033e-06 -2.908411033786251210e-06
8.010000000000000000e+02 4.550011825561523438e+01 -1.894088935852050781e+01 -2.713486355787608773e-05 4.852566235058475286e-06 -6.684689196845283732e-06 1.628955487831262872e-06
8.020000000000000000e+02 4.774531936645507812e+01 -1.849922943115234375e+01 1.833084024838171899e-05 9.223607776220887899e-06 8.266334589279722422e-06 -7.012071819190168753e-06
8.030000000000000000e+02 4.848657989501953125e+01 -1.834270095825195312e+01 -1.994330523302778602e-05 -1.340333801636006683e-05 -1.000399333861423656e-05 1.438363597117131576e-06
8.040000000000000000e+02 4.922429275512695312e+01 -1.818363952636718750e+01 2.032559677900280803e-05 1.609501669008750468e-05 1.092618367692921311e-05 -3.802671926678158343e-06
8.050000000000000000e+02 5.066307449340820312e+01 -1.792215156555175781e+01 1.507584511273307726e-05 2.407466308795846999e-05 1.174515273305587471e-05 1.436232679452587035e-07
8.060000000000000000e+02 5.137435913085937500e+01 -1.775790023803710938e+01 -1.731410702632274479e-05 -2.404729275440331548e-05 -1.240841993421781808e-05 1.805742272154020611e-06
8.070000000000000000e+02 5.299753570556640625e+01 -1.603287696838378906e+01 -6.838307308498769999e-05 -5.192553726374171674e-05 -3.609258419601246715e-05 -4.687827640736941248e-06
8.080000000000000000e+02 5.472756576538085938e+01 -1.601147460937500000e+01 -1.004240184556692839e-04 -5.981883077765814960e-05 -4.807285586139187217e-05 -6.790547922719269991e-05
8.090000000000000000e+02 5.625132751464843750e+01 -1.654991340637207031e+01 1.912302104756236076e-05 8.850447193253785372e-05 3.228824789403006434e-05 4.320124207879416645e-05
8.100000000000000000e+02 5.711890411376953125e+01 -1.648641014099121094e+01 -1.003660509013570845e-04 -1.278557901969179511e-04 -6.846655014669522643e-05 -6.128240784164518118e-05
8.110000000000000000e+02 5.838987350463867188e+01 -1.602209472656250000e+01 7.327017374336719513e-05 -2.170936022594105452e-05 1.546824569231830537e-05 1.556992174300830811e-05
8.120000000000000000e+02 4.897403335571289062e+01 -7.554823875427246094e+00 -2.152512461179867387e-04 -4.313131648814305663e-05 -7.751477096462622285e-05 -5.972582948743365705e-05
8.130000000000000000e+02 5.054740142822265625e+01 -8.664045333862304688e+00 -2.252920094178989530e-04 -1.580345087859313935e-05 -7.232864300021901727e-05 -3.130586628685705364e-05
8.140000000000000000e+02 5.013142013549804688e+01 -7.358958244323730469e+00 2.404170081717893481e-04 7.518685833929339424e-06 7.438071042997762561e-05 4.743195313494652510e-05
8.150000000000000000e+02 4.880598068237304688e+01 -3.444605350494384766e+00 -3.233629104215651751e-04 -5.676751970895566046e-05 -1.140391323133371770e-04 -1.010754713206551969e-04
8.160000000000000000e+02 4.719323730468750000e+01 3.256281912326812744e-01 4.464730154722929001e-04 9.405434684595093131e-05 1.621582050574943423e-04 2.220284077338874340e-04
8.170000000000000000e+02 4.525068664550781250e+01 3.974888086318969727e+00 -5.941863055340945721e-04 -2.110970672219991684e-04 -2.415850176475942135e-04 -3.111216647084802389e-04
8.180000000000000000e+02 4.322793960571289062e+01 7.701741218566894531e+00 6.749872700311243534e-04 3.658751666080206633e-05 2.134724491043016315e-04 2.506846503820270300e-04
8.190000000000000000e+02 4.269879913330078125e+01 9.042410850524902344e+00 -6.619855994358658791e-04 2.622985266498290002e-05 -1.907267142087221146e-04 -1.473353768233209848e-04
8.200000000000000000e+02 4.236389541625976562e+01 1.475554561614990234e+01 -7.392129045911133289e-04 4.134731425438076258e-04 -9.772192424861714244e-05 1.354360574623569846e-04
8.210000000000000000e+02 4.250662612915039062e+01 1.617893600463867188e+01 8.817971684038639069e-04 5.619936273433268070e-04 4.331372329033911228e-04 9.517755825072526932e-05
8.220000000000000000e+02 4.309876251220703125e+01 1.898365592956542969e+01 1.080313231796026230e-03 1.011959626339375973e-03 6.276818457990884781e-04 2.352937008254230022e-04
8.230000000000000000e+02 4.348886108398437500e+01 2.036320686340332031e+01 -6.266713608056306839e-04 1.233726274222135544e-03 1.821164623834192753e-04 8.485798607580363750e-04
8.240000000000000000e+02 4.512267684936523438e+01 2.433746910095214844e+01 2.713297959417104721e-03 2.634816104546189308e-03 1.604434219188988209e-03 1.058179885149002075e-03
8.250000000000000000e+02 4.654851150512695312e+01 2.680659675598144531e+01 4.446159582585096359e-03 3.982405643910169601e-03 2.528569428250193596e-03 1.722290064208209515e-03
8.260000000000000000e+02 4.734483718872070312e+01 2.798284721374511719e+01 1.080447458662092686e-03 3.490918548777699471e-03 1.371409744024276733e-03 4.855374805629253387e-03
8.270000000000000000e+02 4.909462738037109375e+01 3.029073143005371094e+01 3.510795999318361282e-03 3.790694521740078926e-03 2.190447179600596428e-03 7.120848633348941803e-03
8.280000000000000000e+02 6.338395690917968750e+01 3.502762985229492188e+01 -6.881782412528991699e-01 1.098550949245691299e-02 -2.031578123569488525e-01 1.593161970376968384e-01
8.290000000000000000e+02 6.975096130371093750e+01 2.557087516784667969e+01 3.647713959217071533e-01 9.315810203552246094e+00 2.904174566268920898e+00 -9.791388511657714844e-01
8.300000000000000000e+02 6.999911499023437500e+01 1.708105087280273438e+01 1.837520115077495575e-02 9.076839447021484375e+00 2.728564262390136719e+00 2.014828100800514221e-02
8.310000000000000000e+02 7.002726745605468750e+01 1.565334224700927734e+01 4.487224668264389038e-02 9.184006690979003906e+00 2.768663883209228516e+00 8.646775037050247192e-02
8.320000000000000000e+02 7.000203704833984375e+01 1.422676467895507812e+01 1.922052055597305298e-01 9.242351531982421875e+00 2.830367088317871094e+00 3.057540059089660645e-01
8.330000000000000000e+02 6.975553894042968750e+01 1.145241260528564453e+01 -3.786738216876983643e-01 7.053100585937500000e+00 2.002327919006347656e+00 -5.870939791202545166e-02
8.340000000000000000e+02 7.001712036132812500e+01 8.724386215209960938e+00 1.661482602357864380e-01 9.147448539733886719e+00 2.794079065322875977e+00 -9.598134756088256836e-01
8.350000000000000000e+02 7.018304443359375000e+01 7.343035221099853516e+00 3.127053976058959961e-01 1.043210697174072266e+01 3.223443508148193359e+00 -6.797616481781005859e-01
8.360000000000000000e+02 7.147395324707031250e+01 4.508770465850830078e+00 2.087000906467437744e-01 9.449331283569335938e+00 2.897409439086914062e+00 2.653123997151851654e-02
8.370000000000000000e+02 6.919102478027343750e+01 -2.473067760467529297e+00 5.061556100845336914e-01 6.790685653686523438e+00 2.189052343368530273e+00 1.669806718826293945e+00
8.380000000000000000e+02 6.986495208740234375e+01 -4.095236778259277344e+00 2.843407392501831055e-01 6.068420886993408203e+00 1.905828475952148438e+00 9.235168695449829102e-01
8.390000000000000000e+02 6.873402404785156250e+01 -3.811543703079223633e+00 5.496876239776611328e-01 5.698597431182861328e+00 1.874485611915588379e+00 1.600422739982604980e+00
8.400000000000000000e+02 6.823047637939453125e+01 -5.131744384765625000e+00 5.689842700958251953e-01 4.661515712738037109e+00 1.569149971008300781e+00 1.496323466300964355e+00
8.410000000000000000e+02 6.573186492919921875e+01 -1.039051532745361328e+01 9.961726665496826172e-01 2.397453546524047852e+00 1.018087863922119141e+00 1.382156014442443848e+00
8.420000000000000000e+02 6.543132019042968750e+01 -1.229197502136230469e+01 1.296131253242492676e+00 1.927291393280029297e+00 9.670268297195434570e-01 1.379384517669677734e+00
8.430000000000000000e+02 6.468352508544921875e+01 -1.156064224243164062e+01 1.417647838592529297e+00 2.201495885848999023e+00 1.085743069648742676e+00 1.612333655357360840e+00
8.440000000000000000e+02 6.388777923583984375e+01 -1.475967407226562500e+01 1.327983498573303223e+00 1.682145833969116211e+00 9.030387997627258301e-01 1.691597342491149902e+00
8.450000000000000000e+02 6.330888748168945312e+01 -1.743871879577636719e+01 6.286022663116455078e-01 1.599318742752075195e+00 6.683763265609741211e-01 1.434734106063842773e+00
8.460000000000000000e+02 6.304405212402343750e+01 -1.619306945800781250e+01 1.405684947967529297e+00 1.808073401451110840e+00 9.641275405883789062e-01 1.746220827102661133e+00
8.470000000000000000e+02 6.261054992675781250e+01 -1.691728782653808594e+01 1.165706992149353027e+00 1.857337236404418945e+00 9.069132804870605469e-01 1.505949258804321289e+00
8.480000000000000000e+02 6.213561248779296875e+01 -1.764218330383300781e+01 6.226813197135925293e-01 2.235197782516479492e+00 8.573637604713439941e-01 1.384602189064025879e+00
8.490000000000000000e+02 5.913289642333984375e+01 -1.962371444702148438e+01 -9.048827886581420898e-01 1.837608575820922852e+00 2.798177301883697510e-01 1.475941181182861328e+00
8.500000000000000000e+02 5.991518783569335938e+01 -1.917868232727050781e+01 -6.032647490501403809e-01 2.239974498748779297e+00 4.910129010677337646e-01 1.621821403503417969e+00
8.510000000000000000e+02 5.593649291992187500e+01 -2.066337585449218750e+01 -1.615856885910034180e+00 6.221125721931457520e-01 -2.981233000755310059e-01 3.594785332679748535e-01
8.520000000000000000e+02 5.515149307250976562e+01 -2.084093856811523438e+01 -1.698479294776916504e+00 4.651458263397216797e-01 -3.700000643730163574e-01 7.007410377264022827e-02
8.530000000000000000e+02 5.213497543334960938e+01 -2.141527366638183594e+01 -1.688819885253906250e+00 -7.422831840813159943e-03 -5.088728070259094238e-01 -6.501206159591674805e-01
8.540000000000000000e+02 5.287949752807617188e+01 -2.126968765258789062e+01 -1.754047274589538574e+00 3.041590563952922821e-02 -5.170894265174865723e-01 -5.252390503883361816e-01
8.550000000000000000e+02 5.232302474975585938e+01 -2.213426971435546875e+01 -1.114757299423217773e+00 8.927861601114273071e-02 -3.076435923576354980e-01 -5.606809258460998535e-01
8.560000000000000000e+02 4.992943954467773438e+01 -2.184285545349121094e+01 -1.356058359146118164e+00 -2.097547650337219238e-01 -4.697439372539520264e-01 -8.070448637008666992e-01
8.570000000000000000e+02 4.919879913330078125e+01 -2.198161315917968750e+01 -1.209522366523742676e+00 -1.953524053096771240e-01 -4.214624166488647461e-01 -8.245515227317810059e-01
8.580000000000000000e+02 4.635487365722656250e+01 -2.256193161010742188e+01 -6.194019913673400879e-01 -2.749146819114685059e-01 -2.682949900627136230e-01 -7.297605872154235840e-01
8.590000000000000000e+02 4.704771804809570312e+01 -2.239899826049804688e+01 -7.723137140274047852e-01 -2.940388321876525879e-01 -3.199057579040527344e-01 -7.652795910835266113e-01
8.600000000000000000e+02 4.499615478515625000e+01 -2.298921585083007812e+01 -3.451485335826873779e-01 -3.270994424819946289e-01 -2.016743868589401245e-01 -6.272901892662048340e-01
8.610000000000000000e+02 4.269457626342773438e+01 -2.400058174133300781e+01 -2.753349393606185913e-02 -5.187124609947204590e-01 -1.638737916946411133e-01 -2.546743452548980713e-01
8.620000000000000000e+02 7.299316406250000000e+01 -2.563180923461914062e+01 2.143618762493133545e-01 5.359307527542114258e-01 2.250877767801284790e-01 2.336693108081817627e-01
8.630000000000000000e+02 7.335671997070312500e+01 -2.540198898315429688e+01 4.346139729022979736e-01 9.355377554893493652e-01 4.110455214977264404e-01 -1.905330866575241089e-01
8.640000000000000000e+02 7.595941925048828125e+01 -2.573452377319335938e+01 -4.051733911037445068e-01 1.174262619018554688e+01 3.401235818862915039e+00 -3.801591873168945312e+00
8.650000000000000000e+02 7.661006927490234375e+01 -2.574507713317871094e+01 -1.273835062980651855e+00 1.513119125366210938e+01 4.157207012176513672e+00 -1.404749155044555664e+00
8.660000000000000000e+02 7.723766326904296875e+01 -2.601573944091796875e+01 1.746110767126083374e-01 1.576274967193603516e+01 4.781208038330078125e+00 1.555482029914855957e+00
8.670000000000000000e+02 7.782092285156250000e+01 -2.686360549926757812e+01 3.489195585250854492e+00 1.358233165740966797e+01 5.121458053588867188e+00 1.457849025726318359e+00
8.680000000000000000e+02 7.728469848632812500e+01 -2.865615272521972656e+01 -2.742744386196136475e-01 1.610911941528320312e+01 4.750453472137451172e+00 -2.171074151992797852e+00
8.690000000000000000e+02 7.694634246826171875e+01 -2.889580917358398438e+01 -1.512292504310607910e+00 1.624803733825683594e+01 4.420723438262939453e+00 -6.345748901367187500e-01
8.700000000000000000e+02 7.712145996093750000e+01 -2.878133201599121094e+01 -8.453795909881591797e-01 1.620161247253417969e+01 4.606869697570800781e+00 -1.479095339775085449e+00
8.710000000000000000e+02 7.406483459472656250e+01 -2.902837371826171875e+01 -1.236231997609138489e-01 1.624826550483703613e+00 4.503610134124755859e-01 4.739065766334533691e-01
8.720000000000000000e+02 7.446266937255859375e+01 -2.901301383972167969e+01 2.148089110851287842e-01 2.472713470458984375e+00 8.062567114830017090e-01 1.307286024093627930e+00
8.730000000000000000e+02 7.275989532470703125e+01 -2.915706825256347656e+01 -8.247724771499633789e-01 5.053606629371643066e-01 -9.582354128360748291e-02 -9.857463836669921875e-01
8.740000000000000000e+02 6.927922058105468750e+01 -3.191807937622070312e+01 -2.534686565399169922e+00 -2.392937660217285156e+00 -1.478287220001220703e+00 -2.400897502899169922e+00
8.750000000000000000e+02 6.271671295166015625e+01 -3.506825637817382812e+01 -1.564552307128906250e+00 -2.075202763080596924e-01 -5.316217541694641113e-01 -4.855838716030120850e-01
8.760000000000000000e+02 5.932559204101562500e+01 -2.220916175842285156e+01 -3.559897243976593018e-01 2.372791767120361328e+00 6.050406694412231445e-01 1.720403313636779785e+00
8.770000000000000000e+02 5.786867141723632812e+01 -2.096201896667480469e+01 -1.078849673271179199e+00 1.734901189804077148e+00 1.968154311180114746e-01 1.279651045799255371e+00
8.780000000000000000e+02 6.551898193359375000e+01 -2.214279174804687500e+01 -2.313064575195312500e+00 -1.402887105941772461e-01 -7.360060214996337891e-01 -6.381126642227172852e-01
8.790000000000000000e+02 7.796465301513671875e+01 -2.584140777587890625e+01 1.578607559204101562e-01 1.342390251159667969e+01 4.074529170989990234e+00 1.983920216560363770e+00
8.800000000000000000e+02 7.619538116455078125e+01 -2.505266952514648438e+01 -1.236335992813110352e+00 1.152152919769287109e+01 3.085557937622070312e+00 -2.083876132965087891e+00
8.810000000000000000e+02 7.956141662597656250e+01 -2.918709564208984375e+01 6.874832510948181152e-02 9.477728843688964844e+00 2.863943338394165039e+00 -1.050479292869567871e+00
8.820000000000000000e+02 7.784842681884765625e+01 -2.800893783569335938e+01 2.915839672088623047e+00 1.359193515777587891e+01 4.952332496643066406e+00 -2.393451452255249023e+00
8.830000000000000000e+02 7.775249481201171875e+01 -2.822898101806640625e+01 2.143302679061889648e+00 1.417607021331787109e+01 4.895812034606933594e+00 -2.692555189132690430e+00
8.840000000000000000e+02 7.676067352294921875e+01 -2.899485015869140625e+01 -1.849783301353454590e+00 1.571399974822998047e+01 4.159265041351318359e+00 3.959392011165618896e-01
8.850000000000000000e+02 7.946419525146484375e+01 -3.059189033508300781e+01 -2.536195516586303711e-01 1.184332275390625000e+01 3.476910829544067383e+00 -7.033422589302062988e-01
8.860000000000000000e+02 7.872106933593750000e+01 -2.831319808959960938e+01 4.979880154132843018e-01 1.062502479553222656e+01 3.336904048919677734e+00 -1.667892813682556152e+00
8.870000000000000000e+02 7.859982299804687500e+01 -2.536672973632812500e+01 -3.657523989677429199e-01 1.149408245086669922e+01 3.338499069213867188e+00 1.954313278198242188e+00
8.880000000000000000e+02 7.946438598632812500e+01 -2.370088768005371094e+01 -2.115268856287002563e-01 1.157391643524169922e+01 3.408716917037963867e+00 5.342351198196411133e-01
8.890000000000000000e+02 7.771292877197265625e+01 -2.666591644287109375e+01 2.758559703826904297e+00 1.417907905578613281e+01 5.081291675567626953e+00 1.965936064720153809e+00
8.900000000000000000e+02 7.822100067138671875e+01 -2.637596702575683594e+01 1.691371440887451172e+00 1.234756565093994141e+01 4.211680889129638672e+00 1.882484078407287598e+00
8.910000000000000000e+02 7.868841552734375000e+01 -2.706461334228515625e+01 1.140807271003723145e+00 1.024548244476318359e+01 3.415887117385864258e+00 4.659858345985412598e-01
8.920000000000000000e+02 7.786437988281250000e+01 -2.753148269653320312e+01 4.415011405944824219e+00 1.277517032623291016e+01 5.157054424285888672e+00 -1.054825782775878906e+00
8.930000000000000000e+02 7.746895599365234375e+01 -2.891441917419433594e+01 -5.002169609069824219e-01 1.504183197021484375e+01 4.362484455108642578e+00 -1.999037265777587891e+00
8.940000000000000000e+02 7.807645416259765625e+01 -2.866261672973632812e+01 6.443862915039062500e-01 1.311111736297607422e+01 4.126650810241699219e+00 -2.711387634277343750e+00
8.950000000000000000e+02 7.786308288574218750e+01 -2.775626564025878906e+01 3.658653020858764648e+00 1.307469844818115234e+01 5.020005702972412109e+00 -1.671420931816101074e+00
8.960000000000000000e+02 7.822531890869140625e+01 -2.684031486511230469e+01 2.271446466445922852e+00 1.201175403594970703e+01 4.284960269927978516e+00 1.362331748008728027e+00
8.970000000000000000e+02 7.635493469238281250e+01 -2.911881446838378906e+01 -1.846016168594360352e+00 1.382761573791503906e+01 3.594479799270629883e+00 2.121849060058593750e+00
8.980000000000000000e+02 7.846121215820312500e+01 -2.356833839416503906e+01 -6.950987577438354492e-01 1.153099155426025391e+01 3.250767946243286133e+00 8.603085875511169434e-01
8.990000000000000000e+02 7.683710479736328125e+01 -2.578402900695800781e+01 -1.150674581527709961e+00 1.578016757965087891e+01 4.388847827911376953e+00 -2.975740134716033936e-01
9.000000000000000000e+02 7.591467285156250000e+01 -2.912098503112792969e+01 -1.038524031639099121e+00 1.094768810272216797e+01 2.972749233245849609e+00 3.408358335494995117e+00
9.010000000000000000e+02 7.332561492919921875e+01 -2.568478202819824219e+01 4.161286056041717529e-01 5.971000194549560547e-01 3.039685785770416260e-01 -6.723735481500625610e-03
9.020000000000000000e+02 7.417593383789062500e+01 -2.569211387634277344e+01 1.004880666732788086e+00 1.846054792404174805e+00 8.552806377410888672e-01 -1.143715977668762207e+00
9.030000000000000000e+02 7.436496734619140625e+01 -2.572633743286132812e+01 1.028778314590454102e+00 2.365037202835083008e+00 1.018144607543945312e+00 -1.498645544052124023e+00
9.040000000000000000e+02 7.473696899414062500e+01 -2.569106674194335938e+01 1.319439172744750977e+00 3.599802970886230469e+00 1.475772619247436523e+00 -2.374132394790649414e+00
9.050000000000000000e+02 7.563652801513671875e+01 -2.536462783813476562e+01 -7.375164330005645752e-02 8.728853225708007812e+00 2.596530437469482422e+00 -3.239771366119384766e+00
9.060000000000000000e+02 7.536278533935546875e+01 -2.568156242370605469e+01 9.542195796966552734e-01 6.790543556213378906e+00 2.323428869247436523e+00 -3.685806751251220703e+00
9.070000000000000000e+02 7.583532714843750000e+01 -2.540791511535644531e+01 -4.799166321754455566e-01 1.060113811492919922e+01 3.036366462707519531e+00 -3.096414327621459961e+00
9.080000000000000000e+02 7.556622314453125000e+01 -2.570126724243164062e+01 6.620529294013977051e-01 8.486625671386718750e+00 2.744603633880615234e+00 -4.056992530822753906e+00
9.090000000000000000e+02 7.569608306884765625e+01 -2.909758377075195312e+01 -5.952988266944885254e-01 9.185815811157226562e+00 2.577155113220214844e+00 3.526543617248535156e+00
9.100000000000000000e+02 7.829253387451171875e+01 -3.350976943969726562e+01 -1.977572590112686157e-01 1.144894504547119141e+01 3.375356197357177734e+00 1.517337858676910400e-01
9.110000000000000000e+02 7.505072784423828125e+01 -2.932360649108886719e+01 4.339060559868812561e-02 5.219379425048828125e+00 1.578830957412719727e+00 2.513780593872070312e+00
9.120000000000000000e+02 7.486702728271484375e+01 -2.903519248962402344e+01 4.109848737716674805e-01 3.684561014175415039e+00 1.228663802146911621e+00 2.216161727905273438e+00
9.130000000000000000e+02 7.386754608154296875e+01 -2.901232147216796875e+01 -3.444582521915435791e-01 1.261752963066101074e+00 2.751884162425994873e-01 -1.054865773767232895e-02
9.140000000000000000e+02 7.465756225585937500e+01 -2.903502845764160156e+01 3.495880067348480225e-01 2.886671543121337891e+00 9.708778858184814453e-01 1.692424893379211426e+00
9.150000000000000000e+02 7.344333648681640625e+01 -2.902563476562500000e+01 -4.263518750667572021e-01 1.041252613067626953e+00 1.844702064990997314e-01 -4.013760685920715332e-01
9.160000000000000000e+02 7.391198730468750000e+01 -2.928902435302734375e+01 -9.264776110649108887e-02 1.860565423965454102e+00 5.303753018379211426e-01 3.758383393287658691e-01
9.170000000000000000e+02 7.528086853027343750e+01 -2.904088592529296875e+01 7.102032750844955444e-02 6.103107452392578125e+00 1.852238297462463379e+00 3.115881919860839844e+00
9.180000000000000000e+02 7.426576232910156250e+01 -2.902877426147460938e+01 2.909954264760017395e-02 2.012840747833251953e+00 6.125820875167846680e-01 7.840778231620788574e-01
9.190000000000000000e+02 7.329290771484375000e+01 -2.936850929260253906e+01 -4.525251984596252441e-01 1.093170404434204102e+00 1.921935677528381348e-01 -3.291295468807220459e-01
9.200000000000000000e+02 4.114393615722656250e+01 -2.021746063232421875e+01 -1.899940434668678790e-05 9.103406455324147828e-07 -5.426718871603952721e-06 -1.428670111636165529e-05
9.210000000000000000e+02 4.180282974243164062e+01 -1.998100280761718750e+01 1.955334846570622176e-05 -1.474772261644829996e-06 5.423572929430520162e-06 1.290229738515336066e-05
9.220000000000000000e+02 7.223682403564453125e+01 -2.472103500366210938e+01 -2.258029878139495850e-01 1.321655809879302979e-01 -2.809122018516063690e-02 3.232676386833190918e-01
9.230000000000000000e+02 7.089595794677734375e+01 -3.173253631591796875e+01 -1.576353192329406738e+00 -4.076608419418334961e-01 -5.952041745185852051e-01 -8.514685034751892090e-01
9.240000000000000000e+02 7.149752807617187500e+01 -2.914954185485839844e+01 -1.117757439613342285e+00 -6.071433424949645996e-01 -5.174702405929565430e-01 -1.388163208961486816e+00
9.250000000000000000e+02 7.097174835205078125e+01 -3.023319435119628906e+01 -1.681820869445800781e+00 -1.780325651168823242e+00 -1.038643956184387207e+00 -1.482272386550903320e+00
9.260000000000000000e+02 4.321480560302734375e+01 -1.953649520874023438e+01 1.951381636899895966e-05 -4.159167019679443911e-06 4.606394668371649459e-06 4.437968527781777084e-06
9.270000000000000000e+02 4.136489868164062500e+01 -1.832694816589355469e+01 3.391366772120818496e-05 1.283710298594087362e-05 1.402523139404365793e-05 1.373016584693687037e-05
9.280000000000000000e+02 4.120675277709960938e+01 -1.741046714782714844e+01 -4.406457810546271503e-05 -1.880570562207140028e-05 -1.886108475446235389e-05 -1.711917138891294599e-05
9.290000000000000000e+02 3.957132720947265625e+01 -1.918131065368652344e+01 2.163719182135537267e-05 1.819675162550993264e-05 1.195018285216065124e-05 1.919423812068998814e-05
9.300000000000000000e+02 1.632207679748535156e+01 -5.595036029815673828e+00 -5.386728298617526889e-05 -5.476037404150702059e-05 -3.258829747210256755e-05 -2.148901694454252720e-05
9.310000000000000000e+02 1.578197193145751953e+01 -5.178158283233642578e+00 4.777325375471264124e-05 6.664107786491513252e-05 3.432430094107985497e-05 2.417427094769664109e-05
9.320000000000000000e+02 1.409372615814208984e+01 -4.012938976287841797e+00 -4.075113247381523252e-05 -8.265166979981586337e-05 -3.702083995449356735e-05 -3.414084858377464116e-05
9.330000000000000000e+02 1.591891384124755859e+01 -6.073375701904296875e+00 5.963283183518797159e-05 4.949896901962347329e-05 3.273953916504979134e-05 1.445148541279195342e-06
9.340000000000000000e+02 1.541882514953613281e+01 -5.670752048492431641e+00 -4.927938425680622458e-05 -6.362984277075156569e-05 -3.387276592548005283e-05 -4.954603809892432764e-06
9.350000000000000000e+02 1.825610733032226562e+01 -7.536215782165527344e+00 -5.687168595613911748e-05 -2.776028668449725956e-05 -2.538959233788773417e-05 -2.163423596357461065e-05
9.360000000000000000e+02 1.720280838012695312e+01 -1.088675594329833984e+01 5.855152994627133012e-05 9.758894884726032615e-05 4.684214218286797404e-05 1.180714752990752459e-05
9.370000000000000000e+02 1.378490734100341797e+01 -4.616427898406982422e+00 4.244629599270410836e-05 8.559141133446246386e-05 3.841131183435209095e-05 2.642864637891761959e-05
9.380000000000000000e+02 1.155384826660156250e+01 -2.694197893142700195e+00 -4.165442442172206938e-05 -6.884335016366094351e-05 -3.314933201181702316e-05 -5.022851473768241704e-05
9.390000000000000000e+02 1.319961738586425781e+01 -4.301167011260986328e+00 -3.830074274446815252e-05 -8.523344149580225348e-05 -3.706025381688959897e-05 -3.432913217693567276e-05
9.400000000000000000e+02 1.933982467651367188e+01 -1.033213615417480469e+01 3.926706631318666041e-05 6.322205445030704141e-05 3.074673441005870700e-05 3.228823334211483598e-05
9.410000000000000000e+02 1.913456153869628906e+01 -8.620057106018066406e+00 -4.826421718462370336e-05 -2.569870412116870284e-05 -2.218887675553560257e-05 -2.797448905766941607e-05
9.420000000000000000e+02 1.956414031982421875e+01 -9.189776420593261719e+00 4.042094951728358865e-05 3.248266875743865967e-05 2.187108475482091308e-05 2.802635390253271908e-05
9.430000000000000000e+02 1.785723686218261719e+01 -1.115956592559814453e+01 1.330084523942787200e-05 -6.746785220457240939e-05 -1.625010190764442086e-05 -2.837572901626117527e-05
9.440000000000000000e+02 2.039508056640625000e+01 -1.144924449920654297e+01 5.058157330495305359e-05 1.172793236037250608e-05 1.869285188149660826e-05 8.649928417980845552e-07
9.450000000000000000e+02 1.979097747802734375e+01 -1.094848728179931641e+01 -4.476437607081606984e-05 -7.236201054183766246e-05 -3.513791671139188111e-05 6.707585271215066314e-06
9.460000000000000000e+02 4.530535507202148438e+01 -2.371854019165039062e+01 -2.468456625938415527e-01 -4.439985156059265137e-01 -2.072532624006271362e-01 -7.302763462066650391e-01
9.470000000000000000e+02 4.354333877563476562e+01 -2.358473777770996094e+01 -1.213829442858695984e-01 -4.289092421531677246e-01 -1.650876551866531372e-01 -4.489542245864868164e-01
9.480000000000000000e+02 4.657447814941406250e+01 -2.325600051879882812e+01 -4.441448450088500977e-01 -3.662067353725433350e-01 -2.431054711341857910e-01 -8.202031254768371582e-01
9.490000000000000000e+02 4.404003143310546875e+01 -2.604515266418457031e+01 -2.031324617564678192e-02 -9.060802459716796875e-01 -2.779180407524108887e-01 -6.210609078407287598e-01
9.500000000000000000e+02 2.154175758361816406e+01 -1.351605701446533203e+01 1.255455117643577978e-05 -3.844453021883964539e-05 -7.766993803670629859e-06 -8.149459972628392279e-06
9.510000000000000000e+02 4.724093627929687500e+01 -2.312269592285156250e+01 -5.257716774940490723e-01 -2.998730242252349854e-01 -2.476934194564819336e-01 -8.485483527183532715e-01
9.520000000000000000e+02 4.739818954467773438e+01 -2.387535858154296875e+01 -2.940802872180938721e-01 -3.631836175918579102e-01 -1.971791684627532959e-01 -8.801620602607727051e-01
9.530000000000000000e+02 4.847587203979492188e+01 -2.211998176574707031e+01 -1.062101721763610840e+00 -2.639212310314178467e-01 -3.978068828582763672e-01 -8.196936249732971191e-01
9.540000000000000000e+02 4.865336227416992188e+01 -2.285595512390136719e+01 -6.991165280342102051e-01 -2.291854619979858398e-01 -2.784906029701232910e-01 -8.771700859069824219e-01
9.550000000000000000e+02 5.066460800170898438e+01 -2.170275306701660156e+01 -1.486051082611083984e+00 -1.226538717746734619e-01 -4.826114773750305176e-01 -7.820358276367187500e-01
9.560000000000000000e+02 5.520603942871093750e+01 -1.680872344970703125e+01 9.050490916706621647e-05 -1.488148154749069363e-05 2.268702883156947792e-05 3.308237501187250018e-05
9.570000000000000000e+02 5.372892761230468750e+01 -1.524307060241699219e+01 5.223276821197941899e-05 7.186475704656913877e-05 3.722925612237304449e-05 4.343211548984982073e-05
9.580000000000000000e+02 5.149975585937500000e+01 -1.367517566680908203e+01 -9.094356209971010685e-05 3.779686812777072191e-05 -1.594400964677333832e-05 4.789700687979348004e-05
9.590000000000000000e+02 5.114883041381835938e+01 -1.705235671997070312e+01 4.448134131962433457e-05 7.671698767808265984e-06 1.564591184433083981e-05 4.371576324047055095e-06
9.600000000000000000e+02 8.439484596252441406e+00 3.281169891357421875e+00 1.186462832265533507e-04 1.297421476920135319e-06 3.598311013774946332e-05 -1.631901977816596627e-05
9.610000000000000000e+02 8.461986541748046875e+00 2.574000358581542969e+00 -8.376292498724069446e-06 1.651977981964591891e-05 2.443046241751289926e-06 -4.903183435089886189e-05
9.620000000000000000e+02 1.588525533676147461e+00 7.811963081359863281e+00 1.027288453769870102e-04 3.325081343064084649e-05 4.079389691469259560e-05 -1.300301846640650183e-05
9.630000000000000000e+02 5.544060707092285156e+00 1.870792746543884277e+00 4.361170067568309605e-05 1.661638452787883580e-05 1.806842556106857955e-05 -1.130624332290608436e-05
9.640000000000000000e+02 9.185808181762695312e+00 2.631971836090087891e+00 9.108158701565116644e-05 2.164286888728383929e-05 3.381733404239639640e-05 -2.390893314441200346e-05
9.650000000000000000e+02 7.734395980834960938e+00 1.851401805877685547e+00 3.012418119396897964e-06 9.708849574963096529e-06 3.816380285570630804e-06 -3.840800854959525168e-05
9.660000000000000000e+02 7.037098884582519531e+00 2.549553632736206055e+00 -1.518560839031124488e-05 1.086212978407274932e-05 -1.297043809245224111e-06 -3.977146116085350513e-05
9.670000000000000000e+02 7.754588127136230469e+00 3.243899106979370117e+00 -1.872544271463993937e-05 1.376239561068359762e-05 -1.488913881075859535e-06 -5.917893940932117403e-05
9.680000000000000000e+02 1.830951452255249023e+00 3.888000726699829102e+00 -1.148317096522077918e-04 -1.538031392556149513e-05 -3.906360871042124927e-05 -2.203429539804346859e-05
9.690000000000000000e+02 4.309771060943603516e+00 3.654250383377075195e+00 2.805034637276548892e-05 3.028213723155204207e-05 1.749974580889102072e-05 -2.776989822450559586e-05
9.700000000000000000e+02 1.264197945594787598e+00 3.225870370864868164e+00 -3.341841193105210550e-06 2.881255386455450207e-05 7.641214324394240975e-06 -1.951247941178735346e-05
9.710000000000000000e+02 2.601483106613159180e+00 1.982259869575500488e+00 5.170867370907217264e-05 6.833644420112250373e-06 1.756269557517953217e-05 -1.354621872451389208e-05
9.720000000000000000e+02 1.943900227546691895e+00 2.987054347991943359e+00 7.950110011734068394e-05 -8.925908332457765937e-06 2.117255826306063682e-05 8.678339327161666006e-06
9.730000000000000000e+02 2.610787200927734375e+01 -1.289966678619384766e+01 3.314588639113935642e-06 8.158507625921629369e-06 3.441929038672242314e-06 -1.142922428698511794e-05
9.740000000000000000e+02 2.676679992675781250e+01 -1.249294281005859375e+01 -1.713394703983794898e-05 -9.689540092949755490e-06 -8.047046321735251695e-06 2.075478369079064578e-05
9.750000000000000000e+02 2.709980392456054688e+01 -1.495192432403564453e+01 -2.557664811320137233e-05 -9.131101705861510709e-07 -7.946927325974684209e-06 -4.563493803289020434e-06
9.760000000000000000e+02 2.605533409118652344e+01 -1.113961315155029297e+01 -9.941772987076546997e-06 -1.116970997827593237e-05 -6.333445071504684165e-06 1.869397965492680669e-05
9.770000000000000000e+02 2.510795402526855469e+01 -1.087415981292724609e+01 -5.146918283571721986e-06 -1.384862571285339072e-05 -5.698663244402268901e-06 1.340362723567523062e-05
9.780000000000000000e+02 2.807460403442382812e+01 -1.159385299682617188e+01 -2.344488166272640228e-05 -3.964336428907699883e-06 -8.222765245591290295e-06 2.089476947730872780e-05
9.790000000000000000e+02 2.712032699584960938e+01 -1.317461395263671875e+01 1.296905975323170424e-05 8.784594456301419996e-07 4.154255748289870098e-06 -2.036241539826733060e-06
9.800000000000000000e+02 2.568657684326171875e+01 -1.046153926849365234e+01 1.090281713800322905e-07 1.766789182511274703e-06 5.627451855616527610e-07 -6.938132628420135006e-06
9.810000000000000000e+02 3.088577270507812500e+01 -1.638681983947753906e+01 -4.073052696185186505e-05 -1.494629941589664668e-05 -1.670304845902137458e-05 -2.304744339198805392e-05
9.820000000000000000e+02 2.782985877990722656e+01 -1.457397937774658203e+01 2.517044777050614357e-05 -1.018826606014044955e-05 4.494654149311827496e-06 1.021143907564692199e-05
9.830000000000000000e+02 5.139843368530273438e+01 -2.156034278869628906e+01 -1.599556446075439453e+00 -1.234657093882560730e-01 -5.169066786766052246e-01 -7.206516265869140625e-01
9.840000000000000000e+02 5.159066772460937500e+01 -2.229834365844726562e+01 -1.041736483573913574e+00 4.012018442153930664e-02 -3.004848957061767578e-01 -6.851626634597778320e-01
9.850000000000000000e+02 4.938322830200195312e+01 -2.272530746459960938e+01 -7.943944334983825684e-01 -2.241622358560562134e-01 -3.055669963359832764e-01 -8.670970201492309570e-01
9.860000000000000000e+02 5.012294769287109375e+01 -2.259302711486816406e+01 -8.857161998748779297e-01 -1.106091886758804321e-01 -2.988976240158081055e-01 -8.282938003540039062e-01
9.870000000000000000e+02 5.050362014770507812e+01 -1.729662895202636719e+01 -1.783741936378646642e-05 -3.235668918932788074e-05 -1.505823274783324450e-05 -1.772286123014055192e-05
9.880000000000000000e+02 4.987448883056640625e+01 -1.738620376586914062e+01 7.484005891456035897e-06 2.968961234728340060e-05 1.115208578994497657e-05 -1.009381594485603273e-05
9.890000000000000000e+02 5.000210189819335938e+01 -1.341106891632080078e+01 1.441201311536133289e-04 -2.978578413603827357e-05 3.430030483286827803e-05 -1.176740624941885471e-06
9.900000000000000000e+02 5.181562423706054688e+01 -1.687619209289550781e+01 -4.090020593139342964e-05 -1.278875606658402830e-05 -1.610668732610065490e-05 2.929307811427861452e-05
9.910000000000000000e+02 4.915510940551757812e+01 -1.747568893432617188e+01 -3.310906686238013208e-05 -1.993447222048416734e-05 -1.591306136106140912e-05 -2.176084308302961290e-07
9.920000000000000000e+02 5.438763046264648438e+01 -2.098528480529785156e+01 -1.763926744461059570e+00 2.601938247680664062e-01 -4.511198699474334717e-01 -1.677870452404022217e-01
9.930000000000000000e+02 5.380598831176757812e+01 -2.184926033020019531e+01 -1.163691282272338867e+00 3.714406192302703857e-01 -2.376751899719238281e-01 -2.174636274576187134e-01
9.940000000000000000e+02 5.107561111450195312e+01 -2.320842361450195312e+01 -5.136471390724182129e-01 9.176212549209594727e-02 -1.265655010938644409e-01 -7.145926356315612793e-01
9.950000000000000000e+02 4.700252914428710938e+01 -1.863785552978515625e+01 -2.307947943336330354e-05 -3.160524556733435020e-06 -7.872001333453226835e-06 7.305893177544930950e-06
9.960000000000000000e+02 4.700293731689453125e+01 -1.797076797485351562e+01 2.946014319604728371e-05 5.286681243887869641e-06 1.042404710460687056e-05 -1.421250999555923045e-05
9.970000000000000000e+02 4.841180038452148438e+01 -1.771219253540039062e+01 2.474576649547088891e-05 2.211138053098693490e-05 1.405714374413946643e-05 -4.282780537323560566e-06
9.980000000000000000e+02 4.771230697631835938e+01 -1.787478446960449219e+01 -2.525130184949375689e-05 -1.498742585681611672e-05 -1.207161858474137262e-05 1.169449478766182438e-05
9.990000000000000000e+02 4.626533126831054688e+01 -1.807337570190429688e+01 -3.550857945811003447e-05 6.361732403092901222e-07 -1.046172201313311234e-05 6.598135314561659470e-06
1.000000000000000000e+03 4.473079299926757812e+01 -1.760904121398925781e+01 4.521290247794240713e-05 -1.159749103862850461e-06 1.321594663750147447e-05 4.942820396536262706e-06
1.001000000000000000e+03 4.398002624511718750e+01 -1.933423995971679688e+01 -2.462476550135761499e-05 5.693389539374038577e-06 -5.679412879544543102e-06 -2.598771970951929688e-06
1.002000000000000000e+03 4.393605804443359375e+01 -1.855761146545410156e+01 3.112356353085488081e-05 -2.762443784831702942e-07 9.254194992536213249e-06 4.454384452401427552e-06
1.003000000000000000e+03 4.313869476318359375e+01 -1.874163246154785156e+01 -3.405807365197688341e-05 -2.927241382622014498e-07 -1.030523981171427295e-05 -7.634525900357402861e-06
1.004000000000000000e+03 2.529440498352050781e+01 -9.779828071594238281e+00 -7.536665634688688442e-06 -1.039844755723606795e-05 -5.380534275900572538e-06 2.026133734034374356e-05
1.005000000000000000e+03 2.473240661621093750e+01 -1.019594287872314453e+01 -3.197837713742046617e-06 -1.390053512295708060e-06 -1.376367322336591315e-06 -4.306412847654428333e-06
1.006000000000000000e+03 2.488455200195312500e+01 -9.098719596862792969e+00 1.272216763936739881e-06 -1.360863961963332258e-06 -2.659415088146488415e-08 -1.102475653169676661e-05
1.007000000000000000e+03 2.446315193176269531e+01 -8.419063568115234375e+00 -9.435115089218015783e-07 -9.194907761411741376e-06 -3.041525815206114203e-06 2.126360595866572112e-05
1.008000000000000000e+03 2.402157211303710938e+01 -7.739123344421386719e+00 3.926146746380254626e-06 -6.192403361637843773e-06 -6.798770186833280604e-07 -1.614098982827272266e-05
1.009000000000000000e+03 2.306618881225585938e+01 -6.412723541259765625e+00 9.559978025208692998e-06 -7.040740911179454997e-06 7.557712251582415774e-07 -2.596589547465555370e-05
1.010000000000000000e+03 2.148020362854003906e+01 -4.523826599121093750e+00 2.261064764752518386e-05 -6.375309112627292052e-06 4.870601514994632453e-06 3.466858470346778631e-05
1.011000000000000000e+03 2.256285667419433594e+01 -5.771705150604248047e+00 1.714995050861034542e-05 -9.628907719161361456e-06 2.256312882309430279e-06 2.940634658443741500e-05
1.012000000000000000e+03 2.359407043457031250e+01 -5.942373752593994141e+00 8.590181096224114299e-06 -1.267946936422958970e-05 -1.226786480401642621e-06 2.833527105394750834e-05
1.013000000000000000e+03 1.684711647033691406e+01 2.602190375328063965e-01 1.491020084358751774e-04 -5.215477358433417976e-05 2.908416900027077645e-05 -5.914051143918186426e-05
1.014000000000000000e+03 1.243776988983154297e+01 1.035474061965942383e+00 3.680996087496168911e-05 5.644331758958287537e-05 2.797598426695913076e-05 -1.387671363772824407e-05
1.015000000000000000e+03 1.466255283355712891e+01 -7.979603856801986694e-02 1.050618957378901541e-04 -3.854586611851118505e-05 1.995480852201581001e-05 -5.468602466862648726e-05
1.016000000000000000e+03 1.536003875732421875e+01 -4.797419011592864990e-01 3.781698615057393909e-05 5.662192779709585011e-05 2.833167491189669818e-05 6.473066605394706130e-06
1.017000000000000000e+03 2.042799758911132812e+01 -4.437586784362792969e+00 3.097295848419889808e-05 4.877083938481518999e-06 1.075501313607674092e-05 3.441817170823924243e-05
1.018000000000000000e+03 1.865830993652343750e+01 -2.785529136657714844e+00 5.427158612292259932e-05 -3.368723992025479674e-05 6.175303951749810949e-06 -5.934180808253586292e-05
1.019000000000000000e+03 2.031938743591308594e+01 -3.358376741409301758e+00 2.856287756003439426e-05 2.026176161962212063e-06 9.176716048386879265e-06 3.741850014193914831e-05
1.020000000000000000e+03 2.077882575988769531e+01 -2.828034639358520508e+00 7.117641507647931576e-05 -1.870525193226058036e-05 1.574134876136668026e-05 -5.504370346898213029e-05
1.021000000000000000e+03 2.203565788269042969e+01 -5.139900684356689453e+00 2.128629603248555213e-05 -1.243420774699188769e-05 2.655626531122834422e-06 -3.547808591974899173e-05
1.022000000000000000e+03 1.844699668884277344e+01 -1.745979785919189453e+00 8.997065742732957006e-05 -3.663947063614614308e-05 1.599935603735502809e-05 -6.267163553275167942e-05
1.023000000000000000e+03 1.779573249816894531e+01 -1.252529978752136230e+00 2.353070522076450288e-05 3.225186810595914721e-05 1.673477163421921432e-05 3.032656059076543897e-05
1.024000000000000000e+03 1.672634506225585938e+01 -1.331176400184631348e+00 3.941629620385356247e-05 4.812096449313685298e-05 2.626117748150136322e-05 2.018788836721796542e-05
1.025000000000000000e+03 1.971333503723144531e+01 -2.798608541488647461e+00 6.232957093743607402e-05 -2.710388253035489470e-05 1.056770634022541344e-05 -5.584089740295894444e-05
1.026000000000000000e+03 1.105287742614746094e+01 -4.161035060882568359e+00 -5.505934677785262465e-05 -6.431135261664167047e-05 -3.581121200113557279e-05 -5.418808359536342323e-05
1.027000000000000000e+03 6.030523300170898438e+00 -1.920492649078369141e+00 5.474595673149451613e-05 4.871424152952386066e-07 1.656992935750167817e-05 1.732350028760265559e-05
1.028000000000000000e+03 7.557957649230957031e+00 -2.724228858947753906e+00 -8.635536505607888103e-05 -1.543282996863126755e-05 -3.053645923500880599e-05 -3.573820140445604920e-05
1.029000000000000000e+03 6.780168056488037109e+00 -2.709301710128784180e+00 8.751942368689924479e-05 4.256308329786406830e-06 2.753272019617725164e-05 4.015745435026474297e-05
1.030000000000000000e+03 8.327309608459472656e+00 -2.767723798751831055e+00 6.985224899835884571e-05 3.858759737340733409e-05 3.253195245633833110e-05 3.401830326765775681e-05
1.031000000000000000e+03 5.972624301910400391e+00 -3.484514474868774414e+00 1.062739684130065143e-04 -1.888643237180076540e-05 2.621626117615960538e-05 6.218077032826840878e-05
1.032000000000000000e+03 1.789969563484191895e+00 -9.145631790161132812e+00 -2.440113166812807322e-04 4.773171895067207515e-06 -7.177144289016723633e-05 -4.363345215097069740e-05
1.033000000000000000e+03 6.416110992431640625e-01 -6.362811565399169922e+00 1.638660760363563895e-04 1.023414142764522694e-06 4.946684566675685346e-05 3.470581941655836999e-05
1.034000000000000000e+03 6.803359389305114746e-01 -4.878887653350830078e+00 -1.302200253121554852e-04 -1.143154349847463891e-05 -4.249547055223956704e-05 -3.252059832448139787e-05
1.035000000000000000e+03 5.707579255104064941e-01 -3.456240653991699219e+00 1.164618079201318324e-04 -6.645348662459582556e-07 3.473918332019820809e-05 4.379247548058629036e-05
1.036000000000000000e+03 6.069754409790039062e+01 -1.872781944274902344e+01 -3.486182689666748047e-01 2.483326911926269531e+00 6.404125690460205078e-01 1.516332983970642090e+00
1.037000000000000000e+03 6.376212310791015625e+01 -1.666348838806152344e+01 1.053328037261962891e+00 1.364969134330749512e+00 7.254891395568847656e-01 1.479616403579711914e+00
1.038000000000000000e+03 6.403248596191406250e+01 -1.788452529907226562e+01 4.092105031013488770e-01 1.163499236106872559e+00 4.718129038810729980e-01 1.388799071311950684e+00
1.039000000000000000e+03 6.418440246582031250e+01 -1.591194915771484375e+01 1.251300096511840820e+00 1.373822093009948730e+00 7.875366806983947754e-01 1.573053956031799316e+00
1.040000000000000000e+03 6.461489105224609375e+01 -1.517781448364257812e+01 1.282369017601013184e+00 1.383455872535705566e+00 7.997474670410156250e-01 1.577392816543579102e+00
1.041000000000000000e+03 6.556270599365234375e+01 -1.369788265228271484e+01 1.314633846282958984e+00 1.664034366607666016e+00 8.936004638671875000e-01 1.344258785247802734e+00
1.042000000000000000e+03 5.673934555053710938e+01 -2.044981384277343750e+01 -1.482049942016601562e+00 9.176199436187744141e-01 -1.693290174007415771e-01 6.697930097579956055e-01
1.043000000000000000e+03 5.870440292358398438e+01 -2.067460060119628906e+01 -1.018071889877319336e+00 1.930202126502990723e+00 2.736390531063079834e-01 1.526792883872985840e+00
1.044000000000000000e+03 5.702376174926757812e+01 -2.121450424194335938e+01 -1.071043848991394043e+00 1.361860871315002441e+00 8.724509924650192261e-02 9.667815566062927246e-01
1.045000000000000000e+03 5.908616638183593750e+01 -2.514551353454589844e+01 2.764406919479370117e+00 2.608591794967651367e+00 1.611899614334106445e+00 2.681950092315673828e+00
1.046000000000000000e+03 5.804421615600585938e+01 -2.611689567565917969e+01 2.956104755401611328e+00 3.628078699111938477e+00 1.975255012512207031e+00 3.040246486663818359e+00
1.047000000000000000e+03 1.206506538391113281e+01 2.117199897766113281e+00 1.069403242581756786e-05 6.138995377114042640e-05 2.162519740522839129e-05 -1.082248309103306383e-05
1.048000000000000000e+03 1.357981300354003906e+01 1.327287197113037109e+00 2.166420381399802864e-05 5.364871685742400587e-05 2.259387656522449106e-05 -1.219503519678255543e-05
1.049000000000000000e+03 1.432488250732421875e+01 9.329966306686401367e-01 1.265673636225983500e-04 -3.786520392168313265e-05 2.661064900166820735e-05 -5.001448153052479029e-05
1.050000000000000000e+03 1.153204536437988281e+01 -5.052372455596923828e+00 -4.304992398829199374e-05 -7.537772034993395209e-05 -3.552829366526566446e-05 -6.224629760254174471e-05
1.051000000000000000e+03 1.127197074890136719e+01 -3.421738862991333008e+00 4.804615309694781899e-05 6.457958079408854246e-05 3.378772089490666986e-05 4.776550122187472880e-05
1.052000000000000000e+03 5.995252227783203125e+01 -2.104398345947265625e+01 -8.985747098922729492e-01 2.309169530868530273e+00 4.231784343719482422e-01 1.710965514183044434e+00
1.053000000000000000e+03 5.952495574951171875e+01 -2.030664253234863281e+01 -9.424296617507934570e-01 2.198002815246582031e+00 3.766719400882720947e-01 1.634520173072814941e+00
1.054000000000000000e+03 6.422201538085937500e+01 -2.267879867553710938e+01 -1.344719409942626953e+00 1.507662981748580933e-01 -3.581859171390533447e-01 -2.171414196491241455e-01
1.055000000000000000e+03 6.198928833007812500e+01 -1.898638725280761719e+01 -4.149582982063293457e-01 2.182952404022216797e+00 5.303982496261596680e-01 1.390281200408935547e+00
1.056000000000000000e+03 4.230325317382812500e+01 -2.566186904907226562e+01 -6.835072487592697144e-02 -1.029181122779846191e+00 -3.292595744132995605e-01 -2.013808339834213257e-01
1.057000000000000000e+03 4.246451568603515625e+01 -2.711385917663574219e+01 4.262902308255434036e-03 -1.527421116828918457e+00 -4.569474458694458008e-01 -2.614546716213226318e-01
1.058000000000000000e+03 3.280609512329101562e+01 -1.786569786071777344e+01 -2.448384975650697015e-06 1.312450240220641717e-05 3.202835159754613414e-06 1.153233097284100950e-05
1.059000000000000000e+03 4.023569869995117188e+01 -1.982099151611328125e+01 -1.013838209473760799e-05 -3.317614027764648199e-05 -1.299435734836151823e-05 -3.063648546230979264e-05
1.060000000000000000e+03 4.083632278442382812e+01 -1.943314933776855469e+01 2.516921631467994303e-05 7.659305083507206291e-06 9.848556146607734263e-06 1.802846418286208063e-05
1.061000000000000000e+03 3.425156021118164062e+01 -1.690086174011230469e+01 6.986698736000107601e-06 9.251340088667348027e-06 4.871411420026561245e-06 1.360291844321181998e-05
1.062000000000000000e+03 3.672113418579101562e+01 -1.803550720214843750e+01 -1.669496850809082389e-05 4.836545940634096041e-06 -3.557526952135958709e-06 -2.680971647350816056e-06
1.063000000000000000e+03 2.855465316772460938e+01 -1.619168090820312500e+01 4.666507447836920619e-05 6.617839517275569960e-06 1.598487324372399598e-05 2.935788324975874275e-05
1.064000000000000000e+03 3.409710693359375000e+01 -1.793233299255371094e+01 -1.820092802518047392e-05 -4.440472821443108842e-06 -6.792420663259690627e-06 -5.838843208039179444e-06
1.065000000000000000e+03 3.548951339721679688e+01 -1.697402763366699219e+01 -2.344845415791496634e-05 -1.009107654681429267e-05 -1.006185902951983735e-05 -9.035263246914837509e-06
1.066000000000000000e+03 3.192037010192871094e+01 -1.664438247680664062e+01 1.887693906610365957e-05 9.800060979614499956e-06 8.603100468462798744e-06 2.571683216956444085e-05
1.067000000000000000e+03 5.432114791870117188e+01 -3.150565528869628906e+01 1.114302515983581543e+00 3.177439451217651367e+00 1.287522554397583008e+00 7.278649210929870605e-01
1.068000000000000000e+03 8.573717117309570312e+00 -2.820355796813964844e+01 1.069882273441180587e-04 -5.146114854142069817e-04 -1.222869759658351541e-04 1.380363391945138574e-04
1.069000000000000000e+03 5.580883026123046875e+01 3.844911956787109375e+01 -5.200383719056844711e-03 -6.444659829139709473e-02 -2.089409530162811279e-02 1.296241283416748047e-01
1.070000000000000000e+03 6.337957000732421875e+01 3.891720962524414062e+01 2.580940127372741699e-01 6.693594455718994141e-01 2.782360613346099854e-01 -1.333954036235809326e-01
1.071000000000000000e+03 4.056275177001953125e+01 -3.155384826660156250e+01 -6.811398267745971680e-01 -6.848049163818359375e-01 -4.097834229469299316e-01 -6.764001846313476562e-01
1.072000000000000000e+03 4.294181823730468750e+01 -3.020980072021484375e+01 -4.716980755329132080e-01 -1.471831202507019043e+00 -5.830587744712829590e-01 -3.770449459552764893e-01
1.073000000000000000e+03 4.379652404785156250e+01 -2.719045448303222656e+01 -1.488335728645324707e-01 -1.116547226905822754e+00 -3.796142339706420898e-01 -6.766565442085266113e-01
1.074000000000000000e+03 9.827894210815429688e+00 -1.474217414855957031e+01 2.317275793757289648e-04 -6.705745181534439325e-05 4.940103826811537147e-05 1.622417184989899397e-04
1.075000000000000000e+03 5.237186813354492188e+01 3.837878417968750000e+01 -2.657876582816243172e-03 -2.702886424958705902e-02 -8.906021714210510254e-03 5.152326822280883789e-02
1.076000000000000000e+03 5.261127090454101562e+01 3.622402191162109375e+01 -4.759236425161361694e-02 1.197927724570035934e-02 -1.068392582237720490e-02 3.694007545709609985e-02
1.077000000000000000e+03 1.220790481567382812e+01 -3.148162269592285156e+01 2.402295358479022980e-03 -9.194896119879558682e-05 6.931038806214928627e-04 5.426006391644477844e-04
1.078000000000000000e+03 4.945361709594726562e+01 -1.520949077606201172e+01 5.409969526226632297e-05 -3.853733142022974789e-05 4.668708697863621637e-06 -4.316755803301930428e-05
1.079000000000000000e+03 5.161355972290039062e+01 -1.249943542480468750e+01 1.761225721566006541e-04 3.369257456142804585e-06 5.384754695114679635e-05 -3.440699856582796201e-06
1.080000000000000000e+03 9.452404975891113281e+00 -2.699332237243652344e+01 1.766499553923495114e-05 1.683443042566068470e-05 1.034982778946869075e-05 -8.736071322346106172e-05
1.081000000000000000e+03 4.105170059204101562e+01 1.177455615997314453e+01 8.160850265994668007e-04 1.278098498005419970e-04 2.831684541888535023e-04 1.848324754973873496e-04
1.082000000000000000e+03 4.118957901000976562e+01 1.021928310394287109e+01 -6.848782650195062160e-04 1.225635642185807228e-04 -1.686944160610437393e-04 -4.946823537466116250e-05
1.083000000000000000e+03 4.022390365600585938e+01 1.954368209838867188e+01 1.628037891350686550e-03 3.430704528000205755e-04 5.913325003348290920e-04 4.701951111201196909e-04
1.084000000000000000e+03 4.107408905029296875e+01 1.478952789306640625e+01 9.665095130912959576e-04 2.744958328548818827e-04 3.723016125150024891e-04 2.002320397878065705e-04
1.085000000000000000e+03 4.147418212890625000e+01 -3.322180557250976562e+01 2.218278311192989349e-02 -9.631469249725341797e-01 -2.822892367839813232e-01 -2.274523824453353882e-01
1.086000000000000000e+03 2.402119445800781250e+01 -3.320155715942382812e+01 1.225024461746215820e-02 -1.292444532737135887e-03 3.287340048700571060e-03 4.368280526250600815e-03
1.087000000000000000e+03 1.492740249633789062e+01 -3.499725341796875000e+01 6.131840636953711510e-04 1.376966945827007294e-03 5.970452912151813507e-04 4.502640105783939362e-03
1.088000000000000000e+03 1.613711357116699219e+01 -3.263817977905273438e+01 6.947913207113742828e-03 1.142990076914429665e-03 2.427271101623773575e-03 3.399032168090343475e-03
1.089000000000000000e+03 3.559112548828125000e+01 -3.596409606933593750e+01 -4.009403288364410400e-02 -1.837879717350006104e-01 -6.716459989547729492e-02 -1.854876130819320679e-01
1.090000000000000000e+03 7.411151409149169922e+00 -2.253384780883789062e+01 -5.179839208722114563e-04 1.720142790873069316e-05 -1.502347440691664815e-04 1.152547338278964162e-05
1.091000000000000000e+03 1.702769279479980469e+01 -8.490363121032714844e+00 -9.179719927487894893e-05 1.247593354491982609e-05 -2.379637953708879650e-05 -4.106339474674314260e-06
1.092000000000000000e+03 7.697978973388671875e+01 -3.464453125000000000e+01 -2.801547050476074219e-01 9.467085838317871094e+00 2.756079435348510742e+00 6.051678657531738281e-01
1.093000000000000000e+03 7.765731048583984375e+01 -2.916004562377929688e+01 -8.931597471237182617e-01 1.409196662902832031e+01 3.959642171859741211e+00 -1.960152268409729004e+00
1.094000000000000000e+03 7.960031890869140625e+01 -2.782593917846679688e+01 2.999707758426666260e-01 6.900620460510253906e+00 2.160177230834960938e+00 -4.519101381301879883e-01
1.095000000000000000e+03 7.838919067382812500e+01 -2.728354072570800781e+01 2.549374341964721680e+00 1.141218566894531250e+01 4.188467979431152344e+00 -4.151796102523803711e-01
1.096000000000000000e+03 7.959740447998046875e+01 -2.646440887451171875e+01 3.117358088493347168e-01 7.154128551483154297e+00 2.239759206771850586e+00 6.212602257728576660e-01
1.097000000000000000e+03 7.951010894775390625e+01 -2.510061836242675781e+01 -1.170967817306518555e-01 9.819789886474609375e+00 2.910807847976684570e+00 9.437600374221801758e-01
1.098000000000000000e+03 7.494474792480468750e+01 -2.567374610900878906e+01 1.110615015029907227e+00 4.502088546752929688e+00 1.683811068534851074e+00 -2.770196437835693359e+00
1.099000000000000000e+03 7.521553802490234375e+01 -3.698115921020507812e+01 1.599405705928802490e-01 6.706193447113037109e+00 2.059840202331542969e+00 7.963348627090454102e-01
1.100000000000000000e+03 7.781304931640625000e+01 -3.943520736694335938e+01 -1.218062639236450195e-01 1.040652084350585938e+01 3.085414409637451172e+00 9.164910912513732910e-01
1.101000000000000000e+03 7.704444885253906250e+01 -2.586931610107421875e+01 -7.718777060508728027e-01 1.573417854309082031e+01 4.488690376281738281e+00 5.090527534484863281e-01
1.102000000000000000e+03 7.738386535644531250e+01 -2.617121124267578125e+01 9.218317866325378418e-01 1.573594760894775391e+01 4.997334003448486328e+00 2.078064441680908203e+00
1.103000000000000000e+03 7.620906829833984375e+01 -2.965094757080078125e+01 -1.713781714439392090e+00 1.168790149688720703e+01 2.992235898971557617e+00 1.891140341758728027e+00
1.104000000000000000e+03 7.823783874511718750e+01 1.675737953186035156e+01 1.344475802034139633e-02 5.468730449676513672e+00 1.644652485847473145e+00 -1.885771006345748901e-02
1.105000000000000000e+03 7.802497863769531250e+01 3.328181838989257812e+01 -5.899045616388320923e-02 6.788609981536865234e+00 2.018885850906372070e+00 3.161273896694183350e-01
1.106000000000000000e+03 7.820268249511718750e+01 2.923965835571289062e+01 1.040717680007219315e-02 6.228431224822998047e+00 1.871651530265808105e+00 3.903402686119079590e-01
1.107000000000000000e+03 7.940707397460937500e+01 2.786971092224121094e+01 1.919428701512515545e-03 5.830921173095703125e+00 1.749852299690246582e+00 1.395962685346603394e-01
1.108000000000000000e+03 7.823759460449218750e+01 2.651184082031250000e+01 4.738184064626693726e-02 5.844746112823486328e+00 1.767638444900512695e+00 2.977817058563232422e-01
1.109000000000000000e+03 7.822975158691406250e+01 2.514678955078125000e+01 5.830809473991394043e-02 5.706520080566406250e+00 1.729448437690734863e+00 2.261082679033279419e-01
1.110000000000000000e+03 7.940953063964843750e+01 2.509820747375488281e+01 4.418443422764539719e-03 5.315563678741455078e+00 1.595994710922241211e+00 8.988200873136520386e-02
1.111000000000000000e+03 7.823419189453125000e+01 1.816243743896484375e+01 3.986474592238664627e-03 5.471244812011718750e+00 1.642569422721862793e+00 -1.240934338420629501e-02
1.112000000000000000e+03 7.940885162353515625e+01 1.812596321105957031e+01 1.396321970969438553e-02 4.957016944885253906e+00 1.491294026374816895e+00 -4.560286644846200943e-03
1.113000000000000000e+03 7.824073028564453125e+01 1.535954189300537109e+01 -1.294246409088373184e-02 5.476388931274414062e+00 1.639033913612365723e+00 -2.612373791635036469e-02
1.114000000000000000e+03 7.557702636718750000e+01 1.037321376800537109e+01 -1.011340394616127014e-01 6.654520034790039062e+00 1.966015815734863281e+00 1.230788305401802063e-01
1.115000000000000000e+03 7.817286682128906250e+01 1.119261837005615234e+01 -2.504374086856842041e-02 5.491256237030029297e+00 1.639863729476928711e+00 8.134654909372329712e-02
1.116000000000000000e+03 7.939941406250000000e+01 2.925380706787109375e+01 9.071016684174537659e-03 6.154910564422607422e+00 1.849194407463073730e+00 1.518717557191848755e-01
1.117000000000000000e+03 7.816385650634765625e+01 3.058075332641601562e+01 -8.163027465343475342e-03 6.429676055908203125e+00 1.926453828811645508e+00 3.928827047348022461e-01
1.118000000000000000e+03 7.662536621093750000e+01 8.230447769165039062e+00 2.215860225260257721e-02 6.129178524017333984e+00 1.845401048660278320e+00 1.626672148704528809e-01
1.119000000000000000e+03 7.812590026855468750e+01 1.234302639961242676e+00 6.889113783836364746e-02 5.434022903442382812e+00 1.650874137878417969e+00 -2.396554499864578247e-01
1.120000000000000000e+03 7.815030670166015625e+01 -7.073469638824462891e+00 1.032918505370616913e-02 6.679511547088623047e+00 2.006952285766601562e+00 -4.720984995365142822e-01
1.121000000000000000e+03 7.833273315429687500e+01 -1.391874027252197266e+01 5.337698385119438171e-02 8.404263496398925781e+00 2.537292003631591797e+00 -6.819505691528320312e-01
1.122000000000000000e+03 7.940627288818359375e+01 -1.950404930114746094e+01 -4.537304118275642395e-02 1.181310367584228516e+01 3.530318975448608398e+00 -2.500721216201782227e-01
1.123000000000000000e+03 7.829133605957031250e+01 -2.096000862121582031e+01 -2.770880758762359619e-01 1.068466758728027344e+01 3.122273683547973633e+00 -4.093345105648040771e-01
1.124000000000000000e+03 7.796691131591796875e+01 4.166966629028320312e+01 1.298741400241851807e-01 7.297864437103271484e+00 2.228321552276611328e+00 -3.640133515000343323e-02
1.125000000000000000e+03 7.369182586669921875e+01 3.869138336181640625e+01 -2.350382804870605469e-01 5.459650516510009766e+00 1.567383646965026855e+00 1.359277069568634033e-01
1.126000000000000000e+03 7.934548950195312500e+01 3.474352264404296875e+01 -1.172085013240575790e-02 7.278287410736083984e+00 2.179970026016235352e+00 9.233038872480392456e-02
1.127000000000000000e+03 7.486768341064453125e+01 3.655012512207031250e+01 -2.712858617305755615e-01 6.120590686798095703e+00 1.754791378974914551e+00 2.799440026283264160e-01
1.128000000000000000e+03 7.682383728027343750e+01 1.127568006515502930e+00 1.886822432279586792e-01 6.001442909240722656e+00 1.857037544250488281e+00 -3.289997577667236328e-01
1.129000000000000000e+03 7.938719940185546875e+01 4.126309871673583984e+00 1.350550260394811630e-02 4.587278842926025391e+00 1.380235314369201660e+00 -2.610849216580390930e-02
1.130000000000000000e+03 7.814404296875000000e+01 2.628917694091796875e+00 6.973561644554138184e-02 5.340847492218017578e+00 1.623175024986267090e+00 -1.537047326564788818e-01
1.131000000000000000e+03 7.817472076416015625e+01 -2.910083055496215820e+00 2.116020023822784424e-02 5.957552433013916016e+00 1.793613791465759277e+00 -4.283180236816406250e-01
1.132000000000000000e+03 7.938627624511718750e+01 -4.218149185180664062e+00 5.848351866006851196e-03 6.039287090301513672e+00 1.813540577888488770e+00 -1.818910688161849976e-01
1.133000000000000000e+03 7.814383697509765625e+01 -5.679238319396972656e+00 1.162446755915880203e-02 6.424931049346923828e+00 1.930966615676879883e+00 -4.627185761928558350e-01
1.134000000000000000e+03 7.824034118652343750e+01 -9.838630676269531250e+00 3.260939568281173706e-02 7.252425670623779297e+00 2.185510396957397461e+00 -5.179606080055236816e-01
1.135000000000000000e+03 7.942937469482421875e+01 -1.116422367095947266e+01 2.855641301721334457e-03 8.049938201904296875e+00 2.415838241577148438e+00 -2.203860580921173096e-01
1.136000000000000000e+03 7.832059478759765625e+01 -1.256543731689453125e+01 4.671726748347282410e-02 7.982264518737792969e+00 2.408694505691528320e+00 -6.166843771934509277e-01
1.137000000000000000e+03 7.832021331787109375e+01 -1.663009452819824219e+01 3.349250555038452148e-02 9.337534904479980469e+00 2.811308145523071289e+00 -7.877554893493652344e-01
1.138000000000000000e+03 7.942157745361328125e+01 -1.809395408630371094e+01 -3.725775517523288727e-03 1.117776107788085938e+01 3.352210521697998047e+00 -3.101148605346679688e-01
1.139000000000000000e+03 7.699050140380859375e+01 -1.924668884277343750e+01 -2.633985280990600586e-01 8.686118125915527344e+00 2.526815891265869141e+00 -1.076212406158447266e+00
1.140000000000000000e+03 1.028231430053710938e+01 -1.737371635437011719e+01 4.991245223209261894e-04 3.205010216333903372e-05 1.593523920746520162e-04 -8.115208402159623802e-06
1.141000000000000000e+03 8.469526290893554688e+00 -1.839089584350585938e+01 4.683367151301354170e-04 -4.153508052695542574e-05 1.280404976569116116e-04 2.069286711048334837e-05
1.142000000000000000e+03 2.545300102233886719e+01 -3.342763519287109375e+01 1.313560362905263901e-02 -1.216006465256214142e-03 3.575879149138927460e-03 5.120010580867528915e-03
1.143000000000000000e+03 3.885324859619140625e+01 -3.491555786132812500e+01 -4.205977544188499451e-02 -4.336375594139099121e-01 -1.427092105150222778e-01 -2.645705044269561768e-01
1.144000000000000000e+03 5.206510543823242188e+01 -1.531426334381103516e+01 2.102258622471708804e-05 2.112050970026757568e-05 1.264292859559645876e-05 5.282384154270403087e-05
1.145000000000000000e+03 5.277187728881835938e+01 -1.429153347015380859e+01 -3.710281453095376492e-05 -6.539765308843925595e-05 -3.075014319620095193e-05 -5.845710256835445762e-05
1.146000000000000000e+03 8.734796524047851562e+00 -1.723427200317382812e+01 -4.530838632490485907e-04 -6.492686225101351738e-05 -1.554032205604016781e-04 -5.187195347389206290e-05
1.147000000000000000e+03 4.024275970458984375e+01 -3.403116226196289062e+01 -6.734019517898559570e-02 -5.510650277137756348e-01 -1.855215728282928467e-01 -2.611021101474761963e-01
1.148000000000000000e+03 3.204587936401367188e+01 -3.443313598632812500e+01 -2.758708596229553223e-02 -1.827084645628929138e-02 -1.375737972557544708e-02 -3.118244558572769165e-02
1.149000000000000000e+03 5.081591033935546875e+01 3.572891616821289062e+01 -1.352887134999036789e-02 -3.931736107915639877e-03 -5.238182377070188522e-03 2.777003496885299683e-02
1.150000000000000000e+03 4.871277618408203125e+01 3.264785003662109375e+01 1.442309818230569363e-03 6.151752895675599575e-04 6.172455614432692528e-04 3.405799390748143196e-03
1.151000000000000000e+03 2.936520385742187500e+01 -3.186076164245605469e+01 3.832985460758209229e-02 1.497447723522782326e-03 1.194819062948226929e-02 -4.365778528153896332e-03
1.152000000000000000e+03 3.048847579956054688e+01 -3.591382217407226562e+01 -2.909028530120849609e-02 -2.760797552764415741e-02 -1.700947806239128113e-02 -2.555199712514877319e-02
1.153000000000000000e+03 2.012350559234619141e+00 -2.454822921752929688e+01 5.117153632454574108e-04 3.692771133501082659e-05 1.645929150981828570e-04 1.886014251795131713e-05
1.154000000000000000e+03 2.812143898010253906e+01 -3.165207481384277344e+01 3.716883808374404907e-02 -2.533940365538001060e-03 1.039046980440616608e-02 -2.504750853404402733e-03
1.155000000000000000e+03 3.092473220825195312e+01 -3.336705017089843750e+01 7.458166219294071198e-03 -6.743423640727996826e-03 2.144227619282901287e-04 -6.898991297930479050e-03
1.156000000000000000e+03 2.189002037048339844e+01 -3.557073974609375000e+01 -3.845522005576640368e-04 -1.380433328449726105e-03 -5.294956499710679054e-04 6.320321001112461090e-03
1.157000000000000000e+03 4.385118103027343750e+01 6.416582107543945312e+00 -6.825112504884600639e-04 -1.191361734527163208e-04 -2.404942351859062910e-04 -2.895521174650639296e-04
1.158000000000000000e+03 9.734214782714843750e+00 -2.931347846984863281e+01 6.236743065528571606e-04 1.405932016496080905e-05 1.913200831040740013e-04 -4.940557482768781483e-05
1.159000000000000000e+03 2.703746414184570312e+01 -3.334206008911132812e+01 1.547331549227237701e-02 -2.701008459553122520e-03 3.831692039966583252e-03 2.277773106470704079e-03
1.160000000000000000e+03 1.489727306365966797e+01 -3.211065673828125000e+01 5.483038723468780518e-03 -2.828559081535786390e-04 1.560054952278733253e-03 1.614899141713976860e-03
1.161000000000000000e+03 4.609391403198242188e+01 -2.490067291259765625e+01 -7.705307006835937500e-02 -5.161815881729125977e-01 -1.779703944921493530e-01 -8.471967577934265137e-01
1.162000000000000000e+03 1.989166641235351562e+01 -3.365047836303710938e+01 7.797355763614177704e-03 -1.165115507319569588e-03 1.989672193303704262e-03 5.882741417735815048e-03
1.163000000000000000e+03 1.857648086547851562e+01 -3.440868759155273438e+01 4.177850671112537384e-03 3.345913020893931389e-03 2.257129177451133728e-03 5.431405734270811081e-03
1.164000000000000000e+03 4.322769546508789062e+01 -2.519533920288085938e+01 -3.766115009784698486e-02 -8.115905523300170898e-01 -2.547754943370819092e-01 -4.575849175453186035e-01
1.165000000000000000e+03 4.663788986206054688e+01 -1.337412118911743164e+00 3.231876180507242680e-04 1.323750329902395606e-04 1.366687938570976257e-04 1.892409927677363157e-04
1.166000000000000000e+03 4.763825607299804688e+01 -3.763157606124877930e+00 2.774113381747156382e-04 7.286076288437470794e-05 1.050816354108974338e-04 1.286008482566103339e-04
1.167000000000000000e+03 5.987898254394531250e+01 3.709849929809570312e+01 -1.604299545288085938e-01 -7.628708332777023315e-02 -7.101511210203170776e-02 2.265301048755645752e-01
1.168000000000000000e+03 4.102482986450195312e+01 1.329255580902099609e+01 -7.801512838341295719e-04 3.232701274100691080e-04 -1.370643585687503219e-04 1.022917349473573267e-04
1.169000000000000000e+03 4.530024719238281250e+01 2.753852272033691406e+01 9.322373080067336559e-04 1.493994146585464478e-03 7.278694538399577141e-04 2.923046238720417023e-03
1.170000000000000000e+03 5.123158264160156250e+01 3.235968399047851562e+01 7.446386851370334625e-03 2.189546823501586914e-03 2.890780102461576462e-03 9.312021546065807343e-03
1.171000000000000000e+03 4.969890594482421875e+01 -6.051344871520996094e+00 -2.593689132481813431e-04 -3.030300467798952013e-05 -8.690157847013324499e-05 -5.936816523899324238e-05
1.172000000000000000e+03 4.889326858520507812e+01 -1.111536216735839844e+01 -1.651672500884160399e-04 -4.460195123101584613e-05 -6.293076148722320795e-05 -5.635071283904835582e-05
1.173000000000000000e+03 4.925958633422851562e+01 -4.743156433105468750e+00 2.858001389540731907e-04 1.832075759011786431e-05 9.123626659857109189e-05 8.309801341965794563e-05
1.174000000000000000e+03 4.169143295288085938e+01 1.928067207336425781e+01 -5.346775287762284279e-04 7.156226201914250851e-04 5.428353324532508850e-05 7.547694258391857147e-04
1.175000000000000000e+03 4.237334060668945312e+01 3.960864782333374023e+00 2.325533714611083269e-04 9.609449625713750720e-05 9.859436249826103449e-05 2.568112686276435852e-04
1.176000000000000000e+03 4.854154205322265625e+01 -6.286091327667236328e+00 2.325032546650618315e-04 3.793032738030888140e-05 8.113007788779214025e-05 7.969042053446173668e-05
1.177000000000000000e+03 4.606997680664062500e+01 -1.514179408550262451e-01 -3.354849177412688732e-04 -1.844319194788113236e-04 -1.559750526212155819e-04 -2.110191417159512639e-04
1.178000000000000000e+03 4.715673065185546875e+01 -2.538038492202758789e+00 -3.003185265697538853e-04 -1.294072717428207397e-04 -1.289177453145384789e-04 -1.543027319712564349e-04
1.179000000000000000e+03 4.976761245727539062e+01 -1.000748825073242188e+01 -1.884665980469435453e-04 -2.623312320793047547e-05 -6.440991273848339915e-05 -3.362258212291635573e-05
1.180000000000000000e+03 4.593241500854492188e+01 2.769676923751831055e+00 5.360937793739140034e-04 1.436954771634191275e-04 2.039367682300508022e-04 3.054257249459624290e-04
1.181000000000000000e+03 4.206235885620117188e+01 2.075673675537109375e+01 1.688991324044764042e-03 8.526029414497315884e-04 7.624782738275825977e-04 5.731651908718049526e-04
1.182000000000000000e+03 5.009399795532226562e+01 -1.234228706359863281e+01 -1.664593291934579611e-04 -3.449392579568666406e-06 -5.097261600894853473e-05 -1.062329829437658191e-05
1.183000000000000000e+03 4.861487579345703125e+01 -1.007603740692138672e+01 1.812597329262644053e-04 2.320492239960003644e-05 6.133940041763707995e-05 5.443673580884933472e-05
1.184000000000000000e+03 4.967193984985351562e+01 3.425467681884765625e+01 -3.000405151396989822e-03 -1.661338843405246735e-03 -1.398523221723735332e-03 2.380763762630522251e-04
1.185000000000000000e+03 4.452453613281250000e+01 2.627793312072753906e+01 4.065481945872306824e-03 1.473876880481839180e-03 1.661807531490921974e-03 1.259526587091386318e-03
1.186000000000000000e+03 4.379092407226562500e+01 2.497461128234863281e+01 9.209242853103205562e-05 1.327322679571807384e-03 4.258245171513408422e-04 1.954648410901427269e-03
1.187000000000000000e+03 4.414615249633789062e+01 3.385064601898193359e+00 3.993812715634703636e-04 1.659473200561478734e-04 1.695985702099278569e-04 2.851721947081387043e-04
1.188000000000000000e+03 4.343697357177734375e+01 4.593857288360595703e+00 -4.284534370526671410e-04 -1.198030295199714601e-04 -1.644769363338127732e-04 -2.865584974642843008e-04
1.189000000000000000e+03 4.202015686035156250e+01 7.201666355133056641e+00 -6.221997318789362907e-04 1.227294123964384198e-04 -1.498411002103239298e-04 -1.731409865897148848e-04
1.190000000000000000e+03 4.140365219116210938e+01 1.779015731811523438e+01 1.211507362313568592e-03 5.357303307391703129e-04 5.241713370196521282e-04 2.903288986999541521e-04
1.191000000000000000e+03 4.378181457519531250e+01 1.630983114242553711e+00 2.370153670199215412e-04 1.899396156659349799e-04 1.280864962609484792e-04 2.147657505702227354e-04
1.192000000000000000e+03 7.025376892089843750e+01 5.940186977386474609e+00 1.460027992725372314e-01 1.051572132110595703e+01 3.198517084121704102e+00 -1.978152096271514893e-01
1.193000000000000000e+03 7.103933715820312500e+01 3.078125381469726562e+01 -8.673933148384094238e-02 5.898956298828125000e+00 1.743665099143981934e+00 -8.298115432262420654e-02
1.194000000000000000e+03 6.983156585693359375e+01 1.008710479736328125e+01 -1.204114034771919250e-01 7.651056766510009766e+00 2.259193658828735352e+00 -6.821703314781188965e-01
1.195000000000000000e+03 6.994754028320312500e+01 2.679559290409088135e-01 5.165789723396301270e-01 9.725488662719726562e+00 3.072620391845703125e+00 1.475744962692260742e+00
1.196000000000000000e+03 7.386299133300781250e+01 1.588788390159606934e+00 4.461571574211120605e-01 7.333590030670166016e+00 2.333924055099487305e+00 -1.852217912673950195e-01
1.197000000000000000e+03 7.139637756347656250e+01 1.560031604766845703e+01 1.348935961723327637e-01 8.368899345397949219e+00 2.551137685775756836e+00 9.089449793100357056e-02
1.198000000000000000e+03 6.587836456298828125e+01 3.343580627441406250e+01 -1.166609600186347961e-01 9.768344163894653320e-01 2.580520510673522949e-01 -3.324173390865325928e-01
1.199000000000000000e+03 7.228390502929687500e+01 2.275449562072753906e+01 2.968322634696960449e-01 7.906806945800781250e+00 2.461091756820678711e+00 -1.313480734825134277e-01
1.200000000000000000e+03 6.950396728515625000e+01 2.699929237365722656e+01 4.841687381267547607e-01 8.376198768615722656e+00 2.658110141754150391e+00 -1.443574786186218262e+00
1.201000000000000000e+03 7.028464508056640625e+01 2.877273559570312500e+01 5.231168866157531738e-01 6.657713890075683594e+00 2.154249191284179688e+00 -6.908650398254394531e-01
1.202000000000000000e+03 6.560561370849609375e+01 3.597339630126953125e+01 -1.697837859392166138e-01 1.444198369979858398e+00 3.823243677616119385e-01 -3.373704850673675537e-01
1.203000000000000000e+03 6.909384155273437500e+01 3.189621353149414062e+01 -2.189103066921234131e-01 4.568239212036132812e+00 1.304798722267150879e+00 -6.725059747695922852e-01
1.204000000000000000e+03 6.823454284667968750e+01 3.346434783935546875e+01 -3.085048198699951172e-01 3.432632446289062500e+00 9.372382760047912598e-01 -6.916140317916870117e-01
1.205000000000000000e+03 6.806368255615234375e+01 -9.526821136474609375e+00 7.636814117431640625e-01 3.221702814102172852e+00 1.195615291595458984e+00 9.581967592239379883e-01
1.206000000000000000e+03 6.978266143798828125e+01 -8.334974288940429688e+00 4.359166622161865234e-01 4.379706382751464844e+00 1.444686889648437500e+00 5.169739723205566406e-01
1.207000000000000000e+03 7.032823181152343750e+01 -2.739902734756469727e+00 2.740824818611145020e-01 6.960663318634033203e+00 2.170423746109008789e+00 8.723553419113159180e-01
1.208000000000000000e+03 7.064538574218750000e+01 2.722230911254882812e+01 5.416333675384521484e-01 7.585190296173095703e+00 2.438047170639038086e+00 -6.043065190315246582e-01
1.209000000000000000e+03 7.103095245361328125e+01 2.420667457580566406e+01 4.279837608337402344e-01 8.457905769348144531e+00 2.665766954421997070e+00 -3.580048978328704834e-01
1.210000000000000000e+03 7.088707733154296875e+01 2.569900512695312500e+01 5.435218214988708496e-01 8.121162414550781250e+00 2.599405288696289062e+00 -4.621018171310424805e-01
1.211000000000000000e+03 6.661909484863281250e+01 -1.138193130493164062e+01 1.233830094337463379e+00 2.322896003723144531e+00 1.067017793655395508e+00 1.160088181495666504e+00
1.212000000000000000e+03 7.074621582031250000e+01 -1.351421713829040527e+00 3.119808137416839600e-01 7.899216175079345703e+00 2.463359117507934570e+00 6.815645694732666016e-01
1.213000000000000000e+03 7.026179504394531250e+01 4.528341770172119141e+00 2.492304332554340363e-02 1.023240947723388672e+01 3.077199935913085938e+00 4.821371287107467651e-03
1.214000000000000000e+03 7.145485687255859375e+01 5.942957401275634766e+00 3.473362922668457031e-01 9.225232124328613281e+00 2.871770620346069336e+00 -2.208933830261230469e-01
1.215000000000000000e+03 6.890542602539062500e+01 -6.760853290557861328e+00 3.465524911880493164e-01 4.513780117034912109e+00 1.458099722862243652e+00 9.500158429145812988e-01
1.216000000000000000e+03 7.122959899902343750e+01 8.710925102233886719e+00 6.198268011212348938e-02 8.652523994445800781e+00 2.614351987838745117e+00 -1.033907290548086166e-02
1.217000000000000000e+03 7.110754394531250000e+01 1.002709102630615234e+01 -4.367881715297698975e-01 8.388171195983886719e+00 2.385414838790893555e+00 1.129052322357892990e-02
1.218000000000000000e+03 6.845628356933593750e+01 -8.111059188842773438e+00 5.267345905303955078e-01 3.823331356048583984e+00 1.305019855499267578e+00 9.799481630325317383e-01
1.219000000000000000e+03 6.938231658935546875e+01 -5.431520462036132812e+00 2.985562086105346680e-01 5.237718105316162109e+00 1.660882234573364258e+00 9.224300384521484375e-01
1.220000000000000000e+03 6.995294952392578125e+01 2.130575561523437500e+01 1.827280502766370773e-03 9.115453720092773438e+00 2.735184192657470703e+00 -3.266329318284988403e-02
1.221000000000000000e+03 7.111177825927734375e+01 2.274811744689941406e+01 2.211087793111801147e-01 8.564169883728027344e+00 2.635583639144897461e+00 -2.364163696765899658e-01
1.222000000000000000e+03 7.143652343750000000e+01 3.048136949539184570e+00 4.098674952983856201e-01 9.294754028320312500e+00 2.911386489868164062e+00 3.268370032310485840e-01
1.223000000000000000e+03 6.996424102783203125e+01 1.989833641052246094e+01 1.654474250972270966e-02 9.058775901794433594e+00 2.722596168518066406e+00 -1.143467053771018982e-02
1.224000000000000000e+03 7.115569305419921875e+01 2.131453514099121094e+01 9.219712018966674805e-02 8.603075027465820312e+00 2.608581781387329102e+00 -1.080765202641487122e-01
1.225000000000000000e+03 7.126566314697265625e+01 1.708739852905273438e+01 2.195915021002292633e-02 8.511891365051269531e+00 2.560155153274536133e+00 4.726524651050567627e-02
1.226000000000000000e+03 7.590207672119140625e+01 1.550702190399169922e+01 -1.923551782965660095e-02 6.476673603057861328e+00 1.937231421470642090e+00 -4.608314856886863708e-02
1.227000000000000000e+03 5.690615463256835938e+01 -3.550833129882812500e+01 -5.672282576560974121e-01 1.989253401756286621e+00 4.266075491905212402e-01 -6.915978789329528809e-01
1.228000000000000000e+03 5.728942108154296875e+01 -2.196736717224121094e+01 -6.937494277954101562e-01 1.866773128509521484e+00 3.519071042537689209e-01 1.195024847984313965e+00
1.229000000000000000e+03 7.017771148681640625e+01 -3.254798126220703125e+01 -1.965664744377136230e+00 -6.519617438316345215e-01 -7.852879762649536133e-01 -1.040574789047241211e+00
1.230000000000000000e+03 5.579264450073242188e+01 -3.019324302673339844e+01 7.116262912750244141e-01 6.885346412658691406e+00 2.279091835021972656e+00 6.417916417121887207e-01
1.231000000000000000e+03 1.329129457473754883e+00 -4.013052749633789062e+01 6.415642565116286278e-04 9.212130680680274963e-04 4.688331973738968372e-04 2.125286555383354425e-04
1.232000000000000000e+03 8.898705840110778809e-01 3.735454940795898438e+01 5.437756772153079510e-05 7.815907010808587074e-04 2.507904719095677137e-04 -1.192019772133789957e-05
1.233000000000000000e+03 7.670987844467163086e-01 3.458786392211914062e+01 1.000807606033049524e-04 7.473969017155468464e-04 2.542432921472936869e-04 4.806274773727636784e-07
1.234000000000000000e+03 7.346588373184204102e-01 3.319061279296875000e+01 -1.509500143583863974e-04 7.290170178748667240e-04 1.734200923237949610e-04 -2.200291783083230257e-05
1.235000000000000000e+03 6.793969869613647461e-01 2.755897331237792969e+01 -1.708929048618301749e-04 5.319042247720062733e-04 1.083033930626697838e-04 -6.240835546122980304e-07
1.236000000000000000e+03 6.736463308334350586e-01 2.614859008789062500e+01 1.548178843222558498e-04 4.911369760520756245e-04 1.937864581122994423e-04 -4.585670103551819921e-05
1.237000000000000000e+03 8.604339957237243652e-01 -3.599608612060546875e+01 -2.146346814697608352e-04 4.144880222156643867e-04 5.995600804453715682e-05 9.232504817191511393e-05
1.238000000000000000e+03 2.275285482406616211e+00 -3.298183822631835938e+01 7.598988013342022896e-04 1.357263099635019898e-04 2.686875232029706240e-04 1.430508564226329327e-04
1.239000000000000000e+03 3.415256261825561523e+00 2.728166198730468750e+01 -1.741594605846330523e-04 4.268985067028552294e-04 7.582171383546665311e-05 -1.059949645423330367e-04
1.240000000000000000e+03 3.395926237106323242e+00 2.586854934692382812e+01 1.635992666706442833e-04 4.063077212776988745e-04 1.709720963845029473e-04 -1.079670910257846117e-04
1.241000000000000000e+03 2.277733325958251953e+00 3.429633331298828125e+01 -1.826941734179854393e-04 6.920126033946871758e-04 1.527955319033935666e-04 -1.088832868845202029e-04
1.242000000000000000e+03 2.191220998764038086e+00 3.294943618774414062e+01 1.715419057291001081e-04 6.016302504576742649e-04 2.319516497664153576e-04 -2.399440927547402680e-05
1.243000000000000000e+03 3.372412204742431641e+00 3.929293060302734375e+01 -1.002227945718914270e-04 6.770343170501291752e-04 1.730434596538543701e-04 5.051123298471793532e-05
1.244000000000000000e+03 2.055153846740722656e+00 -3.020160865783691406e+01 7.335420232266187668e-04 1.611947118362877518e-05 2.248984383186325431e-04 1.258334668818861246e-04
1.245000000000000000e+03 7.345022201538085938e+00 -2.412568283081054688e+01 7.044295780360698700e-04 1.216924920299788937e-05 2.149796491721644998e-04 -3.037300666619557887e-05
1.246000000000000000e+03 2.736869096755981445e+00 -3.700598907470703125e+01 -3.349373873788863420e-04 4.408660170156508684e-04 3.177858161507174373e-05 6.759893585694953799e-05
1.247000000000000000e+03 3.156854391098022461e+00 -2.153527069091796875e+01 -5.562928272411227226e-04 7.334320980589836836e-05 -1.448848925065249205e-04 -6.743164703948423266e-05
1.248000000000000000e+03 6.264489293098449707e-01 2.048371315002441406e+01 1.187239031423814595e-04 2.982084406539797783e-04 1.250797067768871784e-04 -3.546196239767596126e-05
1.249000000000000000e+03 6.149465441703796387e-01 1.907027626037597656e+01 -1.103892645915038884e-04 2.469797327648848295e-04 4.097713826922699809e-05 -2.988673941217712127e-06
1.250000000000000000e+03 5.807966589927673340e-01 1.484278106689453125e+01 9.936144488165155053e-05 1.454600715078413486e-04 7.344645564444363117e-05 -2.248451710329391062e-05
1.251000000000000000e+03 5.656945705413818359e-01 1.343631649017333984e+01 -9.632222645450383425e-05 1.083916649804450572e-04 3.620830284489784390e-06 -3.808880592259811237e-06
1.252000000000000000e+03 5.248621702194213867e-01 7.833659172058105469e+00 -8.500411058776080608e-05 2.407762076472863555e-05 -1.827794767450541258e-05 -1.123755623666511383e-06
1.253000000000000000e+03 4.967748641967773438e+00 -4.055995559692382812e+01 3.161684435326606035e-04 1.704059075564146042e-03 6.060682353563606739e-04 5.249729147180914879e-04
1.254000000000000000e+03 6.793159961700439453e+00 -3.659632110595703125e+01 -5.803969106636941433e-04 2.562620793469250202e-04 -9.724045230541378260e-05 1.231144531629979610e-03
1.255000000000000000e+03 4.434337615966796875e+00 -3.535104751586914062e+01 -6.943152984604239464e-04 3.869159263558685780e-04 -9.221980872098356485e-05 9.039216674864292145e-04
1.256000000000000000e+03 2.138855695724487305e+00 -3.160030746459960938e+01 -6.206521647982299328e-04 1.881417556433007121e-04 -1.297531271120533347e-04 1.457147445762529969e-04
1.257000000000000000e+03 2.020830392837524414e+00 -2.739091110229492188e+01 5.996327963657677174e-04 3.590454798541031778e-05 1.906612014863640070e-04 7.624323916388675570e-05
1.258000000000000000e+03 3.299921274185180664e+00 -2.291364669799804688e+01 4.980445373803377151e-04 2.691673034860286862e-05 1.574883790453895926e-04 -6.478172508650459349e-06
1.259000000000000000e+03 2.024899482727050781e+00 -2.597463226318359375e+01 -5.414290935732424259e-04 -5.806050830869935453e-05 -1.798468729248270392e-04 -9.321636753156781197e-05
1.260000000000000000e+03 6.060780882835388184e-01 -1.910672760009765625e+01 -4.731143417302519083e-04 -1.373385839542606845e-05 -1.460544590372592211e-04 -6.285341078182682395e-05
1.261000000000000000e+03 3.061191558837890625e+00 -2.021364402770996094e+01 4.816267173737287521e-04 -1.888223960122559220e-05 1.388233358738943934e-04 1.276369293918833137e-04
1.262000000000000000e+03 1.835156679153442383e+00 -1.621445274353027344e+01 3.528965171426534653e-04 3.283995465608313680e-05 1.157209408120252192e-04 4.630206967703998089e-05
1.263000000000000000e+03 6.100431084632873535e-01 -1.206253433227539062e+01 2.913094940595328808e-04 4.534154413704527542e-06 8.875309140421450138e-05 2.423532896500546485e-05
1.264000000000000000e+03 1.823822021484375000e+00 -1.198181343078613281e+01 -2.894122153520584106e-04 7.719978043496666942e-07 -8.659206650918349624e-05 -2.932591814897023141e-05
1.265000000000000000e+03 1.890249252319335938e+00 -6.251767158508300781e+00 -1.879533083410933614e-04 -1.115501163440058008e-05 -5.973249790258705616e-05 -3.125584407825954258e-05
1.266000000000000000e+03 3.228817224502563477e+00 -4.737586498260498047e+00 -1.232865324709564447e-04 -3.724551061168313026e-05 -4.815961437998339534e-05 -5.236706419964320958e-05
1.267000000000000000e+03 1.496144056320190430e+00 -2.873866081237792969e+00 3.564616054063662887e-05 4.273232480045408010e-05 2.351354487473145127e-05 -2.247777774755377322e-05
1.268000000000000000e+03 5.407471060752868652e-01 4.979221820831298828e+00 -5.792663796455599368e-05 1.621770252313581295e-06 -1.689145938144065440e-05 3.089234496655990370e-06
1.269000000000000000e+03 6.461060523986816406e+00 4.035386562347412109e+00 1.212698771269060671e-04 5.088382977191940881e-07 3.653361272881738842e-05 -1.988607618841342628e-05
1.270000000000000000e+03 1.611491680145263672e+00 1.053619575500488281e+01 1.090463192667812109e-04 7.003504288149997592e-05 5.372440864448435605e-05 -1.335211891273502260e-05
1.271000000000000000e+03 5.340769290924072266e-01 1.063190746307373047e+01 -9.617621981306001544e-05 6.055160702089779079e-05 -1.068738401954760775e-05 -3.427857109272736125e-06
1.272000000000000000e+03 1.701642751693725586e+00 1.328639602661132812e+01 1.101178859244100749e-04 1.192601048387587070e-04 6.881339504616335034e-05 -2.707707972149364650e-05
1.273000000000000000e+03 1.872046470642089844e+00 2.029636192321777344e+01 -1.293075620196759701e-04 2.675742725841701031e-04 4.148000880377367139e-05 -4.780107337865047157e-05
1.274000000000000000e+03 1.838760018348693848e+00 1.888118934631347656e+01 1.266401086468249559e-04 2.415849012322723866e-04 1.104675029637292027e-04 -5.893137131351977587e-05
1.275000000000000000e+03 1.993859887123107910e+00 2.455501556396484375e+01 1.517968485131859779e-04 4.044174856971949339e-04 1.668643089942634106e-04 -7.797253783792257309e-05
1.276000000000000000e+03 6.814572143554687500e+01 -3.424950790405273438e+01 -2.097656726837158203e+00 -1.258802175521850586e+00 -1.006937623023986816e+00 -1.249822378158569336e+00
1.277000000000000000e+03 6.965016174316406250e+01 -3.458105850219726562e+01 -7.357854843139648438e-01 -3.247882723808288574e-01 -3.181721270084381104e-01 -3.263524174690246582e-01
1.278000000000000000e+03 6.531649017333984375e+01 -3.586754608154296875e+01 -1.256991863250732422e+00 -9.482837319374084473e-01 -6.615826487541198730e-01 -1.056535005569458008e+00
1.279000000000000000e+03 5.636581802368164062e+01 -2.648517608642578125e+01 1.798803210258483887e+00 4.013587474822998047e+00 1.743717193603515625e+00 1.930014729499816895e+00
1.280000000000000000e+03 6.258777999877929688e+01 -3.688630676269531250e+01 -4.673345983028411865e-01 -4.399901628494262695e-01 -2.721974253654479980e-01 -7.417542934417724609e-01
1.281000000000000000e+03 6.185811614990234375e+01 -4.092264938354492188e+01 4.078562557697296143e-01 -3.851838409900665283e-01 6.801728624850511551e-03 -2.832714319229125977e-01
1.282000000000000000e+03 5.755664443969726562e+01 -2.270631980895996094e+01 -2.896241843700408936e-01 2.203161716461181641e+00 5.740612149238586426e-01 1.390822649002075195e+00
1.283000000000000000e+03 5.535714721679687500e+01 -2.160010337829589844e+01 -1.150733590126037598e+00 8.137426972389221191e-01 -1.010972633957862854e-01 3.271689116954803467e-01
1.284000000000000000e+03 5.516350555419921875e+01 -3.516543960571289062e+01 -3.640851676464080811e-01 2.008359193801879883e+00 4.932821989059448242e-01 6.823489069938659668e-02
1.285000000000000000e+03 6.355785369873046875e+01 -1.876515197753906250e+01 -3.558916151523590088e-01 1.492697000503540039e+00 3.410415947437286377e-01 1.294066071510314941e+00
1.286000000000000000e+03 7.285267639160156250e+01 -2.973583030700683594e+01 -6.572514176368713379e-01 1.043025016784667969e+00 1.157320812344551086e-01 -6.533092260360717773e-01
1.287000000000000000e+03 7.173385620117187500e+01 -2.974640274047851562e+01 -1.063590884208679199e+00 -1.682543158531188965e-01 -3.695535361766815186e-01 -1.185229659080505371e+00
1.288000000000000000e+03 1.995825958251953125e+01 -1.226328372955322266e+01 -4.238708788761869073e-05 -5.236748620518483222e-05 -2.842637331923469901e-05 -1.902635267470031977e-05
1.289000000000000000e+03 6.951345825195312500e+01 -2.117081832885742188e+01 -3.738404035568237305e+00 -9.377572536468505859e-01 -1.402848362922668457e+00 6.649805307388305664e-01
1.290000000000000000e+03 6.524376678466796875e+01 -1.751338005065917969e+01 4.835786819458007812e-01 7.556586861610412598e-01 3.717712163925170898e-01 1.269618153572082520e+00
1.291000000000000000e+03 7.019271850585937500e+01 -2.224608612060546875e+01 -3.493357658386230469e+00 -1.520208239555358887e+00 -1.504069805145263672e+00 1.780723452568054199e+00
1.292000000000000000e+03 7.161624145507812500e+01 -2.015966224670410156e+01 -1.149704098701477051e+00 1.731682181358337402e+00 1.745934188365936279e-01 -1.045902252197265625e+00
1.293000000000000000e+03 1.308778190612792969e+01 -1.304461765289306641e+01 1.489641726948320866e-04 1.481727958889678121e-04 8.914108911994844675e-05 -7.679635018575936556e-05
1.294000000000000000e+03 4.614044189453125000e+01 2.872452926635742188e+01 5.989619065076112747e-03 1.777581521309912205e-03 2.330160234123468399e-03 1.332361018285155296e-03
1.295000000000000000e+03 1.097898864746093750e+01 -1.438569068908691406e+01 -1.299216910410905257e-05 1.828207859944086522e-05 1.586972757650073618e-06 -1.679450942901894450e-04
1.296000000000000000e+03 7.674166870117187500e+01 -2.951125144958496094e+01 -2.053524971008300781e+00 1.365227603912353516e+01 3.479625225067138672e+00 5.928536057472229004e-01
1.297000000000000000e+03 7.454449462890625000e+01 -2.572652435302734375e+01 1.127660274505615234e+00 2.943829536437988281e+00 1.221446990966796875e+00 -1.969855666160583496e+00
1.298000000000000000e+03 7.639302062988281250e+01 -2.567433738708496094e+01 -1.130182504653930664e+00 1.417443275451660156e+01 3.913275003433227539e+00 -2.312452316284179688e+00
1.299000000000000000e+03 7.515560913085937500e+01 -2.567111968994140625e+01 1.059805989265441895e+00 5.552226066589355469e+00 1.983609676361083984e+00 -3.312378644943237305e+00
1.300000000000000000e+03 7.467201995849609375e+01 -2.531960678100585938e+01 7.137476801872253418e-01 4.017085552215576172e+00 1.419249892234802246e+00 -2.158154249191284180e+00
1.301000000000000000e+03 7.849256896972656250e+01 -2.230654335021972656e+01 -4.005972146987915039e-01 1.122282505035400391e+01 3.246668338775634766e+00 1.010580286383628845e-01
1.302000000000000000e+03 7.548550415039062500e+01 -2.906783485412597656e+01 -1.865221410989761353e-01 7.502901554107666016e+00 2.194913864135742188e+00 3.427435874938964844e+00
1.303000000000000000e+03 7.613681793212890625e+01 -2.913193511962890625e+01 -1.510714530944824219e+00 1.262631416320800781e+01 3.334679841995239258e+00 2.861908197402954102e+00
1.304000000000000000e+03 7.483411407470703125e+01 -2.936302947998046875e+01 7.577647268772125244e-02 4.424670696258544922e+00 1.350134134292602539e+00 2.114951133728027344e+00
1.305000000000000000e+03 7.507590484619140625e+01 -2.903079605102539062e+01 3.110033571720123291e-01 4.853790760040283203e+00 1.549438238143920898e+00 2.732264280319213867e+00
1.306000000000000000e+03 7.586914825439453125e+01 -3.011971092224121094e+01 -1.262229561805725098e+00 9.432043075561523438e+00 2.450944185256958008e+00 1.854511737823486328e+00
1.307000000000000000e+03 7.785814666748046875e+01 -2.731564140319824219e+01 4.228837013244628906e+00 1.283804798126220703e+01 5.120065212249755859e+00 -4.746046960353851318e-01
1.308000000000000000e+03 7.813623046875000000e+01 -2.733204650878906250e+01 3.742584466934204102e+00 1.212364578247070312e+01 4.759869098663330078e+00 -6.133184432983398438e-01
1.309000000000000000e+03 7.615917968750000000e+01 -2.569766616821289062e+01 -8.186774849891662598e-01 1.299481487274169922e+01 3.652841329574584961e+00 -3.171353340148925781e+00
1.310000000000000000e+03 7.759168243408203125e+01 -2.838087844848632812e+01 1.311179757118225098e+00 1.491201972961425781e+01 4.866960048675537109e+00 -2.761637926101684570e+00
1.311000000000000000e+03 7.154605102539062500e+01 -3.093152427673339844e+01 -1.506717801094055176e+00 8.164052851498126984e-04 -4.517704248428344727e-01 -8.380393981933593750e-01
1.312000000000000000e+03 7.396645355224609375e+01 -2.567118453979492188e+01 8.815655112266540527e-01 1.627200484275817871e+00 7.526298165321350098e-01 -8.129972815513610840e-01
1.313000000000000000e+03 7.169463348388671875e+01 -2.420423889160156250e+01 -7.096948623657226562e-01 -1.079053997993469238e+00 -5.366246700286865234e-01 4.976840317249298096e-01
1.314000000000000000e+03 7.265963745117187500e+01 -2.504564666748046875e+01 8.416570723056793213e-02 4.697321057319641113e-01 1.661693453788757324e-01 2.024782598018646240e-01
1.315000000000000000e+03 7.375758361816406250e+01 -2.526861000061035156e+01 5.713720321655273438e-01 1.752053260803222656e+00 6.970276236534118652e-01 -6.895855069160461426e-01
1.316000000000000000e+03 7.263357543945312500e+01 -2.426482009887695312e+01 -5.546317100524902344e-01 8.120800256729125977e-01 7.723451405763626099e-02 2.400858094915747643e-03
1.317000000000000000e+03 4.157673263549804688e+01 -1.915511703491210938e+01 -3.400454806978814304e-05 -3.304455958641483448e-06 -1.119270109484205022e-05 -1.361784961773082614e-05
1.318000000000000000e+03 1.631124114990234375e+01 -9.489609718322753906e+00 4.384691419545561075e-05 5.757943654316477478e-05 3.042790558538399637e-05 7.004648796282708645e-05
1.319000000000000000e+03 1.581222915649414062e+01 -7.775336742401123047e+00 3.888237188220955431e-05 9.633607987780123949e-06 1.455479377909796312e-05 -3.503870175336487591e-05
1.320000000000000000e+03 1.377863502502441406e+01 -6.100028514862060547e+00 -3.321289113955572248e-05 -6.810890772612765431e-05 -3.039653893210925162e-05 -2.213921334259794094e-06
1.321000000000000000e+03 1.866512107849121094e+01 -1.084707164764404297e+01 -7.221479609142988920e-05 -2.912353738793171942e-05 -3.040150113520212471e-05 -5.188907744013704360e-05
1.322000000000000000e+03 1.683111953735351562e+01 -6.982954978942871094e+00 6.772389315301552415e-05 2.241282527393195778e-05 2.704101643757894635e-05 8.193602297978941351e-06
1.323000000000000000e+03 1.893257522583007812e+01 -9.710552215576171875e+00 -5.599328142125159502e-05 -2.983828017022460699e-05 -2.574946847744286060e-05 -4.292499943403527141e-05
1.324000000000000000e+03 4.593309783935546875e+01 -2.344386100769042969e+01 -3.424246907234191895e-01 -3.649848699569702148e-01 -2.122228592634201050e-01 -7.763162851333618164e-01
1.325000000000000000e+03 7.220020294189453125e+01 -3.026187896728515625e+01 -1.175966739654541016e+00 4.504736661911010742e-01 -2.176479101181030273e-01 -8.213539719581604004e-01
1.326000000000000000e+03 7.414023590087890625e+01 -3.101017189025878906e+01 -5.936082601547241211e-01 4.301134109497070312e+00 1.112257719039916992e+00 1.014606833457946777e+00
1.327000000000000000e+03 4.234746170043945312e+01 -1.893367576599121094e+01 2.880829742935020477e-05 3.177323151248856448e-06 9.595686606189701706e-06 1.028353835863526911e-05
1.328000000000000000e+03 1.505224704742431641e+01 -6.164873123168945312e+00 4.557321881293319166e-05 6.798822869313880801e-05 3.406843461561948061e-05 -2.390295412624254823e-05
1.329000000000000000e+03 1.489185619354248047e+01 -5.291166305541992188e+00 4.271835132385604084e-05 7.447851385222747922e-05 3.515906064421869814e-05 1.238304867001716048e-05
1.330000000000000000e+03 1.404472541809082031e+01 -5.507377624511718750e+00 4.376726428745314479e-05 8.079990948317572474e-05 3.737015140359289944e-05 1.243915266968542710e-05
1.331000000000000000e+03 1.766136932373046875e+01 -8.022263526916503906e+00 7.038900366751477122e-05 2.109120032400824130e-05 2.744406265264842659e-05 1.924866228364408016e-05
1.332000000000000000e+03 1.194884204864501953e+01 -3.696665287017822266e+00 -4.397891825647093356e-05 -7.793847180437296629e-05 -3.657521665445528924e-05 -4.946598710375837982e-05
1.333000000000000000e+03 1.293667888641357422e+01 -4.921552658081054688e+00 3.253859904361888766e-05 9.213270095642656088e-05 3.740139072760939598e-05 2.539375054766424000e-05
1.334000000000000000e+03 1.170887660980224609e+01 -4.377058029174804688e+00 4.443418947630561888e-05 7.563638064311817288e-05 3.602117067202925682e-05 5.227621659287251532e-05
1.335000000000000000e+03 1.742724990844726562e+01 -9.976336479187011719e+00 3.331133120809681714e-05 6.902273162268102169e-05 3.070021921303123236e-05 5.536136086448095739e-05
1.336000000000000000e+03 1.851318931579589844e+01 -9.114778518676757812e+00 7.136305066524073482e-05 1.298531242355238646e-05 2.530450910853687674e-05 3.171722346451133490e-05
1.337000000000000000e+03 1.745354843139648438e+01 -9.047828674316406250e+00 1.076601038221269846e-04 1.277150840905960649e-05 3.612948421505279839e-05 3.558300886652432382e-05
1.338000000000000000e+03 1.639878654479980469e+01 -1.121099185943603516e+01 -8.352132681466173381e-06 5.374148713599424809e-06 -8.933950539358193055e-07 4.949031426804140210e-05
1.339000000000000000e+03 8.095111846923828125e+00 -4.453390121459960938e+00 9.859848796622827649e-05 3.173169170622713864e-05 3.909905353793874383e-05 6.770044274162501097e-05
1.340000000000000000e+03 9.659704208374023438e+00 -3.824612140655517578e+00 -7.270911737577989697e-05 -4.994479604647494853e-05 -3.679617293528281152e-05 -4.992208778276108205e-05
1.341000000000000000e+03 4.466719436645507812e+01 -2.407057952880859375e+01 -1.663042157888412476e-01 -4.719509482383728027e-01 -1.914765536785125732e-01 -6.737216114997863770e-01
1.342000000000000000e+03 4.619296646118164062e+01 -2.404635620117187500e+01 -2.280861288309097290e-01 -4.562366604804992676e-01 -2.052968442440032959e-01 -8.262212872505187988e-01
1.343000000000000000e+03 4.456748580932617188e+01 -2.526524925231933594e+01 -6.928070634603500366e-02 -6.501753926277160645e-01 -2.158368229866027832e-01 -7.051318883895874023e-01
1.344000000000000000e+03 4.828393936157226562e+01 -2.444847297668457031e+01 -1.169473603367805481e-01 -2.947627305984497070e-01 -1.235130280256271362e-01 -8.658215999603271484e-01
1.345000000000000000e+03 4.674102020263671875e+01 -2.393261528015136719e+01 -2.617213129997253418e-01 -3.525242209434509277e-01 -1.842736601829528809e-01 -8.574725985527038574e-01
1.346000000000000000e+03 4.882587051391601562e+01 -2.359005546569824219e+01 -3.838126361370086670e-01 -2.611743211746215820e-01 -1.934960931539535522e-01 -8.823856115341186523e-01
1.347000000000000000e+03 5.238461685180664062e+01 -1.658784866333007812e+01 4.137710129725746810e-05 3.522947736200876534e-05 2.298197432537563145e-05 -3.406762334634549916e-05
1.348000000000000000e+03 5.171195602416992188e+01 -1.616177368164062500e+01 2.228723678854294121e-05 1.486686869611730799e-05 1.114623137254966423e-05 -4.269534110790118575e-05
1.349000000000000000e+03 5.612891197204589844e+00 2.607749223709106445e+00 -1.508871537225786597e-05 2.316060772500350140e-06 -3.831796220765681937e-06 -2.841902278305497020e-05
1.350000000000000000e+03 3.413049221038818359e+00 2.888952732086181641e+00 4.533651372184976935e-05 2.473704262229148299e-05 2.102206599374767393e-05 -3.615796595113351941e-05
1.351000000000000000e+03 4.153463363647460938e+00 2.786691188812255859e+00 -6.512901109090307727e-06 -1.265583159693051130e-05 -5.750619948230450973e-06 1.499440372754179407e-06
1.352000000000000000e+03 5.707564830780029297e+00 3.324800729751586914e+00 7.625853322679176927e-05 8.558727131457999349e-06 2.544517701608128846e-05 -6.446446150221163407e-06
1.353000000000000000e+03 9.088615417480468750e+00 3.304021835327148438e+00 -3.090923928539268672e-05 3.484392800601199269e-05 1.180406229650543537e-06 -4.002494461019523442e-05
1.354000000000000000e+03 7.071591854095458984e+00 3.250253438949584961e+00 8.999809506349265575e-05 1.162119315267773345e-05 3.048578764719422907e-05 -2.618154576339293271e-05
1.355000000000000000e+03 6.328537940979003906e+00 2.569026470184326172e+00 7.154730701586231589e-05 9.198959560308139771e-06 2.422388024569954723e-05 -1.111388337449170649e-05
1.356000000000000000e+03 5.086099243164062500e+01 -2.245275497436523438e+01 -9.671493172645568848e-01 -9.754961729049682617e-02 -3.194096684455871582e-01 -7.585113644599914551e-01
1.357000000000000000e+03 9.957700729370117188e+00 2.787472009658813477e+00 1.775134660420008004e-05 -2.375532631049281918e-06 4.612744305632077157e-06 -7.405348878819495440e-05
1.358000000000000000e+03 5.032982254028320312e+01 -1.563613605499267578e+01 3.659666253952309489e-05 1.154494475485989824e-05 1.444248209736542776e-05 5.058128590462729335e-05
1.359000000000000000e+03 2.626800155639648438e+01 -1.002023696899414062e+01 -1.405402144882827997e-05 -5.959339887340320274e-06 -6.004008355375844985e-06 2.153853165509644896e-05
1.360000000000000000e+03 2.747279739379882812e+01 -1.386495971679687500e+01 -2.806327574944589287e-05 -1.311703044848400168e-06 -8.812493433651980013e-06 4.596157850755844265e-06
1.361000000000000000e+03 2.704111480712890625e+01 -1.138102626800537109e+01 -1.736129343044012785e-05 -6.927250979060772806e-06 -7.286563231900800020e-06 2.111169123963918537e-05
1.362000000000000000e+03 2.665944099426269531e+01 -1.070160579681396484e+01 7.516329787904396653e-06 4.293153779144631699e-06 3.542845206538913772e-06 -1.003484339889837429e-05
1.363000000000000000e+03 2.779968261718750000e+01 -1.274593162536621094e+01 -2.121933357557281852e-05 -7.223638476716587320e-06 -8.532892024959437549e-06 1.490911108703585342e-05
1.364000000000000000e+03 2.942079353332519531e+01 -1.545833206176757812e+01 -5.288232569000683725e-05 -2.170581683458294719e-05 -2.237644184788223356e-05 -1.191646970255533233e-05
1.365000000000000000e+03 3.066849708557128906e+01 -1.513574123382568359e+01 -5.092086939839646220e-05 -1.754083132254891098e-05 -2.053851130767725408e-05 -3.843751983367837965e-06
1.366000000000000000e+03 5.061767959594726562e+01 -2.480165290832519531e+01 2.628989219665527344e-01 1.084272637963294983e-01 1.113978549838066101e-01 -6.475955843925476074e-01
1.367000000000000000e+03 4.956064987182617188e+01 -2.346471786499023438e+01 -4.117310643196105957e-01 -1.248415261507034302e-01 -1.609717756509780884e-01 -8.570191860198974609e-01
1.368000000000000000e+03 5.031669235229492188e+01 -2.334349822998046875e+01 -4.526403248310089111e-01 -7.167816907167434692e-02 -1.572955399751663208e-01 -8.050433397293090820e-01
1.369000000000000000e+03 5.209551239013671875e+01 -2.375748634338378906e+01 -1.387484967708587646e-01 4.278462231159210205e-01 8.672931790351867676e-02 -5.017991065979003906e-01
1.370000000000000000e+03 4.963675308227539062e+01 -1.631845474243164062e+01 -4.083935709786601365e-05 -4.806992819794686511e-06 -1.369390520267188549e-05 -2.179638431698549539e-05
1.371000000000000000e+03 5.740524673461914062e+01 -2.557804679870605469e+01 2.009902477264404297e+00 3.324246168136596680e+00 1.600244641304016113e+00 2.267148256301879883e+00
1.372000000000000000e+03 5.532775878906250000e+01 -2.492499923706054688e+01 8.710957765579223633e-01 2.216961383819580078e+00 9.264171719551086426e-01 6.699004173278808594e-01
1.373000000000000000e+03 5.180917358398437500e+01 -2.302676010131835938e+01 -5.714089870452880859e-01 1.389520615339279175e-01 -1.297370791435241699e-01 -5.928138494491577148e-01
1.374000000000000000e+03 5.252329254150390625e+01 -2.282009506225585938e+01 -6.299742460250854492e-01 3.468188643455505371e-01 -8.494661748409271240e-02 -4.753100872039794922e-01
1.375000000000000000e+03 4.707458496093750000e+01 -1.727898406982421875e+01 -3.945912249037064612e-05 -5.604197781394759659e-07 -1.200586211780318990e-05 1.920580689329653978e-05
1.376000000000000000e+03 4.472307968139648438e+01 -1.837661170959472656e+01 -3.678278517327271402e-05 2.437312332403962500e-06 -1.030364182952325791e-05 -3.252063834224827588e-06
1.377000000000000000e+03 4.893208694458007812e+01 -1.682716751098632812e+01 5.324814264895394444e-05 4.447918399819172919e-06 1.730881922412663698e-05 1.088485169020714238e-05
1.378000000000000000e+03 4.391611480712890625e+01 -1.777659034729003906e+01 -4.705409446614794433e-05 -2.030473979175440036e-06 -1.472537041991017759e-05 -1.158339273388264701e-05
1.379000000000000000e+03 4.553638076782226562e+01 -1.745652961730957031e+01 -4.841991540160961449e-05 3.820982328761601821e-06 -1.337967933068284765e-05 -1.414916027897561435e-06
1.380000000000000000e+03 4.217017364501953125e+01 -1.726755905151367188e+01 3.896959242410957813e-05 1.774675547494553030e-05 1.701490509731229395e-05 1.936808075697626919e-05
1.381000000000000000e+03 4.017404937744140625e+01 -1.771167945861816406e+01 1.985068593057803810e-05 2.589289033494424075e-05 1.372307269775774330e-05 1.619885006221011281e-05
1.382000000000000000e+03 2.501627922058105469e+01 -7.974565505981445312e+00 1.238477761944523081e-05 -1.670162532718677539e-06 3.214384605598752387e-06 -1.619115573703311384e-05
1.383000000000000000e+03 2.412181854248046875e+01 -5.455386161804199219e+00 3.629910497693344951e-05 -1.065634705810225569e-06 1.057004101312486455e-05 -2.982347177749034017e-05
1.384000000000000000e+03 2.307926559448242188e+01 -5.288767337799072266e+00 2.915877848863601685e-05 -5.119454272062284872e-06 7.211797310446854681e-06 -3.289836604380980134e-05
1.385000000000000000e+03 1.644777679443359375e+01 -3.184546828269958496e-01 1.755189987306948751e-05 4.783595795743167400e-05 1.961635643965564668e-05 1.613968379388097674e-05
1.386000000000000000e+03 1.397559356689453125e+01 1.962151765823364258e+00 1.426839153282344341e-04 -3.564197322702966630e-05 3.211258081137202680e-05 -4.820607864530757070e-05
1.387000000000000000e+03 1.713000297546386719e+01 -7.747274637222290039e-01 1.119695007218979299e-04 -4.479717608774080873e-05 2.015169593505561352e-05 -6.040650623617693782e-05
1.388000000000000000e+03 1.654438018798828125e+01 1.298646092414855957e+00 1.817319571273401380e-04 -6.122987542767077684e-05 3.615062450990080833e-05 -5.574554597842507064e-05
1.389000000000000000e+03 1.282248973846435547e+01 1.717087507247924805e+00 1.208574030897580087e-04 -2.492523344699293375e-05 2.877965016523376107e-05 -5.309673360898159444e-05
1.390000000000000000e+03 1.908692359924316406e+01 -2.259222984313964844e+00 2.590900112409144640e-05 1.559181146149057895e-05 1.245024395757354796e-05 3.703369293361902237e-05
1.391000000000000000e+03 2.090638351440429688e+01 -3.931591749191284180e+00 3.966770964325405657e-05 -1.761398380040191114e-05 6.616118298552464694e-06 -4.805971911991946399e-05
1.392000000000000000e+03 2.138098335266113281e+01 -3.412106513977050781e+00 2.042683445324655622e-05 -1.004916339297778904e-05 3.113300863333279267e-06 3.955186912207864225e-05
1.393000000000000000e+03 2.196718978881835938e+01 -4.017946720123291016e+00 4.766885467688553035e-05 -1.049829006660729647e-05 1.115116992878029123e-05 -4.451603308552876115e-05
1.394000000000000000e+03 1.887381935119628906e+01 -1.188014030456542969e+00 1.188725764222908765e-05 1.574872840137686580e-05 8.290795449283905327e-06 3.953592022298835218e-05
1.395000000000000000e+03 1.821291160583496094e+01 -6.852110624313354492e-01 1.277541014133021235e-04 -4.239982081344351172e-05 2.560628308856394142e-05 -6.454178219428285956e-05
1.396000000000000000e+03 1.753605461120605469e+01 -2.022003680467605591e-01 3.248724397053592838e-06 3.496916542644612491e-05 1.146536760643357411e-05 2.767430851235985756e-05
1.397000000000000000e+03 1.090246391296386719e+01 -4.909296989440917969e+00 6.290665623964741826e-05 5.868842345080338418e-05 3.647852645372040570e-05 5.740568667533807456e-05
1.398000000000000000e+03 5.993278026580810547e+00 -2.729339838027954102e+00 -8.154493116308003664e-05 1.473038992116926238e-05 -2.004436100833117962e-05 -3.366632881807163358e-05
1.399000000000000000e+03 7.465145111083984375e+00 -3.543904542922973633e+00 9.946962381945922971e-05 1.374806652165716514e-05 3.396530883037485182e-05 5.654222695739008486e-05
1.400000000000000000e+03 5.178415775299072266e+00 -2.825570821762084961e+00 4.912436270387843251e-05 -2.463720011292025447e-05 7.346149232034804299e-06 2.208536170655861497e-05
1.401000000000000000e+03 6.715099334716796875e+00 -3.502975940704345703e+00 -1.112114114221185446e-04 5.172341388970380649e-06 -3.181171996402554214e-05 -5.364064054447226226e-05
1.402000000000000000e+03 4.060168266296386719e+00 -7.758889198303222656e+00 2.271621924592182040e-04 1.004717614705441520e-05 7.116280903574079275e-05 3.770868352148681879e-05
1.403000000000000000e+03 1.992146968841552734e+00 -4.741848945617675781e+00 1.684382004896178842e-04 2.250416764582041651e-05 5.728270843974314630e-05 5.175132173462770879e-06
1.404000000000000000e+03 6.664399719238281250e+01 -2.072149467468261719e+01 -2.914132356643676758e+00 -3.119928240776062012e-01 -9.678375124931335449e-01 7.580096125602722168e-01
1.405000000000000000e+03 6.619600677490234375e+01 -1.870314598083496094e+01 -3.904658555984497070e-01 2.438818365335464478e-01 -4.397520422935485840e-02 1.037429928779602051e+00
1.406000000000000000e+03 6.529496002197265625e+01 -1.560568046569824219e+01 1.212198972702026367e+00 1.204388618469238281e+00 7.249763011932373047e-01 1.338451385498046875e+00
1.407000000000000000e+03 6.276511764526367188e+01 -1.828469848632812500e+01 1.480208635330200195e-01 1.813509821891784668e+00 5.884591937065124512e-01 1.347422719001770020e+00
1.408000000000000000e+03 6.528017425537109375e+01 -2.110746955871582031e+01 -2.227928638458251953e+00 4.768704771995544434e-01 -5.253174304962158203e-01 2.903455495834350586e-01
1.409000000000000000e+03 6.507253265380859375e+01 -1.444879341125488281e+01 1.308384418487548828e+00 1.549334526062011719e+00 8.573156595230102539e-01 1.453394174575805664e+00
1.410000000000000000e+03 5.617972564697265625e+01 -2.143207931518554688e+01 -1.085233330726623535e+00 1.101550579071044922e+00 4.895168822258710861e-03 6.506531238555908203e-01
1.411000000000000000e+03 5.551416015625000000e+01 -2.237421417236328125e+01 -5.951948165893554688e-01 1.234640717506408691e+00 1.918337792158126831e-01 4.733993709087371826e-01
1.412000000000000000e+03 5.817600631713867188e+01 -2.168868446350097656e+01 -7.025259733200073242e-01 2.035709857940673828e+00 3.999551832675933838e-01 1.465762376785278320e+00
1.413000000000000000e+03 4.632785415649414062e+01 -1.733693122863769531e+01 4.454080408322624862e-05 -5.642039923259289935e-06 1.166962920251535252e-05 -8.594044629717245698e-06
1.414000000000000000e+03 5.475101852416992188e+01 -2.316095924377441406e+01 -2.192088514566421509e-01 1.272822737693786621e+00 3.160841763019561768e-01 2.499446719884872437e-01
1.415000000000000000e+03 5.470106124877929688e+01 -2.245444488525390625e+01 -6.494172215461730957e-01 9.246801137924194336e-01 8.257887512445449829e-02 1.765970736742019653e-01
1.416000000000000000e+03 1.251809692382812500e+01 2.798767089843750000e+00 1.271983637707307935e-04 -1.610101026017218828e-05 3.332920459797605872e-05 -6.743810808984562755e-05
1.417000000000000000e+03 1.185594272613525391e+01 3.218158721923828125e+00 2.975011511807679199e-06 6.190227577462792397e-05 1.946318661794066429e-05 7.881782948970794678e-06
1.418000000000000000e+03 1.130245971679687500e+01 2.573999643325805664e+00 1.121432433137670159e-04 -3.020910662598907948e-05 2.458024209772702307e-05 -6.572082202183082700e-05
1.419000000000000000e+03 9.815248489379882812e+00 -2.984104156494140625e+00 6.302607653196901083e-05 5.706125011784024537e-05 3.602619835874065757e-05 4.523055758909322321e-05
1.420000000000000000e+03 2.456382560729980469e+01 -7.289596557617187500e+00 -1.074587430593965109e-06 -8.743631951801944524e-06 -2.945465666925883852e-06 2.373549978074152023e-05
1.421000000000000000e+03 2.408828353881835938e+01 -6.609549045562744141e+00 1.857316783571150154e-05 -2.964390887427725829e-06 4.682633061747765169e-06 -2.342293373658321798e-05
1.422000000000000000e+03 6.031264495849609375e+01 -1.986330032348632812e+01 -9.094638228416442871e-01 2.360628604888916016e+00 4.353494346141815186e-01 1.621495604515075684e+00
1.423000000000000000e+03 2.253620147705078125e+01 -4.645956039428710938e+00 1.624639298825059086e-05 -1.314766632276587188e-05 9.296181815443560481e-07 3.333010681672021747e-05
1.424000000000000000e+03 2.015824508666992188e+01 -2.260860919952392578e+00 1.941454684128984809e-05 -5.820393056410466670e-08 5.806903118354966864e-06 4.139051816309802234e-05
1.425000000000000000e+03 1.952165794372558594e+01 -1.712489247322082520e+00 1.001604541670531034e-04 -3.023933277290780097e-05 2.097633660014253110e-05 -6.280554953264072537e-05
1.426000000000000000e+03 6.110526657104492188e+01 -1.943692398071289062e+01 -6.383000016212463379e-01 2.327101945877075195e+00 5.066405534744262695e-01 1.534104466438293457e+00
1.427000000000000000e+03 1.471133136749267578e+01 1.547627329826354980e+00 2.255406798212788999e-06 5.418628643383271992e-05 1.693250669632107019e-05 -1.012990833260118961e-05
1.428000000000000000e+03 8.941700935363769531e+00 -3.701436042785644531e+00 7.927179103717207909e-05 4.315775368013419211e-05 3.672886305139400065e-05 5.221508763497695327e-05
1.429000000000000000e+03 6.632212829589843750e+01 -1.419988250732421875e+01 1.302703619003295898e+00 1.535169601440429688e+00 8.513619899749755859e-01 1.108956694602966309e+00
1.430000000000000000e+03 1.055075263977050781e+01 -3.178971290588378906e+00 -5.384333780966699123e-05 -5.876707291463389993e-05 -3.378312248969450593e-05 -4.647970854421146214e-05
1.431000000000000000e+03 1.132563304901123047e+01 -1.279002666473388672e+01 1.069365171133540571e-04 2.768945341813378036e-05 4.038779297843575478e-05 -1.207830282510258257e-04
1.432000000000000000e+03 8.772034645080566406e+00 -1.609504699707031250e+01 3.504095657262951136e-04 1.918773523357231170e-05 1.108791839214973152e-04 2.070724440272897482e-05
1.433000000000000000e+03 7.139209747314453125e+01 1.408831405639648438e+01 1.114663556218147278e-01 8.010954856872558594e+00 2.436726331710815430e+00 -7.934694737195968628e-02
1.434000000000000000e+03 3.004352951049804688e+01 -1.598764514923095703e+01 4.137559153605252504e-05 2.508949728508014232e-05 1.993952719203662127e-05 1.870484265964478254e-05
1.435000000000000000e+03 6.420144653320312500e+01 -1.994090652465820312e+01 -1.111449718475341797e+00 1.030786275863647461e+00 -2.419901825487613678e-02 1.016027092933654785e+00
1.436000000000000000e+03 3.305504989624023438e+01 -1.680033302307128906e+01 -3.352639396325685084e-05 -6.731646863045170903e-06 -1.207741206599166617e-05 -1.646824603085406125e-05
1.437000000000000000e+03 3.222816085815429688e+01 -1.562114334106445312e+01 -4.934707249049097300e-05 -1.615030100765579846e-06 -1.528863140265457332e-05 -2.427180334052536637e-05
1.438000000000000000e+03 2.961700057983398438e+01 -1.427995300292968750e+01 -2.072902316285762936e-05 -3.012638899235753343e-06 -7.122499027900630608e-06 -2.416293682472314686e-05
1.439000000000000000e+03 4.497793579101562500e+01 -3.271232366561889648e+00 -1.721501321299001575e-04 -1.888271799543872476e-04 -1.082931921700946987e-04 -1.278822601307183504e-04
1.440000000000000000e+03 4.893349838256835938e+01 -1.206929969787597656e+01 1.327125937677919865e-04 7.815479875716846436e-06 4.215842272969894111e-05 2.390300323895644397e-05
1.441000000000000000e+03 5.003725814819335938e+01 -1.119578838348388672e+01 1.706799375824630260e-04 1.267090556211769581e-05 5.500525367096997797e-05 1.319851071457378566e-05
1.442000000000000000e+03 2.852939987182617188e+01 -3.288561248779296875e+01 2.068062126636505127e-02 -3.337145783007144928e-03 5.203042645007371902e-03 1.459823106415569782e-03
1.443000000000000000e+03 3.214464187622070312e+01 -3.738868713378906250e+01 -9.283434599637985229e-03 -9.181611984968185425e-02 -3.032986633479595184e-02 -7.490840554237365723e-02
1.444000000000000000e+03 4.555298995971679688e+01 -1.761260509490966797e+00 -2.372667804593220353e-04 -1.997059880523011088e-04 -1.310918305534869432e-04 -1.730242365738376975e-04
1.445000000000000000e+03 4.546550750732421875e+01 1.028456568717956543e+00 3.574238799046725035e-04 1.772791874827817082e-04 1.604109274921938777e-04 2.454252971801906824e-04
1.446000000000000000e+03 4.662605524063110352e-01 3.540342330932617188e+00 5.505763328983448446e-05 -2.457169557601446286e-06 1.578013871039729565e-05 -7.723428097961004823e-06
1.447000000000000000e+03 2.751638984680175781e+01 -3.515787124633789062e+01 -7.000156678259372711e-03 -7.162442430853843689e-03 -4.248779732733964920e-03 -1.632631756365299225e-03
1.448000000000000000e+03 4.323164367675781250e+01 2.700724601745605469e+01 5.949319456703960896e-04 4.641030682250857353e-04 3.177105099894106388e-04 1.847282052040100098e-03
1.449000000000000000e+03 4.939171600341796875e+01 -8.799437522888183594e+00 2.049772156169638038e-04 1.951047124748583883e-05 6.734630733262747526e-05 4.444919613888487220e-05
1.450000000000000000e+03 4.651357650756835938e+01 -4.083704471588134766e+00 -2.249672688776627183e-04 -1.322992175118997693e-04 -1.071799488272517920e-04 -1.304403122048825026e-04
1.451000000000000000e+03 4.696090316772460938e+01 -5.292332649230957031e+00 2.166675694752484560e-04 8.250778773799538612e-05 8.975260425359010696e-05 1.064934549503959715e-04
1.452000000000000000e+03 3.440710067749023438e+01 -1.584770393371582031e+01 -3.586568709579296410e-05 -1.203398460347671062e-05 -1.436990078218514100e-05 -1.097529639082495123e-05
1.453000000000000000e+03 7.710089874267578125e+01 1.269123744964599609e+01 -5.694756284356117249e-02 5.968269348144531250e+00 1.773396611213684082e+00 3.462918475270271301e-02
1.454000000000000000e+03 3.327871322631835938e+01 -1.574129009246826172e+01 2.735940870479680598e-05 9.012885129777714610e-06 1.091168815037235618e-05 1.838373827922623605e-05
1.455000000000000000e+03 4.395461654663085938e+01 -2.853221321105957031e+01 -3.263954222202301025e-01 -8.824524879455566406e-01 -3.626543879508972168e-01 -5.181216597557067871e-01
1.456000000000000000e+03 4.597348785400390625e+01 -2.640753173828125000e+01 -1.182879228144884109e-02 -4.441379308700561523e-01 -1.367900222539901733e-01 -7.085416913032531738e-01
1.457000000000000000e+03 4.780490875244140625e+01 -7.767637252807617188e+00 1.825610670493915677e-04 5.261745536699891090e-05 7.055355672491714358e-05 7.136207568692043424e-05
1.458000000000000000e+03 6.378837108612060547e+00 -2.996936607360839844e+01 4.837247834075242281e-04 1.918127527460455894e-04 2.026612637564539909e-04 -2.914135984610766172e-04
1.459000000000000000e+03 1.125724887847900391e+01 -3.323321151733398438e+01 2.638707635924220085e-03 2.747235412243753672e-04 8.740293560549616814e-04 2.010357566177845001e-03
1.460000000000000000e+03 7.012203979492187500e+01 -7.018166542053222656e+00 2.778620123863220215e-01 4.971439838409423828e+00 1.574790477752685547e+00 5.085865259170532227e-01
1.461000000000000000e+03 7.765729522705078125e+01 -3.637037658691406250e+01 -1.140063330531120300e-01 9.868636131286621094e+00 2.926388978958129883e+00 5.184434056282043457e-01
1.462000000000000000e+03 7.552246093750000000e+01 -3.854434967041015625e+01 1.997538059949874878e-01 6.821687698364257812e+00 2.106432437896728516e+00 4.643751382827758789e-01
1.463000000000000000e+03 7.821881866455078125e+01 2.096873664855957031e+01 2.600304409861564636e-02 5.493683815002441406e+00 1.655906081199645996e+00 4.964524880051612854e-02
1.464000000000000000e+03 7.245745849609375000e+01 1.713224220275878906e+01 8.231092989444732666e-02 7.962240219116210938e+00 2.413365364074707031e+00 5.833942070603370667e-02
1.465000000000000000e+03 7.742945861816406250e+01 3.685884094238281250e+01 -1.099131479859352112e-01 6.996924877166748047e+00 2.066103696823120117e+00 1.607401818037033081e-01
1.466000000000000000e+03 7.706922912597656250e+01 3.499513626098632812e+01 -1.297848671674728394e-01 6.792033195495605469e+00 1.998674511909484863e+00 3.095491230487823486e-01
1.467000000000000000e+03 7.518354797363281250e+01 -2.525519561767578125e+01 3.876403272151947021e-01 6.605653762817382812e+00 2.097988128662109375e+00 -2.940871000289916992e+00
1.468000000000000000e+03 7.735083770751953125e+01 -2.514976501464843750e+01 -1.327877998352050781e+00 1.364802455902099609e+01 3.696043968200683594e+00 8.482279181480407715e-01
1.469000000000000000e+03 7.639494323730468750e+01 -3.595801162719726562e+01 -2.468437142670154572e-02 8.423776626586914062e+00 2.519727468490600586e+00 6.785671710968017578e-01
1.470000000000000000e+03 7.806716156005859375e+01 -3.486165237426757812e+01 -1.003097891807556152e-01 1.077819633483886719e+01 3.203366041183471680e+00 4.510228633880615234e-01
1.471000000000000000e+03 7.592533874511718750e+01 -2.960993385314941406e+01 -1.313234090805053711e+00 1.035965728759765625e+01 2.713926792144775391e+00 2.392357349395751953e+00
1.472000000000000000e+03 7.592704772949218750e+01 -4.051773071289062500e+01 4.279058575630187988e-01 8.191043853759765625e+00 2.585684776306152344e+00 -6.974501162767410278e-02
1.473000000000000000e+03 7.821807861328125000e+01 2.376560592651367188e+01 4.403449222445487976e-02 5.603210449218750000e+00 1.694173574447631836e+00 1.648607105016708374e-01
1.474000000000000000e+03 7.702318572998046875e+01 2.245887756347656250e+01 9.955754131078720093e-02 5.984504222869873047e+00 1.825218558311462402e+00 1.363237500190734863e-01
1.475000000000000000e+03 7.583961486816406250e+01 2.539286613464355469e+01 2.122698575258255005e-01 6.341675281524658203e+00 1.966183543205261230e+00 3.305958509445190430e-01
1.476000000000000000e+03 7.707323455810546875e+01 1.541724205017089844e+01 -4.989429377019405365e-03 5.963674545288085938e+00 1.787605524063110352e+00 -1.881597936153411865e-02
1.477000000000000000e+03 7.824472045898437500e+01 1.397462272644042969e+01 -1.613129861652851105e-02 5.475048542022705078e+00 1.637675285339355469e+00 2.934422809630632401e-03
1.478000000000000000e+03 7.707440948486328125e+01 1.403431034088134766e+01 -5.216910690069198608e-02 5.967654705047607422e+00 1.774645686149597168e+00 -1.249686907976865768e-02
1.479000000000000000e+03 7.327745056152343750e+01 2.584851264953613281e+01 4.465712904930114746e-01 6.973663330078125000e+00 2.226070404052734375e+00 1.409705281257629395e-01
1.480000000000000000e+03 7.822916412353515625e+01 2.787801361083984375e+01 3.796496614813804626e-02 6.025237083435058594e+00 1.818960547447204590e+00 3.531615734100341797e-01
1.481000000000000000e+03 7.584317779541015625e+01 1.407728767395019531e+01 -6.849303096532821655e-02 6.501579761505126953e+00 1.929926037788391113e+00 -1.051995437592267990e-02
1.482000000000000000e+03 7.811389923095703125e+01 3.191182708740234375e+01 -4.338099434971809387e-02 6.616684436798095703e+00 1.971991062164306641e+00 3.732173144817352295e-01
1.483000000000000000e+03 7.587534332275390625e+01 2.922099113464355469e+01 6.655359268188476562e-02 6.324362277984619141e+00 1.917274832725524902e+00 5.690760016441345215e-01
1.484000000000000000e+03 7.819281005859375000e+01 -1.948817443847656250e+01 -1.507606655359268188e-01 1.017082309722900391e+01 3.006018638610839844e+00 -6.958739161491394043e-01
1.485000000000000000e+03 7.650805664062500000e+01 -2.046153450012207031e+01 -5.502845644950866699e-01 8.480302810668945312e+00 2.379005670547485352e+00 -1.044573068618774414e+00
1.486000000000000000e+03 7.675447082519531250e+01 9.850249290466308594e+00 -4.551137238740921021e-02 6.129534721374511719e+00 1.825206995010375977e+00 1.625324189662933350e-01
1.487000000000000000e+03 7.543700408935546875e+01 3.807204818725585938e+01 -2.187222242355346680e-01 6.411675930023193359e+00 1.857886075973510742e+00 3.432437777519226074e-01
1.488000000000000000e+03 7.703902435302734375e+01 3.813904953002929688e+01 -1.743248105049133301e-01 6.914323329925537109e+00 2.021999597549438477e+00 3.616842627525329590e-02
1.489000000000000000e+03 7.706486511230468750e+01 -9.930817604064941406e+00 8.881092816591262817e-02 6.861341953277587891e+00 2.085045814514160156e+00 -7.233779430389404297e-01
1.490000000000000000e+03 7.716326141357421875e+01 -1.126660919189453125e+01 1.081571802496910095e-01 7.086908340454101562e+00 2.158519506454467773e+00 -7.926579117774963379e-01
1.491000000000000000e+03 7.436733245849609375e+01 -5.543793678283691406e+00 5.285819992423057556e-02 6.298044204711914062e+00 1.905270814895629883e+00 -5.841780304908752441e-01
1.492000000000000000e+03 7.694525146484375000e+01 -4.344755172729492188e+00 2.959977649152278900e-02 6.292750358581542969e+00 1.896705031394958496e+00 -6.025730371475219727e-01
1.493000000000000000e+03 7.578098297119140625e+01 5.039939403533935547e+00 2.630600035190582275e-01 6.516700744628906250e+00 2.033928155899047852e+00 4.935513436794281006e-02
1.494000000000000000e+03 7.720510101318359375e+01 -1.651689147949218750e+01 4.089886695146560669e-02 8.216703414916992188e+00 2.477280855178833008e+00 -1.117437839508056641e+00
1.495000000000000000e+03 7.715034484863281250e+01 -1.785186958312988281e+01 -4.090818017721176147e-02 8.513664245605468750e+00 2.541826963424682617e+00 -1.123829245567321777e+00
1.496000000000000000e+03 7.703802490234375000e+01 2.104674148559570312e+01 8.487854152917861938e-02 5.968904495239257812e+00 1.816134929656982422e+00 5.905094742774963379e-02
1.497000000000000000e+03 7.800659942626953125e+01 8.266777992248535156e+00 -6.045139394700527191e-03 5.429102420806884766e+00 1.626917123794555664e+00 1.142923459410667419e-01
1.498000000000000000e+03 7.542797851562500000e+01 6.340890884399414062e+00 1.697274744510650635e-01 6.688419342041015625e+00 2.057444095611572266e+00 1.210433170199394226e-01
1.499000000000000000e+03 7.814814758300781250e+01 -1.585484743118286133e-01 6.923027336597442627e-02 5.573523998260498047e+00 1.692826271057128906e+00 -3.307052254676818848e-01
1.500000000000000000e+03 7.695249938964843750e+01 -1.649127721786499023e+00 8.070875704288482666e-02 6.105472564697265625e+00 1.855854392051696777e+00 -5.230754613876342773e-01
1.501000000000000000e+03 7.696379852294921875e+01 -8.562541961669921875e+00 6.379942595958709717e-02 6.678509235382080078e+00 2.022692680358886719e+00 -6.775318384170532227e-01
1.502000000000000000e+03 7.721820068359375000e+01 -1.520304107666015625e+01 9.938678890466690063e-02 7.911428928375244141e+00 2.403244733810424805e+00 -1.067980766296386719e+00
1.503000000000000000e+03 7.632404327392578125e+01 3.414058685302734375e+01 -1.637010723352432251e-01 6.502031326293945312e+00 1.901499032974243164e+00 4.421491026878356934e-01
1.504000000000000000e+03 7.676342773437500000e+01 3.303914260864257812e+01 -1.320065408945083618e-01 6.569260597229003906e+00 1.931176185607910156e+00 4.605658650398254395e-01
1.505000000000000000e+03 7.705725860595703125e+01 1.963422584533691406e+01 4.223127290606498718e-02 5.967711925506591797e+00 1.802982926368713379e+00 1.681307330727577209e-02
1.506000000000000000e+03 7.477310180664062500e+01 1.702515602111816406e+01 2.228970453143119812e-02 6.924096584320068359e+00 2.083915948867797852e+00 -3.706055507063865662e-02
1.507000000000000000e+03 7.805767822265625000e+01 9.741369247436523438e+00 -1.203810796141624451e-02 5.471326351165771484e+00 1.637786507606506348e+00 1.090260297060012817e-01
1.508000000000000000e+03 7.703353881835937500e+01 1.133083343505859375e+01 -7.879038900136947632e-02 6.016859531402587891e+00 1.781420707702636719e+00 7.783135771751403809e-02
1.509000000000000000e+03 7.690029144287109375e+01 -7.155002117156982422e+00 3.690041229128837585e-02 6.525656700134277344e+00 1.968767166137695312e+00 -6.424474716186523438e-01
1.510000000000000000e+03 7.721729278564453125e+01 -1.389242935180664062e+01 1.168017834424972534e-01 7.621736526489257812e+00 2.321561574935913086e+00 -9.782791733741760254e-01
1.511000000000000000e+03 7.618235778808593750e+01 3.590244674682617188e+01 -2.132861763238906860e-01 6.520867824554443359e+00 1.892274379730224609e+00 3.515906929969787598e-01
1.512000000000000000e+03 7.817438507080078125e+01 4.026914119720458984e+00 8.100870996713638306e-02 5.285309791564941406e+00 1.609895586967468262e+00 -5.700745806097984314e-02
1.513000000000000000e+03 7.404325103759765625e+01 6.060043334960937500e+00 2.759018540382385254e-01 7.449397087097167969e+00 2.317589759826660156e+00 9.721726924180984497e-02
1.514000000000000000e+03 7.690795898437500000e+01 -2.869545221328735352e-01 1.410633325576782227e-01 6.039838790893554688e+00 1.854270577430725098e+00 -4.506593346595764160e-01
1.515000000000000000e+03 7.816103363037109375e+01 -4.288942337036132812e+00 8.664723485708236694e-03 6.185377597808837891e+00 1.858212709426879883e+00 -4.455677568912506104e-01
1.516000000000000000e+03 7.696916961669921875e+01 -2.985946893692016602e+00 4.658281058073043823e-02 6.189473152160644531e+00 1.870816826820373535e+00 -5.612714290618896484e-01
1.517000000000000000e+03 7.829122161865234375e+01 -1.120495605468750000e+01 4.602871090173721313e-02 7.597396850585937500e+00 2.293027639389038086e+00 -5.592150688171386719e-01
1.518000000000000000e+03 7.338783264160156250e+01 -1.058175182342529297e+01 4.073547422885894775e-01 5.277364730834960938e+00 1.705415844917297363e+00 -6.883599758148193359e-01
1.519000000000000000e+03 7.827669525146484375e+01 -1.801859855651855469e+01 -3.522482141852378845e-02 9.750679016113281250e+00 2.914636135101318359e+00 -7.940121293067932129e-01
1.520000000000000000e+03 7.270414733886718750e+01 4.506534099578857422e+00 4.055091738700866699e-01 8.348951339721679688e+00 2.626338005065917969e+00 3.327019140124320984e-02
1.521000000000000000e+03 7.271055603027343750e+01 5.979475975036621094e+00 3.454611897468566895e-01 8.292136192321777344e+00 2.591279268264770508e+00 3.560420870780944824e-02
1.522000000000000000e+03 7.234282684326171875e+01 2.130735206604003906e+01 1.520814895629882812e-01 7.968726158142089844e+00 2.436242341995239258e+00 -8.529166132211685181e-02
1.523000000000000000e+03 7.110145568847656250e+01 8.642673492431640625e-02 5.471301078796386719e-01 8.579543113708496094e+00 2.738001823425292969e+00 4.268083274364471436e-01
1.524000000000000000e+03 4.821788024902343750e+01 -8.961443901062011719e+00 -1.756541314534842968e-04 -5.212290852796286345e-05 -6.833311636000871658e-05 -5.805453474749810994e-05
1.525000000000000000e+03 7.118343353271484375e+01 1.989874839782714844e+01 2.028349414467811584e-02 8.543817520141601562e+00 2.569230556488037109e+00 -1.933848112821578979e-02
1.526000000000000000e+03 7.359410858154296875e+01 1.846096801757812500e+01 7.468012720346450806e-02 7.451289653778076172e+00 2.257791042327880859e+00 1.049689389765262604e-02
1.527000000000000000e+03 7.238053894042968750e+01 1.988576126098632812e+01 8.174956589937210083e-02 8.011735916137695312e+00 2.428045511245727539e+00 -2.786526456475257874e-02
1.528000000000000000e+03 6.832460021972656250e+01 -1.232723045349121094e+01 1.170493483543395996e+00 2.451912641525268555e+00 1.086721897125244141e+00 5.977953076362609863e-01
1.529000000000000000e+03 6.956900787353515625e+01 -9.645931243896484375e+00 6.751612424850463867e-01 3.853853702545166016e+00 1.358704447746276855e+00 4.759262800216674805e-01
1.530000000000000000e+03 6.251814270019531250e+01 -2.204593467712402344e+01 -7.283395528793334961e-01 1.051793217658996582e+00 9.703610092401504517e-02 9.483753442764282227e-01
1.531000000000000000e+03 2.143431854248046875e+01 -3.351671218872070312e+01 1.142973918467760086e-02 9.505599737167358398e-04 3.714089747518301010e-03 3.676427295431494713e-03
1.532000000000000000e+03 4.222606658935546875e+00 -1.610849761962890625e+01 3.533861017785966396e-04 5.611218875856138766e-05 1.228494948009029031e-04 2.747589132923167199e-05
1.533000000000000000e+03 4.441707229614257812e+01 5.015637874603271484e-01 -2.331016439711675048e-04 -2.239509631181135774e-04 -1.371157850371673703e-04 -2.028850867645815015e-04
1.534000000000000000e+03 4.281105041503906250e+01 1.044387936592102051e+00 -1.295526017202064395e-04 -1.657299872022122145e-04 -8.858477667672559619e-05 -1.545889826957136393e-04
1.535000000000000000e+03 1.745033073425292969e+01 -3.330470275878906250e+01 5.294888745993375778e-03 -1.438379840692505240e-04 1.545315259136259556e-03 4.038624465465545654e-03
1.536000000000000000e+03 1.988486480712890625e+01 -3.538930892944335938e+01 -1.656392560107633471e-04 -1.666247262619435787e-04 -9.967920050257816911e-05 6.070048082619905472e-03
1.537000000000000000e+03 4.323537826538085938e+00 3.656613540649414062e+01 -7.746039045741781592e-06 7.442072965204715729e-04 2.209383819717913866e-04 -1.300048916164087132e-05
1.538000000000000000e+03 2.039238929748535156e+00 2.739047050476074219e+01 1.748721842886880040e-04 4.851471458096057177e-04 1.980058004846796393e-04 -8.669694943819195032e-05
1.539000000000000000e+03 3.625209808349609375e+00 3.142239761352539062e+01 2.118476986652240157e-04 4.879203625023365021e-04 2.099304110743105412e-04 -5.650533785228617489e-05
1.540000000000000000e+03 7.404815673828125000e+00 2.942707633972167969e+01 6.455035327235236764e-05 2.204107586294412613e-04 8.548833284294232726e-05 -3.150319389533251524e-04
1.541000000000000000e+03 3.639252185821533203e+00 3.277069473266601562e+01 -1.939416979439556599e-04 6.000396097078919411e-04 1.218293691636063159e-04 -1.948356803040951490e-04
1.542000000000000000e+03 2.024343967437744141e+00 2.598393821716308594e+01 -1.574107445776462555e-04 4.300268483348190784e-04 8.178482676157727838e-05 -5.372840314521454275e-05
1.543000000000000000e+03 3.330140113830566406e+00 2.442075538635253906e+01 -1.562665420351549983e-04 3.462833410594612360e-04 5.700504334527067840e-05 -1.074931424227543175e-04
1.544000000000000000e+03 3.433067083358764648e+00 3.001784706115722656e+01 -2.198959700763225555e-04 5.365515826269984245e-04 9.499667794443666935e-05 -1.198298705276101828e-04
1.545000000000000000e+03 6.075970649719238281e+00 3.821890258789062500e+01 -9.245912951882928610e-05 6.310113240033388138e-04 1.615656510693952441e-04 -6.240719812922179699e-05
1.546000000000000000e+03 2.613149881362915039e+00 3.693381881713867188e+01 -7.216385711217299104e-05 6.516214343719184399e-04 1.738372666295617819e-04 -1.322049138252623379e-05
1.547000000000000000e+03 3.697631120681762695e+00 3.397146987915039062e+01 1.899682974908500910e-04 5.191333475522696972e-04 2.127304906025528908e-04 5.460788088385015726e-06
1.548000000000000000e+03 4.605623245239257812e+00 -3.674819564819335938e+01 9.468115604249760509e-05 1.426845788955688477e-03 4.564580740407109261e-04 5.667163059115409851e-04
1.549000000000000000e+03 4.086921691894531250e+00 -3.398918151855468750e+01 1.011024694889783859e-03 2.970752248074859381e-04 3.924299962818622589e-04 3.240128571633249521e-04
1.550000000000000000e+03 3.344431877136230469e+00 -3.000428199768066406e+01 -6.818784167990088463e-04 1.561344397487118840e-04 -1.577231887495145202e-04 -1.276852344744838774e-05
1.551000000000000000e+03 2.022657632827758789e+00 -2.879744911193847656e+01 -6.099155871197581291e-04 -5.456003691506339237e-06 -1.846114755608141422e-04 -8.476297080051153898e-05
1.552000000000000000e+03 7.276577949523925781e+00 -2.748349189758300781e+01 9.255483164452016354e-04 4.290900542400777340e-04 4.063915112055838108e-04 -9.710714948596432805e-05
1.553000000000000000e+03 1.910482764244079590e+00 2.171172904968261719e+01 1.398773310938850045e-04 3.174550074618309736e-04 1.371996913803741336e-04 -6.876800762256607413e-05
1.554000000000000000e+03 3.028318405151367188e+00 -1.190278530120849609e+01 2.930394257418811321e-04 -9.152487109531648457e-06 8.516608068021014333e-05 3.714386184583418071e-05
1.555000000000000000e+03 1.817272424697875977e+00 -7.712606906890869141e+00 2.118680131388828158e-04 2.595086925794021226e-06 6.433892849599942565e-05 4.752148743136785924e-05
1.556000000000000000e+03 1.825870513916015625e+00 -1.898408508300781250e+01 4.391680995468050241e-04 2.246063559141475707e-05 1.384886272717267275e-04 7.982645911397412419e-05
1.557000000000000000e+03 3.168091297149658203e+00 2.155815505981445312e+01 -1.476237521274015307e-04 2.797092893160879612e-04 3.962566188420169055e-05 -9.335136564914137125e-05
1.558000000000000000e+03 2.779175758361816406e+00 1.181319904327392578e+01 1.189314280054531991e-04 9.990405669668689370e-05 6.565064541064202785e-05 -2.195596971432678401e-05
1.559000000000000000e+03 4.245519638061523438e+00 1.861118507385253906e+01 1.561076496727764606e-04 2.144189493265002966e-04 1.111579767893999815e-04 -1.017058166326023638e-04
1.560000000000000000e+03 1.896949052810668945e+00 -2.173014068603515625e+01 5.074214423075318336e-04 -8.521307790942955762e-06 1.496700424468144774e-04 4.187962258583866060e-05
1.561000000000000000e+03 3.061902046203613281e+00 -1.753755569458007812e+01 3.573269059415906668e-04 6.265490083023905754e-05 1.259945420315489173e-04 4.306941627874039114e-05
1.562000000000000000e+03 1.846276879310607910e+00 -1.480584430694580078e+01 -3.349922480992972851e-04 -1.995279490074608475e-05 -1.064835159922949970e-04 -3.694148472277447581e-05
1.563000000000000000e+03 3.079276561737060547e+00 -1.332113075256347656e+01 -3.064707270823419094e-04 -1.507040269643766806e-05 -9.646233957028016448e-05 -2.539981869631446898e-05
1.564000000000000000e+03 5.192466735839843750e+00 -4.126601219177246094e+00 9.085821511689573526e-05 4.758757859235629439e-05 4.153373811277560890e-05 9.581862104823812842e-05
1.565000000000000000e+03 2.797698974609375000e+00 5.171328544616699219e+00 -8.348366100108250976e-05 2.102688995364587754e-05 -1.873703149612993002e-05 -9.758427950146142393e-06
1.566000000000000000e+03 2.660220861434936523e+00 9.176227569580078125e+00 1.249382621608674526e-04 5.229633461567573249e-05 5.317038085195235908e-05 -3.693061444209888577e-06
1.567000000000000000e+03 1.742062330245971680e+00 1.468388557434082031e+01 -1.069626159733161330e-04 1.311852247454226017e-04 7.266783086379291490e-06 -3.905748599208891392e-05
1.568000000000000000e+03 2.955003976821899414e+00 1.594953632354736328e+01 -1.165133362519554794e-04 1.457216130802407861e-04 8.762483048485592008e-06 -7.470361742889508605e-05
1.569000000000000000e+03 2.712468862533569336e+00 1.048117065429687500e+01 -1.076433181879110634e-04 6.506650242954492569e-05 -1.277304545510560274e-05 -6.548199598910287023e-05
1.570000000000000000e+03 2.962399005889892578e+00 -7.694585800170898438e+00 -2.380166260991245508e-04 6.422117166948737577e-07 -7.121232192730531096e-05 -4.893983350484631956e-05
1.571000000000000000e+03 1.967201352119445801e+00 -2.312946891784667969e+01 -5.283196223899722099e-04 -1.586150210641790181e-05 -1.632543426239863038e-04 -4.479514973354525864e-05
1.572000000000000000e+03 3.316786050796508789e+00 -2.864058876037597656e+01 7.801523897796869278e-04 6.796520756324753165e-05 2.544352901168167591e-04 1.539809454698115587e-04
1.573000000000000000e+03 4.427400588989257812e+00 -3.815780258178710938e+01 -2.611436939332634211e-04 1.197275239974260330e-03 2.808394492603838444e-04 1.750750379869714379e-04
1.574000000000000000e+03 2.969870805740356445e+00 -1.049366664886474609e+01 -2.730081905610859394e-04 1.396854804625036195e-05 -7.771189120830968022e-05 -4.652481584344059229e-05
1.575000000000000000e+03 2.936808109283447266e+00 -9.097449302673339844e+00 2.556062245275825262e-04 -9.281655366066843271e-06 7.389736856566742063e-05 5.158161002327688038e-05
1.576000000000000000e+03 3.051273822784423828e+00 -1.615060234069824219e+01 -3.519700840115547180e-04 -3.286313949502073228e-05 -1.154499695985578001e-04 -4.482316944631747901e-05
1.577000000000000000e+03 2.443606138229370117e+00 -3.434638977050781250e+01 -6.174411973915994167e-04 4.503854434005916119e-04 -5.011671964894048870e-05 4.626903391908854246e-04
1.578000000000000000e+03 2.606823205947875977e+00 -3.569173812866210938e+01 4.167846927884966135e-04 7.921587093733251095e-04 3.626830293796956539e-04 1.987245050258934498e-04
1.579000000000000000e+03 5.697381973266601562e+00 -3.065131950378417969e+01 1.514161471277475357e-03 -2.573225938249379396e-04 3.770516486838459969e-04 6.758499657735228539e-04
1.580000000000000000e+03 4.712223529815673828e+00 -2.574727058410644531e+01 -5.572779919020831585e-04 -1.004839723464101553e-04 -1.973285834537819028e-04 -3.244859908591024578e-05
1.581000000000000000e+03 3.368206739425659180e+00 -2.436667633056640625e+01 -5.081142298877239227e-04 -5.067238089395686984e-05 -1.676359825069084764e-04 -3.638265843619592488e-05
1.582000000000000000e+03 6.084686756134033203e+00 -1.798101615905761719e+01 4.019614425487816334e-04 2.035267061728518456e-05 1.266942272195592523e-04 -1.760262384777888656e-04
1.583000000000000000e+03 3.077113151550292969e+00 -1.473927783966064453e+01 3.224700922146439552e-04 4.214102591504342854e-05 1.093833343475125730e-04 3.942372859455645084e-05
1.584000000000000000e+03 2.845502376556396484e+00 1.317171859741210938e+01 -1.065906399162486196e-04 9.731417958391830325e-05 -2.782939645840087906e-06 -6.927721551619470119e-05
1.585000000000000000e+03 2.903914213180541992e+00 1.456132030487060547e+01 1.236380776390433311e-04 1.469477283535525203e-04 8.117574179777875543e-05 -4.600969623425044119e-05
1.586000000000000000e+03 3.002621889114379883e+00 1.732665061950683594e+01 1.373357081320136786e-04 2.003878907999023795e-04 1.013170767691917717e-04 -6.958909943932667375e-05
1.587000000000000000e+03 3.247159004211425781e+00 2.298256111145019531e+01 1.635319204069674015e-04 3.262174723204225302e-04 1.469248090870678425e-04 -9.905053593683987856e-05
1.588000000000000000e+03 3.048376798629760742e+00 1.872742652893066406e+01 -1.277458795811980963e-04 2.080431586364284158e-04 2.408918408036697656e-05 -8.014041668502613902e-05
1.589000000000000000e+03 6.686221313476562500e+01 -3.589262008666992188e+01 -3.658679127693176270e-01 -1.216185927391052246e+00 -4.746161699295043945e-01 -7.952889204025268555e-01
1.590000000000000000e+03 6.972871398925781250e+01 3.436179733276367188e+01 -4.601027965545654297e-01 4.332693576812744141e+00 1.161777257919311523e+00 -3.746167421340942383e-01
1.591000000000000000e+03 6.693817901611328125e+01 -1.343778896331787109e+01 1.263212084770202637e+00 1.837246298789978027e+00 9.301375150680541992e-01 9.147477149963378906e-01
1.592000000000000000e+03 4.243111038208007812e+01 2.567499542236328125e+01 3.655489999800920486e-03 1.463737426092848182e-04 1.140559092164039612e-03 8.452137117274105549e-04
1.593000000000000000e+03 3.999480056762695312e+01 1.794426918029785156e+01 -5.568484775722026825e-04 4.524662508629262447e-04 -3.131467019557021558e-05 5.804973770864307880e-04
1.594000000000000000e+03 4.056129074096679688e+01 2.114480018615722656e+01 -1.735697733238339424e-04 3.807366592809557915e-04 6.215006578713655472e-05 9.024061146192252636e-04
1.595000000000000000e+03 5.259914875030517578e+00 -2.042558670043945312e+01 2.366665285080671310e-04 2.149154170183464885e-04 1.354745909338817000e-04 -1.837850868469104171e-04
1.596000000000000000e+03 4.149484634399414062e+01 8.666010856628417969e+00 6.405750755220651627e-04 3.135425140499137342e-05 2.015788049902766943e-04 1.364932686556130648e-04
1.597000000000000000e+03 4.698372650146484375e+01 2.991918563842773438e+01 1.998209860175848007e-03 1.534790499135851860e-03 1.059900154359638691e-03 3.919738810509443283e-03
1.598000000000000000e+03 4.400981140136718750e+01 2.837777328491210938e+01 4.756786394864320755e-03 8.885842544259503484e-05 1.453693374060094357e-03 6.457987474277615547e-04
1.599000000000000000e+03 7.258761596679687500e+01 1.578080368041992188e+01 8.698291331529617310e-02 7.777257442474365234e+00 2.359272003173828125e+00 -5.654059350490570068e-03
1.600000000000000000e+03 4.503960418701171875e+01 3.402716445922851562e+01 -2.308744937181472778e-03 -3.534435236360877752e-04 -7.986564887687563896e-04 -5.637809517793357372e-04
1.601000000000000000e+03 7.572228240966796875e+01 -1.788514614105224609e+00 1.237369105219841003e-01 6.397633075714111328e+00 1.956411004066467285e+00 -5.555235743522644043e-01
1.602000000000000000e+03 7.100492095947265625e+01 -4.385591983795166016e+00 1.383126378059387207e-01 6.258429050445556641e+00 1.919022440910339355e+00 3.568501770496368408e-01
1.603000000000000000e+03 4.253523254394531250e+01 2.220878601074218750e+01 -2.125385362887755036e-04 9.622368961572647095e-04 2.249095123261213303e-04 1.225850544869899750e-03
1.604000000000000000e+03 2.818909835815429688e+01 -1.532659053802490234e+01 -5.558710472541861236e-05 1.706214607111178339e-05 -1.155748759629204869e-05 -6.713637048960663378e-06
1.605000000000000000e+03 5.545052051544189453e+00 -2.971970939636230469e+01 -8.076629601418972015e-04 2.243597409687936306e-04 -1.749909570207819343e-04 -8.608379721408709884e-05
1.606000000000000000e+03 7.053888702392578125e+01 -5.708122730255126953e+00 1.701578199863433838e-01 5.611515045166015625e+00 1.734501838684082031e+00 4.510516524314880371e-01
1.607000000000000000e+03 4.270720672607421875e+01 5.856169700622558594e+00 4.999282537028193474e-04 -2.106740595309020136e-07 1.499152858741581440e-04 3.008756029885262251e-04
1.608000000000000000e+03 4.310372161865234375e+01 2.776572942733764648e+00 -2.316066529601812363e-04 -1.635518128750845790e-04 -1.185475339298136532e-04 -2.216122811660170555e-04
1.609000000000000000e+03 7.351523590087890625e+01 2.127469635009765625e+01 1.781181097030639648e-01 7.431159496307373047e+00 2.282783269882202148e+00 -2.215849235653877258e-02
1.610000000000000000e+03 6.977458190917968750e+01 3.033667373657226562e+01 1.676242798566818237e-01 5.579675197601318359e+00 1.724189877510070801e+00 -5.823895335197448730e-01
1.611000000000000000e+03 4.197277832031250000e+01 2.775809860229492188e+01 4.254691302776336670e-03 -9.529497474431991577e-04 9.905225597321987152e-04 2.176615671487525105e-04
1.612000000000000000e+03 4.070556259155273438e+01 6.607258319854736328e+00 4.172713670413941145e-04 -8.264173084171488881e-05 1.003888901323080063e-04 3.519252059049904346e-04
1.613000000000000000e+03 4.157579040527343750e+01 5.214672565460205078e+00 -2.450127794872969389e-04 1.724857065710239112e-05 -6.832926737843081355e-05 -2.928900648839771748e-04
1.614000000000000000e+03 7.219669342041015625e+01 2.424429512023925781e+01 4.433862268924713135e-01 7.710679531097412109e+00 2.446219682693481445e+00 -1.444977372884750366e-01
1.615000000000000000e+03 1.635356140136718750e+01 -3.451937484741210938e+01 3.696250962093472481e-03 2.589546609669923782e-03 1.885739271529018879e-03 4.966430366039276123e-03
1.616000000000000000e+03 4.700853347778320312e+01 3.350084686279296875e+01 1.852587563917040825e-03 -2.142079174518585205e-03 -8.684745989739894867e-05 -5.439589731395244598e-04
1.617000000000000000e+03 5.116700363159179688e+01 3.361985015869140625e+01 -1.151263946667313576e-03 4.563405178487300873e-03 1.023642369545996189e-03 7.737938314676284790e-03
1.618000000000000000e+03 7.316944122314453125e+01 -2.403657531738281250e+01 -4.026374518871307373e-01 2.060625076293945312e+00 4.973962604999542236e-01 -5.472671985626220703e-01
1.619000000000000000e+03 3.984542083740234375e+01 1.635863876342773438e+01 1.236607087776064873e-03 2.071561611955985427e-04 4.331289674155414104e-04 3.236491756979376078e-04
1.620000000000000000e+03 4.119602966308593750e+01 1.628988075256347656e+01 -7.002665661275386810e-04 5.174340330995619297e-04 -5.484975190483964980e-05 3.897626884281635284e-04
1.621000000000000000e+03 4.168048095703125000e+01 2.425327873229980469e+01 2.535950043238699436e-04 4.206825979053974152e-04 2.022832777583971620e-04 1.219423022121191025e-03
1.622000000000000000e+03 7.506132125854492188e+00 -1.608959197998046875e+01 -3.303565317764878273e-04 -6.521829345729202032e-05 -1.186724475701339543e-04 8.164865903381723911e-06
1.623000000000000000e+03 7.136714935302734375e+01 7.351452350616455078e+00 3.840235471725463867e-01 8.903229713439941406e+00 2.786175966262817383e+00 -1.344154030084609985e-01
1.624000000000000000e+03 7.472695159912109375e+01 9.378707885742187500e+00 -8.060051500797271729e-02 7.046360492706298828e+00 2.089728116989135742e+00 1.774000972509384155e-01
1.625000000000000000e+03 7.185949707031250000e+01 -2.272980308532714844e+01 -1.655858993530273438e+00 7.802972197532653809e-01 -2.626685202121734619e-01 1.654498726129531860e-01
1.626000000000000000e+03 7.126652526855468750e+01 -2.168201446533203125e+01 -2.022978544235229492e+00 7.775388360023498535e-01 -3.736319243907928467e-01 -3.541100025177001953e-01
1.627000000000000000e+03 7.104716491699218750e+01 -8.478952407836914062e+00 3.727131187915802002e-01 4.854283809661865234e+00 1.568099141120910645e+00 1.005582213401794434e-01
1.628000000000000000e+03 7.133359527587890625e+01 1.563946485519409180e+00 6.651462912559509277e-01 8.943143844604492188e+00 2.882487058639526367e+00 3.804761171340942383e-01
1.629000000000000000e+03 7.379712677001953125e+01 3.014165878295898438e+00 4.763229489326477051e-01 7.524692058563232422e+00 2.400304555892944336e+00 -4.760404303669929504e-02
1.630000000000000000e+03 5.842044830322265625e+01 -2.461421394348144531e+01 1.690819859504699707e+00 2.809522867202758789e+00 1.350102782249450684e+00 2.111124277114868164e+00
1.631000000000000000e+03 5.957507705688476562e+01 -2.360714912414550781e+01 8.753700852394104004e-01 2.319206237792968750e+00 9.583728909492492676e-01 1.820328354835510254e+00
1.632000000000000000e+03 5.906260299682617188e+01 -2.141486549377441406e+01 -8.371106386184692383e-01 2.227425575256347656e+00 4.170944690704345703e-01 1.633411765098571777e+00
1.633000000000000000e+03 7.260166168212890625e+01 7.404962062835693359e+00 2.246599197387695312e-01 8.195157051086425781e+00 2.525945186614990234e+00 8.528352528810501099e-02
1.634000000000000000e+03 3.975602722167968750e+01 1.322691345214843750e+01 1.012833323329687119e-03 1.113797698053531349e-04 3.372639184817671776e-04 2.394402836216613650e-04
1.635000000000000000e+03 7.486867523193359375e+01 -2.968720245361328125e+01 -1.241595894098281860e-01 5.155470371246337891e+00 1.509393215179443359e+00 2.076639890670776367e+00
1.636000000000000000e+03 3.980570220947265625e+01 1.164490413665771484e+01 -7.980940863490104675e-04 2.553918748162686825e-04 -1.628106692805886269e-04 6.504077464342117310e-05
1.637000000000000000e+03 7.206100463867187500e+01 2.579466438293457031e+01 5.272881388664245605e-01 7.460987567901611328e+00 2.396482706069946289e+00 -1.047315970063209534e-01
1.638000000000000000e+03 1.407656574249267578e+01 -3.311355590820312500e+01 5.546098574995994568e-03 -1.329736260231584311e-04 1.623937510885298252e-03 3.212542738765478134e-03
1.639000000000000000e+03 1.728367996215820312e+01 -3.577089691162109375e+01 -6.216496112756431103e-04 8.629187941551208496e-04 7.238076068460941315e-05 4.504626616835594177e-03
1.640000000000000000e+03 4.868782424926757812e+01 -1.427514648437500000e+01 1.464934903196990490e-04 -5.466981383506208658e-05 2.754710476438049227e-05 2.513040089979767799e-05
1.641000000000000000e+03 7.257568359375000000e+01 1.455023527145385742e+00 5.659810900688171387e-01 8.000467300415039062e+00 2.569934606552124023e+00 2.358382008969783783e-02
1.642000000000000000e+03 7.246485137939453125e+01 1.239052009582519531e+01 -3.015061020851135254e-01 7.913358688354492188e+00 2.283555746078491211e+00 -1.019108295440673828e-01
1.643000000000000000e+03 7.279165649414062500e+01 1.368668365478515625e+01 -1.526540368795394897e-01 7.765175819396972656e+00 2.283756494522094727e+00 -1.567334532737731934e-01
1.644000000000000000e+03 5.323508834838867188e+01 -2.266651535034179688e+01 -6.600217223167419434e-01 4.263115227222442627e-01 -7.011305540800094604e-02 -2.864190042018890381e-01
1.645000000000000000e+03 4.524383926391601562e+01 -2.837896537780761719e+01 -2.838777378201484680e-02 -5.955711603164672852e-01 -1.871876865625381470e-01 -4.293742477893829346e-01
1.646000000000000000e+03 5.677505493164062500e+01 4.111967086791992188e+01 1.890013962984085083e-01 -1.228528469800949097e-01 1.984456740319728851e-02 5.797272175550460815e-02
1.647000000000000000e+03 5.827459335327148438e+01 3.803506469726562500e+01 -2.777016721665859222e-02 -1.173610389232635498e-01 -4.353936016559600830e-02 1.822960823774337769e-01
1.648000000000000000e+03 3.780131530761718750e+01 -3.661285781860351562e+01 2.413656562566757202e-02 -3.431763350963592529e-01 -9.571193158626556396e-02 -2.201434671878814697e-01
1.649000000000000000e+03 4.056183624267578125e+01 -3.580001068115234375e+01 1.348571926355361938e-01 -4.982372224330902100e-01 -1.090140119194984436e-01 -1.623710840940475464e-01
1.650000000000000000e+03 6.913514709472656250e+01 -2.001538467407226562e+01 -1.718301057815551758e+00 -5.191842317581176758e-01 -6.712455749511718750e-01 -1.971702575683593750e-01
1.651000000000000000e+03 6.591710662841796875e+01 -1.607484054565429688e+01 1.024644613265991211e+00 9.529129266738891602e-01 5.932672619819641113e-01 1.174178719520568848e+00
1.652000000000000000e+03 7.182427978515625000e+01 2.740307998657226562e+01 5.071797370910644531e-01 7.041615486145019531e+00 2.264638662338256836e+00 -8.332482725381851196e-02
1.653000000000000000e+03 7.477743530273437500e+01 3.232776260375976562e+01 -1.862480938434600830e-01 6.216520309448242188e+00 1.809081673622131348e+00 5.144212245941162109e-01
1.654000000000000000e+03 4.944835662841796875e+01 3.726797485351562500e+01 2.145592821761965752e-03 -1.549435779452323914e-02 -4.004629328846931458e-03 7.934225723147392273e-03
1.655000000000000000e+03 5.424953079223632812e+01 -2.841316032409667969e+01 1.852268099784851074e+00 3.024376630783081055e+00 1.462993383407592773e+00 7.274692654609680176e-01
1.656000000000000000e+03 5.525957489013671875e+01 -2.738193321228027344e+01 1.707930326461791992e+00 3.651459455490112305e+00 1.607816934585571289e+00 9.972817897796630859e-01
1.657000000000000000e+03 1.801968383789062500e+01 -1.207412719726562500e+01 -2.604269138828385621e-05 -4.633572825696319342e-05 -2.171352571167517453e-05 7.535079475928796455e-06
1.658000000000000000e+03 1.910441780090332031e+01 -1.163599205017089844e+01 5.849416265846230090e-05 9.863495506579056382e-05 4.713873568107374012e-05 2.021444015554152429e-05
1.659000000000000000e+03 3.788689804077148438e+01 -1.708196640014648438e+01 -2.923410647781565785e-05 -1.270393568120198324e-05 -1.258141219295794144e-05 -2.377002829234697856e-06
1.660000000000000000e+03 4.012273025512695312e+01 8.258569717407226562e+00 -6.528020021505653858e-04 7.731865480309352279e-05 -1.726450136629864573e-04 -9.088690421776846051e-05
1.661000000000000000e+03 3.891497039794921875e+01 -1.703368568420410156e+01 2.745318124652840197e-05 9.122578376263845712e-06 1.097272797778714448e-05 4.323844677855959162e-06
1.662000000000000000e+03 3.557423400878906250e+01 -1.593143463134765625e+01 1.332199281023349613e-05 1.809204877645242959e-05 9.424212294106837362e-06 9.097049769479781389e-06
1.663000000000000000e+03 5.088119888305664062e+01 -1.630434989929199219e+01 -8.153109956765547395e-05 -1.525166044302750379e-05 -2.903482891269959509e-05 -1.770451126503758132e-05
1.664000000000000000e+03 5.096297836303710938e+01 -1.476912784576416016e+01 2.399234290351159871e-05 -2.217342080257367343e-05 5.456764142763859127e-07 -5.841124584549106658e-05
1.665000000000000000e+03 1.661278915405273438e+01 -1.224756526947021484e+01 7.030524557194439694e-06 1.448915827495511621e-05 6.455904895119601861e-06 -3.187765742040937766e-06
1.666000000000000000e+03 1.001175117492675781e+01 -3.174594688415527344e+01 8.344896486960351467e-04 -2.658245211932808161e-04 1.705995382508262992e-04 2.726438397075980902e-04
1.667000000000000000e+03 8.586688995361328125e+00 -1.491340541839599609e+01 -3.079367743339389563e-04 6.163252692203968763e-05 -7.389127131318673491e-05 -6.486719212261959910e-05
1.668000000000000000e+03 7.022575378417968750e+01 -1.961545372009277344e+01 -1.154650330543518066e+00 3.098486959934234619e-01 -2.534404993057250977e-01 -6.209670901298522949e-01
1.669000000000000000e+03 1.515748786926269531e+01 -1.235912895202636719e+01 9.735235653351992369e-05 2.949459485535044223e-05 3.805408414336852729e-05 2.206449607911054045e-05
1.670000000000000000e+03 1.380459499359130859e+01 -1.201372146606445312e+01 -1.654559746384620667e-04 -1.236288953805342317e-04 -8.672546391608193517e-05 6.685792322969064116e-05
1.671000000000000000e+03 3.342368125915527344e+00 -2.725487136840820312e+01 -5.889417952857911587e-04 -4.206199810141697526e-05 -1.893011358333751559e-04 -1.199356047436594963e-04
1.672000000000000000e+03 7.423240184783935547e+00 -2.582238960266113281e+01 -8.571735816076397896e-04 -2.728992840275168419e-04 -3.390218771528452635e-04 1.959962974069640040e-04
1.673000000000000000e+03 5.341141891479492188e+01 -2.960449790954589844e+01 1.636045455932617188e+00 2.515768766403198242e+00 1.245544314384460449e+00 6.666148304939270020e-01
1.674000000000000000e+03 6.836965084075927734e+00 -2.888134384155273438e+01 -3.707759606186300516e-04 -1.310453080805018544e-04 -1.505463733337819576e-04 3.123575297649949789e-04
1.675000000000000000e+03 6.884738159179687500e+01 3.637345504760742188e+01 -3.468719720840454102e-01 3.441804170608520508e+00 9.284796714782714844e-01 -4.641443192958831787e-01
1.676000000000000000e+03 5.416909408569335938e+01 -3.301127243041992188e+01 3.539996147155761719e-01 2.785587310791015625e+00 9.418760538101196289e-01 5.549960732460021973e-01
1.677000000000000000e+03 5.379151153564453125e+01 -3.451330184936523438e+01 7.435508817434310913e-02 2.369363546371459961e+00 7.331156134605407715e-01 4.926640093326568604e-01
1.678000000000000000e+03 6.392442321777343750e+01 -2.157172584533691406e+01 -1.427783250808715820e+00 7.348080277442932129e-01 -2.078925669193267822e-01 4.771271049976348877e-01
1.679000000000000000e+03 8.111045837402343750e+00 -4.134321212768554688e+01 -1.243796315975487232e-03 1.565862214192748070e-03 9.661976946517825127e-05 -5.835002593812532723e-05
1.680000000000000000e+03 4.443528747558593750e+01 -2.994009590148925781e+01 -1.584365069866180420e-01 -7.032622098922729492e-01 -2.585096061229705811e-01 -1.638930737972259521e-01
1.681000000000000000e+03 6.514006042480468750e+01 -3.782477569580078125e+01 1.891032904386520386e-01 -7.952845692634582520e-01 -1.818543821573257446e-01 -6.669600009918212891e-01
1.682000000000000000e+03 4.915308475494384766e+00 4.040110397338867188e+01 9.760975808603689075e-05 7.251812494359910488e-04 2.468372986186295748e-04 -8.122312283376231790e-05
1.683000000000000000e+03 7.425897216796875000e+01 -2.534554290771484375e+01 8.437424898147583008e-01 2.919836521148681641e+00 1.129073619842529297e+00 -1.537469625473022461e+00
1.684000000000000000e+03 7.726126098632812500e+01 -2.132189750671386719e+01 -5.982887148857116699e-01 9.652598381042480469e+00 2.716292858123779297e+00 -6.288434267044067383e-01
1.685000000000000000e+03 7.502165222167968750e+01 -2.444361305236816406e+01 -3.650045394897460938e-01 6.428970813751220703e+00 1.819189786911010742e+00 -2.138332605361938477e+00
1.686000000000000000e+03 7.523636627197265625e+01 -2.934404373168945312e+01 -1.076542362570762634e-01 6.312714099884033203e+00 1.861517906188964844e+00 2.741416931152343750e+00
1.687000000000000000e+03 7.542989349365234375e+01 -2.943699836730957031e+01 -4.348224699497222900e-01 7.567027091979980469e+00 2.139661312103271484e+00 2.884249687194824219e+00
1.688000000000000000e+03 7.648981475830078125e+01 -2.962108421325683594e+01 -1.909757733345031738e+00 1.281293296813964844e+01 3.270952701568603516e+00 1.340750336647033691e+00
1.689000000000000000e+03 7.317508697509765625e+01 -2.490851593017578125e+01 2.271457016468048096e-01 1.159930825233459473e+00 4.161229431629180908e-01 -2.884517014026641846e-01
1.690000000000000000e+03 7.606247711181640625e+01 -2.545552062988281250e+01 -7.620677351951599121e-01 1.208416461944580078e+01 3.396628856658935547e+00 -3.044768333435058594e+00
1.691000000000000000e+03 7.446150970458984375e+01 -2.547316551208496094e+01 1.015210628509521484e+00 3.142220735549926758e+00 1.247229456901550293e+00 -1.846589922904968262e+00
1.692000000000000000e+03 7.761064147949218750e+01 -2.335480117797851562e+01 -1.187207937240600586e+00 1.132850551605224609e+01 3.042389154434204102e+00 2.143402248620986938e-01
1.693000000000000000e+03 7.406912231445312500e+01 -2.957131385803222656e+01 -4.146208241581916809e-02 2.592532396316528320e+00 7.653210759162902832e-01 8.236269354820251465e-01
1.694000000000000000e+03 7.555986785888671875e+01 -3.226271438598632812e+01 -8.077099323272705078e-01 7.531571388244628906e+00 2.017158508300781250e+00 1.022407770156860352e+00
1.695000000000000000e+03 7.770745849609375000e+01 -2.943454170227050781e+01 -1.287994623184204102e+00 1.351942443847656250e+01 3.669429063796997070e+00 -1.797414660453796387e+00
1.696000000000000000e+03 7.321085357666015625e+01 -3.022875022888183594e+01 -6.697391271591186523e-01 1.827029466629028320e+00 3.471871316432952881e-01 -7.667808979749679565e-02
1.697000000000000000e+03 7.840404510498046875e+01 -2.853934097290039062e+01 7.751902937889099121e-01 1.237066555023193359e+01 3.943756818771362305e+00 -2.544753789901733398e+00
1.698000000000000000e+03 7.781620025634765625e+01 -2.898915863037109375e+01 -3.352651894092559814e-01 1.403279209136962891e+01 4.109258174896240234e+00 -2.295635938644409180e+00
1.699000000000000000e+03 7.685904693603515625e+01 -2.545310211181640625e+01 -1.414133906364440918e+00 1.483328437805175781e+01 4.025745391845703125e+00 -4.199159741401672363e-01
1.700000000000000000e+03 7.746820068359375000e+01 -2.564230918884277344e+01 -7.011994719505310059e-01 1.449608325958251953e+01 4.138464927673339844e+00 1.496564865112304688e+00
1.701000000000000000e+03 7.883992767333984375e+01 -2.639128303527832031e+01 9.294489026069641113e-01 1.007622337341308594e+01 3.301701784133911133e+00 1.504779338836669922e+00
1.702000000000000000e+03 7.767127990722656250e+01 -2.617375183105468750e+01 1.264275074005126953e+00 1.472342681884765625e+01 4.796310424804687500e+00 2.168921947479248047e+00
1.703000000000000000e+03 1.551338768005371094e+01 -6.542391777038574219e+00 -7.262743019964545965e-05 -3.799601836362853646e-05 -3.318703602417372167e-05 2.765060708043165505e-05
1.704000000000000000e+03 1.525991725921630859e+01 -1.122106552124023438e+01 -1.200208789668977261e-04 3.704061555254156701e-06 -3.489504524623043835e-05 -4.255109524819999933e-05
1.705000000000000000e+03 1.323105049133300781e+01 -5.874978065490722656e+00 3.901055242749862373e-05 9.657236660132184625e-05 4.067487316206097603e-05 -9.962293916032649577e-06
1.706000000000000000e+03 1.212931442260742188e+01 -5.240545272827148438e+00 2.767899604805279523e-05 9.233803575625643134e-05 3.600510899559594691e-05 4.984606493962928653e-05
1.707000000000000000e+03 1.692667198181152344e+01 -1.022190570831298828e+01 -7.083982836775248870e-06 1.067567791324108839e-05 1.077508727576059755e-06 8.813301974441856146e-06
1.708000000000000000e+03 1.668813705444335938e+01 -7.910951614379882812e+00 8.352541772183030844e-05 -3.579896201699739322e-06 2.398365722910966724e-05 -1.312523727392544970e-05
1.709000000000000000e+03 4.657912826538085938e+01 -2.449604415893554688e+01 -1.705589741468429565e-01 -4.056825935840606689e-01 -1.728724688291549683e-01 -8.666186332702636719e-01
1.710000000000000000e+03 1.197681522369384766e+01 -5.797040462493896484e+00 -1.154357232735492289e-05 -8.797090413281694055e-05 -2.985434366564732045e-05 -6.067402864573523402e-05
1.711000000000000000e+03 1.233751773834228516e+01 -4.630053043365478516e+00 -3.339773320476524532e-05 -8.644172339700162411e-05 -3.595183807192370296e-05 -4.230129343341104686e-05
1.712000000000000000e+03 4.511438751220703125e+01 -2.473390388488769531e+01 -9.728766977787017822e-02 -5.601116418838500977e-01 -1.972197890281677246e-01 -7.614452242851257324e-01
1.713000000000000000e+03 4.610827636718750000e+01 -2.721207618713378906e+01 9.496232122182846069e-02 -5.019359588623046875e-01 -1.220920905470848083e-01 -6.178069710731506348e-01
1.714000000000000000e+03 4.842881774902343750e+01 -2.516222953796386719e+01 1.158858463168144226e-01 -1.736819744110107422e-01 -1.733883656561374664e-02 -7.736739516258239746e-01
1.715000000000000000e+03 1.725188064575195312e+01 -7.492235660552978516e+00 -6.978438614169135690e-05 -1.554071968712378293e-05 -2.559753193054348230e-05 -1.445526686438824981e-05
1.716000000000000000e+03 1.634626960754394531e+01 -8.789855957031250000e+00 2.362824125157203525e-05 -4.328454087954014540e-05 -5.896890343137783930e-06 -5.395640255301259458e-05
1.717000000000000000e+03 1.425038146972656250e+01 -6.307322025299072266e+00 9.554290045343805104e-06 9.398355905432254076e-05 3.106135409325361252e-05 -2.777315239654853940e-05
1.718000000000000000e+03 1.456424427032470703e+01 -5.810257434844970703e+00 -3.213880336261354387e-05 -8.161642472259700298e-05 -3.412656951695680618e-05 2.028724793490255252e-06
1.719000000000000000e+03 1.594725131988525391e+01 -6.947699069976806641e+00 7.935157191241160035e-05 1.936822627612855285e-05 2.961593963846098632e-05 -1.509572757640853524e-05
1.720000000000000000e+03 1.832113456726074219e+01 -1.016877174377441406e+01 7.505540270358324051e-05 2.346067276448593475e-06 2.322044201719108969e-05 2.964498162327799946e-05
1.721000000000000000e+03 1.773004913330078125e+01 -1.050927257537841797e+01 -1.370959853375097737e-05 -4.448019535630010068e-05 -1.745693771226797253e-05 2.422875149932224303e-05
1.722000000000000000e+03 9.158501625061035156e+00 3.947513103485107422e+00 1.466524554416537285e-04 -8.227879334299359471e-06 4.152737164986319840e-05 -7.560041558463126421e-05
1.723000000000000000e+03 8.438473701477050781e+00 4.029328823089599609e+00 -5.902453995076939464e-05 3.523016494000330567e-05 -7.138312412280356511e-06 -8.767701365286484361e-05
1.724000000000000000e+03 4.972522354125976562e+01 -2.418950462341308594e+01 -8.457805961370468140e-02 -1.245012581348419189e-01 -6.272379308938980103e-02 -8.023306727409362793e-01
1.725000000000000000e+03 4.810974502563476562e+01 -2.372448158264160156e+01 -3.339045643806457520e-01 -2.669538557529449463e-01 -1.802575290203094482e-01 -8.865529894828796387e-01
1.726000000000000000e+03 4.759904479980468750e+01 -2.458691596984863281e+01 -9.602203965187072754e-02 -3.106691241264343262e-01 -1.220073476433753967e-01 -8.635914921760559082e-01
1.727000000000000000e+03 6.393258094787597656e+00 3.285646438598632812e+00 -3.937239671358838677e-05 2.208272780990228057e-05 -5.186900580156361684e-06 -4.075821561855264008e-05
1.728000000000000000e+03 5.226960659027099609e+00 4.123351573944091797e+00 4.186073056189343333e-05 -7.361705343100766186e-07 1.233736838912591338e-05 -3.011780063388869166e-05
1.729000000000000000e+03 7.741256713867187500e+00 3.900975942611694336e+00 9.506454080110415816e-05 2.554435377533081919e-05 3.618266782723367214e-05 5.286261171022488270e-07
1.730000000000000000e+03 5.793206691741943359e+00 3.989407062530517578e+00 -5.451995821204036474e-05 2.796341505018062890e-05 -7.966962584760040045e-06 -6.045318878022953868e-05
1.731000000000000000e+03 3.888211250305175781e+00 6.835682392120361328e+00 -8.288692333735525608e-05 1.343040639767423272e-05 -2.083695471810642630e-05 -7.704417657805606723e-05
1.732000000000000000e+03 5.018247127532958984e+00 3.443780183792114258e+00 -8.627559509477578104e-06 7.610051852680044249e-06 -3.052523709357046755e-07 -2.860761560441460460e-05
1.733000000000000000e+03 3.825496196746826172e+00 4.954769134521484375e+00 3.574614675017073750e-05 1.906754005176480860e-05 1.644410622247960418e-05 -5.827040513395331800e-05
1.734000000000000000e+03 4.707332229614257812e+01 -2.497537231445312500e+01 -2.934402786195278168e-02 -3.910355865955352783e-01 -1.261138767004013062e-01 -8.281543850898742676e-01
1.735000000000000000e+03 3.546749114990234375e+00 3.871820688247680664e+00 -2.381313061050605029e-05 -4.974387138645397499e-06 -8.636255188321229070e-06 1.748941394907888025e-05
1.736000000000000000e+03 1.653394341468811035e+00 5.037311553955078125e+00 9.308016888098791242e-05 2.707348357944283634e-05 3.604609446483664215e-05 9.700181180960498750e-06
1.737000000000000000e+03 2.712369203567504883e+00 3.982038021087646484e+00 9.384540317114442587e-05 1.922130832099355757e-05 3.392001235624775290e-05 -3.824330269708298147e-05
1.738000000000000000e+03 2.872337150573730469e+01 -1.108474063873291016e+01 2.373369898123200983e-05 5.451211109175346792e-06 8.755473572819028050e-06 -1.227234770340146497e-05
1.739000000000000000e+03 5.462262344360351562e+01 -2.639154434204101562e+01 1.421878457069396973e+00 2.483077764511108398e+00 1.171486854553222656e+00 6.132738590240478516e-01
1.740000000000000000e+03 5.274757766723632812e+01 -2.344309616088867188e+01 -2.623765170574188232e-01 4.771713018417358398e-01 6.443843990564346313e-02 -3.470874130725860596e-01
1.741000000000000000e+03 2.848800277709960938e+01 -1.227990150451660156e+01 1.285141752305207774e-05 7.979106158018112183e-06 6.249157195270527154e-06 -7.933154847705736756e-06
1.742000000000000000e+03 2.817298316955566406e+01 -1.343762207031250000e+01 1.120723027270287275e-05 5.700812380382558331e-06 5.072412932349834591e-06 5.070215593150351197e-06
1.743000000000000000e+03 2.918124198913574219e+01 -1.177163410186767578e+01 -2.898687853303272277e-05 -1.026477583487839240e-10 -8.696094482729677111e-06 2.115317693096585572e-05
1.744000000000000000e+03 3.006074333190917969e+01 -1.318364620208740234e+01 5.362794013308302965e-07 -6.785617188143078238e-06 -1.874801341728016268e-06 1.640578011574689299e-05
1.745000000000000000e+03 4.979920578002929688e+01 -1.438029479980468750e+01 -1.009519328363239765e-04 5.156797124072909355e-05 -1.481518938817316666e-05 3.368089164723642170e-05
1.746000000000000000e+03 5.016198730468750000e+01 -1.679002571105957031e+01 3.242928869440220296e-05 1.772078212525229901e-05 1.504502142779529095e-05 1.798093944671563804e-05
1.747000000000000000e+03 4.308487701416015625e+01 -1.794277191162109375e+01 3.802668288699351251e-05 7.752192686893977225e-06 1.373366285406518728e-05 1.130692635342711583e-05
1.748000000000000000e+03 5.395149993896484375e+01 -2.254961204528808594e+01 -6.859523653984069824e-01 6.844819188117980957e-01 -4.411439877003431320e-04 -1.286502480506896973e-01
1.749000000000000000e+03 4.793767547607421875e+01 -1.674436569213867188e+01 8.790859283180907369e-06 5.610932021227199584e-06 4.320537300372961909e-06 4.405229992698878050e-05
1.750000000000000000e+03 4.771491622924804688e+01 -1.728827285766601562e+01 2.278724969073664397e-05 1.788697045412845910e-05 1.220226658915635198e-05 -2.524767478462308645e-05
1.751000000000000000e+03 5.381192779541015625e+01 -2.446555328369140625e+01 4.328361451625823975e-01 1.240450859069824219e+00 5.019860863685607910e-01 7.103664427995681763e-02
1.752000000000000000e+03 4.827731323242187500e+01 -1.715730476379394531e+01 -3.675744301290251315e-05 -1.980863453354686499e-05 -1.696982326393481344e-05 -6.628702067246194929e-06
1.753000000000000000e+03 4.906044006347656250e+01 -1.587843132019042969e+01 -6.910983756824862212e-06 1.226117547048488632e-05 1.605057491360639688e-06 4.171990440227091312e-05
1.754000000000000000e+03 4.850320816040039062e+01 -1.632563018798828125e+01 -6.359384860843420029e-05 1.300786516367224976e-05 -1.517579494247911498e-05 -4.145070852246135473e-05
1.755000000000000000e+03 2.854588508605957031e+01 -1.413196563720703125e+01 -3.031340384040959179e-05 -8.514966225448006298e-07 -9.349470019515138119e-06 -1.102651276596589014e-05
1.756000000000000000e+03 3.239995956420898438e+01 -1.460185241699218750e+01 4.756074849865399301e-05 8.282728231279179454e-06 1.675304338277783245e-05 2.481895171513315290e-05
1.757000000000000000e+03 4.475708007812500000e+01 -1.683394622802734375e+01 -6.200098869157955050e-05 1.466783942305482924e-06 -1.816026087908539921e-05 -1.296575373999075964e-05
1.758000000000000000e+03 4.391892242431640625e+01 -1.698199653625488281e+01 5.546402098843827844e-05 3.695370878631365485e-06 1.774781776475720108e-05 1.549625449115410447e-05
1.759000000000000000e+03 6.862715911865234375e+01 -1.778483390808105469e+01 2.412465810775756836e-01 3.942727744579315186e-01 1.906557977199554443e-01 7.173817604780197144e-02
1.760000000000000000e+03 6.486647033691406250e+01 -1.632118797302246094e+01 1.020360469818115234e+00 1.047533631324768066e+00 6.203682422637939453e-01 1.406355261802673340e+00
1.761000000000000000e+03 1.614894676208496094e+01 7.035044431686401367e-01 -2.547787516959942877e-06 5.084468284621834755e-05 1.448906823497964069e-05 9.313121154264081270e-06
1.762000000000000000e+03 1.622476577758789062e+01 2.328902482986450195e+00 2.099930134136229753e-04 -7.343684410443529487e-05 4.096685006516054273e-05 -5.210482413531281054e-05
1.763000000000000000e+03 2.544576263427734375e+01 -8.655675888061523438e+00 -9.263101674150675535e-06 -7.051193733786931261e-06 -4.894288395007606596e-06 2.223907358711585402e-05
1.764000000000000000e+03 2.556537628173828125e+01 -7.507925510406494141e+00 -1.016839996736962348e-05 -4.848754542763344944e-06 -4.505146080191479996e-06 2.390326153545174748e-05
1.765000000000000000e+03 1.023611545562744141e+01 -4.782445430755615234e+00 -7.278400880750268698e-05 -5.021459583076648414e-05 -3.689958248287439346e-05 -5.259965109871700406e-05
1.766000000000000000e+03 2.465178108215332031e+01 -4.952317714691162109e+00 1.059853502738405950e-06 -1.419892942067235708e-05 -3.941722752642817795e-06 3.174912126269191504e-05
1.767000000000000000e+03 1.724744224548339844e+01 8.536580204963684082e-01 -1.984531081689056009e-05 4.119503500987775624e-05 6.404917712643509731e-06 2.233047780464403331e-05
1.768000000000000000e+03 6.643563079833984375e+01 -1.972116661071777344e+01 -1.280561089515686035e+00 -1.974555253982543945e-01 -4.434049725532531738e-01 9.033125042915344238e-01
1.769000000000000000e+03 4.306335067749023438e+01 -1.712480354309082031e+01 -5.447894000099040568e-05 -7.854273462726268917e-06 -1.869996413006447256e-05 -2.223129013145808131e-05
1.770000000000000000e+03 2.234199142456054688e+01 -2.316690444946289062e+00 7.802720574545674026e-06 -2.027062146225944161e-05 -3.740370402738335542e-06 4.705202081822790205e-05
1.771000000000000000e+03 2.124178886413574219e+01 -2.277001142501831055e+00 1.333251566393300891e-05 -1.233611055795336142e-05 2.989214351600821828e-07 4.515832915785722435e-05
1.772000000000000000e+03 2.185813140869140625e+01 -2.874218702316284180e+00 7.749033829895779490e-05 -1.115758186642779037e-05 1.989982774830423295e-05 -5.242520273895934224e-05
1.773000000000000000e+03 1.930277252197265625e+01 -6.088588833808898926e-01 1.390227844240143895e-04 -3.612200089264661074e-05 3.087023287662304938e-05 -6.743331323377788067e-05
1.774000000000000000e+03 2.586216926574707031e+01 -9.336821556091308594e+00 1.004008208838058636e-05 1.016372380036045797e-06 3.316936272312887013e-06 -1.284041718463413417e-05
1.775000000000000000e+03 8.210906982421875000e+00 -3.608850717544555664e+00 -8.654604607727378607e-05 -2.978963675559498370e-05 -3.490070230327546597e-05 -5.409271034295670688e-05
1.776000000000000000e+03 7.982820510864257812e+00 -5.297401428222656250e+00 -9.875102114165201783e-05 -4.393817289383150637e-05 -4.280675784684717655e-05 -8.054402132984250784e-05
1.777000000000000000e+03 5.255555152893066406e+00 -3.523423910140991211e+00 -7.260950224008411169e-05 6.048225986887700856e-05 -3.638174121078918688e-06 -9.042722376761958003e-05
1.778000000000000000e+03 6.460488796234130859e+00 -5.115168571472167969e+00 -1.561330718686804175e-04 -1.275862268812488765e-05 -5.066750600235536695e-05 -9.613375732442364097e-05
1.779000000000000000e+03 4.207191944122314453e+00 -6.445342063903808594e+00 -2.112745569320395589e-04 -3.463912798906676471e-05 -7.377410656772553921e-05 -2.008313640544656664e-05
1.780000000000000000e+03 3.086262464523315430e+00 -6.236142635345458984e+00 1.905362732941284776e-04 2.675426185305695981e-05 6.518715963466092944e-05 5.078778849565424025e-05
1.781000000000000000e+03 6.447360229492187500e+01 -1.709439849853515625e+01 7.444131970405578613e-01 1.149216651916503906e+00 5.680889487266540527e-01 1.356285333633422852e+00
1.782000000000000000e+03 6.611065673828125000e+01 -1.769651222229003906e+01 3.851214349269866943e-01 5.400429368019104004e-01 2.775492966175079346e-01 1.018522739410400391e+00
1.783000000000000000e+03 4.643518447875976562e+01 -1.659210968017578125e+01 -6.291319732554256916e-05 1.205182343255728483e-05 -1.525841344118816778e-05 8.298051739075162914e-07
1.784000000000000000e+03 4.559465408325195312e+01 -1.669824600219726562e+01 5.918166061746887863e-05 -6.220487193786539137e-06 1.588835220900364220e-05 3.710143573698587716e-06
1.785000000000000000e+03 5.639220809936523438e+01 -2.221279907226562500e+01 -6.726147532463073730e-01 1.494537591934204102e+00 2.465768307447433472e-01 8.190745115280151367e-01
1.786000000000000000e+03 5.785753631591796875e+01 -2.343531036376953125e+01 4.172222614288330078e-01 2.519584894180297852e+00 8.810421824455261230e-01 1.506705045700073242e+00
1.787000000000000000e+03 2.766411399841308594e+01 -1.091303062438964844e+01 1.575489477545488626e-05 5.116659849591087550e-06 6.261466296564321965e-06 -1.170504310721298680e-05
1.788000000000000000e+03 2.725688552856445312e+01 -1.023353672027587891e+01 -2.150530053768306971e-05 -2.563814632594585419e-06 -7.220734460133826360e-06 2.290558040840551257e-05
1.789000000000000000e+03 4.223404312133789062e+01 -1.811689567565917969e+01 -4.280826033209450543e-05 -9.266753295378293842e-06 -1.562250326969660819e-05 -1.354029336653184146e-05
1.790000000000000000e+03 1.294895458221435547e+01 3.479880809783935547e+00 -9.602924365026410669e-06 3.315692811156623065e-05 7.066201305860886350e-06 -3.381641727173700929e-05
1.791000000000000000e+03 1.323909568786621094e+01 2.378968477249145508e+00 6.519450835185125470e-06 4.832900958717800677e-05 1.645453812670893967e-05 -1.773383701220154762e-05
1.792000000000000000e+03 2.684622192382812500e+01 -9.552783012390136719e+00 1.838661955844145268e-05 2.101962536471546628e-06 6.146574378362856805e-06 -1.469429571443470195e-05
1.793000000000000000e+03 5.692879486083984375e+01 -2.375226974487304688e+01 3.622801303863525391e-01 2.402711629867553711e+00 8.294975161552429199e-01 1.291789293289184570e+00
1.794000000000000000e+03 5.559167098999023438e+01 -2.320402336120605469e+01 -1.306623518466949463e-01 1.532254099845886230e+00 4.204775094985961914e-01 5.985227227210998535e-01
1.795000000000000000e+03 1.070880222320556641e+01 3.221825122833251953e+00 3.585014565032906830e-05 7.037615432636812329e-05 3.186789035680703819e-05 -1.101402267522644252e-05
1.796000000000000000e+03 2.510493087768554688e+01 -6.819233894348144531e+00 2.678784585441462696e-05 -1.036529624798276927e-06 7.725395335000939667e-06 -2.138874151569325477e-05
1.797000000000000000e+03 2.462315368652343750e+01 -6.132682323455810547e+00 -3.259874814531826814e-09 -1.069443078449694440e-05 -3.209307351426105015e-06 2.698018215596675873e-05
1.798000000000000000e+03 8.725840568542480469e+00 -5.395718574523925781e+00 8.278474706457927823e-05 4.908491246169432998e-05 3.956089858547784388e-05 6.354564538924023509e-05
1.799000000000000000e+03 2.359484291076660156e+01 -4.788850307464599609e+00 9.073078217625152320e-06 -1.594595414644572884e-05 -2.061862915070378222e-06 3.281349199824035168e-05
1.800000000000000000e+03 2.303841018676757812e+01 -4.133519649505615234e+00 5.329312261892482638e-05 -4.149416326981736347e-06 1.474311193305766210e-05 -4.052037911606021225e-05
1.801000000000000000e+03 7.353569507598876953e+00 -4.371858596801757812e+00 -1.112022218876518309e-04 -1.798136509023606777e-05 -3.875507536577060819e-05 -7.647294114576652646e-05
1.802000000000000000e+03 1.764592170715332031e+01 1.466234326362609863e+00 2.040350518655031919e-04 -6.130215479061007500e-05 4.281986912246793509e-05 -6.516004214063286781e-05
1.803000000000000000e+03 1.863062667846679688e+01 -9.869349747896194458e-02 -6.650196610280545428e-06 1.863587203843053430e-05 3.595702764869201928e-06 3.902116077370010316e-05
1.804000000000000000e+03 1.794342613220214844e+01 3.891400396823883057e-01 1.664998853811994195e-04 -5.085974771645851433e-05 3.469204239081591368e-05 -6.528208905365318060e-05
1.805000000000000000e+03 1.583107662200927734e+01 1.729520916938781738e+00 -2.144741665688343346e-05 5.570102075580507517e-05 1.027608141157543287e-05 -2.210649881817516871e-06
1.806000000000000000e+03 1.511004352569580078e+01 2.154562234878540039e+00 1.744689652696251869e-04 -5.557281838264316320e-05 3.566884333849884570e-05 -4.684464875026606023e-05
1.807000000000000000e+03 2.060893249511718750e+01 -1.699056386947631836e+00 1.066920667653903365e-04 -2.204085285484325141e-05 2.539536399126518518e-05 -6.176686292747035623e-05
1.808000000000000000e+03 1.996149253845214844e+01 -1.141775369644165039e+00 5.529625923372805119e-06 -1.820512522954231827e-07 1.604272370059334207e-06 4.589676245814189315e-05
1.809000000000000000e+03 6.070212173461914062e+01 -2.053490447998046875e+01 -8.371616005897521973e-01 2.336985111236572266e+00 4.499470293521881104e-01 1.646378755569458008e+00
1.810000000000000000e+03 1.438953781127929688e+01 2.585519313812255859e+00 -1.253463051398284733e-05 5.491627234732732177e-05 1.271449218620546162e-05 -2.006820432143285871e-05
1.811000000000000000e+03 7.217707061767578125e+01 -2.104386138916015625e+01 -1.273563265800476074e+00 2.171981811523437500e+00 2.695255577564239502e-01 -9.450736641883850098e-01
1.812000000000000000e+03 1.036689853668212891e+01 -3.978166580200195312e+00 6.558621680596843362e-05 5.559187047765590250e-05 3.635342727648094296e-05 4.947778870700858533e-05
1.813000000000000000e+03 1.023878288269042969e+01 3.965063810348510742e+00 7.932038715807721019e-05 -1.400494602421531454e-05 1.959463224920909852e-05 -8.884228736860677600e-05
1.814000000000000000e+03 9.658733367919921875e+00 3.493227720260620117e+00 4.906506728730164468e-05 4.170798638369888067e-05 2.723191573750227690e-05 -1.075411637430079281e-05
1.815000000000000000e+03 5.843830871582031250e+01 -2.238603591918945312e+01 -3.696475625038146973e-01 2.254398107528686523e+00 5.654252171516418457e-01 1.586681604385375977e+00
1.816000000000000000e+03 3.132172775268554688e+01 -1.548235702514648438e+01 3.223033490939997137e-05 6.561055215570377186e-06 1.163741762866266072e-05 3.831726644420996308e-05
1.817000000000000000e+03 4.501922607421875000e+01 -2.730422973632812500e+01 -1.071460843086242676e-01 -5.926207304000854492e-01 -2.099300473928451538e-01 -6.373193264007568359e-01
1.818000000000000000e+03 6.578179168701171875e+01 -1.491661167144775391e+01 1.251501083374023438e+00 1.307294726371765137e+00 7.676387429237365723e-01 1.270386576652526855e+00
1.819000000000000000e+03 1.142660331726074219e+01 3.813661813735961914e+00 5.845150735694915056e-05 -5.387711644289083779e-05 1.372316432934894692e-06 -1.016652604448609054e-04
1.820000000000000000e+03 2.894435501098632812e+01 -1.482291698455810547e+01 2.947236134787090123e-05 1.934855845320271328e-06 9.422165021533146501e-06 3.217348421458154917e-05
1.821000000000000000e+03 3.142294502258300781e+01 -1.464655494689941406e+01 -2.857810977729968727e-05 -3.743792376553756185e-06 -9.696570486994460225e-06 -3.543162893038243055e-05
1.822000000000000000e+03 7.802689361572265625e+01 -2.457716560363769531e+01 -1.039478898048400879e+00 1.221944904327392578e+01 3.353991031646728516e+00 1.276874303817749023e+00
1.823000000000000000e+03 7.760170745849609375e+01 -2.239326477050781250e+01 -8.009681701660156250e-01 1.057647132873535156e+01 2.932650804519653320e+00 -7.499197870492935181e-02
1.824000000000000000e+03 1.268437099456787109e+01 -1.129710102081298828e+01 1.049669881467707455e-04 1.838552125263959169e-04 8.664665801916271448e-05 -3.264609767938964069e-05
1.825000000000000000e+03 8.279258728027343750e+00 -1.375598049163818359e+01 2.572545781731605530e-04 -7.318331336136907339e-05 5.522137871594168246e-05 1.047529949573799968e-04
1.826000000000000000e+03 3.010139846801757812e+01 -1.472216415405273438e+01 5.379419599194079638e-05 2.070748632831964642e-05 2.235050487797707319e-05 2.184634467994328588e-05
1.827000000000000000e+03 6.331236267089843750e+01 -1.975475883483886719e+01 -7.123751044273376465e-01 1.521550774574279785e+00 2.427527010440826416e-01 1.284242749214172363e+00
1.828000000000000000e+03 6.522182464599609375e+01 -2.001958847045898438e+01 -1.473724484443664551e+00 5.237570405006408691e-01 -2.849902510643005371e-01 1.058757066726684570e+00
1.829000000000000000e+03 4.351455688476562500e+01 -2.566701412200927734e+00 -1.115881532314233482e-04 -2.238832676084712148e-04 -1.006414240691810846e-04 -1.046957986545749009e-04
1.830000000000000000e+03 4.583950424194335938e+01 -5.562010288238525391e+00 -1.756225392455235124e-04 -1.175995712401345372e-04 -8.796663314569741488e-05 -1.007296013995073736e-04
1.831000000000000000e+03 7.832150268554687500e+01 -3.219851684570312500e+01 -5.837233066558837891e-01 1.169670486450195312e+01 3.333894252777099609e+00 -2.828230857849121094e-01
1.832000000000000000e+03 7.803725433349609375e+01 -2.954772186279296875e+01 -9.364997744560241699e-01 1.299941539764404297e+01 3.618874788284301758e+00 -1.894730806350708008e+00
1.833000000000000000e+03 6.618669891357421875e+01 -1.676227569580078125e+01 7.993335127830505371e-01 8.026136159896850586e-01 4.805841445922851562e-01 1.064095973968505859e+00
1.834000000000000000e+03 6.129245376586914062e+01 -2.102350044250488281e+01 -8.500456809997558594e-01 2.066076755523681641e+00 3.648093044757843018e-01 1.521074295043945312e+00
1.835000000000000000e+03 6.762475585937500000e+01 -1.929310989379882812e+01 -9.102708697319030762e-01 -3.538192212581634521e-01 -3.792270421981811523e-01 5.272381305694580078e-01
1.836000000000000000e+03 6.992454528808593750e+01 -3.621335983276367188e+01 2.667235024273395538e-02 5.662788152694702148e-01 1.778853535652160645e-01 -5.515097454190254211e-02
1.837000000000000000e+03 6.044814682006835938e+01 -2.184235191345214844e+01 -5.637356638908386230e-01 2.143229007720947266e+00 4.738480150699615479e-01 1.657928466796875000e+00
1.838000000000000000e+03 4.494750595092773438e+01 2.952267837524414062e+01 1.650270773097872734e-03 4.743419049191288650e-05 5.093114450573921204e-04 2.486028941348195076e-03
1.839000000000000000e+03 4.047341537475585938e+01 -1.865149497985839844e+01 -3.389648554730229080e-05 -1.715962025627959520e-05 -1.531683301436714828e-05 -1.530742702016141266e-05
1.840000000000000000e+03 6.233763122558593750e+01 -2.102743721008300781e+01 -9.840056896209716797e-01 1.600390791893005371e+00 1.849155128002166748e-01 1.292670726776123047e+00
1.841000000000000000e+03 7.160731506347656250e+01 -3.318615722656250000e+01 -9.812727570533752441e-01 1.473547935485839844e+00 1.476825773715972900e-01 7.574599236249923706e-02
1.842000000000000000e+03 7.551831817626953125e+01 -3.524425506591796875e+01 -2.022574841976165771e-01 6.956218242645263672e+00 2.026188135147094727e+00 8.471039533615112305e-01
1.843000000000000000e+03 3.344964981079101562e+01 -1.468505191802978516e+01 -5.144106398802250624e-05 -1.278584295505424961e-05 -1.926807271956931800e-05 -1.079834601114271209e-05
1.844000000000000000e+03 4.451670455932617188e+01 -2.175359725952148438e+00 1.737111160764470696e-04 2.037695667240768671e-04 1.132442048401571810e-04 1.411442790413275361e-04
1.845000000000000000e+03 6.633567047119140625e+01 -4.077078247070312500e+01 1.014511585235595703e+00 -2.786014378070831299e-01 2.207730561494827271e-01 -1.717665642499923706e-01
1.846000000000000000e+03 6.753033447265625000e+01 -3.750531768798828125e+01 2.835082411766052246e-01 -5.964002609252929688e-01 -9.386760741472244263e-02 -3.723331689834594727e-01
1.847000000000000000e+03 4.541968154907226562e+01 -4.396861553192138672e+00 1.823986967792734504e-04 1.369490200886502862e-04 9.580431651556864381e-05 1.081128866644576192e-04
1.848000000000000000e+03 4.212776947021484375e+01 2.128483295440673828e+00 1.210860718856565654e-04 1.161484688054770231e-04 7.117036147974431515e-05 1.575322967255488038e-04
1.849000000000000000e+03 6.751573944091796875e+01 -1.532751083374023438e+01 1.169395685195922852e+00 1.278568029403686523e+00 7.343891263008117676e-01 6.663706898689270020e-01
1.850000000000000000e+03 6.804258728027343750e+01 -1.095837402343750000e+01 1.025045514106750488e+00 2.809267759323120117e+00 1.150293946266174316e+00 8.635050058364868164e-01
1.851000000000000000e+03 7.226137542724609375e+01 1.117261505126953125e+01 -4.047590494155883789e-01 8.027498245239257812e+00 2.286821842193603516e+00 -6.147532165050506592e-02
1.852000000000000000e+03 4.191176605224609375e+01 4.392518997192382812e-01 8.670768147567287087e-05 1.097105850931257010e-04 5.892548142583109438e-05 1.091463564080186188e-04
1.853000000000000000e+03 4.501158142089843750e+01 -6.267167329788208008e-01 2.400986559223383665e-04 1.931548904394730926e-04 1.299760624533519149e-04 1.920100767165422440e-04
1.854000000000000000e+03 1.040303802490234375e+01 -1.324456501007080078e+01 2.221737304353155196e-05 -1.660612542764283717e-05 1.683374080130306538e-06 1.894788292702287436e-04
1.855000000000000000e+03 7.428763580322265625e+01 -2.494536972045898438e+01 3.419519066810607910e-01 3.540609598159790039e+00 1.164768457412719727e+00 -1.558368682861328125e+00
1.856000000000000000e+03 7.286025238037109375e+01 -2.247931861877441406e+01 -1.276359677314758301e+00 2.701264858245849609e+00 4.274715781211853027e-01 -8.007142543792724609e-01
1.857000000000000000e+03 4.738767242431640625e+01 -6.528907299041748047e+00 -1.969898003153502941e-04 -7.786958303768187761e-05 -8.245781646110117435e-05 -9.158301691059023142e-05
1.858000000000000000e+03 4.553077316284179688e+01 3.605061721801757812e+01 -4.191379412077367306e-04 -4.843900445848703384e-03 -1.578911556862294674e-03 2.218854846432805061e-03
1.859000000000000000e+03 4.873521423339843750e+01 -1.343427181243896484e+01 -1.593734195921570063e-04 -1.186145709652919322e-05 -5.137046537129208446e-05 -7.386203651549294591e-05
1.860000000000000000e+03 7.263053131103515625e+01 3.007257938385009766e+00 4.854863584041595459e-01 8.268752098083496094e+00 2.626271486282348633e+00 7.639346271753311157e-02
1.861000000000000000e+03 7.677040100097656250e+01 6.663722991943359375e+00 8.870000392198562622e-02 6.021446704864501953e+00 1.833043932914733887e+00 1.146573573350906372e-01
1.862000000000000000e+03 7.707754516601562500e+01 1.682138633728027344e+01 2.926999470219016075e-03 5.968593120574951172e+00 1.791455984115600586e+00 -3.098094463348388672e-02
1.863000000000000000e+03 7.598352050781250000e+01 1.275470256805419922e+01 -1.072761714458465576e-01 6.475555419921875000e+00 1.910483837127685547e+00 1.234572846442461014e-02
1.864000000000000000e+03 7.688619995117187500e+01 2.570857524871826172e+00 1.642946153879165649e-01 5.945806503295898438e+00 1.833030343055725098e+00 -1.949544697999954224e-01
1.865000000000000000e+03 7.566769409179687500e+01 -4.751049280166625977e-01 2.094519734382629395e-01 6.439105987548828125e+00 1.994567394256591797e+00 -4.887617826461791992e-01
1.866000000000000000e+03 7.701845550537109375e+01 3.965718030929565430e+00 1.575048118829727173e-01 5.877159595489501953e+00 1.810399293899536133e+00 -8.107201009988784790e-02
1.867000000000000000e+03 7.508486175537109375e+01 1.976230740547180176e+00 3.176077306270599365e-01 6.735939502716064453e+00 2.116064310073852539e+00 -2.569262683391571045e-01
1.868000000000000000e+03 7.694425201416015625e+01 5.286961555480957031e+00 1.474610865116119385e-01 5.907886028289794922e+00 1.816604018211364746e+00 3.375679627060890198e-02
1.869000000000000000e+03 7.403783416748046875e+01 1.037925243377685547e+01 -1.959652304649353027e-01 7.413192272186279297e+00 2.165168046951293945e+00 9.059990942478179932e-02
1.870000000000000000e+03 7.225993347167968750e+01 9.972659111022949219e+00 -3.085131347179412842e-01 8.209237098693847656e+00 2.370217084884643555e+00 8.692000806331634521e-02
1.871000000000000000e+03 7.601027679443359375e+01 1.159574890136718750e+01 -1.166033744812011719e-01 6.417064189910888672e+00 1.890138268470764160e+00 1.098879873752593994e-01
1.872000000000000000e+03 7.514633178710937500e+01 1.224754524230957031e+01 -1.756577193737030029e-01 6.884536266326904297e+00 2.012663602828979492e+00 4.268085956573486328e-02
1.873000000000000000e+03 7.702355194091796875e+01 2.386355018615722656e+01 1.237173303961753845e-01 6.003474712371826172e+00 1.838157653808593750e+00 2.148593813180923462e-01
1.874000000000000000e+03 7.472908782958984375e+01 1.979004096984863281e+01 1.006121188402175903e-01 6.943235397338867188e+00 2.113154172897338867e+00 1.002480648458003998e-02
1.875000000000000000e+03 7.707280731201171875e+01 1.822681236267089844e+01 3.654446825385093689e-02 5.953427791595458984e+00 1.796991705894470215e+00 -1.251342892646789551e-02
1.876000000000000000e+03 7.592488098144531250e+01 1.691438293457031250e+01 2.615131624042987823e-02 6.431781768798828125e+00 1.937379956245422363e+00 -2.741756103932857513e-02
1.877000000000000000e+03 7.562038421630859375e+01 -7.245686531066894531e+00 7.033621519804000854e-02 6.327865123748779297e+00 1.919460415840148926e+00 -6.917718648910522461e-01
1.878000000000000000e+03 7.689691162109375000e+01 -5.739618778228759766e+00 1.691668480634689331e-02 6.411230564117431641e+00 1.928444147109985352e+00 -6.209906339645385742e-01
1.879000000000000000e+03 7.191815185546875000e+01 -1.612498998641967773e+00 3.047855198383331299e-01 7.415686130523681641e+00 2.316141605377197266e+00 6.512515991926193237e-02
1.880000000000000000e+03 7.576058197021484375e+01 -4.364771842956542969e+00 3.561445698142051697e-02 6.381824970245361328e+00 1.925231814384460449e+00 -6.359057426452636719e-01
1.881000000000000000e+03 7.298994445800781250e+01 3.509214782714843750e+01 -3.918544352054595947e-01 5.543982982635498047e+00 1.545638561248779297e+00 2.126000672578811646e-01
1.882000000000000000e+03 7.137915039062500000e+01 3.488958358764648438e+01 -4.385508298873901367e-01 4.966838836669921875e+00 1.358486413955688477e+00 -5.547085031867027283e-02
1.883000000000000000e+03 7.704714202880859375e+01 2.523645019531250000e+01 1.221578344702720642e-01 6.037472724914550781e+00 1.847889184951782227e+00 3.166882097721099854e-01
1.884000000000000000e+03 7.582668304443359375e+01 2.256715393066406250e+01 1.802223771810531616e-01 6.417843818664550781e+00 1.979419827461242676e+00 1.178823262453079224e-01
1.885000000000000000e+03 7.608033752441406250e+01 -1.384830093383789062e+01 2.144854366779327393e-01 6.780531406402587891e+00 2.098505020141601562e+00 -1.155558109283447266e+00
1.886000000000000000e+03 7.720665740966796875e+01 -1.258427238464355469e+01 1.234643012285232544e-01 7.342580795288085938e+00 2.239813566207885742e+00 -8.838959932327270508e-01
1.887000000000000000e+03 7.503118133544921875e+01 -1.146909523010253906e+01 2.986651062965393066e-01 6.015773296356201172e+00 1.894331574440002441e+00 -9.422049522399902344e-01
1.888000000000000000e+03 7.707668304443359375e+01 2.789975547790527344e+01 8.487537503242492676e-02 6.177685737609863281e+00 1.878768324851989746e+00 4.792309403419494629e-01
1.889000000000000000e+03 7.606429290771484375e+01 -1.136072444915771484e+01 1.928165555000305176e-01 6.552186489105224609e+00 2.023500919342041016e+00 -9.254092574119567871e-01
1.890000000000000000e+03 7.571303558349609375e+01 -8.712311744689941406e+00 1.231894567608833313e-01 6.339189529418945312e+00 1.938713788986206055e+00 -7.478424906730651855e-01
1.891000000000000000e+03 7.701972198486328125e+01 2.923371696472167969e+01 2.754919603466987610e-02 6.282541751861572266e+00 1.893027186393737793e+00 5.256319046020507812e-01
1.892000000000000000e+03 7.689416503906250000e+01 3.178420829772949219e+01 -7.923343032598495483e-02 6.484521389007568359e+00 1.921586394309997559e+00 5.086529254913330078e-01
1.893000000000000000e+03 7.495886230468750000e+01 2.797868919372558594e+01 1.457114666700363159e-01 6.382657051086425781e+00 1.958510518074035645e+00 5.292562246322631836e-01
1.894000000000000000e+03 7.473795318603515625e+01 -2.186561775207519531e+01 -9.496957063674926758e-01 6.055533409118652344e+00 1.531751394271850586e+00 -1.377974629402160645e+00
1.895000000000000000e+03 7.492355346679687500e+01 -1.626181602478027344e+01 1.877592355012893677e-01 5.939145088195800781e+00 1.838071227073669434e+00 -1.450349211692810059e+00
1.896000000000000000e+03 7.236822509765625000e+01 3.113483428955078125e+01 -1.477348655462265015e-01 6.045351505279541016e+00 1.769284963607788086e+00 2.782436609268188477e-01
1.897000000000000000e+03 7.566729736328125000e+01 3.052915191650390625e+01 -3.880669176578521729e-02 6.323989391326904297e+00 1.885554790496826172e+00 5.903844237327575684e-01
1.898000000000000000e+03 7.603930664062500000e+01 -1.762913894653320312e+01 -3.796466812491416931e-02 7.238679885864257812e+00 2.160214662551879883e+00 -1.385487556457519531e+00
1.899000000000000000e+03 7.607776641845703125e+01 -1.511483097076416016e+01 1.765891611576080322e-01 6.926155090332031250e+00 2.130823135375976562e+00 -1.258749127388000488e+00
1.900000000000000000e+03 7.490923309326171875e+01 -1.856495666503906250e+01 -2.323152571916580200e-01 6.069201946258544922e+00 1.751065969467163086e+00 -1.529845476150512695e+00
1.901000000000000000e+03 7.397090148925781250e+01 -1.845902633666992188e+01 -2.446271926164627075e-01 4.883992671966552734e+00 1.391809582710266113e+00 -1.521918416023254395e+00
1.902000000000000000e+03 4.699240493774414062e+01 -9.215823173522949219e+00 1.435212907381355762e-04 6.530875543830916286e-05 6.264901458052918315e-05 7.356487185461446643e-05
1.903000000000000000e+03 4.785792541503906250e+01 -1.113861179351806641e+01 1.316745037911459804e-04 5.840359517605975270e-05 5.702342969016171992e-05 1.197298333863727748e-04
1.904000000000000000e+03 7.728182983398437500e+01 -3.347941589355468750e+01 -4.248779714107513428e-01 1.001148128509521484e+01 2.875980854034423828e+00 3.451830744743347168e-01
1.905000000000000000e+03 4.044110488891601562e+01 -1.617255210876464844e+01 -2.623604632390197366e-05 -3.594034524212474935e-06 -8.949024049798026681e-06 -2.378764656896237284e-05
1.906000000000000000e+03 3.783844375610351562e+01 -1.487022495269775391e+01 -3.504836422507651150e-05 -3.283948899479582906e-05 -2.036635669355746359e-05 -1.602994962013326585e-05
1.907000000000000000e+03 7.314000701904296875e+01 3.686828231811523438e+01 -3.154066801071166992e-01 5.469754695892333984e+00 1.546304464340209961e+00 1.623667776584625244e-01
1.908000000000000000e+03 7.476325225830078125e+01 -3.598757934570312500e+01 5.210768431425094604e-03 6.063950061798095703e+00 1.820748209953308105e+00 8.802505731582641602e-01
1.909000000000000000e+03 7.241295623779296875e+01 1.849570465087890625e+01 3.829487413167953491e-02 7.980120182037353516e+00 2.405524492263793945e+00 1.550570968538522720e-02
1.910000000000000000e+03 7.476229095458984375e+01 1.839299011230468750e+01 7.589145749807357788e-02 6.903703689575195312e+00 2.093878507614135742e+00 -1.370076090097427368e-02
1.911000000000000000e+03 4.287700271606445312e+01 3.398391342163085938e+01 -5.607853381661698222e-05 -2.426442923024296761e-03 -7.447564275935292244e-04 7.054673624224960804e-04
1.912000000000000000e+03 7.383567810058593750e+01 -3.614500045776367188e+01 2.085147053003311157e-01 4.993889331817626953e+00 1.560721278190612793e+00 8.321986794471740723e-01
1.913000000000000000e+03 7.361193847656250000e+01 -3.720689392089843750e+01 2.078499495983123779e-01 4.625426769256591797e+00 1.449983119964599609e+00 8.074430823326110840e-01
1.914000000000000000e+03 4.319179058074951172e+00 -1.471323871612548828e+01 -3.444779140409082174e-04 -5.091771163279190660e-05 -1.186186855193227530e-04 -1.522350976301822811e-05
1.915000000000000000e+03 4.532696723937988281e+00 2.285412025451660156e+01 -1.763897162163630128e-04 2.861033426597714424e-04 3.291408938821405172e-05 -1.385387149639427662e-04
1.916000000000000000e+03 6.403845787048339844e+00 -2.085446166992187500e+01 -5.307218525558710098e-04 -2.429974483675323427e-05 -1.665064919507130980e-04 1.132138640969060361e-04
1.917000000000000000e+03 3.064974069595336914e+00 -1.888865852355957031e+01 -3.860434517264366150e-04 -7.022998761385679245e-05 -1.368820376228541136e-04 -1.055982866091653705e-04
1.918000000000000000e+03 4.354051113128662109e+00 -1.885404205322265625e+01 3.646975092124193907e-04 1.212629795190878212e-04 1.457881444366648793e-04 5.213581607677042484e-05
1.919000000000000000e+03 5.935074329376220703e+00 -2.725151252746582031e+01 -5.798301426693797112e-04 -2.270390396006405354e-04 -2.420607634121552110e-04 -9.082340693566948175e-05
1.920000000000000000e+03 4.701487541198730469e+00 -2.262108039855957031e+01 -5.013711052015423775e-04 2.023154820562922396e-06 -1.498043857282027602e-04 -6.635087629547342658e-06
1.921000000000000000e+03 7.459965705871582031e+00 -1.715664482116699219e+01 4.239558475092053413e-04 4.223912401357665658e-05 1.398584863636642694e-04 -3.018608185811899602e-05
1.922000000000000000e+03 5.638384819030761719e+00 -1.908919525146484375e+01 -3.672040475066751242e-04 -1.366227515973150730e-04 -1.511480368208140135e-04 1.278634736081585288e-04
1.923000000000000000e+03 3.370711565017700195e+00 -2.583006095886230469e+01 5.329143023118376732e-04 1.278546405956149101e-04 1.982306857826188207e-04 3.751715485122986138e-05
1.924000000000000000e+03 6.074249267578125000e+00 -2.414182472229003906e+01 -6.561425398103892803e-04 -5.608818537439219654e-05 -2.136692055501043797e-04 1.520040386822074652e-04
1.925000000000000000e+03 5.722422599792480469e+00 -2.858558082580566406e+01 1.027747290208935738e-03 1.449834380764514208e-04 3.518192388582974672e-04 2.037491358350962400e-04
1.926000000000000000e+03 3.101131916046142578e+00 2.014253807067871094e+01 1.526101113995537162e-04 2.569750358816236258e-04 1.228755427291616797e-04 -8.937302482081577182e-05
1.927000000000000000e+03 4.816569805145263672e+00 2.580052566528320312e+01 -1.642857678234577179e-04 3.322899283375591040e-04 5.040124960942193866e-05 -1.693678350420668721e-04
1.928000000000000000e+03 3.402389764785766602e+00 2.864857673645019531e+01 1.911376893986016512e-04 4.503894597291946411e-04 1.924581447383388877e-04 -1.092929014703258872e-04
1.929000000000000000e+03 4.645034790039062500e+00 2.989664649963378906e+01 1.995723723666742444e-04 4.125303821638226509e-04 1.836308219935745001e-04 -1.242564176209270954e-04
1.930000000000000000e+03 4.194094181060791016e+00 1.722325515747070312e+01 -1.211239796248264611e-04 1.513886090833693743e-04 9.079386472876649350e-06 -1.065498508978635073e-04
1.931000000000000000e+03 4.311755657196044922e+00 2.001801490783691406e+01 -1.443676155759021640e-04 2.178307913709431887e-04 2.203895201091654599e-05 -1.152450931840576231e-04
1.932000000000000000e+03 3.999283075332641602e+00 1.310389423370361328e+01 1.316505513386800885e-04 1.220731501234695315e-04 7.611711043864488602e-05 -4.047682523378171027e-05
1.933000000000000000e+03 4.070125102996826172e+00 1.447920989990234375e+01 -1.060276408679783344e-04 1.057691115420311689e-04 -7.755691910915629705e-08 -1.038477421388961375e-04
1.934000000000000000e+03 5.805660247802734375e+00 2.272546958923339844e+01 2.215892745880410075e-04 2.537014370318502188e-04 1.425872178515419364e-04 -1.657867687754333019e-04
1.935000000000000000e+03 4.845177650451660156e+00 2.726604270935058594e+01 1.624671276658773422e-04 3.870980872306972742e-04 1.648695615585893393e-04 -1.230631023645401001e-04
1.936000000000000000e+03 4.678238868713378906e+00 2.430927276611328125e+01 1.861737691797316074e-04 3.191355499438941479e-04 1.515928015578538179e-04 -1.198365716845728457e-04
1.937000000000000000e+03 4.125579833984375000e+00 -1.042567157745361328e+01 2.520859998185187578e-04 -1.122703270084457472e-05 7.225768786156550050e-05 6.215509347384795547e-05
1.938000000000000000e+03 4.055233478546142578e+00 -9.078454017639160156e+00 -2.387567510595545173e-04 5.103156581753864884e-06 -7.009608088992536068e-05 -5.170902659301646054e-05
1.939000000000000000e+03 4.351867198944091797e+00 -1.325562191009521484e+01 3.100053581874817610e-04 -9.779594620340503752e-06 9.006772597786039114e-05 3.546971129253506660e-05
1.940000000000000000e+03 6.213897705078125000e+00 3.622098922729492188e+01 -1.855504960985854268e-04 3.739472304005175829e-04 5.651902029057964683e-05 -2.630287199281156063e-04
1.941000000000000000e+03 4.075089454650878906e+00 3.519016647338867188e+01 -1.973779144464060664e-04 5.704853683710098267e-04 1.119322478189133108e-04 -1.968288852367550135e-04
1.942000000000000000e+03 5.097815513610839844e+00 1.175292778015136719e+01 1.453678560210391879e-04 9.903338650474324822e-05 7.332037057494744658e-05 -3.012454180861823261e-05
1.943000000000000000e+03 3.480584383010864258e+00 -3.134628486633300781e+01 1.049942569807171822e-03 -1.974943734239786863e-05 3.090579411946237087e-04 2.462391566950827837e-04
1.944000000000000000e+03 4.521750450134277344e+00 -2.982467079162597656e+01 1.158750266768038273e-03 -3.813326475210487843e-05 3.361850976943969727e-04 3.206469118595123291e-04
1.945000000000000000e+03 4.230337142944335938e+00 -1.181360149383544922e+01 -2.775525208562612534e-04 1.778048863343428820e-05 -7.793161057634279132e-05 -6.079277591197751462e-05
1.946000000000000000e+03 3.928509950637817383e+00 1.176149082183837891e+01 -1.018078546621836722e-04 6.988566747168079019e-05 -9.576655429555103183e-06 -9.124206553678959608e-05
1.947000000000000000e+03 4.608876228332519531e+00 -5.477602005004882812e+00 2.528827462811022997e-04 1.779384433575614821e-06 7.639863906661048532e-05 -5.845885971211828291e-05
1.948000000000000000e+03 5.705388545989990234e+00 3.456878662109375000e+01 2.278674219269305468e-04 4.598941013682633638e-04 2.063284628093242645e-04 -3.496909994282759726e-05
1.949000000000000000e+03 4.937949180603027344e+00 3.105124855041503906e+01 -2.639859158080071211e-04 5.154599202796816826e-04 7.544219988631084561e-05 -8.880315726855769753e-05
1.950000000000000000e+03 5.643794536590576172e+00 -3.344727706909179688e+01 -7.623313576914370060e-04 4.909310373477637768e-04 -8.142009028233587742e-05 6.931407260708510876e-04
1.951000000000000000e+03 4.689351558685302734e+00 -3.103633880615234375e+01 -8.357622427865862846e-04 3.909071092493832111e-04 -1.334565458819270134e-04 4.554853512672707438e-05
1.952000000000000000e+03 3.740623950958251953e+00 -3.266471862792968750e+01 -7.468916010111570358e-04 4.383907362353056669e-04 -9.255026088794693351e-05 3.965706273447722197e-04
1.953000000000000000e+03 2.663264036178588867e+00 7.870129585266113281e+00 -1.124938571592792869e-04 4.715401883004233241e-05 -1.960195004357956350e-05 -5.176756167202256620e-05
1.954000000000000000e+03 3.752250432968139648e+00 9.211496353149414062e+00 -1.103763934224843979e-04 5.824561958434060216e-05 -1.563923251524101943e-05 -9.133328421739861369e-05
1.955000000000000000e+03 2.780501365661621094e+00 6.518678188323974609e+00 1.147799484897404909e-04 3.542255581123754382e-05 4.506075129029341042e-05 -8.394841643166728318e-06
1.956000000000000000e+03 5.650951862335205078e+00 4.575848579406738281e+00 9.877687989501282573e-05 2.659769961610436440e-05 3.761237530852667987e-05 2.482811578374821693e-05
1.957000000000000000e+03 4.236587524414062500e+00 -4.699375629425048828e+00 6.785469304304569960e-05 8.321303903358057141e-05 4.532031744020059705e-05 4.207741221762262285e-05
1.958000000000000000e+03 3.858594894409179688e+01 9.897501945495605469e+00 -7.921530632302165031e-04 1.836557930801063776e-04 -1.825491781346499920e-04 1.358030567644163966e-04
1.959000000000000000e+03 3.673849487304687500e+01 -1.597806453704833984e+01 -2.818894063238985837e-05 -1.957607128133531660e-05 -1.432950375601649284e-05 -8.936979611462447792e-06
1.960000000000000000e+03 7.267787933349609375e+01 -3.360403776168823242e+00 1.255930364131927490e-01 6.728624820709228516e+00 2.056265354156494141e+00 -2.221513688564300537e-01
1.961000000000000000e+03 1.526527023315429688e+01 -7.832338333129882812e+00 1.423873472958803177e-04 -1.109008098865160719e-05 3.938918234780430794e-05 -3.221315637347288430e-05
1.962000000000000000e+03 4.137594604492187500e+01 3.244783163070678711e+00 -7.476985047105699778e-05 -2.696633782761637121e-05 -3.052085594390518963e-05 -1.600735558895394206e-04
1.963000000000000000e+03 7.233413696289062500e+01 -1.138204187154769897e-01 4.924812018871307373e-01 7.729778289794921875e+00 2.466677904129028320e+00 -2.257196418941020966e-02
1.964000000000000000e+03 7.043799591064453125e+01 3.253253936767578125e+01 -3.595414161682128906e-01 5.128830432891845703e+00 1.430786609649658203e+00 -2.222103476524353027e-01
1.965000000000000000e+03 7.463076782226562500e+01 2.266572952270507812e+01 2.359519749879837036e-01 6.870572566986083984e+00 2.131957292556762695e+00 8.345224708318710327e-02
1.966000000000000000e+03 7.494371032714843750e+01 -1.256433391571044922e+01 3.306050896644592285e-01 5.957358837127685547e+00 1.886389136314392090e+00 -1.065629839897155762e+00
1.967000000000000000e+03 4.851819610595703125e+01 -1.505292987823486328e+01 -1.067710691131651402e-04 4.385220745461992919e-05 -1.887565849756356329e-05 -3.306416260784317274e-07
1.968000000000000000e+03 4.800837326049804688e+01 -1.195632171630859375e+01 -1.023258664645254612e-04 -7.830878894310444593e-05 -5.419039734988473356e-05 -1.084646937670186162e-04
1.969000000000000000e+03 3.846139907836914062e+01 1.314624786376953125e+01 -7.329758955165743828e-04 2.843963447958230972e-04 -1.345738710369914770e-04 1.953956816578283906e-04
1.970000000000000000e+03 3.535902786254882812e+01 2.182323074340820312e+01 1.526064705103635788e-03 -3.649115678854286671e-04 3.483459295239299536e-04 6.700552185066044331e-04
1.971000000000000000e+03 7.092287445068359375e+01 -9.718346595764160156e+00 5.398437976837158203e-01 4.422025203704833984e+00 1.488560676574707031e+00 1.555291004478931427e-02
1.972000000000000000e+03 7.278040313720703125e+01 -6.266306877136230469e+00 9.225398302078247070e-02 5.993868827819824219e+00 1.825836896896362305e+00 -2.936652302742004395e-01
1.973000000000000000e+03 7.130599975585937500e+01 -7.227216720581054688e+00 2.130979448556900024e-01 5.331050872802734375e+00 1.663244605064392090e+00 9.685087203979492188e-02
1.974000000000000000e+03 5.421650409698486328e+00 -1.723186874389648438e+01 1.689074269961565733e-04 1.031191786751151085e-04 8.160798461176455021e-05 1.459837221773341298e-05
1.975000000000000000e+03 6.052558898925781250e+00 -2.574870872497558594e+01 5.377844790928065777e-04 3.122785710729658604e-04 2.550189092289656401e-04 -7.152873149607330561e-05
1.976000000000000000e+03 3.895124816894531250e+01 2.152202796936035156e+01 2.065316773951053619e-03 -2.550560020608827472e-05 6.119433674030005932e-04 4.883542424067854881e-04
1.977000000000000000e+03 3.846180343627929688e+01 1.636967849731445312e+01 -5.967150791548192501e-04 3.279873344581574202e-04 -8.061832340899854898e-05 3.645832184702157974e-04
1.978000000000000000e+03 7.231358051300048828e+00 -1.824649238586425781e+01 -5.126896430738270283e-04 1.633468673389870673e-05 -1.489064889028668404e-04 2.217019755335059017e-05
1.979000000000000000e+03 7.593449401855468750e+01 2.668176841735839844e+01 2.036217153072357178e-01 6.306493282318115234e+00 1.953034520149230957e+00 4.495535790920257568e-01
1.980000000000000000e+03 5.248185729980468750e+01 -3.056473922729492188e+01 1.212992191314697266e+00 1.844720840454101562e+00 9.173139333724975586e-01 6.651767492294311523e-01
1.981000000000000000e+03 7.501064300537109375e+01 4.057847976684570312e+01 -8.879609405994415283e-02 6.166555881500244141e+00 1.823328018188476562e+00 1.869790107011795044e-01
1.982000000000000000e+03 4.442411422729492188e+01 3.071174049377441406e+01 2.548240125179290771e-03 -6.933023105375468731e-04 5.564813618548214436e-04 -7.242700667120516300e-05
1.983000000000000000e+03 4.623678970336914062e+01 -6.765137195587158203e+00 1.756560814101248980e-04 7.706745964242145419e-05 7.581706449855118990e-05 8.431989408563822508e-05
1.984000000000000000e+03 4.586598587036132812e+01 -2.574545669555664062e+01 -2.475474029779434204e-02 -5.747027993202209473e-01 -1.798372715711593628e-01 -8.343188166618347168e-01
1.985000000000000000e+03 4.105128479003906250e+01 2.651978302001953125e+01 6.256848573684692383e-04 -2.474953653290867805e-04 1.134568519773893058e-04 9.243739186786115170e-04
1.986000000000000000e+03 3.851801681518554688e+01 1.154163360595703125e+01 9.647542610764503479e-04 4.302541856304742396e-05 3.023339086212217808e-04 1.932584273163229227e-04
1.987000000000000000e+03 7.149224090576171875e+01 2.906766891479492188e+01 2.674883902072906494e-01 6.490582942962646484e+00 2.027421474456787109e+00 -4.227788187563419342e-03
1.988000000000000000e+03 7.457535552978515625e+01 2.414747619628906250e+01 3.220048844814300537e-01 6.777622699737548828e+00 2.129888296127319336e+00 1.543550789356231689e-01
1.989000000000000000e+03 3.703853988647460938e+01 1.802131080627441406e+01 -3.329303872305899858e-04 1.275272370548918843e-04 -6.162095087347552180e-05 2.870534663088619709e-04
1.990000000000000000e+03 7.182305145263671875e+01 3.299757385253906250e+01 -3.915254771709442139e-01 5.529718399047851562e+00 1.541457891464233398e+00 9.271447360515594482e-02
1.991000000000000000e+03 5.676649475097656250e+01 -2.500976943969726562e+01 1.244405388832092285e+00 3.017284393310546875e+00 1.278506875038146973e+00 1.604758620262145996e+00
1.992000000000000000e+03 5.762103271484375000e+01 -2.420893287658691406e+01 9.657837152481079102e-01 2.699799299240112305e+00 1.099674940109252930e+00 1.678788304328918457e+00
1.993000000000000000e+03 1.299936294555664062e+01 -3.451506042480468750e+01 1.505846856161952019e-03 6.899847649037837982e-04 6.587494863197207451e-04 2.280954038724303246e-03
1.994000000000000000e+03 3.784133529663085938e+01 -1.598296642303466797e+01 2.141887671314179897e-05 1.902502117445692420e-05 1.213316954817855731e-05 8.208623512473423034e-06
1.995000000000000000e+03 3.584725952148437500e+01 -1.290036487579345703e+01 -6.413305527530610561e-05 -1.960418012458831072e-05 -2.512117134756408632e-05 -1.914493077492807060e-05
1.996000000000000000e+03 7.405227661132812500e+01 2.779881668090820312e+01 2.707820534706115723e-01 6.532926559448242188e+00 2.041112661361694336e+00 4.173873066902160645e-01
1.997000000000000000e+03 6.113267421722412109e+00 -2.247439193725585938e+01 6.118426681496202946e-04 1.073957264452474192e-05 1.867746759671717882e-04 -1.049119018716737628e-04
1.998000000000000000e+03 7.329430389404296875e+01 1.482439899444580078e+01 1.783001469448208809e-03 7.507925033569335938e+00 2.252912282943725586e+00 -1.051159203052520752e-01
1.999000000000000000e+03 7.472955322265625000e+01 1.566677570343017578e+01 9.617855772376060486e-03 6.915799140930175781e+00 2.077625036239624023e+00 -4.316355660557746887e-02
2.000000000000000000e+03 8.928715705871582031e+00 -3.052460479736328125e+01 1.555975875817239285e-03 -3.600755881052464247e-04 3.587700775824487209e-04 6.233619060367345810e-04
2.001000000000000000e+03 8.914316177368164062e+00 -3.277033233642578125e+01 2.725340891629457474e-03 -5.874279886484146118e-04 6.413738592527806759e-04 1.233199960552155972e-03
2.002000000000000000e+03 7.405859947204589844e+00 -1.499809169769287109e+01 2.679768949747085571e-04 -1.449354022042825818e-05 7.604500569868832827e-05 6.890347867738455534e-05
2.003000000000000000e+03 4.322657108306884766e+00 -1.747742652893066406e+01 -3.597638278733938932e-04 -6.127792585175484419e-05 -1.263125304831191897e-04 -3.341094634379260242e-05
2.004000000000000000e+03 6.791791534423828125e+01 3.875888061523437500e+01 -3.287219256162643433e-02 2.702830076217651367e+00 8.009873628616333008e-01 -3.085730075836181641e-01
2.005000000000000000e+03 7.066731262207031250e+01 -3.335942459106445312e+01 -1.006119966506958008e+00 2.538502216339111328e-01 -2.256809324026107788e-01 -1.888347119092941284e-01
2.006000000000000000e+03 5.577520370483398438e+01 -2.573440742492675781e+01 1.329746007919311523e+00 3.007937431335449219e+00 1.301305055618286133e+00 1.057931065559387207e+00
2.007000000000000000e+03 5.224333190917968750e+01 4.110530471801757812e+01 3.452836722135543823e-02 -6.194970011711120605e-02 -8.226400241255760193e-03 1.665200293064117432e-02
2.008000000000000000e+03 6.304121780395507812e+01 4.117158126831054688e+01 3.601094782352447510e-01 5.848263502120971680e-01 2.834807634353637695e-01 -4.493220150470733643e-02
2.009000000000000000e+03 6.536602783203125000e+01 3.783949279785156250e+01 1.457837037742137909e-02 1.339373111724853516e+00 4.061854481697082520e-01 -3.225691020488739014e-01
2.010000000000000000e+03 7.540567016601562500e+01 3.376736450195312500e+01 -2.105582207441329956e-01 6.302812099456787109e+00 1.827676177024841309e+00 4.567379951477050781e-01
2.011000000000000000e+03 4.291710281372070312e+01 -3.616368103027343750e+01 2.305846363306045532e-01 -3.718150258064270020e-01 -4.236911609768867493e-02 1.456724107265472412e-01
2.012000000000000000e+03 4.526702880859375000e+01 -3.142098236083984375e+01 5.157227814197540283e-02 -4.771187901496887207e-01 -1.276639550924301147e-01 1.135426089167594910e-01
2.013000000000000000e+03 7.242251586914062500e+01 8.733820915222167969e+00 -2.820962108671665192e-02 8.145030975341796875e+00 2.435046195983886719e+00 1.718777120113372803e-01
2.014000000000000000e+03 3.867895126342773438e+01 1.975045585632324219e+01 -3.018038114532828331e-04 2.026315196417272091e-04 -2.975168717966880649e-05 6.169089465402066708e-04
2.015000000000000000e+03 4.257698822021484375e+01 2.901108741760253906e+01 9.899311698973178864e-04 -5.029605235904455185e-04 1.460912026232108474e-04 5.795698962174355984e-04
2.016000000000000000e+03 7.459693145751953125e+01 -2.486349868774414062e+01 3.963675796985626221e-01 4.540138721466064453e+00 1.480951905250549316e+00 -2.046969890594482422e+00
2.017000000000000000e+03 7.542813873291015625e+01 -2.528303718566894531e+01 1.208835244178771973e-01 7.727343559265136719e+00 2.354468107223510742e+00 -3.347767353057861328e+00
2.018000000000000000e+03 7.692955780029296875e+01 -2.473761940002441406e+01 -1.608828902244567871e+00 1.253077507019042969e+01 3.276583671569824219e+00 -2.526423931121826172e-01
2.019000000000000000e+03 7.491207122802734375e+01 -2.484885597229003906e+01 1.710722148418426514e-01 5.500471115112304688e+00 1.701462984085083008e+00 -2.313051462173461914e+00
2.020000000000000000e+03 7.780268859863281250e+01 -2.869223403930664062e+01 4.026657044887542725e-01 1.414739990234375000e+01 4.365019798278808594e+00 -2.600886583328247070e+00
2.021000000000000000e+03 7.694786834716796875e+01 -2.935787200927734375e+01 -1.915935397148132324e+00 1.447447967529296875e+01 3.767563104629516602e+00 -1.019206568598747253e-01
2.022000000000000000e+03 7.510411071777343750e+01 -2.955973625183105469e+01 -1.914534568786621094e-01 5.851711273193359375e+00 1.698077440261840820e+00 2.460716485977172852e+00
2.023000000000000000e+03 7.423760986328125000e+01 -2.990382957458496094e+01 -1.002751812338829041e-01 3.382117986679077148e+00 9.845528602600097656e-01 1.047958254814147949e+00
2.024000000000000000e+03 7.326113891601562500e+01 -3.120585823059082031e+01 -7.497698664665222168e-01 2.765662908554077148e+00 6.047679185867309570e-01 3.780858516693115234e-01
2.025000000000000000e+03 7.575107574462890625e+01 -3.133394432067871094e+01 -1.114891886711120605e+00 8.352762222290039062e+00 2.171360969543457031e+00 1.154957175254821777e+00
2.026000000000000000e+03 7.383472442626953125e+01 -2.498930740356445312e+01 4.122920632362365723e-01 2.272836923599243164e+00 8.055386543273925781e-01 -8.073073625564575195e-01
2.027000000000000000e+03 1.384033775329589844e+01 -6.670433998107910156e+00 3.022093508775469672e-08 -8.560145943192765117e-05 -2.567137016740161926e-05 3.928304067812860012e-05
2.028000000000000000e+03 1.268790054321289062e+01 -5.518307209014892578e+00 -2.127847801602911204e-05 -1.072436280082911253e-04 -3.855663089780136943e-05 -2.364043939451221377e-05
2.029000000000000000e+03 1.144244861602783203e+01 -5.729815483093261719e+00 3.703855327330529690e-05 6.090940587455406785e-05 2.938438774435780942e-05 6.586636300198733807e-05
2.030000000000000000e+03 1.241718673706054688e+01 -6.026687145233154297e+00 3.187898983014747500e-05 1.019303745124489069e-04 4.014280784758739173e-05 2.849409065674990416e-05
2.031000000000000000e+03 7.368080139160156250e+01 -2.984787940979003906e+01 -3.016602993011474609e-01 2.283856153488159180e+00 5.946587324142456055e-01 2.257292121648788452e-01
2.032000000000000000e+03 1.510848712921142578e+01 -7.023053646087646484e+00 8.788012928562238812e-05 3.298745650681667030e-05 3.626027319114655256e-05 -5.852076719747856259e-05
2.033000000000000000e+03 1.472984123229980469e+01 -9.180391311645507812e+00 1.641264971112832427e-04 1.175740999315166846e-05 5.276517185848206282e-05 -1.822333251766394824e-05
2.034000000000000000e+03 1.633303260803222656e+01 -7.402817249298095703e+00 -7.323620957322418690e-05 -1.326040455751353875e-05 -2.594898433017078787e-05 1.229999452334595844e-05
2.035000000000000000e+03 7.669587707519531250e+01 -2.386713790893554688e+01 -1.415861487388610840e+00 1.072903060913085938e+01 2.793950557708740234e+00 -6.582079529762268066e-01
2.036000000000000000e+03 1.552779293060302734e+01 -7.357813358306884766e+00 -1.072861705324612558e-04 5.867518211744027212e-06 -3.042559546884149313e-05 3.776994708459824324e-05
2.037000000000000000e+03 9.538201332092285156e+00 -4.660704612731933594e+00 7.956956687849014997e-05 4.615012585418298841e-05 3.771590854739770293e-05 5.070555198471993208e-05
2.038000000000000000e+03 1.083437061309814453e+01 -5.670295238494873047e+00 -6.787728489143773913e-05 -4.533626270131208003e-05 -3.396406464162282646e-05 -5.826373671879991889e-05
2.039000000000000000e+03 4.856105041503906250e+01 -2.587140083312988281e+01 2.912563979625701904e-01 -1.891921013593673706e-01 3.061928786337375641e-02 -7.104007005691528320e-01
2.040000000000000000e+03 4.899380493164062500e+01 -2.431472396850585938e+01 -9.890891611576080322e-02 -1.490147858858108521e-01 -7.437711209058761597e-02 -8.339281082153320312e-01
2.041000000000000000e+03 5.210083961486816406e+00 5.211550712585449219e+00 -3.961221955250948668e-05 3.586994580473401584e-06 -1.080756737792398781e-05 -9.027911437442526221e-05
2.042000000000000000e+03 4.504305362701416016e+00 5.913321971893310547e+00 6.904860492795705795e-05 4.104625259060412645e-05 3.302845652797259390e-05 4.066711699124425650e-05
2.043000000000000000e+03 7.775941848754882812e+00 5.390140533447265625e+00 1.777131546987220645e-05 6.800688879593508318e-06 7.371600986516568810e-06 -1.266508479602634907e-04
2.044000000000000000e+03 4.685093688964843750e+01 -2.619120597839355469e+01 1.210341677069664001e-01 -4.336887896060943604e-01 -9.379638731479644775e-02 -7.507036924362182617e-01
2.045000000000000000e+03 8.222799301147460938e+00 4.757831573486328125e+00 9.617372415959835052e-05 1.481885192333720624e-05 3.329777246108278632e-05 2.760346069408115000e-05
2.046000000000000000e+03 5.143891525268554688e+01 -2.478983116149902344e+01 3.664405643939971924e-01 4.658640921115875244e-01 2.496913969516754150e-01 -5.425574779510498047e-01
2.047000000000000000e+03 5.049571228027343750e+01 -2.408574867248535156e+01 -6.123015657067298889e-02 9.922119230031967163e-02 1.139731053262948990e-02 -7.481146454811096191e-01
2.048000000000000000e+03 2.784759521484375000e+01 -9.733137130737304688e+00 2.666545515239704400e-05 3.497622856230009347e-06 9.048922947840765119e-06 -1.605891884537413716e-05
2.049000000000000000e+03 7.128724575042724609e+00 3.947963953018188477e+00 -2.728703657339792699e-05 1.992921897908672690e-05 -2.207345005444949493e-06 -2.021908403548877686e-05
2.050000000000000000e+03 4.621161460876464844e+00 4.498733520507812500e+00 1.351049650111235678e-05 3.040428418898954988e-05 1.317443457082845271e-05 -6.633306838921271265e-06
2.051000000000000000e+03 7.269763183593750000e+01 -3.078439903259277344e+01 -9.366520047187805176e-01 1.640107989311218262e+00 2.110367864370346069e-01 -1.999432891607284546e-01
2.052000000000000000e+03 2.889025306701660156e+01 -1.297130584716796875e+01 -1.773525218595750630e-05 -8.426942258665803820e-06 -7.848658242437522858e-06 1.158268514700466767e-05
2.053000000000000000e+03 3.098634529113769531e+01 -1.268015480041503906e+01 1.340817652817349881e-05 1.486739506617595907e-06 4.468474799068644643e-06 -2.072682582365814596e-05
2.054000000000000000e+03 5.339242172241210938e+01 -2.334601402282714844e+01 -2.520393729209899902e-01 7.231996655464172363e-01 1.413480788469314575e-01 -1.837884187698364258e-01
2.055000000000000000e+03 5.131660079956054688e+01 -2.398797225952148438e+01 -5.483606085181236267e-02 2.297947555780410767e-01 5.248760804533958435e-02 -6.245721578598022461e-01
2.056000000000000000e+03 2.926947021484375000e+01 -1.364877700805664062e+01 -1.234264686900132801e-06 1.300833628192776814e-05 3.532221626301179640e-06 1.352724848402431235e-05
2.057000000000000000e+03 8.822962760925292969e+00 -4.550601005554199219e+00 -8.423739927820861340e-05 -4.222133429720997810e-05 -3.793762152781710029e-05 -6.177807517815381289e-05
2.058000000000000000e+03 9.417774200439453125e+00 -6.318405628204345703e+00 7.972860476002097130e-05 5.106513708597049117e-05 3.923812255379743874e-05 3.667765486170537770e-05
2.059000000000000000e+03 4.757650375366210938e+01 -1.506078052520751953e+01 1.077792476280592382e-04 -3.610549538279883564e-05 2.150212458218447864e-05 1.547642386867664754e-05
2.060000000000000000e+03 5.226004791259765625e+01 -2.569391059875488281e+01 8.416367173194885254e-01 9.744700789451599121e-01 5.448320508003234863e-01 -2.755783796310424805e-01
2.061000000000000000e+03 4.915778732299804688e+01 -2.502845764160156250e+01 1.502914726734161377e-01 -1.667070537805557251e-01 -4.924674052745103836e-03 -7.712508440017700195e-01
2.062000000000000000e+03 5.406815719604492188e+01 -2.325219917297363281e+01 -2.164576202630996704e-01 9.043206572532653809e-01 2.063589096069335938e-01 1.116033294238150120e-03
2.063000000000000000e+03 5.257686233520507812e+01 -2.434122276306152344e+01 2.659679949283599854e-01 7.026103138923645020e-01 2.905734777450561523e-01 -3.457960784435272217e-01
2.064000000000000000e+03 5.318137359619140625e+01 -2.391782188415527344e+01 -1.359699293971061707e-02 7.652996182441711426e-01 2.255107909440994263e-01 -2.060334980487823486e-01
2.065000000000000000e+03 4.654697036743164062e+01 -1.585429477691650391e+01 7.652256317669525743e-05 -1.458043152524624020e-05 1.858263931353576481e-05 7.927666956675238907e-06
2.066000000000000000e+03 4.727226257324218750e+01 -1.656489753723144531e+01 5.557499389396980405e-05 -2.055330878647509962e-05 1.050650553224841133e-05 -2.562864756328053772e-05
2.067000000000000000e+03 6.551323699951171875e+01 -1.668035697937011719e+01 8.801673054695129395e-01 9.036490917205810547e-01 5.351449251174926758e-01 1.192845106124877930e+00
2.068000000000000000e+03 5.448831558227539062e+01 -2.384358406066894531e+01 1.280012875795364380e-01 1.297250866889953613e+00 4.275756180286407471e-01 1.970995217561721802e-01
2.069000000000000000e+03 4.746479034423828125e+01 -1.582027339935302734e+01 -8.422317478107288480e-05 2.562848931120242923e-05 -1.757840618665795773e-05 -2.901244400277391833e-08
2.070000000000000000e+03 7.321720886230468750e+01 -2.453591156005859375e+01 -9.802559018135070801e-02 1.564841389656066895e+00 4.400447309017181396e-01 -3.042198419570922852e-01
2.071000000000000000e+03 1.592173099517822266e+01 3.333804607391357422e+00 2.272103301947936416e-04 -9.121448238147422671e-05 4.079875361640006304e-05 -5.558873817790299654e-05
2.072000000000000000e+03 2.600414848327636719e+01 -8.191650390625000000e+00 2.190889972553122789e-05 -6.267667913562036119e-07 6.384639618772780523e-06 -1.771685310814063996e-05
2.073000000000000000e+03 7.226282119750976562e+00 -5.205893516540527344e+00 1.214676085510291159e-04 3.203188680345192552e-05 4.604984860634431243e-05 9.507470531389117241e-05
2.074000000000000000e+03 5.537092971801757812e+01 -2.407570648193359375e+01 3.224203288555145264e-01 1.890831828117370605e+00 6.639756560325622559e-01 5.956507325172424316e-01
2.075000000000000000e+03 2.245753479003906250e+01 -3.493353366851806641e+00 1.404575050401035696e-05 -1.721931585052516311e-05 -9.520696266918093897e-07 3.977392771048471332e-05
2.076000000000000000e+03 6.479125213623046875e+01 -1.829208946228027344e+01 1.096778549253940582e-02 8.635616302490234375e-01 2.623588144779205322e-01 1.232171535491943359e+00
2.077000000000000000e+03 6.522264862060546875e+01 -1.898260307312011719e+01 -4.555711746215820312e-01 5.487329959869384766e-01 2.794854156672954559e-02 1.157627582550048828e+00
2.078000000000000000e+03 7.220472717285156250e+01 -3.144991493225097656e+01 -1.128713846206665039e+00 1.208393216133117676e+00 2.390379644930362701e-02 -2.100221067667007446e-01
2.079000000000000000e+03 7.176393127441406250e+01 -3.224531936645507812e+01 -1.233395218849182129e+00 1.108980417251586914e+00 -3.732440993189811707e-02 -1.943836361169815063e-01
2.080000000000000000e+03 2.171219635009765625e+01 -1.703636407852172852e+00 1.116004568757489324e-04 -1.425260325049748644e-05 2.920435690612066537e-05 -5.966566823190078139e-05
2.081000000000000000e+03 4.394921875000000000e+01 -1.616012573242187500e+01 -7.367505895672366023e-05 -3.257282287449925207e-06 -2.307970316905993968e-05 -2.472694359312299639e-05
2.082000000000000000e+03 4.126388931274414062e+01 -1.638821792602539062e+01 3.856955663650296628e-05 1.024207358568673953e-05 1.464348952140426263e-05 2.042052801698446274e-05
2.083000000000000000e+03 2.611292076110839844e+01 -7.023304462432861328e+00 3.575550363166257739e-05 -2.116242740157758817e-06 1.009177776722935960e-05 -2.082019818772096187e-05
2.084000000000000000e+03 6.609843730926513672e+00 -4.300442218780517578e+00 1.403107453370466828e-04 -2.837982719938736409e-06 4.124183033127337694e-05 7.436083251377567649e-05
2.085000000000000000e+03 5.881963729858398438e+00 -4.222883224487304688e+00 -1.355863641947507858e-04 2.974648396047996357e-06 -3.978351378464139998e-05 -5.880185199202969670e-05
2.086000000000000000e+03 5.700563907623291016e+00 -4.991740226745605469e+00 1.896226604003459215e-04 -6.219103397597791627e-06 5.502106432686559856e-05 5.631447493215091527e-05
2.087000000000000000e+03 4.982076644897460938e+00 -4.801037311553955078e+00 -7.524152169935405254e-05 -7.131230813683941960e-05 -4.396614895085804164e-05 2.507217868696898222e-05
2.088000000000000000e+03 4.219731903076171875e+01 -1.635697746276855469e+01 -5.676853470504283905e-05 -8.351430551556404680e-06 -1.953598984982818365e-05 -3.329876926727592945e-05
2.089000000000000000e+03 4.480044174194335938e+01 -1.605042457580566406e+01 6.997860327828675508e-05 2.687833386971760774e-07 2.107421641994733363e-05 1.475539465900510550e-05
2.090000000000000000e+03 4.308777618408203125e+01 -1.626809501647949219e+01 6.087197471060790122e-05 6.465205387939931825e-06 2.020115425693802536e-05 2.463743476255331188e-05
2.091000000000000000e+03 4.315097427368164062e+01 -1.536764907836914062e+01 -8.143409650074318051e-05 -3.490690914986771531e-06 -2.547743679315317422e-05 -3.277415817137807608e-05
2.092000000000000000e+03 1.367106151580810547e+01 3.028115034103393555e+00 1.581312972120940685e-04 -3.365799057064577937e-05 3.734199344762600958e-05 -4.905891182716004550e-05
2.093000000000000000e+03 3.131234550476074219e+01 -1.366678142547607422e+01 1.093440096155973151e-05 3.095834108535200357e-05 1.256782252312405035e-05 2.598828177724499255e-05
2.094000000000000000e+03 9.457551956176757812e+00 -5.496300697326660156e+00 -8.008225995581597090e-05 -4.654976874007843435e-05 -3.798960824497044086e-05 -4.974988041794858873e-05
2.095000000000000000e+03 2.516028022766113281e+01 -5.638870716094970703e+00 4.321168307797051966e-05 -7.711951610644973698e-08 1.294036883336957544e-05 -2.646782741066999733e-05
2.096000000000000000e+03 4.566177749633789062e+01 -1.594517135620117188e+01 -7.563579129055142403e-05 4.597973656927933916e-06 -2.131134533556178212e-05 -1.747511851135641336e-05
2.097000000000000000e+03 2.699248313903808594e+01 -8.385688781738281250e+00 3.197648038621991873e-05 -5.959763029750320129e-07 9.414151463715825230e-06 -1.928647725435439497e-05
2.098000000000000000e+03 1.904915046691894531e+01 5.125918388366699219e-01 1.790292735677212477e-04 -4.434595757629722357e-05 4.040499698021449149e-05 -6.975290307309478521e-05
2.099000000000000000e+03 2.295395851135253906e+01 -2.950697898864746094e+00 8.178528514690697193e-05 -4.906313733954448253e-06 2.306369060534052551e-05 -4.856244413531385362e-05
2.100000000000000000e+03 1.973583984375000000e+01 -4.483126103878021240e-03 -1.264779439225094393e-05 1.940332140293321572e-06 -3.212238880223594606e-06 4.808553421753458679e-05
2.101000000000000000e+03 1.835050201416015625e+01 1.002993464469909668e+00 -2.938111902039963752e-05 2.386075902904849499e-05 -1.656108111092180479e-06 3.493525582598522305e-05
2.102000000000000000e+03 5.658485412597656250e+01 -2.302173042297363281e+01 -9.910805523395538330e-02 2.036084413528442383e+00 5.810928940773010254e-01 9.619477391242980957e-01
2.103000000000000000e+03 2.827954292297363281e+01 -1.040690708160400391e+01 -2.881140244426205754e-05 -1.273096899012671201e-07 -8.681613508088048548e-06 2.266958472318947315e-05
2.104000000000000000e+03 2.742026329040527344e+01 -9.059980392456054688e+00 -2.630902235978282988e-05 1.236840034835040569e-06 -7.521654424635926262e-06 2.566837065387517214e-05
2.105000000000000000e+03 1.340482330322265625e+01 4.158516883850097656e+00 1.711181685095652938e-04 -4.291266304790042341e-05 3.846165418508462608e-05 -5.940298797213472426e-05
2.106000000000000000e+03 2.564587593078613281e+01 -6.330253124237060547e+00 -9.670023246144410223e-06 -5.230451733950758353e-06 -4.470142357604345307e-06 2.629991649882867932e-05
2.107000000000000000e+03 1.412856578826904297e+01 3.659413099288940430e+00 -2.494673026376403868e-05 6.047837450751103461e-05 1.065949345502303913e-05 -2.346717883483506739e-05
2.108000000000000000e+03 2.411272430419921875e+01 -4.272505283355712891e+00 5.811642040498554707e-05 -1.060098782090790337e-07 1.740312291076406837e-05 -3.658351124613545835e-05
2.109000000000000000e+03 2.354517745971679688e+01 -3.603871345520019531e+00 7.589214419567724690e-06 -2.000266431423369795e-05 -3.724034968399791978e-06 3.977899177698418498e-05
2.110000000000000000e+03 6.138900375366210938e+01 -2.018994903564453125e+01 -9.015578031539916992e-01 2.146046638488769531e+00 3.733466565608978271e-01 1.544203639030456543e+00
2.111000000000000000e+03 7.733387756347656250e+01 -2.414416122436523438e+01 -1.400532603263854980e+00 1.194999694824218750e+01 3.164839267730712891e+00 1.594701111316680908e-01
2.112000000000000000e+03 1.025589752197265625e+01 5.266405105590820312e+00 1.280168798984959722e-04 -4.929674560116836801e-06 3.692616155603900552e-05 -1.135099446401000023e-04
2.113000000000000000e+03 2.040783309936523438e+01 -5.464289784431457520e-01 1.460760395275428891e-04 -2.801232221827376634e-05 3.541911792126484215e-05 -6.809648039052262902e-05
2.114000000000000000e+03 1.551490592956542969e+01 2.751335859298706055e+00 -3.498121441225521266e-05 6.349281466100364923e-05 8.553479347028769553e-06 -1.307691036345204338e-05
2.115000000000000000e+03 1.482008361816406250e+01 3.192259073257446289e+00 1.881452189991250634e-04 -6.438528362195938826e-05 3.712798206834122539e-05 -5.304029400576837361e-05
2.116000000000000000e+03 4.754907608032226562e+01 -1.292475700378417969e+01 -1.120282831834629178e-04 -4.240222915541380644e-05 -4.632915442925877869e-05 -6.701812526443973184e-05
2.117000000000000000e+03 4.769520568847656250e+01 -1.361190319061279297e+01 1.434339355910196900e-04 2.036252681136829779e-06 4.364105916465632617e-05 6.480538286268711090e-05
2.118000000000000000e+03 7.186302185058593750e+01 -1.778976440429687500e+01 6.210196763277053833e-02 2.740797519683837891e+00 8.408698439598083496e-01 -1.285989880561828613e+00
2.119000000000000000e+03 6.709116363525390625e+01 -1.590178108215332031e+01 1.043663620948791504e+00 9.506596326828002930e-01 5.982969999313354492e-01 8.180064558982849121e-01
2.120000000000000000e+03 7.461136627197265625e+01 1.122237586975097656e+01 -1.668822616338729858e-01 7.158114910125732422e+00 2.097369909286499023e+00 9.387246519327163696e-02
2.121000000000000000e+03 7.326958465576171875e+01 1.093543815612792969e+01 -2.756536900997161865e-01 7.752536296844482422e+00 2.243064641952514648e+00 7.754988223314285278e-02
2.122000000000000000e+03 3.359462356567382812e+01 -1.363504886627197266e+01 4.569358497974462807e-05 3.060086237383075058e-05 2.288833456987049431e-05 1.521836020401678979e-05
2.123000000000000000e+03 2.964025497436523438e+01 -1.247106552124023438e+01 1.158722443506121635e-05 8.333739970112219453e-06 5.976289230602560565e-06 -1.355310450890101492e-05
2.124000000000000000e+03 6.858108520507812500e+01 -1.675286865234375000e+01 7.197905778884887695e-01 9.087193012237548828e-01 4.885529577732086182e-01 1.332850754261016846e-01
2.125000000000000000e+03 6.699474334716796875e+01 -1.474556159973144531e+01 1.223164796829223633e+00 1.371880650520324707e+00 7.785136699676513672e-01 8.744502663612365723e-01
2.126000000000000000e+03 4.521756744384765625e+01 -2.569066238403320312e+01 -1.900305598974227905e-02 -6.484503746032714844e-01 -2.002360224723815918e-01 -7.514994144439697266e-01
2.127000000000000000e+03 4.504130554199218750e+01 -2.638540458679199219e+01 -8.334892988204956055e-02 -7.260467410087585449e-01 -2.428186982870101929e-01 -7.923752069473266602e-01
2.128000000000000000e+03 7.479710388183593750e+01 2.693521690368652344e+01 2.980891168117523193e-01 6.511849403381347656e+00 2.042981624603271484e+00 4.098108112812042236e-01
2.129000000000000000e+03 7.302294921875000000e+01 2.753588294982910156e+01 3.820811510086059570e-01 6.744211673736572266e+00 2.137887954711914062e+00 2.645756900310516357e-01
2.130000000000000000e+03 5.304749298095703125e+01 -2.782619285583496094e+01 1.509945750236511230e+00 1.826982617378234863e+00 1.001078486442565918e+00 2.582350969314575195e-01
2.131000000000000000e+03 7.342328643798828125e+01 -2.016164016723632812e+01 -6.360447406768798828e-01 4.143415927886962891e+00 1.052211403846740723e+00 -1.444963693618774414e+00
2.132000000000000000e+03 1.219150352478027344e+01 3.896322011947631836e+00 1.618492387933656573e-04 2.335134922759607434e-05 5.556017640628851950e-05 -4.604822606779634953e-05
2.133000000000000000e+03 6.440026092529296875e+01 -1.902764511108398438e+01 -5.682528018951416016e-01 8.822143673896789551e-01 9.418846666812896729e-02 1.358083486557006836e+00
2.134000000000000000e+03 7.304328918457031250e+01 -2.335655784606933594e+01 -9.940840005874633789e-01 2.314166307449340820e+00 3.960246741771697998e-01 -4.516425728797912598e-01
2.135000000000000000e+03 7.420418548583984375e+01 -2.431364631652832031e+01 -1.860891841351985931e-02 4.090242385864257812e+00 1.221490025520324707e+00 -1.474015831947326660e+00
2.136000000000000000e+03 3.883563995361328125e+01 -1.597461414337158203e+01 -4.483512748265638947e-05 -1.701590554148424417e-05 -1.855531081673689187e-05 -1.321916261076694354e-05
2.137000000000000000e+03 1.270513916015625000e+01 -7.577124595642089844e+00 -1.241942482010927051e-05 -1.016690512187778950e-04 -3.422654117457568645e-05 2.797221532091498375e-05
2.138000000000000000e+03 1.129110813140869141e+01 -1.140166759490966797e+01 1.239817356690764427e-04 1.495211181463673711e-04 8.205085759982466698e-05 3.106794963514403207e-07
2.139000000000000000e+03 7.552170562744140625e+01 -1.996338844299316406e+01 -5.109742283821105957e-01 6.965960502624511719e+00 1.936495900154113770e+00 -1.386269330978393555e+00
2.140000000000000000e+03 7.394770050048828125e+01 -2.170856094360351562e+01 -1.011385083198547363e+00 4.799371242523193359e+00 1.136395931243896484e+00 -1.291197419166564941e+00
2.141000000000000000e+03 4.392538070678710938e+01 -3.614910364151000977e+00 1.356699358439072967e-04 1.847660751082003117e-04 9.613080328563228250e-05 8.446868014289066195e-05
2.142000000000000000e+03 7.262989044189453125e+01 -3.252436447143554688e+01 -8.085623979568481445e-01 2.597998142242431641e+00 5.368307828903198242e-01 4.537531733512878418e-01
2.143000000000000000e+03 7.747879791259765625e+01 -3.049901199340820312e+01 -1.649768352508544922e+00 1.230941486358642578e+01 3.197893857955932617e+00 -6.481495499610900879e-01
2.144000000000000000e+03 7.342907714843750000e+01 -3.282858276367187500e+01 -6.047598123550415039e-01 3.973861694335937500e+00 1.010730624198913574e+00 7.800113558769226074e-01
2.145000000000000000e+03 4.635852432250976562e+01 -3.250897979736328125e+01 2.292135953903198242e-01 -7.935709506273269653e-02 4.495694860816001892e-02 3.392633199691772461e-01
2.146000000000000000e+03 4.574884796142578125e+01 -2.953240776062011719e+01 9.869731217622756958e-02 -4.407071173191070557e-01 -1.026029437780380249e-01 -2.139443159103393555e-01
2.147000000000000000e+03 8.930517196655273438e+00 5.199970245361328125e+00 7.818770973244681954e-05 -7.313302035072410945e-07 2.323691478522960097e-05 -1.254230155609548092e-04
2.148000000000000000e+03 3.960564422607421875e+01 1.546747684478759766e+00 -3.408884003874845803e-05 1.158017621492035687e-04 2.451387626933865249e-05 -9.001488069770857692e-05
2.149000000000000000e+03 3.861889266967773438e+01 8.155228614807128906e+00 8.257950539700686932e-04 1.175692232209257782e-04 2.830092853400856256e-04 -2.576542647148016840e-05
2.150000000000000000e+03 3.467625427246093750e+01 -1.376849269866943359e+01 -5.281335324980318546e-05 -2.275667247886303812e-05 -2.267100717290304601e-05 -1.370782683807192370e-05
2.151000000000000000e+03 3.454386901855468750e+01 -1.479542541503906250e+01 2.979318924190010875e-05 2.192930514866020530e-05 1.551674904476385564e-05 1.116991188609972596e-05
2.152000000000000000e+03 5.147407531738281250e+01 -2.987262344360351562e+01 1.317241430282592773e+00 1.251742839813232422e+00 7.706952691078186035e-01 4.812413454055786133e-01
2.153000000000000000e+03 7.301842498779296875e+01 -2.156242370605468750e+01 -1.095629572868347168e+00 3.242190837860107422e+00 6.439684033393859863e-01 -1.100033164024353027e+00
2.154000000000000000e+03 1.168801307678222656e+01 -1.062985229492187500e+01 -1.417009625583887100e-04 -1.433742872904986143e-04 -8.552257349947467446e-05 -1.741194500937126577e-05
2.155000000000000000e+03 4.987257385253906250e+01 -2.488777542114257812e+01 1.767055392265319824e-01 5.642477050423622131e-02 6.993909180164337158e-02 -7.173885107040405273e-01
2.156000000000000000e+03 6.709082031250000000e+01 -1.250247955322265625e+01 1.232381463050842285e+00 2.124073505401611328e+00 1.006936550140380859e+00 9.462257623672485352e-01
2.157000000000000000e+03 6.769593811035156250e+01 -1.405538463592529297e+01 1.257930994033813477e+00 1.758463501930236816e+00 9.049183726310729980e-01 6.706113815307617188e-01
2.158000000000000000e+03 6.879048156738281250e+01 -1.889760589599609375e+01 -4.447274804115295410e-01 -1.566533595323562622e-01 -1.804142445325851440e-01 2.871785499155521393e-02
2.159000000000000000e+03 7.800872802734375000e+01 -3.116728019714355469e+01 -8.840640187263488770e-01 1.180646896362304688e+01 3.276721477508544922e+00 -6.677563190460205078e-01
2.160000000000000000e+03 7.853926849365234375e+01 -3.037980079650878906e+01 -7.658615708351135254e-01 1.200030326843261719e+01 3.370332717895507812e+00 -1.444310307502746582e+00
2.161000000000000000e+03 3.718710708618164062e+01 1.146880912780761719e+01 -6.316230865195393562e-04 1.633983920328319073e-04 -1.404673967044800520e-04 1.843796344473958015e-04
2.162000000000000000e+03 4.653594589233398438e+01 -2.547457695007324219e+01 -2.664825692772865295e-02 -3.970040977001190186e-01 -1.270957142114639282e-01 -8.112550377845764160e-01
2.163000000000000000e+03 1.623809242248535156e+01 -1.030454254150390625e+01 -3.201642903150059283e-05 -3.403616574360057712e-05 -1.981577770493458956e-05 -6.052215030649676919e-05
2.164000000000000000e+03 4.401411437988281250e+01 -1.094881057739257812e+00 -1.529224537080153823e-04 -2.244337811134755611e-04 -1.132068646256811917e-04 -1.519241632195189595e-04
2.165000000000000000e+03 4.306546401977539062e+01 -1.544721841812133789e+00 1.086755873984657228e-04 2.095895615639165044e-04 9.547954687150195241e-05 1.083440074580721557e-04
2.166000000000000000e+03 4.639389801025390625e+01 -2.811267471313476562e+01 1.815742850303649902e-01 -3.605556488037109375e-01 -5.369440838694572449e-02 -4.608924388885498047e-01
2.167000000000000000e+03 4.168735885620117188e+01 -1.055649161338806152e+00 6.877232226543128490e-05 1.253493246622383595e-04 5.823649553349241614e-05 8.642812463222071528e-05
2.168000000000000000e+03 4.344272613525390625e+01 -2.411070838570594788e-02 1.497624034527689219e-04 1.971137971850112081e-04 1.040628558257594705e-04 1.544475380796939135e-04
2.169000000000000000e+03 4.432786941528320312e+01 -4.696970939636230469e+00 -1.381236070301383734e-04 -1.554633781779557467e-04 -8.807609265204519033e-05 -8.301522757392376661e-05
2.170000000000000000e+03 7.601482391357421875e+01 -3.425933456420898438e+01 -3.411035537719726562e-01 8.054987907409667969e+00 2.314165353775024414e+00 6.808900237083435059e-01
2.171000000000000000e+03 7.421901702880859375e+01 -3.541852951049804688e+01 -1.689257174730300903e-01 5.390535831451416016e+00 1.566483020782470703e+00 9.906418919563293457e-01
2.172000000000000000e+03 6.408964633941650391e+00 -3.486240005493164062e+01 1.156018581241369247e-03 7.010739645920693874e-04 5.571277579292654991e-04 5.960451671853661537e-04
2.173000000000000000e+03 7.127887725830078125e+01 -3.562777709960937500e+01 -7.406382355839014053e-03 2.091168165206909180e+00 6.251285076141357422e-01 3.513946831226348877e-01
2.174000000000000000e+03 7.585958099365234375e+01 2.113726043701171875e+01 1.195664629340171814e-01 6.445206165313720703e+00 1.969431757926940918e+00 6.336043775081634521e-02
2.175000000000000000e+03 8.978589057922363281e+00 -1.247050476074218750e+01 1.056544278981164098e-04 7.155437742767389864e-06 3.384295996511355042e-05 1.203175852424465120e-04
2.176000000000000000e+03 9.383846282958984375e+00 -1.355579280853271484e+01 -1.639802358113229275e-04 3.160060077789239585e-05 -3.971389014623127878e-05 -1.539242657599970698e-04
2.177000000000000000e+03 3.889596557617187500e+01 -1.487350177764892578e+01 3.283566911704838276e-05 3.250410372857004404e-05 1.960193185368552804e-05 1.609646460565272719e-05
2.178000000000000000e+03 3.674399185180664062e+01 -1.492946910858154297e+01 2.340419814572669566e-05 2.873696212191134691e-05 1.564234844408929348e-05 5.651177161780651659e-06
2.179000000000000000e+03 7.507677459716796875e+01 -2.098118782043457031e+01 -8.244462609291076660e-01 6.573721408843994141e+00 1.724782586097717285e+00 -1.350546002388000488e+00
2.180000000000000000e+03 7.094717407226562500e+01 -1.095049285888671875e+01 7.057435512542724609e-01 4.035640716552734375e+00 1.422415256500244141e+00 -1.072085127234458923e-01
2.181000000000000000e+03 6.955008697509765625e+01 -1.093451786041259766e+01 8.398200869560241699e-01 3.427345037460327148e+00 1.280149579048156738e+00 3.507511019706726074e-01
2.182000000000000000e+03 7.484293365478515625e+01 2.913206672668457031e+01 1.062223389744758606e-01 6.387225151062011719e+00 1.948034286499023438e+00 5.509732365608215332e-01
2.183000000000000000e+03 7.568352508544921875e+01 3.171894645690917969e+01 -1.244736760854721069e-01 6.334790229797363281e+00 1.863094925880432129e+00 5.722084641456604004e-01
2.184000000000000000e+03 4.541349411010742188e+01 -8.175949096679687500e+00 1.603623531991615891e-04 5.938396498095244169e-05 6.592389399884268641e-05 6.271481106523424387e-05
2.185000000000000000e+03 7.586695098876953125e+01 -2.138755035400390625e+01 -8.702881336212158203e-01 7.901038169860839844e+00 2.109225034713745117e+00 -1.155464172363281250e+00
2.186000000000000000e+03 7.589223480224609375e+01 -1.884473609924316406e+01 -2.999852299690246582e-01 7.217019557952880859e+00 2.075110197067260742e+00 -1.363894701004028320e+00
2.187000000000000000e+03 7.456191253662109375e+01 2.567817878723144531e+01 3.236077427864074707e-01 6.647455215454101562e+00 2.091318845748901367e+00 3.059869706630706787e-01
2.188000000000000000e+03 7.597346496582031250e+01 2.793211174011230469e+01 1.210028082132339478e-01 6.323733806610107422e+00 1.933421015739440918e+00 5.191860795021057129e-01
2.189000000000000000e+03 7.180519104003906250e+01 -3.415111923217773438e+01 -5.108930468559265137e-01 2.187852382659912109e+00 5.030877590179443359e-01 4.004269838333129883e-01
2.190000000000000000e+03 3.685705566406250000e+01 6.880558490753173828e+00 7.192434859462082386e-04 1.014602385112084448e-04 2.462111297063529491e-04 4.513493331614881754e-05
2.191000000000000000e+03 4.121818542480468750e+01 1.427413344383239746e+00 -6.378807302098721266e-05 -2.625366687425412238e-05 -2.701252196857240051e-05 -1.000712363747879863e-04
2.192000000000000000e+03 5.616685104370117188e+01 -2.439695739746093750e+01 6.272479295730590820e-01 2.443759679794311523e+00 9.213023185729980469e-01 9.865590929985046387e-01
2.193000000000000000e+03 4.441106414794921875e+01 -9.434882164001464844e+00 1.506062399130314589e-04 5.909090032218955457e-05 6.290914461715146899e-05 6.122526974650099874e-05
2.194000000000000000e+03 7.489322662353515625e+01 -1.377147483825683594e+01 3.375634253025054932e-01 5.899761676788330078e+00 1.871197581291198730e+00 -1.186686277389526367e+00
2.195000000000000000e+03 7.609146118164062500e+01 -1.259904193878173828e+01 2.199712395668029785e-01 6.670290946960449219e+00 2.067078590393066406e+00 -1.032844781875610352e+00
2.196000000000000000e+03 7.580746459960937500e+01 2.399966239929199219e+01 2.127412855625152588e-01 6.380975723266601562e+00 1.978115081787109375e+00 2.322686463594436646e-01
2.197000000000000000e+03 7.468399810791015625e+01 2.121693229675292969e+01 1.675646901130676270e-01 6.909098625183105469e+00 2.122998952865600586e+00 2.291206270456314087e-02
2.198000000000000000e+03 7.446911621093750000e+01 -7.485363960266113281e+00 1.051168143749237061e-01 6.119326114654541016e+00 1.867332935333251953e+00 -6.438050866127014160e-01
2.199000000000000000e+03 7.562411499023437500e+01 -5.769984245300292969e+00 4.019340872764587402e-02 6.340768814086914062e+00 1.914288640022277832e+00 -6.559500694274902344e-01
2.200000000000000000e+03 7.412033081054687500e+01 1.304886054992675781e+01 -1.752829849720001221e-01 7.236373901367187500e+00 2.118327379226684570e+00 -3.137170150876045227e-02
2.201000000000000000e+03 7.591850280761718750e+01 1.830994033813476562e+01 3.976453095674514771e-02 6.448065757751464844e+00 1.946349024772644043e+00 -1.710325665771961212e-02
2.202000000000000000e+03 7.522005462646484375e+01 7.962671279907226562e+00 5.987473577260971069e-02 6.845821857452392578e+00 2.071708917617797852e+00 1.790873259305953979e-01
2.203000000000000000e+03 7.579539489746093750e+01 2.791638374328613281e+00 2.895503640174865723e-01 6.413471221923828125e+00 2.010906457901000977e+00 -1.906893104314804077e-01
2.204000000000000000e+03 7.598558807373046875e+01 3.966411352157592773e+00 2.086904346942901611e-01 6.309756278991699219e+00 1.955533981323242188e+00 -5.535734072327613831e-02
2.205000000000000000e+03 7.424047088623046875e+01 4.021975100040435791e-01 4.131100773811340332e-01 7.054340839385986328e+00 2.240235328674316406e+00 -3.117619156837463379e-01
2.206000000000000000e+03 7.549768829345703125e+01 8.460471034049987793e-01 3.150095343589782715e-01 6.553791999816894531e+00 2.060640335083007812e+00 -3.608336448669433594e-01
2.207000000000000000e+03 7.396238708496093750e+01 4.498659610748291016e+00 3.944456875324249268e-01 7.483184814453125000e+00 2.363289117813110352e+00 2.075951546430587769e-02
2.208000000000000000e+03 7.505461120605468750e+01 4.235126972198486328e+00 3.174552917480468750e-01 6.902211666107177734e+00 2.165899991989135742e+00 -2.356725744903087616e-02
2.209000000000000000e+03 7.589309692382812500e+01 1.971555709838867188e+01 8.949259668588638306e-02 6.433701515197753906e+00 1.956958293914794922e+00 1.134058739989995956e-02
2.210000000000000000e+03 7.577593994140625000e+01 -3.064090490341186523e+00 9.154734015464782715e-02 6.385852336883544922e+00 1.943219900131225586e+00 -6.161644458770751953e-01
2.211000000000000000e+03 7.321488952636718750e+01 -5.097607612609863281e+00 6.250210106372833252e-02 6.318691253662109375e+00 1.914358019828796387e+00 -3.639905750751495361e-01
2.212000000000000000e+03 7.362109375000000000e+01 1.191987419128417969e+01 -2.687103152275085449e-01 7.560464382171630859e+00 2.187526226043701172e+00 -3.920098394155502319e-02
2.213000000000000000e+03 7.587651824951171875e+01 -1.008780097961425781e+01 1.722491681575775146e-01 6.410539627075195312e+00 1.974836587905883789e+00 -8.233147263526916504e-01
2.214000000000000000e+03 7.321826934814453125e+01 -9.656964302062988281e+00 3.514822721481323242e-01 5.342736244201660156e+00 1.708265542984008789e+00 -5.567705035209655762e-01
2.215000000000000000e+03 7.443218231201171875e+01 3.024870491027832031e+01 -1.477133482694625854e-02 6.333921432495117188e+00 1.895744919776916504e+00 5.596982240676879883e-01
2.216000000000000000e+03 7.345234680175781250e+01 -4.922168850898742676e-01 3.785325288772583008e-01 7.227494239807128906e+00 2.281808137893676758e+00 -2.931344509124755859e-01
2.217000000000000000e+03 7.607625579833984375e+01 -1.637902832031250000e+01 8.882164210081100464e-02 7.087124347686767578e+00 2.152783870697021484e+00 -1.339626431465148926e+00
2.218000000000000000e+03 4.570056915283203125e+01 -1.057131767272949219e+01 1.770805974956601858e-04 6.334246791084297001e-06 5.502445492311380804e-05 5.837785283802077174e-05
2.219000000000000000e+03 4.750470733642578125e+01 -1.026946735382080078e+01 -1.145296337199397385e-04 -4.845643707085400820e-05 -4.889582123723812401e-05 -9.197690815199166536e-05
2.220000000000000000e+03 7.567809295654296875e+01 3.275403976440429688e+01 -1.747436970472335815e-01 6.300943851470947266e+00 1.837860107421875000e+00 5.249273180961608887e-01
2.221000000000000000e+03 6.885371208190917969e+00 3.091593170166015625e+01 -1.339659356744959950e-04 4.708034393843263388e-04 1.010512569337151945e-04 -1.023443401209078729e-04
2.222000000000000000e+03 4.545812129974365234e+00 -2.854677200317382812e+01 -6.741551333107054234e-04 1.825072104111313820e-05 -1.967713324120268226e-04 -1.577635703142732382e-04
2.223000000000000000e+03 7.489281463623046875e+01 -1.502255344390869141e+01 2.902668416500091553e-01 5.874185085296630859e+00 1.849335670471191406e+00 -1.324297189712524414e+00
2.224000000000000000e+03 3.825564575195312500e+01 6.477080821990966797e+00 -6.611357675865292549e-04 1.488101952418219298e-05 -1.938764326041564345e-04 2.747818361967802048e-04
2.225000000000000000e+03 7.387725067138671875e+01 -1.740101051330566406e+01 4.619237035512924194e-02 4.854550361633300781e+00 1.470222830772399902e+00 -1.521550416946411133e+00
2.226000000000000000e+03 7.361519622802734375e+01 1.712379264831542969e+01 6.531724333763122559e-02 7.362071514129638672e+00 2.228216648101806641e+00 -1.008215732872486115e-02
2.227000000000000000e+03 4.745557308197021484e+00 2.864429855346679688e+01 -1.764182234182953835e-04 4.346813366282731295e-04 7.747893687337636948e-05 -1.702965237200260162e-04
2.228000000000000000e+03 6.076038360595703125e+00 2.888517761230468750e+01 4.236963650328107178e-05 4.105303378310054541e-04 1.358699955744668841e-04 -6.959553138585761189e-05
2.229000000000000000e+03 5.440724849700927734e+00 -1.167724418640136719e+01 2.078461402561515570e-04 3.165642510793986730e-06 6.330353789962828159e-05 8.292470010928809643e-05
2.230000000000000000e+03 5.282393932342529297e+00 -1.034301567077636719e+01 -2.076695382129400969e-04 4.187976173852803186e-06 -6.104446947574615479e-05 -7.007132808212190866e-05
2.231000000000000000e+03 6.013278961181640625e+00 2.417471694946289062e+01 -2.261446352349594235e-04 2.950701746158301830e-04 2.067766399704851210e-05 -1.688241027295589447e-04
2.232000000000000000e+03 6.353360652923583984e+00 -1.508438301086425781e+01 -1.668042677920311689e-04 -1.036048051901161671e-04 -8.112272189464420080e-05 -7.233578799059614539e-05
2.233000000000000000e+03 5.405250072479248047e+00 -1.492556476593017578e+01 2.502522838767617941e-04 1.692642254056409001e-04 1.258549455087631941e-04 -9.266244160244241357e-05
2.234000000000000000e+03 4.508263397216796875e+01 -6.980898857116699219e+00 -1.505796390119940042e-04 -9.227901318809017539e-05 -7.285759784281253815e-05 -7.548870780738070607e-05
2.235000000000000000e+03 4.638808250427246094e+00 -2.719451713562011719e+01 6.745180580765008926e-04 2.252971898997202516e-04 2.699445758480578661e-04 1.026554818963631988e-04
2.236000000000000000e+03 4.136955261230468750e+00 1.585732746124267578e+01 1.400073233526200056e-04 1.720332948025316000e-04 9.361218690173700452e-05 -6.893946556374430656e-05
2.237000000000000000e+03 5.441487312316894531e+00 1.853281974792480469e+01 -1.228578621521592140e-04 1.522166712675243616e-04 8.807642188912723213e-06 -1.278274576179683208e-04
2.238000000000000000e+03 5.397114753723144531e+00 1.715793800354003906e+01 1.483930973336100578e-04 1.925735559780150652e-04 1.022899959934875369e-04 -1.022304131765849888e-04
2.239000000000000000e+03 4.407565116882324219e+00 2.143117332458496094e+01 1.816683070501312613e-04 2.602748863864690065e-04 1.325829507550224662e-04 -1.229227491421625018e-04
2.240000000000000000e+03 3.704709243774414062e+01 1.630808067321777344e+01 1.278557581827044487e-03 -4.783946133102290332e-05 3.692154423333704472e-04 4.550646699499338865e-04
2.241000000000000000e+03 3.707813262939453125e+01 1.466105937957763672e+01 -5.304868100211024284e-04 1.966507406905293465e-04 -1.001508207991719246e-04 2.273534628329798579e-04
2.242000000000000000e+03 6.316737651824951172e+00 2.574232864379882812e+01 2.427229483146220446e-04 2.806637494359165430e-04 1.570160093251615763e-04 -1.300146104767918587e-04
2.243000000000000000e+03 5.246156215667724609e+00 1.443280792236328125e+01 1.402017369400709867e-04 1.445626257918775082e-04 8.542931027477607131e-05 -5.915760266361758113e-05
2.244000000000000000e+03 7.153756141662597656e+00 -1.390583705902099609e+01 -2.859648957382887602e-04 9.343410056317225099e-05 -5.775923636974766850e-05 -1.073873645509593189e-04
2.245000000000000000e+03 5.943120479583740234e+00 3.220195007324218750e+01 1.583377452334389091e-04 3.981512272730469704e-04 1.669467019382864237e-04 -2.386953856330364943e-04
2.246000000000000000e+03 4.846894264221191406e+00 3.327757263183593750e+01 -2.383813116466626525e-04 5.824099644087255001e-04 1.032085929182358086e-04 -5.883143603568896651e-05
2.247000000000000000e+03 5.622769355773925781e+00 2.131716537475585938e+01 -1.690750068519264460e-04 2.248480886919423938e-04 1.673192309681326151e-05 -1.451156131224706769e-04
2.248000000000000000e+03 5.082136154174804688e+00 -3.221342086791992188e+01 1.487835310399532318e-03 -9.198034240398555994e-05 4.187564773019403219e-04 5.047023878432810307e-04
2.249000000000000000e+03 7.155056953430175781e+00 -3.066720771789550781e+01 1.219810568727552891e-03 -2.561478468123823404e-04 2.890988253057003021e-04 7.129262085072696209e-04
2.250000000000000000e+03 9.503067016601562500e+00 -3.652963638305664062e+01 3.467774076852947474e-04 1.586933503858745098e-03 5.801132647320628166e-04 1.196617144159972668e-03
2.251000000000000000e+03 3.852734088897705078e+00 1.045596313476562500e+01 1.226379390573129058e-04 8.562683069612830877e-05 6.247942656045779586e-05 -1.329042243014555424e-05
2.252000000000000000e+03 5.055316448211669922e+00 1.042178249359130859e+01 -1.021127827698364854e-04 5.008381049265153706e-05 -1.560868986416608095e-05 -1.039765411405824125e-04
2.253000000000000000e+03 6.050630092620849609e+00 -1.416109561920166016e+01 9.716615750221535563e-05 -9.032132948050275445e-05 2.053449179584276862e-06 2.121661527780815959e-04
2.254000000000000000e+03 6.849466800689697266e+00 -1.278127765655517578e+01 2.603476750664412975e-04 -6.246397970244288445e-05 5.936510569881647825e-05 7.489406561944633722e-05
2.255000000000000000e+03 5.791947841644287109e+00 8.769535064697265625e+00 -2.264558861497789621e-05 7.878924952819943428e-05 1.684309791016858071e-05 -4.101219383301213384e-05
2.256000000000000000e+03 4.607440471649169922e+00 8.129474639892578125e+00 -1.002621429506689310e-04 5.007145955460146070e-05 -1.505720410932553932e-05 -7.772156095597893000e-05
2.257000000000000000e+03 4.859669685363769531e+00 9.174997329711914062e+00 1.497228513471782207e-04 4.148757943767122924e-05 5.736312959925271571e-05 -2.754684101091697812e-05
2.258000000000000000e+03 5.223012447357177734e+00 -6.741039276123046875e+00 1.812254777178168297e-04 4.168724626651965082e-05 6.687382119707763195e-05 7.995554915396496654e-05
2.259000000000000000e+03 5.118122577667236328e+00 -7.852463245391845703e+00 -1.783211919246241450e-04 -2.967238651763182133e-05 -6.239807407837361097e-05 -6.811771891079843044e-05
2.260000000000000000e+03 6.108029842376708984e+00 -7.889777660369873047e+00 1.303544850088655949e-04 5.285188672132790089e-05 5.496191079146228731e-05 1.112010722863487899e-04
2.261000000000000000e+03 7.148618316650390625e+01 -3.026431560516357422e+00 1.586689352989196777e-01 6.927648067474365234e+00 2.125895023345947266e+00 2.282520383596420288e-01
2.262000000000000000e+03 7.638935852050781250e+01 -3.333955764770507812e+01 -6.394998431205749512e-01 8.845973014831542969e+00 2.461941719055175781e+00 6.898927688598632812e-01
2.263000000000000000e+03 7.245427703857421875e+01 -3.321453475952148438e+01 -6.839235424995422363e-01 2.615951299667358398e+00 5.796083211898803711e-01 5.073288679122924805e-01
2.264000000000000000e+03 7.361678314208984375e+01 1.587736797332763672e+01 4.906732123345136642e-03 7.384156227111816406e+00 2.216718912124633789e+00 -4.182937368750572205e-02
2.265000000000000000e+03 4.253659057617187500e+01 3.604079437255859375e+01 -2.230656100437045097e-03 -2.384598599746823311e-03 -1.384576433338224888e-03 -2.016285667195916176e-03
2.266000000000000000e+03 4.297820281982421875e+01 3.235844802856445312e+01 5.698474124073982239e-04 -1.447323826141655445e-03 -2.632429241202771664e-04 -1.092381658963859081e-03
2.267000000000000000e+03 4.677257156372070312e+01 -1.306911754608154297e+01 9.293360199080780149e-05 3.640249269665218890e-05 3.880082658724859357e-05 -2.639785407154704444e-06
2.268000000000000000e+03 4.724170684814453125e+01 -1.221897888183593750e+01 1.832863017625641078e-05 1.093698665499687195e-04 3.830954665318131447e-05 3.825858220807276666e-05
2.269000000000000000e+03 7.335113525390625000e+01 -8.637465476989746094e+00 2.396150529384613037e-01 5.602053642272949219e+00 1.752500653266906738e+00 -5.170992016792297363e-01
2.270000000000000000e+03 7.243221282958984375e+01 -7.413186073303222656e+00 1.942533552646636963e-01 5.602675437927246094e+00 1.739078640937805176e+00 -2.451210469007492065e-01
2.271000000000000000e+03 6.617647552490234375e+01 -1.294457626342773438e+01 1.300988316535949707e+00 1.901991486549377441e+00 9.608939290046691895e-01 1.240551590919494629e+00
2.272000000000000000e+03 4.104512786865234375e+01 2.272677421569824219e+01 2.364224754273891449e-03 3.487246867734938860e-04 8.138848352245986462e-04 7.226662128232419491e-04
2.273000000000000000e+03 5.231399917602539062e+01 -2.891223335266113281e+01 1.525811910629272461e+00 1.477028131484985352e+00 9.008520245552062988e-01 3.597530126571655273e-01
2.274000000000000000e+03 7.104732513427734375e+01 -1.219568252563476562e+01 8.048414587974548340e-01 3.713583707809448242e+00 1.355527520179748535e+00 -2.800276279449462891e-01
2.275000000000000000e+03 7.386344909667968750e+01 -6.646394252777099609e+00 9.344629943370819092e-02 6.107122421264648438e+00 1.860170602798461914e+00 -5.310432910919189453e-01
2.276000000000000000e+03 7.167326354980468750e+01 -5.976727008819580078e+00 1.283005028963088989e-01 5.830883026123046875e+00 1.787755012512207031e+00 3.686297312378883362e-02
2.277000000000000000e+03 3.869855499267578125e+01 2.583380126953125000e+01 3.389752528164535761e-04 -7.268509361892938614e-04 -1.163627021014690399e-04 6.693865871056914330e-04
2.278000000000000000e+03 6.988183593750000000e+01 -1.343688106536865234e+01 1.044735670089721680e+00 2.682789087295532227e+00 1.118257403373718262e+00 -5.627668648958206177e-02
2.279000000000000000e+03 7.891512393951416016e+00 -2.954381561279296875e+01 3.971151891164481640e-04 2.630094822961837053e-04 1.980373926926404238e-04 -2.686634543351829052e-04
2.280000000000000000e+03 7.312699890136718750e+01 -1.915568351745605469e+00 2.391871660947799683e-01 7.040625572204589844e+00 2.183943748474121094e+00 -3.001687824726104736e-01
2.281000000000000000e+03 7.337068176269531250e+01 2.423635101318359375e+01 3.902403414249420166e-01 7.207910060882568359e+00 2.279445171356201172e+00 4.635265469551086426e-02
2.282000000000000000e+03 7.118259429931640625e+01 3.905626678466796875e+01 -2.159934788942337036e-01 4.523694038391113281e+00 1.292310118675231934e+00 -4.731516540050506592e-02
2.283000000000000000e+03 3.834501647949218750e+01 -1.342388343811035156e+01 1.679577508184593171e-05 2.105928979290183634e-05 1.135651928052539006e-05 2.608428439998533577e-05
2.284000000000000000e+03 6.376723766326904297e+00 -1.706748962402343750e+01 -3.310155298095196486e-04 -8.464172424282878637e-05 -1.246971660293638706e-04 1.442561333533376455e-04
2.285000000000000000e+03 6.371784210205078125e+00 -1.608471107482910156e+01 2.169789222534745932e-04 1.496162585681304336e-04 1.099785513360984623e-04 -5.277410673443228006e-05
2.286000000000000000e+03 7.273830413818359375e+01 2.928920364379882812e+01 1.450011432170867920e-01 6.427171230316162109e+00 1.971651673316955566e+00 3.094034790992736816e-01
2.287000000000000000e+03 4.085829925537109375e+01 3.068724822998046875e+01 5.280079785734415054e-04 -1.461808336898684502e-03 -2.801401133183389902e-04 -7.412231061607599258e-04
2.288000000000000000e+03 4.102446365356445312e+01 2.887511253356933594e+01 1.966716023162007332e-03 -1.310135470703244209e-03 1.969741570064797997e-04 6.325657013803720474e-04
2.289000000000000000e+03 3.721192932128906250e+01 9.897692680358886719e+00 8.037427323870360851e-04 8.839938527671620250e-05 2.676426374819129705e-04 8.893958874978125095e-05
2.290000000000000000e+03 3.712995910644531250e+01 1.305252265930175781e+01 1.004450605250895023e-03 1.876881105999927968e-05 3.069658123422414064e-04 2.725789090618491173e-04
2.291000000000000000e+03 3.581779861450195312e+01 1.140410614013671875e+01 8.346172398887574673e-04 3.874953108606860042e-05 2.620100276544690132e-04 2.043278800556436181e-04
2.292000000000000000e+03 4.733270645141601562e+01 4.112342834472656250e+01 -1.068247482180595398e-03 -1.347522158175706863e-02 -4.363040439784526825e-03 3.642886411398649216e-03
2.293000000000000000e+03 7.439762878417968750e+01 3.504692840576171875e+01 -3.058840930461883545e-01 6.030981063842773438e+00 1.717529177665710449e+00 3.325287103652954102e-01
2.294000000000000000e+03 7.371186828613281250e+01 3.163744544982910156e+01 -1.737663000822067261e-01 6.122970104217529297e+00 1.784761071205139160e+00 4.564655721187591553e-01
2.295000000000000000e+03 4.140359497070312500e+01 3.277224349975585938e+01 1.927809789776802063e-03 -2.005328424274921417e-03 -2.325561581528745592e-05 -1.111244200728833675e-03
2.296000000000000000e+03 8.007097244262695312e+00 -3.162611579895019531e+01 -1.477463665651157498e-04 3.036354610230773687e-04 4.676672688219696283e-05 3.339991089887917042e-04
2.297000000000000000e+03 7.364199829101562500e+01 -3.065184402465820312e+01 -5.565866231918334961e-01 3.082187891006469727e+00 7.576803565025329590e-01 5.276006460189819336e-01
2.298000000000000000e+03 7.648748016357421875e+01 -2.195749664306640625e+01 -1.005324959754943848e+00 8.923366546630859375e+00 2.375412464141845703e+00 -8.631651997566223145e-01
2.299000000000000000e+03 7.510637664794921875e+01 -3.193442916870117188e+01 -7.758600711822509766e-01 6.867577552795410156e+00 1.827515363693237305e+00 1.116737484931945801e+00
2.300000000000000000e+03 7.612333679199218750e+01 -3.086368942260742188e+01 -1.351059556007385254e+00 9.650624275207519531e+00 2.489869356155395508e+00 1.071027517318725586e+00
2.301000000000000000e+03 7.553497314453125000e+01 -2.997500801086425781e+01 -9.279544353485107422e-01 8.127652168273925781e+00 2.159909248352050781e+00 2.230960369110107422e+00
2.302000000000000000e+03 7.583266448974609375e+01 -2.508648109436035156e+01 -7.679524421691894531e-01 9.900298118591308594e+00 2.739703655242919922e+00 -2.597417116165161133e+00
2.303000000000000000e+03 7.688736724853515625e+01 -2.260393524169921875e+01 -1.075147032737731934e+00 9.913750648498535156e+00 2.651581048965454102e+00 -5.391584038734436035e-01
2.304000000000000000e+03 7.703463745117187500e+01 -2.997062492370605469e+01 -1.892218947410583496e+00 1.308593750000000000e+01 3.358115434646606445e+00 -8.892898261547088623e-02
2.305000000000000000e+03 7.658559417724609375e+01 -2.522500038146972656e+01 -1.475449919700622559e+00 1.339954090118408203e+01 3.577227354049682617e+00 -1.238019585609436035e+00
2.306000000000000000e+03 1.064626884460449219e+01 -1.014035892486572266e+01 2.377196651650592685e-04 6.195635069161653519e-05 8.990280184661969543e-05 5.571305518969893456e-05
2.307000000000000000e+03 1.311367797851562500e+01 -1.038842487335205078e+01 -1.342139439657330513e-04 -1.125425696955062449e-04 -7.402695337077602744e-05 4.324032852309755981e-05
2.308000000000000000e+03 2.248555755615234375e+01 7.821474671363830566e-01 2.009368763538077474e-04 -2.102887447108514607e-05 5.397239874582737684e-05 -6.571507401531562209e-05
2.309000000000000000e+03 4.768414306640625000e+01 -2.525343513488769531e+01 4.638458415865898132e-02 -3.317543566226959229e-01 -8.561093360185623169e-02 -8.385762572288513184e-01
2.310000000000000000e+03 5.030319976806640625e+01 -2.776549339294433594e+01 9.401669502258300781e-01 4.048151671886444092e-01 4.034946560859680176e-01 -1.958701610565185547e-01
2.311000000000000000e+03 1.202660655975341797e+01 -6.320662498474121094e+00 -3.217381163267418742e-05 -5.063962362328311428e-06 -1.117133160732919350e-05 3.251246016588993371e-05
2.312000000000000000e+03 8.652152061462402344e+00 -1.149925422668457031e+01 -6.519790531456237659e-06 -7.958915375638753176e-05 -2.583268178568687290e-05 -1.137277868110686541e-04
2.313000000000000000e+03 4.744107723236083984e+00 7.316527843475341797e+00 1.042297299136407673e-04 5.058780880062840879e-05 4.644526052288711071e-05 -6.390715043380623683e-06
2.314000000000000000e+03 6.801725864410400391e+00 5.668949127197265625e+00 -6.016809493303298950e-05 3.025897785846609622e-05 -8.972735486167948693e-06 -7.798623846611008048e-05
2.315000000000000000e+03 9.603296279907226562e+00 4.587877273559570312e+00 -1.491284638177603483e-05 4.972620808985084295e-05 1.044400869432138279e-05 1.399801931256661192e-05
2.316000000000000000e+03 5.185857772827148438e+01 -2.744441795349121094e+01 1.224721431732177734e+00 9.447139501571655273e-01 6.508306264877319336e-01 -7.828175090253353119e-03
2.317000000000000000e+03 7.693545532226562500e+01 -2.324398231506347656e+01 -1.254993677139282227e+00 1.053377437591552734e+01 2.783634185791015625e+00 -4.218868017196655273e-01
2.318000000000000000e+03 3.040654754638671875e+01 -1.190765953063964844e+01 -4.117875505471602082e-05 6.384912467183312401e-06 -1.043815336743136868e-05 2.035269244515802711e-05
2.319000000000000000e+03 7.499734401702880859e+00 4.453866958618164062e+00 -9.113381565839517862e-06 2.290544216521084309e-05 4.137617906962987036e-06 -1.129363445215858519e-04
2.320000000000000000e+03 6.028951168060302734e+00 5.558551311492919922e+00 1.578726660227403045e-04 7.344418918364681304e-06 4.956512566423043609e-05 -2.264306021970696747e-05
2.321000000000000000e+03 2.986164474487304688e+01 -1.120861816406250000e+01 3.431506047490984201e-05 4.480369170778430998e-06 1.163862907560542226e-05 -9.320824574388097972e-06
2.322000000000000000e+03 4.892000961303710938e+01 -2.729919624328613281e+01 6.179388761520385742e-01 3.237503021955490112e-02 1.950941681861877441e-01 -4.291181862354278564e-01
2.323000000000000000e+03 4.935137939453125000e+01 -2.574839401245117188e+01 3.773171305656433105e-01 1.863257400691509247e-02 1.187849119305610657e-01 -6.286416649818420410e-01
2.324000000000000000e+03 2.935707855224609375e+01 -1.053015708923339844e+01 -3.725543501786887646e-05 1.123877723330224399e-06 -1.083946790458867326e-05 1.912093102873768657e-05
2.325000000000000000e+03 7.096017837524414062e+00 5.035398960113525391e+00 1.010287378448992968e-04 1.985011112992651761e-05 3.626365651143714786e-05 2.140789547411259264e-06
2.326000000000000000e+03 5.323501586914062500e+01 -2.566850280761718750e+01 9.051018357276916504e-01 1.326544761657714844e+00 6.694939732551574707e-01 2.831301186233758926e-03
2.327000000000000000e+03 5.225732040405273438e+01 -2.490875053405761719e+01 4.678095579147338867e-01 6.868585944175720215e-01 3.464004397392272949e-01 -3.454355597496032715e-01
2.328000000000000000e+03 5.016180801391601562e+01 -2.660345268249511719e+01 7.357613444328308105e-01 2.517866790294647217e-01 2.962644100189208984e-01 -3.949926197528839111e-01
2.329000000000000000e+03 7.470127105712890625e+01 -1.953597831726074219e+01 -5.092871189117431641e-01 5.831826210021972656e+00 1.596761703491210938e+00 -1.507664918899536133e+00
2.330000000000000000e+03 5.428661346435546875e+01 -2.533323097229003906e+01 8.829462528228759766e-01 1.828494429588317871e+00 8.134322166442871094e-01 3.026359677314758301e-01
2.331000000000000000e+03 5.302094650268554688e+01 -2.488708877563476562e+01 5.825298428535461426e-01 1.116327762603759766e+00 5.096572637557983398e-01 -1.431596577167510986e-01
2.332000000000000000e+03 4.668051528930664062e+01 -1.435286235809326172e+01 1.127206924138590693e-04 -7.844460014894139022e-06 3.146287053823471069e-05 4.662335413740947843e-05
2.333000000000000000e+03 4.834281921386718750e+01 -1.576533889770507812e+01 9.283408144256100059e-05 -3.493512849672697484e-05 1.736968624754808843e-05 1.089800889531034045e-06
2.334000000000000000e+03 2.888322830200195312e+01 -9.862941741943359375e+00 3.448872303124517202e-05 6.312669484032085165e-06 1.224041807290632278e-05 -1.480514310969738290e-05
2.335000000000000000e+03 4.663347244262695312e+01 -1.511003684997558594e+01 -9.592149581294506788e-05 1.703729685686994344e-05 -2.366525950492359698e-05 -3.273123365943320096e-05
2.336000000000000000e+03 3.033385086059570312e+01 -1.394624233245849609e+01 -4.033833101857453585e-05 -1.746865382301621139e-05 -1.734209581627510488e-05 3.152616045554168522e-06
2.337000000000000000e+03 3.381593704223632812e+01 -1.258783912658691406e+01 -6.598510663025081158e-05 -2.074388976325280964e-05 -2.601869891805108637e-05 -2.148984458472114056e-05
2.338000000000000000e+03 4.678693008422851562e+01 -1.366763877868652344e+01 -1.487237605033442378e-04 3.633975575212389231e-05 -3.371520142536610365e-05 -3.924632983398623765e-05
2.339000000000000000e+03 7.100124835968017578e+00 -6.052346706390380859e+00 -1.164245768450200558e-04 -5.638449874822981656e-05 -5.184272231417708099e-05 -1.099050568882375956e-04
2.340000000000000000e+03 7.009820461273193359e+00 -6.933351516723632812e+00 9.433539526071399450e-05 8.036103827180340886e-05 5.240893005975522101e-05 1.160244864877313375e-04
2.341000000000000000e+03 1.016797924041748047e+01 -5.593403816223144531e+00 7.919689960544928908e-05 4.343411637819372118e-05 3.678930443129502237e-05 4.667728353524580598e-05
2.342000000000000000e+03 6.291167259216308594e+00 -5.961077690124511719e+00 1.608112361282110214e-04 3.858185300487093627e-05 5.981792855891399086e-05 1.129026641137897968e-04
2.343000000000000000e+03 6.151543617248535156e+00 -6.876835823059082031e+00 -1.437299069948494434e-04 -5.612416498479433358e-05 -5.995621904730796814e-05 -1.130978998844511807e-04
2.344000000000000000e+03 5.140150451660156250e+01 -2.557239341735839844e+01 6.678919792175292969e-01 4.609152972698211670e-01 3.386421799659729004e-01 -4.341639280319213867e-01
2.345000000000000000e+03 5.218101501464843750e+01 -2.654722213745117188e+01 1.083186030387878418e+00 9.350798726081848145e-01 6.054797768592834473e-01 -1.789999008178710938e-01
2.346000000000000000e+03 4.033488464355468750e+01 -1.294227790832519531e+01 -3.801753337029367685e-05 -7.799783634254708886e-05 -3.480461236904375255e-05 -5.843954568263143301e-05
2.347000000000000000e+03 1.693709182739257812e+01 1.905529499053955078e+00 -4.300619912100955844e-05 5.027787483413703740e-05 2.181502622988773510e-06 1.287949271500110626e-05
2.348000000000000000e+03 1.631080436706542969e+01 3.882806539535522461e+00 -6.780510011594742537e-05 7.373411062872037292e-05 1.778703904165013228e-06 -3.775699724428704940e-06
2.349000000000000000e+03 1.732210731506347656e+01 2.529242277145385742e+00 2.372789167566224933e-04 -7.150998862925916910e-05 4.973067552782595158e-05 -6.368838512571528554e-05
2.350000000000000000e+03 2.666057968139648438e+01 -6.517401218414306641e+00 -2.109703382302541286e-05 2.179308921768097207e-06 -5.675317424902459607e-06 2.579269312263932079e-05
2.351000000000000000e+03 2.518492507934570312e+01 -4.432412624359130859e+00 6.224904791451990604e-05 1.026070208354212809e-06 1.898253503895830363e-05 -3.248384746257215738e-05
2.352000000000000000e+03 7.639630126953125000e+01 -2.447508621215820312e+01 -1.415284991264343262e+00 1.112853908538818359e+01 2.913976192474365234e+00 -1.284977674484252930e+00
2.353000000000000000e+03 1.609605216979980469e+01 -8.256063461303710938e+00 -9.234579920303076506e-05 4.533595074462937191e-06 -2.634366137499455363e-05 6.254714389797300100e-05
2.354000000000000000e+03 4.229175567626953125e+01 -1.541974258422851562e+01 6.795932858949527144e-05 4.868073119723703712e-06 2.184822005801834166e-05 3.471587115200236440e-05
2.355000000000000000e+03 1.769347381591796875e+01 3.179346084594726562e+00 -7.170192839112132788e-05 2.930380287580192089e-05 -1.271943801839370281e-05 8.790686479187570512e-06
2.356000000000000000e+03 2.283356857299804688e+01 -1.739886641502380371e+00 1.154823039541952312e-04 -8.098657417576760054e-06 3.221509541617706418e-05 -5.601875091088004410e-05
2.357000000000000000e+03 2.106680297851562500e+01 -1.112900733947753906e+00 1.319477519245992880e-06 -1.332686952082440257e-05 -3.602217702791676857e-06 5.099152986076660454e-05
2.358000000000000000e+03 8.654537200927734375e+00 -6.223693370819091797e+00 -7.328872743528336287e-05 -6.549147656187415123e-05 -4.163406265433877707e-05 -6.152266723802313209e-05
2.359000000000000000e+03 8.357449531555175781e+00 5.806936740875244141e+00 4.491073923418298364e-06 5.766246977145783603e-05 1.864606201706919819e-05 2.754274100880138576e-05
2.360000000000000000e+03 2.755190849304199219e+01 -7.871932983398437500e+00 -3.225111140636727214e-05 5.655633231071988121e-06 -7.978643225214909762e-06 2.701517223613336682e-05
2.361000000000000000e+03 2.843083953857421875e+01 -9.200749397277832031e+00 -3.444644607952795923e-05 1.846408736128068995e-06 -9.780011168913915753e-06 2.585189940873533487e-05
2.362000000000000000e+03 4.576892089843750000e+01 -1.445327186584472656e+01 -8.233623520936816931e-05 -3.320305404486134648e-05 -3.466178532107733190e-05 -8.156408148352056742e-05
2.363000000000000000e+03 4.497868728637695312e+01 -1.444480133056640625e+01 5.716598752769641578e-05 2.179912735300604254e-05 2.368953391851391643e-05 1.520865134807536379e-05
2.364000000000000000e+03 1.503979492187500000e+01 -8.454665184020996094e+00 -1.462170184822753072e-04 -7.050005024211714044e-06 -4.598010491463355720e-05 2.676781150512397289e-05
2.365000000000000000e+03 4.145845413208007812e+01 -1.539100551605224609e+01 -5.686965960194356740e-05 -1.079097364709014073e-05 -2.029819006565958261e-05 -4.223479845677502453e-05
2.366000000000000000e+03 4.446215820312500000e+01 -1.052527427673339844e+01 -1.662535069044679403e-04 -2.609586408652830869e-05 -5.770481220679357648e-05 -7.854322757339105010e-05
2.367000000000000000e+03 7.291348266601562500e+01 -3.183940887451171875e+01 -9.034030437469482422e-01 2.694878578186035156e+00 5.374426245689392090e-01 3.246550261974334717e-01
2.368000000000000000e+03 7.511682891845703125e+01 -3.312722396850585938e+01 -5.415198802947998047e-01 6.721539974212646484e+00 1.854006052017211914e+00 9.344972968101501465e-01
2.369000000000000000e+03 6.696302032470703125e+01 -1.673075485229492188e+01 7.871781587600708008e-01 6.569430828094482422e-01 4.332363903522491455e-01 8.400257229804992676e-01
2.370000000000000000e+03 6.772999572753906250e+01 -1.771280288696289062e+01 3.109245896339416504e-01 2.476406246423721313e-01 1.675695627927780151e-01 4.609815478324890137e-01
2.371000000000000000e+03 3.004922294616699219e+01 -8.666311264038085938e+00 5.018794399802573025e-05 1.744500150380190462e-05 2.028988456004299223e-05 -2.292724457220174372e-05
2.372000000000000000e+03 2.619026184082031250e+01 -5.823030471801757812e+00 5.079619222669862211e-05 -1.946375050465576351e-06 1.465494551666779444e-05 -2.337775003979913890e-05
2.373000000000000000e+03 1.230652809143066406e+01 -6.901674270629882812e+00 2.519346526241861284e-05 6.200262578204274178e-05 2.615882658574264497e-05 -1.545196209917776287e-05
2.374000000000000000e+03 1.536399459838867188e+01 -1.025274658203125000e+01 1.196902521769516170e-04 1.525911466160323471e-05 4.048481059726327658e-05 4.529201760306023061e-05
2.375000000000000000e+03 1.803956031799316406e+01 2.102252483367919922e+00 -5.228888403507880867e-05 2.897863305406644940e-05 -6.993075203354237601e-06 2.594001307443249971e-05
2.376000000000000000e+03 1.875668334960937500e+01 1.642416119575500488e+00 2.188697981182485819e-04 -5.323903315002098680e-05 4.968922803527675569e-05 -6.957231380511075258e-05
2.377000000000000000e+03 2.345782279968261719e+01 -2.390289783477783203e+00 1.777120701262902003e-06 -2.341916842851787806e-05 -6.492614375019911677e-06 4.837796223000623286e-05
2.378000000000000000e+03 2.463583374023437500e+01 -3.739754199981689453e+00 6.195791684149298817e-07 -1.829224493121728301e-05 -5.301799774315441027e-06 3.945111166103743017e-05
2.379000000000000000e+03 2.219062232971191406e+01 -1.109338045120239258e+00 -2.784739763228571974e-06 -2.239152490801643580e-05 -7.552879651484545320e-06 5.410380617831833661e-05
2.380000000000000000e+03 7.392878723144531250e+01 -2.441211891174316406e+01 -7.317017763853073120e-02 3.334652662277221680e+00 9.784447550773620605e-01 -1.121288061141967773e+00
2.381000000000000000e+03 1.398041343688964844e+01 4.804897785186767578e+00 -8.805378456600010395e-06 6.380528066074475646e-05 1.649997102504130453e-05 -7.114912023098440841e-06
2.382000000000000000e+03 3.182469749450683594e+01 -1.188777923583984375e+01 -5.805429827887564898e-05 -1.422335299139376730e-05 -2.168329592677764595e-05 1.863004399638157338e-06
2.383000000000000000e+03 7.256735992431640625e+01 -3.386448669433593750e+01 -5.715391635894775391e-01 2.996403455734252930e+00 7.274592518806457520e-01 6.367766857147216797e-01
2.384000000000000000e+03 1.465722274780273438e+01 4.271175384521484375e+00 1.832004199968650937e-04 -6.831618520664051175e-05 3.446526898187585175e-05 -7.736673433100804687e-05
2.385000000000000000e+03 2.655958366394042969e+01 -7.708919048309326172e+00 -2.092926297336816788e-05 9.073564797290600836e-07 -6.006571766192791983e-06 2.545661118347197771e-05
2.386000000000000000e+03 3.713621902465820312e+01 8.351445198059082031e+00 -5.760415224358439445e-04 -5.684084499080199748e-06 -1.745176705298945308e-04 1.501509395893663168e-04
2.387000000000000000e+03 7.594763946533203125e+01 -2.259457397460937500e+01 -1.135815024375915527e+00 8.465428352355957031e+00 2.198884010314941406e+00 -1.171021938323974609e+00
2.388000000000000000e+03 7.463095855712890625e+01 -2.374819564819335938e+01 -7.175776958465576172e-01 5.625033855438232422e+00 1.472236752510070801e+00 -1.599101185798645020e+00
2.389000000000000000e+03 7.848831176757812500e+01 -2.949833488464355469e+01 -5.014737844467163086e-01 1.198855781555175781e+01 3.446125030517578125e+00 -2.063098669052124023e+00
2.390000000000000000e+03 7.822334766387939453e+00 -6.972270011901855469e+00 -6.116533040767535567e-05 -9.314640192314982414e-05 -4.629352042684331536e-05 -8.724512008484452963e-05
2.391000000000000000e+03 1.284979820251464844e+01 -6.471312046051025391e+00 -3.968185774283483624e-05 -9.540403698338195682e-05 -4.052576696267351508e-05 9.491650416748598218e-06
2.392000000000000000e+03 1.097324180603027344e+01 4.584665775299072266e+00 3.100244430243037641e-05 4.884866575594060123e-05 2.395533374510705471e-05 -3.209257329217507504e-06
2.393000000000000000e+03 1.258980274200439453e+01 4.687938213348388672e+00 -2.877824954339303076e-05 5.187862916500307620e-05 6.930114068381953984e-06 -3.358867979841306806e-05
2.394000000000000000e+03 7.354508972167968750e+01 -3.499589920043945312e+01 -1.706259995698928833e-01 4.624559402465820312e+00 1.336179971694946289e+00 9.062731862068176270e-01
2.395000000000000000e+03 7.473767852783203125e+01 -3.473786163330078125e+01 -2.139226496219635010e-01 6.024045467376708984e+00 1.743036866188049316e+00 9.544413089752197266e-01
2.396000000000000000e+03 4.285667419433593750e+01 -3.922178268432617188e+00 -1.006829479592852294e-04 -1.819743920350447297e-04 -8.479719690512865782e-05 -4.677680408349260688e-05
2.397000000000000000e+03 4.358337402343750000e+01 -6.063673496246337891e+00 -1.265318569494411349e-04 -1.168545131804421544e-04 -7.301590812858194113e-05 -5.493979915627278388e-05
2.398000000000000000e+03 4.471633148193359375e+01 -5.818802833557128906e+00 1.532248570583760738e-04 1.115130071411840618e-04 7.942135562188923359e-05 7.122394890757277608e-05
2.399000000000000000e+03 7.732528686523437500e+01 -3.239321899414062500e+01 -8.536238074302673340e-01 1.060286712646484375e+01 2.924772977828979492e+00 1.509289890527725220e-01
2.400000000000000000e+03 7.122236633300781250e+01 -1.919270133972167969e+01 -5.485585927963256836e-01 1.628578543663024902e+00 3.240059614181518555e-01 -1.114344000816345215e+00
2.401000000000000000e+03 7.150191497802734375e+01 -1.666718482971191406e+01 4.450323283672332764e-01 2.608191490173339844e+00 9.159671664237976074e-01 -1.051930665969848633e+00
2.402000000000000000e+03 4.706560897827148438e+01 -2.698115730285644531e+01 2.049074321985244751e-01 -2.802790701389312744e-01 -2.261149510741233826e-02 -6.052601337432861328e-01
2.403000000000000000e+03 1.415155506134033203e+01 -1.092652797698974609e+01 1.725517504382878542e-04 5.036477523390203714e-05 6.687496352242305875e-05 -3.673813262139447033e-05
2.404000000000000000e+03 1.444004631042480469e+01 -9.994934082031250000e+00 -1.708258350845426321e-04 -2.186765959777403623e-05 -5.780804713140241802e-05 1.079756293620448560e-05
2.405000000000000000e+03 1.551546573638916016e+01 -9.419098854064941406e+00 -1.284035533899441361e-04 -2.084614243358373642e-05 -4.477490801946260035e-05 -2.782164665404707193e-05
2.406000000000000000e+03 1.328878021240234375e+01 5.409674644470214844e+00 1.422017521690577269e-04 -5.064513607067056000e-05 2.746698373812250793e-05 -1.120768138207495213e-04
2.407000000000000000e+03 1.176455593109130859e+01 5.397503376007080078e+00 1.257027033716440201e-04 -1.460260409658076242e-05 3.333003041916526854e-05 -7.907243707450106740e-05
2.408000000000000000e+03 6.695784759521484375e+01 -1.761381721496582031e+01 3.564197421073913574e-01 3.875052928924560547e-01 2.231775075197219849e-01 8.173161745071411133e-01
2.409000000000000000e+03 6.988689422607421875e+01 -1.856866645812988281e+01 -1.781878471374511719e-01 5.746722817420959473e-01 1.189453229308128357e-01 -5.940485596656799316e-01
2.410000000000000000e+03 4.652937698364257812e+01 -3.067634391784667969e+01 2.612738311290740967e-01 -1.630372256040573120e-01 2.947098575532436371e-02 5.986138805747032166e-02
2.411000000000000000e+03 4.865542602539062500e+01 -2.932077789306640625e+01 6.834575533866882324e-01 1.518944948911666870e-01 2.506056129932403564e-01 -3.565988689661026001e-02
2.412000000000000000e+03 4.129130554199218750e+01 -2.273199319839477539e+00 7.398992602247744799e-05 2.291884593432769179e-04 9.095351560972630978e-05 6.836585816927254200e-05
2.413000000000000000e+03 4.321820831298828125e+01 -4.976444721221923828e+00 1.257906988030299544e-04 1.397696469211950898e-04 7.966810517245903611e-05 4.051470750709995627e-05
2.414000000000000000e+03 4.066595077514648438e+01 -1.522470951080322266e+01 2.594263605715241283e-05 2.390107692917808890e-05 1.495311425969703123e-05 3.042922617169097066e-05
2.415000000000000000e+03 3.915839385986328125e+01 -1.379733657836914062e+01 -4.126496060052886605e-05 -2.835083432728424668e-05 -2.088473775074817240e-05 -3.640602517407387495e-05
2.416000000000000000e+03 4.331253433227539062e+01 -1.051547622680664062e+01 1.578623341629281640e-04 2.633418262121267617e-05 5.525895539904013276e-05 8.099768456304445863e-05
2.417000000000000000e+03 7.281538391113281250e+01 -2.043971252441406250e+01 -9.212148189544677734e-01 3.428451061248779297e+00 7.521708607673645020e-01 -1.351782917976379395e+00
2.418000000000000000e+03 4.037828445434570312e+01 6.697427630424499512e-01 6.587636016774922609e-05 -1.880963100120425224e-05 1.412001984135713428e-05 8.590981451561674476e-05
2.419000000000000000e+03 3.876521301269531250e+01 2.404449701309204102e+00 1.601143958396278322e-05 -1.173628625110723078e-04 -3.040542651433497667e-05 1.757065183483064175e-04
2.420000000000000000e+03 3.673420333862304688e+01 -1.394822502136230469e+01 -5.135747051099315286e-05 -2.428874904580879956e-05 -2.269386641273740679e-05 -8.678439371578861028e-06
2.421000000000000000e+03 7.404043579101562500e+01 -3.439013290405273438e+01 -3.419249355792999268e-01 5.097045421600341797e+00 1.426536083221435547e+00 9.966291785240173340e-01
2.422000000000000000e+03 3.109978675842285156e+01 -9.857250213623046875e+00 4.515593900578096509e-05 2.439948548271786422e-05 2.086662789224646986e-05 8.732435503588931169e-07
2.423000000000000000e+03 4.216019058227539062e+01 -1.953915715217590332e+00 -6.441226287279278040e-05 -2.080214326269924641e-04 -8.173010428436100483e-05 -8.130579954013228416e-05
2.424000000000000000e+03 4.253370285034179688e+01 -5.446182489395141602e-01 -8.529164188075810671e-05 -1.672273356234654784e-04 -7.575569179607555270e-05 -1.112850295612588525e-04
2.425000000000000000e+03 6.232695102691650391e+00 -3.156296539306640625e+01 -5.931278574280440807e-04 4.154802300035953522e-04 -5.329428677214309573e-05 9.307327854912728071e-05
2.426000000000000000e+03 6.943900108337402344e+00 -3.263070678710937500e+01 1.651243655942380428e-03 -1.658947439864277840e-05 4.903962835669517517e-04 7.813901756890118122e-04
2.427000000000000000e+03 4.645513534545898438e+01 -3.496635055541992188e+01 2.343110889196395874e-01 7.882337272167205811e-02 9.394033998250961304e-02 4.614986181259155273e-01
2.428000000000000000e+03 7.465532684326171875e+01 -4.302337169647216797e+00 5.538595467805862427e-02 6.410655021667480469e+00 1.939812302589416504e+00 -5.878589153289794922e-01
2.429000000000000000e+03 4.412686538696289062e+01 -1.437076187133789062e+01 -8.820422226563096046e-05 -1.646989221626427025e-05 -3.140223270747810602e-05 -2.315756319148931652e-05
2.430000000000000000e+03 3.952566909790039062e+01 5.611373424530029297e+00 1.244114391738548875e-04 2.089287590933963656e-04 1.000020565697923303e-04 -2.198088186560198665e-04
2.431000000000000000e+03 3.574040222167968750e+01 8.494979858398437500e+00 7.160870591178536415e-04 1.109079312300309539e-04 2.480984840076416731e-04 1.254175876965746284e-04
2.432000000000000000e+03 7.508174896240234375e+01 -3.393599700927734375e+01 -4.462541341781616211e-01 6.556463718414306641e+00 1.833062767982482910e+00 9.871513843536376953e-01
2.433000000000000000e+03 5.003623199462890625e+01 -2.555261993408203125e+01 4.535443484783172607e-01 3.019288368523120880e-02 1.451211720705032349e-01 -6.264224648475646973e-01
2.434000000000000000e+03 4.052566909790039062e+01 4.402059078216552734e+00 1.365128264296799898e-05 6.982538991451292532e-08 4.116332547710044309e-06 2.014429046539589763e-04
2.435000000000000000e+03 9.211954116821289062e+00 2.877825736999511719e+01 1.637446403037756681e-04 1.912193692987784743e-04 1.064891985151916742e-04 -3.935461572837084532e-04
2.436000000000000000e+03 1.049161624908447266e+01 3.189835357666015625e+01 2.042125270236283541e-04 3.061881288886070251e-04 1.531201996840536594e-04 -1.880401105154305696e-04
2.437000000000000000e+03 7.495017242431640625e+01 -1.745456504821777344e+01 -2.721939608454704285e-02 5.993148326873779297e+00 1.789778709411621094e+00 -1.488580822944641113e+00
2.438000000000000000e+03 7.356108093261718750e+01 1.984934425354003906e+01 1.027572602033615112e-01 7.440533161163330078e+00 2.262987136840820312e+00 -1.509930845350027084e-02
2.439000000000000000e+03 7.365693664550781250e+01 -1.365690898895263672e+01 5.003027915954589844e-01 4.938474655151367188e+00 1.631633281707763672e+00 -1.083015799522399902e+00
2.440000000000000000e+03 7.326291656494140625e+01 1.000071907043457031e+01 -2.277010679244995117e-01 7.723351478576660156e+00 2.248695135116577148e+00 1.417402476072311401e-01
2.441000000000000000e+03 7.458249664306640625e+01 -3.200264215469360352e+00 1.082441806793212891e-01 6.574564456939697266e+00 2.004842519760131836e+00 -5.564712882041931152e-01
2.442000000000000000e+03 7.212360382080078125e+01 -4.707680702209472656e+00 7.561565190553665161e-02 6.317759037017822266e+00 1.918012380599975586e+00 -6.176360324025154114e-02
2.443000000000000000e+03 7.442342376708984375e+01 -1.973459959030151367e+00 1.843525320291519165e-01 6.690940856933593750e+00 2.062587976455688477e+00 -5.140195488929748535e-01
2.444000000000000000e+03 7.449107360839843750e+01 -6.768900752067565918e-01 2.691097855567932129e-01 6.794675827026367188e+00 2.119135618209838867e+00 -4.335867464542388916e-01
2.445000000000000000e+03 7.370835876464843750e+01 -3.893265008926391602e+00 8.500376343727111816e-02 6.551852226257324219e+00 1.991056799888610840e+00 -4.585535824298858643e-01
2.446000000000000000e+03 7.485463714599609375e+01 3.027992248535156250e+00 4.229331612586975098e-01 6.953153610229492188e+00 2.212826013565063477e+00 -1.390936076641082764e-01
2.447000000000000000e+03 7.414612579345703125e+01 -9.828312873840332031e+00 2.662505209445953369e-01 5.822383403778076172e+00 1.826590180397033691e+00 -7.464064359664916992e-01
2.448000000000000000e+03 7.829722881317138672e+00 2.105588531494140625e+01 -1.243839069502428174e-04 1.350313978036865592e-04 3.194244300175341778e-06 -1.099931760109029710e-04
2.449000000000000000e+03 8.522626876831054688e+00 2.432899284362792969e+01 6.115806172601878643e-05 1.897377951536327600e-04 7.526875560870394111e-05 -2.720030897762626410e-04
2.450000000000000000e+03 7.449394989013671875e+01 -8.735853195190429688e+00 1.771119534969329834e-01 6.004804611206054688e+00 1.854574918746948242e+00 -7.007864117622375488e-01
2.451000000000000000e+03 7.222573089599609375e+01 -8.571109771728515625e+00 2.988294661045074463e-01 5.235704898834228516e+00 1.660360336303710938e+00 -2.453258186578750610e-01
2.452000000000000000e+03 7.482935333251953125e+01 -1.050232315063476562e+01 2.529835700988769531e-01 5.983242988586425781e+00 1.870867967605590820e+00 -8.133249878883361816e-01
2.453000000000000000e+03 6.867003631591796875e+01 -1.357569694519042969e+01 1.148591160774230957e+00 2.157425165176391602e+00 9.918048977851867676e-01 3.929817378520965576e-01
2.454000000000000000e+03 6.968934631347656250e+01 -1.220390987396240234e+01 9.866837263107299805e-01 3.035487651824951172e+00 1.206651449203491211e+00 1.752291470766067505e-01
2.455000000000000000e+03 7.227739715576171875e+01 -1.091868686676025391e+01 5.476607084274291992e-01 4.710539817810058594e+00 1.577460169792175293e+00 -4.858996272087097168e-01
2.456000000000000000e+03 6.374632835388183594e+00 2.737325286865234375e+01 -1.452374272048473358e-04 3.288802690804004669e-04 5.509285256266593933e-05 -2.854198683053255081e-04
2.457000000000000000e+03 4.220890045166015625e+00 -2.012639617919921875e+01 -3.952127008233219385e-04 -4.023078508907929063e-05 -1.306330523220822215e-04 -1.525271072750911117e-04
2.458000000000000000e+03 4.411886692047119141e+00 -2.126284408569335938e+01 4.481978830881416798e-04 -1.645377633394673467e-04 8.509803592460229993e-05 2.200796443503350019e-04
2.459000000000000000e+03 7.756530284881591797e+00 -1.155080890655517578e+01 2.750914136413484812e-04 3.393526640138588846e-06 8.354547753697261214e-05 -2.204447127951425500e-06
2.460000000000000000e+03 7.454938507080078125e+01 1.431368350982666016e+01 -9.004271775484085083e-02 7.061070919036865234e+00 2.091308593750000000e+00 -6.593371182680130005e-02
2.461000000000000000e+03 6.568646907806396484e+00 1.574882507324218750e+01 1.395605358993634582e-04 1.719135470921173692e-04 9.344222780782729387e-05 -8.256189175881445408e-05
2.462000000000000000e+03 6.633327960968017578e+00 1.712948989868164062e+01 -8.067513408605009317e-05 8.198097930289804935e-05 3.917539572739769937e-07 -1.552155008539557457e-04
2.463000000000000000e+03 5.334474563598632812e+00 1.579677772521972656e+01 -1.017071117530576885e-04 1.004951845970936120e-04 -3.635786640643345891e-07 -1.363158226013183594e-04
2.464000000000000000e+03 6.203169345855712891e+00 -9.004950523376464844e+00 -1.287593186134472489e-04 -2.916474659286905080e-05 -4.737721974379383028e-05 -1.139909800258465111e-04
2.465000000000000000e+03 5.153580665588378906e+00 -9.065875053405761719e+00 1.980173692572861910e-04 3.541754040270461701e-06 6.046773705747909844e-05 7.277139957295730710e-05
2.466000000000000000e+03 6.433301448822021484e+00 1.439180660247802734e+01 -9.561111801303923130e-05 7.185494905570521951e-05 -7.126850505301263183e-06 -1.665732415858656168e-04
2.467000000000000000e+03 5.162254333496093750e+00 1.307906436920166016e+01 -1.004116711555980146e-04 7.446398376487195492e-05 -7.784305125824175775e-06 -1.292117085540667176e-04
2.468000000000000000e+03 6.677536010742187500e+00 1.984780502319335938e+01 -1.356013381155207753e-04 1.520024525234475732e-04 4.920331775792874396e-06 -1.305113692069426179e-04
2.469000000000000000e+03 5.504642963409423828e+00 1.991946792602539062e+01 1.872368011390790343e-04 2.145938196917995811e-04 1.205491862492635846e-04 -1.431700802640989423e-04
2.470000000000000000e+03 7.240555572509765625e+01 -1.492323780059814453e+01 6.181772947311401367e-01 3.774303197860717773e+00 1.317744135856628418e+00 -1.039971351623535156e+00
2.471000000000000000e+03 7.366612243652343750e+01 -1.495058155059814453e+01 4.518909454345703125e-01 4.840873241424560547e+00 1.587829232215881348e+00 -1.268742203712463379e+00
2.472000000000000000e+03 7.901504039764404297e+00 2.790354537963867188e+01 -8.481799159198999405e-05 3.506369539536535740e-04 7.974568870849907398e-05 -6.348110764520242810e-05
2.473000000000000000e+03 7.836584568023681641e+00 6.314777374267578125e+00 4.343858381616882980e-05 -8.656333193357568234e-06 1.043467545969178900e-05 -1.620210532564669847e-04
2.474000000000000000e+03 6.036310195922851562e+00 6.346555709838867188e+00 -8.198809518944472075e-05 7.019933400442823768e-05 -3.536630174494348466e-06 -2.942799073935020715e-05
2.475000000000000000e+03 6.896475315093994141e+00 7.468651294708251953e+00 1.097915446734987199e-04 7.210370677057653666e-05 5.456857616081833839e-05 2.990223583765327930e-05
2.476000000000000000e+03 3.551960754394531250e+01 1.788314819335937500e+01 1.237640390172600746e-03 -1.450676936656236649e-04 3.277717914897948503e-04 5.344843957573175430e-04
2.477000000000000000e+03 1.071723556518554688e+01 -1.190430736541748047e+01 -4.085787440999411047e-05 3.699674733237401369e-10 -1.225725100084673613e-05 1.595424982951954007e-04
2.478000000000000000e+03 4.570864486694335938e+01 -1.259849452972412109e+01 1.032676809700205922e-04 3.831676076515577734e-05 4.247533070156350732e-05 4.928674024995416403e-05
2.479000000000000000e+03 4.684803771972656250e+01 -1.089972496032714844e+01 -1.060094728018157184e-04 -6.357139227475272492e-06 -3.370998456375673413e-05 -4.261394860805012286e-05
2.480000000000000000e+03 6.326360702514648438e+00 1.307948303222656250e+01 1.549261360196396708e-04 1.161306136054918170e-04 8.131702634273096919e-05 -4.751710366690531373e-05
2.481000000000000000e+03 5.639172554016113281e+00 -1.304397487640380859e+01 -2.034196659224107862e-04 2.116570431098807603e-05 -5.467618757393211126e-05 -8.926810551201924682e-05
2.482000000000000000e+03 7.956473350524902344e+00 -1.264669132232666016e+01 -2.518456603866070509e-04 5.038347080699168146e-05 -6.043865869287401438e-05 -6.801208655815571547e-05
2.483000000000000000e+03 6.583971500396728516e+00 9.468465805053710938e+00 -2.346937799302395433e-05 2.617538848426192999e-05 8.118026926240418106e-07 -1.445890084141865373e-04
2.484000000000000000e+03 3.246792602539062500e+01 -1.351265144348144531e+01 -6.624501111218705773e-05 -2.174415749323088676e-05 -2.639675039972644299e-05 -1.261257602891419083e-05
2.485000000000000000e+03 1.569766044616699219e+01 -8.721390724182128906e+00 1.311829255428165197e-04 2.625120396260172129e-05 4.723023812402971089e-05 -1.138018524216022342e-05
2.486000000000000000e+03 3.582503128051757812e+01 9.918922424316406250e+00 -4.958853824064135551e-04 3.518803350743837655e-05 -1.382092013955116272e-04 1.380887551931664348e-04
2.487000000000000000e+03 3.706379699707031250e+01 1.984868240356445312e+01 1.753977616317570210e-03 -2.411198947811499238e-04 4.538573266472667456e-04 5.618604482151567936e-04
2.488000000000000000e+03 3.535633468627929688e+01 1.976794624328613281e+01 1.659668341744691133e-04 -2.418294316157698631e-04 -2.275877886859234422e-05 3.435332837398163974e-05
2.489000000000000000e+03 7.214717102050781250e+01 -9.723523139953613281e+00 4.258806407451629639e-01 4.950872898101806641e+00 1.613026022911071777e+00 -3.095768988132476807e-01
2.490000000000000000e+03 6.901873016357421875e+01 -1.466753578186035156e+01 1.118627667427062988e+00 1.875254392623901367e+00 8.981646299362182617e-01 1.145586073398590088e-01
2.491000000000000000e+03 7.219693756103515625e+01 -3.666700744628906250e+01 2.691769003868103027e-01 3.180068969726562500e+00 1.034773826599121094e+00 6.375198960304260254e-01
2.492000000000000000e+03 7.224134826660156250e+01 -3.501871109008789062e+01 -1.994109004735946655e-01 2.917655944824218750e+00 8.154734969139099121e-01 6.274119019508361816e-01
2.493000000000000000e+03 4.392591094970703125e+01 -7.179874897003173828e+00 1.390465331496670842e-04 8.675277786096557975e-05 6.773979112040251493e-05 4.742456439998932183e-05
2.494000000000000000e+03 4.421646118164062500e+01 -8.313276290893554688e+00 -1.412597193848341703e-04 -7.284800813067704439e-05 -6.423231388907879591e-05 -5.804959437227807939e-05
2.495000000000000000e+03 4.690830993652343750e+01 -2.906258964538574219e+01 3.188214302062988281e-01 -2.119106650352478027e-01 3.207323327660560608e-02 -2.271420955657958984e-01
2.496000000000000000e+03 7.108066558837890625e+01 -3.789642333984375000e+01 6.805760264396667480e-01 2.131845951080322266e+00 8.437265753746032715e-01 3.510353267192840576e-01
2.497000000000000000e+03 3.625598907470703125e+01 2.487953186035156250e+01 1.456246973248198628e-04 -6.016276311129331589e-04 -1.368008815916255116e-04 5.989984492771327496e-04
2.498000000000000000e+03 3.945998382568359375e+01 2.329028320312500000e+01 2.134568494511768222e-04 -1.359923771815374494e-04 2.323934131709393114e-05 7.915847818367183208e-04
2.499000000000000000e+03 7.358496856689453125e+01 8.906829833984375000e+00 -5.396262928843498230e-02 7.659272670745849609e+00 2.281593084335327148e+00 1.661088317632675171e-01
2.500000000000000000e+03 7.274696350097656250e+01 -4.112107086181640625e+01 9.505918025970458984e-01 3.753247976303100586e+00 1.411151885986328125e+00 1.648758798837661743e-01
2.501000000000000000e+03 7.429966735839843750e+01 -3.027667808532714844e+01 -4.487949013710021973e-01 4.134683609008789062e+00 1.105766534805297852e+00 1.133983373641967773e+00
2.502000000000000000e+03 7.787227630615234375e+01 -3.004292106628417969e+01 -1.403418183326721191e+00 1.287970829010009766e+01 3.442887067794799805e+00 -1.336485147476196289e+00
2.503000000000000000e+03 7.667554473876953125e+01 -3.021227455139160156e+01 -1.876507163047790527e+00 1.190514755249023438e+01 3.008591890335083008e+00 5.784407258033752441e-01
2.504000000000000000e+03 7.557765197753906250e+01 -2.481875610351562500e+01 -5.781992673873901367e-01 8.583855628967285156e+00 2.401696920394897461e+00 -2.518290996551513672e+00
2.505000000000000000e+03 7.733955383300781250e+01 -2.945428085327148438e+01 -1.707185626029968262e+00 1.439512157440185547e+01 3.806380748748779297e+00 -1.105646729469299316e+00
2.506000000000000000e+03 7.752291107177734375e+01 -2.970876884460449219e+01 -1.604042053222656250e+00 1.336240386962890625e+01 3.527508735656738281e+00 -1.171940207481384277e+00
2.507000000000000000e+03 7.610989379882812500e+01 -2.358439826965332031e+01 -1.264209508895874023e+00 9.365460395812988281e+00 2.430375099182128906e+00 -1.251995444297790527e+00
2.508000000000000000e+03 7.457074737548828125e+01 -2.976994514465332031e+01 -1.130957007408142090e-01 4.143395900726318359e+00 1.209090113639831543e+00 1.549466848373413086e+00
2.509000000000000000e+03 7.443273162841796875e+01 -3.064426040649414062e+01 -4.569091498851776123e-01 4.764385223388671875e+00 1.292242884635925293e+00 1.178724646568298340e+00
2.510000000000000000e+03 1.148929023742675781e+01 -6.425976753234863281e+00 -2.348259113205131143e-05 -1.983497531909961253e-05 -1.299527048104209825e-05 -6.034653415554203093e-05
2.511000000000000000e+03 1.016332817077636719e+01 -6.406841278076171875e+00 -8.710502879694104195e-05 -3.422856389079242945e-05 -3.640007707872428000e-05 -3.515904609230346978e-05
2.512000000000000000e+03 7.625662994384765625e+01 -3.025156784057617188e+01 -1.601389408111572266e+00 1.076480865478515625e+01 2.749025821685791016e+00 1.232594609260559082e+00
2.513000000000000000e+03 4.792370986938476562e+01 -2.673788642883300781e+01 3.498211801052093506e-01 -2.287305295467376709e-01 3.632719814777374268e-02 -6.111339330673217773e-01
2.514000000000000000e+03 5.285315513610839844e+00 6.694331645965576172e+00 -6.837584805907681584e-06 3.350866245455108583e-05 8.001322385098319501e-06 -9.101637988351285458e-05
2.515000000000000000e+03 3.111747932434082031e+01 -1.121375179290771484e+01 4.787334182765334845e-05 1.335116303380345926e-05 1.836735100368969142e-05 3.865510279865702614e-06
2.516000000000000000e+03 2.996618652343750000e+01 -9.926572799682617188e+00 4.060765058966353536e-05 1.212774986925069243e-05 1.582062031957320869e-05 -8.559250090911518782e-06
2.517000000000000000e+03 6.379576683044433594e+00 7.034808635711669922e+00 7.933117740321904421e-05 9.828641850617714226e-06 2.674794450285844505e-05 -7.029216067166998982e-05
2.518000000000000000e+03 4.872301864624023438e+01 -2.657669830322265625e+01 4.587144255638122559e-01 -3.783644363284111023e-02 1.262633949518203735e-01 -5.642575621604919434e-01
2.519000000000000000e+03 7.352935791015625000e+00 5.949038028717041016e+00 2.094014206477368134e-07 8.861690002959221601e-05 2.664789099071640521e-05 1.514263112767366692e-05
2.520000000000000000e+03 5.124930191040039062e+01 -2.631099319458007812e+01 8.667337894439697266e-01 5.931153893470764160e-01 4.379547536373138428e-01 -2.828758955001831055e-01
2.521000000000000000e+03 5.048175811767578125e+01 -2.602813148498535156e+01 6.288868188858032227e-01 2.935090959072113037e-01 2.767187952995300293e-01 -5.036969780921936035e-01
2.522000000000000000e+03 5.066253662109375000e+01 -2.546168518066406250e+01 5.034924745559692383e-01 3.158127665519714355e-01 2.457915842533111572e-01 -5.401731133460998535e-01
2.523000000000000000e+03 1.378568172454833984e+01 -7.656871318817138672e+00 -6.927079812157899141e-05 -7.914174057077616453e-05 -4.452376015251502395e-05 6.569125253008678555e-05
2.524000000000000000e+03 4.766925811767578125e+01 -1.432015991210937500e+01 -1.303480967180803418e-04 1.959716064448002726e-05 -3.322528209537267685e-05 -5.690575926564633846e-05
2.525000000000000000e+03 7.382831573486328125e+01 -2.323045921325683594e+01 -8.377449512481689453e-01 4.077424526214599609e+00 9.719039201736450195e-01 -1.178838253021240234e+00
2.526000000000000000e+03 9.512978553771972656e+00 5.839214324951171875e+00 -3.262209065724164248e-05 4.662832361645996571e-05 4.201870069664437324e-06 -1.107631942431908101e-05
2.527000000000000000e+03 6.777720642089843750e+01 -1.679189300537109375e+01 7.391179203987121582e-01 6.684997081756591797e-01 4.222852885723114014e-01 4.654241204261779785e-01
2.528000000000000000e+03 7.153129100799560547e+00 -8.856228828430175781e+00 2.911028059315867722e-05 7.175962673500180244e-05 3.026097328984178603e-05 1.205226508318446577e-04
2.529000000000000000e+03 4.738232421875000000e+01 -2.777255249023437500e+01 3.454071283340454102e-01 -2.323206365108489990e-01 3.392595052719116211e-02 -4.606964290142059326e-01
2.530000000000000000e+03 4.790465164184570312e+01 -2.855114555358886719e+01 5.331988930702209473e-01 -6.556487083435058594e-02 1.402902007102966309e-01 -2.457219064235687256e-01
2.531000000000000000e+03 1.019634914398193359e+01 -7.226120471954345703e+00 1.020517447614111006e-04 2.656953438417986035e-05 3.858638228848576546e-05 2.954448518721619621e-06
2.532000000000000000e+03 1.330329513549804688e+01 -7.059950351715087891e+00 2.530514757381752133e-05 9.512667747912928462e-05 3.612954606069251895e-05 -2.706356826820410788e-05
2.533000000000000000e+03 2.711193466186523438e+01 -7.200624942779541016e+00 4.693575829151086509e-05 -3.964329152950085700e-06 1.289142801397247240e-05 -2.102503276546485722e-05
2.534000000000000000e+03 4.236688232421875000e+01 -1.448792839050292969e+01 -9.552828851155936718e-05 -5.514955319085856900e-06 -3.031297273992095143e-05 -4.655095835914835334e-05
2.535000000000000000e+03 4.401436614990234375e+01 -1.529631233215332031e+01 7.860043842811137438e-05 7.137333795981248841e-06 2.572133234934881330e-05 1.887362486741039902e-05
2.536000000000000000e+03 1.728154563903808594e+01 4.205871105194091797e+00 -9.382555435877293348e-05 1.701480505289509892e-05 -2.304322333657182753e-05 -2.884459718188736588e-05
2.537000000000000000e+03 1.661178207397460938e+01 2.932062149047851562e+00 -6.268640572670847178e-05 6.238533387659117579e-05 -9.032164882682991447e-08 3.102672508248360828e-06
2.538000000000000000e+03 4.486697769165039062e+01 -1.525290107727050781e+01 -7.638524402864277363e-05 -1.142040036938851699e-05 -2.634169322845991701e-05 -2.322615728189703077e-05
2.539000000000000000e+03 4.545340347290039062e+01 -1.380720901489257812e+01 1.355847234663087875e-05 5.171557859284803271e-05 1.958221582754049450e-05 5.929096005274914205e-05
2.540000000000000000e+03 2.570123481750488281e+01 -5.127817630767822266e+00 -7.674715561734046787e-06 -8.324057489517144859e-06 -4.799631824425887316e-06 3.064715929212979972e-05
2.541000000000000000e+03 7.403341674804687500e+01 -2.383544731140136719e+01 -6.106764674186706543e-01 3.959318876266479492e+00 1.004592657089233398e+00 -1.154669880867004395e+00
2.542000000000000000e+03 6.922051239013671875e+01 -1.565264415740966797e+01 9.474968910217285156e-01 1.604657530784606934e+00 7.656463384628295898e-01 -4.558108747005462646e-02
2.543000000000000000e+03 2.397107887268066406e+01 -1.810326814651489258e+00 1.183370186481624842e-04 -4.671321676141815260e-06 3.409971031942404807e-05 -5.185812915442511439e-05
2.544000000000000000e+03 4.159753417968750000e+01 -1.451076984405517578e+01 6.830618076492100954e-05 7.445138635375769809e-06 2.272539677505847067e-05 5.470595715451054275e-05
2.545000000000000000e+03 3.485141754150390625e+01 -1.275996875762939453e+01 5.713872087653726339e-05 2.764458076853770763e-05 2.543499067542143166e-05 1.995224192796740681e-05
2.546000000000000000e+03 7.378396606445312500e+01 -2.249833679199218750e+01 -9.359344244003295898e-01 4.385828495025634766e+00 1.034968256950378418e+00 -1.203917026519775391e+00
2.547000000000000000e+03 1.528381347656250000e+01 3.777991056442260742e+00 -2.715075243031606078e-05 7.404791540466248989e-05 1.406914816470816731e-05 -9.337749361293390393e-06
2.548000000000000000e+03 4.412333679199218750e+01 -1.345797729492187500e+01 1.052321968018077314e-04 1.584533129062037915e-05 3.632325751823373139e-05 -1.342583459518209565e-06
2.549000000000000000e+03 2.738084411621093750e+01 -3.470637798309326172e+00 8.281211194116622210e-05 -7.459766493411734700e-06 2.260570363432634622e-05 -3.847479456453584135e-05
2.550000000000000000e+03 2.624793243408203125e+01 -4.596280097961425781e+00 6.579243927262723446e-05 -1.025798496812058147e-06 1.942999188031535596e-05 -2.870471871574409306e-05
2.551000000000000000e+03 7.539614105224609375e+01 -2.217688560485839844e+01 -1.066501736640930176e+00 7.339124679565429688e+00 1.881786942481994629e+00 -1.318109035491943359e+00
2.552000000000000000e+03 2.017155265808105469e+01 6.266842484474182129e-01 1.883050135802477598e-04 -3.582178032957017422e-05 4.574496779241599143e-05 -7.112447929102927446e-05
2.553000000000000000e+03 1.697727775573730469e+01 3.554219961166381836e+00 2.606362977530807257e-04 -7.463936344720423222e-05 5.579907883657142520e-05 -5.967412289464846253e-05
2.554000000000000000e+03 2.855610275268554688e+01 -7.988271236419677734e+00 -4.267726035322993994e-05 7.705260031798388809e-06 -1.049159982358105481e-05 3.075542190345004201e-05
2.555000000000000000e+03 2.811094284057617188e+01 -7.331777095794677734e+00 5.839834557264111936e-05 -5.727486495743505657e-06 1.580125717737246305e-05 -2.347565896343439817e-05
2.556000000000000000e+03 7.297718811035156250e+01 -3.446904373168945312e+01 -3.033129870891571045e-01 3.641796827316284180e+00 1.001545190811157227e+00 7.692587375640869141e-01
2.557000000000000000e+03 2.798992919921875000e+01 -8.538363456726074219e+00 4.182911288808099926e-05 8.167997975760954432e-07 1.279377374885370955e-05 -2.057922210951801389e-05
2.558000000000000000e+03 2.947292518615722656e+01 -9.282245635986328125e+00 -3.934102278435602784e-05 -2.044554321400937624e-06 -1.241567315446445718e-05 2.342921288800425828e-05
2.559000000000000000e+03 2.405920410156250000e+01 -3.057548999786376953e+00 8.493418135913088918e-05 -8.918898402043851092e-07 2.521268834243528545e-05 -4.434252696228213608e-05
2.560000000000000000e+03 2.333415985107421875e+01 -1.143491983413696289e+00 -8.539011105312965810e-06 -2.556760591687634587e-05 -1.023198547045467421e-05 5.640311792376451194e-05
2.561000000000000000e+03 2.200424575805664062e+01 1.273236274719238281e-01 -2.025016328843776137e-05 -2.341963954677339643e-05 -1.310094103246228769e-05 5.939657421549782157e-05
2.562000000000000000e+03 2.572483444213867188e+01 -3.893497943878173828e+00 -6.579159617103869095e-06 -1.234250430570682511e-05 -5.676499313267413527e-06 3.924343764083459973e-05
2.563000000000000000e+03 2.516823387145996094e+01 -3.189055204391479492e+00 8.673930278746411204e-05 5.238875999680203677e-08 2.603750726848375052e-05 -4.007669849670492113e-05
2.564000000000000000e+03 2.721195983886718750e+01 -5.986230373382568359e+00 5.881354809389449656e-05 -6.004059287079144269e-06 1.584284655109513551e-05 -2.131041583197657019e-05
2.565000000000000000e+03 2.267755317687988281e+01 -4.956909716129302979e-01 1.543960097478702664e-04 -1.347451143374200910e-05 4.227644967613741755e-05 -6.209692219272255898e-05
2.566000000000000000e+03 2.317508888244628906e+01 1.415004581212997437e-01 -2.345481880183797330e-05 -2.756904905254486948e-05 -1.530715962871909142e-05 6.180128548294305801e-05
2.567000000000000000e+03 1.915985298156738281e+01 2.309747457504272461e+00 -5.721148409065790474e-05 6.463660156441619620e-06 -1.522434740763856098e-05 3.384653973625972867e-05
2.568000000000000000e+03 1.473380756378173828e+01 -7.540533065795898438e+00 -1.079204303096048534e-04 -4.101327795069664717e-05 -4.468011320568621159e-05 7.268450281117111444e-05
2.569000000000000000e+03 1.581991577148437500e+01 4.316504001617431641e+00 1.601957337697967887e-04 -1.082214148482307792e-04 1.559229531267192215e-05 -1.148317678598687053e-04
2.570000000000000000e+03 7.476980686187744141e+00 1.309389591217041016e+01 -8.451057510683313012e-05 4.775962952408008277e-05 -1.102528403862379491e-05 -1.583957491675391793e-04
2.571000000000000000e+03 7.914502620697021484e+00 1.714575767517089844e+01 1.343414915027096868e-04 1.951448357431218028e-04 9.884589962894096971e-05 -1.258909614989534020e-04
2.572000000000000000e+03 1.436637496948242188e+01 -8.122093200683593750e+00 1.168288363260217011e-04 4.417845048010349274e-05 4.830218676943331957e-05 -6.763901183148846030e-05
2.573000000000000000e+03 1.463838100433349609e+01 5.405127525329589844e+00 1.703058369457721710e-04 -7.214561628643423319e-05 2.944806692539714277e-05 -1.025267702061682940e-04
2.574000000000000000e+03 7.414730834960937500e+01 -2.004882240295410156e+01 -6.420399546623229980e-01 5.227792263031005859e+00 1.375725626945495605e+00 -1.510352969169616699e+00
2.575000000000000000e+03 7.419734191894531250e+01 -2.084210014343261719e+01 -8.373906612396240234e-01 5.166424751281738281e+00 1.298710227012634277e+00 -1.444537162780761719e+00
2.576000000000000000e+03 4.012405014038085938e+01 -1.399695014953613281e+01 4.889119009021669626e-05 2.321589090570341796e-05 2.163212411687709391e-05 3.932835898012854159e-05
2.577000000000000000e+03 3.984119415283203125e+01 -1.502076339721679688e+01 -3.911822204827331007e-05 -2.794368083414155990e-05 -2.011857213801704347e-05 -3.293866757303476334e-05
2.578000000000000000e+03 7.244327545166015625e+01 -1.971571540832519531e+01 -6.388833522796630859e-01 2.943914175033569336e+00 6.915093064308166504e-01 -1.400403618812561035e+00
2.579000000000000000e+03 1.946908187866210938e+01 1.150273442268371582e+00 -3.466118505457416177e-05 5.058037004346260801e-06 -8.880944733391515911e-06 4.456933311303146183e-05
2.580000000000000000e+03 1.842522048950195312e+01 2.765166282653808594e+00 2.564042515587061644e-04 -5.966761455056257546e-05 5.902098928345367312e-05 -6.496853166026994586e-05
2.581000000000000000e+03 7.422878265380859375e+01 -3.376432418823242188e+01 -4.491321742534637451e-01 5.246452808380126953e+00 1.439196228981018066e+00 9.435074925422668457e-01
2.582000000000000000e+03 8.662256240844726562e+00 -8.486665725708007812e+00 -3.945476782973855734e-05 1.223277649842202663e-04 2.486190169292967767e-05 3.435794133110903203e-05
2.583000000000000000e+03 7.214478302001953125e+01 -1.881189727783203125e+01 -3.705589473247528076e-01 2.721524000167846680e+00 7.052895426750183105e-01 -1.371154427528381348e+00
2.584000000000000000e+03 4.244792938232421875e+01 -6.300461292266845703e+00 1.255547831533476710e-04 1.086745978682301939e-04 7.026881212368607521e-05 2.927034256572369486e-05
2.585000000000000000e+03 4.251862716674804688e+01 -2.910724878311157227e+00 9.178758045891299844e-05 2.218339068349450827e-04 9.408644837094470859e-05 5.596766641247086227e-05
2.586000000000000000e+03 3.172436714172363281e+01 -1.041098499298095703e+01 -5.025427890359424055e-05 -1.609636819921433926e-05 -1.990519376704469323e-05 -1.322398929914925247e-06
2.587000000000000000e+03 7.584139251708984375e+01 -3.288512420654296875e+01 -7.485458254814147949e-01 8.076115608215332031e+00 2.198271036148071289e+00 8.616699576377868652e-01
2.588000000000000000e+03 7.648871612548828125e+01 -3.253474807739257812e+01 -8.395535945892333984e-01 9.377771377563476562e+00 2.561465263366699219e+00 6.194082498550415039e-01
2.589000000000000000e+03 7.424874877929687500e+01 -3.306051635742187500e+01 -5.551717877388000488e-01 5.243112564086914062e+00 1.406382203102111816e+00 1.011949539184570312e+00
2.590000000000000000e+03 1.352720737457275391e+01 -9.540071487426757812e+00 1.588733284734189510e-04 5.676296132151037455e-05 6.469088839367032051e-05 -4.785776400240138173e-05
2.591000000000000000e+03 3.274863052368164062e+01 -1.236509132385253906e+01 7.286343316081911325e-05 2.400336597929708660e-05 2.906003828684333712e-05 1.819253520807251334e-05
2.592000000000000000e+03 4.209116744995117188e+01 -5.228386402130126953e+00 -1.185502551379613578e-04 -1.225467567564919591e-04 -7.232910138554871082e-05 -2.436202521494124085e-05
2.593000000000000000e+03 6.961936950683593750e+01 -1.755678749084472656e+01 3.009577691555023193e-01 8.513534069061279297e-01 3.456933498382568359e-01 -4.073076546192169189e-01
2.594000000000000000e+03 7.089611816406250000e+01 -1.818206977844238281e+01 -6.709676235914230347e-02 1.523118495941162109e+00 4.368064999580383301e-01 -9.897530078887939453e-01
2.595000000000000000e+03 4.107970046997070312e+01 -1.933480650186538696e-01 -5.353249071049503982e-05 -2.512186074454803020e-05 -2.359630525461398065e-05 -8.343946683453395963e-05
2.596000000000000000e+03 4.040721130371093750e+01 -2.241643667221069336e+00 -3.674246909213252366e-05 -1.940718066180124879e-04 -6.924428453203290701e-05 9.017880074679851532e-06
2.597000000000000000e+03 4.612923431396484375e+01 -1.334420871734619141e+01 -1.966832678590435535e-05 -6.038455467205494642e-05 -2.401586425548885018e-05 -3.706889037857763469e-05
2.598000000000000000e+03 4.659026718139648438e+01 -1.174021625518798828e+01 1.340173766948282719e-04 -2.751373540377244353e-05 3.195109093212522566e-05 5.783311280538327992e-06
2.599000000000000000e+03 1.086203289031982422e+01 -6.450708389282226562e+00 7.490248390240594745e-05 2.382978345849551260e-05 2.961967948067467660e-05 4.954138785251416266e-05
2.600000000000000000e+03 3.884160232543945312e+01 6.263167262077331543e-01 6.139568722574040294e-05 -1.066243057721294463e-04 -1.356858774670399725e-05 1.164763743872754276e-04
2.601000000000000000e+03 6.818439483642578125e+01 -1.494190406799316406e+01 1.129612684249877930e+00 1.548295021057128906e+00 8.033723235130310059e-01 4.189783036708831787e-01
2.602000000000000000e+03 7.884213447570800781e+00 -6.136596679687500000e+00 8.760215132497251034e-05 6.532895349664613605e-05 4.587933290167711675e-05 8.724051440367475152e-05
2.603000000000000000e+03 9.975199699401855469e+00 6.573834419250488281e+00 1.599553652340546250e-04 2.615196717670187354e-05 5.583219899563118815e-05 -7.872670539654791355e-05
2.604000000000000000e+03 4.093314361572265625e+01 -1.561179876327514648e+00 -4.023967994726262987e-05 -6.914431196491932496e-06 -1.414623329765163362e-05 -6.952320109121501446e-05
2.605000000000000000e+03 3.769272994995117188e+01 -1.391337585449218750e+01 3.434826430748216808e-05 2.965671410493087023e-05 1.920149406942073256e-05 5.498339305631816387e-06
2.606000000000000000e+03 3.763005065917968750e+01 -1.312034797668457031e+01 -5.881701144971884787e-05 -1.736469130264595151e-05 -2.285451228090096265e-05 -2.892326483561191708e-05
2.607000000000000000e+03 3.717439651489257812e+01 2.097027540206909180e+00 -1.244727754965424538e-04 -1.061235816450789571e-04 -6.917891005286946893e-05 2.558260457590222359e-04
2.608000000000000000e+03 4.967243194580078125e+01 -2.712640953063964844e+01 7.304497361183166504e-01 2.223265767097473145e-01 2.858328819274902344e-01 -3.573851883411407471e-01
2.609000000000000000e+03 5.061033630371093750e+01 -3.085346794128417969e+01 9.217272996902465820e-01 9.660614132881164551e-01 5.663366317749023438e-01 5.351402163505554199e-01
2.610000000000000000e+03 5.271051406860351562e+01 -3.288120269775390625e+01 6.208686828613281250e-01 2.092331171035766602e+00 8.139599561691284180e-01 8.295378684997558594e-01
2.611000000000000000e+03 7.092115879058837891e+00 2.257022476196289062e+01 -2.046234003501012921e-04 2.100082056131213903e-04 1.615441306057618931e-06 -1.556597708258777857e-04
2.612000000000000000e+03 6.659156799316406250e+00 -1.152041339874267578e+01 -2.177529968321323395e-04 -1.471781615691725165e-06 -6.576743180630728602e-05 -7.316588016692548990e-05
2.613000000000000000e+03 7.240354156494140625e+01 -1.220907688140869141e+01 6.294460296630859375e-01 4.453469276428222656e+00 1.524874567985534668e+00 -6.577095985412597656e-01
2.614000000000000000e+03 7.372128295898437500e+01 -1.236830329895019531e+01 4.801064133644104004e-01 5.178898811340332031e+00 1.697701573371887207e+00 -9.145915508270263672e-01
2.615000000000000000e+03 9.380399703979492188e+00 -7.876183032989501953e+00 7.518944039475172758e-05 9.408509504282847047e-05 5.078236063127405941e-05 -1.951753620232921094e-05
2.616000000000000000e+03 6.447783470153808594e+00 -1.022044277191162109e+01 1.655684172874316573e-04 -1.180000617750920355e-05 4.613052078639157116e-05 1.118249492719769478e-04
2.617000000000000000e+03 7.304652404785156250e+01 -1.855135917663574219e+01 -2.473091781139373779e-01 3.906104803085327148e+00 1.097638726234436035e+00 -1.523265957832336426e+00
2.618000000000000000e+03 7.874774932861328125e+00 1.566613197326660156e+01 -5.311134009389206767e-05 2.491941813786979765e-05 -8.457576768705621362e-06 -1.952748716576024890e-04
2.619000000000000000e+03 3.480216598510742188e+01 2.357722282409667969e+01 1.446866779588162899e-03 -6.111371330916881561e-04 2.507188764866441488e-04 -7.757743587717413902e-04
2.620000000000000000e+03 7.905472755432128906e+00 1.854444313049316406e+01 -6.002435475238598883e-05 6.328350718831643462e-05 9.777462537385872565e-07 -1.718609419185668230e-04
2.621000000000000000e+03 3.961863327026367188e+01 -1.411161422729492188e-01 -4.841815552936168388e-06 9.159502224065363407e-05 2.602596214273944497e-05 -8.380214421777054667e-05
2.622000000000000000e+03 9.514878273010253906e+00 -1.117145919799804688e+01 -2.751653664745390415e-05 9.051217057276517153e-05 1.889869054139126092e-05 1.647906756261363626e-04
2.623000000000000000e+03 3.755149459838867188e+01 5.043817520141601562e+00 5.533452495001256466e-04 8.119853009702637792e-05 1.903631346067413688e-04 -2.542325819376856089e-04
2.624000000000000000e+03 7.374909973144531250e+01 -1.621563339233398438e+01 2.808125913143157959e-01 4.781724452972412109e+00 1.518761157989501953e+00 -1.397687196731567383e+00
2.625000000000000000e+03 9.431733131408691406e+00 7.775396347045898438e+00 1.646304590394720435e-04 5.419051376520656049e-05 6.564629438798874617e-05 -9.675321052782237530e-05
2.626000000000000000e+03 6.271473884582519531e+00 1.180175685882568359e+01 -8.877059735823422670e-05 4.572120815282687545e-05 -1.291481657972326502e-05 -1.500635262345895171e-04
2.627000000000000000e+03 4.972785186767578125e+01 -3.198038291931152344e+01 6.388674378395080566e-01 8.009752631187438965e-01 4.319528043270111084e-01 5.563512444496154785e-01
2.628000000000000000e+03 8.734288215637207031e+00 3.003062438964843750e+01 -7.238552643684670329e-05 4.335622943472117186e-04 1.083530296455137432e-04 -4.355217606644146144e-05
2.629000000000000000e+03 1.135974121093750000e+01 2.905489349365234375e+01 1.719940919429063797e-04 2.403996186330914497e-04 1.237181131727993488e-04 -3.647080156952142715e-04
2.630000000000000000e+03 1.044133090972900391e+01 -1.104078292846679688e+01 -1.424969377694651484e-04 -8.763827645452693105e-05 -6.904056499479338527e-05 -1.290954387513920665e-04
2.631000000000000000e+03 1.111910438537597656e+01 -8.219010353088378906e+00 1.267885381821542978e-04 -8.025589522731024772e-06 3.562888741726055741e-05 -1.153556468125316314e-06
2.632000000000000000e+03 7.056604766845703125e+01 -1.719347763061523438e+01 4.309785068035125732e-01 1.617883443832397461e+00 6.146585941314697266e-01 -7.954067587852478027e-01
2.633000000000000000e+03 7.463858604431152344e+00 1.185913372039794922e+01 1.560041564516723156e-04 1.088126082322560251e-04 7.944503158796578646e-05 -4.193806671537458897e-05
2.634000000000000000e+03 3.379944610595703125e+01 1.931663894653320312e+01 8.451135945506393909e-04 -2.747684484347701073e-04 1.711035583866760135e-04 3.132779092993587255e-04
2.635000000000000000e+03 3.560469818115234375e+01 1.616774368286132812e+01 -2.366742264712229371e-04 2.655393927852855995e-06 -7.020564953563734889e-05 1.806578802643343806e-04
2.636000000000000000e+03 6.720431518554687500e+01 -1.839292526245117188e+01 -1.009601429104804993e-01 3.579984232783317566e-02 -1.954809017479419708e-02 7.149028778076171875e-01
2.637000000000000000e+03 3.575944900512695312e+01 1.294052791595458984e+01 -4.424230719450861216e-04 9.039391443366184831e-05 -1.056087494362145662e-04 1.752989774104207754e-04
2.638000000000000000e+03 7.672886848449707031e+00 2.533892631530761719e+01 -2.440391399431973696e-04 2.837319334503263235e-04 1.190783677884610370e-05 -1.396032312186434865e-04
2.639000000000000000e+03 3.719812774658203125e+01 2.186262702941894531e+01 -9.343661804450675845e-05 -1.682802685536444187e-04 -7.851506961742416024e-05 3.454288817010819912e-04
2.640000000000000000e+03 7.002528381347656250e+01 -1.458277130126953125e+01 9.767190814018249512e-01 2.316262722015380859e+00 9.878945350646972656e-01 -2.125225365161895752e-01
2.641000000000000000e+03 7.114242553710937500e+01 -1.346586227416992188e+01 8.625030517578125000e-01 3.378932714462280273e+00 1.272430658340454102e+00 -4.819367825984954834e-01
2.642000000000000000e+03 3.723514175415039062e+01 2.672122573852539062e+01 2.586120972409844398e-03 -9.533882257528603077e-04 4.898198531009256840e-04 -5.738072213716804981e-04
2.643000000000000000e+03 8.518482208251953125e+00 3.550656509399414062e+01 1.765914930729195476e-04 4.270025237929075956e-04 1.810781977837905288e-04 -3.834078961517661810e-05
2.644000000000000000e+03 6.946282196044921875e+01 -3.967540359497070312e+01 1.152941942214965820e+00 7.873946428298950195e-01 5.821009874343872070e-01 -2.274690195918083191e-02
2.645000000000000000e+03 9.767684936523437500e+00 2.531665802001953125e+01 -8.215031266445294023e-05 1.983166293939575553e-04 3.484989792923443019e-05 -1.464528322685509920e-04
2.646000000000000000e+03 3.587052154541015625e+01 4.267464160919189453e+00 6.353797507472336292e-04 -1.807869557524099946e-05 1.851903070928528905e-04 -1.357581641059368849e-04
2.647000000000000000e+03 3.785774993896484375e+01 3.172364950180053711e+00 1.840901386458426714e-04 1.788985828170552850e-04 1.088966164388693869e-04 -2.266386873088777065e-04
2.648000000000000000e+03 7.553556823730468750e+01 -2.323802566528320312e+01 -1.101267576217651367e+00 7.815268039703369141e+00 2.014199972152709961e+00 -1.493587136268615723e+00
2.649000000000000000e+03 7.581837463378906250e+01 -2.422356414794921875e+01 -1.059448957443237305e+00 9.091838836669921875e+00 2.409716844558715820e+00 -1.819337725639343262e+00
2.650000000000000000e+03 7.699723052978515625e+01 -3.082086753845214844e+01 -1.480852961540222168e+00 1.151965808868408203e+01 3.011641502380371094e+00 1.122747287154197693e-01
2.651000000000000000e+03 7.642430877685546875e+01 -2.300753974914550781e+01 -1.232948422431945801e+00 9.368242263793945312e+00 2.440587997436523438e+00 -9.098378419876098633e-01
2.652000000000000000e+03 7.459989929199218750e+01 -2.433348464965820312e+01 -2.011238485574722290e-01 5.107984066009521484e+00 1.472058057785034180e+00 -1.705873131752014160e+00
2.653000000000000000e+03 7.502595520019531250e+01 -2.282961845397949219e+01 -9.539054036140441895e-01 6.703091144561767578e+00 1.724755764007568359e+00 -1.519550561904907227e+00
2.654000000000000000e+03 1.395741081237792969e+01 -8.788877487182617188e+00 -1.389441022183746099e-04 -3.495008786558173597e-05 -5.216825957177206874e-05 6.069260780350305140e-05
2.655000000000000000e+03 7.452529907226562500e+01 -2.314662361145019531e+01 -8.291221261024475098e-01 5.595727443695068359e+00 1.429981589317321777e+00 -1.466101050376892090e+00
2.656000000000000000e+03 3.050786399841308594e+01 -1.056827735900878906e+01 -4.606478250934742391e-05 -2.891722260756068863e-06 -1.468695154471788555e-05 8.702328159415628761e-06
2.657000000000000000e+03 3.054725646972656250e+01 -9.273490905761718750e+00 -3.834828748949803412e-05 -1.170869563793530688e-05 -1.501709448348265141e-05 1.567242543387692422e-05
2.658000000000000000e+03 7.338587951660156250e+01 -2.080547904968261719e+01 -1.044313192367553711e+00 4.003658771514892578e+00 8.878037333488464355e-01 -1.340280532836914062e+00
2.659000000000000000e+03 1.102884387969970703e+01 -9.215561866760253906e+00 -1.758123835315927863e-04 -6.355110963340848684e-05 -7.180905231507495046e-05 3.177008920829393901e-06
2.660000000000000000e+03 1.168040466308593750e+01 -7.175596714019775391e+00 4.743965746456524357e-06 -1.039541712088976055e-05 -1.695435344117868226e-06 4.524930045590735972e-05
2.661000000000000000e+03 9.404385566711425781e+00 -7.116550922393798828e+00 -7.471519347745925188e-05 -6.460034637711942196e-05 -4.179466122877784073e-05 -1.363169030810240656e-05
2.662000000000000000e+03 9.676569938659667969e+00 -9.647862434387207031e+00 -2.282973582623526454e-04 -4.286324838176369667e-05 -8.134818199323490262e-05 1.936588523676618934e-05
2.663000000000000000e+03 6.802205085754394531e+00 6.247076511383056641e+00 1.804392668418586254e-04 -3.869091960950754583e-05 4.252450162312015891e-05 -3.217817720724269748e-05
2.664000000000000000e+03 8.828945159912109375e+00 6.344168663024902344e+00 1.315241679549217224e-04 7.324169928324408829e-06 4.165450081927701831e-05 -9.984774806071072817e-05
2.665000000000000000e+03 7.450008392333984375e+01 -2.255858230590820312e+01 -9.605997204780578613e-01 5.607545375823974609e+00 1.394083619117736816e+00 -1.383434295654296875e+00
2.666000000000000000e+03 7.571327209472656250e+01 -3.060437965393066406e+01 -1.197865605354309082e+00 8.586539268493652344e+00 2.216602087020874023e+00 1.665225267410278320e+00
2.667000000000000000e+03 7.507347869873046875e+01 -3.037652778625488281e+01 -6.541832685470581055e-01 6.408669471740722656e+00 1.726345896720886230e+00 1.795769572257995605e+00
2.668000000000000000e+03 8.216257095336914062e+00 6.735770225524902344e+00 -6.772911001462489367e-05 4.452159919310361147e-05 -6.962253337405854836e-06 -4.234065636410377920e-05
2.669000000000000000e+03 7.363149261474609375e+01 -3.215633392333984375e+01 -6.433672308921813965e-01 4.021667480468750000e+00 1.013490080833435059e+00 8.425047397613525391e-01
2.670000000000000000e+03 3.224359130859375000e+01 -9.590828895568847656e+00 5.735934973927214742e-05 3.142945206491276622e-05 2.663664054125547409e-05 3.752292968783876859e-06
2.671000000000000000e+03 7.498964691162109375e+01 -3.001653289794921875e+01 -4.698189795017242432e-01 5.966594696044921875e+00 1.649032711982727051e+00 2.018110990524291992e+00
2.672000000000000000e+03 7.474555206298828125e+01 -3.048301124572753906e+01 -5.644793510437011719e-01 5.565590381622314453e+00 1.500333309173583984e+00 1.642152547836303711e+00
2.673000000000000000e+03 2.957785797119140625e+01 -8.047802925109863281e+00 -4.987375723430886865e-05 2.660745849425438792e-06 -1.416390387021237984e-05 3.629250932135619223e-05
2.674000000000000000e+03 2.766596031188964844e+01 -6.664891719818115234e+00 -3.387459946679882705e-05 1.073258408723631874e-05 -6.942605068616103381e-06 2.701965968299191445e-05
2.675000000000000000e+03 2.730126380920410156e+01 -4.746353626251220703e+00 6.841174763394519687e-05 -6.052734079275978729e-06 1.870770392997656018e-05 -2.604129622341133654e-05
2.676000000000000000e+03 4.321245956420898438e+01 -1.443626213073730469e+01 8.954574877861887217e-05 1.083539427781943232e-05 3.011434455402195454e-05 2.325648711121175438e-05
2.677000000000000000e+03 4.222498321533203125e+01 -1.049031257629394531e+01 -1.915247703436762094e-04 2.822032729454804212e-05 -4.899133273283950984e-05 -8.507434540661051869e-05
2.678000000000000000e+03 2.867294120788574219e+01 -6.771757602691650391e+00 -4.866660310653969646e-05 1.813459493860136718e-05 -9.159602086583618075e-06 3.106395524810068309e-05
2.679000000000000000e+03 1.589728164672851562e+01 5.470948219299316406e+00 2.574787067715078592e-04 -7.902747165644541383e-05 5.353536835173144937e-05 -5.948509351583197713e-05
2.680000000000000000e+03 1.263420486450195312e+01 -8.900657653808593750e+00 -1.137639774242416024e-04 -8.065718429861590266e-05 -5.832634997204877436e-05 6.579085311386734247e-05
2.681000000000000000e+03 2.900748252868652344e+01 -8.637193679809570312e+00 4.914485543849878013e-05 5.687865723302820697e-06 1.644981603021733463e-05 -2.265562579850666225e-05
2.682000000000000000e+03 1.804000854492187500e+01 3.859495401382446289e+00 2.912747440859675407e-04 -6.005577961332164705e-05 6.936568388482555747e-05 -5.284723738441243768e-05
2.683000000000000000e+03 4.491493988037109375e+01 -1.309040164947509766e+01 -2.537435875638038851e-06 -8.273586718132719398e-05 -2.558199230406899005e-05 -4.086176340933889151e-05
2.684000000000000000e+03 2.627723693847656250e+01 -3.332087993621826172e+00 8.694158896105363965e-05 -2.292609451615135185e-06 2.539469460316468030e-05 -3.762164487852714956e-05
2.685000000000000000e+03 2.437702751159667969e+01 1.247192621231079102e-01 -2.889100323955062777e-05 -2.202583527832757682e-05 -1.527505082776769996e-05 6.337893137242645025e-05
2.686000000000000000e+03 3.603679656982421875e+01 -1.193696022033691406e+01 7.395131979137659073e-05 2.216801658505573869e-05 2.883580054913181812e-05 2.343749656574800611e-05
2.687000000000000000e+03 3.678596496582031250e+01 -1.301836967468261719e+01 5.850188244949094951e-05 2.336662510060705245e-05 2.456055153743363917e-05 1.508995956100989133e-05
2.688000000000000000e+03 2.458308410644531250e+01 -2.492775678634643555e+00 -4.292089215596206486e-06 -2.146513725165277719e-05 -7.727167940174695104e-06 4.949425783706828952e-05
2.689000000000000000e+03 2.449793434143066406e+01 -1.207343935966491699e+00 -1.530016561446245760e-05 -2.208147270721383393e-05 -1.121449167840182781e-05 5.863953629159368575e-05
2.690000000000000000e+03 4.091706848144531250e+01 -1.429675292968750000e+01 -4.615842044586315751e-05 1.133295700128655881e-05 -1.044763939717086032e-05 -4.408904715091921389e-05
2.691000000000000000e+03 4.225164031982421875e+01 -1.259372234344482422e+01 -1.126435963669791818e-04 -3.404543167562223971e-05 -4.400670877657830715e-05 -7.342653407249599695e-05
2.692000000000000000e+03 3.945428466796875000e+01 -1.281883621215820312e+01 1.358086228719912469e-05 7.165098213590681553e-05 2.556955405452754349e-05 2.231973667221609503e-05
2.693000000000000000e+03 1.988959121704101562e+01 1.814497470855712891e+00 2.320618514204397798e-04 -4.425829320098273456e-05 5.634106855723075569e-05 -6.992001726757735014e-05
2.694000000000000000e+03 1.650746154785156250e+01 4.465441226959228516e+00 2.742691431194543839e-04 -3.201966319466009736e-05 7.267484033945947886e-05 4.292583525966620073e-06
2.695000000000000000e+03 1.530053901672363281e+01 4.861113548278808594e+00 -1.305456771660828963e-05 6.444258178817108274e-05 1.541640449431724846e-05 1.074921146937413141e-05
2.696000000000000000e+03 1.088645458221435547e+01 6.090964794158935547e+00 -5.556889300351031125e-05 3.039837793039623648e-05 -7.551154340035282075e-06 -4.692141374107450247e-05
2.697000000000000000e+03 8.756431579589843750e+00 8.981628417968750000e+00 2.029216848313808441e-04 4.573187834466807544e-05 7.459606422344222665e-05 -1.153673656517639756e-04
2.698000000000000000e+03 2.384667968750000000e+01 -5.236636400222778320e-01 1.575865317136049271e-04 -1.144311681855469942e-05 4.384302519611082971e-05 -5.642257383442483842e-05
2.699000000000000000e+03 2.571501541137695312e+01 -2.617742300033569336e+00 -9.742135262058582157e-06 -1.421861179551342502e-05 -7.188224117271602154e-06 5.148690615897066891e-05
2.700000000000000000e+03 2.512166976928710938e+01 -1.906514763832092285e+00 1.195913937408477068e-04 -5.039463303546654060e-06 3.436558108660392463e-05 -4.847287709708325565e-05
2.701000000000000000e+03 1.097182846069335938e+01 -7.275614261627197266e+00 -9.456257248530164361e-05 3.663098368633654900e-06 -2.726984166656620800e-05 -4.008101313957013190e-05
2.702000000000000000e+03 2.031007766723632812e+01 2.503515720367431641e+00 -6.335750367725268006e-05 -1.176304340333444998e-05 -2.253616548841819167e-05 4.057845580973662436e-05
2.703000000000000000e+03 2.298025321960449219e+01 1.467364788055419922e+00 -4.509382779360748827e-05 -2.957049582619220018e-05 -2.239929744973778725e-05 6.240001675905659795e-05
2.704000000000000000e+03 2.131497001647949219e+01 7.211061120033264160e-01 1.960244262591004372e-04 -2.746728569036349654e-05 5.056714144302532077e-05 -7.014811853878200054e-05
2.705000000000000000e+03 1.527408599853515625e+01 5.954421043395996094e+00 1.354392679786542431e-05 5.237343430053442717e-05 1.977520878426730633e-05 -2.278431202284991741e-05
2.706000000000000000e+03 7.311676025390625000e+01 -3.345222854614257812e+01 -5.531035661697387695e-01 3.721269369125366211e+00 9.504497647285461426e-01 7.624586820602416992e-01
2.707000000000000000e+03 7.357022094726562500e+01 -3.395294952392578125e+01 -4.743152558803558350e-01 4.421405792236328125e+00 1.184127092361450195e+00 9.335682392120361328e-01
2.708000000000000000e+03 7.724058532714843750e+01 -3.148188018798828125e+01 -1.177563667297363281e+00 1.104537963867187500e+01 2.960344791412353516e+00 7.699225842952728271e-02
2.709000000000000000e+03 4.132923889160156250e+01 -6.533224582672119141e+00 -1.241494901478290558e-04 -9.456655243411660194e-05 -6.561481131939217448e-05 -3.736144572030752897e-05
2.710000000000000000e+03 4.174962615966796875e+01 -4.169907093048095703e+00 1.172214833786711097e-04 1.550875604152679443e-04 8.169271313818171620e-05 -6.992355338297784328e-06
2.711000000000000000e+03 4.166411209106445312e+01 -7.595189571380615234e+00 1.086045886040665209e-04 9.891754598356783390e-05 6.225664401426911354e-05 3.939400994568131864e-05
2.712000000000000000e+03 7.399206542968750000e+01 -1.933155059814453125e+01 -4.214638471603393555e-01 4.945806980133056641e+00 1.357302904129028320e+00 -1.511117935180664062e+00
2.713000000000000000e+03 7.322733306884765625e+01 -1.943875503540039062e+01 -5.288506150245666504e-01 4.089071273803710938e+00 1.068066239356994629e+00 -1.487258195877075195e+00
2.714000000000000000e+03 6.845227813720703125e+01 -1.582599925994873047e+01 9.990764260292053223e-01 1.236253619194030762e+00 6.705990433692932129e-01 2.236823886632919312e-01
2.715000000000000000e+03 7.087651062011718750e+01 -1.580361747741699219e+01 7.437192797660827637e-01 2.456040382385253906e+00 9.599279165267944336e-01 -7.454639077186584473e-01
2.716000000000000000e+03 4.032282257080078125e+01 -8.812569975852966309e-01 4.042499494971707463e-05 -1.721533953968901187e-05 6.962896804907359183e-06 3.748688686755485833e-05
2.717000000000000000e+03 4.062260818481445312e+01 -4.356597900390625000e+00 -1.487600093241780996e-04 -1.073120147339068353e-04 -7.682160503463819623e-05 2.116232644766569138e-05
2.718000000000000000e+03 2.912122154235839844e+01 -7.417616844177246094e+00 7.087815902195870876e-05 -4.252521648595575243e-06 1.998769039346370846e-05 -2.982668593176640570e-05
2.719000000000000000e+03 2.822598075866699219e+01 -6.110798358917236328e+00 6.872163794469088316e-05 -1.191397677757777274e-05 1.704229907772969455e-05 -2.209445301559753716e-05
2.720000000000000000e+03 7.293782043457031250e+01 -3.572601699829101562e+01 7.309417426586151123e-02 3.812713146209716797e+00 1.165742158889770508e+00 8.104267120361328125e-01
2.721000000000000000e+03 1.405105400085449219e+01 6.002585887908935547e+00 5.304202568368054926e-05 4.670778798754326999e-05 2.992494410136714578e-05 6.031913017068291083e-06
2.722000000000000000e+03 3.509003829956054688e+01 -1.176524734497070312e+01 -7.709353667451068759e-05 -1.544154292787425220e-05 -2.776052315311972052e-05 -2.674761708476580679e-05
2.723000000000000000e+03 4.952065277099609375e+01 -2.853943252563476562e+01 8.566070795059204102e-01 3.307405412197113037e-01 3.562043011188507080e-01 -1.053910255432128906e-01
2.724000000000000000e+03 1.209272384643554688e+01 -9.725743293762207031e+00 1.373057457385584712e-04 1.113679245463572443e-04 7.460210326826199889e-05 -3.618710616137832403e-05
2.725000000000000000e+03 7.500985717773437500e+01 -3.246282196044921875e+01 -7.489969730377197266e-01 6.614465236663818359e+00 1.759640455245971680e+00 1.073038816452026367e+00
2.726000000000000000e+03 7.524480438232421875e+01 -3.143037223815917969e+01 -8.791231513023376465e-01 7.177846431732177734e+00 1.889616966247558594e+00 1.261916518211364746e+00
2.727000000000000000e+03 5.090732955932617188e+01 -2.703854942321777344e+01 9.384605884552001953e-01 5.795111060142517090e-01 4.553914964199066162e-01 -2.666322290897369385e-01
2.728000000000000000e+03 3.814570999145507812e+01 -3.286384344100952148e-01 -4.222169081913307309e-05 1.602452248334884644e-04 3.540706165949814022e-05 -1.074126193998381495e-04
2.729000000000000000e+03 3.671550750732421875e+01 -3.678050041198730469e-01 -9.960198804037645459e-05 2.289029653184115887e-04 3.879029463860206306e-05 -1.367721561109647155e-04
2.730000000000000000e+03 4.957831192016601562e+01 -3.010035133361816406e+01 8.602101802825927734e-01 5.296916365623474121e-01 4.169705510139465332e-01 2.533782720565795898e-01
2.731000000000000000e+03 4.766179656982421875e+01 -3.001643943786621094e+01 4.845503866672515869e-01 2.327384427189826965e-03 1.460633277893066406e-01 3.836962208151817322e-02
2.732000000000000000e+03 5.292798519134521484e+00 7.921764373779296875e+00 2.418300391582306474e-05 5.477906961459666491e-05 2.368862260482273996e-05 -6.345607107505202293e-05
2.733000000000000000e+03 2.060931015014648438e+01 1.284169435501098633e+00 -3.921200186596252024e-05 -1.156223879661411047e-05 -1.523227274446981028e-05 5.199551378609612584e-05
2.734000000000000000e+03 3.695105361938476562e+01 -1.210403537750244141e+01 -7.696479588048532605e-05 -1.509023240942042321e-05 -2.761650830507278442e-05 -2.532734470150899142e-05
2.735000000000000000e+03 4.097296905517578125e+01 -5.456322669982910156e+00 1.454112207284197211e-04 1.062913288478739560e-04 7.551076123490929604e-05 6.091321210988098755e-06
2.736000000000000000e+03 4.034164428710937500e+01 -3.234892368316650391e+00 1.328876387560740113e-04 1.969539298443123698e-04 9.895247058011591434e-05 -8.050705218920484185e-05
2.737000000000000000e+03 1.264058113098144531e+01 6.160836219787597656e+00 6.964309432078152895e-05 5.232664989307522774e-05 3.659092180896550417e-05 -1.447654767616768368e-06
2.738000000000000000e+03 6.472553730010986328e+00 8.098465919494628906e+00 3.913131149602122605e-05 3.865804501401726156e-06 1.289913416258059442e-05 -1.127572977566160262e-04
2.739000000000000000e+03 4.772301483154296875e+01 -2.598727416992187500e+01 1.857108473777770996e-01 -2.288425415754318237e-01 -1.293950714170932770e-02 -7.208051085472106934e-01
2.740000000000000000e+03 4.817789077758789062e+01 -2.743060302734375000e+01 4.522451460361480713e-01 -9.536594152450561523e-02 1.070637553930282593e-01 -4.535223245620727539e-01
2.741000000000000000e+03 8.169375419616699219e+00 1.048430824279785156e+01 1.306404010392725468e-04 8.914316276786848903e-05 6.593506986973807216e-05 -1.206219676532782614e-04
2.742000000000000000e+03 3.365828704833984375e+01 -1.033053874969482422e+01 8.837503992253914475e-05 2.925483022409025580e-05 3.528896195348352194e-05 1.279854041058570147e-05
2.743000000000000000e+03 7.004351043701171875e+01 -1.554768753051757812e+01 9.315853118896484375e-01 2.005182027816772461e+00 8.810302019119262695e-01 -3.613921999931335449e-01
2.744000000000000000e+03 7.007658004760742188e+00 -7.861189365386962891e+00 -6.689806468784809113e-05 -8.770835847826674581e-05 -4.638192694983445108e-05 -1.186691515613347292e-04
2.745000000000000000e+03 7.503463745117187500e+00 -9.909310340881347656e+00 2.027224945777561516e-05 -2.623054751893505454e-05 -1.787489509297301993e-06 -1.365218486171215773e-04
2.746000000000000000e+03 7.434162139892578125e+01 -3.237795639038085938e+01 -6.142237186431884766e-01 5.402327537536621094e+00 1.436431169509887695e+00 9.807580113410949707e-01
2.747000000000000000e+03 4.325940322875976562e+01 -9.497794151306152344e+00 -1.487906993133947253e-04 -4.971496673533692956e-05 -5.955169763183221221e-05 -6.638456397922709584e-05
2.748000000000000000e+03 4.278178405761718750e+01 -7.379978656768798828e+00 -1.170347968582063913e-04 -9.362177661387249827e-05 -6.319697422441095114e-05 -4.368204099591821432e-05
2.749000000000000000e+03 5.046419525146484375e+01 -2.921722412109375000e+01 1.105582594871520996e+00 6.731594204902648926e-01 5.336226224899291992e-01 1.598851829767227173e-01
2.750000000000000000e+03 1.013901615142822266e+01 2.768870544433593750e+01 -1.709883072180673480e-04 2.235431602457538247e-04 1.576645263412501663e-05 -9.647604747442528605e-05
2.751000000000000000e+03 1.132125663757324219e+01 8.088392257690429688e+00 -5.365917604649439454e-05 -2.504199255781713873e-05 -2.361035149078816175e-05 -7.464881491614505649e-05
2.752000000000000000e+03 3.862588119506835938e+01 4.340072631835937500e+00 -1.169457173091359437e-04 -1.325552148045971990e-04 -7.485027890652418137e-05 3.046229830943048000e-04
2.753000000000000000e+03 3.802832031250000000e+01 1.404155015945434570e+00 2.305597081431187689e-05 1.793332339730113745e-04 6.071676034480333328e-05 -1.374898565700277686e-04
2.754000000000000000e+03 7.320112705230712891e+00 1.071782970428466797e+01 -8.654581324663013220e-05 2.480275907146278769e-05 -1.852291643444914371e-05 -1.556920033181086183e-04
2.755000000000000000e+03 8.124828338623046875e+00 -1.074783611297607422e+01 -2.189113874919712543e-04 4.670000998885370791e-05 -5.166340997675433755e-05 1.827205851441249251e-04
2.756000000000000000e+03 9.298377037048339844e+00 -8.556681632995605469e+00 -8.791242726147174835e-05 -1.374540006509050727e-04 -6.760992255294695497e-05 3.449631913099437952e-05
2.757000000000000000e+03 9.245047569274902344e+00 1.723677062988281250e+01 -1.244097256858367473e-05 -1.087486180040286854e-05 -6.994750492594903335e-06 -2.213002589996904135e-04
2.758000000000000000e+03 6.939898681640625000e+01 -1.659437561035156250e+01 7.361774444580078125e-01 1.223041415214538574e+00 5.877656936645507812e-01 -2.294975221157073975e-01
2.759000000000000000e+03 7.240278625488281250e+01 -1.355082416534423828e+01 6.909191608428955078e-01 4.127421855926513672e+00 1.445502281188964844e+00 -8.431246876716613770e-01
2.760000000000000000e+03 4.750425720214843750e+01 -3.172762870788574219e+01 3.715923130512237549e-01 1.272702068090438843e-01 1.496587544679641724e-01 3.099961578845977783e-01
2.761000000000000000e+03 7.538701534271240234e+00 9.848940849304199219e+00 1.420833868905901909e-04 3.177599501213990152e-05 5.215781129663810134e-05 -5.300437805999536067e-06
2.762000000000000000e+03 7.615373611450195312e+00 6.863054752349853516e+00 1.912737498059868813e-04 9.978573871194384992e-06 6.037569619365967810e-05 3.273472248110920191e-05
2.763000000000000000e+03 7.854538917541503906e+00 1.985546302795410156e+01 1.517163618700578809e-04 2.125668397638946772e-04 1.092849561246111989e-04 -2.033081982517614961e-04
2.764000000000000000e+03 4.306372451782226562e+01 -8.452813148498535156e+00 1.311545638600364327e-04 7.429131073877215385e-05 6.163376383483409882e-05 3.716506398632191122e-05
2.765000000000000000e+03 4.090236282348632812e+01 -8.923130035400390625e+00 6.569080142071470618e-05 1.263715093955397606e-04 5.761869397247210145e-05 7.802061736583709717e-05
2.766000000000000000e+03 7.284075927734375000e+01 -1.750710487365722656e+01 5.520889908075332642e-02 3.694722414016723633e+00 1.124979376792907715e+00 -1.433602452278137207e+00
2.767000000000000000e+03 7.256259155273437500e+01 -1.628647613525390625e+01 4.289472699165344238e-01 3.655402421951293945e+00 1.225304961204528809e+00 -1.263388037681579590e+00
2.768000000000000000e+03 3.509465789794921875e+01 2.606424903869628906e+01 2.231217920780181885e-03 -1.214165124110877514e-03 3.051158855669200420e-04 -7.140816305764019489e-04
2.769000000000000000e+03 1.325546836853027344e+01 -8.243727684020996094e+00 7.045691017992794514e-05 8.518654794897884130e-05 4.669303598348051310e-05 -7.324097532546147704e-05
2.770000000000000000e+03 9.227448463439941406e+00 1.573382759094238281e+01 1.008200706564821303e-04 1.914388267323374748e-04 8.767766848905012012e-05 -9.126921213464811444e-05
2.771000000000000000e+03 1.004405498504638672e+01 2.997584152221679688e+01 -3.319296229165047407e-04 2.619375009089708328e-04 -2.099763332807924598e-05 -2.283327485201880336e-04
2.772000000000000000e+03 3.438606643676757812e+01 8.570889472961425781e+00 -4.307081981096416712e-04 -2.419524753349833190e-05 -1.364710333291441202e-04 6.053455217625014484e-05
2.773000000000000000e+03 3.553199386596679688e+01 7.138982772827148438e+00 -5.325296660885214806e-04 7.562662631244165823e-06 -1.574900961713865399e-04 7.996973727131262422e-05
2.774000000000000000e+03 3.444127273559570312e+01 9.910185813903808594e+00 7.299736607819795609e-04 5.459954991238191724e-05 2.353719610255211592e-04 1.941117807291448116e-04
2.775000000000000000e+03 3.442492294311523438e+01 1.132238960266113281e+01 -3.775666409637778997e-04 1.316903217229992151e-05 -1.093192840926349163e-04 1.167084847111254930e-04
2.776000000000000000e+03 3.887826538085937500e+01 -1.170022487640380859e+01 4.123718099435791373e-05 4.372021794551983476e-05 2.548721931816544384e-05 -1.360389887850033119e-06
2.777000000000000000e+03 8.548345565795898438e+00 1.158397960662841797e+01 -6.216931797098368406e-05 2.292082899657543749e-05 -1.177454760181717575e-05 -1.085974363377317786e-04
2.778000000000000000e+03 3.568241119384765625e+01 1.452879047393798828e+01 1.025264151394367218e-03 -3.612164800870232284e-05 2.967427717521786690e-04 3.508176887407898903e-04
2.779000000000000000e+03 3.778087234497070312e+01 2.391415405273437500e+01 2.574827754870057106e-03 -6.321694236248731613e-04 5.827975110150873661e-04 1.343528711004182696e-04
2.780000000000000000e+03 8.764609336853027344e+00 2.654750823974609375e+01 1.678864937275648117e-04 2.025710855377838016e-04 1.111372766899876297e-04 -3.680270165205001831e-04
2.781000000000000000e+03 9.222285270690917969e+00 2.310258483886718750e+01 -1.868068284238688648e-05 1.673015358392149210e-04 4.458625335246324539e-05 -1.386641088174656034e-04
2.782000000000000000e+03 1.115396308898925781e+01 2.640849876403808594e+01 9.702485112939029932e-05 1.870128180598840117e-04 8.521130075678229332e-05 -3.664865507744252682e-04
2.783000000000000000e+03 3.455368041992187500e+01 -3.842790985107421875e+01 3.765392303466796875e-02 -1.815911829471588135e-01 -4.318117722868919373e-02 -1.097089722752571106e-01
2.784000000000000000e+03 7.523665618896484375e+01 -2.390655326843261719e+01 -7.874494791030883789e-01 7.134283065795898438e+00 1.904050111770629883e+00 -1.819272398948669434e+00
2.785000000000000000e+03 7.538522338867187500e+01 -3.040223121643066406e+01 -9.085217714309692383e-01 7.587336063385009766e+00 2.003644227981567383e+00 1.858238697052001953e+00
2.786000000000000000e+03 7.478413391113281250e+01 -3.083052635192871094e+01 -7.033048272132873535e-01 5.945235252380371094e+00 1.572579145431518555e+00 1.386926174163818359e+00
2.787000000000000000e+03 3.164016342163085938e+01 -9.107942581176757812e+00 -3.602226570365019143e-05 -1.994039666897151619e-05 -1.678879925748333335e-05 4.056466877955244854e-06
2.788000000000000000e+03 7.467757415771484375e+01 -3.126160621643066406e+01 -7.192549109458923340e-01 5.830378055572509766e+00 1.533336877822875977e+00 1.234260082244873047e+00
2.789000000000000000e+03 1.199925422668457031e+01 -8.052758216857910156e+00 1.108855121856322512e-05 6.160986231407150626e-05 2.180952469643671066e-05 -2.978994780278299004e-05
2.790000000000000000e+03 2.105109786987304688e+01 1.965717077255249023e+00 2.449723542667925358e-04 -3.676099004223942757e-05 6.246341217774897814e-05 -6.815775850554928184e-05
2.791000000000000000e+03 2.777219772338867188e+01 -5.436652660369873047e+00 -2.676838084880728275e-05 1.194360720546683297e-05 -4.447431820153724402e-06 3.008129533554892987e-05
2.792000000000000000e+03 3.061632156372070312e+01 -8.018804550170898438e+00 -4.430642002262175083e-05 -1.288750263483962044e-05 -1.715817779768258333e-05 4.171374530415050685e-05
2.793000000000000000e+03 4.441411209106445312e+01 -1.160902023315429688e+01 1.533718896098434925e-04 -2.021130285356775858e-07 4.595093560055829585e-05 4.846779120271094143e-05
2.794000000000000000e+03 4.234214019775390625e+01 -1.356288528442382812e+01 1.036366375046782196e-04 2.643999505380634218e-05 3.902299067704007030e-05 5.048995080869644880e-05
2.795000000000000000e+03 4.322339630126953125e+01 -1.349283599853515625e+01 -1.198204918182455003e-04 -6.362695330608403310e-06 -3.785495573538355529e-05 -3.140425906167365611e-05
2.796000000000000000e+03 1.028333473205566406e+01 7.417575359344482422e+00 -4.175433787168003619e-05 -1.725020229059737176e-05 -1.770136259438004345e-05 -6.150868284748867154e-05
2.797000000000000000e+03 9.639601707458496094e+00 8.654073715209960938e+00 -6.719522207276895642e-05 3.167446266161277890e-06 -1.920833346957806498e-05 -4.948367131873965263e-05
2.798000000000000000e+03 7.613770294189453125e+01 -3.184336090087890625e+01 -1.027030467987060547e+00 9.074361801147460938e+00 2.414199352264404297e+00 7.947217226028442383e-01
2.799000000000000000e+03 7.661109924316406250e+01 -3.128732299804687500e+01 -1.335630774497985840e+00 1.036333370208740234e+01 2.708311080932617188e+00 5.877329707145690918e-01
2.800000000000000000e+03 3.110645484924316406e+01 -8.578692436218261719e+00 4.138892109040170908e-05 3.499882222968153656e-05 2.291632335982285440e-05 -1.726035588944796473e-05
2.801000000000000000e+03 1.836448860168457031e+01 4.566187381744384766e+00 -1.008804174489341676e-04 -1.164812033493944909e-06 -3.061356983380392194e-05 -1.254911512660328299e-05
2.802000000000000000e+03 3.242545700073242188e+01 -1.091002845764160156e+01 6.414928066078573465e-05 2.965833664347883314e-05 2.814228719216771424e-05 1.440929167983995285e-06
2.803000000000000000e+03 3.322886276245117188e+01 -1.129503345489501953e+01 -8.636743586976081133e-05 -1.189692648040363565e-05 -2.947930806840304285e-05 -9.877187039819546044e-06
2.804000000000000000e+03 1.879958343505859375e+01 3.456233739852905273e+00 -7.932716107461601496e-05 3.828568878816440701e-06 -2.264957765873987228e-05 1.395533672621240839e-05
2.805000000000000000e+03 2.561885070800781250e+01 7.984799891710281372e-02 -4.035291567561216652e-05 -5.529060217668302357e-06 -1.376459294988308102e-05 6.848431075923144817e-05
2.806000000000000000e+03 2.685044670104980469e+01 -2.749608755111694336e+00 -1.356492157356115058e-05 -2.513288791305967607e-06 -4.823463314096443355e-06 5.739821790484711528e-05
2.807000000000000000e+03 2.680521011352539062e+01 -4.042296886444091797e+00 -1.226634685735916719e-05 -2.815702373482054099e-06 -4.524614723777631298e-06 3.980833207606337965e-05
2.808000000000000000e+03 1.784612464904785156e+01 5.619781970977783203e+00 -1.111126912292093039e-04 3.223252349471295020e-07 -3.323710916447453201e-05 -4.235172673361375928e-05
2.809000000000000000e+03 1.669675254821777344e+01 5.140429973602294922e+00 -1.052191073540598154e-04 3.148390533169731498e-05 -2.212056097050663084e-05 -6.867937190691009164e-05
2.810000000000000000e+03 1.955808258056640625e+01 3.002848625183105469e+00 2.729355474002659321e-04 -5.007394065614789724e-05 6.685848347842693329e-05 -6.337319064186885953e-05
2.811000000000000000e+03 1.916216850280761719e+01 4.172930717468261719e+00 3.081407921854406595e-04 -4.977282515028491616e-05 7.751039083814248443e-05 -5.385995245887897909e-05
2.812000000000000000e+03 2.787599945068359375e+01 -4.180115222930908203e+00 -1.532126589154358953e-05 8.907501069188583642e-06 -1.924129719554912299e-06 4.207182792015373707e-05
2.813000000000000000e+03 2.847322082519531250e+01 -3.603954792022705078e+00 7.212151831481605768e-05 -1.144941597885917872e-05 1.820163015509024262e-05 -4.277216430637054145e-05
2.814000000000000000e+03 2.936726570129394531e+01 -4.981114864349365234e+00 7.361554162343963981e-05 -2.116454015776980668e-05 1.573530062159989029e-05 -2.371369555476121604e-05
2.815000000000000000e+03 2.504410552978515625e+01 -5.789105296134948730e-01 1.613226486369967461e-04 -1.535310548206325620e-05 4.379086385597474873e-05 -5.223759944783523679e-05
2.816000000000000000e+03 3.952625274658203125e+01 -4.547493457794189453e+00 1.873831497505307198e-04 8.902783883968368173e-05 8.292329584946855903e-05 -5.544155214920465369e-07
2.817000000000000000e+03 2.628408241271972656e+01 -2.021861314773559570e+00 1.179449027404189110e-04 -1.014912595564965159e-05 3.233873212593607605e-05 -4.831527621718123555e-05
2.818000000000000000e+03 2.177724647521972656e+01 1.391570448875427246e+00 -4.341978274169377983e-05 -2.390434383414685726e-05 -2.019723797275219113e-05 5.843439066666178405e-05
2.819000000000000000e+03 4.024520492553710938e+01 -6.771723270416259766e+00 1.373213162878528237e-04 8.987596811493858695e-05 6.815918459324166179e-05 3.024815669050440192e-05
2.820000000000000000e+03 3.914104461669921875e+01 -3.325373411178588867e+00 -2.033895434578880668e-04 -7.787015056237578392e-05 -8.437791257165372372e-05 6.283185211941599846e-05
2.821000000000000000e+03 7.831291675567626953e+00 -7.810301303863525391e+00 2.119523014698643237e-05 1.150984680862165987e-04 4.088810965185984969e-05 8.814506145427003503e-05
2.822000000000000000e+03 7.976611137390136719e+00 -8.658017158508300781e+00 2.908407623181119561e-05 -9.540034079691395164e-05 -1.989488009712658823e-05 -8.140996942529454827e-05
2.823000000000000000e+03 2.368921470642089844e+01 8.100150823593139648e-01 2.023842098424211144e-04 -1.956729829544201493e-05 5.484507346409372985e-05 -5.795322431367821991e-05
2.824000000000000000e+03 7.865100383758544922e+00 9.048568725585937500e+00 -1.069811260094866157e-04 5.366195182432420552e-05 -1.599575261934660375e-05 -1.128573130699805915e-04
2.825000000000000000e+03 1.497993564605712891e+01 8.143421173095703125e+00 1.993511395994573832e-04 -2.649512680363841355e-07 5.972585859126411378e-05 3.732332334038801491e-05
2.826000000000000000e+03 1.631254386901855469e+01 6.072157859802246094e+00 -8.074619108811020851e-05 3.190936695318669081e-05 -1.465104742237599567e-05 -5.842144310008734465e-05
2.827000000000000000e+03 3.291582489013671875e+01 -1.000142097473144531e+01 -7.643939898116514087e-05 -1.941761365742422640e-05 -2.875710379157681018e-05 -5.467056212182797026e-07
2.828000000000000000e+03 3.413650894165039062e+01 -1.156344032287597656e+01 7.500599167542532086e-05 2.324655179108958691e-05 2.947576285805553198e-05 2.422001489321701229e-05
2.829000000000000000e+03 4.195821762084960938e+01 -8.639359474182128906e+00 -9.136819426203146577e-05 -9.187834803014993668e-05 -5.497396341525018215e-05 -4.047396942041814327e-05
2.830000000000000000e+03 3.014687538146972656e+01 -7.435111522674560547e+00 8.143528975779190660e-05 5.016529030399397016e-06 2.593554381746798754e-05 -4.284071110305376351e-05
2.831000000000000000e+03 2.968856048583984375e+01 -6.830074787139892578e+00 -6.687231507385149598e-05 2.199770096922293305e-05 -1.346238423138856888e-05 3.982895213994197547e-05
2.832000000000000000e+03 3.333481216430664062e+01 -9.155927658081054688e+00 8.843529940349981189e-05 3.920091330655850470e-05 3.829086563200689852e-05 -1.433515649296168704e-06
2.833000000000000000e+03 3.699988555908203125e+01 -8.200612068176269531e+00 1.120540182455442846e-04 7.977572386153042316e-05 5.754892117693088949e-05 7.373003609245643020e-05
2.834000000000000000e+03 3.916642379760742188e+01 -7.054449558258056641e+00 -1.109107979573309422e-04 -7.740302680758759379e-05 -5.649414742947556078e-05 -4.828194505535066128e-05
2.835000000000000000e+03 3.782255935668945312e+01 -1.229824733734130859e+01 5.370766666601411998e-05 3.225635009584948421e-05 2.578920430096331984e-05 1.798312950995750725e-05
2.836000000000000000e+03 4.030521011352539062e+01 -1.199125289916992188e+01 1.920189788506831974e-06 1.179203463834710419e-04 3.595216185203753412e-05 2.784373646136373281e-05
2.837000000000000000e+03 3.520918273925781250e+01 5.847411632537841797e+00 6.850345525890588760e-04 1.869983316282741725e-05 2.111203211825340986e-04 5.561571742873638868e-05
2.838000000000000000e+03 1.554401588439941406e+01 6.929776191711425781e+00 1.427252718713134527e-04 1.495999640610534698e-05 4.730558066512458026e-05 -2.271592529723420739e-05
2.839000000000000000e+03 3.773681259155273438e+01 -2.001198768615722656e+00 -1.973343314602971077e-04 -1.236569223692640662e-04 -9.629737178329378366e-05 6.681506783934310079e-05
2.840000000000000000e+03 2.073215103149414062e+01 3.216351985931396484e+00 2.924146538134664297e-04 -4.404396531754173338e-05 7.451121200574561954e-05 -5.763320586993359029e-05
2.841000000000000000e+03 4.327495193481445312e+01 -1.152910232543945312e+01 -1.398821914335712790e-04 -2.348566522414330393e-05 -4.901035936200059950e-05 -8.437627548119053245e-05
2.842000000000000000e+03 8.982142448425292969e+00 -1.025807476043701172e+01 1.639917027205228806e-04 -4.752340100822038949e-05 3.494049087748862803e-05 -1.685916649876162410e-04
2.843000000000000000e+03 1.005618190765380859e+01 -8.877215385437011719e+00 1.456079335184767842e-04 9.562046034261584282e-05 7.236852252390235662e-05 -3.814697265625000000e-05
2.844000000000000000e+03 1.123781394958496094e+01 7.091987133026123047e+00 1.771881215972825885e-04 6.238131754798814654e-05 7.187083247117698193e-05 -6.567261880263686180e-05
2.845000000000000000e+03 9.013925552368164062e+00 9.994956970214843750e+00 -7.812088006176054478e-05 2.821893212967552245e-05 -1.497058565291808918e-05 -5.612746463157236576e-05
2.846000000000000000e+03 4.060132980346679688e+01 -7.826741695404052734e+00 -1.182373162009753287e-04 -7.725842442596331239e-05 -5.864872218808159232e-05 -6.803634460084140301e-05
2.847000000000000000e+03 1.357619857788085938e+01 6.680232524871826172e+00 7.124072726583108306e-05 -4.750165317091159523e-05 7.121723683667369187e-06 -1.302797754760831594e-04
2.848000000000000000e+03 1.479870223999023438e+01 6.509236812591552734e+00 1.034949818858876824e-04 -5.274268551147542894e-05 1.522568891232367605e-05 -1.137058789026923478e-04
2.849000000000000000e+03 3.735744094848632812e+01 4.691033661365509033e-01 3.981116242357529700e-05 -1.442072534700855613e-04 -3.131882840534672141e-05 1.709987991489470005e-04
2.850000000000000000e+03 3.128079605102539062e+01 -5.013261318206787109e+00 1.725731563055887818e-04 -1.845628321461845189e-05 4.623506174539215863e-05 -3.940362876164726913e-05
2.851000000000000000e+03 7.116963958740234375e+01 -1.475909137725830078e+01 8.155555129051208496e-01 2.955726385116577148e+00 1.131384611129760742e+00 -7.016605138778686523e-01
2.852000000000000000e+03 3.740431213378906250e+01 -2.901670455932617188e+00 -6.743284757249057293e-06 1.563654514029622078e-04 4.488665217650122941e-05 -6.337574450299143791e-05
2.853000000000000000e+03 1.019943714141845703e+01 -8.061175346374511719e+00 -1.116746934712864459e-04 -5.299950134940445423e-05 -4.940225699101574719e-05 3.307878068881109357e-05
2.854000000000000000e+03 3.481052017211914062e+01 -9.661295890808105469e+00 9.123142808675765991e-05 4.139595330343581736e-05 3.978821405326016247e-05 3.221519364160485566e-05
2.855000000000000000e+03 4.127898025512695312e+01 -1.280525493621826172e+01 4.895096208201721311e-05 8.190100197680294514e-05 3.925558849005028605e-05 7.716281834291294217e-05
2.856000000000000000e+03 3.655944824218750000e+01 1.115577697753906250e+00 1.505562540842220187e-04 1.556072820676490664e-04 9.184906230075284839e-05 -1.830200199037790298e-04
2.857000000000000000e+03 4.765678024291992188e+01 -3.458382415771484375e+01 2.856378555297851562e-01 3.712477684020996094e-01 1.970656812191009521e-01 4.779183864593505859e-01
2.858000000000000000e+03 4.853996658325195312e+01 -3.288161849975585938e+01 4.475682675838470459e-01 5.134006738662719727e-01 2.882906794548034668e-01 5.550079941749572754e-01
2.859000000000000000e+03 1.029276371002197266e+01 1.050254344940185547e+01 -1.058405250660143793e-04 5.927648817305453122e-05 -1.396921106788795441e-05 -6.425453466363251209e-05
2.860000000000000000e+03 7.020584106445312500e+01 -1.634200096130371094e+01 6.666669249534606934e-01 1.745054483413696289e+00 7.235164642333984375e-01 -5.648279786109924316e-01
2.861000000000000000e+03 3.639485549926757812e+01 5.520211219787597656e+00 -6.111105903983116150e-04 9.046895138453692198e-05 -1.561924873385578394e-04 1.769032969605177641e-04
2.862000000000000000e+03 3.484903335571289062e+01 2.024449586868286133e+00 5.638136644847691059e-04 -5.374780084821395576e-05 1.530197623651474714e-04 -1.534964103484526277e-04
2.863000000000000000e+03 9.414855003356933594e+00 1.440664100646972656e+01 9.416726970812305808e-05 -5.312007488100789487e-05 1.231415717484196648e-05 -1.946013071574270725e-04
2.864000000000000000e+03 8.811133384704589844e+00 2.125696372985839844e+01 4.263785012881271541e-05 2.116851683240383863e-04 7.629690662724897265e-05 -2.083574072457849979e-04
2.865000000000000000e+03 4.222499847412109375e+01 -9.597811698913574219e+00 1.299502764595672488e-04 4.487094338401220739e-05 5.244636486168019474e-05 2.712862260523252189e-05
2.866000000000000000e+03 1.159289836883544922e+01 1.436502838134765625e+01 -1.594202913111075759e-04 1.720756517897825688e-05 -4.266381802153773606e-05 -1.944870309671387076e-04
2.867000000000000000e+03 1.054309654235839844e+01 1.585479259490966797e+01 -3.515157732181251049e-05 -4.476734102354384959e-05 -2.397567732259631157e-05 -2.400187804596498609e-04
2.868000000000000000e+03 6.781645774841308594e+00 2.118688964843750000e+01 2.281501947436481714e-04 2.016000653384253383e-04 1.289250794798135757e-04 -2.048137394012883306e-04
2.869000000000000000e+03 9.928718566894531250e+00 2.183806037902832031e+01 6.850355566712096334e-05 7.053349690977483988e-05 4.171111504547297955e-05 -2.751255815383046865e-04
2.870000000000000000e+03 3.481273651123046875e+01 4.620587348937988281e+00 -5.523927393369376659e-04 1.046029210556298494e-04 -1.343369513051584363e-04 1.286286715185269713e-04
2.871000000000000000e+03 5.251305007934570312e+01 -3.425974273681640625e+01 2.144168764352798462e-01 1.893308639526367188e+00 6.323176622390747070e-01 7.049412131309509277e-01
2.872000000000000000e+03 8.462180137634277344e+00 1.363543987274169922e+01 -3.486250352580100298e-05 1.368735538562759757e-04 3.060331437154673040e-05 -1.333736581727862358e-04
2.873000000000000000e+03 3.964870834350585938e+01 -1.000384712219238281e+01 1.399156317347660661e-04 -1.749387774907518178e-05 3.672652746899984777e-05 3.097419903497211635e-05
2.874000000000000000e+03 1.058285331726074219e+01 2.398258018493652344e+01 8.040165994316339493e-05 1.361191098112612963e-04 6.495622801594436169e-05 -3.122219932265579700e-04
2.875000000000000000e+03 9.171947479248046875e+00 1.267671489715576172e+01 1.886343961814418435e-04 1.149224863183917478e-05 6.003799717291258276e-05 -1.457387552363798022e-04
2.876000000000000000e+03 3.425215530395507812e+01 1.434699630737304688e+01 -2.279590844409540296e-04 -3.202070365659892559e-05 -7.799393642926588655e-05 1.592930784681811929e-04
2.877000000000000000e+03 8.354125976562500000e+00 -9.478107452392578125e+00 -9.125485667027533054e-05 3.787422610912472010e-05 -1.601418989594094455e-05 1.214041403727605939e-04
2.878000000000000000e+03 3.689142990112304688e+01 3.792153596878051758e+00 -3.889066283591091633e-04 -9.453808161197230220e-06 -1.195081349578686059e-04 3.207157133147120476e-04
2.879000000000000000e+03 3.435606765747070312e+01 1.280270099639892578e+01 8.638724102638661861e-04 -3.004739846801385283e-05 2.501475100871175528e-04 2.626930363476276398e-04
2.880000000000000000e+03 3.245406723022460938e+01 1.901752281188964844e+01 -1.649957994231954217e-05 -2.656581928022205830e-04 -8.464733400614932179e-05 3.186189860571175814e-04
2.881000000000000000e+03 1.125456333160400391e+01 2.251813125610351562e+01 5.159259217180078849e-06 1.679498236626386642e-04 5.193272227188572288e-05 -1.928635465446859598e-04
2.882000000000000000e+03 3.413359069824218750e+01 1.595488643646240234e+01 9.958335431292653084e-04 -1.114808037527836859e-04 2.653058327268809080e-04 3.252367605455219746e-04
2.883000000000000000e+03 1.261583900451660156e+01 2.764591217041015625e+01 -1.406939263688400388e-04 1.010777414194308221e-04 -1.188485384773230180e-05 -2.067348686978220940e-04
2.884000000000000000e+03 3.364387130737304688e+01 2.218180084228515625e+01 2.242835762444883585e-04 -7.044624071568250656e-04 -1.440536434529349208e-04 2.622612228151410818e-04
2.885000000000000000e+03 3.578184127807617188e+01 2.743916320800781250e+01 -7.289892528206110001e-05 -7.442703936249017715e-04 -2.451507898513227701e-04 -2.674589632079005241e-04
2.886000000000000000e+03 3.306475067138671875e+01 9.851045608520507812e+00 -3.224369138479232788e-04 -4.460248237592168152e-05 -1.101118177757598460e-04 3.687576463562436402e-05
2.887000000000000000e+03 3.882014846801757812e+01 3.100457000732421875e+01 1.933802268467843533e-03 -1.289724372327327728e-03 1.932233863044530153e-04 -8.229026570916175842e-04
2.888000000000000000e+03 1.249666309356689453e+01 3.731099700927734375e+01 1.409486576449126005e-04 3.350202459841966629e-04 1.427906827302649617e-04 -3.712046600412577391e-05
2.889000000000000000e+03 1.892241859436035156e+01 -3.733513259887695312e+01 -2.811667975038290024e-03 3.048337530344724655e-03 7.100087532307952642e-05 5.558965727686882019e-03
2.890000000000000000e+03 2.353980827331542969e+01 -3.474750137329101562e+01 5.570426117628812790e-03 -8.227884536609053612e-04 1.424291287548840046e-03 4.523701034486293793e-03
2.891000000000000000e+03 1.255320835113525391e+01 -4.142441940307617188e+01 -3.146397881209850311e-03 2.921651583164930344e-03 -6.742390542058274150e-05 9.956689318642020226e-04
2.892000000000000000e+03 1.249587821960449219e+01 -3.672825241088867188e+01 -1.103413407690823078e-03 1.196881174109876156e-03 2.804032919812016189e-05 3.577640745788812637e-03
2.893000000000000000e+03 7.515936279296875000e+01 -3.072845458984375000e+01 -9.212219119071960449e-01 6.937192440032958984e+00 1.804791212081909180e+00 1.551978111267089844e+00
2.894000000000000000e+03 3.270245742797851562e+01 -7.650399208068847656e+00 2.258984750369563699e-05 1.567661456647329032e-05 1.147993862105067819e-05 -4.983333383279386908e-06
2.895000000000000000e+03 4.323314285278320312e+01 -1.253015899658203125e+01 1.377750013489276171e-04 1.819325461838161573e-06 4.187829836155287921e-05 4.546724812826141715e-05
2.896000000000000000e+03 3.119277572631835938e+01 -7.331182479858398438e+00 7.286889012902975082e-05 2.799155481625348330e-05 3.025813202839344740e-05 -5.878098818357102573e-05
2.897000000000000000e+03 2.834288215637207031e+01 -4.873074531555175781e+00 7.071607251418754458e-05 -1.250257901119766757e-05 1.746404814184643328e-05 -2.441185097268316895e-05
2.898000000000000000e+03 2.910244750976562500e+01 -3.025903224945068359e+00 4.053485099575482309e-06 1.830703513405751437e-05 6.708155979140428826e-06 8.677753066876903176e-05
2.899000000000000000e+03 2.923834419250488281e+01 -6.199600219726562500e+00 8.330745913553982973e-05 -1.681526555330492556e-05 1.994765807467047125e-05 -2.586129448900464922e-05
2.900000000000000000e+03 3.072008895874023438e+01 -6.793862819671630859e+00 -8.825290569802746177e-05 1.638635512790642679e-05 -2.155996480723842978e-05 5.757393955718725920e-05
2.901000000000000000e+03 2.149850845336914062e+01 2.672868013381958008e+00 -7.132229802664369345e-05 -2.470721119607333094e-05 -2.880885404010768980e-05 4.697981421486474574e-05
2.902000000000000000e+03 4.149023056030273438e+01 -1.372472476959228516e+01 -5.539522317121736705e-05 -5.883559424546547234e-05 -3.426924376981332898e-05 -6.101695544202812016e-05
2.903000000000000000e+03 1.951768684387207031e+01 4.912785053253173828e+00 -8.619539585197344422e-05 -3.883546742144972086e-05 -3.750925679923966527e-05 -6.579684395546792075e-06
2.904000000000000000e+03 1.868524360656738281e+01 5.305660247802734375e+00 3.321307885926216841e-04 -4.441908822627738118e-05 8.631350647192448378e-05 -5.141494693816639483e-05
2.905000000000000000e+03 1.755387306213378906e+01 4.887626171112060547e+00 3.217676712665706873e-04 -6.256285996641963720e-05 7.776144775561988354e-05 -3.152790304739028215e-05
2.906000000000000000e+03 2.798232078552246094e+01 -2.883597373962402344e+00 -1.145579335570801049e-05 1.068394522008020431e-05 -2.315545089004444890e-07 6.801736162742599845e-05
2.907000000000000000e+03 2.224888038635253906e+01 2.089687824249267578e+00 2.538612461648881435e-04 -3.107879092567600310e-05 6.683473475277423859e-05 -6.369636685121804476e-05
2.908000000000000000e+03 1.995201301574707031e+01 3.718693494796752930e+00 -8.202801109291613102e-05 -1.853898720582947135e-05 -3.017009839823003858e-05 1.782636900315992534e-05
2.909000000000000000e+03 2.034154129028320312e+01 4.457790851593017578e+00 3.245715925004333258e-04 -3.989686592831276357e-05 8.540241833543404937e-05 -3.878729694406501949e-05
2.910000000000000000e+03 3.448380661010742188e+01 -1.058703327178955078e+01 -8.777077164268121123e-05 -1.569602500239852816e-05 -3.104003917542286217e-05 -2.584420690254773945e-05
2.911000000000000000e+03 3.270220565795898438e+01 -8.806195259094238281e+00 -6.468980427598580718e-05 -1.415915176039561629e-05 -2.365468753851018846e-05 3.066258159378776327e-06
2.912000000000000000e+03 2.493500709533691406e+01 8.073693513870239258e-01 2.046591107500717044e-04 -2.716246126510668546e-05 5.324899393599480391e-05 -4.857223757426254451e-05
2.913000000000000000e+03 2.568218231201171875e+01 -1.295196413993835449e+00 -2.239666355308145285e-05 -1.146524573414353654e-05 -1.015857287711696699e-05 6.367563037201762199e-05
2.914000000000000000e+03 3.884675598144531250e+01 -5.916597366333007812e+00 1.499626378063112497e-04 7.507329428335651755e-05 6.751078035449609160e-05 3.592329812818206847e-05
2.915000000000000000e+03 3.025376510620117188e+01 -6.231244087219238281e+00 1.073300663847476244e-04 -1.893161243060603738e-05 2.651953582244459540e-05 -3.618848131736740470e-05
2.916000000000000000e+03 1.812920379638671875e+01 6.421132087707519531e+00 3.515099233482033014e-04 -3.932099207304418087e-05 9.365667938254773617e-05 -5.049048195360228419e-05
2.917000000000000000e+03 1.646382331848144531e+01 6.637032508850097656e+00 2.590072399470955133e-04 -1.712981884338660166e-06 7.718827691860496998e-05 8.131632057484239340e-06
2.918000000000000000e+03 2.627258110046386719e+01 -6.558183431625366211e-01 1.634369837120175362e-04 -2.524031879147514701e-05 4.145899947616271675e-05 -5.360066643333993852e-05
2.919000000000000000e+03 2.745293235778808594e+01 -2.147096633911132812e+00 1.133517725975252688e-04 -1.836833507695700973e-05 2.849503107427153736e-05 -5.536020034924149513e-05
2.920000000000000000e+03 1.048125362396240234e+01 8.316163063049316406e+00 1.760818413458764553e-04 6.321159162325784564e-05 7.178803207352757454e-05 -1.159695311798714101e-04
2.921000000000000000e+03 1.227424716949462891e+01 7.116703510284423828e+00 2.119465352734550834e-05 -6.538075831485912204e-05 -1.325583070865832269e-05 -1.346353528788313270e-04
2.922000000000000000e+03 1.413077831268310547e+01 7.829932689666748047e+00 3.975367144448682666e-05 -6.593717989744618535e-05 -7.855051990190986544e-06 -1.698605774436146021e-04
2.923000000000000000e+03 2.980324935913085938e+01 -5.626531600952148438e+00 -5.929334292886778712e-05 3.621554787969216704e-05 -6.923338332853745669e-06 3.426196053624153137e-05
2.924000000000000000e+03 3.669813156127929688e+01 -3.357223272323608398e+00 3.703560796566307545e-04 -1.251118374057114124e-04 7.357327558565884829e-05 3.189802737324498594e-05
2.925000000000000000e+03 3.880607986450195312e+01 -2.059752225875854492e+00 2.597965940367430449e-04 1.170147952507250011e-04 1.130434102378785610e-04 -1.200659826281480491e-04
2.926000000000000000e+03 4.135798645019531250e+01 -9.981270790100097656e+00 3.962008122471161187e-05 -1.098540451494045556e-04 -2.107018917740788311e-05 -3.317676237202249467e-05
2.927000000000000000e+03 3.864041137695312500e+01 -1.255984401702880859e+01 -3.059201844735071063e-05 -4.746994454762898386e-05 -2.341858817089814693e-05 -2.172608583350665867e-05
2.928000000000000000e+03 3.806279754638671875e+01 -7.223961353302001953e+00 1.380963367410004139e-04 7.945622201077640057e-05 6.526576908072456717e-05 2.688326094357762486e-05
2.929000000000000000e+03 3.536981582641601562e+01 -1.079641437530517578e+01 8.506018639309331775e-05 2.602929998829495162e-05 3.332684354973025620e-05 3.134736107313074172e-05
2.930000000000000000e+03 3.435352325439453125e+01 -8.587226867675781250e+00 8.491728658555075526e-05 7.111785089364275336e-05 4.681054269894957542e-05 1.920379327202681452e-05
2.931000000000000000e+03 1.140169239044189453e+01 8.929003715515136719e+00 2.096880052704364061e-04 4.879697735304944217e-05 7.754549733363091946e-05 -1.241096615558490157e-04
2.932000000000000000e+03 1.000281429290771484e+01 1.198182773590087891e+01 -9.545989450998604298e-05 8.462835830869153142e-05 -3.249461542509379797e-06 -9.422576113138347864e-05
2.933000000000000000e+03 1.304578304290771484e+01 8.387132644653320312e+00 6.539823516504839063e-05 -9.322389087174087763e-05 -8.347697075805626810e-06 -1.751430681906640530e-04
2.934000000000000000e+03 1.442497062683105469e+01 7.121160984039306641e+00 1.313998800469562411e-04 2.616004712763242424e-05 4.726797487819567323e-05 8.569826604798436165e-06
2.935000000000000000e+03 3.600469970703125000e+01 2.286021411418914795e-01 -3.764408756978809834e-05 -1.185422079288400710e-04 -4.685588646680116653e-05 1.711154036456719041e-04
2.936000000000000000e+03 3.572350311279296875e+01 1.628505468368530273e+00 -3.145933151245117188e-04 -1.475833300901285838e-06 -9.482073801336809993e-05 2.430794411338865757e-04
2.937000000000000000e+03 4.860826492309570312e+01 -3.096146011352539062e+01 5.809881687164306641e-01 3.101716339588165283e-01 2.673479616641998291e-01 2.875716388225555420e-01
2.938000000000000000e+03 3.627961349487304688e+01 -1.099069595336914062e+01 -9.096357098314911127e-05 -1.273082125408109277e-05 -3.110831676167435944e-05 -3.439204374444670975e-05
2.939000000000000000e+03 1.217825412750244141e+01 8.121387481689453125e+00 1.353382394881919026e-04 8.224504563258960843e-05 6.527498771902173758e-05 -2.027692426054272801e-05
2.940000000000000000e+03 9.901315689086914062e+00 9.576010704040527344e+00 2.050427428912371397e-04 3.387877586646936834e-05 7.167645526351407170e-05 -1.260604767594486475e-04
2.941000000000000000e+03 3.628006744384765625e+01 2.661765336990356445e+00 4.105054540559649467e-04 6.728414155077189207e-05 1.433368743164464831e-04 -2.241779438918456435e-04
2.942000000000000000e+03 1.001981449127197266e+01 1.354396247863769531e+01 -1.055184402503073215e-04 1.128819276345893741e-04 2.209044396295212209e-06 -5.947186582488939166e-05
2.943000000000000000e+03 1.060464859008789062e+01 1.890565872192382812e+01 2.094127194141037762e-05 -3.138749889330938458e-05 -3.133867721771821380e-06 -2.451896434649825096e-04
2.944000000000000000e+03 9.213861465454101562e+00 1.868532562255859375e+01 1.104852781281806529e-04 2.082986902678385377e-04 9.563519415678456426e-05 -1.634603395359590650e-04
2.945000000000000000e+03 3.424679565429687500e+01 7.292408943176269531e+00 6.626481190323829651e-04 6.905639747856184840e-05 2.195113484049215913e-04 1.545585691928863525e-04
2.946000000000000000e+03 3.402918243408203125e+01 6.058202743530273438e+00 -4.729344800580292940e-04 2.870745629479642957e-05 -1.332680985797196627e-04 4.229301703162491322e-05
2.947000000000000000e+03 5.092148971557617188e+01 -3.428448867797851562e+01 3.456669151782989502e-01 1.341213703155517578e+00 5.060641765594482422e-01 7.572300434112548828e-01
2.948000000000000000e+03 5.125198745727539062e+01 -2.834257507324218750e+01 1.233086228370666504e+00 9.186834692955017090e-01 6.455309391021728516e-01 8.320143818855285645e-02
2.949000000000000000e+03 9.456976890563964844e+00 1.101962947845458984e+01 1.976147614186629653e-04 3.632602238212712109e-05 7.018223550403490663e-05 -1.208543399116024375e-04
2.950000000000000000e+03 8.985585212707519531e+00 -9.077041625976562500e+00 1.800063473638147116e-04 -2.349741862417431548e-06 5.329698251443915069e-05 -4.863825233769603074e-05
2.951000000000000000e+03 4.111744308471679688e+01 -1.169633865356445312e+01 -1.699898348306305707e-05 -1.246531610377132893e-04 -4.249564153724350035e-05 -9.263942047255113721e-05
2.952000000000000000e+03 3.280538177490234375e+01 1.413036251068115234e+01 9.232187876477837563e-04 -1.346016360912472010e-04 2.365851396461948752e-04 2.388415596215054393e-04
2.953000000000000000e+03 3.302496719360351562e+01 1.120101833343505859e+01 7.569973822683095932e-04 -1.643799078010488302e-05 2.221678150817751884e-04 2.434269990772008896e-04
2.954000000000000000e+03 3.401141738891601562e+01 1.762203598022460938e+01 1.491872098995372653e-04 -2.622492029331624508e-04 -3.391860445844940841e-05 1.521018712082877755e-04
2.955000000000000000e+03 3.961155319213867188e+01 -1.197096061706542969e+01 -1.771220195223577321e-05 -6.730289896950125694e-05 -2.550453064031898975e-05 -8.300136869365815073e-06
2.956000000000000000e+03 3.534525680541992188e+01 3.108931064605712891e+00 -4.959694924764335155e-04 8.849694131640717387e-05 -1.222417631652206182e-04 2.362516825087368488e-04
2.957000000000000000e+03 3.865566253662109375e+01 -9.629881858825683594e+00 -1.084074392565526068e-04 -2.317837061127647758e-05 -3.947574441554024816e-05 -4.980792073183692992e-05
2.958000000000000000e+03 1.273711967468261719e+01 2.326205062866210938e+01 1.127209325204603374e-04 -1.218973352479224559e-06 3.345058576087467372e-05 -3.096591099165380001e-04
2.959000000000000000e+03 3.264856719970703125e+01 1.571854305267333984e+01 -8.812660234980285168e-05 -1.424459478585049510e-04 -6.917176506249234080e-05 1.711673685349524021e-04
2.960000000000000000e+03 2.955228614807128906e+01 1.713895606994628906e+01 1.182861044071614742e-03 -4.689255438279360533e-04 2.141806617146357894e-04 2.314962621312588453e-04
2.961000000000000000e+03 3.234455871582031250e+01 2.502747154235839844e+01 -8.242066542152315378e-05 -6.540617323480546474e-04 -2.209447266068309546e-04 -1.835154544096440077e-04
2.962000000000000000e+03 3.385515213012695312e+01 2.509490013122558594e+01 4.925335524603724480e-04 -4.906921531073749065e-04 5.524198058992624283e-07 4.226450982969254255e-04
2.963000000000000000e+03 9.072222709655761719e+00 2.004699134826660156e+01 -8.607647941971663386e-06 5.021828837925568223e-05 1.248319131263997406e-05 -1.962895184988155961e-04
2.964000000000000000e+03 1.036654186248779297e+01 2.042404937744140625e+01 7.447646930813789368e-05 1.902733492897823453e-04 7.942494994495064020e-05 -1.794457930373027921e-04
2.965000000000000000e+03 2.212692642211914062e+01 -4.104594039916992188e+01 -1.324524171650409698e-02 -2.378004370257258415e-03 -4.686973989009857178e-03 2.908978844061493874e-03
2.966000000000000000e+03 1.549697685241699219e+01 2.702855110168457031e+01 -1.598887611180543900e-04 5.057443922851234674e-05 -3.279429438407532871e-05 -3.237305209040641785e-04
2.967000000000000000e+03 1.249756050109863281e+01 3.077062225341796875e+01 -2.840489905793219805e-04 1.091626181732863188e-04 -5.246591172181069851e-05 -2.187452773796394467e-04
2.968000000000000000e+03 3.170474052429199219e+01 9.733904838562011719e+00 6.431349902413785458e-04 1.543328289699275047e-05 1.975704944925382733e-04 2.463112177792936563e-04
2.969000000000000000e+03 3.305238723754882812e+01 8.573584556579589844e+00 6.470357184298336506e-04 5.964525553281418979e-05 2.120043063769116998e-04 2.088936016662046313e-04
2.970000000000000000e+03 1.209651947021484375e+01 1.734916305541992188e+01 -7.797493890393525362e-05 -6.935540295671671629e-05 -4.419910328579135239e-05 -3.441743028815835714e-04
2.971000000000000000e+03 3.326991653442382812e+01 -4.108240509033203125e+01 5.587237328290939331e-02 -1.663928329944610596e-01 -3.315613791346549988e-02 -3.497772291302680969e-02
2.972000000000000000e+03 1.727229690551757812e+01 -4.121668624877929688e+01 -6.854438222944736481e-03 3.694194369018077850e-03 -9.480731678195297718e-04 6.118447636254131794e-04
2.973000000000000000e+03 6.310294151306152344e+00 -3.857489013671875000e+01 -4.467625694815069437e-04 1.322917058132588863e-03 2.628463553264737129e-04 7.102992967702448368e-04
2.974000000000000000e+03 9.050675392150878906e+00 -3.899006271362304688e+01 -1.246712286956608295e-03 1.315189176239073277e-03 2.054305332421790808e-05 1.599865267053246498e-03
2.975000000000000000e+03 2.323819541931152344e+01 3.623336315155029297e+00 3.159030165988951921e-04 -3.844980165013112128e-05 8.323596557602286339e-05 -4.513914609560742974e-05
2.976000000000000000e+03 2.809217453002929688e+01 -1.527016282081604004e+00 -2.861985194613225758e-05 2.708309511945117265e-05 -4.610273833804967580e-07 9.589129331288859248e-05
2.977000000000000000e+03 3.166970062255859375e+01 -7.848835468292236328e+00 -1.733355748001486063e-05 -3.508767622406594455e-05 -1.572636938362848014e-05 3.603142249630764127e-05
2.978000000000000000e+03 3.230112457275390625e+01 -7.075687885284423828e+00 2.634144402691163123e-05 5.858017175341956317e-05 2.547648546169511974e-05 -5.625772610073909163e-05
2.979000000000000000e+03 3.215621948242187500e+01 -8.354793548583984375e+00 3.136266604997217655e-05 3.284884587628766894e-05 1.926345430547371507e-05 4.247170636517694220e-06
2.980000000000000000e+03 2.422892570495605469e+01 1.517743110656738281e+00 -4.484528108150698245e-05 -2.495752050890587270e-05 -2.094084084092173725e-05 6.272740574786439538e-05
2.981000000000000000e+03 2.349485397338867188e+01 2.193346261978149414e+00 2.550945791881531477e-04 -2.881373256968799978e-05 6.788425525883212686e-05 -5.414582119556143880e-05
2.982000000000000000e+03 3.080019187927246094e+01 -5.623643398284912109e+00 -1.015747111523523927e-04 4.004199217888526618e-05 -1.845981569204013795e-05 4.340911618783138692e-05
2.983000000000000000e+03 2.115540885925292969e+01 3.957899093627929688e+00 -9.449080243939533830e-05 -3.105973155470564961e-05 -3.766516238101758063e-05 1.691601391939911991e-05
2.984000000000000000e+03 3.848408126831054688e+01 -4.814146518707275391e+00 -1.488734415033832192e-04 -4.825096038985066116e-05 -5.913732093176804483e-05 -1.555682683829218149e-05
2.985000000000000000e+03 3.611196517944335938e+01 -8.109966278076171875e+00 -7.896314491517841816e-05 -7.800013554515317082e-05 -4.708898632088676095e-05 -6.543210474774241447e-05
2.986000000000000000e+03 3.706535339355468750e+01 -4.176776409149169922e+00 -2.202179603045806289e-04 6.599698826903477311e-05 -4.626629015547223389e-05 1.639943729969672859e-05
2.987000000000000000e+03 1.324937725067138672e+01 7.476366043090820312e+00 1.136124919867143035e-04 7.982454553712159395e-05 5.803110980195924640e-05 -1.949046236404683441e-06
2.988000000000000000e+03 1.987355613708496094e+01 5.672806262969970703e+00 3.290184249635785818e-04 -1.059668556990800425e-05 9.552652045385912061e-05 -3.061354800593107939e-05
2.989000000000000000e+03 1.901439094543457031e+01 6.089451789855957031e+00 -7.963505777297541499e-05 -7.198613457148894668e-05 -4.548635843093506992e-05 -1.781087848939932883e-05
2.990000000000000000e+03 3.036193084716796875e+01 -5.065481185913085938e+00 8.745912055019289255e-05 -3.218476558686234057e-05 1.658230758039280772e-05 -2.323412263649515808e-05
2.991000000000000000e+03 3.565725708007812500e+01 -9.863889694213867188e+00 -9.524516644887626171e-05 -2.252363083243835717e-05 -3.533063863869756460e-05 -4.354376505943946540e-05
2.992000000000000000e+03 3.509592819213867188e+01 -8.789589881896972656e+00 -8.786124089965596795e-05 -4.811243343283422291e-05 -4.079210339114069939e-05 -4.098692807019688189e-05
2.993000000000000000e+03 2.273435211181640625e+01 2.827375173568725586e+00 -7.208198076114058495e-05 -3.261124948039650917e-05 -3.140796980005688965e-05 5.307939136400818825e-05
2.994000000000000000e+03 2.195408439636230469e+01 3.416153430938720703e+00 3.120508627034723759e-04 -4.234217703924514353e-05 8.091260679066181183e-05 -5.093743675388395786e-05
2.995000000000000000e+03 1.702470016479492188e+01 5.857714653015136719e+00 3.225984692107886076e-04 -6.774433859391137958e-05 7.645624282304197550e-05 -2.388374741713050753e-05
2.996000000000000000e+03 1.937803840637207031e+01 6.910216331481933594e+00 3.239941725041717291e-04 2.853709884220734239e-05 1.057593835867010057e-04 -6.793136708438396454e-05
2.997000000000000000e+03 2.861685562133789062e+01 -2.285270690917968750e+00 9.870608482742682099e-05 -2.681158002815209329e-05 2.156835216737817973e-05 -7.429089600918814540e-05
2.998000000000000000e+03 2.622827720642089844e+01 7.697095274925231934e-01 2.169951767427846789e-04 -4.531236845650710166e-05 5.150484139448963106e-05 -4.776670539285987616e-05
2.999000000000000000e+03 2.552842903137207031e+01 1.527822136878967285e+00 -5.703211354557424784e-05 -1.969978029592311941e-06 -1.770062772266101092e-05 6.315483915386721492e-05
3.000000000000000000e+03 2.688383102416992188e+01 -1.400794148445129395e+00 -2.763810880423989147e-05 5.483684162754798308e-06 -6.646327619819203392e-06 7.421461486956104636e-05
3.001000000000000000e+03 3.128446769714355469e+01 -6.111917018890380859e+00 1.392365520587190986e-04 -6.567604486917844042e-06 3.980068504461087286e-05 -5.308479376253671944e-05
3.002000000000000000e+03 3.231931686401367188e+01 -1.439030528068542480e+00 7.726457261014729738e-05 -2.400697849225252867e-05 1.597727896296419203e-05 -1.182273408630862832e-04
3.003000000000000000e+03 1.391776371002197266e+01 8.675987243652343750e+00 1.730860822135582566e-04 6.124101491877809167e-05 7.029812695691362023e-05 2.671602669579442590e-05
3.004000000000000000e+03 1.471366596221923828e+01 9.781270980834960938e+00 1.923610398080199957e-04 9.039550059242174029e-05 8.482696284772828221e-05 2.956406660814536735e-06
3.005000000000000000e+03 1.562371253967285156e+01 9.041366577148437500e+00 2.766695397440344095e-04 2.889892311941366643e-05 9.167053940473124385e-05 4.086997068952769041e-05
3.006000000000000000e+03 3.804806137084960938e+01 -3.720017194747924805e+00 1.772354735294356942e-04 1.420301032339921221e-05 5.743154542869888246e-05 -1.687904295977205038e-05
3.007000000000000000e+03 3.476936340332031250e+01 -6.290222644805908203e+00 -4.303228342905640602e-05 1.780237107595894486e-05 -7.568973160232417285e-06 -3.317215305287390947e-05
3.008000000000000000e+03 3.920802307128906250e+01 -1.086146163940429688e+01 -7.679878035560250282e-05 2.585144557087915018e-06 -2.226409196737222373e-05 9.875416253635194153e-06
3.009000000000000000e+03 3.805767059326171875e+01 -1.142513656616210938e+01 -7.425391959259286523e-05 -1.780387174221687019e-05 -2.761733776424080133e-05 -1.373957002215320244e-05
3.010000000000000000e+03 3.988338851928710938e+01 -9.040210723876953125e+00 -1.145482819993048906e-04 -7.477662438759580255e-05 -5.679747118847444654e-05 -9.468778443988412619e-05
3.011000000000000000e+03 3.959836959838867188e+01 -8.080111503601074219e+00 1.031665888149291277e-04 5.149004573468118906e-05 4.639698818209581077e-05 6.201118958415463567e-05
3.012000000000000000e+03 3.834421920776367188e+01 -1.053191184997558594e+01 1.035192981362342834e-04 7.700830792600754648e-06 3.336603913339786232e-05 1.459985378460260108e-05
3.013000000000000000e+03 3.608140182495117188e+01 -1.177079319953918457e+00 2.167899947380647063e-04 -2.127596089849248528e-04 1.209117613143462222e-06 1.176597506855614483e-04
3.014000000000000000e+03 1.175117683410644531e+01 2.091146278381347656e+01 9.647562546888366342e-05 -4.537473068921826780e-05 1.533026807010173798e-05 -3.102680202573537827e-04
3.015000000000000000e+03 1.525665378570556641e+01 7.503168582916259766e+00 2.265020884806290269e-05 -1.420686112396651879e-05 2.533004590077325702e-06 -1.429196709068492055e-04
3.016000000000000000e+03 1.382717800140380859e+01 1.076881694793701172e+01 2.534939558245241642e-04 4.687392720370553434e-05 9.011036308947950602e-05 -8.803104719845578074e-05
3.017000000000000000e+03 1.069679164886474609e+01 9.196135520935058594e+00 -7.860375626478344202e-05 1.071088263415731490e-05 -2.036786281678359956e-05 -3.405468669370748103e-05
3.018000000000000000e+03 1.178779220581054688e+01 1.575735569000244141e+01 3.495537675917148590e-04 4.690777132054790854e-05 1.189384638564661145e-04 -7.899718912085518241e-05
3.019000000000000000e+03 4.215068817138671875e+01 -1.151164340972900391e+01 1.164658897323533893e-04 4.838673703488893807e-05 4.945578621118329465e-05 7.972269668243825436e-05
3.020000000000000000e+03 3.654706954956054688e+01 -1.006016635894775391e+01 1.030699932016432285e-04 2.973838491016067564e-05 3.984251452493481338e-05 4.006635936093516648e-05
3.021000000000000000e+03 3.441282272338867188e+01 9.793568849563598633e-01 -4.813501436728984118e-04 1.097139538615010679e-04 -1.114908518502488732e-04 1.650267950026318431e-04
3.022000000000000000e+03 3.782093048095703125e+01 -6.133201122283935547e+00 -1.437331957276910543e-04 -3.436023689573630691e-05 -5.342802978702820837e-05 -3.338932583574205637e-05
3.023000000000000000e+03 1.635972976684570312e+01 7.230080604553222656e+00 1.647202770982403308e-05 -7.152610487537458539e-05 -1.651622187637258321e-05 -1.023211298161186278e-04
3.024000000000000000e+03 3.524044036865234375e+01 6.761583685874938965e-01 3.781789273489266634e-04 3.029698018508497626e-05 1.225427695317193866e-04 -1.452548167435452342e-04
3.025000000000000000e+03 4.723197555541992188e+01 -3.342489624023437500e+01 3.194838762283325195e-01 2.286058366298675537e-01 1.644269227981567383e-01 4.835755825042724609e-01
3.026000000000000000e+03 1.211582374572753906e+01 1.914948654174804688e+01 1.056908222381025553e-04 1.730679796310141683e-04 8.362763765035197139e-05 -1.255228416994214058e-04
3.027000000000000000e+03 1.063475894927978516e+01 1.734785652160644531e+01 1.373900449834764004e-04 1.866417151177302003e-04 9.720952948555350304e-05 -1.139888263423927128e-04
3.028000000000000000e+03 3.298237228393554688e+01 7.353384494781494141e+00 -3.598740440793335438e-04 -4.069639180670492351e-05 -1.201711274916306138e-04 -1.324245317846362013e-06
3.029000000000000000e+03 3.438376998901367188e+01 3.457093715667724609e+00 6.482550525106489658e-04 -7.297000411199405789e-05 1.725855254335328937e-04 -7.813247793819755316e-05
3.030000000000000000e+03 3.016467094421386719e+01 1.221116542816162109e+01 -1.712941157165914774e-04 -1.130179225583560765e-04 -8.529361366527155042e-05 -8.759553020354360342e-05
3.031000000000000000e+03 3.993721771240234375e+01 -1.130491638183593750e+01 1.734300531097687781e-05 -1.150864500232273713e-05 1.750308342707285192e-06 -1.842306483013089746e-05
3.032000000000000000e+03 4.058658981323242188e+01 -1.066480350494384766e+01 -6.003315502312034369e-05 9.398409019922837615e-05 1.018528109852923080e-05 1.892873478936962783e-05
3.033000000000000000e+03 3.103009033203125000e+01 1.726210975646972656e+01 -1.882947544800117612e-04 -1.442844368284568191e-04 -9.977375884773209691e-05 1.423643407179042697e-04
3.034000000000000000e+03 3.120139694213867188e+01 1.549829959869384766e+01 1.056236447766423225e-03 -3.005146863870322704e-04 2.267165109515190125e-04 1.687051408225670457e-04
3.035000000000000000e+03 1.322345352172851562e+01 2.150703811645507812e+01 -8.372868251171894372e-06 1.731811789795756340e-04 4.944249303662218153e-05 -2.137451228918507695e-04
3.036000000000000000e+03 1.131515598297119141e+01 1.224275588989257812e+01 -1.875507296063005924e-04 1.163871056633070111e-04 -2.134908754669595510e-05 -1.162924236268736422e-04
3.037000000000000000e+03 3.045002365112304688e+01 8.365276336669921875e+00 5.279400502331554890e-04 5.117190448800101876e-05 1.737335987854748964e-04 2.437664807075634599e-04
3.038000000000000000e+03 3.173506546020507812e+01 7.328639984130859375e+00 5.502996500581502914e-04 5.671118196914903820e-05 1.821032492443919182e-04 2.157271519536152482e-04
3.039000000000000000e+03 3.435982513427734375e+01 2.743167114257812500e+01 5.839538061991333961e-04 -6.244832766242325306e-04 -1.215883548866258934e-05 2.271092525916174054e-04
3.040000000000000000e+03 1.128232860565185547e+01 3.441191101074218750e+01 -4.424056969583034515e-04 2.929856127593666315e-04 -4.482602525968104601e-05 -2.435199712635949254e-04
3.041000000000000000e+03 2.196150779724121094e+01 -3.813632202148437500e+01 -7.726757321506738663e-03 -2.819387707859277725e-03 -3.163843415677547455e-03 3.328601364046335220e-03
3.042000000000000000e+03 3.331750488281250000e+01 -7.399386405944824219e+00 -1.063390882336534560e-04 -9.185847738990560174e-05 -5.945927114225924015e-05 8.245171193266287446e-05
3.043000000000000000e+03 3.403469467163085938e+01 -9.432152748107910156e+00 -8.837066707201302052e-05 -3.029822983080521226e-05 -3.560066761565394700e-05 -1.327777135884389281e-05
3.044000000000000000e+03 2.072336006164550781e+01 5.219020366668701172e+00 -9.107938967645168304e-05 -5.927975507802329957e-05 -4.510774306254461408e-05 -2.828255128406453878e-05
3.045000000000000000e+03 2.689641761779785156e+01 8.075845427811145782e-03 -5.583117672358639538e-05 2.030764335358981043e-05 -1.065706055669579655e-05 8.367050031665712595e-05
3.046000000000000000e+03 2.687501335144042969e+01 1.487797856330871582e+00 -9.245710680261254311e-05 4.149313099333085120e-05 -1.528919347038026899e-05 7.990539597813040018e-05
3.047000000000000000e+03 2.954934501647949219e+01 -3.743174076080322266e+00 4.577568688546307385e-05 -9.622142897569574416e-06 1.084606265067122877e-05 -4.701588477473706007e-05
3.048000000000000000e+03 3.021437835693359375e+01 -3.195900917053222656e+00 5.579574281000532210e-05 4.275041646906174719e-06 1.802123551897238940e-05 1.099473884096369147e-04
3.049000000000000000e+03 3.282067871093750000e+01 -4.726533412933349609e+00 -1.982058602152392268e-04 -1.461346982978284359e-05 -6.384580046869814396e-05 7.798728773877883214e-09
3.050000000000000000e+03 3.552832031250000000e+01 -7.170370578765869141e+00 -6.041361848474480212e-05 -8.904022979550063610e-05 -4.483615339267998934e-05 -1.615272230992559344e-05
3.051000000000000000e+03 3.746834945678710938e+01 -5.120436668395996094e+00 1.797095319489017129e-04 1.864922705863136798e-05 5.950762715656310320e-05 7.850229849282186478e-06
3.052000000000000000e+03 3.060342216491699219e+01 -3.908466100692749023e+00 -1.295823585678590462e-05 -3.091610324190696701e-06 -4.814953626919304952e-06 -3.524088242556899786e-05
3.053000000000000000e+03 2.480039024353027344e+01 2.270290851593017578e+00 2.529034100007265806e-04 -3.571547495084814727e-05 6.515638233395293355e-05 -3.605398160289041698e-05
3.054000000000000000e+03 2.241608810424804688e+01 4.212831020355224609e+00 -1.069350109901279211e-04 -3.534834468155167997e-05 -4.268500561011023819e-05 2.433959707559552044e-05
3.055000000000000000e+03 2.157415580749511719e+01 4.738790035247802734e+00 3.624326200224459171e-04 -4.757048009196296334e-05 9.445864270674064755e-05 -1.582693221280351281e-05
3.056000000000000000e+03 2.928834152221679688e+01 -1.687900304794311523e+00 -2.122995829267892987e-05 5.116855754749849439e-05 8.981579412647988647e-06 1.366707292618229985e-04
3.057000000000000000e+03 3.602740478515625000e+01 -4.479846477508544922e+00 2.646377834025770426e-04 -5.079272887087427080e-05 6.415351526811718941e-05 4.521238224697299302e-05
3.058000000000000000e+03 3.235802841186523438e+01 -5.723010063171386719e+00 1.578432129463180900e-04 2.537300497351679951e-05 5.496486483025364578e-05 -5.103912553749978542e-05
3.059000000000000000e+03 1.732290267944335938e+01 7.410668849945068359e+00 2.992950612679123878e-04 8.204147889045998454e-06 9.224976383848115802e-05 1.612399137229658663e-05
3.060000000000000000e+03 1.358743381500244141e+01 1.240570449829101562e+01 2.788518613670021296e-04 -6.701251550111919641e-06 8.164517930708825588e-05 -2.018642699113115668e-04
3.061000000000000000e+03 1.106008911132812500e+01 1.004252243041992188e+01 2.593824465293437243e-04 -1.707531009742524475e-05 7.269214256666600704e-05 -1.752779353410005569e-04
3.062000000000000000e+03 1.206698417663574219e+01 8.985997200012207031e+00 4.847974923904985189e-05 -5.707550735678523779e-05 -2.578727617219556123e-06 -1.516301708761602640e-04
3.063000000000000000e+03 1.838774490356445312e+01 7.307845115661621094e+00 -1.092070451704785228e-04 -7.950294821057468653e-05 -5.661299655912443995e-05 -3.534913412295281887e-05
3.064000000000000000e+03 3.179099655151367188e+01 -5.352244377136230469e+00 -1.196122393594123423e-04 -5.541528480534907430e-06 -3.754613135242834687e-05 4.476182220969349146e-05
3.065000000000000000e+03 2.752037620544433594e+01 -7.586362361907958984e-01 1.625828590476885438e-04 -4.061399158672429621e-05 3.659065987449139357e-05 -6.629624840570613742e-05
3.066000000000000000e+03 3.800534057617187500e+01 -8.324044227600097656e+00 -1.321064046351239085e-04 -4.796691064257174730e-05 -5.402199167292565107e-05 -5.195394260226748884e-05
3.067000000000000000e+03 3.772389984130859375e+01 -9.332506179809570312e+00 1.201153936563059688e-04 3.874522371916100383e-05 4.765818448504433036e-05 3.943810952478088439e-05
3.068000000000000000e+03 3.895914459228515625e+01 -8.695630073547363281e+00 7.176675717346370220e-05 6.278157525230199099e-05 4.036450263811275363e-05 4.056725083501078188e-05
3.069000000000000000e+03 3.462123107910156250e+01 -7.792601585388183594e+00 -7.707705663051456213e-05 -7.471066783182322979e-05 -4.553631879389286041e-05 -2.748800397966988385e-05
3.070000000000000000e+03 3.591726684570312500e+01 -8.969552040100097656e+00 9.778326784726232290e-05 5.776754915132187307e-05 4.666524546337313950e-05 5.374739703256636858e-05
3.071000000000000000e+03 3.489567947387695312e+01 -1.011200785636901855e+00 4.227692843414843082e-04 -1.346099888905882835e-04 8.644779154565185308e-05 9.451947136085436796e-08
3.072000000000000000e+03 3.718166732788085938e+01 -1.119269371032714844e+01 8.859280205797404051e-05 1.974179212993476540e-05 3.250037843827158213e-05 2.337212572456337512e-05
3.073000000000000000e+03 3.744754028320312500e+01 -1.027282428741455078e+01 -1.077360066119581461e-04 -1.310528477915795520e-05 -3.625238605309277773e-05 -3.923277836292982101e-05
3.074000000000000000e+03 1.079269123077392578e+01 1.139646053314208984e+01 2.901912957895547152e-04 -4.205690129310823977e-05 7.444031507475301623e-05 -1.443465007469058037e-04
3.075000000000000000e+03 1.351789665222167969e+01 1.679415130615234375e+01 3.616650355979800224e-04 1.286376482312334701e-05 1.123586407629773021e-04 -1.164880814030766487e-04
3.076000000000000000e+03 1.295348930358886719e+01 1.542146587371826172e+01 -2.111244539264589548e-04 5.721202251152135432e-05 -4.617372906068339944e-05 -1.979814405785873532e-04
3.077000000000000000e+03 3.488572311401367188e+01 -1.948486417531967163e-01 -3.539935860317200422e-04 3.815015224972739816e-05 -9.475302795181050897e-05 1.110275479732081294e-04
3.078000000000000000e+03 3.374791336059570312e+01 4.868615627288818359e+00 6.322399713099002838e-04 -2.033761120401322842e-05 1.835707080317661166e-04 4.825874566449783742e-05
3.079000000000000000e+03 3.305531692504882812e+01 2.625099658966064453e+00 5.811543669551610947e-04 -8.381700899917632341e-05 1.492012088419869542e-04 -9.243229578714817762e-05
3.080000000000000000e+03 1.067773246765136719e+01 1.283742904663085938e+01 1.721257867757230997e-04 -2.760058487183414400e-05 4.335755875217728317e-05 -1.909475104184821248e-04
3.081000000000000000e+03 1.276992511749267578e+01 1.421220207214355469e+01 3.742338449228554964e-04 -1.148040701082209125e-05 1.088260323740541935e-04 -1.483296946389600635e-04
3.082000000000000000e+03 1.154755020141601562e+01 1.317551708221435547e+01 3.368883335497230291e-04 1.287770555791212246e-05 1.049298152793198824e-04 -9.432138904230669141e-05
3.083000000000000000e+03 1.611812591552734375e+01 7.848354339599609375e+00 2.100146230077371001e-04 -6.208043487276881933e-05 4.438025644049048424e-05 -9.649146704759914428e-06
3.084000000000000000e+03 3.138621520996093750e+01 1.389505004882812500e+01 -2.221010217908769846e-04 -7.239021942950785160e-05 -8.834736945573240519e-05 2.129679160134401172e-05
3.085000000000000000e+03 3.027963638305664062e+01 1.085056591033935547e+01 6.502471514977514744e-04 -4.351741154096089303e-05 1.820189208956435323e-04 2.712383575271815062e-04
3.086000000000000000e+03 3.703960418701171875e+01 -7.256923198699951172e+00 -9.757759107742458582e-05 -7.430346158798784018e-05 -5.156431507202796638e-05 -5.937488094787113369e-05
3.087000000000000000e+03 1.204988765716552734e+01 2.491697502136230469e+01 -3.836062751361168921e-05 1.227909233421087265e-04 2.532908729335758835e-05 -2.209904923802241683e-04
3.088000000000000000e+03 2.826765060424804688e+01 1.416971802711486816e+00 -1.157792576123028994e-04 8.933283970691263676e-05 -7.933927008707541972e-06 1.243209553649649024e-04
3.089000000000000000e+03 3.285840606689453125e+01 6.170295238494873047e+00 5.812675808556377888e-04 3.679750443552620709e-05 1.854195288615301251e-04 1.542559621157124639e-04
3.090000000000000000e+03 2.983402824401855469e+01 1.526703453063964844e+01 -2.003062982112169266e-04 -8.259652531705796719e-05 -8.487084414809942245e-05 -1.474826131016016006e-04
3.091000000000000000e+03 1.506552028656005859e+01 2.034996986389160156e+01 5.361765579436905682e-05 1.122204339480958879e-04 4.975142655894160271e-05 -1.848790270742028952e-04
3.092000000000000000e+03 3.103647422790527344e+01 1.915168190002441406e+01 1.331046223640441895e-03 -4.496152396313846111e-04 2.644292835611850023e-04 -3.078718509641475976e-05
3.093000000000000000e+03 2.819326591491699219e+01 1.666989326477050781e+01 2.513175422791391611e-04 -1.971639576368033886e-04 1.624607284611556679e-05 -3.365685988683253527e-04
3.094000000000000000e+03 2.881510353088378906e+01 1.199974250793457031e+01 6.530212122015655041e-04 -9.633575973566621542e-05 1.670056371949613094e-04 2.942284045275300741e-04
3.095000000000000000e+03 3.012941741943359375e+01 2.366059875488281250e+01 -3.018228162545710802e-04 -4.730044456664472818e-04 -2.324481756659224629e-04 -1.135948332375846803e-04
3.096000000000000000e+03 2.951598739624023438e+01 -2.856946587562561035e-01 -5.423403126769699156e-05 7.933502638479694724e-05 7.530300081270979717e-06 1.634740037843585014e-04
3.097000000000000000e+03 2.756016731262207031e+01 6.975821256637573242e-01 2.278187312185764313e-04 -7.077905320329591632e-05 4.711190194939263165e-05 -6.612552533624693751e-05
3.098000000000000000e+03 3.045341300964355469e+01 -1.900480985641479492e+00 -1.031829015119001269e-05 6.421651778509840369e-05 1.616946792637463659e-05 2.136723342118784785e-04
3.099000000000000000e+03 2.403610038757324219e+01 2.973537921905517578e+00 -6.327117444016039371e-05 -3.581633427529595792e-05 -2.972625225083902478e-05 5.428822623798623681e-05
3.100000000000000000e+03 2.108641242980957031e+01 5.999654293060302734e+00 3.730704775080084801e-04 -2.204076554335188121e-05 1.053089144988916814e-04 4.075178367202170193e-05
3.101000000000000000e+03 2.461050415039062500e+01 3.812203407287597656e+00 3.031699452549219131e-04 -3.162815482937730849e-05 8.146253094309940934e-05 -2.177329770347569138e-05
3.102000000000000000e+03 3.532978439331054688e+01 -7.969254493713378906e+00 8.612931560492143035e-05 9.426369069842621684e-05 5.411790334619581699e-05 3.678182110888883471e-05
3.103000000000000000e+03 3.647851562500000000e+01 -5.429956912994384766e+00 -1.656614185776561499e-04 3.125925650238059461e-05 -4.032065044157207012e-05 -4.005017035524360836e-05
3.104000000000000000e+03 2.976736640930175781e+01 -2.452733278274536133e+00 6.418288830900564790e-05 -2.401892561465501785e-05 1.204918953590095043e-05 -1.131867902586236596e-04
3.105000000000000000e+03 3.360404968261718750e+01 -6.539997577667236328e+00 5.305508966557681561e-05 1.007953469525091350e-04 4.615513171302154660e-05 -5.491318370332010090e-05
3.106000000000000000e+03 1.170659351348876953e+01 9.600620269775390625e+00 -4.692124639404937625e-05 4.259249180904589593e-05 -1.298626216339471284e-06 1.976149906113278121e-05
3.107000000000000000e+03 1.212838935852050781e+01 1.181604194641113281e+01 3.554625727701932192e-04 -4.744000034406781197e-05 9.240677172783762217e-05 -1.756321289576590061e-04
3.108000000000000000e+03 3.504178619384765625e+01 -4.935326099395751953e+00 -4.955502299708314240e-05 3.875038964906707406e-05 -3.241389777031145059e-06 -9.366760787088423967e-05
3.109000000000000000e+03 3.215866851806640625e+01 -4.476484775543212891e+00 8.527521276846528053e-05 9.858970588538795710e-05 5.515947486856020987e-05 -4.611667827703058720e-05
3.110000000000000000e+03 2.024210929870605469e+01 6.441247463226318359e+00 -3.706812276504933834e-05 -1.305001642322167754e-04 -5.027048973715864122e-05 -5.619921648758463562e-05
3.111000000000000000e+03 2.197195053100585938e+01 5.578209400177001953e+00 -1.315835834247991443e-04 -4.387778972159139812e-05 -5.263841376290656626e-05 -4.237585017108358443e-05
3.112000000000000000e+03 2.615588760375976562e+01 2.279499769210815430e+00 2.747368125710636377e-04 -6.759243842680007219e-05 6.214331369847059250e-05 -2.121872057614382356e-05
3.113000000000000000e+03 2.540467453002929688e+01 3.063381433486938477e+00 -6.599646440008655190e-05 -1.288171552005223930e-05 -2.366345324844587594e-05 4.280644498066976666e-05
3.114000000000000000e+03 3.092017173767089844e+01 -2.669988632202148438e+00 -2.075618249364197254e-05 2.042233973043039441e-05 -1.001527536459434486e-07 -1.817145821405574679e-04
3.115000000000000000e+03 1.375090694427490234e+01 9.681535720825195312e+00 -1.487177632952807471e-05 -7.751613156870007515e-05 -2.771637264231685549e-05 -1.705158210825175047e-04
3.116000000000000000e+03 3.581730651855468750e+01 -3.547857046127319336e+00 -3.570043481886386871e-04 7.312269008252769709e-05 -8.516449452145025134e-05 -3.124634531559422612e-05
3.117000000000000000e+03 2.376614570617675781e+01 4.493744373321533203e+00 -8.989445632323622704e-05 -5.479590618051588535e-05 -4.340710802352987230e-05 4.003907451988197863e-05
3.118000000000000000e+03 2.287848281860351562e+01 5.085755348205566406e+00 3.845946339424699545e-04 -5.463478373712860048e-05 9.898795542540028691e-05 -1.962563692359253764e-05
3.119000000000000000e+03 3.430987167358398438e+01 -4.057483196258544922e+00 3.452034434303641319e-06 -4.595901555148884654e-05 -1.275209433515556157e-05 1.745096669765189290e-04
3.120000000000000000e+03 3.214438247680664062e+01 -2.940126180648803711e+00 -2.380709156568627805e-05 4.618002276401966810e-05 6.711879905196838081e-06 -1.878340262919664383e-04
3.121000000000000000e+03 3.680385971069335938e+01 -9.134431838989257812e+00 -1.115426566684618592e-04 -3.154123623971827328e-05 -4.292516678106039762e-05 -6.059240695321932435e-05
3.122000000000000000e+03 1.705528640747070312e+01 8.266332626342773438e+00 9.380208211950957775e-05 -2.687198866624385118e-05 2.007902730838395655e-05 -1.538743235869333148e-04
3.123000000000000000e+03 2.873691749572753906e+01 3.878056764602661133e+00 5.096693639643490314e-04 -8.137460099533200264e-05 1.284884347114712000e-04 1.771102688508108258e-04
3.124000000000000000e+03 1.478814411163330078e+01 8.899069786071777344e+00 -1.581528636052098591e-06 -7.660125993425026536e-05 -2.345483517274260521e-05 -1.930349826579913497e-04
3.125000000000000000e+03 3.570520019531250000e+01 -2.685177564620971680e+00 4.009756376035511494e-04 -1.250193890882655978e-04 8.278687164420261979e-05 3.968116652686148882e-05
3.126000000000000000e+03 3.440845108032226562e+01 -2.338926792144775391e+00 3.654766769614070654e-04 -1.736203121254220605e-04 5.755691017839126289e-05 1.332206884399056435e-04
3.127000000000000000e+03 3.681364059448242188e+01 -1.738978028297424316e+00 6.806849796703318134e-06 2.168555511161684990e-04 6.709872104693204165e-05 -9.910306107485666871e-05
3.128000000000000000e+03 1.437527751922607422e+01 1.165515995025634766e+01 -5.888705345569178462e-05 4.687796172220259905e-05 -3.602727474572020583e-06 -1.342444465990411118e-05
3.129000000000000000e+03 3.395180130004882812e+01 2.341487646102905273e+00 -5.239107413217425346e-04 1.395039726048707962e-04 -1.153220364358276129e-04 1.871606800705194473e-04
3.130000000000000000e+03 3.410875701904296875e+01 -7.814870774745941162e-02 5.604774923995137215e-04 -7.920654024928808212e-05 1.443812943762168288e-04 -6.382650462910532951e-05
3.131000000000000000e+03 3.684886550903320312e+01 -6.334049224853515625e+00 1.421593042323365808e-04 3.793392897932790220e-05 5.402796887210570276e-05 3.852150257444009185e-05
3.132000000000000000e+03 3.620615386962890625e+01 -7.307991504669189453e+00 6.895625119796022773e-05 1.143808112828992307e-04 5.500111728906631470e-05 7.137742068152874708e-05
3.133000000000000000e+03 3.318274307250976562e+01 5.009229481220245361e-02 -4.624069260898977518e-04 1.004098012344911695e-04 -1.085991316358558834e-04 1.168994931504130363e-04
3.134000000000000000e+03 1.261471557617187500e+01 1.295786762237548828e+01 -1.667291362537071109e-04 8.513358807249460369e-06 -4.746473132399842143e-05 -1.185966757475398481e-04
3.135000000000000000e+03 3.169709968566894531e+01 6.189785957336425781e+00 -2.675701107364147902e-04 -5.320952550391666591e-05 -9.623389632906764746e-05 -4.702110891230404377e-05
3.136000000000000000e+03 2.969488906860351562e+01 1.218171954154968262e+00 -1.433950383216142654e-04 1.506656844867393374e-04 2.181196578021626920e-06 2.092779614031314850e-04
3.137000000000000000e+03 3.313062667846679688e+01 -1.200708866119384766e+00 4.841826448682695627e-04 -5.407999924500472844e-05 1.290307991439476609e-04 -9.381931886309757829e-05
3.138000000000000000e+03 3.550463485717773438e+01 -5.423242449760437012e-01 -5.717223393730819225e-05 1.941585796885192394e-04 4.109590372536331415e-05 -8.888399315765127540e-05
3.139000000000000000e+03 1.682998466491699219e+01 1.624996948242187500e+01 -2.811353479046374559e-04 -2.826851778081618249e-05 -9.282115934183821082e-05 -2.224593190476298332e-04
3.140000000000000000e+03 3.051490974426269531e+01 7.224460124969482422e+00 -1.862370991148054600e-04 -1.081187947420403361e-04 -8.830676961224526167e-05 -7.974106847541406751e-05
3.141000000000000000e+03 2.604528236389160156e+01 3.877364873886108398e+00 3.175034653395414352e-04 -7.660683331778272986e-05 7.226898742374032736e-05 3.317451410111971200e-05
3.142000000000000000e+03 3.056414031982421875e+01 6.119373321533203125e+00 4.450311535038053989e-04 5.024002166464924812e-05 1.485813554609194398e-04 2.266464289277791977e-04
3.143000000000000000e+03 1.554076290130615234e+01 1.699216461181640625e+01 5.320425261743366718e-04 -1.187245215987786651e-04 1.239953999174758792e-04 -1.667034957790747285e-04
3.144000000000000000e+03 3.163747406005859375e+01 1.103701305389404297e+01 -2.295772719662636518e-04 -7.663651194889098406e-05 -9.186413808492943645e-05 -7.676507266296539456e-06
3.145000000000000000e+03 3.002199554443359375e+01 1.365766906738281250e+01 8.673437987454235554e-04 -1.990616729017347097e-04 2.004846319323405623e-04 3.016686823684722185e-04
3.146000000000000000e+03 1.472711563110351562e+01 1.077652168273925781e+01 8.817769412416964769e-05 -1.512727467343211174e-04 -1.892851651064120233e-05 -2.325061504961922765e-04
3.147000000000000000e+03 3.136536598205566406e+01 2.107748031616210938e+01 -1.714452519081532955e-04 -3.927716752514243126e-04 -1.692650694167241454e-04 7.950828148750588298e-05
3.148000000000000000e+03 2.725952148437500000e+01 1.465803718566894531e+01 2.671566835488192737e-05 -1.411192934028804302e-04 -3.432108860579319298e-05 -1.921857910929247737e-04
3.149000000000000000e+03 2.868609619140625000e+01 1.342612552642822266e+01 -6.207468686625361443e-05 -1.737868296913802624e-04 -7.075845496729016304e-05 -1.908830599859356880e-04
3.150000000000000000e+03 1.891354179382324219e+01 9.068660736083984375e+00 -8.637795690447092056e-05 5.204206900089047849e-05 -1.030076691677095369e-05 -9.635429887566715479e-05
3.151000000000000000e+03 1.665595626831054688e+01 9.709429740905761719e+00 3.648129350040107965e-04 3.760529807550483383e-06 1.105720439227297902e-04 -4.537083077593706548e-05
3.152000000000000000e+03 3.135012626647949219e+01 -3.466748476028442383e+00 2.001795801334083080e-04 -4.315510523156262934e-05 4.710733992396853864e-05 1.071923325071111321e-04
3.153000000000000000e+03 3.080056953430175781e+01 -6.052347421646118164e-01 1.347427023574709892e-04 9.287297871196642518e-05 6.828470213804394007e-05 2.746741811279207468e-04
3.154000000000000000e+03 3.600561141967773438e+01 -6.604516983032226562e+00 -3.922764153685420752e-05 -1.164030163636198267e-05 -1.526038249721750617e-05 -6.627326365560293198e-05
3.155000000000000000e+03 3.152348327636718750e+01 -4.293341159820556641e+00 -1.800499303499236703e-04 -1.211794733535498381e-05 -5.765036257798783481e-05 1.801536927814595401e-05
3.156000000000000000e+03 3.530402374267578125e+01 -1.837835192680358887e+00 -3.542673366609960794e-04 2.313301520189270377e-04 -3.688115612021647394e-05 -1.920844624692108482e-05
3.157000000000000000e+03 3.295068359375000000e+01 -6.148664474487304688e+00 -4.189018363831564784e-05 -6.360264524118974805e-05 -3.164784720866009593e-05 7.886587263783439994e-05
3.158000000000000000e+03 3.423954391479492188e+01 -6.852712631225585938e+00 1.019987394101917744e-05 -9.804529690882191062e-05 -2.635362761793658137e-05 -1.500918369856663048e-05
3.159000000000000000e+03 2.892755508422851562e+01 5.655623674392700195e-01 2.188441430917009711e-04 -9.498167491983622313e-05 3.715874117915518582e-05 -1.060630820575170219e-04
3.160000000000000000e+03 2.467909049987792969e+01 1.012874603271484375e+01 5.291104025673121214e-05 -3.048875951208174229e-04 -7.559296500403434038e-05 5.806404806207865477e-05
3.161000000000000000e+03 2.139396667480468750e+01 6.794556140899658203e+00 -1.006029415293596685e-04 -1.058018533512949944e-04 -6.192143337102606893e-05 -1.659996923990547657e-04
3.162000000000000000e+03 1.157935047149658203e+01 1.087734603881835938e+01 -1.604015560587868094e-04 9.058992873178794980e-05 -2.094348928949330002e-05 -2.494169712008442730e-05
3.163000000000000000e+03 1.566090393066406250e+01 9.829884529113769531e+00 -2.629806112963706255e-05 -1.177644080598838627e-04 -4.321874075685627759e-05 -1.947451382875442505e-04
3.164000000000000000e+03 2.523732185363769531e+01 4.708203315734863281e+00 -4.817530498257838190e-05 -6.745570863131433725e-05 -3.468930663075298071e-05 2.401376514171715826e-05
3.165000000000000000e+03 2.332533836364746094e+01 6.052714347839355469e+00 -1.175385041278786957e-04 -7.017677853582426906e-05 -5.631458407151512802e-05 -7.103834377630846575e-06
3.166000000000000000e+03 2.755340194702148438e+01 2.232445716857910156e+00 3.305074351374059916e-04 -1.204398431582376361e-04 6.302027759375050664e-05 -4.409699249663390219e-05
3.167000000000000000e+03 2.680546951293945312e+01 3.041887521743774414e+00 -1.337846915703266859e-04 6.972833216423168778e-05 -1.921690818562638015e-05 4.394513234728947282e-05
3.168000000000000000e+03 3.000105476379394531e+01 -1.110964655876159668e+00 1.241154241142794490e-04 -8.850255107972770929e-05 1.068386154656764120e-05 -1.496679178671911359e-04
3.169000000000000000e+03 3.113255500793457031e+01 -1.377149105072021484e+00 1.034060987876728177e-04 -2.924265027104411274e-05 2.224903437308967113e-05 -2.377535274717956781e-04
3.170000000000000000e+03 3.423748397827148438e+01 -5.659850120544433594e+00 4.859450200456194580e-06 -5.690845500794239342e-05 -1.561470162414480001e-05 7.118201028788462281e-05
3.171000000000000000e+03 3.355439758300781250e+01 -3.078157663345336914e+00 -4.926123438053764403e-05 8.387395791942253709e-05 1.038381651596864685e-05 -1.471098657930269837e-04
3.172000000000000000e+03 1.233156204223632812e+01 1.026853561401367188e+01 2.170534426113590598e-04 -2.963347469631116837e-05 5.622599201160483062e-05 -2.115114912157878280e-04
3.173000000000000000e+03 1.283015632629394531e+01 9.389825820922851562e+00 8.777042967267334461e-05 8.410096779698505998e-05 5.156141924089752138e-05 -1.040928327711299062e-05
3.174000000000000000e+03 3.656655120849609375e+01 -2.573032855987548828e+00 -2.766628749668598175e-04 -2.155050060537178069e-05 -8.946401067078113556e-05 8.447422442259266973e-05
3.175000000000000000e+03 3.219575119018554688e+01 2.904071092605590820e+00 -3.609422128647565842e-04 6.638228660449385643e-05 -8.836797496769577265e-05 1.493895542807877064e-04
3.176000000000000000e+03 3.247356796264648438e+01 3.935174226760864258e+00 5.337959737516939640e-04 -1.629205144126899540e-05 1.552511821500957012e-04 2.545626375649590045e-05
3.177000000000000000e+03 2.908049583435058594e+01 9.361907958984375000e+00 5.049803294241428375e-04 3.364956864970736206e-05 1.615889632375910878e-04 2.717204915825277567e-04
3.178000000000000000e+03 2.877425384521484375e+01 -9.018053412437438965e-01 1.541048404760658741e-04 -6.030973963788710535e-05 2.813852916005998850e-05 -9.473731188336387277e-05
3.179000000000000000e+03 1.640547752380371094e+01 8.893201828002929688e+00 -6.802267307648435235e-05 -4.372603871161118150e-05 -3.352461499162018299e-05 -2.463826240273192525e-05
3.180000000000000000e+03 3.167390441894531250e+01 -6.661104559898376465e-01 -2.581453300081193447e-04 2.796046828734688461e-05 -6.905545888002961874e-05 1.508364366600289941e-04
3.181000000000000000e+03 3.163227844238281250e+01 -2.102953195571899414e+00 6.551033493451541290e-06 1.338005404249997810e-05 5.979326033411780372e-06 2.135299873771145940e-04
3.182000000000000000e+03 1.390241050720214844e+01 1.456597042083740234e+01 2.357746270718052983e-04 -7.218568498501554132e-05 4.907667971565388143e-05 -2.236513828393071890e-04
3.183000000000000000e+03 1.797544288635253906e+01 8.764683723449707031e+00 1.960602676263079047e-04 -9.124222560785710812e-05 3.144541187793947756e-05 9.356956070405431092e-06
3.184000000000000000e+03 1.544225597381591797e+01 1.892796516418457031e+01 2.966438769362866879e-04 -1.512489689048379660e-04 4.361847459222190082e-05 -2.966416359413415194e-04
3.185000000000000000e+03 2.919521331787109375e+01 8.168168067932128906e+00 -9.170993871521204710e-05 -1.739418803481385112e-04 -7.969554280862212181e-05 -1.087559940060600638e-04
3.186000000000000000e+03 3.037239074707031250e+01 9.565246582031250000e+00 -1.692471851129084826e-04 -1.252110378118231893e-04 -8.833746687741950154e-05 -7.536417979281395674e-05
3.187000000000000000e+03 3.162754440307617188e+01 5.086765766143798828e+00 4.617825325112789869e-04 3.784116051974706352e-05 1.498871133662760258e-04 1.591546606505289674e-04
3.188000000000000000e+03 2.933098030090332031e+01 7.045560359954833984e+00 4.162678960710763931e-04 6.330441829049959779e-05 1.438716863049194217e-04 2.224656054750084877e-04
3.189000000000000000e+03 1.765932273864746094e+01 9.688270568847656250e+00 -6.951222894713282585e-05 -7.048558472888544202e-05 -4.199934483040124178e-05 -1.817576849134638906e-04
3.190000000000000000e+03 1.894394302368164062e+01 1.258006954193115234e+01 -1.300168514717370272e-04 -1.408678217558190227e-04 -8.126540342345833778e-05 -1.004950463538989425e-04
3.191000000000000000e+03 1.984948158264160156e+01 9.492214202880859375e+00 1.539156219223514199e-04 -1.610758044989779592e-04 -2.148052089978591539e-06 3.151314012939110398e-05
3.192000000000000000e+03 2.066711044311523438e+01 7.176714420318603516e+00 2.496795787010341883e-04 4.439400800038129091e-05 8.822207746561616659e-05 1.779421290848404169e-05
3.193000000000000000e+03 2.950331115722656250e+01 1.928828239440917969e+01 -3.151800774503499269e-04 -2.108797343680635095e-04 -1.578179362695664167e-04 -7.026832463452592492e-05
3.194000000000000000e+03 2.795421218872070312e+01 1.967564392089843750e+01 1.321459887549281120e-03 -5.027623847126960754e-04 2.456092624925076962e-04 -2.009931049542501569e-04
3.195000000000000000e+03 2.659626197814941406e+01 2.025700187683105469e+01 -3.251985472161322832e-04 -2.287018141942098737e-04 -1.661701098782941699e-04 -2.739448100328445435e-04
3.196000000000000000e+03 3.214146423339843750e+01 3.871726393699645996e-01 4.242636787239462137e-04 -4.884774170932359993e-05 1.126247807405889034e-04 -1.100987137760967016e-04
3.197000000000000000e+03 3.486792755126953125e+01 -7.009602069854736328e+00 1.013715009321458638e-04 9.565975778969004750e-05 5.910937761655077338e-05 4.223942232783883810e-05
3.198000000000000000e+03 2.597472763061523438e+01 5.661316394805908203e+00 3.367224708199501038e-04 -7.200874824775382876e-05 7.941411604406312108e-05 3.516498327371664345e-05
3.199000000000000000e+03 2.230565643310546875e+01 6.513272762298583984e+00 4.294444224797189236e-04 -5.558523480431176722e-05 1.121577588492073119e-04 4.040413477923721075e-05
3.200000000000000000e+03 2.432807350158691406e+01 5.449148178100585938e+00 3.789593174587935209e-04 -2.316119207534939051e-05 1.067394405254162848e-04 -1.749109469528775662e-05
3.201000000000000000e+03 1.297122097015380859e+01 1.123676586151123047e+01 -6.663235399173572659e-05 -1.052709922078065574e-05 -2.314783523615915328e-05 -4.270947101758792996e-05
3.202000000000000000e+03 3.271478271484375000e+01 -3.783138036727905273e+00 1.988260482903569937e-04 -7.477929466404020786e-05 3.721402754308655858e-05 1.696142862783744931e-04
3.203000000000000000e+03 3.287883377075195312e+01 -2.218649864196777344e+00 -1.606813748367130756e-04 2.807902455970179290e-05 -3.978070526500232518e-05 2.787277335301041603e-04
3.204000000000000000e+03 3.355811309814453125e+01 -5.056619167327880859e+00 9.305271669290959835e-05 8.764616359258070588e-05 5.420966408564709127e-05 -1.030584680847823620e-04
3.205000000000000000e+03 2.654051971435546875e+01 1.014267444610595703e+01 1.156749713118188083e-04 -2.769564162008464336e-04 -4.838443419430404902e-05 -2.289199619553983212e-04
3.206000000000000000e+03 3.263160705566406250e+01 1.533005237579345703e+00 -4.125702835153788328e-04 1.161273030447773635e-04 -8.893289486877620220e-05 2.056201774394139647e-04
3.207000000000000000e+03 3.501998901367187500e+01 -3.239292144775390625e+00 -6.051180025679059327e-05 1.651329948799684644e-04 3.138636020594276488e-05 -1.637532550375908613e-04
3.208000000000000000e+03 3.037813568115234375e+01 3.031685054302215576e-01 1.820543839130550623e-04 -9.955088171409443021e-05 2.475105247867759317e-05 -2.069063921226188540e-04
3.209000000000000000e+03 2.494108009338378906e+01 6.506775856018066406e+00 -1.342818723060190678e-04 -1.186422741739079356e-04 -7.587724394397810102e-05 -3.000226570293307304e-05
3.210000000000000000e+03 2.372010993957519531e+01 7.092366218566894531e+00 4.047261318191885948e-04 3.880652002408169210e-05 1.330597879132255912e-04 5.110756319481879473e-05
3.211000000000000000e+03 3.556251525878906250e+01 -5.841180801391601562e+00 8.158244600053876638e-05 1.351165610685711727e-05 2.852823126886505634e-05 6.249296711757779121e-05
3.212000000000000000e+03 3.141312217712402344e+01 3.143018484115600586e+00 3.999997570645064116e-04 1.341898405371466652e-05 1.240256242454051971e-04 1.677830186963547021e-05
3.213000000000000000e+03 3.107909011840820312e+01 2.437061071395874023e+00 -1.951910962816327810e-04 1.048850535880774260e-04 -2.709181353566236794e-05 2.264772920170798898e-04
3.214000000000000000e+03 1.767055511474609375e+01 1.288352203369140625e+01 5.141983274370431900e-04 -8.148739289026707411e-05 1.298132701776921749e-04 -3.060310518776532263e-06
3.215000000000000000e+03 3.311264419555664062e+01 -8.101445198059082031e+00 9.957094152923673391e-05 2.771832623693626374e-05 3.818677942035719752e-05 -2.473301174177322537e-05
3.216000000000000000e+03 1.569842910766601562e+01 1.082389450073242188e+01 3.104114148300141096e-04 2.354166099394205958e-05 1.001859272946603596e-04 -3.157815444865263999e-05
3.217000000000000000e+03 1.512671947479248047e+01 1.243590164184570312e+01 3.317957744002342224e-04 -9.375606168759986758e-05 7.141191599657759070e-05 -2.778167836368083954e-04
3.218000000000000000e+03 1.920175743103027344e+01 1.024796295166015625e+01 2.834255865309387445e-04 3.098201887041795999e-06 8.595713006798177958e-05 -1.555789058329537511e-04
3.219000000000000000e+03 1.593489265441894531e+01 1.184826660156250000e+01 -5.106603202875703573e-05 -9.618825424695387483e-05 -4.417628588271327317e-05 -9.982987103285267949e-05
3.220000000000000000e+03 1.830763244628906250e+01 1.583476257324218750e+01 6.532006664201617241e-04 -1.428106334060430527e-04 1.531170128146186471e-04 -9.727560245664790273e-05
3.221000000000000000e+03 1.450815677642822266e+01 1.338228321075439453e+01 5.742557914345525205e-05 8.585464092902839184e-05 4.298406565794721246e-05 1.436992192793695722e-06
3.222000000000000000e+03 2.896004867553710938e+01 1.064854526519775391e+01 -8.285053627332672477e-05 -1.529014116385951638e-04 -7.072558219078928232e-05 -1.401825138600543141e-04
3.223000000000000000e+03 2.783872222900390625e+01 9.138296127319335938e+00 8.446533684036694467e-06 -2.375164622208103538e-04 -6.872097583254799247e-05 -1.780577440513297915e-04
3.224000000000000000e+03 2.948722839355468750e+01 5.970640182495117188e+00 -1.303733442910015583e-04 -8.912349585443735123e-05 -6.584905349882319570e-05 -1.204556028824299574e-04
3.225000000000000000e+03 1.646269607543945312e+01 2.064505004882812500e+01 -2.484816104697529227e-05 -1.485968969063833356e-04 -5.203351611271500587e-05 -4.322593449614942074e-04
3.226000000000000000e+03 2.534861564636230469e+01 7.715358734130859375e+00 4.177163064014166594e-04 1.009807892842218280e-04 1.556091301608830690e-04 9.912149107549339533e-05
3.227000000000000000e+03 2.795613861083984375e+01 7.920287132263183594e+00 3.480047744233161211e-04 1.133099431172013283e-04 1.383944181725382805e-04 2.209170343121513724e-04
3.228000000000000000e+03 2.731828117370605469e+01 1.321359348297119141e+01 7.006606319919228554e-04 -1.464757224312052131e-04 1.662554714130237699e-04 2.666251966729760170e-04
3.229000000000000000e+03 2.332958030700683594e+01 1.455357837677001953e+01 4.677481192629784346e-04 -1.465971290599554777e-04 9.634529851609840989e-05 -1.699908752925693989e-04
3.230000000000000000e+03 1.479531955718994141e+01 2.211223793029785156e+01 1.648872130317613482e-04 -1.706533366814255714e-04 -1.729836753838753793e-06 -3.480703453533351421e-04
3.231000000000000000e+03 1.439976406097412109e+01 2.403012657165527344e+01 -1.055681968864519149e-05 1.212956703966483474e-04 3.322165503050200641e-05 -2.794644387904554605e-04
3.232000000000000000e+03 1.768712234497070312e+01 1.167566585540771484e+01 -1.733950484776869416e-04 -4.879469997831620276e-05 -6.665692490059882402e-05 -2.718411269597709179e-04
3.233000000000000000e+03 2.818657493591308594e+01 2.185355377197265625e+01 -4.118841316085308790e-04 -2.468597667757421732e-04 -1.976231724256649613e-04 -1.539282675366848707e-04
3.234000000000000000e+03 2.696648406982421875e+01 1.603289031982421875e+01 6.746599683538079262e-04 -3.834000672213733196e-04 8.737797179492190480e-05 1.915580214699730277e-04
3.235000000000000000e+03 3.068346405029296875e+01 3.106026172637939453e+00 1.853704270615708083e-05 -1.182996202260255814e-04 -2.992877307406160980e-05 -1.435106678400188684e-04
3.236000000000000000e+03 2.961567115783691406e+01 4.916839599609375000e+00 3.834839153569191694e-04 3.314808418508619070e-05 1.249896013177931309e-04 2.729007683228701353e-04
3.237000000000000000e+03 2.902420425415039062e+01 2.169755220413208008e+00 3.224200045224279165e-04 -1.752632670104503632e-04 4.414702198118902743e-05 -1.035381937981583178e-04
3.238000000000000000e+03 2.674080467224121094e+01 4.659749984741210938e+00 -8.739668555790558457e-05 7.234356598928570747e-05 -4.515935870585963130e-06 1.891015745059121400e-05
3.239000000000000000e+03 2.667682838439941406e+01 7.651962280273437500e+00 4.424760845722630620e-05 -2.774781314656138420e-04 -6.996915908530354500e-05 -1.436199236195534468e-04
3.240000000000000000e+03 2.745334243774414062e+01 3.779367446899414062e+00 3.935646964237093925e-04 -1.689861237537115812e-04 6.737357762176543474e-05 3.979921530117280781e-05
3.241000000000000000e+03 2.698134231567382812e+01 6.382327556610107422e+00 1.639321853872388601e-04 6.674784526694566011e-05 6.920401210663840175e-05 1.599367533344775438e-04
3.242000000000000000e+03 1.868499183654785156e+01 1.148366737365722656e+01 4.931652219966053963e-04 -6.709599983878433704e-05 1.278207637369632721e-04 -7.318869029404595494e-05
3.243000000000000000e+03 2.549109840393066406e+01 8.923427581787109375e+00 -2.450151623634155840e-05 -2.694965514820069075e-04 -8.819942013360559940e-05 -1.048916019499301910e-04
3.244000000000000000e+03 2.515402221679687500e+01 1.406525135040283203e+01 3.755663638003170490e-04 -1.544888509670272470e-04 6.632324948441237211e-05 -1.500327925896272063e-04
3.245000000000000000e+03 1.571182250976562500e+01 1.345861339569091797e+01 -1.833407586673274636e-04 -4.694715244113467634e-05 -6.908637442393228412e-05 -7.416503649437800050e-05
3.246000000000000000e+03 1.677135848999023438e+01 1.167285060882568359e+01 3.036475391127169132e-04 4.169614112470299006e-05 1.036031098919920623e-04 1.150146053987555206e-04
3.247000000000000000e+03 1.855394554138183594e+01 9.852200508117675781e+00 3.680681402329355478e-04 -1.355603162664920092e-04 6.975235010031610727e-05 2.164049146813340485e-05
3.248000000000000000e+03 2.137930297851562500e+01 7.669380664825439453e+00 2.573110396042466164e-04 -1.129243537434376776e-05 7.380558236036449671e-05 5.490652256412431598e-05
3.249000000000000000e+03 1.669171142578125000e+01 1.069626617431640625e+01 -6.389804912032559514e-05 -1.006066959234885871e-04 -4.935142351314425468e-05 -1.992086035897955298e-04
3.250000000000000000e+03 2.753934669494628906e+01 5.302104949951171875e+00 2.065474836854264140e-04 -1.661104906816035509e-04 1.213109771924791858e-05 -6.882336310809478164e-05
3.251000000000000000e+03 2.057870101928710938e+01 1.031516838073730469e+01 3.016632399521768093e-04 6.133474380476400256e-05 1.088993958546780050e-04 -1.170180330518633127e-04
3.252000000000000000e+03 3.058856391906738281e+01 5.038650035858154297e+00 -1.616927329450845718e-04 -7.869643741287291050e-05 -7.211675256257876754e-05 -1.154225901700556278e-04
3.253000000000000000e+03 2.816510009765625000e+01 6.775111198425292969e+00 2.729689413172309287e-06 -1.569771120557561517e-04 -4.627422822522930801e-05 -8.889025775715708733e-05
3.254000000000000000e+03 2.769609642028808594e+01 1.041299629211425781e+01 4.683634033426642418e-04 7.573320317533216439e-07 1.407362287864089012e-04 3.101001784671097994e-04
3.255000000000000000e+03 3.178388595581054688e+01 1.942117214202880859e+00 4.214689834043383598e-04 -6.656527693849056959e-05 1.064711104845628142e-04 -1.382938498863950372e-04
3.256000000000000000e+03 2.874965476989746094e+01 4.781960487365722656e+00 -1.260727149201557040e-04 -4.679383346228860319e-05 -5.185996269574388862e-05 -1.321210438618436456e-04
3.257000000000000000e+03 2.853091239929199219e+01 1.497564125061035156e+01 7.279553683474659920e-04 -2.336959878448396921e-04 1.482778025092557073e-04 3.366515738889575005e-04
3.258000000000000000e+03 2.608827400207519531e+01 1.445254611968994141e+01 7.550517329946160316e-04 -3.618732152972370386e-04 1.179535538540221751e-04 5.669573147315531969e-05
3.259000000000000000e+03 2.450790405273437500e+01 1.158849525451660156e+01 4.501455623540095985e-05 -1.913683809107169509e-04 -4.390614776639267802e-05 1.457605249015614390e-04
3.260000000000000000e+03 2.545029449462890625e+01 1.679879379272460938e+01 5.974485538899898529e-04 -2.196104323957115412e-04 1.133514379034750164e-04 1.899039634736254811e-04
3.261000000000000000e+03 1.625339698791503906e+01 1.480719661712646484e+01 5.180619191378355026e-04 -6.332033808575943112e-05 1.364224735880270600e-04 -1.201696068164892495e-04
3.262000000000000000e+03 1.725269508361816406e+01 1.759135627746582031e+01 7.276330143213272095e-04 -2.082860883092507720e-04 1.558040821691974998e-04 -1.691362995188683271e-04
3.263000000000000000e+03 1.783413124084472656e+01 2.055188179016113281e+01 6.267260177992284298e-04 -1.623666321393102407e-04 1.393078127875924110e-04 -1.160538013209588826e-04
3.264000000000000000e+03 3.153099060058593750e+01 4.051483631134033203e+00 -2.473787171766161919e-04 -2.549428063503000885e-05 -8.186189370462670922e-05 -9.886014595394954085e-06
3.265000000000000000e+03 2.606072235107421875e+01 1.333632946014404297e+01 -2.077491226373240352e-04 -1.462371292291209102e-04 -1.061958755599334836e-04 3.628851573012070730e-06
3.266000000000000000e+03 2.742409133911132812e+01 1.798350715637207031e+01 -2.959118573926389217e-04 -1.940201036632061005e-04 -1.469795824959874153e-04 3.377905813977122307e-04
3.267000000000000000e+03 2.439285087585449219e+01 1.966605186462402344e+01 7.913244189694523811e-04 -4.943148232996463776e-04 8.910288306651636958e-05 -5.153765087015926838e-04
3.268000000000000000e+03 2.388153266906738281e+01 2.703455543518066406e+01 -1.600235700607299805e-04 -3.894601541105657816e-04 -1.648451143410056829e-04 -8.255316643044352531e-04
3.269000000000000000e+03 1.629803657531738281e+01 2.472906875610351562e+01 1.218849502038210630e-04 -2.154770627385005355e-04 -2.807763303280808032e-05 -4.369777743704617023e-04
3.270000000000000000e+03 2.248369216918945312e+01 1.347984218597412109e+01 6.321698310784995556e-05 -2.397749631199985743e-04 -5.296739254845306277e-05 -4.279349013813771307e-06
3.271000000000000000e+03 2.157277488708496094e+01 9.459156990051269531e+00 5.916735608479939401e-05 -2.452441258355975151e-04 -5.582303128903731704e-05 1.496687673352425918e-05
3.272000000000000000e+03 2.664889335632324219e+01 8.940443038940429688e+00 3.801265556830912828e-04 1.070877697202377021e-04 1.461642968934029341e-04 2.618426806293427944e-04
3.273000000000000000e+03 1.966071510314941406e+01 1.102202701568603516e+01 -1.890315070340875536e-05 -1.876113383332267404e-04 -6.195434980327263474e-05 -3.241838203393854201e-05
3.274000000000000000e+03 2.554325866699218750e+01 9.940665245056152344e+00 3.663733950816094875e-04 8.715803414816036820e-05 1.360594324069097638e-04 1.735120458761230111e-04
3.275000000000000000e+03 2.405239105224609375e+01 8.165147781372070312e+00 -1.506977696408284828e-05 -2.596239501144737005e-04 -8.240812167059630156e-05 -5.632974716718308628e-05
3.276000000000000000e+03 2.846928215026855469e+01 5.724805355072021484e+00 2.944962179753929377e-04 3.350867700646631420e-05 9.840146958595141768e-05 2.053905773209407926e-04
3.277000000000000000e+03 2.573100662231445312e+01 1.562874412536621094e+01 2.935754855570849031e-05 -1.058017078321427107e-04 -2.293324723723344505e-05 -1.888401748146861792e-04
3.278000000000000000e+03 2.037377738952636719e+01 1.932001304626464844e+01 5.566527834162116051e-04 -1.155307836597785354e-04 1.323365868302062154e-04 -3.073682601097971201e-04
3.279000000000000000e+03 2.964404678344726562e+01 3.827238321304321289e+00 -1.051112121785990894e-04 -1.115527920774184167e-04 -6.499919982161372900e-05 -2.374763134866952896e-04
3.280000000000000000e+03 3.119127464294433594e+01 1.034037947654724121e+00 -2.413696347502991557e-04 1.107757489080540836e-04 -3.917816502507776022e-05 1.917932240758091211e-04
3.281000000000000000e+03 2.117523956298828125e+01 1.129021739959716797e+01 6.238410423975437880e-05 -2.678840828593820333e-04 -6.164999649627134204e-05 -2.516242147976299748e-07
3.282000000000000000e+03 1.762586212158203125e+01 1.065307712554931641e+01 4.428268293850123882e-04 -6.043705434422008693e-05 1.147169314208440483e-04 7.126188575057312846e-05
3.283000000000000000e+03 2.505258178710937500e+01 1.871241950988769531e+01 -1.410668046446517110e-04 -2.306763963133562356e-05 -4.924033055431209505e-05 3.676438063848763704e-04
3.284000000000000000e+03 2.655444717407226562e+01 1.714990806579589844e+01 2.133806410711258650e-04 -1.761092134984210134e-04 1.118142972700297832e-05 -6.039499421603977680e-04
3.285000000000000000e+03 2.283960151672363281e+01 1.151703357696533203e+01 7.910054409876465797e-05 -2.618767612148076296e-04 -5.483286440721713006e-05 3.828121407423168421e-05
3.286000000000000000e+03 2.619174385070800781e+01 1.135317134857177734e+01 2.294288133271038532e-04 -3.844703314825892448e-05 5.729453550884500146e-05 2.546761243138462305e-04
3.287000000000000000e+03 1.814861488342285156e+01 2.247292518615722656e+01 -2.049642935162410140e-04 -1.470222341595217586e-04 -1.055959583027288318e-04 -5.130278877913951874e-04
3.288000000000000000e+03 1.411671733856201172e+01 2.906942367553710938e+01 1.069146019290201366e-04 1.842405763454735279e-04 8.734655420994386077e-05 -3.294957568868994713e-04
3.289000000000000000e+03 2.129642677307128906e+01 2.701623916625976562e+01 4.208657192066311836e-04 -1.068669371306896210e-04 9.419963316759094596e-05 -1.525538245914503932e-04
3.290000000000000000e+03 2.282416152954101562e+01 1.719968223571777344e+01 6.433567614294588566e-04 -1.445057569071650505e-04 1.496553013566881418e-04 -2.209580561611801386e-04
3.291000000000000000e+03 1.439380073547363281e+01 1.810242843627929688e+01 -1.525100960861891508e-04 7.003347855061292648e-05 -2.474298344168346375e-05 -2.234289859188720584e-04
3.292000000000000000e+03 2.825234031677246094e+01 3.014183759689331055e+00 -2.681808255147188902e-04 1.503337989561259747e-04 -3.535410723998211324e-05 6.335080252029001713e-05
3.293000000000000000e+03 1.930625724792480469e+01 1.384247970581054688e+01 5.615120753645896912e-04 -6.918823055457323790e-05 1.476971665397286415e-04 -1.574844063725322485e-04
3.294000000000000000e+03 2.524382591247558594e+01 1.079078865051269531e+01 3.020571020897477865e-04 -9.677033813204616308e-05 6.158603355288505554e-05 -1.800672907847911119e-04
3.295000000000000000e+03 2.276947212219238281e+01 8.712804794311523438e+00 3.937012224923819304e-04 5.679929381585679948e-05 1.351501559838652611e-04 -2.649408997967839241e-05
3.296000000000000000e+03 2.986941528320312500e+01 2.762554407119750977e+00 2.321899773960467428e-05 1.493240997660905123e-04 5.176292688702233136e-05 2.906261943280696869e-04
3.297000000000000000e+03 2.220339584350585938e+01 1.049305343627929688e+01 3.316906513646245003e-04 7.053199806250631809e-05 1.206667948281392455e-04 -1.134779304265975952e-04
3.298000000000000000e+03 1.783535957336425781e+01 1.429500484466552734e+01 -2.477158850524574518e-04 -7.351045496761798859e-05 -9.636790491640567780e-05 -2.232857514172792435e-04
3.299000000000000000e+03 2.380848121643066406e+01 1.073593521118164062e+01 3.801782149821519852e-04 4.357409125077538192e-05 1.271256915060803294e-04 -1.141194516094401479e-04
3.300000000000000000e+03 2.435159111022949219e+01 1.333635807037353516e+01 2.417704126855824143e-05 -1.361255708616226912e-04 -3.358455796842463315e-05 5.714034705306403339e-05
3.301000000000000000e+03 2.154791831970214844e+01 1.825933074951171875e+01 -9.019049684866331518e-07 -2.932972274720668793e-04 -8.825973782222718000e-05 -1.079260327969677746e-04
3.302000000000000000e+03 1.984145927429199219e+01 1.529693794250488281e+01 -1.334099506493657827e-04 -1.665580639382824302e-04 -8.999040437629446387e-05 -7.847252709325402975e-05
3.303000000000000000e+03 1.957028198242187500e+01 1.788462638854980469e+01 1.292571255362418015e-06 -1.678554835962131619e-04 -4.996887582819908857e-05 -9.467807103646919131e-05
3.304000000000000000e+03 2.535940551757812500e+01 1.784726715087890625e+01 2.619827282615005970e-04 -4.060945648234337568e-04 -4.323355096857994795e-05 -5.911281914450228214e-04
3.305000000000000000e+03 2.243362998962402344e+01 1.973758316040039062e+01 5.769272684119641781e-04 -2.124175371136516333e-04 1.093529281206429005e-04 -3.089755482506006956e-04
3.306000000000000000e+03 2.207061386108398438e+01 1.576117992401123047e+01 -5.097464600112289190e-05 -2.074634685413911939e-04 -7.753143290756270289e-05 -3.577148891054093838e-05
3.307000000000000000e+03 2.445395851135253906e+01 1.527364349365234375e+01 4.566778661683201790e-04 -2.437166112940758467e-04 6.388837937265634537e-05 8.149672066792845726e-05
3.308000000000000000e+03 1.914946365356445312e+01 2.011930084228515625e+01 -2.949724439531564713e-04 -9.842900908552110195e-05 -1.180204344564117491e-04 -2.813737082760781050e-04
3.309000000000000000e+03 1.646219444274902344e+01 1.917929840087890625e+01 4.593401390593498945e-04 -9.400927956448867917e-05 1.095992629416286945e-04 -1.156098223873414099e-04
3.310000000000000000e+03 1.658165740966796875e+01 1.264589691162109375e+01 2.242172777187079191e-04 -1.097652129828929901e-04 3.433562233112752438e-05 -3.201497020199894905e-04
3.311000000000000000e+03 2.355758857727050781e+01 1.248219585418701172e+01 4.583123372867703438e-04 -8.271645492641255260e-05 1.126787683460861444e-04 -1.362835319014266133e-04
3.312000000000000000e+03 2.435921669006347656e+01 9.216504096984863281e+00 3.825731400866061449e-04 9.323898848379030824e-05 1.427436363883316517e-04 3.987519448855891824e-06
3.313000000000000000e+03 2.326240921020507812e+01 9.768951416015625000e+00 4.817677472601644695e-05 -2.745907986536622047e-04 -6.792420754209160805e-05 3.181069405400194228e-05
3.314000000000000000e+03 2.061858367919921875e+01 1.317689037322998047e+01 -2.003718145715538412e-05 -2.275791048305109143e-04 -7.428488606819882989e-05 -2.840373417711816728e-05
3.315000000000000000e+03 2.011146926879882812e+01 1.202436542510986328e+01 4.211522755213081837e-04 1.024828179652104154e-05 1.294201647397130728e-04 -1.490121940150856972e-04
3.316000000000000000e+03 1.618175125122070312e+01 1.806170845031738281e+01 -3.177066391799598932e-04 5.573236558120697737e-05 -7.859228207962587476e-05 -2.357340999878942966e-04
3.317000000000000000e+03 2.444394683837890625e+01 1.792377471923828125e+01 9.291709866374731064e-04 -3.410858334973454475e-04 1.764255430316552520e-04 -9.665082325227558613e-05
3.318000000000000000e+03 2.539155197143554688e+01 1.238504219055175781e+01 6.427423795685172081e-04 -2.219612215412780643e-04 1.262343430425971746e-04 -2.039953251369297504e-04
3.319000000000000000e+03 1.848086357116699219e+01 1.731307029724121094e+01 -3.060194721911102533e-04 3.062078121729427949e-06 -9.088721708394587040e-05 -3.182783548254519701e-04
3.320000000000000000e+03 2.065072059631347656e+01 1.680067253112792969e+01 5.634814733639359474e-04 -1.394613937009125948e-04 1.272060326300561428e-04 -2.818148059304803610e-04
3.321000000000000000e+03 1.716381263732910156e+01 2.849540328979492188e+01 1.293882087338715792e-04 9.315692295785993338e-05 6.676353950751945376e-05 -2.505606680642813444e-04
3.322000000000000000e+03 2.178659057617187500e+01 1.237038040161132812e+01 3.968534583691507578e-04 1.510714696451032069e-06 1.195092554553411901e-04 -1.454732409911230206e-04
3.323000000000000000e+03 2.124959564208984375e+01 1.444312858581542969e+01 4.998163785785436630e-04 -7.628866296727210283e-05 1.270583161385729909e-04 -1.884412922663614154e-04
3.324000000000000000e+03 2.244619369506835938e+01 2.285604095458984375e+01 6.107171066105365753e-04 -3.173994191456586123e-04 8.799531497061252594e-05 -4.213006177451461554e-04
3.325000000000000000e+03 1.844816780090332031e+01 2.483156585693359375e+01 3.139146137982606888e-04 3.720640597748570144e-05 1.053363084793090820e-04 -1.487209810875356197e-04
3.326000000000000000e+03 1.864030075073242188e+01 1.864028739929199219e+01 7.794331177137792110e-04 -2.797151682898402214e-04 1.499153731856495142e-04 -1.789298694347962737e-04
3.327000000000000000e+03 2.349291038513183594e+01 1.861185646057128906e+01 -6.866131298011168838e-05 -2.467420708853751421e-04 -9.462102025281637907e-05 -4.944205284118652344e-05
3.328000000000000000e+03 2.545551490783691406e+01 2.030032348632812500e+01 2.893162891268730164e-04 -1.255640236195176840e-04 4.912567965220659971e-05 3.532191039994359016e-04
3.329000000000000000e+03 2.357533836364746094e+01 2.105621337890625000e+01 -5.151993264007614926e-06 -1.717263512546196580e-04 -5.306350431055761874e-05 -8.391328447032719851e-05
3.330000000000000000e+03 2.500707054138183594e+01 2.188916397094726562e+01 3.444598987698554993e-04 -4.567487048916518688e-04 -3.368663601577281952e-05 -6.737167132087051868e-04
3.331000000000000000e+03 2.658432769775390625e+01 2.208250617980957031e+01 1.095469226129353046e-03 -5.360851646400988102e-04 1.678152329986914992e-04 -3.151137570966966450e-05
3.332000000000000000e+03 2.122229766845703125e+01 2.099503135681152344e+01 -8.913331839721649885e-05 -2.645749482326209545e-04 -1.061124785337597132e-04 -1.946592674357816577e-04
3.333000000000000000e+03 2.640449142456054688e+01 2.436684417724609375e+01 -2.735226880759000778e-04 -2.951335336547344923e-04 -1.705968606984242797e-04 -5.958557012490928173e-04
3.334000000000000000e+03 2.067741012573242188e+01 2.422945213317871094e+01 -3.486748901195824146e-04 -2.119450800819322467e-04 -1.681859866948798299e-04 -5.249134264886379242e-04
3.335000000000000000e+03 1.978068351745605469e+01 2.197005653381347656e+01 6.798240938223898411e-04 -1.931370497914031148e-04 1.460061175748705864e-04 -2.727590617723762989e-04
3.336000000000000000e+03 2.833417320251464844e+01 2.414817810058593750e+01 1.391937141306698322e-03 -6.803624564781785011e-04 2.134723908966407180e-04 -3.431041841395199299e-04
3.337000000000000000e+03 2.643065261840820312e+01 2.711722755432128906e+01 8.515336667187511921e-04 -5.195906269364058971e-04 9.958291047951206565e-05 -2.295996964676305652e-04
3.338000000000000000e+03 3.176518821716308594e+01 2.818952178955078125e+01 -2.976615505758672953e-04 -7.377830334007740021e-04 -3.106333897449076176e-04 -2.952171489596366882e-04
3.339000000000000000e+03 3.064825439453125000e+01 2.589350509643554688e+01 1.394226332195103168e-03 -6.459983997046947479e-04 2.244683855678886175e-04 -6.658587954007089138e-04
3.340000000000000000e+03 1.771362686157226562e+01 3.225004959106445312e+01 -3.099345485679805279e-05 3.296206341474317014e-05 5.905823172724922188e-07 -4.260776040609925985e-04
3.341000000000000000e+03 1.892499160766601562e+01 2.729582786560058594e+01 -2.297672035638242960e-04 -2.695120347198098898e-04 -1.497837802162393928e-04 -6.705917185172438622e-04
3.342000000000000000e+03 3.378943252563476562e+01 2.949077224731445312e+01 1.102963597077177837e-05 -7.540524238720536232e-04 -2.229068340966477990e-04 -1.286183251067996025e-03
3.343000000000000000e+03 3.305361557006835938e+01 2.656105995178222656e+01 1.787221175618469715e-03 -1.226432155817747116e-03 1.682367001194506884e-04 -7.676180684939026833e-04
3.344000000000000000e+03 3.766907119750976562e+01 -4.122211837768554688e+01 1.858203709125518799e-01 -3.027425706386566162e-01 -3.507665544748306274e-02 -2.801793441176414490e-02
3.345000000000000000e+03 5.420562744140625000e+01 -3.716471099853515625e+01 -5.231422185897827148e-01 1.713368654251098633e+00 3.570679426193237305e-01 1.203341335058212280e-01
3.346000000000000000e+03 5.714979934692382812e+01 -4.101105499267578125e+01 -3.887239694595336914e-01 9.477254748344421387e-01 1.677004545927047729e-01 -1.538538187742233276e-01
3.347000000000000000e+03 3.009767150878906250e+01 -3.961705780029296875e+01 -2.827313961461186409e-03 -7.470480352640151978e-02 -2.325963415205478668e-02 -2.311209961771965027e-02
3.348000000000000000e+03 3.657872772216796875e+01 3.172931289672851562e+01 -6.115924334153532982e-04 -1.494139665737748146e-03 -6.317195948213338852e-04 -9.256979683414101601e-04
3.349000000000000000e+03 2.840734863281250000e+01 -3.723068618774414062e+01 -1.492942124605178833e-02 -2.019829861819744110e-02 -1.053831633180379868e-02 -1.565622910857200623e-02
3.350000000000000000e+03 3.961174011230468750e+01 3.546943283081054688e+01 -1.098715816624462605e-03 -1.826021587476134300e-03 -8.774212328717112541e-04 -2.874478814192116261e-04
3.351000000000000000e+03 4.650973892211914062e+01 3.845421218872070312e+01 -4.958687350153923035e-03 -7.280113175511360168e-03 -3.671640064567327499e-03 1.434426521882414818e-03
3.352000000000000000e+03 7.878129482269287109e+00 -3.386349868774414062e+01 -5.286021623760461807e-04 8.694575517438352108e-04 1.022566357278265059e-04 1.227867091074585915e-03
3.353000000000000000e+03 2.672486114501953125e+01 -4.093441772460937500e+01 -9.162190370261669159e-03 -3.372482582926750183e-02 -1.286610495299100876e-02 -4.084362182766199112e-03
3.354000000000000000e+03 5.217428588867187500e+01 -4.106497192382812500e+01 -5.032838582992553711e-01 1.299882173538208008e+00 2.389794886112213135e-01 1.133419722318649292e-01
3.355000000000000000e+03 4.669635391235351562e+01 -3.710031509399414062e+01 1.990996301174163818e-01 2.607814669609069824e-01 1.379643231630325317e-01 4.412223100662231445e-01
3.356000000000000000e+03 2.870870971679687500e+01 2.670468902587890625e+01 -5.625538760796189308e-04 -3.673263126984238625e-04 -2.789640566334128380e-04 -4.618762759491801262e-04
3.357000000000000000e+03 5.983300781250000000e+01 4.007699203491210938e+01 2.589083611965179443e-01 -6.556273251771926880e-02 5.800368636846542358e-02 1.133934408426284790e-01
3.358000000000000000e+03 4.725916671752929688e+01 -4.125565719604492188e+01 -6.080112978816032410e-02 6.334847211837768555e-01 1.718050837516784668e-01 1.244508773088455200e-01
3.359000000000000000e+03 2.744510459899902344e+01 3.733625793457031250e+01 -1.279777963645756245e-03 -1.351105747744441032e-04 -4.244665615260601044e-04 -8.803121163509786129e-04
3.360000000000000000e+03 3.185756492614746094e+01 3.690647125244140625e+01 -1.943993120221421123e-04 -5.763326771557331085e-04 -2.312196011189371347e-04 -2.967156178783625364e-04
3.361000000000000000e+03 1.574580860137939453e+01 3.516717529296875000e+01 -5.333282751962542534e-04 8.922502456698566675e-05 -1.332309620920568705e-04 -2.038501697825267911e-04
3.362000000000000000e+03 1.631886482238769531e+01 -3.878165054321289062e+01 -5.889653228223323822e-03 2.935258205980062485e-03 -8.863184484653174877e-04 3.913457505404949188e-03
3.363000000000000000e+03 2.384343147277832031e+01 3.038305091857910156e+01 1.879053306765854359e-04 -1.752977841533720493e-04 3.782263547691400163e-06 -1.718609273666515946e-04
3.364000000000000000e+03 3.538757705688476562e+01 3.564673233032226562e+01 -2.487737452611327171e-03 -7.727080374024808407e-04 -9.781336411833763123e-04 -7.326749619096517563e-04
3.365000000000000000e+03 3.393478775024414062e+01 3.238068771362304688e+01 8.237741421908140182e-04 -8.471995242871344090e-04 -7.027607807685853913e-06 -8.293637656606733799e-04
3.366000000000000000e+03 3.073627281188964844e+01 3.311904144287109375e+01 -1.267768326215445995e-03 -3.548999957274645567e-04 -4.868004762101918459e-04 -1.004564925096929073e-03
3.367000000000000000e+03 2.717608451843261719e+01 3.376238250732421875e+01 7.128326160454889759e-06 -2.988853084389120340e-04 -8.752709982218220830e-05 -2.739433548413217068e-04
3.368000000000000000e+03 4.874998092651367188e+01 -3.798471832275390625e+01 -8.748473227024078369e-02 7.886455655097961426e-01 2.103482484817504883e-01 3.554041385650634766e-01
3.369000000000000000e+03 2.358781242370605469e+01 3.382057952880859375e+01 -6.303116097114980221e-04 -1.519961660960689187e-04 -2.346923283766955137e-04 -8.516375673934817314e-04
3.370000000000000000e+03 2.112892532348632812e+01 3.012755393981933594e+01 -3.004235913977026939e-04 -2.179580915253609419e-04 -1.555144990561529994e-04 -7.868236862123012543e-04
3.371000000000000000e+03 3.959056854248046875e+01 3.329950714111328125e+01 -1.179933431558310986e-03 -1.575127360410988331e-03 -8.265182259492576122e-04 -1.639706082642078400e-03
3.372000000000000000e+03 1.886032867431640625e+01 2.966643142700195312e+01 -7.926151010906323791e-05 3.943974297726526856e-05 -1.194653032143833116e-05 -2.580869186203926802e-04
3.373000000000000000e+03 3.760001754760742188e+01 3.405507278442382812e+01 1.579644304001703858e-04 -9.220067295245826244e-04 -2.292126882821321487e-04 -1.405663671903312206e-03
3.374000000000000000e+03 5.888621520996093750e+01 -1.572368431091308594e+01 -2.588226743682753295e-05 3.054561238968744874e-05 1.399003735969017725e-06 -2.064665204670745879e-05
3.375000000000000000e+03 2.192946243286132812e+01 -1.262700271606445312e+01 4.807636287296190858e-05 1.819663339119870216e-05 1.988189978874288499e-05 3.640905924839898944e-05
3.376000000000000000e+03 7.352526855468750000e+01 -2.566650390625000000e+01 5.241532325744628906e-01 1.057600140571594238e+00 4.745260179042816162e-01 -2.155282646417617798e-01
3.377000000000000000e+03 7.401072692871093750e+01 -2.532170295715332031e+01 6.683691143989562988e-01 2.250988483428955078e+00 8.758072257041931152e-01 -1.055323243141174316e+00
3.378000000000000000e+03 7.492886352539062500e+01 -2.527096557617187500e+01 6.705400943756103516e-01 5.221805572509765625e+00 1.767703652381896973e+00 -2.574496507644653320e+00
3.379000000000000000e+03 7.576734924316406250e+01 -2.571753501892089844e+01 1.265163719654083252e-01 1.035592746734619141e+01 3.144733190536499023e+00 -3.965555667877197266e+00
3.380000000000000000e+03 7.758405303955078125e+01 -2.650852584838867188e+01 2.478672981262207031e+00 1.523454952239990234e+01 5.313966751098632812e+00 2.394018888473510742e+00
3.381000000000000000e+03 7.815342712402343750e+01 -2.711798477172851562e+01 2.499199390411376953e+00 1.210197257995605469e+01 4.380351543426513672e+00 1.499371081590652466e-01
3.382000000000000000e+03 7.815892028808593750e+01 -2.755980110168457031e+01 3.634638309478759766e+00 1.204284763336181641e+01 4.703246116638183594e+00 -1.091777324676513672e+00
3.383000000000000000e+03 7.828340148925781250e+01 -2.811940002441406250e+01 1.461996555328369141e+00 1.218505477905273438e+01 4.094115257263183594e+00 -1.890368819236755371e+00
3.384000000000000000e+03 7.823506164550781250e+01 -2.781246566772460938e+01 3.113142728805541992e+00 1.195605754852294922e+01 4.520760059356689453e+00 -1.348793506622314453e+00
3.385000000000000000e+03 7.712840270996093750e+01 -2.919990348815917969e+01 -1.620965957641601562e+00 1.495991706848144531e+01 4.001685142517089844e+00 -8.232784867286682129e-01
3.386000000000000000e+03 7.730237579345703125e+01 -2.905042648315429688e+01 -1.225816488265991211e+00 1.523347949981689453e+01 4.202299118041992188e+00 -1.473737359046936035e+00
3.387000000000000000e+03 7.566068267822265625e+01 -2.953345680236816406e+01 -7.941388487815856934e-01 8.863142967224121094e+00 2.420701265335083008e+00 2.796238183975219727e+00
3.388000000000000000e+03 7.457743072509765625e+01 -2.938826751708984375e+01 1.227294728159904480e-01 3.470105648040771484e+00 1.077850580215454102e+00 1.582231521606445312e+00
3.389000000000000000e+03 7.434248352050781250e+01 -2.929484939575195312e+01 1.429059654474258423e-01 2.697624683380126953e+00 8.521592020988464355e-01 1.148659229278564453e+00
3.390000000000000000e+03 7.365206146240234375e+01 -2.903797912597656250e+01 -3.879337608814239502e-01 9.815373420715332031e-01 1.780810654163360596e-01 -2.084797322750091553e-01
3.391000000000000000e+03 7.359630584716796875e+01 -2.943495750427246094e+01 -2.652458548545837402e-01 1.536247491836547852e+00 3.813004791736602783e-01 -4.919814318418502808e-02
3.392000000000000000e+03 7.322564697265625000e+01 -2.904808235168457031e+01 -6.157458424568176270e-01 8.665279150009155273e-01 7.523463666439056396e-02 -5.628567337989807129e-01
3.393000000000000000e+03 5.780942916870117188e+01 -1.596321296691894531e+01 3.251770613132975996e-05 -4.931245348416268826e-05 -5.038424205849878490e-06 -4.172525223111733794e-05
3.394000000000000000e+03 4.201857757568359375e+01 -2.428686904907226562e+01 5.428055374068208039e-05 -5.054619312286376953e-01 -1.516222953796386719e-01 -5.762629956007003784e-02
3.395000000000000000e+03 6.047574996948242188e+01 -3.788983154296875000e+01 -2.211805731058120728e-01 5.269938707351684570e-02 -5.054435878992080688e-02 -7.369837164878845215e-01
3.396000000000000000e+03 6.749417114257812500e+01 4.128836059570312500e+01 8.294143527746200562e-02 2.455738782882690430e+00 7.616040110588073730e-01 -1.066494807600975037e-01
3.397000000000000000e+03 7.796776580810546875e+01 3.573089599609375000e+01 -8.468569070100784302e-02 7.005564689636230469e+00 2.076263666152954102e+00 1.877873986959457397e-01
3.398000000000000000e+03 2.077806091308593750e+01 -1.339622402191162109e+01 2.739020965236704797e-05 1.242063008248806000e-04 4.547895514406263828e-05 8.325127964781131595e-06
3.399000000000000000e+03 6.861718654632568359e+00 -1.944385910034179688e+01 5.056478548794984818e-04 -3.524210114846937358e-06 1.506371045252308249e-04 -7.404961070278659463e-05
3.400000000000000000e+03 2.937662315368652344e+01 -3.430291748046875000e+01 -1.019215094856917858e-03 -5.915799643844366074e-03 -2.080504316836595535e-03 -4.115066491067409515e-03
3.401000000000000000e+03 7.303780364990234375e+01 -2.524823760986328125e+01 2.587562203407287598e-01 8.311637639999389648e-01 3.269760012626647949e-01 5.093643441796302795e-03
3.402000000000000000e+03 7.348053741455078125e+01 -2.509876060485839844e+01 4.416622817516326904e-01 1.471029520034790039e+00 5.738075375556945801e-01 -4.234364032745361328e-01
3.403000000000000000e+03 2.642910194396972656e+01 -8.871884346008300781e+00 -1.775263444869779050e-05 -2.394451485088211484e-06 -6.044125711923697963e-06 2.405463783361483365e-05
3.404000000000000000e+03 7.845135498046875000e+01 -2.761401557922363281e+01 3.047432184219360352e+00 1.144088554382324219e+01 4.346495151519775391e+00 -1.012906193733215332e+00
3.405000000000000000e+03 7.521327972412109375e+01 -2.479284667968750000e+01 -1.932949870824813843e-01 7.032672882080078125e+00 2.051813364028930664e+00 -2.389199733734130859e+00
3.406000000000000000e+03 7.395368957519531250e+01 -2.480570793151855469e+01 1.896527260541915894e-01 2.924453973770141602e+00 9.342319965362548828e-01 -1.074272632598876953e+00
3.407000000000000000e+03 2.297311544418334961e+00 -3.316223859786987305e+00 -1.614555512787774205e-04 -1.968405194929800928e-05 -5.434187914943322539e-05 -4.402006368309230311e-07
3.408000000000000000e+03 6.128405380249023438e+01 3.831901550292968750e+01 1.243602037429809570e-01 1.029252707958221436e-01 6.818564236164093018e-02 1.851128488779067993e-01
3.409000000000000000e+03 7.890160369873046875e+01 -2.772553062438964844e+01 1.430587530136108398e+00 9.678507804870605469e+00 3.332728624343872070e+00 -9.882894158363342285e-01
3.410000000000000000e+03 7.883720397949218750e+01 -2.894913482666015625e+01 4.241501167416572571e-02 1.107230854034423828e+01 3.334417104721069336e+00 -2.266888380050659180e+00
3.411000000000000000e+03 7.811796569824218750e+01 -2.912112045288085938e+01 -5.095417499542236328e-01 1.278194522857666016e+01 3.681721210479736328e+00 -2.435899019241333008e+00
3.412000000000000000e+03 7.527138519287109375e+01 -2.978203010559082031e+01 -4.984730184078216553e-01 6.891847133636474609e+00 1.918012142181396484e+00 2.367218255996704102e+00
3.413000000000000000e+03 7.722096252441406250e+01 -2.968177795410156250e+01 -1.814324855804443359e+00 1.370595455169677734e+01 3.567488908767700195e+00 -6.282706856727600098e-01
3.414000000000000000e+03 7.749055480957031250e+01 -2.928576469421386719e+01 -1.348275542259216309e+00 1.434782600402832031e+01 3.899865150451660156e+00 -1.406500816345214844e+00
3.415000000000000000e+03 7.552037048339843750e+01 3.478559112548828125e+01 -2.238855957984924316e-01 6.324608325958251953e+00 1.830216884613037109e+00 3.960339725017547607e-01
3.416000000000000000e+03 4.596928787231445312e+01 -3.364860916137695312e+01 2.538684904575347900e-01 -6.594002246856689453e-02 5.637853965163230896e-02 3.502860069274902344e-01
3.417000000000000000e+03 4.511621856689453125e+01 -3.580866622924804688e+01 1.984887272119522095e-01 -5.762589350342750549e-02 4.225885123014450073e-02 3.133108913898468018e-01
3.418000000000000000e+03 4.283498382568359375e+01 -3.408422088623046875e+01 1.029379367828369141e-01 -5.396134257316589355e-01 -1.310026496648788452e-01 9.590841084718704224e-02
3.419000000000000000e+03 4.918717956542968750e+01 -3.613357543945312500e+01 7.532672584056854248e-02 9.445990324020385742e-01 3.059777319431304932e-01 5.315019488334655762e-01
3.420000000000000000e+03 4.842140579223632812e+01 -1.267271327972412109e+01 9.994147694669663906e-05 2.707024577830452472e-05 3.810351699939928949e-05 1.037595284287817776e-04
3.421000000000000000e+03 5.335083389282226562e+01 -2.668356323242187500e+01 1.346695065498352051e+00 1.823314547538757324e+00 9.510028958320617676e-01 1.867534965276718140e-01
3.422000000000000000e+03 5.170417785644531250e+01 -3.145248603820800781e+01 9.474852085113525391e-01 1.444056749343872070e+00 7.174625992774963379e-01 6.730272173881530762e-01
3.423000000000000000e+03 3.985806655883789062e+01 -1.680954742431640625e+01 -3.815843592747114599e-05 -1.694114689598791301e-05 -1.652987339184619486e-05 -1.821775185817386955e-05
3.424000000000000000e+03 3.970043563842773438e+01 -1.596948242187500000e+01 2.779276474029757082e-05 1.969979894056450576e-05 1.424776928615756333e-05 2.004955240408889949e-05
3.425000000000000000e+03 7.395249938964843750e+01 -3.020003700256347656e+01 -3.841234743595123291e-01 3.133563995361328125e+00 8.248321413993835449e-01 7.331863641738891602e-01
3.426000000000000000e+03 7.289759063720703125e+01 -2.468154144287109375e+01 1.671523042023181915e-02 1.120725274085998535e+00 3.412321507930755615e-01 -1.716433651745319366e-02
3.427000000000000000e+03 1.534562301635742188e+01 -3.378874969482421875e+01 3.081317059695720673e-03 5.588018102571368217e-04 1.092035672627389431e-03 2.439881674945354462e-03
3.428000000000000000e+03 4.557825469970703125e+01 -2.523985099792480469e+01 -6.147798150777816772e-02 -5.394007563591003418e-01 -1.802636235952377319e-01 -7.893498539924621582e-01
3.429000000000000000e+03 7.403948211669921875e+01 -2.502214622497558594e+01 4.651143848896026611e-01 2.736172437667846680e+00 9.603860378265380859e-01 -1.156856894493103027e+00
3.430000000000000000e+03 7.413862609863281250e+01 -2.463640594482421875e+01 3.139432370662689209e-01 3.681050300598144531e+00 1.198498129844665527e+00 -1.392886996269226074e+00
3.431000000000000000e+03 7.362803649902343750e+01 -2.483239746093750000e+01 1.408881694078445435e-01 1.983890533447265625e+00 6.374335885047912598e-01 -5.648543834686279297e-01
3.432000000000000000e+03 7.353662872314453125e+01 -2.454149818420410156e+01 2.537226118147373199e-02 2.123615026473999023e+00 6.446961760520935059e-01 -6.575757861137390137e-01
3.433000000000000000e+03 5.288724136352539062e+01 -3.563332366943359375e+01 -1.827235817909240723e-01 1.877435326576232910e+00 5.084134936332702637e-01 6.012083888053894043e-01
3.434000000000000000e+03 5.306988716125488281e+00 -1.608868217468261719e+01 -2.725201484281569719e-04 -1.447930990252643824e-04 -1.251939684152603149e-04 2.953826697194017470e-05
3.435000000000000000e+03 5.115742111206054688e+01 -3.615673828125000000e+01 -1.867723315954208374e-01 1.460667490959167480e+00 3.821685612201690674e-01 6.017310619354248047e-01
3.436000000000000000e+03 5.888575363159179688e+01 -2.300597000122070312e+01 1.223511397838592529e-01 2.418279647827148438e+00 7.621892690658569336e-01 1.741107106208801270e+00
3.437000000000000000e+03 7.386878967285156250e+01 -3.154453659057617188e+01 -6.911116838455200195e-01 4.204046726226806641e+00 1.053880453109741211e+00 8.263202905654907227e-01
3.438000000000000000e+03 7.465274810791015625e+01 -3.014283752441406250e+01 -3.864608705043792725e-01 5.041285037994384766e+00 1.396447300910949707e+00 1.540946841239929199e+00
3.439000000000000000e+03 7.377331542968750000e+01 -2.463649177551269531e+01 1.751123815774917603e-01 2.758547306060791016e+00 8.800979256629943848e-01 -9.096055030822753906e-01
3.440000000000000000e+03 4.753008651733398438e+01 -3.578379440307617188e+01 1.931165605783462524e-01 3.274167180061340332e-01 1.561599820852279663e-01 4.857168793678283691e-01
3.441000000000000000e+03 7.317183685302734375e+01 3.335321426391601562e+01 -3.373212218284606934e-01 5.812304496765136719e+00 1.642495036125183105e+00 3.099348247051239014e-01
3.442000000000000000e+03 1.699534606933593750e+01 -9.601250648498535156e+00 -8.013543265406042337e-05 -6.362396379699930549e-05 -4.312782039050944149e-05 -7.194015779532492161e-05
3.443000000000000000e+03 6.644275665283203125e+01 -1.546042633056640625e+01 1.168810486793518066e+00 1.125183224678039551e+00 6.881980895996093750e-01 1.028854370117187500e+00
3.444000000000000000e+03 9.904233932495117188e+00 -1.220299720764160156e+01 1.002252247417345643e-05 -6.095055869081988931e-05 -1.527841050119604915e-05 -1.851615379564464092e-04
3.445000000000000000e+03 1.792945671081542969e+01 -9.570906639099121094e+00 -7.483730587409809232e-05 -2.034988392551895231e-05 -2.855615821317769587e-05 -3.635109897004440427e-05
3.446000000000000000e+03 5.454604625701904297e+00 -5.803742885589599609e+00 -2.289835683768615127e-04 -1.120011074817739427e-05 -7.205510337371379137e-05 -8.398789941566064954e-05
3.447000000000000000e+03 7.543154144287109375e+01 -3.100105285644531250e+01 -9.701200723648071289e-01 7.643094539642333984e+00 2.001892328262329102e+00 1.479929685592651367e+00
3.448000000000000000e+03 7.365177154541015625e+01 -2.413146018981933594e+01 -2.803720533847808838e-01 2.884781599044799805e+00 7.813228964805603027e-01 -8.156706094741821289e-01
3.449000000000000000e+03 4.655139541625976562e+01 -1.243510437011718750e+01 -9.139332541963085532e-05 -3.383248622412793338e-05 -3.756774458452127874e-05 2.739878800639417022e-05
3.450000000000000000e+03 5.159190368652343750e+01 -3.838412094116210938e+01 -3.072666227817535400e-01 1.409439325332641602e+00 3.306518197059631348e-01 3.277034759521484375e-01
3.451000000000000000e+03 7.437605285644531250e+01 3.362107467651367188e+01 -2.837046980857849121e-01 6.071801662445068359e+00 1.736429095268249512e+00 4.353137016296386719e-01
3.452000000000000000e+03 6.775304412841796875e+01 -1.598095703125000000e+01 9.782329201698303223e-01 1.020004749298095703e+00 5.994713306427001953e-01 5.056251883506774902e-01
3.453000000000000000e+03 1.466969490051269531e+01 -6.663255214691162109e+00 -4.624481880455277860e-05 -7.007289241300895810e-05 -3.489531445666216314e-05 5.440386303234845400e-05
3.454000000000000000e+03 4.468051910400390625e+01 3.229235076904296875e+01 2.664549741894006729e-03 -1.683545298874378204e-03 2.943013678304851055e-04 6.152032437967136502e-05
3.455000000000000000e+03 4.555560684204101562e+01 -1.165068435668945312e+01 -1.595245848875492811e-04 -1.227234861289616674e-05 -5.153908205102197826e-05 -6.797167588956654072e-05
3.456000000000000000e+03 3.702544450759887695e+00 8.013912200927734375e+00 1.282089069718495011e-04 4.310435542720369995e-05 5.139398126630112529e-05 1.184856591862626374e-05
3.457000000000000000e+03 4.572622680664062500e+01 -1.519227218627929688e+01 7.939138595247641206e-05 4.125689883949235082e-06 2.505512202333193272e-05 3.447247945587150753e-05
3.458000000000000000e+03 5.706695079803466797e+00 3.016538238525390625e+01 2.448404666210990399e-05 3.634240420069545507e-04 1.163724300567992032e-04 -2.313893928658217192e-04
3.459000000000000000e+03 9.178861618041992188e+00 7.002128124237060547e+00 -6.756368384230881929e-05 2.466447404003702104e-05 -1.286976294068153948e-05 -4.937737321597523987e-05
3.460000000000000000e+03 1.425157356262207031e+01 -7.148675441741943359e+00 6.289828888839110732e-05 7.464467489626258612e-05 4.126289059058763087e-05 -7.245937013067305088e-05
3.461000000000000000e+03 4.276169204711914062e+01 3.063976097106933594e+01 3.062601899728178978e-03 -1.405054586939513683e-03 4.972642054781317711e-04 1.302791788475587964e-04
3.462000000000000000e+03 4.869606018066406250e+01 -2.797742080688476562e+01 6.522275209426879883e-01 2.742973715066909790e-02 2.038971781730651855e-01 -3.171285688877105713e-01
3.463000000000000000e+03 7.386895751953125000e+01 2.921787071228027344e+01 1.147641837596893311e-01 6.391668796539306641e+00 1.951929807662963867e+00 4.959133863449096680e-01
3.464000000000000000e+03 7.347291564941406250e+01 -7.591155052185058594e+00 1.589334458112716675e-01 5.833240985870361328e+00 1.797652363777160645e+00 -4.895537793636322021e-01
3.465000000000000000e+03 7.407965850830078125e+01 -1.127205467224121094e+01 3.920793831348419189e-01 5.476173400878906250e+00 1.760475873947143555e+00 -8.293424248695373535e-01
3.466000000000000000e+03 7.449027252197265625e+01 -3.178418540954589844e+01 -6.979234814643859863e-01 5.524340629577636719e+00 1.447925209999084473e+00 1.160472154617309570e+00
3.467000000000000000e+03 4.421570587158203125e+01 -1.259145641326904297e+01 -1.497287448728457093e-04 4.242033173795789480e-05 -3.219252175767906010e-05 -1.195632830786053091e-05
3.468000000000000000e+03 5.850605964660644531e+00 7.448213577270507812e+00 3.868963176500983536e-05 3.528630259097553790e-05 2.219278030679561198e-05 -2.645320455485489219e-05
3.469000000000000000e+03 4.947240066528320312e+01 -2.645142364501953125e+01 5.383445620536804199e-01 2.054390497505664825e-02 1.676665395498275757e-01 -5.677953958511352539e-01
3.470000000000000000e+03 8.607872009277343750e+00 -7.788824081420898438e+00 -1.798490302462596446e-05 -1.219985279021784663e-04 -4.199503018753603101e-05 -3.400537025299854577e-05
3.471000000000000000e+03 6.338764667510986328e+00 4.793012142181396484e+00 -8.840470400173217058e-05 4.627875750884413719e-05 -1.263778449356323108e-05 -6.794440560042858124e-05
3.472000000000000000e+03 7.640926837921142578e+00 7.541803836822509766e+00 -1.294320099987089634e-04 4.716890180134214461e-05 -2.467893500579521060e-05 -1.142839828389696777e-04
3.473000000000000000e+03 8.424882888793945312e+00 7.340280532836914062e+00 1.908556587295606732e-04 2.415939525235444307e-05 6.450451473938301206e-05 -5.539990524994209409e-05
3.474000000000000000e+03 3.368994522094726562e+01 -8.358692169189453125e+00 -7.768953946651890874e-05 -5.156533370609395206e-05 -3.877646304317750037e-05 1.791450267774052918e-05
3.475000000000000000e+03 8.615020751953125000e+00 -7.026088714599609375e+00 5.377996421884745359e-05 8.580066787544637918e-05 4.187418744550086558e-05 4.806399374501779675e-05
3.476000000000000000e+03 6.967894554138183594e+00 6.846326351165771484e+00 -1.220240010297857225e-04 8.240455645136535168e-05 -1.188583246403140947e-05 -1.284807367483153939e-04
3.477000000000000000e+03 3.178924560546875000e+01 -6.581663131713867188e+00 -8.742291538510471582e-05 -8.051250006246846169e-06 -2.864224916265811771e-05 7.707433542236685753e-05
3.478000000000000000e+03 2.893082046508789062e+01 -4.304326057434082031e+00 -1.396650077367667109e-05 2.059999678749591112e-05 1.990048758671036921e-06 4.454163354239426553e-05
3.479000000000000000e+03 7.128833770751953125e+00 8.680526733398437500e+00 1.809042805689387023e-05 8.691170660313218832e-05 3.150064003420993686e-05 -2.439979471091646701e-05
3.480000000000000000e+03 7.789494037628173828e+00 8.264381408691406250e+00 2.240009489469230175e-04 -9.058575415110681206e-06 6.448271597037091851e-05 -4.924346285406500101e-05
3.481000000000000000e+03 3.395988845825195312e+01 -7.593223094940185547e+00 5.091159619041718543e-05 1.259304408449679613e-04 5.305260856403037906e-05 -1.232059003086760640e-05
3.482000000000000000e+03 2.599877166748046875e+01 1.922038650512695312e+01 1.008275081403553486e-03 -6.537950830534100533e-04 1.063440067810006440e-04 -8.342593209818005562e-04
3.483000000000000000e+03 4.147589874267578125e+01 -3.162126064300537109e+00 -6.965265492908656597e-05 -2.157566486857831478e-04 -8.562279253965243697e-05 -8.378443453693762422e-06
3.484000000000000000e+03 1.754982566833496094e+01 1.897117614746093750e+01 -3.736912331078201532e-04 2.502027564332820475e-05 -1.046012839651666582e-04 -3.168318653479218483e-04
3.485000000000000000e+03 2.996073341369628906e+01 -4.428369522094726562e+00 -8.067820090218447149e-06 3.312088665552437305e-05 7.515920060541247949e-06 4.102950697415508330e-05
3.486000000000000000e+03 3.173772048950195312e+01 8.503897666931152344e+00 -2.596839331090450287e-04 -8.770149725023657084e-05 -1.042156218318268657e-04 -3.269611625000834465e-05
3.487000000000000000e+03 3.091094398498535156e+01 -4.557246208190917969e+00 -7.738118256384041160e-06 6.327083974611014128e-05 1.665981471887789667e-05 3.197099431417882442e-05
3.488000000000000000e+03 3.966923522949218750e+01 -1.654268860816955566e+00 -2.224494346592109650e-05 5.101412170915864408e-05 8.630753654870204628e-06 8.730972331250086427e-05
3.489000000000000000e+03 1.578206348419189453e+01 8.428833007812500000e+00 2.100990968756377697e-05 9.641449651098810136e-06 9.195407983497716486e-06 -2.039724495261907578e-04
3.490000000000000000e+03 3.268795776367187500e+01 5.026816844940185547e+00 -3.795876691583544016e-04 1.783295556379016489e-05 -1.085264157154597342e-04 2.409833541605621576e-05
3.491000000000000000e+03 1.047374725341796875e+01 1.453100204467773438e+01 2.487749734427779913e-04 1.040655915858224034e-04 1.058521738741546869e-04 -1.222522114403545856e-04
3.492000000000000000e+03 3.353393554687500000e+01 1.231578469276428223e+00 6.033091340214014053e-04 -1.144328271038830280e-04 1.466628891648724675e-04 -1.132894394686445594e-04
3.493000000000000000e+03 1.848402023315429688e+01 1.059800434112548828e+01 -1.563996629556640983e-04 -5.913628774578683078e-05 -6.466078775702044368e-05 -1.652694336371496320e-04
3.494000000000000000e+03 3.742044830322265625e+01 -1.070100069046020508e+00 2.801144146360456944e-04 -1.785396307241171598e-04 3.047243808396160603e-05 1.312374952249228954e-04
3.495000000000000000e+03 1.881688308715820312e+01 8.209371566772460938e+00 4.100004443898797035e-04 -5.601959492196328938e-05 1.061942602973431349e-04 -9.718182991491630673e-05
3.496000000000000000e+03 3.059403991699218750e+01 4.008978843688964844e+00 3.014573594555258751e-04 9.392781066708266735e-05 1.186155495815910399e-04 2.193705877289175987e-04
3.497000000000000000e+03 2.744157409667968750e+01 1.177371978759765625e+01 5.397753739089239389e-06 -1.727074122754856944e-04 -5.019289892516098917e-05 -2.188881480833515525e-04
3.498000000000000000e+03 3.406542205810546875e+01 -1.222767472267150879e+00 -4.373844712972640991e-04 1.355295535176992416e-04 -9.055647387867793441e-05 2.056260564131662250e-05
3.499000000000000000e+03 1.987387657165527344e+01 7.782330989837646484e+00 1.199885082314722240e-05 -1.505080726929008961e-04 -4.155276474193669856e-05 2.503386531316209584e-05
3.500000000000000000e+03 3.044616508483886719e+01 1.840628504753112793e+00 3.130207187496125698e-04 -1.610896579222753644e-04 4.557931606541387737e-05 -1.834229187807068229e-04
3.501000000000000000e+03 2.806099510192871094e+01 4.427040576934814453e+00 -5.730304110329598188e-05 9.760285320226103067e-05 1.208994399348739535e-05 4.753654138767160475e-05
3.502000000000000000e+03 7.152828979492187500e+01 -2.632917594909667969e+01 1.593475043773651123e-02 -3.719738721847534180e-01 -1.068117395043373108e-01 1.658098101615905762e-01
3.503000000000000000e+03 7.266712188720703125e+01 -2.671175575256347656e+01 -4.068318605422973633e-01 -4.517472162842750549e-02 -1.356019675731658936e-01 4.804523587226867676e-01
3.504000000000000000e+03 7.193361663818359375e+01 -2.696650695800781250e+01 -2.362301349639892578e-01 -3.400056436657905579e-02 -8.106920868158340454e-02 1.776312887668609619e-01
3.505000000000000000e+03 7.304557800292968750e+01 -2.678356742858886719e+01 -7.899132966995239258e-01 3.256280347704887390e-02 -2.272051423788070679e-01 4.449762403964996338e-01
3.506000000000000000e+03 7.309507751464843750e+01 -2.658056449890136719e+01 -3.783535659313201904e-01 4.706361889839172363e-02 -9.938698261976242065e-02 5.115153789520263672e-01
3.507000000000000000e+03 7.305190277099609375e+01 -2.618781089782714844e+01 1.000340934842824936e-02 2.278134971857070923e-01 7.134507596492767334e-02 3.936194181442260742e-01
3.508000000000000000e+03 7.301808929443359375e+01 -2.595746421813964844e+01 1.227407604455947876e-01 2.017780244350433350e-01 9.735563397407531738e-02 3.731505572795867920e-01
3.509000000000000000e+03 7.230738067626953125e+01 -2.651518440246582031e+01 -1.707556843757629395e-01 -2.586122155189514160e-01 -1.288103759288787842e-01 5.726951360702514648e-01
3.510000000000000000e+03 7.206375885009765625e+01 -2.608504295349121094e+01 -2.106223553419113159e-01 -5.291096568107604980e-01 -2.219196110963821411e-01 6.979796290397644043e-01
3.511000000000000000e+03 7.254274749755859375e+01 -2.598878097534179688e+01 -7.720191031694412231e-02 1.148876249790191650e-01 1.130571402609348297e-02 5.238230228424072266e-01
3.512000000000000000e+03 7.266857910156250000e+01 -2.628698348999023438e+01 -3.019879758358001709e-01 -3.656510636210441589e-02 -1.015659272670745850e-01 6.474258303642272949e-01
3.513000000000000000e+03 7.284995269775390625e+01 -2.649304771423339844e+01 -3.008429408073425293e-01 -1.673065684735774994e-02 -9.527207911014556885e-02 5.924893617630004883e-01
3.514000000000000000e+03 7.309685516357421875e+01 -2.639172172546386719e+01 -2.666839361190795898e-01 1.191489994525909424e-01 -4.426047950983047485e-02 5.304055213928222656e-01
3.515000000000000000e+03 7.254335784912109375e+01 -2.701231384277343750e+01 -7.862163186073303223e-01 -6.587862223386764526e-02 -2.556284964084625244e-01 2.565448582172393799e-01
3.516000000000000000e+03 7.301123809814453125e+01 -2.699316596984863281e+01 -1.047622084617614746e+00 1.234883740544319153e-01 -2.772401273250579834e-01 4.423517882823944092e-01
3.517000000000000000e+03 7.286332702636718750e+01 -2.720127487182617188e+01 -1.148709058761596680e+00 5.079408735036849976e-02 -3.293744921684265137e-01 2.071873247623443604e-01
3.518000000000000000e+03 4.454376983642578125e+01 -2.153533744812011719e+01 -5.284360051155090332e-01 -1.019145175814628601e-01 -1.891051530838012695e-01 -2.838528156280517578e-01
3.519000000000000000e+03 4.525796890258789062e+01 -2.133341026306152344e+01 -7.722572088241577148e-01 -1.480041593313217163e-01 -2.760784029960632324e-01 -3.434775173664093018e-01
3.520000000000000000e+03 4.405188369750976562e+01 -2.244241142272949219e+01 -2.841715514659881592e-01 -2.253836095333099365e-01 -1.528665572404861450e-01 -4.026677608489990234e-01
3.521000000000000000e+03 4.615114593505859375e+01 -2.184869003295898438e+01 -8.221021294593811035e-01 -2.259399890899658203e-01 -3.144126534461975098e-01 -5.775221586227416992e-01
3.522000000000000000e+03 4.545270156860351562e+01 -2.204736137390136719e+01 -6.062009334564208984e-01 -2.138900756835937500e-01 -2.460273057222366333e-01 -5.321102142333984375e-01
3.523000000000000000e+03 4.475288772583007812e+01 -2.224522018432617188e+01 -4.260466992855072021e-01 -2.592074871063232422e-01 -2.055762559175491333e-01 -4.801474511623382568e-01
3.524000000000000000e+03 4.597079086303710938e+01 -2.113067054748535156e+01 -9.952964782714843750e-01 -9.893561899662017822e-02 -3.282696306705474854e-01 -3.937076330184936523e-01
3.525000000000000000e+03 4.382838821411132812e+01 -2.173659515380859375e+01 -2.910116314888000488e-01 -1.114114299416542053e-01 -1.207269132137298584e-01 -2.059055417776107788e-01
3.526000000000000000e+03 4.742242813110351562e+01 -2.080677986145019531e+01 -1.587525486946105957e+00 -1.011355370283126831e-01 -5.065982937812805176e-01 -4.756985902786254883e-01
3.527000000000000000e+03 4.815383148193359375e+01 -2.066137695312500000e+01 -1.890735268592834473e+00 -1.537406593561172485e-01 -6.133427619934082031e-01 -5.219861865043640137e-01
3.528000000000000000e+03 4.686201095581054688e+01 -2.167665290832519531e+01 -1.025139451026916504e+00 -1.833585649728775024e-01 -3.625493943691253662e-01 -6.381530165672302246e-01
3.529000000000000000e+03 4.830693054199218750e+01 -2.138541984558105469e+01 -1.454280972480773926e+00 -1.836315989494323730e-01 -4.913737773895263672e-01 -7.060090899467468262e-01
3.530000000000000000e+03 4.888698577880859375e+01 -2.051945686340332031e+01 -2.170181035995483398e+00 -1.119204461574554443e-01 -6.846304535865783691e-01 -5.768446922302246094e-01
3.531000000000000000e+03 4.903206253051757812e+01 -2.124509811401367188e+01 -1.675501465797424316e+00 -2.175659388303756714e-01 -5.679202079772949219e-01 -7.261412143707275391e-01
3.532000000000000000e+03 4.758355331420898438e+01 -2.152922821044921875e+01 -1.233440518379211426e+00 -2.282316088676452637e-01 -4.385016560554504395e-01 -6.731985211372375488e-01
3.533000000000000000e+03 4.669285964965820312e+01 -2.095580101013183594e+01 -1.269623756408691406e+00 -1.276204437017440796e-01 -4.191732704639434814e-01 -4.190509319305419922e-01
3.534000000000000000e+03 5.036022949218750000e+01 -2.024225044250488281e+01 -2.717507362365722656e+00 -1.185565069317817688e-01 -8.508191704750061035e-01 -6.544665098190307617e-01
3.535000000000000000e+03 5.123764038085937500e+01 -2.082924842834472656e+01 -2.230265855789184570e+00 -1.270420551300048828e-01 -7.071923613548278809e-01 -7.326247692108154297e-01
3.536000000000000000e+03 4.976291656494140625e+01 -2.110580253601074219e+01 -1.877453565597534180e+00 -1.613377630710601807e-01 -6.116374135017395020e-01 -7.476230859756469727e-01
3.537000000000000000e+03 5.197274780273437500e+01 -2.068717575073242188e+01 -2.367149591445922852e+00 -1.515262275934219360e-01 -7.556027770042419434e-01 -6.895878314971923828e-01
3.538000000000000000e+03 5.050101470947265625e+01 -2.096874237060546875e+01 -2.063304424285888672e+00 -1.985333263874053955e-01 -6.785513162612915039e-01 -7.425286173820495605e-01
3.539000000000000000e+03 5.183234024047851562e+01 -1.996061325073242188e+01 -3.166727542877197266e+00 -1.173634529113769531e-01 -9.852273464202880859e-01 -7.098138928413391113e-01
3.540000000000000000e+03 4.962194442749023438e+01 -2.037934684753417969e+01 -2.450312614440917969e+00 -1.604581624269485474e-01 -7.832312583923339844e-01 -6.085289120674133301e-01
3.541000000000000000e+03 5.109704208374023438e+01 -2.010272216796875000e+01 -2.958797216415405273e+00 -1.700952053070068359e-01 -9.386677145957946777e-01 -6.776834726333618164e-01
3.542000000000000000e+03 5.405023574829101562e+01 -1.952743339538574219e+01 -3.404256582260131836e+00 -1.324081271886825562e-01 -1.060999393463134766e+00 -6.556840538978576660e-01
3.543000000000000000e+03 5.331044006347656250e+01 -1.967299842834472656e+01 -3.390840768814086914e+00 -9.871502220630645752e-02 -1.046866774559020996e+00 -7.047855257987976074e-01
3.544000000000000000e+03 5.271442794799804688e+01 -2.054370307922363281e+01 -2.465713500976562500e+00 -5.464455485343933105e-02 -7.561074495315551758e-01 -6.396912932395935059e-01
3.545000000000000000e+03 5.495590972900390625e+01 -2.010264968872070312e+01 -2.378486394882202148e+00 6.626208126544952393e-02 -6.936672329902648926e-01 -2.421623468399047852e-01
3.546000000000000000e+03 5.478977203369140625e+01 -1.938115119934082031e+01 -3.345519304275512695e+00 -9.563399106264114380e-02 -1.032346010208129883e+00 -6.339262723922729492e-01
3.547000000000000000e+03 5.420899581909179688e+01 -2.025038337707519531e+01 -2.506822824478149414e+00 5.137962847948074341e-02 -7.366330027580261230e-01 -4.386454224586486816e-01
3.548000000000000000e+03 5.257042312622070312e+01 -1.981785011291503906e+01 -3.317519664764404297e+00 -1.667028069496154785e-01 -1.045266747474670410e+00 -7.069272994995117188e-01
3.549000000000000000e+03 5.346182250976562500e+01 -2.039739990234375000e+01 -2.522320985794067383e+00 -4.756535962224006653e-02 -7.709659337997436523e-01 -5.368310809135437012e-01
3.550000000000000000e+03 5.553008651733398438e+01 -1.920907402038574219e+01 -3.038200616836547852e+00 -1.256647706031799316e-01 -9.491596221923828125e-01 -5.623608827590942383e-01
3.551000000000000000e+03 5.725695419311523438e+01 -1.950564956665039062e+01 -1.567545413970947266e+00 6.842145919799804688e-01 -2.649992704391479492e-01 5.091217160224914551e-01
3.552000000000000000e+03 5.571527862548828125e+01 -1.992561912536621094e+01 -2.209041833877563477e+00 2.611961662769317627e-01 -5.843536853790283203e-01 -1.456031668931245804e-02
3.553000000000000000e+03 5.802567672729492188e+01 -1.928994750976562500e+01 -1.159270882606506348e+00 9.772140383720397949e-01 -5.461703985929489136e-02 9.019131064414978027e-01
3.554000000000000000e+03 5.701029205322265625e+01 -1.880601882934570312e+01 -1.945896863937377930e+00 6.538310647010803223e-02 -5.641541481018066406e-01 -1.721167564392089844e-01
3.555000000000000000e+03 5.627075195312500000e+01 -1.900946998596191406e+01 -2.514353036880493164e+00 3.065650910139083862e-02 -7.451089620590209961e-01 -4.267287254333496094e-01
3.556000000000000000e+03 5.774827575683593750e+01 -1.859877204895019531e+01 -1.197130084037780762e+00 3.297246396541595459e-01 -2.602216601371765137e-01 1.391963660717010498e-01
3.557000000000000000e+03 5.648667907714843750e+01 -1.971755790710449219e+01 -1.964477777481079102e+00 3.909665644168853760e-01 -4.720533490180969238e-01 2.227154076099395752e-01
3.558000000000000000e+03 5.914070129394531250e+01 -1.790256118774414062e+01 7.411633729934692383e-01 1.013661503791809082e+00 5.264474749565124512e-01 9.889594912528991699e-01
3.559000000000000000e+03 5.952583312988281250e+01 -1.853448677062988281e+01 -1.007700264453887939e-01 1.658802270889282227e+00 4.674096703529357910e-01 1.410485148429870605e+00
3.560000000000000000e+03 6.026574707031250000e+01 -1.809379196166992188e+01 4.810159802436828613e-01 2.400571107864379883e+00 8.644760847091674805e-01 1.744852662086486816e+00
3.561000000000000000e+03 5.878223419189453125e+01 -1.896722793579101562e+01 -7.108658552169799805e-01 1.454541206359863281e+00 2.231026142835617065e-01 1.154948949813842773e+00
3.562000000000000000e+03 6.099867248535156250e+01 -1.764663124084472656e+01 6.947960257530212402e-01 2.765756368637084961e+00 1.038165688514709473e+00 1.487987041473388672e+00
3.563000000000000000e+03 6.048994827270507812e+01 -1.708762741088867188e+01 2.463943243026733398e+00 2.669983863830566406e+00 1.540178060531616211e+00 2.214646816253662109e+00
3.564000000000000000e+03 5.845867919921875000e+01 -1.829862213134765625e+01 -2.213668823242187500e-01 6.024487614631652832e-01 1.143245697021484375e-01 5.714117884635925293e-01
3.565000000000000000e+03 5.981904220581054688e+01 -1.749854469299316406e+01 1.536215901374816895e+00 1.293064713478088379e+00 8.487842082977294922e-01 1.569153308868408203e+00
3.566000000000000000e+03 6.389270019531250000e+01 -1.315513706207275391e+01 1.327863335609436035e+00 1.876641035079956055e+00 9.613512754440307617e-01 1.697902679443359375e+00
3.567000000000000000e+03 6.362155151367187500e+01 -1.258993911743164062e+01 1.342504501342773438e+00 1.783789634704589844e+00 9.378882050514221191e-01 1.631049394607543945e+00
3.568000000000000000e+03 6.364220046997070312e+01 -1.379344177246093750e+01 1.173005461692810059e+00 1.903925895690917969e+00 9.230793714523315430e-01 1.676775455474853516e+00
3.569000000000000000e+03 6.329390716552734375e+01 -1.445079326629638672e+01 1.315371155738830566e+00 1.907404541969299316e+00 9.668326973915100098e-01 1.859464526176452637e+00
3.570000000000000000e+03 6.296297836303710938e+01 -1.507676315307617188e+01 1.391768932342529297e+00 2.008308410644531250e+00 1.020023226737976074e+00 1.776228189468383789e+00
3.571000000000000000e+03 6.250194549560546875e+01 -1.563844871520996094e+01 1.373129010200500488e+00 2.282506704330444336e+00 1.096690773963928223e+00 1.908121466636657715e+00
3.572000000000000000e+03 6.201707839965820312e+01 -1.631484985351562500e+01 1.661378502845764160e+00 2.506528854370117188e+00 1.250372290611267090e+00 1.950269103050231934e+00
3.573000000000000000e+03 6.148456954956054688e+01 -1.575653648376464844e+01 1.335793256759643555e+00 3.287517786026000977e+00 1.386993288993835449e+00 2.149434566497802734e+00
3.574000000000000000e+03 6.157407379150390625e+01 -1.705956077575683594e+01 1.493026256561279297e+00 2.454473257064819336e+00 1.184249877929687500e+00 1.558711171150207520e+00
3.575000000000000000e+03 6.322280120849609375e+01 -1.338076305389404297e+01 1.237140297889709473e+00 1.780640959739685059e+00 9.053343534469604492e-01 1.618478536605834961e+00
3.576000000000000000e+03 6.233250427246093750e+01 -1.494980430603027344e+01 1.351447343826293945e+00 2.458591461181640625e+00 1.143011569976806641e+00 1.825392961502075195e+00
3.577000000000000000e+03 6.185053634643554688e+01 -1.498038387298583984e+01 1.286122202873229980e+00 3.066836357116699219e+00 1.305887579917907715e+00 1.912954449653625488e+00
3.578000000000000000e+03 6.265357208251953125e+01 -1.377886962890625000e+01 9.971531033515930176e-01 2.106384992599487305e+00 9.310614466667175293e-01 1.556792020797729492e+00
3.579000000000000000e+03 6.103660202026367188e+01 -1.651272010803222656e+01 2.144254446029663086e+00 3.668891668319702148e+00 1.743943810462951660e+00 2.430037736892700195e+00
3.580000000000000000e+03 6.219382095336914062e+01 -1.432803440093994141e+01 1.035770773887634277e+00 2.758052110671997070e+00 1.138146877288818359e+00 1.721813917160034180e+00
3.581000000000000000e+03 6.283056640625000000e+01 -1.454834175109863281e+01 1.379662275314331055e+00 2.086019277572631836e+00 1.039704442024230957e+00 1.862223386764526367e+00
3.582000000000000000e+03 6.100513076782226562e+01 -1.542561531066894531e+01 1.051179515343392268e-05 7.236018973344471306e-06 5.324343874235637486e-06 2.387528184044640511e-06
3.583000000000000000e+03 5.980083084106445312e+01 -1.543185615539550781e+01 -2.387053245911374688e-05 -4.894068115390837193e-05 -2.184336335631087422e-05 -1.617288944544270635e-05
3.584000000000000000e+03 6.019709777832031250e+01 -1.577101421356201172e+01 2.773507003439590335e-05 -6.388697215697902720e-07 8.128859917633235455e-06 4.140854798606596887e-06
3.585000000000000000e+03 6.056436157226562500e+01 -1.607985115051269531e+01 -6.080930234020343050e-06 -3.872626166412374005e-06 -2.986066874655080028e-06 3.018549932676251046e-06
3.586000000000000000e+03 6.142192840576171875e+01 -1.476541900634765625e+01 -1.730928852339275181e-05 -5.218136266194051132e-06 -6.758227755199186504e-06 -6.224499884410761297e-06
3.587000000000000000e+03 6.213092422485351562e+01 -1.359696483612060547e+01 -9.822814718063455075e-06 -9.595822803021292202e-07 -3.234719088140991516e-06 -2.188731286878464743e-06
3.588000000000000000e+03 6.144266128540039062e+01 -1.412735176086425781e+01 -2.556744448156678118e-06 -2.524269007153634448e-07 -8.427513762399030384e-07 -3.093225814154720865e-06
3.589000000000000000e+03 6.036208724975585938e+01 -1.491959762573242188e+01 1.681818730503437109e-06 -2.108634180331137031e-05 -5.821357262902893126e-06 3.071002311116899364e-06
3.590000000000000000e+03 6.065115356445312500e+01 -1.523142147064208984e+01 -2.789955215121153742e-05 -2.576198085080250166e-06 -9.142725502897519618e-06 6.790821316826622933e-06
3.591000000000000000e+03 6.182951354980468750e+01 -1.412581539154052734e+01 2.053918069577775896e-05 1.264265847567003220e-06 6.541034053952898830e-06 5.835707270307466388e-06
3.592000000000000000e+03 6.099356460571289062e+01 -1.469548988342285156e+01 1.496745517215458676e-05 2.551661054894793779e-05 1.214521944348234683e-05 2.569354649040178629e-07
3.593000000000000000e+03 5.861434173583984375e+01 -1.637038230895996094e+01 -2.469663559168111533e-05 5.135459559824084863e-06 -5.868353127880254760e-06 -1.684873268459341489e-06
3.594000000000000000e+03 5.907415390014648438e+01 -1.671718597412109375e+01 2.449549901939462870e-05 3.329333048895932734e-05 1.733664794301148504e-05 1.178359980258392170e-05
3.595000000000000000e+03 5.928987884521484375e+01 -1.589454174041748047e+01 3.178951010340824723e-05 3.132093843305483460e-05 1.893313310574740171e-05 -3.540339776009204797e-06
3.596000000000000000e+03 5.789558410644531250e+01 -1.685814666748046875e+01 5.083880296297138557e-06 -2.881780346797313541e-06 6.606300075873150490e-07 9.444212082598824054e-06
3.597000000000000000e+03 5.817584609985351562e+01 -1.755254173278808594e+01 -1.640241862332914025e-06 -2.344478707527741790e-05 -7.525508863182039931e-06 1.297900871577439830e-05
3.598000000000000000e+03 6.003462982177734375e+01 -1.659701728820800781e+01 7.862479833420366049e-06 5.271291456665494479e-07 2.516882659620023333e-06 -3.733518724402529188e-06
3.599000000000000000e+03 5.967214584350585938e+01 -1.625088500976562500e+01 -1.527025779068935663e-05 -1.674062514211982489e-05 -9.603265425539575517e-06 -7.376048415608238429e-06
3.600000000000000000e+03 5.885440826416015625e+01 -1.725676536560058594e+01 -1.195822369481902570e-05 3.961446782341226935e-05 8.296873602375853807e-06 -2.338167178095318377e-06
3.601000000000000000e+03 5.944448852539062500e+01 -1.698521423339843750e+01 -1.475682074669748545e-05 -2.941836100944783539e-05 -1.325255470874253660e-05 -1.388925556966569275e-05
3.602000000000000000e+03 5.587814712524414062e+01 -1.781697273254394531e+01 -7.142966933315619826e-05 -4.973850445821881294e-05 -3.635045140981674194e-05 6.235570708668092266e-06
3.603000000000000000e+03 5.585419845581054688e+01 -1.838780212402343750e+01 2.091857140840147622e-06 -7.337537681451067328e-05 -2.138505624316167086e-05 1.802864062483422458e-05
3.604000000000000000e+03 5.528112792968750000e+01 -1.847929763793945312e+01 3.989126525993924588e-06 3.352087514940649271e-05 1.125300059356959537e-05 -3.052408283110707998e-05
3.605000000000000000e+03 5.635134124755859375e+01 -1.824832153320312500e+01 -2.082496393995825201e-05 5.158970816410146654e-05 9.229423085344024003e-06 5.665211119776358828e-06
3.606000000000000000e+03 5.686418914794921875e+01 -1.803310203552246094e+01 -2.173809116357006133e-05 4.840480301027128007e-07 -6.376212695613503456e-06 -9.949775630957446992e-06
3.607000000000000000e+03 5.634397506713867188e+01 -1.740873908996582031e+01 7.312325033126398921e-05 4.275064929970540106e-05 3.476216807030141354e-05 -5.088369289296679199e-05
3.608000000000000000e+03 5.748024749755859375e+01 -1.785220718383789062e+01 1.146882186731090769e-05 2.685358140297466889e-06 4.246253865858307108e-06 -1.872728898888453841e-05
3.609000000000000000e+03 5.711166381835937500e+01 -1.718612289428710938e+01 2.022105582000222057e-05 -3.959543391829356551e-05 -5.812313247588463128e-06 1.544879705761559308e-05
3.610000000000000000e+03 5.518711853027343750e+01 -1.773766326904296875e+01 -3.369080877746455371e-05 2.628143738547805697e-05 -2.222811872343299910e-06 3.288991865701973438e-05
3.611000000000000000e+03 5.241899490356445312e+01 -1.905364608764648438e+01 2.159910309273982421e-06 2.558557071097311564e-06 1.415540168636653107e-06 6.833803126937709749e-06
3.612000000000000000e+03 5.315275955200195312e+01 -1.891308021545410156e+01 -2.368095977089978987e-07 8.368007911485619843e-06 2.439359604977653362e-06 -8.111630450002849102e-06
3.613000000000000000e+03 5.388480377197265625e+01 -1.876910972595214844e+01 7.613623893121257424e-06 -1.537771095172502100e-05 -2.329225935682188720e-06 5.946719284111168236e-06
3.614000000000000000e+03 5.372604370117187500e+01 -1.804615974426269531e+01 -3.085321804974228144e-05 -2.730971209530252963e-05 -1.744887958921026438e-05 2.313317963853478432e-06
3.615000000000000000e+03 5.461503982543945312e+01 -1.862159919738769531e+01 -2.107876389345619828e-05 6.447062332881614566e-06 -4.389510650071315467e-06 1.170546966022811830e-05
3.616000000000000000e+03 5.444890213012695312e+01 -1.790010070800781250e+01 3.496099088806658983e-05 7.936743713798932731e-06 1.286932001676177606e-05 -5.414533916336949915e-06
3.617000000000000000e+03 5.227499008178710938e+01 -1.832779121398925781e+01 6.106053547227929812e-07 -2.950511407107114792e-05 -8.668352165841497481e-06 -5.764124125562375411e-06
3.618000000000000000e+03 5.300137710571289062e+01 -1.818867683410644531e+01 1.205872467835433781e-05 3.082913463003933430e-05 1.286635779251810163e-05 1.088453609554562718e-05
3.619000000000000000e+03 5.021003341674804688e+01 -1.947287559509277344e+01 -2.942772198366583325e-06 -1.151998367276974022e-05 -4.338826784078264609e-06 1.660519501456292346e-06
3.620000000000000000e+03 5.094702148437500000e+01 -1.933323669433593750e+01 4.530247679213061929e-06 1.205506032420089468e-05 4.975592673872597516e-06 -1.003471993499260861e-06
3.621000000000000000e+03 4.947301483154296875e+01 -1.961274909973144531e+01 4.462666765903122723e-06 9.474933904130011797e-06 4.181280019111000001e-06 -2.105771045535220765e-06
3.622000000000000000e+03 5.168397521972656250e+01 -1.919383239746093750e+01 1.219610567204654217e-06 -1.000117299554403871e-05 -2.634468728501815349e-06 -1.665985564613947645e-06
3.623000000000000000e+03 5.154356384277343750e+01 -1.846726989746093750e+01 5.643846634484361857e-06 2.055315599136520177e-05 7.859101060603279620e-06 9.477464573137694970e-07
3.624000000000000000e+03 4.933204269409179688e+01 -1.888629341125488281e+01 -1.140637141361366957e-05 -1.300639451073948294e-05 -7.323829777305945754e-06 1.705420118014444597e-06
3.625000000000000000e+03 5.080642700195312500e+01 -1.860671043395996094e+01 -7.418945187964709476e-06 -1.696675099083222449e-05 -7.315708899113815278e-06 -5.184248266232316382e-07
3.626000000000000000e+03 5.006925201416015625e+01 -1.874638557434082031e+01 1.066091226675780490e-05 1.453880486224079505e-05 7.559915047750109807e-06 -2.344007043575402349e-06
3.627000000000000000e+03 4.725450897216796875e+01 -2.004898452758789062e+01 -5.488924671226413921e-06 5.911121547796938103e-07 -1.469343828830460552e-06 8.135733082781371195e-07
3.628000000000000000e+03 4.709337997436523438e+01 -1.932653617858886719e+01 1.239506127603817731e-05 1.548397676742752083e-06 4.183037617622176185e-06 -4.761899162986082956e-06
3.629000000000000000e+03 4.651494979858398438e+01 -2.019693183898925781e+01 3.319686356917372905e-06 -5.742509529227390885e-06 -7.268470199051080272e-07 -6.599906328119686805e-07
3.630000000000000000e+03 4.799435043334960938e+01 -1.990183448791503906e+01 3.581261125873425044e-06 3.519388201311812736e-06 2.130194843630306423e-06 -1.903107317957619671e-06
3.631000000000000000e+03 4.873443222045898438e+01 -1.975547790527343750e+01 -4.426599389262264594e-06 -7.021383680694270879e-06 -3.434395011936430819e-06 1.425541427124699112e-06
3.632000000000000000e+03 4.858935928344726562e+01 -1.902983856201171875e+01 1.134276317316107452e-05 9.696260349301155657e-06 6.311706783890258521e-06 -3.765950395973050036e-06
3.633000000000000000e+03 4.634579849243164062e+01 -1.947607994079589844e+01 -1.547625834064092487e-05 2.399192226221202873e-06 -3.923119493265403435e-06 3.006749921041773632e-06
3.634000000000000000e+03 4.784125137329101562e+01 -1.917778968811035156e+01 -1.269454423891147599e-05 -6.171247150632552803e-06 -5.659737325913738459e-06 3.240547812310978770e-06
3.635000000000000000e+03 4.432126998901367188e+01 -2.078344535827636719e+01 -4.686672582465689629e-06 1.584735400683712214e-05 3.348204245412489399e-06 -4.724911377707030624e-06
3.636000000000000000e+03 4.505051040649414062e+01 -2.057725715637207031e+01 2.577574832685058936e-06 -1.322540083492640406e-05 -3.194347982571343891e-06 2.915724280683207326e-06
3.637000000000000000e+03 4.359247589111328125e+01 -2.099166297912597656e+01 1.883031018223846331e-06 -1.903911106637679040e-05 -5.146824150870088488e-06 5.200130544835701585e-06
3.638000000000000000e+03 4.411215209960937500e+01 -2.007356262207031250e+01 1.240665915247518569e-05 -9.747298463480547071e-06 7.978082408044429030e-07 2.701270659599686041e-06
3.639000000000000000e+03 4.578023910522460938e+01 -2.037289810180664062e+01 -6.100650352891534567e-06 9.912634595821145922e-06 1.143595113717310596e-06 -2.052544004982337356e-06
3.640000000000000000e+03 4.559988403320312500e+01 -1.965488052368164062e+01 1.426716426067287102e-05 -5.556524683925090358e-06 2.613192009448539466e-06 -1.087982013814325910e-06
3.641000000000000000e+03 4.336897659301757812e+01 -2.028584671020507812e+01 -1.419272120983805507e-05 9.808815775613766164e-06 -1.315171743954124395e-06 -4.004985385108739138e-06
3.642000000000000000e+03 4.485577392578125000e+01 -1.986330604553222656e+01 -1.617500129214022309e-05 8.030095159483607858e-06 -2.443471430524368770e-06 -1.575716055413067807e-06
3.643000000000000000e+03 4.105918121337890625e+01 -2.103385925292968750e+01 8.822580639389343560e-06 -7.810708666511345655e-06 3.035615918633993715e-07 -9.310848327004350722e-06
3.644000000000000000e+03 4.198300170898437500e+01 -2.076494598388671875e+01 -1.246226020157337189e-05 8.448851986031513661e-06 -1.204022282763617113e-06 -1.358004919893573970e-05
3.645000000000000000e+03 4.264957046508789062e+01 -2.053101348876953125e+01 1.083954794012242928e-05 -7.191401891759596765e-06 1.094443746296747122e-06 7.674543667235411704e-06
3.646000000000000000e+03 4.200543975830078125e+01 -2.154659652709960938e+01 1.847098133112012874e-06 -1.440434789401479065e-05 -3.767174803215311840e-06 3.524547082633944228e-06
3.647000000000000000e+03 4.281084060668945312e+01 -2.126075172424316406e+01 -3.417027073737699538e-06 1.684404378465842456e-05 4.028105195175157860e-06 -5.506532488652737811e-06
3.648000000000000000e+03 4.143973159790039062e+01 -2.146877861022949219e+01 -1.586380312801338732e-05 8.805690413282718509e-06 -2.117433496096055023e-06 4.342835836723679677e-06
3.649000000000000000e+03 4.140149307250976562e+01 -2.091440773010253906e+01 2.064449654426425695e-05 -7.734533937764354050e-06 3.872988600051030517e-06 1.829889151849783957e-05
3.650000000000000000e+03 4.100804138183593750e+01 -2.131018257141113281e+01 4.344248736742883921e-06 1.338798210781533271e-05 5.319669071468524635e-06 -3.594556119423941709e-06
3.651000000000000000e+03 4.183971786499023438e+01 -2.302727508544921875e+01 -8.188760839402675629e-03 -5.862235650420188904e-02 -2.004333585500717163e-02 1.300818403251469135e-03
3.652000000000000000e+03 4.219042205810546875e+01 -2.229762840270996094e+01 -6.955429445952177048e-03 -3.602232411503791809e-02 -1.289332658052444458e-02 -3.808080032467842102e-02
3.653000000000000000e+03 4.326124572753906250e+01 -2.270085716247558594e+01 -1.252881735563278198e-01 -2.727054357528686523e-01 -1.193980872631072998e-01 -2.841024696826934814e-01
3.654000000000000000e+03 4.302730941772460938e+01 -2.199828910827636719e+01 -1.135258004069328308e-01 -8.158722519874572754e-02 -5.853390693664550781e-02 -1.058848127722740173e-01
3.655000000000000000e+03 4.243085479736328125e+01 -2.299776458740234375e+01 -3.445299714803695679e-02 -1.997464299201965332e-01 -7.025982439517974854e-02 -1.061656326055526733e-01
3.656000000000000000e+03 1.605741500854492188e+01 -3.611289262771606445e+00 -3.673786341096274555e-05 -6.660949293291196227e-05 -3.100420872215181589e-05 -4.431790148373693228e-05
3.657000000000000000e+03 1.562254238128662109e+01 -4.210125446319580078e+00 3.727415605681017041e-05 6.381925049936398864e-05 3.032802123925648630e-05 3.468682552920654416e-05
3.658000000000000000e+03 1.505074691772460938e+01 -3.785051584243774414e+00 -3.902553726220503449e-05 -7.310409273486584425e-05 -3.363888754392974079e-05 -3.664247560664080083e-05
3.659000000000000000e+03 1.676181221008300781e+01 -5.065579891204833984e+00 4.169951353105716407e-05 4.886714305030182004e-05 2.716999733820557594e-05 3.022976488864514977e-05
3.660000000000000000e+03 1.619318008422851562e+01 -4.636556148529052734e+00 -3.879868381773121655e-05 -5.578004129347391427e-05 -2.837361898855306208e-05 -3.180737985530868173e-05
3.661000000000000000e+03 1.723610115051269531e+01 -4.496263980865478516e+00 -3.823506631306372583e-05 -5.184640031075105071e-05 -2.702443998714443296e-05 -3.908941653207875788e-05
3.662000000000000000e+03 1.546591091156005859e+01 -3.171455383300781250e+00 3.612948785303160548e-05 7.538691716035827994e-05 3.345492223161272705e-05 4.657113095163367689e-05
3.663000000000000000e+03 1.664776039123535156e+01 -4.052479743957519531e+00 3.650979488156735897e-05 5.889217936783097684e-05 2.862059227481950074e-05 4.191871994407847524e-05
3.664000000000000000e+03 1.831977081298828125e+01 -5.492505550384521484e+00 -3.956210639444179833e-05 -4.064841778017580509e-05 -2.406315797998104244e-05 -3.550086694303900003e-05
3.665000000000000000e+03 1.780974006652832031e+01 -6.028855800628662109e+00 4.273120430298149586e-05 3.713205296662636101e-05 2.395897718088235706e-05 2.870663774956483394e-05
3.666000000000000000e+03 1.730055999755859375e+01 -5.529824733734130859e+00 -4.235894448356702924e-05 -4.300585715100169182e-05 -2.560944085416849703e-05 -2.896858859458006918e-05
3.667000000000000000e+03 1.831691551208496094e+01 -6.530111789703369141e+00 -4.484961755224503577e-05 -3.388844925211742520e-05 -2.362142004130873829e-05 -2.781339753710199147e-05
3.668000000000000000e+03 1.882190132141113281e+01 -7.033396244049072266e+00 4.768157668877393007e-05 3.171684511471539736e-05 2.381952617724891752e-05 2.748559745668899268e-05
3.669000000000000000e+03 1.936644935607910156e+01 -6.531159877777099609e+00 -4.048560003866441548e-05 -3.270412707934156060e-05 -2.195691740780603141e-05 -3.158588515361770988e-05
3.670000000000000000e+03 1.779333305358886719e+01 -4.976417064666748047e+00 3.822872895398177207e-05 4.539313886198215187e-05 2.508655961719341576e-05 3.773169009946286678e-05
3.671000000000000000e+03 1.884420585632324219e+01 -6.010818481445312500e+00 3.902193202520720661e-05 3.590479900594800711e-05 2.247801967314444482e-05 3.441713852225802839e-05
3.672000000000000000e+03 2.031454658508300781e+01 -7.659852027893066406e+00 -3.618827031459659338e-05 -2.598606442916207016e-05 -1.865230115072336048e-05 -2.780373688437975943e-05
3.673000000000000000e+03 2.077073287963867188e+01 -8.240385055541992188e+00 3.341318733873777092e-05 2.239657260361127555e-05 1.674292798270471394e-05 2.354035314056091011e-05
3.674000000000000000e+03 1.929654693603515625e+01 -7.565644741058349609e+00 -4.449674452189356089e-05 -2.965519888675771654e-05 -2.224558375019114465e-05 -2.752084401436150074e-05
3.675000000000000000e+03 2.062350273132324219e+01 -9.254287719726562500e+00 4.191507832729257643e-05 2.745269375736825168e-05 2.081033198919612914e-05 1.611080733709968626e-05
3.676000000000000000e+03 2.018299865722656250e+01 -8.690117835998535156e+00 -3.830767309409566224e-05 -2.984037200803868473e-05 -2.044441316684242338e-05 -2.489709731889888644e-05
3.677000000000000000e+03 1.974063491821289062e+01 -8.127175331115722656e+00 4.241624992573633790e-05 2.786323966574855149e-05 2.108384614984970540e-05 2.741428761510178447e-05
3.678000000000000000e+03 2.122505760192871094e+01 -8.822144508361816406e+00 -3.278591611888259649e-05 -1.786639950296375901e-05 -1.519569468655390665e-05 -1.963063914445228875e-05
3.679000000000000000e+03 1.985663604736328125e+01 -7.080731868743896484e+00 3.915989509550854564e-05 2.816987762344069779e-05 2.019893145188689232e-05 3.064878910663537681e-05
3.680000000000000000e+03 2.203341293334960938e+01 -1.005728912353515625e+01 -3.692715108627453446e-05 -1.108476135414093733e-05 -1.440357391402358189e-05 -1.826739026000723243e-05
3.681000000000000000e+03 2.140859222412109375e+01 -1.045394611358642578e+01 5.497805977938696742e-05 7.893047040852252394e-06 1.886133213702123612e-05 1.387762677040882409e-05
3.682000000000000000e+03 2.103163337707519531e+01 -9.842617988586425781e+00 -4.712514055427163839e-05 -1.738883474899921566e-05 -1.935419277288019657e-05 -1.177349167846841738e-05
3.683000000000000000e+03 2.178438568115234375e+01 -1.106581783294677734e+01 -5.370817234506830573e-05 -9.940767085936386138e-06 -1.909468119265511632e-05 -1.841037556005176157e-05
3.684000000000000000e+03 2.215780448913574219e+01 -1.167914867401123047e+01 4.917895785183645785e-05 1.390611578244715929e-05 1.892552245408296585e-05 1.366501874144887552e-05
3.685000000000000000e+03 2.280443191528320312e+01 -1.131808185577392578e+01 -4.491363506531342864e-05 -9.802211025089491159e-06 -1.641475319047458470e-05 -1.901343421195633709e-05
3.686000000000000000e+03 2.164555168151855469e+01 -9.428166389465332031e+00 3.496317003737203777e-05 1.411244011251255870e-05 1.472268286306643859e-05 1.724172579997684807e-05
3.687000000000000000e+03 2.242011070251464844e+01 -1.068695640563964844e+01 4.108749999431893229e-05 1.220076501340372488e-05 1.598647941136732697e-05 1.737382081046234816e-05
3.688000000000000000e+03 2.317674064636230469e+01 -1.199929141998291016e+01 4.111226371605880558e-05 9.806414709601085633e-06 1.527560380054637790e-05 1.745438021316658705e-05
3.689000000000000000e+03 2.284523010253906250e+01 -1.300796508789062500e+01 3.240334990550763905e-05 5.849550689163152128e-06 1.147586954175494611e-05 2.031173426075838506e-05
3.690000000000000000e+03 2.406083297729492188e+01 -1.497063064575195312e+01 -7.331163487833691761e-06 6.880425758026831318e-07 -1.992936176975490525e-06 5.516163810170837678e-07
3.691000000000000000e+03 2.462505912780761719e+01 -1.485978507995605469e+01 1.847010389610659331e-05 -4.275293008504377212e-07 5.412772679846966639e-06 -2.796187573039787821e-06
3.692000000000000000e+03 2.389264106750488281e+01 -1.346117115020751953e+01 1.887644611997529864e-05 1.108387550630141050e-05 8.988096851680893451e-06 1.051438539434457198e-05
3.693000000000000000e+03 2.353559875488281250e+01 -1.273112678527832031e+01 -3.118089080089703202e-05 -7.699005436734296381e-06 -1.166396850749151781e-05 -1.830941073421854526e-05
3.694000000000000000e+03 2.488323020935058594e+01 -1.545215702056884766e+01 -7.416507742163958028e-06 -2.722304657254426274e-07 -2.306621354364324361e-06 7.641501724720001221e-07
3.695000000000000000e+03 2.424729537963867188e+01 -1.417472362518310547e+01 -1.777620673237834126e-05 -7.604782240377971902e-06 -7.614296464453218505e-06 9.749702485351008363e-07
3.696000000000000000e+03 2.350594520568847656e+01 -1.435108280181884766e+01 1.831408371799625456e-05 2.832642894645687193e-05 1.399215307174017653e-05 1.403776650477084331e-06
3.697000000000000000e+03 2.317678260803222656e+01 -1.368776988983154297e+01 -2.411901550658512861e-05 -1.899841481645125896e-05 -1.293522927880985662e-05 -1.983549736905843019e-05
3.698000000000000000e+03 2.251189041137695312e+01 -1.232635593414306641e+01 -3.968244709540158510e-05 -6.043014764145482332e-06 -1.371763846691465005e-05 -1.329055066889850423e-05
3.699000000000000000e+03 2.456154632568359375e+01 -1.316923522949218750e+01 -4.420409823069348931e-06 -2.412104367977008224e-05 -8.562436050851829350e-06 3.907408427039626986e-06
3.700000000000000000e+03 2.482023620605468750e+01 -1.197365283966064453e+01 -7.535728400398511440e-06 -2.272254823765251786e-05 -9.077482900465838611e-06 6.688814210065174848e-06
3.701000000000000000e+03 2.650333786010742188e+01 -1.565426826477050781e+01 2.169065010093618184e-05 -2.024604691541753709e-05 4.333810181833541719e-07 -2.709569889702834189e-05
3.702000000000000000e+03 2.385268974304199219e+01 -1.163848972320556641e+01 2.538216449465835467e-06 -1.357235032628523186e-05 -3.310240117571083829e-06 1.343736857961630449e-05
3.703000000000000000e+03 2.484836769104003906e+01 -1.395820903778076172e+01 6.435931481973966584e-06 -1.429084386472823098e-05 -2.356473714826279320e-06 1.741584674164187163e-05
3.704000000000000000e+03 2.532261657714843750e+01 -1.399315357208251953e+01 2.724699334066826850e-05 4.789806553162634373e-05 2.254351784358732402e-05 -3.983467468060553074e-05
3.705000000000000000e+03 2.568108749389648438e+01 -1.559443092346191406e+01 1.982177673198748380e-05 2.007886905630584806e-05 1.197019355458905920e-05 4.090525544597767293e-05
3.706000000000000000e+03 2.449533462524414062e+01 -1.126426315307617188e+01 -1.088010867533739656e-05 -8.849439836922101676e-06 -5.918864644627319649e-06 4.999853899789741263e-06
3.707000000000000000e+03 2.516623687744140625e+01 -1.270689773559570312e+01 -7.011175284787896089e-07 1.994768535951152444e-05 5.773970315203769132e-06 8.317727406392805278e-06
3.708000000000000000e+03 2.556309509277343750e+01 -1.336782169342041016e+01 -3.518180164974182844e-05 -4.447534593055024743e-05 -2.389714427408762276e-05 2.290103475388605148e-05
3.709000000000000000e+03 2.595065307617187500e+01 -1.390986061096191406e+01 3.469422517810016870e-05 1.404174417984904721e-05 1.462079035263741389e-05 -1.499976224295096472e-05
3.710000000000000000e+03 2.620536613464355469e+01 -1.446394062042236328e+01 -1.708739000605419278e-05 3.000989090651273727e-05 3.876750270137563348e-06 2.297376340720802546e-05
3.711000000000000000e+03 2.637091255187988281e+01 -1.507584285736083984e+01 4.894374797004275024e-06 -4.017213359475135803e-05 -1.058332691172836348e-05 1.524089384474791586e-05
3.712000000000000000e+03 2.638264656066894531e+01 -1.612632179260253906e+01 -5.283714199322275817e-05 -4.032923243357799947e-05 -2.794991269183810800e-05 -8.481256372760981321e-06
3.713000000000000000e+03 2.419656753540039062e+01 -1.239193534851074219e+01 -7.256748176587279886e-06 -1.292718025069916621e-05 -6.055178346286993474e-06 4.193617769487900659e-06
3.714000000000000000e+03 2.512793922424316406e+01 -1.461182594299316406e+01 -1.928171514009591192e-05 -6.978439341764897108e-05 -2.671983202162664384e-05 2.622839247123920359e-06
3.715000000000000000e+03 2.566095924377441406e+01 -1.495156669616699219e+01 1.232164049724815413e-05 6.145284714875742793e-05 2.213234620285220444e-05 -1.052561401593266055e-06
3.716000000000000000e+03 2.577541732788085938e+01 -1.432993030548095703e+01 -2.229701567557640374e-05 -3.516064680297859013e-05 -1.723729837976861745e-05 3.180759449605830014e-05
3.717000000000000000e+03 2.269077491760253906e+01 -9.641036033630371094e+00 -2.195722299802582711e-05 -2.295271224284078926e-05 -1.347297984466422349e-05 -1.407443960488308221e-06
3.718000000000000000e+03 2.348543930053710938e+01 -1.093805503845214844e+01 -1.800880090740974993e-05 -1.849793079600203782e-05 -1.095201969292247668e-05 1.422208356416376773e-06
3.719000000000000000e+03 2.229273414611816406e+01 -8.991255760192871094e+00 1.184466145787155256e-05 -1.018121474771760404e-05 4.990338311472442001e-07 2.499324546079151332e-05
3.720000000000000000e+03 2.308835411071777344e+01 -1.029005146026611328e+01 6.653841410297900438e-06 -1.166042966360691935e-05 -1.501976498730073217e-06 2.107575710397213697e-05
3.721000000000000000e+03 2.413209533691406250e+01 -1.057697391510009766e+01 1.355843579631255125e-07 -1.514421001047594473e-05 -4.502587671595392749e-06 1.806697036954574287e-05
3.722000000000000000e+03 2.290665245056152344e+01 -8.576805114746093750e+00 -2.099612174788489938e-05 -1.824881655920762569e-05 -1.177348167402669787e-05 -8.661020729050505906e-06
3.723000000000000000e+03 2.331559562683105469e+01 -9.244379997253417969e+00 7.733086931693833321e-06 -8.949939001468010247e-06 -3.650555697731761029e-07 2.351671173528302461e-05
3.724000000000000000e+03 2.372407913208007812e+01 -9.911190032958984375e+00 -1.481458821217529476e-05 -1.451015396014554426e-05 -8.797423106443602592e-06 -3.756030992008163594e-06
3.725000000000000000e+03 2.091797065734863281e+01 -7.169854164123535156e+00 -2.819157271005678922e-05 -2.707106614252552390e-05 -1.657879147387575358e-05 -1.538785727461799979e-05
3.726000000000000000e+03 2.044657707214355469e+01 -6.570147991180419922e+00 2.523890361771918833e-05 8.452429028693586588e-06 1.010739924822701141e-05 3.102657137787900865e-05
3.727000000000000000e+03 2.138868331909179688e+01 -7.768980979919433594e+00 1.655259256949648261e-05 -9.414627015758014750e-07 4.683339284383691847e-06 3.014375579368788749e-05
3.728000000000000000e+03 2.185866355895996094e+01 -8.367236137390136719e+00 -2.862801011360716075e-05 -2.483227217453531921e-05 -1.603808414074592292e-05 -7.587267191411228850e-06
3.729000000000000000e+03 2.246022033691406250e+01 -7.935092449188232422e+00 1.286269343836465850e-05 -9.321308425569441170e-06 1.062415435626462568e-06 2.739021692832466215e-05
3.730000000000000000e+03 2.100666618347167969e+01 -6.085235118865966797e+00 -1.497556149843148887e-05 -2.310797754034865648e-05 -1.142506152973510325e-05 -2.633189069456420839e-05
3.731000000000000000e+03 2.149188232421875000e+01 -6.702531337738037109e+00 2.185158700740430504e-05 -2.651690920174587518e-07 6.475925601989729330e-06 2.995076647493988276e-05
3.732000000000000000e+03 2.197641754150390625e+01 -7.319247722625732422e+00 -1.705079557723365724e-05 -1.986570532608311623e-05 -1.107495063479291275e-05 -1.749445800669491291e-05
3.733000000000000000e+03 1.885587120056152344e+01 -4.930348396301269531e+00 -1.518120097898645326e-05 -2.933381074399221689e-05 -1.335450360784307122e-05 -3.916003697668202221e-05
3.734000000000000000e+03 1.831238174438476562e+01 -4.393686294555664062e+00 4.458142211660742760e-05 4.022633220301941037e-05 2.544232665968593210e-05 2.500204209354706109e-05
3.735000000000000000e+03 1.939846801757812500e+01 -5.466702461242675781e+00 3.196860780008137226e-05 2.517229586374014616e-05 1.714227073534857482e-05 3.076169741689227521e-05
3.736000000000000000e+03 1.994004440307617188e+01 -6.002428531646728516e+00 -2.559997119533363730e-05 -2.800953552650753409e-05 -1.608285128895659000e-05 -2.804329596983734518e-05
3.737000000000000000e+03 2.048459243774414062e+01 -5.500192165374755859e+00 2.794946340145543218e-05 5.405854608397930861e-06 1.000659540295600891e-05 3.190475763403810561e-05
3.738000000000000000e+03 1.880515289306640625e+01 -3.840278863906860352e+00 1.468338086851872504e-05 -3.056708010262809694e-05 -4.765110134030692279e-06 -4.730435466626659036e-05
3.739000000000000000e+03 1.936590194702148438e+01 -4.393997669219970703e+00 3.788053072639741004e-05 2.125872015312779695e-05 1.774177508195862174e-05 2.968818625959102064e-05
3.740000000000000000e+03 1.992575645446777344e+01 -4.947409152984619141e+00 -1.991409703805402387e-07 -2.609770672279410064e-05 -7.889054359111469239e-06 -3.827349428320303559e-05
3.741000000000000000e+03 1.695117187500000000e+01 -2.380243301391601562e+00 5.015880742575973272e-05 4.907725087832659483e-05 2.977081749122589827e-05 1.674751365499105304e-05
3.742000000000000000e+03 1.651630020141601562e+01 -2.979079723358154297e+00 2.282662717334460467e-05 -3.151022974634543061e-05 -2.605080680950777605e-06 -5.959138798061758280e-05
3.743000000000000000e+03 1.590384101867675781e+01 -2.523920059204101562e+00 6.620837666559964418e-05 6.595873855985701084e-05 3.965013456763699651e-05 5.299847089190734550e-06
3.744000000000000000e+03 1.712716102600097656e+01 -3.436568260192871094e+00 5.252323171589523554e-05 5.527875691768713295e-05 3.234059840906411409e-05 1.679833258094731718e-05
3.745000000000000000e+03 1.758174324035644531e+01 -2.852491855621337891e+00 3.859655771520920098e-05 -3.428703712415881455e-05 1.292856154577748384e-06 -5.602492092293687165e-05
3.746000000000000000e+03 1.773609352111816406e+01 -3.896142244338989258e+00 3.996286523033631966e-06 -3.082632247242145240e-05 -8.049010830291081220e-06 -5.285768565954640508e-05
3.747000000000000000e+03 1.821038436889648438e+01 -3.326825857162475586e+00 4.191652988083660603e-05 3.287564322818070650e-05 2.243765266030095518e-05 2.653454066603444517e-05
3.748000000000000000e+03 1.631900405883789062e+01 -1.910323858261108398e+00 5.985588722978718579e-05 -3.672091042972169816e-05 6.940493676665937528e-06 -5.728704127250239253e-05
3.749000000000000000e+03 1.460399055480957031e+01 -1.730789542198181152e+00 7.221606210805475712e-05 6.749211024725809693e-05 4.191245170659385622e-05 -5.085873453936073929e-06
3.750000000000000000e+03 1.394003677368164062e+01 -1.356149435043334961e+00 6.480020238086581230e-05 -2.945977757917717099e-05 1.060212616721400991e-05 -6.186564132804051042e-05
3.751000000000000000e+03 1.327490711212158203e+01 -9.841976165771484375e-01 8.093213546089828014e-05 6.704174302285537124e-05 4.439216354512609541e-05 -1.457941743865376338e-05
3.752000000000000000e+03 1.429506587982177734e+01 -7.068015336990356445e-01 5.737460378441028297e-05 6.211236177477985620e-05 3.584608930395916104e-05 -6.138155185908544809e-06
3.753000000000000000e+03 1.497913169860839844e+01 -1.092790365219116211e+00 7.966843986650928855e-05 -3.518967423588037491e-05 1.334362968918867409e-05 -5.750884156441316009e-05
3.754000000000000000e+03 1.526644039154052734e+01 -2.107936620712280273e+00 5.063219941803254187e-05 -3.139717591693624854e-05 5.770506959379417822e-06 -6.443112215492874384e-05
3.755000000000000000e+03 1.566169452667236328e+01 -1.481285929679870605e+00 5.051633706898428500e-05 5.787888221675530076e-05 3.251856469432823360e-05 6.095906428527086973e-06
3.756000000000000000e+03 1.360982322692871094e+01 -3.235010504722595215e-01 9.035092807607725263e-05 -3.154033765895292163e-05 1.764317858032882214e-05 -5.291836714604869485e-05
3.757000000000000000e+03 1.136861705780029297e+01 6.672526597976684570e-01 5.534955198527313769e-05 5.336096000974066556e-05 3.261315214331261814e-05 -1.830906148825306445e-05
3.758000000000000000e+03 1.043688488006591797e+01 2.462611943483352661e-01 8.253907435573637486e-05 6.472975655924528837e-05 4.418065145728178322e-05 -1.641644303163047880e-05
3.759000000000000000e+03 1.187135696411132812e+01 -3.428127467632293701e-01 7.957147317938506603e-05 5.893989145988598466e-05 4.155340866418555379e-05 -1.769951268215663731e-05
3.760000000000000000e+03 1.258574008941650391e+01 -6.459255814552307129e-01 8.400381193496286869e-05 -2.645348104124423116e-05 1.726509981381241232e-05 -5.611399319604970515e-05
3.761000000000000000e+03 1.288842964172363281e+01 2.964896708726882935e-02 5.451389733934774995e-05 6.075192140997387469e-05 3.457974526099860668e-05 -1.421926481270929798e-05
3.762000000000000000e+03 1.060655117034912109e+01 9.770575761795043945e-01 9.348205639980733395e-05 -1.486459223087877035e-05 2.358524034207221121e-05 -3.697648571687750518e-05
3.763000000000000000e+03 1.212970542907714844e+01 3.511690795421600342e-01 9.652056905906647444e-05 -2.568761374277528375e-05 2.124988714058417827e-05 -4.869842086918652058e-05
3.764000000000000000e+03 1.115460968017578125e+01 -4.513646289706230164e-02 8.443723345408216119e-05 -3.107823795289732516e-05 1.600769792275968939e-05 -4.910561983706429601e-05
3.765000000000000000e+03 9.852642059326171875e+00 1.127630591392517090e+00 2.112011134158819914e-05 4.671762144425883889e-05 2.035131910815834999e-05 -4.042798173031769693e-05
3.766000000000000000e+03 8.934872627258300781e+00 3.838182985782623291e-01 4.504504977376200259e-05 3.193574957549571991e-05 2.309424053237307817e-05 -1.022980541165452451e-05
3.767000000000000000e+03 8.173450469970703125e+00 3.805501461029052734e-01 4.617395825334824622e-05 -1.432889894203981385e-05 9.553517884341999888e-06 -3.743971092262654565e-06
3.768000000000000000e+03 7.412311553955078125e+00 3.753647208213806152e-01 1.727000744722317904e-05 4.472921318665612489e-06 6.522878720716107637e-06 -8.447682375845033675e-06
3.769000000000000000e+03 6.650998592376708984e+00 3.733136355876922607e-01 2.519542795198503882e-05 3.838715201709419489e-06 8.710242582310456783e-06 -3.232953815768269124e-07
3.770000000000000000e+03 5.128288269042968750e+00 3.666210770606994629e-01 1.028034603223204613e-05 7.673349500691983849e-06 5.386108568927738816e-06 -1.179653509097988717e-06
3.771000000000000000e+03 4.367394924163818359e+00 3.671234846115112305e-01 -2.851497583833406679e-06 -1.923468289533047937e-06 -1.432489739272568841e-06 2.596343165350845084e-06
3.772000000000000000e+03 2.846046209335327148e+00 3.605891168117523193e-01 -7.315062248380854726e-06 1.621134470042306930e-05 2.668884690137929283e-06 1.115628401748836040e-05
3.773000000000000000e+03 2.087270975112915039e+00 3.584179878234863281e-01 -1.145117607848078478e-06 -2.042255255219060928e-05 -6.470300832006614655e-06 -1.210596838063793257e-05
3.774000000000000000e+03 2.412721395492553711e+00 1.098417997360229492e+00 -2.125922947016078979e-05 1.759565384418237954e-05 -1.099072392207744997e-06 1.147755574493203312e-05
3.775000000000000000e+03 1.340976357460021973e+00 3.674286305904388428e-01 -1.694026764198497403e-06 2.416180723230354488e-05 6.740333901689155027e-06 1.578971023263875395e-05
3.776000000000000000e+03 1.683374881744384766e+00 1.107428669929504395e+00 1.779129706847015768e-05 -1.415760561940260231e-05 1.090107389245531522e-06 -7.373485914285993204e-06
3.777000000000000000e+03 6.602545380592346191e-01 3.962357640266418457e-01 -5.240079190116375685e-05 -4.413793431012891233e-05 -2.896161822718568146e-05 -4.652616189559921622e-05
3.778000000000000000e+03 3.572900295257568359e-01 9.584811329841613770e-01 5.497900565387681127e-05 3.093674604315310717e-05 2.577472514531109482e-05 2.627365938678849488e-05
3.779000000000000000e+03 3.154548645019531250e+00 1.100589156150817871e+00 1.846524901338852942e-05 -7.667075806239154190e-06 3.239451643821666948e-06 -1.925900141941383481e-05
3.780000000000000000e+03 3.606354475021362305e+00 3.667278885841369629e-01 -4.049522317473019939e-07 -7.008423381194006652e-06 -2.224012632723315619e-06 -1.032685486279660836e-05
3.781000000000000000e+03 5.385946273803710938e+00 1.106621026992797852e+00 -2.606918542369385250e-06 4.856747750636714045e-07 -6.363731586134235840e-07 -5.588283329416299239e-06
3.782000000000000000e+03 5.889441967010498047e+00 3.716917037963867188e-01 1.209960487358330283e-06 -6.876682618894847110e-06 -1.700016582617536187e-06 -6.274590759858256206e-06
3.783000000000000000e+03 7.619125843048095703e+00 1.115364670753479004e+00 5.632254760712385178e-05 -6.326244147203397006e-06 1.499889185652136803e-05 -7.620304131705779582e-06
3.784000000000000000e+03 8.363317489624023438e+00 1.120550155639648438e+00 2.251033401989843696e-05 1.810606045182794333e-05 1.218491797772003338e-05 -3.059823575313203037e-05
3.785000000000000000e+03 9.107789993286132812e+00 1.123818278312683105e+00 8.262712799478322268e-05 -1.187457291962346062e-05 2.122576552210375667e-05 -1.120542401622515172e-05
3.786000000000000000e+03 9.696672439575195312e+00 3.876306116580963135e-01 9.014071110868826509e-05 -3.660151560325175524e-05 1.606175646884366870e-05 -2.146832957805600017e-05
3.787000000000000000e+03 6.874760627746582031e+00 1.113313674926757812e+00 4.481111773202428594e-06 7.173505309765459970e-06 3.496385033940896392e-06 -1.739267827360890806e-05
3.788000000000000000e+03 6.130152225494384766e+00 1.111691713333129883e+00 3.715696948347613215e-05 9.463745413995638955e-07 1.143100325862178579e-05 -7.533731604780768976e-06
3.789000000000000000e+03 4.642001152038574219e+00 1.107123494148254395e+00 1.699848507996648550e-05 4.487589649215806276e-06 6.445822236855747178e-06 -1.310157313128001988e-05
3.790000000000000000e+03 3.897908926010131836e+00 1.106727957725524902e+00 -4.981117854185868055e-06 1.145240162259142380e-06 -1.150763409896171652e-06 1.065272317646304145e-05
3.791000000000000000e+03 1.019601225852966309e+00 1.136235833168029785e+00 1.910830542328767478e-05 -1.319614784733857960e-05 1.773646999936318025e-06 6.475083409895887598e-06
3.792000000000000000e+03 1.356510353088378906e+01 -2.044676303863525391e+00 -3.373772415216080844e-05 -8.675629214849323034e-05 -3.614820525399409235e-05 -5.135534956934861839e-05
3.793000000000000000e+03 1.321007442474365234e+01 -2.694024085998535156e+00 4.158864248893223703e-05 7.707031909376382828e-05 3.559768811101093888e-05 4.971378803020343184e-05
3.794000000000000000e+03 1.258673477172851562e+01 -2.342205762863159180e+00 -4.884319059783592820e-05 -7.773505785735324025e-05 -3.797347380896098912e-05 -5.369123027776367962e-05
3.795000000000000000e+03 1.420777034759521484e+01 -2.407426834106445312e+00 3.503843618091195822e-05 8.847928984323516488e-05 3.705531707964837551e-05 5.078337926534004509e-05
3.796000000000000000e+03 1.383262920379638672e+01 -3.045426130294799805e+00 -4.076257027918472886e-05 -7.707455370109528303e-05 -3.535113501129671931e-05 -4.472184446058236063e-05
3.797000000000000000e+03 1.445424365997314453e+01 -3.396085023880004883e+00 3.885922706103883684e-05 7.633903442183509469e-05 3.455947808106429875e-05 4.112284659640863538e-05
3.798000000000000000e+03 1.484949779510498047e+01 -2.769434452056884766e+00 -3.566194936865940690e-05 -8.297325985040515661e-05 -3.559056131052784622e-05 -4.913580414722673595e-05
3.799000000000000000e+03 1.292164993286132812e+01 -1.681509137153625488e+00 3.394723535166122019e-05 8.119602716760709882e-05 3.454297984717413783e-05 4.751487358589656651e-05
3.800000000000000000e+03 1.114702796936035156e+01 -1.674520134925842285e+00 -6.797115929657593369e-05 -5.954552398179657757e-05 -3.825500607490539551e-05 -5.861895260750316083e-05
3.801000000000000000e+03 1.155607700347900391e+01 -1.043098807334899902e+00 3.460583684500306845e-05 6.239787762751802802e-05 2.910111288656480610e-05 3.954106796300038695e-05
3.802000000000000000e+03 1.007052421569824219e+01 -1.379528045654296875e+00 5.082509596832096577e-05 2.813702121784444898e-05 2.368863533774856478e-05 4.025458110845647752e-05
3.803000000000000000e+03 1.091052532196044922e+01 -7.195191383361816406e-01 -2.828940887411590666e-05 -6.000921348459087312e-05 -2.648958616191521287e-05 -3.488620859570801258e-05
3.804000000000000000e+03 1.189208316802978516e+01 -2.005299091339111328e+00 4.372123657958582044e-05 6.262744864216074347e-05 3.190460483892820776e-05 5.605149635812267661e-05
3.805000000000000000e+03 1.224500656127929688e+01 -1.350578069686889648e+00 -2.961512473120819777e-05 -6.730638415319845080e-05 -2.907645284722093493e-05 -4.461859498405829072e-05
3.806000000000000000e+03 1.012131404876708984e+01 -8.739756941795349121e-01 -9.557477460475638509e-05 -5.205254637985490263e-05 -4.428819738677702844e-05 -7.631946209585294127e-05
3.807000000000000000e+03 1.027311420440673828e+01 -4.096257984638214111e-01 2.334635973966214806e-05 4.555475607048720121e-05 2.067033528874162585e-05 3.056105924770236015e-05
3.808000000000000000e+03 1.058933448791503906e+01 -1.247088074684143066e+00 8.360066567547619343e-05 5.318505645846016705e-05 4.103571700397878885e-05 6.748134910594671965e-05
3.809000000000000000e+03 8.909210205078125000e+00 -3.212539851665496826e-01 -9.763845446286723018e-05 3.708510485012084246e-05 -1.816600524762179703e-05 1.760769737302325666e-05
3.810000000000000000e+03 9.317807197570800781e+00 -1.205478549003601074e+00 -3.254753755754791200e-05 -7.973412721185013652e-05 -3.368450052221305668e-05 -7.889316475484520197e-05
3.811000000000000000e+03 9.460213661193847656e+00 -6.912539601325988770e-01 1.442561042495071888e-04 -1.733231329126283526e-05 3.807713437709026039e-05 7.569182344013825059e-05
3.812000000000000000e+03 8.266005516052246094e+00 -6.800254583358764648e-01 1.648664037929847836e-04 6.461221346398815513e-05 6.884359027026221156e-05 2.648457666509784758e-06
3.813000000000000000e+03 7.622209548950195312e+00 -4.054784178733825684e-01 -9.941839380189776421e-05 -8.178770804079249501e-05 -5.436182982521131635e-05 -7.558202196378260851e-05
3.814000000000000000e+03 6.825774669647216797e+00 -3.814763724803924561e-01 3.771248520934022963e-05 7.158713560784235597e-05 3.278988515376113355e-05 4.957498458679765463e-05
3.815000000000000000e+03 6.001619815826416016e+00 -3.739211261272430420e-01 -4.963392348145134747e-05 -7.183123670984059572e-05 -3.643954551080241799e-05 -5.530103226192295551e-05
3.816000000000000000e+03 5.174842834472656250e+00 -3.715220093727111816e-01 4.929339411319233477e-05 6.074786870158277452e-05 3.301238029962405562e-05 5.388712816056795418e-05
3.817000000000000000e+03 4.347759723663330078e+00 -3.725122809410095215e-01 -5.130836507305502892e-05 -3.709562952280975878e-05 -2.652119837875943631e-05 -4.450752021512016654e-05
3.818000000000000000e+03 3.520621299743652344e+00 -3.760701715946197510e-01 4.217155219521373510e-05 8.812696250970475376e-06 1.529527435195632279e-05 2.264180693600792438e-05
3.819000000000000000e+03 2.694509983062744141e+00 -3.805325925350189209e-01 -2.233626764791551977e-05 7.998582077561877668e-06 -4.301306034903973341e-06 -7.877176813053665683e-07
3.820000000000000000e+03 1.143715500831604004e+00 -3.599454164505004883e-01 -3.086123797402251512e-06 -1.043419251800514758e-05 -4.056094894622219726e-06 6.898314950376516208e-06
3.821000000000000000e+03 4.021799862384796143e-01 -5.506002306938171387e-01 7.797557373123709112e-06 1.362760212941793725e-05 6.427547759813023731e-06 8.009935299924109131e-06
3.822000000000000000e+03 7.210693359375000000e-01 -1.099945425987243652e+00 7.164456474129110575e-05 3.923899384972173721e-06 2.267053787363693118e-05 1.199146845465293154e-05
3.823000000000000000e+03 8.506304740905761719e+00 -1.218084216117858887e+00 -3.094282874371856451e-05 1.526869164081290364e-04 3.652322629932314157e-05 2.849104930646717548e-05
3.824000000000000000e+03 7.803927898406982422e+00 -1.221213579177856445e+00 -1.094930848921649158e-04 -1.111246092477813363e-04 -6.618531187996268272e-05 1.996902938117273152e-05
3.825000000000000000e+03 7.101232528686523438e+00 -1.145478367805480957e+00 1.145164351328276098e-04 5.576347393798641860e-05 5.108397090225480497e-05 4.717406409326940775e-05
3.826000000000000000e+03 6.317089557647705078e+00 -1.121476411819458008e+00 -6.236803892534226179e-05 -6.303985719569027424e-05 -3.762236883630976081e-05 -5.258855526335537434e-05
3.827000000000000000e+03 5.505225658416748047e+00 -1.113921165466308594e+00 5.418866930995136499e-05 5.058804526925086975e-05 3.143301364616490901e-05 4.808495941688306630e-05
3.828000000000000000e+03 4.690740108489990234e+00 -1.111521959304809570e+00 -6.542327173519879580e-05 -3.299934542155824602e-05 -2.952678551082499325e-05 -6.024873437127098441e-05
3.829000000000000000e+03 3.875948190689086914e+00 -1.112512230873107910e+00 9.503852197667583823e-05 2.744920948316575959e-06 2.933503310487139970e-05 5.643509211950004101e-05
3.830000000000000000e+03 3.061101198196411133e+00 -1.116070151329040527e+00 -1.028598053380846977e-04 8.110948328976519406e-06 -2.842465619323775172e-05 -2.243655035272240639e-05
3.831000000000000000e+03 2.247281074523925781e+00 -1.120532631874084473e+00 5.114341547596268356e-05 2.066609886242076755e-05 2.154285539290867746e-05 -8.797470059107581619e-07
3.832000000000000000e+03 1.882497906684875488e+00 -3.807797729969024658e-01 7.382087915175361559e-06 -6.396517619577934965e-06 2.956709579393645981e-07 -8.438772965746466070e-06
3.833000000000000000e+03 9.580569267272949219e+00 -2.457754313945770264e-01 -6.928609218448400497e-05 -4.892851575277745724e-05 -3.546438165358267725e-05 8.327657269546762109e-06
3.834000000000000000e+03 1.447560310363769531e+00 -1.120779752731323242e+00 -2.695020157261751592e-05 -3.695619670907035470e-05 -1.917191912070848048e-05 -2.395439696556422859e-05
3.835000000000000000e+03 7.611974334716796875e+01 -2.739543151855468750e+01 1.624092102050781250e+01 4.291611671447753906e+00 6.159759521484375000e+00 8.213253021240234375e+00
3.836000000000000000e+03 7.612341308593750000e+01 -2.741455078125000000e+01 1.463232612609863281e+01 1.319720172882080078e+01 8.348857879638671875e+00 1.644479942321777344e+01
3.837000000000000000e+03 7.613073730468750000e+01 -2.743258857727050781e+01 1.336604118347167969e+01 2.190479087829589844e+01 1.058125019073486328e+01 1.914814758300781250e+01
3.838000000000000000e+03 7.614143371582031250e+01 -2.744885444641113281e+01 1.109602737426757812e+01 3.107700729370117188e+01 1.265191078186035156e+01 1.990239334106445312e+01
3.839000000000000000e+03 7.615509033203125000e+01 -2.746272850036621094e+01 9.151788711547851562e+00 3.953234863281250000e+01 1.460524082183837891e+01 1.851539039611816406e+01
3.840000000000000000e+03 7.617118835449218750e+01 -2.747367858886718750e+01 7.243877410888671875e+00 4.691893005371093750e+01 1.624884223937988281e+01 1.533333778381347656e+01
3.841000000000000000e+03 7.618910980224609375e+01 -2.748128318786621094e+01 6.461266517639160156e+00 5.241456604003906250e+01 1.766275024414062500e+01 1.080685329437255859e+01
3.842000000000000000e+03 7.620816802978515625e+01 -2.748525619506835938e+01 6.828101158142089844e+00 5.566467285156250000e+01 1.874783325195312500e+01 5.406503200531005859e+00
3.843000000000000000e+03 7.622763824462890625e+01 -2.748544120788574219e+01 8.750172615051269531e+00 5.651156997680664062e+01 1.957852363586425781e+01 6.001766771078109741e-02
3.844000000000000000e+03 7.624676513671875000e+01 -2.748183250427246094e+01 1.187314796447753906e+01 5.509572982788085938e+01 2.009066390991210938e+01 -4.632898807525634766e+00
3.845000000000000000e+03 7.626483154296875000e+01 -2.747456741333007812e+01 1.605748176574707031e+01 5.214564895629882812e+01 2.046093940734863281e+01 -7.934315204620361328e+00
3.846000000000000000e+03 7.628112792968750000e+01 -2.746392631530761719e+01 2.045607376098632812e+01 4.809339523315429688e+01 2.056484031677246094e+01 -9.687727928161621094e+00
3.847000000000000000e+03 7.629505157470703125e+01 -2.745031547546386719e+01 2.472311973571777344e+01 4.404280853271484375e+01 2.062977790832519531e+01 -9.722393035888671875e+00
3.848000000000000000e+03 7.630605316162109375e+01 -2.743425369262695312e+01 2.822677993774414062e+01 4.033071136474609375e+01 2.056724739074707031e+01 -8.360360145568847656e+00
3.849000000000000000e+03 7.631372070312500000e+01 -2.741635894775390625e+01 3.074675750732421875e+01 3.768283081054687500e+01 2.052887725830078125e+01 -5.924918651580810547e+00
3.850000000000000000e+03 7.631774902343750000e+01 -2.739731216430664062e+01 3.203578948974609375e+01 3.620067214965820312e+01 2.047093963623046875e+01 -2.884167671203613281e+00
3.851000000000000000e+03 7.631800079345703125e+01 -2.737784576416015625e+01 3.212596130371093750e+01 3.615385055541992188e+01 2.048394393920898438e+01 3.458507955074310303e-01
3.852000000000000000e+03 7.631446075439453125e+01 -2.735870361328125000e+01 3.101062011718750000e+01 3.742665481567382812e+01 2.053118324279785156e+01 3.352651596069335938e+00
3.853000000000000000e+03 7.630725097656250000e+01 -2.734061622619628906e+01 2.880707359313964844e+01 3.991377639770507812e+01 2.061625480651855469e+01 5.736388683319091797e+00
3.854000000000000000e+03 7.629666900634765625e+01 -2.732427978515625000e+01 2.575417709350585938e+01 4.344958114624023438e+01 2.076112747192382812e+01 7.097292423248291016e+00
3.855000000000000000e+03 7.628310394287109375e+01 -2.731031608581542969e+01 2.198059082031250000e+01 4.745875167846679688e+01 2.083180236816406250e+01 7.158450603485107422e+00
3.856000000000000000e+03 7.626707458496093750e+01 -2.729925918579101562e+01 1.817580986022949219e+01 5.148650741577148438e+01 2.089869499206542969e+01 5.625452995300292969e+00
3.857000000000000000e+03 7.624920654296875000e+01 -2.729153442382812500e+01 1.462035560607910156e+01 5.479969787597656250e+01 2.082601547241210938e+01 2.479230165481567383e+00
3.858000000000000000e+03 7.623017883300781250e+01 -2.728743553161621094e+01 1.196628952026367188e+01 5.661314392089843750e+01 2.057382965087890625e+01 -1.989979028701782227e+00
3.859000000000000000e+03 7.621070861816406250e+01 -2.728712081909179688e+01 1.071551990509033203e+01 5.639451980590820312e+01 2.013301277160644531e+01 -7.320880889892578125e+00
3.860000000000000000e+03 7.619155883789062500e+01 -2.729060173034667969e+01 1.092166996002197266e+01 5.371450805664062500e+01 1.939085388183593750e+01 -1.277825069427490234e+01
3.861000000000000000e+03 7.617344665527343750e+01 -2.729774475097656250e+01 1.264166069030761719e+01 4.868526077270507812e+01 1.839807701110839844e+01 -1.750716972351074219e+01
3.862000000000000000e+03 7.615707397460937500e+01 -2.730827713012695312e+01 1.550003433227539062e+01 4.151634597778320312e+01 1.710491371154785156e+01 -2.088082695007324219e+01
3.863000000000000000e+03 7.614306640625000000e+01 -2.732179641723632812e+01 1.857782554626464844e+01 3.295806884765625000e+01 1.546076774597167969e+01 -2.233556938171386719e+01
3.864000000000000000e+03 7.613195800781250000e+01 -2.733778381347656250e+01 2.211648559570312500e+01 2.366362762451171875e+01 1.373403453826904297e+01 -2.137410545349121094e+01
3.865000000000000000e+03 7.612416839599609375e+01 -2.735562705993652344e+01 2.429982185363769531e+01 1.427415180206298828e+01 1.157219219207763672e+01 -1.825070571899414062e+01
3.866000000000000000e+03 7.612001037597656250e+01 -2.737464523315429688e+01 2.681251907348632812e+01 5.018618106842041016e+00 9.549341201782226562e+00 -9.541272163391113281e+00
