# el_label, x, y, sXX, sYY, sZZ, sXY
1.000000000000000000e+00 1.510958099365234375e+01 -2.505717992782592773e+00 -6.892117112874984741e-02 5.452805161476135254e-01 1.429077982902526855e-01 -2.915067672729492188e+00
2.000000000000000000e+00 1.492696762084960938e+01 -2.426536560058593750e+00 4.528995037078857422e+00 8.685590624809265137e-01 1.619266271591186523e+00 -1.070799350738525391e+00
3.000000000000000000e+00 1.474435424804687500e+01 -2.347355365753173828e+00 2.249456882476806641e+00 2.434756606817245483e-01 7.478798031806945801e-01 -1.178946852684020996e+00
4.000000000000000000e+00 1.456174087524414062e+01 -2.268173933029174805e+00 1.938347935676574707e+00 3.169434368610382080e-01 6.765874028205871582e-01 -6.408638358116149902e-01
5.000000000000000000e+00 1.509169960021972656e+01 -2.561318397521972656e+00 1.282048130035400391e+01 -2.352360188961029053e-01 3.775573730468750000e+00 -5.734488964080810547e+00
6.000000000000000000e+00 1.489716434478759766e+01 -2.519204139709472656e+00 7.364835739135742188e+00 6.238275170326232910e-01 2.396599054336547852e+00 -1.903542518615722656e+00
7.000000000000000000e+00 1.470263004302978516e+01 -2.477089881896972656e+00 7.132415771484375000e+00 2.047954499721527100e-01 2.201163530349731445e+00 -1.222764968872070312e+00
8.000000000000000000e+00 1.450809574127197266e+01 -2.434975624084472656e+00 5.159430503845214844e+00 -5.849471688270568848e-02 1.530280709266662598e+00 -1.059320688247680664e+00
9.000000000000000000e+00 1.508498382568359375e+01 -2.619336605072021484e+00 2.191890144348144531e+01 -1.142488718032836914e+00 6.232923507690429688e+00 -2.011415243148803711e+00
1.000000000000000000e+01 1.488597297668457031e+01 -2.615900754928588867e+00 1.379517936706542969e+01 -4.333015680313110352e-01 4.008563518524169922e+00 -1.576838135719299316e+00
1.100000000000000000e+01 1.468696117401123047e+01 -2.612465143203735352e+00 1.052900791168212891e+01 7.570319809019565582e-03 3.160973548889160156e+00 -3.934159576892852783e-01
1.200000000000000000e+01 1.448795032501220703e+01 -2.609029531478881836e+00 9.311873435974121094e+00 -3.852133452892303467e-01 2.677998065948486328e+00 -1.671310663223266602e-01
1.300000000000000000e+01 1.508969211578369141e+01 -2.677551746368408203e+00 2.768020439147949219e+01 -3.755038082599639893e-01 8.191410064697265625e+00 2.664832115173339844e+00
1.400000000000000000e+01 1.489381980895996094e+01 -2.712925910949707031e+00 1.837424087524414062e+01 -1.963615566492080688e-01 5.453363895416259766e+00 1.578554034233093262e+00
1.500000000000000000e+01 1.469794750213623047e+01 -2.748300313949584961e+00 1.464756011962890625e+01 -3.174574375152587891e-01 4.299030780792236328e+00 1.363528490066528320e+00
1.600000000000000000e+01 1.450207519531250000e+01 -2.783674955368041992e+00 1.221447372436523438e+01 -8.034981787204742432e-02 3.640237092971801758e+00 1.535149931907653809e+00
1.700000000000000000e+01 1.510564422607421875e+01 -2.733736276626586914e+00 3.000459861755371094e+01 2.719388246536254883e+00 9.817195892333984375e+00 8.146060943603515625e+00
1.800000000000000000e+01 1.492040634155273438e+01 -2.806566953659057617e+00 2.134313392639160156e+01 1.207939505577087402e+00 6.765322208404541016e+00 5.165764331817626953e+00
1.900000000000000000e+01 1.473516941070556641e+01 -2.879397869110107422e+00 1.693705940246582031e+01 9.257299304008483887e-01 5.358836650848388672e+00 4.279729366302490234e+00
2.000000000000000000e+01 1.454993152618408203e+01 -2.952228784561157227e+00 1.448925113677978516e+01 5.050119757652282715e-01 4.498279094696044922e+00 3.852020263671875000e+00
2.100000000000000000e+01 1.513222980499267578e+01 -2.785740137100219727e+00 2.989387130737304688e+01 7.407206535339355469e+00 1.119032287597656250e+01 1.263150215148925781e+01
2.200000000000000000e+01 1.496471500396728516e+01 -2.893240213394165039e+00 2.196354293823242188e+01 4.401277065277099609e+00 7.909446239471435547e+00 8.776800155639648438e+00
2.300000000000000000e+01 1.479720115661621094e+01 -3.000740528106689453e+00 1.803003883361816406e+01 3.112588405609130859e+00 6.342788219451904297e+00 7.199640274047851562e+00
2.400000000000000000e+01 1.462968635559082031e+01 -3.108240604400634766e+00 1.514541149139404297e+01 2.531637191772460938e+00 5.303114414215087891e+00 6.455592155456542969e+00
2.500000000000000000e+01 1.516843032836914062e+01 -2.831573486328125000e+00 2.757241249084472656e+01 1.345802497863769531e+01 1.230913162231445312e+01 1.565061759948730469e+01
2.600000000000000000e+01 1.502505016326904297e+01 -2.969629049301147461e+00 2.130460357666015625e+01 8.564189910888671875e+00 8.960638046264648438e+00 1.139245128631591797e+01
2.700000000000000000e+01 1.488166904449462891e+01 -3.107684612274169922e+00 1.733859443664550781e+01 6.539149284362792969e+00 7.163322925567626953e+00 9.630279541015625000e+00
2.800000000000000000e+01 1.473828887939453125e+01 -3.245740175247192383e+00 1.512326622009277344e+01 5.313009262084960938e+00 6.130882740020751953e+00 8.569626808166503906e+00
2.900000000000000000e+01 1.521286106109619141e+01 -2.869482040405273438e+00 2.469769477844238281e+01 1.970971488952636719e+01 1.332222270965576172e+01 1.662260055541992188e+01
3.000000000000000000e+01 1.509910202026367188e+01 -3.032809972763061523e+00 1.922478866577148438e+01 1.345293045043945312e+01 9.803316116333007812e+00 1.275852489471435547e+01
3.100000000000000000e+01 1.498534202575683594e+01 -3.196137905120849609e+00 1.615697860717773438e+01 1.045162963867187500e+01 7.982582569122314453e+00 1.095376110076904297e+01
3.200000000000000000e+01 1.487158203125000000e+01 -3.359465837478637695e+00 1.361541175842285156e+01 8.805389404296875000e+00 6.726240158081054688e+00 9.762167930603027344e+00
3.300000000000000000e+01 1.526382255554199219e+01 -2.898015260696411133e+00 2.154051589965820312e+01 2.547077369689941406e+01 1.410338687896728516e+01 1.562883758544921875e+01
3.400000000000000000e+01 1.518403720855712891e+01 -3.080365180969238281e+00 1.716814422607421875e+01 1.814352416992187500e+01 1.059350013732910156e+01 1.276842498779296875e+01
3.500000000000000000e+01 1.510425090789794922e+01 -3.262715339660644531e+00 1.415744018554687500e+01 1.467271232604980469e+01 8.649045944213867188e+00 1.092103099822998047e+01
3.600000000000000000e+01 1.502446556091308594e+01 -3.445065498352050781e+00 1.214484882354736328e+01 1.230852890014648438e+01 7.336013317108154297e+00 1.000317668914794922e+01
3.700000000000000000e+01 1.531936359405517578e+01 -2.916080951690673828e+00 1.947329139709472656e+01 2.995172119140625000e+01 1.482750320434570312e+01 1.323962593078613281e+01
3.800000000000000000e+01 1.527660465240478516e+01 -3.110475063323974609e+00 1.515861511230468750e+01 2.209452056884765625e+01 1.117594051361083984e+01 1.134962368011474609e+01
3.900000000000000000e+01 1.523384666442871094e+01 -3.304868936538696289e+00 1.256253719329833984e+01 1.841394996643066406e+01 9.292945861816406250e+00 1.002952003479003906e+01
4.000000000000000000e+01 1.519108867645263672e+01 -3.499263048171997070e+00 1.063554477691650391e+01 1.589781188964843750e+01 7.960007190704345703e+00 8.978438377380371094e+00
4.100000000000000000e+01 1.537735843658447266e+01 -2.922988176345825195e+00 1.836560821533203125e+01 3.262543487548828125e+01 1.529731369018554688e+01 1.002921295166015625e+01
4.200000000000000000e+01 1.537326431274414062e+01 -3.121987104415893555e+00 1.419485950469970703e+01 2.504626083374023438e+01 1.177233600616455078e+01 9.074529647827148438e+00
4.300000000000000000e+01 1.536916923522949219e+01 -3.320986032485961914e+00 1.144595146179199219e+01 2.085643959045410156e+01 9.690716743469238281e+00 8.181119918823242188e+00
4.400000000000000000e+01 1.536507511138916016e+01 -3.519984960556030273e+00 9.955758094787597656e+00 1.884819984436035156e+01 8.641187667846679688e+00 7.772468090057373047e+00
4.500000000000000000e+01 1.543558883666992188e+01 -2.918472528457641602e+00 1.886211204528808594e+01 3.368671417236328125e+01 1.576464748382568359e+01 6.746105194091796875e+00
4.600000000000000000e+01 1.547031497955322266e+01 -3.114460945129394531e+00 1.402433872222900391e+01 2.641215705871582031e+01 1.213094902038574219e+01 6.425815582275390625e+00
4.700000000000000000e+01 1.550504016876220703e+01 -3.310449361801147461e+00 1.144435214996337891e+01 2.241033363342285156e+01 1.015640544891357422e+01 5.881894588470458984e+00
4.800000000000000000e+01 1.553976535797119141e+01 -3.506437778472900391e+00 1.013662910461425781e+01 1.917400550842285156e+01 8.793190956115722656e+00 5.859880447387695312e+00
4.900000000000000000e+01 1.549182605743408203e+01 -2.902706623077392578e+00 2.045758247375488281e+01 3.327148056030273438e+01 1.611871910095214844e+01 3.976865291595458984e+00
5.000000000000000000e+01 1.556404304504394531e+01 -3.088184595108032227e+00 1.496218490600585938e+01 2.638491630554199219e+01 1.240412998199462891e+01 3.867058038711547852e+00
5.100000000000000000e+01 1.563626003265380859e+01 -3.273662328720092773e+00 1.235600376129150391e+01 2.244199371337890625e+01 1.043939876556396484e+01 3.875674009323120117e+00
5.200000000000000000e+01 1.570847702026367188e+01 -3.459140062332153320e+00 1.067263984680175781e+01 1.930714988708496094e+01 8.993937492370605469e+00 3.102482318878173828e+00
5.300000000000000000e+01 1.554391765594482422e+01 -2.876293897628784180e+00 2.231723022460937500e+01 3.152835273742675781e+01 1.615367507934570312e+01 1.957855224609375000e+00
5.400000000000000000e+01 1.565086269378662109e+01 -3.044163465499877930e+00 1.715559005737304688e+01 2.540701293945312500e+01 1.276878070831298828e+01 2.178041458129882812e+00
5.500000000000000000e+01 1.575780773162841797e+01 -3.212032794952392578e+00 1.374109458923339844e+01 2.116270828247070312e+01 1.047114086151123047e+01 2.010749816894531250e+00
5.600000000000000000e+01 1.586475276947021484e+01 -3.379902124404907227e+00 1.167757415771484375e+01 1.914962577819824219e+01 9.248159408569335938e+00 1.944512248039245605e+00
5.700000000000000000e+01 1.558987140655517578e+01 -2.840245246887207031e+00 2.505524635314941406e+01 2.983626174926757812e+01 1.646745300292968750e+01 1.411348104476928711e+00
5.800000000000000000e+01 1.572745132446289062e+01 -2.984082221984863281e+00 1.916396713256835938e+01 2.312364196777343750e+01 1.268628311157226562e+01 9.754585623741149902e-01
5.900000000000000000e+01 1.586503124237060547e+01 -3.127918958663940430e+00 1.619705581665039062e+01 1.985283660888671875e+01 1.081496810913085938e+01 1.444276571273803711e+00
6.000000000000000000e+01 1.600261116027832031e+01 -3.271755933761596680e+00 1.319287681579589844e+01 1.681349372863769531e+01 9.001911163330078125e+00 1.503390431404113770e+00
6.100000000000000000e+01 1.562792682647705078e+01 -2.795939922332763672e+00 2.752427673339843750e+01 2.713573455810546875e+01 1.639800453186035156e+01 1.683095932006835938e+00
6.200000000000000000e+01 1.579087638854980469e+01 -2.910239934921264648e+00 2.122237205505371094e+01 2.140800857543945312e+01 1.278911495208740234e+01 1.331769227981567383e+00
6.300000000000000000e+01 1.595382690429687500e+01 -3.024540185928344727e+00 1.822139358520507812e+01 1.751456451416015625e+01 1.072078800201416016e+01 1.361543416976928711e+00
6.400000000000000000e+01 1.611677742004394531e+01 -3.138840198516845703e+00 1.604330444335937500e+01 1.547403812408447266e+01 9.455203056335449219e+00 1.576209783554077148e+00
6.500000000000000000e+01 1.565662765502929688e+01 -2.745073556900024414e+00 2.882752227783203125e+01 2.502015495300292969e+01 1.615430259704589844e+01 2.765185594558715820e+00
6.600000000000000000e+01 1.583871269226074219e+01 -2.825462579727172852e+00 2.326572799682617188e+01 1.964420127868652344e+01 1.287297916412353516e+01 2.909597396850585938e+00
6.700000000000000000e+01 1.602079772949218750e+01 -2.905851840972900391e+00 1.913769531250000000e+01 1.592479324340820312e+01 1.051874637603759766e+01 2.112263679504394531e+00
6.800000000000000000e+01 1.620288276672363281e+01 -2.986240863800048828e+00 1.773231124877929688e+01 1.428200244903564453e+01 9.604293823242187500e+00 2.296458244323730469e+00
6.900000000000000000e+01 1.567487812042236328e+01 -2.689592361450195312e+00 3.004988670349121094e+01 2.430451774597167969e+01 1.630632019042968750e+01 5.279339313507080078e+00
7.000000000000000000e+01 1.586912918090820312e+01 -2.732994318008422852e+00 2.358333206176757812e+01 1.775081253051757812e+01 1.240024375915527344e+01 4.534837245941162109e+00
7.100000000000000000e+01 1.606338119506835938e+01 -2.776396036148071289e+00 1.997737693786621094e+01 1.589098072052001953e+01 1.076050662994384766e+01 4.395397663116455078e+00
7.200000000000000000e+01 1.625763130187988281e+01 -2.819797754287719727e+00 1.677585983276367188e+01 1.247759246826171875e+01 8.776035308837890625e+00 3.592586040496826172e+00
7.300000000000000000e+01 1.568197727203369141e+01 -2.631620168685913086e+00 2.944707679748535156e+01 2.309789657592773438e+01 1.576349258422851562e+01 7.929073810577392578e+00
7.400000000000000000e+01 1.588096141815185547e+01 -2.636373519897460938e+00 2.296441268920898438e+01 1.836330413818359375e+01 1.239831542968750000e+01 6.990796566009521484e+00
7.500000000000000000e+01 1.607994461059570312e+01 -2.641127109527587891e+00 1.923898887634277344e+01 1.489675807952880859e+01 1.024072360992431641e+01 6.349267005920410156e+00
7.600000000000000000e+01 1.627892875671386719e+01 -2.645880460739135742e+00 1.693806076049804688e+01 1.336085796356201172e+01 9.089674949645996094e+00 5.834443569183349609e+00
7.700000000000000000e+01 1.567765426635742188e+01 -2.573374748229980469e+00 2.761924552917480469e+01 2.376830482482910156e+01 1.541626548767089844e+01 1.059179210662841797e+01
7.800000000000000000e+01 1.587375640869140625e+01 -2.539298057556152344e+00 2.089654731750488281e+01 1.918139839172363281e+01 1.202338409423828125e+01 9.241841316223144531e+00
7.900000000000000000e+01 1.606985855102539062e+01 -2.505221366882324219e+00 1.736451148986816406e+01 1.567745494842529297e+01 9.912590026855468750e+00 8.133113861083984375e+00
8.000000000000000000e+01 1.626596069335937500e+01 -2.471144676208496094e+00 1.569044303894042969e+01 1.420791530609130859e+01 8.969507217407226562e+00 7.036531448364257812e+00
8.100000000000000000e+01 1.566207504272460938e+01 -2.517085552215576172e+00 2.436867904663085938e+01 2.595865631103515625e+01 1.509820079803466797e+01 1.275598907470703125e+01
8.200000000000000000e+01 1.584779071807861328e+01 -2.445482730865478516e+00 1.762378311157226562e+01 2.037799072265625000e+01 1.140053272247314453e+01 1.086464405059814453e+01
8.300000000000000000e+01 1.603350639343261719e+01 -2.373879909515380859e+00 1.469752693176269531e+01 1.776298522949218750e+01 9.738153457641601562e+00 9.123699188232421875e+00
8.400000000000000000e+01 1.621922302246093750e+01 -2.302277088165283203e+00 1.175071334838867188e+01 1.521508312225341797e+01 8.089738845825195312e+00 8.198743820190429688e+00
8.500000000000000000e+01 1.563583469390869141e+01 -2.464906692504882812e+00 1.942092323303222656e+01 2.819185066223144531e+01 1.428383255004882812e+01 1.409797859191894531e+01
8.600000000000000000e+01 1.580405712127685547e+01 -2.358517885208129883e+00 1.394227600097656250e+01 2.286016845703125000e+01 1.104073333740234375e+01 1.097517108917236328e+01
8.700000000000000000e+01 1.597227859497070312e+01 -2.252128839492797852e+00 1.082273292541503906e+01 1.924263000488281250e+01 9.019609451293945312e+00 9.614852905273437500e+00
8.800000000000000000e+01 1.614050102233886719e+01 -2.145740032196044922e+00 9.047956466674804688e+00 1.731569671630859375e+01 7.909095764160156250e+00 8.788559913635253906e+00
8.900000000000000000e+01 1.559993743896484375e+01 -2.418834686279296875e+00 1.433806610107421875e+01 3.119138336181640625e+01 1.365883541107177734e+01 1.355453872680664062e+01
9.000000000000000000e+01 1.574422836303710938e+01 -2.281731128692626953e+00 9.449084281921386719e+00 2.480877685546875000e+01 1.027735900878906250e+01 1.011025905609130859e+01
9.100000000000000000e+01 1.588851928710937500e+01 -2.144627571105957031e+00 7.440249919891357422e+00 2.089252471923828125e+01 8.499832153320312500e+00 8.668738365173339844e+00
9.200000000000000000e+01 1.603281021118164062e+01 -2.007524013519287109e+00 6.434195518493652344e+00 1.826211547851562500e+01 7.408893108367919922e+00 8.101157188415527344e+00
9.300000000000000000e+01 1.555575847625732422e+01 -2.380632638931274414e+00 8.881026268005371094e+00 3.366859436035156250e+01 1.276488590240478516e+01 1.130988502502441406e+01
9.400000000000000000e+01 1.567059707641601562e+01 -2.218061208724975586e+00 5.641179561614990234e+00 2.610071945190429688e+01 9.522569656372070312e+00 7.960078239440917969e+00
9.500000000000000000e+01 1.578543472290039062e+01 -2.055489778518676758e+00 4.258530139923095703e+00 2.184580993652343750e+01 7.831302165985107422e+00 6.640913963317871094e+00
9.600000000000000000e+01 1.590027332305908203e+01 -1.892918229103088379e+00 3.638963460922241211e+00 1.862835121154785156e+01 6.680194377899169922e+00 5.815018653869628906e+00
9.700000000000000000e+01 1.550498676300048828e+01 -2.351762771606445312e+00 4.428376197814941406e+00 3.477973175048828125e+01 1.176243209838867188e+01 7.529930591583251953e+00
9.800000000000000000e+01 1.558597755432128906e+01 -2.169944763183593750e+00 2.569279193878173828e+00 2.617469978332519531e+01 8.623193740844726562e+00 4.809447765350341797e+00
9.900000000000000000e+01 1.566696834564208984e+01 -1.988126635551452637e+00 1.849781394004821777e+00 2.163903617858886719e+01 7.046645164489746094e+00 3.843125343322753906e+00
1.000000000000000000e+02 1.574795913696289062e+01 -1.806308507919311523e+00 1.289995789527893066e+00 1.875690650939941406e+01 6.014070510864257812e+00 3.209954977035522461e+00
1.010000000000000000e+02 1.544956588745117188e+01 -2.333329677581787109e+00 1.346570849418640137e+00 3.383842849731445312e+01 1.055550003051757812e+01 2.777203083038330078e+00
1.020000000000000000e+02 1.549361038208007812e+01 -2.139222860336303711e+00 8.280280828475952148e-01 2.466145515441894531e+01 7.646844863891601562e+00 1.268929719924926758e+00
1.030000000000000000e+02 1.553765487670898438e+01 -1.945116043090820312e+00 2.640443444252014160e-01 2.013544273376464844e+01 6.119846343994140625e+00 8.021383285522460938e-01
1.040000000000000000e+02 1.558169841766357422e+01 -1.751009225845336914e+00 3.144545555114746094e-01 1.742482566833496094e+01 5.321784019470214844e+00 7.505079507827758789e-01
1.050000000000000000e+02 1.539161777496337891e+01 -2.326038599014282227e+00 3.456551730632781982e-01 3.057030487060546875e+01 9.274787902832031250e+00 -1.993514418601989746e+00
1.060000000000000000e+02 1.539702987670898438e+01 -2.127071380615234375e+00 6.766936182975769043e-02 2.140242576599121094e+01 6.441028594970703125e+00 -2.056042194366455078e+00
1.070000000000000000e+02 1.540244102478027344e+01 -1.928103923797607422e+00 6.353361159563064575e-02 1.728028678894042969e+01 5.203146457672119141e+00 -1.757537841796875000e+00
1.080000000000000000e+02 1.540785217285156250e+01 -1.729136586189270020e+00 -6.273298710584640503e-02 1.460785388946533203e+01 4.363536357879638672e+00 -1.613121986389160156e+00
1.090000000000000000e+02 1.533335876464843750e+01 -2.330169200897216797e+00 7.286783456802368164e-01 2.487668991088867188e+01 7.681610584259033203e+00 -5.821311473846435547e+00
1.100000000000000000e+02 1.529993057250976562e+01 -2.133955240249633789e+00 5.753088593482971191e-01 1.678182029724121094e+01 5.207138538360595703e+00 -4.375833511352539062e+00
1.110000000000000000e+02 1.526650238037109375e+01 -1.937741518020629883e+00 4.834035634994506836e-01 1.307732200622558594e+01 4.068217754364013672e+00 -3.513329982757568359e+00
1.120000000000000000e+02 1.523307418823242188e+01 -1.741527676582336426e+00 2.922730147838592529e-01 1.126881408691406250e+01 3.468326330184936523e+00 -2.927920341491699219e+00
1.130000000000000000e+02 1.527701854705810547e+01 -2.345562696456909180e+00 2.303136825561523438e+00 1.751512908935546875e+01 5.945479869842529297e+00 -7.808691024780273438e+00
1.140000000000000000e+02 1.520602989196777344e+01 -2.159611225128173828e+00 1.419832706451416016e+00 1.094623374938964844e+01 3.709820032119750977e+00 -5.121570587158203125e+00
1.150000000000000000e+02 1.513504123687744141e+01 -1.973659634590148926e+00 1.192743182182312012e+00 8.689596176147460938e+00 2.964701890945434570e+00 -3.914060115814208984e+00
1.160000000000000000e+02 1.506405258178710938e+01 -1.787708163261413574e+00 9.036639332771301270e-01 7.248970031738281250e+00 2.445790290832519531e+00 -3.133282423019409180e+00
1.170000000000000000e+02 1.522475242614746094e+01 -2.371630430221557617e+00 3.419458866119384766e+00 9.112143516540527344e+00 3.759480953216552734e+00 -7.159507751464843750e+00
1.180000000000000000e+02 1.511892127990722656e+01 -2.203057289123535156e+00 2.144951820373535156e+00 5.182044506072998047e+00 2.198098897933959961e+00 -4.158755302429199219e+00
1.190000000000000000e+02 1.501308917999267578e+01 -2.034484148025512695e+00 1.301297426223754883e+00 4.293180465698242188e+00 1.678343415260314941e+00 -2.618750810623168945e+00
1.200000000000000000e+02 1.490725708007812500e+01 -1.865910887718200684e+00 8.838179111480712891e-01 4.148190498352050781e+00 1.509602546691894531e+00 -2.398847579956054688e+00
1.210000000000000000e+02 1.517856216430664062e+01 -2.407374382019042969e+00 3.580953836441040039e+00 3.681736290454864502e-01 1.184738278388977051e+00 -3.906173467636108398e+00
1.220000000000000000e+02 1.504193687438964844e+01 -2.262630701065063477e+00 6.775004267692565918e-01 6.819409728050231934e-01 4.078324139118194580e-01 -8.037526607513427734e-01
1.230000000000000000e+02 1.490531158447265625e+01 -2.117887020111083984e+00 3.783522248268127441e-01 1.931556344032287598e+00 6.929725408554077148e-01 -1.118363499641418457e+00
1.240000000000000000e+02 1.476868534088134766e+01 -1.973143219947814941e+00 2.041005939245223999e-01 8.188619613647460938e-01 3.068887591361999512e-01 -8.182593584060668945e-01
1.250000000000000000e+02 1.514021492004394531e+01 -2.451426982879638672e+00 -3.610606193542480469e+00 -5.752019405364990234e+00 -2.808787822723388672e+00 3.504499435424804688e+00
1.260000000000000000e+02 1.497802352905273438e+01 -2.336051940917968750e+00 -1.667617917060852051e+00 4.336823523044586182e-01 -3.701806962490081787e-01 1.044108271598815918e+00
1.270000000000000000e+02 1.481583309173583984e+01 -2.220676660537719727e+00 -1.714707016944885254e+00 -1.058085322380065918e+00 -8.318377137184143066e-01 9.613465666770935059e-01
1.280000000000000000e+02 1.465364265441894531e+01 -2.105301618576049805e+00 -1.691331744194030762e+00 -4.115589857101440430e-01 -6.308672428131103516e-01 1.024932742118835449e+00
1.290000000000000000e+02 1.167247962951660156e+01 -9.175887703895568848e-01 -8.576444387435913086e-01 -1.527617126703262329e-01 -3.031218349933624268e-01 3.256440460681915283e-01
1.300000000000000000e+02 1.019458389282226562e+01 -1.317481875419616699e+00 -5.641198530793190002e-02 7.391612976789474487e-02 5.251243710517883301e-03 1.251939684152603149e-01
1.310000000000000000e+02 1.239425659179687500e+01 -1.383348584175109863e+00 -2.930900156497955322e-01 -1.371388137340545654e-02 -9.204117208719253540e-02 2.649088799953460693e-01
1.320000000000000000e+02 1.211882781982421875e+01 -1.848989486694335938e+00 1.040121197700500488e+00 -1.904198341071605682e-02 3.063237667083740234e-01 2.001816034317016602e-01
1.330000000000000000e+02 1.233119487762451172e+01 -1.599468827247619629e+00 2.087348401546478271e-01 -1.902501098811626434e-02 5.691294744610786438e-02 2.057089358568191528e-01
1.340000000000000000e+02 1.243636322021484375e+01 -1.155836105346679688e+00 -8.447611927986145020e-01 -9.054461866617202759e-02 -2.805917561054229736e-01 3.764039278030395508e-01
1.350000000000000000e+02 1.104251766204833984e+01 -7.910673022270202637e-01 -7.749943733215332031e-01 -6.032085791230201721e-02 -2.505945861339569092e-01 2.798287570476531982e-01
1.360000000000000000e+02 1.098169898986816406e+01 -1.746659517288208008e+00 5.817551016807556152e-01 4.830053541809320450e-03 1.759755462408065796e-01 1.725379675626754761e-01
1.370000000000000000e+02 1.031401634216308594e+01 -5.658320188522338867e-01 -6.757087111473083496e-01 -2.206371724605560303e-02 -2.093317210674285889e-01 1.905889213085174561e-01
1.380000000000000000e+02 1.171768379211425781e+01 -1.825492978096008301e+00 8.971157670021057129e-01 -9.985082596540451050e-02 2.391794919967651367e-01 1.832948327064514160e-01
1.390000000000000000e+02 1.231950187683105469e+01 -1.809598565101623535e+00 9.554735422134399414e-01 -2.771327830851078033e-02 2.783280909061431885e-01 1.525705605745315552e-01
1.400000000000000000e+02 1.206573390960693359e+01 -1.153795003890991211e+00 -6.579567193984985352e-01 -1.450657695531845093e-01 -2.409067451953887939e-01 2.837132513523101807e-01
1.410000000000000000e+02 1.128783607482910156e+01 -1.407987117767333984e+00 1.242555007338523865e-01 -5.362211912870407104e-02 2.119001373648643494e-02 1.564735025167465210e-01
1.420000000000000000e+02 1.167214584350585938e+01 -2.142662763595581055e+00 1.647684097290039062e+00 -1.193153187632560730e-01 4.585106372833251953e-01 2.890015244483947754e-01
1.430000000000000000e+02 1.226049613952636719e+01 -1.976689696311950684e+00 1.459159016609191895e+00 -7.512605935335159302e-02 4.152098596096038818e-01 1.797170639038085938e-01
1.440000000000000000e+02 1.217104339599609375e+01 -2.133757829666137695e+00 1.838643789291381836e+00 -1.165522113442420959e-01 5.166274905204772949e-01 1.937973499298095703e-01
1.450000000000000000e+02 1.206250190734863281e+01 -2.255544662475585938e+00 2.045447587966918945e+00 -1.445946097373962402e-01 5.702559351921081543e-01 2.634784579277038574e-01
1.460000000000000000e+02 1.174659919738769531e+01 -1.291239857673645020e+00 -2.683316171169281006e-01 -1.308788359165191650e-01 -1.197631359100341797e-01 2.100846618413925171e-01
1.470000000000000000e+02 1.196695899963378906e+01 -1.627266168594360352e+00 4.113384783267974854e-01 -9.502336382865905762e-02 9.489453583955764771e-02 1.717243641614913940e-01
1.480000000000000000e+02 1.200105381011962891e+01 -2.009348154067993164e+00 1.390244126319885254e+00 -5.643633380532264709e-02 4.001423418521881104e-01 2.709278464317321777e-01
1.490000000000000000e+02 1.280209827423095703e+01 -1.314457893371582031e+00 -6.877932548522949219e-01 -3.159638643264770508e-01 -3.011271357536315918e-01 4.001833498477935791e-01
1.500000000000000000e+02 1.360064888000488281e+01 -2.930106878280639648e+00 7.177242755889892578e+00 -3.336048424243927002e-01 2.053091287612915039e+00 1.382971763610839844e+00
1.510000000000000000e+02 1.576199150085449219e+01 -3.909443378448486328e+00 7.030584812164306641e+00 1.536861133575439453e+01 6.719758987426757812e+00 3.784527301788330078e+00
1.520000000000000000e+02 1.558289623260498047e+01 -3.684506654739379883e+00 9.310951232910156250e+00 1.629590797424316406e+01 7.682057857513427734e+00 4.988536357879638672e+00
1.530000000000000000e+02 1.609889984130859375e+01 -3.420460700988769531e+00 1.182273578643798828e+01 1.555084419250488281e+01 8.212074279785156250e+00 1.239949464797973633e+00
1.540000000000000000e+02 1.646512031555175781e+01 -2.875982522964477539e+00 1.713377952575683594e+01 1.129852962493896484e+01 8.529692649841308594e+00 3.300209522247314453e+00
1.550000000000000000e+02 1.656140899658203125e+01 -2.676322221755981445e+00 1.372127437591552734e+01 1.115647411346435547e+01 7.463324546813964844e+00 4.468675613403320312e+00
1.560000000000000000e+02 1.653104400634765625e+01 -2.435332298278808594e+00 1.256967735290527344e+01 1.147888278961181641e+01 7.214568138122558594e+00 6.556969642639160156e+00
1.570000000000000000e+02 1.326298332214355469e+01 -1.306087732315063477e+00 -2.047493457794189453e+00 -6.926091313362121582e-01 -8.220308423042297363e-01 1.133039355278015137e+00
1.580000000000000000e+02 1.341700553894042969e+01 -1.387251138687133789e+00 -1.957208156585693359e+00 -5.281674265861511230e-01 -7.456126809120178223e-01 1.110026001930236816e+00
1.590000000000000000e+02 1.508152866363525391e+01 -1.080421686172485352e+00 3.155858255922794342e-03 7.739576339721679688e+00 2.322819709777832031e+00 -1.978819012641906738e+00
1.600000000000000000e+02 1.564951801300048828e+01 -1.535812497138977051e+00 3.280803188681602478e-02 1.499056148529052734e+01 4.507010936737060547e+00 4.092769026756286621e-01
1.610000000000000000e+02 1.624057579040527344e+01 -1.821774959564208984e+00 5.393451690673828125e+00 1.629866600036621094e+01 6.507635116577148438e+00 6.979106426239013672e+00
1.620000000000000000e+02 1.224940013885498047e+01 -2.450344562530517578e+00 2.635995864868164062e+00 -7.129166275262832642e-02 7.694112062454223633e-01 4.565163552761077881e-01
1.630000000000000000e+02 1.345183372497558594e+01 -2.811879873275756836e+00 6.131406307220458984e+00 -3.899855613708496094e-01 1.722426176071166992e+00 9.865118265151977539e-01
1.640000000000000000e+02 1.448900890350341797e+01 -3.696142196655273438e+00 1.104972362518310547e+01 5.580338001251220703e+00 4.989018440246582031e+00 8.222146987915039062e+00
1.650000000000000000e+02 1.442861938476562500e+01 -3.449254751205444336e+00 1.202788162231445312e+01 3.471781969070434570e+00 4.649899005889892578e+00 6.991295337677001953e+00
1.660000000000000000e+02 1.347244644165039062e+01 5.530847981572151184e-02 -9.954448789358139038e-02 1.319844841957092285e+00 3.660901188850402832e-01 -7.000442743301391602e-01
1.670000000000000000e+02 1.365129947662353516e+01 -4.565753042697906494e-02 -7.204106450080871582e-02 1.392145276069641113e+00 3.960312604904174805e-01 -8.242662549018859863e-01
1.680000000000000000e+02 1.320765781402587891e+01 -5.117941498756408691e-01 -7.322498559951782227e-01 6.043875217437744141e-02 -2.015433162450790405e-01 2.266388572752475739e-02
1.690000000000000000e+02 1.435842800140380859e+01 -4.816270768642425537e-01 1.791486889123916626e-01 3.185057163238525391e+00 1.009261727333068848e+00 -1.547535061836242676e+00
1.700000000000000000e+02 1.454661083221435547e+01 -5.946230292320251465e-01 1.262255758047103882e-01 4.072887420654296875e+00 1.259733915328979492e+00 -1.663799762725830078e+00
1.710000000000000000e+02 1.577340698242187500e+01 -1.291957139968872070e+00 -1.807727515697479248e-01 1.417553329467773438e+01 4.198428153991699219e+00 1.104219436645507812e+00
1.720000000000000000e+02 1.292088890075683594e+01 -1.087679386138916016e+00 -2.268702507019042969e+00 -7.362831234931945801e-01 -9.014956951141357422e-01 1.095887541770935059e+00
1.730000000000000000e+02 1.397951221466064453e+01 -1.669023990631103516e+00 -1.749341726303100586e+00 -5.724456906318664551e-01 -6.965361833572387695e-01 1.025411248207092285e+00
1.740000000000000000e+02 1.360467052459716797e+01 -1.445129871368408203e+00 -1.891761183738708496e+00 -5.669101476669311523e-01 -7.376013994216918945e-01 1.004502534866333008e+00
1.750000000000000000e+02 1.432569408416748047e+01 -1.880646824836730957e+00 -1.729945540428161621e+00 -5.488790273666381836e-01 -6.836473345756530762e-01 1.023560643196105957e+00
1.760000000000000000e+02 1.449124240875244141e+01 -1.992212414741516113e+00 -1.739542603492736816e+00 -6.471486091613769531e-01 -7.160073518753051758e-01 9.750288724899291992e-01
1.770000000000000000e+02 1.645583343505859375e+01 -3.109083652496337891e+00 1.404771137237548828e+01 1.156763553619384766e+01 7.684604167938232422e+00 2.576209306716918945e+00
1.780000000000000000e+02 1.519153881072998047e+01 -1.537560701370239258e+00 1.704950779676437378e-01 9.434407234191894531e+00 2.881470680236816406e+00 -2.570170879364013672e+00
1.790000000000000000e+02 1.497819423675537109e+01 -1.593533873558044434e+00 4.988723099231719971e-01 6.452899932861328125e+00 2.085531711578369141e+00 -2.765171051025390625e+00
1.800000000000000000e+02 1.462887001037597656e+01 -1.832955241203308105e+00 -5.591792985796928406e-02 1.095947384834289551e+00 3.120088279247283936e-01 -6.504650115966796875e-01
1.810000000000000000e+02 1.436191272735595703e+01 -2.194529056549072266e+00 1.365263581275939941e+00 -2.108948864042758942e-02 4.032522439956665039e-01 -4.803877174854278564e-01
1.820000000000000000e+02 1.406795883178710938e+01 -2.439104795455932617e+00 4.817253589630126953e+00 -2.648899257183074951e-01 1.365709066390991211e+00 -4.133010208606719971e-01
1.830000000000000000e+02 1.427826309204101562e+01 -2.836957931518554688e+00 1.070305538177490234e+01 -3.385402262210845947e-01 3.109354496002197266e+00 1.637245774269104004e+00
1.840000000000000000e+02 1.429939651489257812e+01 -3.605236291885375977e+00 1.094735908508300781e+01 3.414563655853271484e+00 4.308577060699462891e+00 6.731978893280029297e+00
1.850000000000000000e+02 1.479934215545654297e+01 -3.526851654052734375e+00 1.205885410308837891e+01 8.306070327758789062e+00 6.109477519989013672e+00 8.932472229003906250e+00
1.860000000000000000e+02 1.360519599914550781e+01 -1.984590053558349609e+00 1.169567227363586426e+00 -1.079435423016548157e-01 3.184871077537536621e-01 -1.181702911853790283e-01
1.870000000000000000e+02 1.270501041412353516e+01 -1.505013823509216309e+00 -1.775208413600921631e-01 -1.452882289886474609e-01 -9.684272110462188721e-02 2.224341928958892822e-01
1.880000000000000000e+02 1.379494667053222656e+01 -3.302586793899536133e+00 9.392449378967285156e+00 4.094699025154113770e-01 2.940575838088989258e+00 3.613573074340820312e+00
1.890000000000000000e+02 1.413489913940429688e+01 -3.193053483963012695e+00 1.109193134307861328e+01 5.588541030883789062e-01 3.495235681533813477e+00 3.965863943099975586e+00
1.900000000000000000e+02 1.311697387695312500e+01 -2.918485641479492188e+00 5.692948818206787109e+00 -3.463956713676452637e-01 1.603965997695922852e+00 1.224549412727355957e+00
1.910000000000000000e+02 1.471164321899414062e+01 -3.786759614944458008e+00 9.894506454467773438e+00 7.948132991790771484e+00 5.352791786193847656e+00 8.409984588623046875e+00
1.920000000000000000e+02 1.460961914062500000e+01 -3.506733417510986328e+00 1.228481292724609375e+01 5.518820762634277344e+00 5.341090202331542969e+00 8.370826721191406250e+00
1.930000000000000000e+02 1.275377082824707031e+01 -2.400227308273315430e+00 3.011994361877441406e+00 -2.825887799263000488e-01 8.188217282295227051e-01 2.464143186807632446e-01
1.940000000000000000e+02 1.495639991760253906e+01 -3.575175285339355469e+00 1.165786361694335938e+01 1.154629421234130859e+01 6.961247444152832031e+00 9.954030990600585938e+00
1.950000000000000000e+02 1.625436973571777344e+01 -3.630909919738769531e+00 1.066285896301269531e+01 1.352090835571289062e+01 7.255130290985107422e+00 1.157975912094116211e+00
1.960000000000000000e+02 1.514827919006347656e+01 -3.910789489746093750e+00 8.384799957275390625e+00 1.256499481201171875e+01 6.284938335418701172e+00 8.021878242492675781e+00
1.970000000000000000e+02 1.508767318725585938e+01 -3.644154548645019531e+00 9.587772369384765625e+00 1.327134895324707031e+01 6.857736587524414062e+00 8.228358268737792969e+00
1.980000000000000000e+02 1.577035427093505859e+01 -3.726121664047241211e+00 9.032032966613769531e+00 1.690035629272460938e+01 7.779716968536376953e+00 3.622005462646484375e+00
1.990000000000000000e+02 1.396623992919921875e+01 -3.398971319198608398e+00 1.001035881042480469e+01 1.074704527854919434e+00 3.325518846511840820e+00 4.504646301269531250e+00
2.000000000000000000e+02 1.405135726928710938e+01 -2.645884275436401367e+00 7.396107673645019531e+00 -4.592875242233276367e-01 2.081046104431152344e+00 2.609371244907379150e-01
2.010000000000000000e+02 1.594300746917724609e+01 -3.512884140014648438e+00 1.100317859649658203e+01 1.706259536743164062e+01 8.419732093811035156e+00 1.964497923851013184e+00
2.020000000000000000e+02 1.434037971496582031e+01 -3.039353847503662109e+00 1.233551788330078125e+01 5.781682133674621582e-01 3.874105691909790039e+00 3.629893064498901367e+00
2.030000000000000000e+02 1.531862354278564453e+01 -3.706709861755371094e+00 8.822880744934082031e+00 1.616902542114257812e+01 7.497571945190429688e+00 7.990959644317626953e+00
2.040000000000000000e+02 1.632389450073242188e+01 -3.312473297119140625e+00 1.288867282867431641e+01 1.310009574890136719e+01 7.796630859375000000e+00 1.250631093978881836e+00
2.050000000000000000e+02 1.668106842041015625e+01 -2.948059558868408203e+00 1.437809181213378906e+01 1.032819080352783203e+01 7.411884784698486328e+00 3.067434072494506836e+00
2.060000000000000000e+02 1.541568279266357422e+01 -1.046123027801513672e+00 -4.188323318958282471e-01 1.029443073272705078e+01 2.962679386138916016e+00 -9.743741750717163086e-01
2.070000000000000000e+02 1.542228412628173828e+01 -1.515411138534545898e+00 -3.629682660102844238e-01 1.331101989746093750e+01 3.884415388107299805e+00 -1.258512496948242188e+00
2.080000000000000000e+02 1.587883949279785156e+01 -1.631851434707641602e+00 1.671892404556274414e+00 1.649908447265625000e+01 5.451292991638183594e+00 3.533006668090820312e+00
2.090000000000000000e+02 1.615646171569824219e+01 -1.909061670303344727e+00 6.132532119750976562e+00 1.738691520690917969e+01 7.055834293365478516e+00 7.756039142608642578e+00
2.100000000000000000e+02 1.474328422546386719e+01 -6.847652196884155273e-01 3.347604349255561829e-02 4.936919689178466797e+00 1.491118788719177246e+00 -1.718257308006286621e+00
2.110000000000000000e+02 1.447686290740966797e+01 -1.693047285079956055e+00 -2.298027575016021729e-01 7.480756640434265137e-01 1.554818749427795410e-01 -3.831371665000915527e-01
2.120000000000000000e+02 1.637284088134765625e+01 -2.220696449279785156e+00 1.038102149963378906e+01 1.384295368194580078e+01 7.267192363739013672e+00 7.623764038085937500e+00
2.130000000000000000e+02 1.604175567626953125e+01 -1.765134811401367188e+00 3.908301830291748047e+00 1.680089187622070312e+01 6.212758064270019531e+00 5.757994651794433594e+00
2.140000000000000000e+02 1.558485794067382812e+01 -1.171568155288696289e+00 -4.398548007011413574e-01 1.230344200134277344e+01 3.559076070785522461e+00 -4.032404124736785889e-01
2.150000000000000000e+02 1.662479019165039062e+01 -2.148219347000122070e+00 1.032887077331542969e+01 1.152314472198486328e+01 6.555604457855224609e+00 6.830550193786621094e+00
2.160000000000000000e+02 1.600007438659667969e+01 -1.407895803451538086e+00 1.294445514678955078e+00 1.438049983978271484e+01 4.702483654022216797e+00 2.834201574325561523e+00
2.170000000000000000e+02 1.340078735351562500e+01 -1.929170966148376465e+00 1.025497078895568848e+00 -1.325593590736389160e-01 2.678813040256500244e-01 -5.692953243851661682e-02
2.180000000000000000e+02 1.349577999114990234e+01 -1.711161732673645020e+00 -3.637125790119171143e-01 -1.935011595487594604e-01 -1.671641319990158081e-01 2.698981761932373047e-01
2.190000000000000000e+02 1.331663131713867188e+01 -1.622573614120483398e+00 -4.529214203357696533e-01 -1.857648789882659912e-01 -1.916058957576751709e-01 3.210767805576324463e-01
2.200000000000000000e+02 1.385446929931640625e+01 -1.872108101844787598e+00 -2.624598145484924316e-02 -1.330442428588867188e-01 -4.778707027435302734e-02 1.521841883659362793e-01
2.210000000000000000e+02 1.251882839202880859e+01 -1.869090557098388672e+00 1.037839889526367188e+00 -1.612815409898757935e-01 2.629674971103668213e-01 1.033859103918075562e-01
2.220000000000000000e+02 1.297467041015625000e+01 -1.418686628341674805e+00 -6.063558459281921387e-01 -1.908691078424453735e-01 -2.391674816608428955e-01 3.964253067970275879e-01
2.230000000000000000e+02 1.260694980621337891e+01 -1.687053322792053223e+00 3.770219981670379639e-01 -7.810102403163909912e-02 8.967629075050354004e-02 8.403459936380386353e-02
2.240000000000000000e+02 1.381621837615966797e+01 -2.030506372451782227e+00 1.144305944442749023e+00 -6.253878772258758545e-02 3.245301544666290283e-01 -1.026060655713081360e-01
2.250000000000000000e+02 1.312712097167968750e+01 -7.071546912193298340e-01 -1.256023645401000977e+00 -1.621838510036468506e-01 -4.254622459411621094e-01 4.500588178634643555e-01
2.260000000000000000e+02 1.417802715301513672e+01 -3.650066852569580078e-01 1.097308620810508728e-01 2.593965053558349609e+00 8.111087679862976074e-01 -1.283126354217529297e+00
2.270000000000000000e+02 1.372180080413818359e+01 -3.386633694171905518e-01 -1.279250681400299072e-01 1.277654767036437988e+00 3.449189066886901855e-01 -7.491954565048217773e-01
2.280000000000000000e+02 1.524058818817138672e+01 -9.366897344589233398e-01 -1.122428849339485168e-01 8.488200187683105469e+00 2.512787103652954102e+00 -1.413813471794128418e+00
2.290000000000000000e+02 1.423073196411132812e+01 -7.207549214363098145e-01 6.641704589128494263e-02 2.201586484909057617e+00 6.804010868072509766e-01 -1.164939880371093750e+00
2.300000000000000000e+02 1.492823505401611328e+01 -7.461249232292175293e-01 5.147138983011245728e-02 5.940331459045410156e+00 1.797540783882141113e+00 -1.904971837997436523e+00
2.310000000000000000e+02 1.539318466186523438e+01 -1.319505572319030762e+00 -1.989850550889968872e-01 1.159342575073242188e+01 3.418332338333129883e+00 -1.213915705680847168e+00
2.320000000000000000e+02 1.508345031738281250e+01 -8.261000514030456543e-01 -1.619432419538497925e-01 7.565502643585205078e+00 2.221067905426025391e+00 -1.819565296173095703e+00
2.330000000000000000e+02 1.243823909759521484e+01 -2.058790683746337891e+00 1.733620643615722656e+00 -1.452428698539733887e-01 4.765133261680603027e-01 1.134335696697235107e-01
2.340000000000000000e+02 1.310595321655273438e+01 -2.143361330032348633e+00 2.155249834060668945e+00 -2.261842340230941772e-01 5.787196755409240723e-01 -3.154844790697097778e-02
2.350000000000000000e+02 1.234981536865234375e+01 -2.253875017166137695e+00 2.082612752914428711e+00 -1.439482122659683228e-01 5.815994143486022949e-01 2.347865849733352661e-01
2.360000000000000000e+02 1.302937030792236328e+01 -8.996399044990539551e-01 -1.451863408088684082e+00 -4.879258275032043457e-01 -5.819367766380310059e-01 7.331818938255310059e-01
2.370000000000000000e+02 1.429156970977783203e+01 -2.408304214477539062e+00 4.848623752593994141e+00 -1.514207571744918823e-01 1.409160852432250977e+00 -6.536782979965209961e-01
2.380000000000000000e+02 1.415540218353271484e+01 -2.098954200744628906e+00 1.077689528465270996e+00 -6.997358053922653198e-02 3.023147881031036377e-01 -1.837369799613952637e-01
2.390000000000000000e+02 1.310441493988037109e+01 -1.193184018135070801e+00 -2.023210287094116211e+00 -6.380542516708374023e-01 -7.983793616294860840e-01 1.201677680015563965e+00
2.400000000000000000e+02 1.294338035583496094e+01 -2.823683261871337891e+00 4.883550167083740234e+00 -2.950888276100158691e-01 1.376538395881652832e+00 9.577632546424865723e-01
2.410000000000000000e+02 1.381418037414550781e+01 -2.652418613433837891e+00 6.364797592163085938e+00 -3.860931992530822754e-01 1.793611288070678711e+00 4.236017763614654541e-01
2.420000000000000000e+02 1.413060474395751953e+01 -3.503228425979614258e+00 1.064221000671386719e+01 1.881362438201904297e+00 3.757071733474731445e+00 5.606913566589355469e+00
2.430000000000000000e+02 1.328723430633544922e+01 -3.016761541366577148e+00 6.433711528778076172e+00 -3.056215345859527588e-01 1.838427066802978516e+00 1.518332600593566895e+00
2.440000000000000000e+02 1.260569667816162109e+01 -2.629870414733886719e+00 3.538480043411254883e+00 -2.190563976764678955e-01 9.958270788192749023e-01 6.335093975067138672e-01
2.450000000000000000e+02 1.292015552520751953e+01 -2.511097431182861328e+00 3.536691904067993164e+00 -2.533089816570281982e-01 9.850148558616638184e-01 3.853958845138549805e-01
2.460000000000000000e+02 1.359224891662597656e+01 -2.610767602920532227e+00 5.529086112976074219e+00 -3.590458929538726807e-01 1.551012039184570312e+00 4.962838590145111084e-01
2.470000000000000000e+02 1.314461421966552734e+01 -1.524270653724670410e+00 -5.376734137535095215e-01 -2.447880953550338745e-01 -2.347384542226791382e-01 3.432025015354156494e-01
2.480000000000000000e+02 1.286721992492675781e+01 -1.616878867149353027e+00 5.762172117829322815e-02 -1.910510063171386719e-01 -4.002878442406654358e-02 1.885221898555755615e-01
2.490000000000000000e+02 1.387112998962402344e+01 -1.147969365119934082e+00 -5.437330603599548340e-01 2.472351491451263428e-01 -8.894936740398406982e-02 1.889817975461483002e-02
2.500000000000000000e+02 1.382751941680908203e+01 -1.488962918519973755e-01 -7.671219855546951294e-02 1.746142745018005371e+00 5.008291602134704590e-01 -9.457263946533203125e-01
2.510000000000000000e+02 1.355637550354003906e+01 -2.310870289802551270e-01 -2.454240620136260986e-01 1.054492115974426270e+00 2.427204251289367676e-01 -6.421203017234802246e-01
2.520000000000000000e+02 1.242996311187744141e+01 -2.539482593536376953e+00 3.056142091751098633e+00 -2.780846953392028809e-01 8.334172368049621582e-01 4.505537450313568115e-01
2.530000000000000000e+02 1.398232364654541016e+01 -2.283791780471801758e+00 3.100898742675781250e+00 -7.212629169225692749e-02 9.086316823959350586e-01 -5.083501338958740234e-01
2.540000000000000000e+02 1.394682979583740234e+01 -3.086452484130859375e+00 9.669092178344726562e+00 1.754391565918922424e-02 2.905990839004516602e+00 2.729200839996337891e+00
2.550000000000000000e+02 1.332264328002929688e+01 -2.367528915405273438e+00 3.416673660278320312e+00 -2.911194860935211182e-01 9.376662969589233398e-01 8.693706989288330078e-02
2.560000000000000000e+02 1.368767642974853516e+01 -2.409769535064697266e+00 4.255305290222167969e+00 -2.549902498722076416e-01 1.200094461441040039e+00 -1.534031033515930176e-01
2.570000000000000000e+02 1.355312347412109375e+01 -2.176479339599609375e+00 2.420599222183227539e+00 -1.608570218086242676e-01 6.779226064682006836e-01 -1.681129187345504761e-01
2.580000000000000000e+02 1.333862018585205078e+01 -2.152498483657836914e+00 2.238387584686279297e+00 -2.021156847476959229e-01 6.108815670013427734e-01 -9.994975477457046509e-02
2.590000000000000000e+02 1.286037063598632812e+01 -2.139249324798583984e+00 2.035567045211791992e+00 -1.784447431564331055e-01 5.571367144584655762e-01 7.877470552921295166e-02
2.600000000000000000e+02 1.430731105804443359e+01 -1.550982832908630371e+00 -4.577586352825164795e-01 5.003252625465393066e-01 1.276999525725841522e-02 -1.440407186746597290e-01
2.610000000000000000e+02 1.415537738800048828e+01 -1.771791219711303711e+00 -1.754931926727294922e+00 -6.082891225814819336e-01 -7.089663147926330566e-01 1.000792980194091797e+00
2.620000000000000000e+02 1.337665939331054688e+01 -8.055286407470703125e-01 -8.791348338127136230e-01 1.622902462258934975e-03 -2.632535696029663086e-01 2.452090382575988770e-01
2.630000000000000000e+02 1.405421638488769531e+01 -5.712091922760009766e-01 -2.998371049761772156e-02 1.852873206138610840e+00 5.468668341636657715e-01 -9.588860869407653809e-01
2.640000000000000000e+02 1.449292564392089844e+01 -1.335792064666748047e+00 2.806385159492492676e-01 2.293787956237792969e+00 7.723278999328613281e-01 -1.298130750656127930e+00
2.650000000000000000e+02 1.444324207305908203e+01 -8.762205243110656738e-01 2.479379177093505859e-01 2.975191831588745117e+00 9.669389724731445312e-01 -1.519399404525756836e+00
2.660000000000000000e+02 1.470793628692626953e+01 -9.513736367225646973e-01 2.871944010257720947e-01 4.505624294281005859e+00 1.437845587730407715e+00 -1.890373826026916504e+00
2.670000000000000000e+02 1.341024971008300781e+01 -2.521405696868896484e+00 4.490993499755859375e+00 -3.926072716712951660e-01 1.229515910148620605e+00 2.770983874797821045e-01
2.680000000000000000e+02 1.431357288360595703e+01 -1.140560388565063477e+00 5.293778330087661743e-02 1.845066308975219727e+00 5.694012641906738281e-01 -1.033983349800109863e+00
2.690000000000000000e+02 1.337956428527832031e+01 -1.329434663057327271e-01 -2.816741168498992920e-01 9.728365540504455566e-01 2.073487341403961182e-01 -4.330054223537445068e-01
2.700000000000000000e+02 1.328874969482421875e+01 -3.209411203861236572e-01 -4.900541007518768311e-01 4.431616365909576416e-01 -1.406774390488862991e-02 -2.318283319473266602e-01
2.710000000000000000e+02 1.388319587707519531e+01 -4.520098268985748291e-01 -7.613937556743621826e-02 1.582332253456115723e+00 4.518578648567199707e-01 -8.526284694671630859e-01
2.720000000000000000e+02 1.374427127838134766e+01 -6.493877172470092773e-01 -2.799056768417358398e-01 9.263324737548828125e-01 1.939280480146408081e-01 -4.752333164215087891e-01
2.730000000000000000e+02 1.346226119995117188e+01 -4.033681154251098633e-01 -4.356941580772399902e-01 7.650098204612731934e-01 9.879469126462936401e-02 -3.570092320442199707e-01
2.740000000000000000e+02 1.400162792205810547e+01 -2.547191977500915527e-01 1.196119002997875214e-02 2.115683078765869141e+00 6.382932662963867188e-01 -1.072740316390991211e+00
2.750000000000000000e+02 1.268302726745605469e+01 -1.926076889038085938e+00 1.346580266952514648e+00 -1.177463829517364502e-01 3.686501681804656982e-01 2.332019433379173279e-02
2.760000000000000000e+02 1.301917934417724609e+01 -1.755226135253906250e+00 4.744026958942413330e-01 -1.311270296573638916e-01 1.029826998710632324e-01 9.270526468753814697e-02
2.770000000000000000e+02 1.254920387268066406e+01 -2.327761650085449219e+00 2.507229804992675781e+00 -1.827586740255355835e-01 6.973413825035095215e-01 2.546421885490417480e-01
2.780000000000000000e+02 1.277391147613525391e+01 -2.726591825485229492e+00 4.178972721099853516e+00 -3.375406861305236816e-01 1.152429580688476562e+00 7.291424274444580078e-01
2.790000000000000000e+02 1.307768440246582031e+01 -2.613776683807373047e+00 4.369141101837158203e+00 -3.575363457202911377e-01 1.203481554985046387e+00 4.955784380435943604e-01
2.800000000000000000e+02 1.345110702514648438e+01 -3.117332935333251953e+00 7.165283203125000000e+00 -2.058642804622650146e-01 2.087825536727905273e+00 2.003061056137084961e+00
2.810000000000000000e+02 1.361873722076416016e+01 -3.212887525558471680e+00 8.330734252929687500e+00 1.081301737576723099e-02 2.502464294433593750e+00 2.733367204666137695e+00
2.820000000000000000e+02 1.374617004394531250e+01 -3.025412321090698242e+00 8.313006401062011719e+00 -2.177412807941436768e-01 2.428579330444335938e+00 1.974757790565490723e+00
2.830000000000000000e+02 1.445549869537353516e+01 -3.208606243133544922e+00 1.354162597656250000e+01 2.081077814102172852e+00 4.686810970306396484e+00 5.934462070465087891e+00
2.840000000000000000e+02 1.428560352325439453e+01 -3.332226037979125977e+00 1.195459747314453125e+01 1.946476697921752930e+00 4.170322418212890625e+00 5.589437484741210938e+00
2.850000000000000000e+02 1.457452774047851562e+01 -3.347678899765014648e+00 1.349819278717041016e+01 4.295853137969970703e+00 5.338213443756103516e+00 7.795784950256347656e+00
2.860000000000000000e+02 1.319515037536621094e+01 -1.867129325866699219e+00 7.915879487991333008e-01 -1.511224508285522461e-01 1.921396404504776001e-01 1.774682104587554932e-02
2.870000000000000000e+02 1.367807197570800781e+01 -1.795251846313476562e+00 -2.322312742471694946e-01 -1.508214026689529419e-01 -1.149158030748367310e-01 2.259547859430313110e-01
2.880000000000000000e+02 1.399851799011230469e+01 -1.972491860389709473e+00 6.009042263031005859e-01 -7.898405939340591431e-02 1.565760523080825806e-01 2.788830548524856567e-02
2.890000000000000000e+02 1.377584743499755859e+01 -2.212357759475708008e+00 2.479400157928466797e+00 -1.014785245060920715e-01 7.133764624595642090e-01 -3.211014568805694580e-01
2.900000000000000000e+02 1.341843318939208984e+01 -5.815806388854980469e-01 -5.878286957740783691e-01 3.908896744251251221e-01 -5.908170342445373535e-02 -1.071461737155914307e-01
2.910000000000000000e+02 1.325067996978759766e+01 -1.018611192703247070e+00 -1.539078950881958008e+00 -3.655184805393218994e-01 -5.713792443275451660e-01 7.395030856132507324e-01
2.920000000000000000e+02 1.362456703186035156e+01 -1.165035009384155273e+00 -1.129222035408020020e+00 -2.261067181825637817e-01 -4.065986275672912598e-01 5.670711398124694824e-01
2.930000000000000000e+02 1.395167827606201172e+01 -1.352000474929809570e+00 -1.011080503463745117e+00 6.825664639472961426e-02 -2.828471362590789795e-01 3.124126493930816650e-01
2.940000000000000000e+02 1.379904747009277344e+01 -1.549367070198059082e+00 -1.808829784393310547e+00 -6.109005212783813477e-01 -7.259190678596496582e-01 9.951764941215515137e-01
2.950000000000000000e+02 1.479134368896484375e+01 -1.700466156005859375e+00 6.861988902091979980e-01 3.042798280715942383e+00 1.118699193000793457e+00 -1.981104612350463867e+00
2.960000000000000000e+02 1.465089702606201172e+01 -1.531477689743041992e+00 4.381507635116577148e-01 2.837195873260498047e+00 9.826039671897888184e-01 -1.675734758377075195e+00
2.970000000000000000e+02 1.427658653259277344e+01 -2.621991395950317383e+00 7.971548080444335938e+00 -3.746974170207977295e-01 2.279055118560791016e+00 -3.182773664593696594e-02
2.980000000000000000e+02 1.494096946716308594e+01 -9.241931438446044922e-01 5.934627354145050049e-02 6.338963985443115234e+00 1.919493079185485840e+00 -2.090712785720825195e+00
2.990000000000000000e+02 1.518178939819335938e+01 -1.342866063117980957e+00 -5.283889546990394592e-02 9.342239379882812500e+00 2.786820173263549805e+00 -2.228837728500366211e+00
3.000000000000000000e+02 1.526779174804687500e+01 -1.191259145736694336e+00 -1.725023090839385986e-01 9.522597312927246094e+00 2.805028438568115234e+00 -1.706508517265319824e+00
3.010000000000000000e+02 1.627160644531250000e+01 -2.065813302993774414e+00 8.227639198303222656e+00 1.587313079833984375e+01 7.230230808258056641e+00 8.130620956420898438e+00
3.020000000000000000e+02 1.484428691864013672e+01 -1.409156322479248047e+00 4.766570925712585449e-01 4.951797008514404297e+00 1.628536224365234375e+00 -2.248103618621826172e+00
3.030000000000000000e+02 1.639446640014648438e+01 -2.049915075302124023e+00 8.707956314086914062e+00 1.443549156188964844e+01 6.943034172058105469e+00 7.489117622375488281e+00
3.040000000000000000e+02 1.489480972290039062e+01 -3.652211189270019531e+00 1.094215202331542969e+01 9.943369865417480469e+00 6.265656471252441406e+00 9.083163261413574219e+00
3.050000000000000000e+02 1.576680660247802734e+01 -3.602736949920654297e+00 9.747270584106445312e+00 1.877810478210449219e+01 8.557612419128417969e+00 3.123322010040283203e+00
3.060000000000000000e+02 1.413905334472656250e+01 -1.272613525390625000e+00 -7.732558250427246094e-02 7.363775372505187988e-01 1.977155953645706177e-01 -5.125402808189392090e-01
3.070000000000000000e+02 1.496980381011962891e+01 -1.254104495048522949e+00 2.606291472911834717e-01 6.684871673583984375e+00 2.083650350570678711e+00 -2.419014215469360352e+00
3.080000000000000000e+02 1.275373172760009766e+01 -1.776335716247558594e+00 5.435354113578796387e-01 -9.381939470767974854e-02 1.349148154258728027e-01 7.205776125192642212e-02
3.090000000000000000e+02 1.633551979064941406e+01 -1.677151799201965332e+00 4.108247280120849609e+00 1.483853435516357422e+01 5.684034347534179688e+00 6.092459678649902344e+00
3.100000000000000000e+02 1.359613323211669922e+01 -5.187916755676269531e-01 -3.867844641208648682e-01 7.828998565673828125e-01 1.188346296548843384e-01 -4.188874959945678711e-01
3.110000000000000000e+02 1.602922248840332031e+01 -3.592454195022583008e+00 1.074468135833740234e+01 1.572400283813476562e+01 7.940605163574218750e+00 1.597503423690795898e+00
3.120000000000000000e+02 1.411797046661376953e+01 -1.456749916076660156e+00 -8.257068395614624023e-01 1.894070953130722046e-01 -1.908899098634719849e-01 7.718519866466522217e-02
3.130000000000000000e+02 1.392513656616210938e+01 -7.463317513465881348e-01 -1.828748285770416260e-01 1.243063926696777344e+00 3.180567026138305664e-01 -6.791355609893798828e-01
3.140000000000000000e+02 1.385890674591064453e+01 -9.248138070106506348e-01 -4.050585031509399414e-01 6.718727350234985352e-01 8.004425466060638428e-02 -3.184257745742797852e-01
3.150000000000000000e+02 1.406015300750732422e+01 -8.834884762763977051e-01 -1.273319870233535767e-01 1.406769037246704102e+00 3.838311135768890381e-01 -7.403084039688110352e-01
3.160000000000000000e+02 1.387296867370605469e+01 -2.455352544784545898e+00 4.915714263916015625e+00 -2.719933688640594482e-01 1.393116235733032227e+00 -9.312023967504501343e-02
3.170000000000000000e+02 1.379330921173095703e+01 -2.846668243408203125e+00 7.537334918975830078e+00 -3.886455595493316650e-01 2.144606828689575195e+00 1.248028755187988281e+00
3.180000000000000000e+02 1.403030967712402344e+01 -2.862211465835571289e+00 9.054427146911621094e+00 -2.846122384071350098e-01 2.630944490432739258e+00 1.521262645721435547e+00
3.190000000000000000e+02 1.410179328918457031e+01 -1.083275675773620605e+00 -9.231920540332794189e-02 1.261003017425537109e+00 3.506051599979400635e-01 -6.512540578842163086e-01
3.200000000000000000e+02 1.363439941406250000e+01 -8.851354122161865234e-01 -6.459569931030273438e-01 3.059565424919128418e-01 -1.020001322031021118e-01 -1.434556674212217331e-02
3.210000000000000000e+02 1.285673999786376953e+01 -1.910634994506835938e+00 1.152161836624145508e+00 -1.656116545200347900e-01 2.959650754928588867e-01 -1.088862866163253784e-02
3.220000000000000000e+02 1.263597106933593750e+01 -2.115049123764038086e+00 1.865609526634216309e+00 -1.957466751337051392e-01 5.009588599205017090e-01 1.431313455104827881e-01
3.230000000000000000e+02 1.340406608581542969e+01 -1.189293742179870605e+00 -1.535954833030700684e+00 -3.964289724826812744e-01 -5.797151327133178711e-01 8.280881047248840332e-01
3.240000000000000000e+02 1.473249340057373047e+01 -1.208990573883056641e+00 3.152788877487182617e-01 4.310583591461181641e+00 1.387758731842041016e+00 -1.973504424095153809e+00
3.250000000000000000e+02 1.350598144531250000e+01 -2.361580610275268555e+00 3.585793495178222656e+00 -2.784564793109893799e-01 9.922010898590087891e-01 -9.641370922327041626e-02
3.260000000000000000e+02 1.326500701904296875e+01 -2.701813220977783203e+00 5.091153621673583984e+00 -3.616052269935607910e-01 1.418864488601684570e+00 6.752563714981079102e-01
3.270000000000000000e+02 1.311118507385253906e+01 -2.399936676025390625e+00 3.358117580413818359e+00 -2.872585654258728027e-01 9.212577342987060547e-01 2.003663927316665649e-01
3.280000000000000000e+02 1.049942493438720703e+01 6.199907660484313965e-01 -1.423675179481506348e+00 -3.263773322105407715e-01 -5.250157713890075684e-01 3.700334727764129639e-01
3.290000000000000000e+02 1.108304309844970703e+01 -1.593523174524307251e-01 -1.920277357101440430e+00 -3.187465667724609375e-01 -6.717071533203125000e-01 7.956886887550354004e-01
3.300000000000000000e+02 1.039925003051757812e+01 1.220646649599075317e-01 -2.289235353469848633e+00 -3.646625280380249023e-01 -7.961693406105041504e-01 7.169177532196044922e-01
3.310000000000000000e+02 1.238772296905517578e+01 -7.130144834518432617e-01 -2.014969348907470703e+00 -3.724046051502227783e-01 -7.162121534347534180e-01 8.940858244895935059e-01
3.320000000000000000e+02 1.307458877563476562e+01 -2.765288352966308594e-01 -5.525720119476318359e-01 9.359185397624969482e-02 -1.376940459012985229e-01 -1.399097591638565063e-01
3.330000000000000000e+02 1.286093807220458984e+01 -7.541997432708740234e-01 -1.547054290771484375e+00 -4.813269972801208496e-01 -6.085144281387329102e-01 7.957963347434997559e-01
3.340000000000000000e+02 1.302594757080078125e+01 -4.536432623863220215e-01 -9.445763230323791504e-01 7.365812361240386963e-02 -2.612754702568054199e-01 3.871202468872070312e-02
3.350000000000000000e+02 1.233807659149169922e+01 2.854430973529815674e-01 -6.662257313728332520e-01 7.233211398124694824e-02 -1.781680881977081299e-01 1.133408024907112122e-01
3.360000000000000000e+02 1.303915977478027344e+01 1.808295547962188721e-01 -1.795544177293777466e-01 6.000283956527709961e-01 1.261421889066696167e-01 -3.942076861858367920e-01
3.370000000000000000e+02 1.062076950073242188e+01 1.104696631431579590e+00 -7.401002049446105957e-01 -2.610764503479003906e-01 -3.003529906272888184e-01 2.468143999576568604e-01
3.380000000000000000e+02 1.132055568695068359e+01 8.194160461425781250e-01 -7.484080791473388672e-01 -1.153235957026481628e-01 -2.591195106506347656e-01 1.405355334281921387e-01
3.390000000000000000e+02 1.254665660858154297e+01 -3.262725174427032471e-01 -1.281098842620849609e+00 -1.775249987840652466e-01 -4.375871717929840088e-01 4.212751388549804688e-01
3.400000000000000000e+02 1.287616443634033203e+01 -4.757958054542541504e-01 -1.330536484718322754e+00 -1.340176165103912354e-01 -4.393662512302398682e-01 3.186920583248138428e-01
3.410000000000000000e+02 1.307181549072265625e+01 -9.258882701396942139e-02 -4.456717967987060547e-01 3.052614927291870117e-01 -4.212309420108795166e-02 -3.081688582897186279e-01
3.420000000000000000e+02 1.171142673492431641e+01 2.770397663116455078e-01 -1.129535675048828125e+00 -1.432938277721405029e-01 -3.818488419055938721e-01 3.759919703006744385e-01
3.430000000000000000e+02 1.175608158111572266e+01 -4.144109189510345459e-01 -1.935566544532775879e+00 -4.051815867424011230e-01 -7.022244334220886230e-01 8.377296924591064453e-01
3.440000000000000000e+02 1.114478015899658203e+01 3.597521185874938965e-01 -1.580027699470520020e+00 -2.562887072563171387e-01 -5.508949160575866699e-01 5.234451889991760254e-01
3.450000000000000000e+02 1.295753002166748047e+01 -6.078364253044128418e-01 -1.392728567123413086e+00 -2.418544590473175049e-01 -4.903749227523803711e-01 5.073952078819274902e-01
3.460000000000000000e+02 1.273786640167236328e+01 -5.986347198486328125e-01 -1.673862934112548828e+00 -5.038698911666870117e-01 -6.533198356628417969e-01 6.470578312873840332e-01
3.470000000000000000e+02 1.274841022491455078e+01 -8.620990514755249023e-01 -1.874293804168701172e+00 -6.945549845695495605e-01 -7.706546783447265625e-01 1.009434938430786133e+00
3.480000000000000000e+02 1.285120964050292969e+01 -2.461651265621185303e-01 -8.400072455406188965e-01 1.558545678853988647e-01 -2.052458077669143677e-01 4.209540784358978271e-02
3.490000000000000000e+02 8.869457244873046875e+00 3.041950166225433350e-01 -1.581497550010681152e+00 -8.417576551437377930e-03 -4.769745469093322754e-01 1.428738385438919067e-01
3.500000000000000000e+02 9.263586997985839844e+00 1.199647307395935059e+00 -9.474001526832580566e-01 -2.299878746271133423e-01 -3.532164096832275391e-01 4.392120540142059326e-01
3.510000000000000000e+02 9.784010887145996094e+00 8.296472430229187012e-01 -1.195177316665649414e+00 -3.198195993900299072e-01 -4.544990658760070801e-01 3.874896168708801270e-01
3.520000000000000000e+02 6.786152362823486328e+00 3.964152634143829346e-01 -8.750072121620178223e-01 1.683518756181001663e-03 -2.619971036911010742e-01 1.039506047964096069e-01
3.530000000000000000e+02 7.530555725097656250e+00 3.708816170692443848e-01 -1.083243966102600098e+00 3.030166774988174438e-02 -3.158827126026153564e-01 8.937516808509826660e-02
3.540000000000000000e+02 4.922715187072753906e+00 1.152722477912902832e+00 -3.894991874694824219e-01 -1.870969124138355255e-02 -1.224626600742340088e-01 2.000792175531387329e-01
3.550000000000000000e+02 3.688813447952270508e+00 4.131651520729064941e-01 -2.495538741350173950e-01 -4.881078843027353287e-03 -7.633048295974731445e-02 6.435862928628921509e-02
3.560000000000000000e+02 2.563667535781860352e+00 1.145097732543945312e+00 -1.261866241693496704e-01 -3.080796077847480774e-02 -4.709837585687637329e-02 1.123015880584716797e-01
3.570000000000000000e+02 1.792344331741333008e+00 1.141945004463195801e+00 -6.683515012264251709e-02 -3.655311092734336853e-02 -3.101647831499576569e-02 7.404454797506332397e-02
3.580000000000000000e+02 2.139188528060913086e+00 4.050976932048797607e-01 -6.553263962268829346e-02 -7.772221229970455170e-03 -2.199145779013633728e-02 3.653905168175697327e-02
3.590000000000000000e+02 3.835110962390899658e-01 9.692106246948242188e-01 -5.380213726311922073e-03 -1.446357648819684982e-02 -5.953136831521987915e-03 7.916950620710849762e-03
3.600000000000000000e+02 6.883544325828552246e-01 4.208092093467712402e-01 -3.027634462341666222e-03 -4.592685028910636902e-03 -2.286095870658755302e-03 6.766287144273519516e-03
3.610000000000000000e+02 2.913419246673583984e+00 4.108678102493286133e-01 -1.439019888639450073e-01 -7.162663619965314865e-03 -4.531939327716827393e-02 5.157203227281570435e-02
3.620000000000000000e+02 3.349244117736816406e+00 1.150867819786071777e+00 -2.005756050348281860e-01 -2.504924498498439789e-02 -6.768745183944702148e-02 1.470093280076980591e-01
3.630000000000000000e+02 4.135984420776367188e+00 1.153165102005004883e+00 -2.886157035827636719e-01 -2.198653668165206909e-02 -9.318067133426666260e-02 1.764737516641616821e-01
3.640000000000000000e+02 4.464198112487792969e+00 4.127224981784820557e-01 -3.780070245265960693e-01 -5.585653707385063171e-03 -1.150778010487556458e-01 7.400817424058914185e-02
3.650000000000000000e+02 6.014423370361328125e+00 4.051896929740905762e-01 -6.924118399620056152e-01 -8.808108977973461151e-03 -2.103659808635711670e-01 9.067719429731369019e-02
3.660000000000000000e+02 5.709211349487304688e+00 1.148327946662902832e+00 -5.004581212997436523e-01 -2.080675959587097168e-02 -1.563794761896133423e-01 2.216063141822814941e-01
3.670000000000000000e+02 6.495631694793701172e+00 1.145189642906188965e+00 -6.187552809715270996e-01 -2.264181897044181824e-02 -1.924191266298294067e-01 2.400879412889480591e-01
3.680000000000000000e+02 8.199295997619628906e+00 2.989732325077056885e-01 -1.264873623847961426e+00 -3.793391957879066467e-02 -3.908422589302062988e-01 5.739362910389900208e-02
3.690000000000000000e+02 8.644807815551757812e+00 8.411970138549804688e-01 -1.164439082145690918e+00 -6.623190641403198242e-02 -3.692013025283813477e-01 3.075386583805084229e-01
3.700000000000000000e+02 9.642141342163085938e+00 3.155571222305297852e-01 -2.139118909835815430e+00 -1.909962147474288940e-01 -6.990345716476440430e-01 3.649244010448455811e-01
3.710000000000000000e+02 9.902910232543945312e+00 1.274090170860290527e+00 -7.439463138580322266e-01 -2.537405490875244141e-01 -2.993060648441314697e-01 3.262813091278076172e-01
3.720000000000000000e+02 8.034455299377441406e+00 1.110881567001342773e+00 -8.995924592018127441e-01 -5.320255830883979797e-02 -2.858385145664215088e-01 3.267760574817657471e-01
3.730000000000000000e+02 7.278706550598144531e+00 1.136415243148803711e+00 -7.397086620330810547e-01 -1.220967620611190796e-02 -2.255755066871643066e-01 2.622638940811157227e-01
3.740000000000000000e+02 1.090141892433166504e+00 1.160809159278869629e+00 -3.121375106275081635e-02 -3.853312879800796509e-02 -2.092406339943408966e-02 4.167755693197250366e-02
3.750000000000000000e+02 1.379211068153381348e+00 4.019450545310974121e-01 -2.099346555769443512e-02 -9.669212624430656433e-03 -9.198803454637527466e-03 1.802187971770763397e-02
3.760000000000000000e+02 5.239348888397216797e+00 4.083279371261596680e-01 -5.252975225448608398e-01 -2.589881885796785355e-03 -1.583662182092666626e-01 8.340753614902496338e-02
3.770000000000000000e+02 1.040350198745727539e+00 -1.143280267715454102e+00 -4.413249716162681580e-02 -6.434412300586700439e-02 -3.254298493266105652e-02 -7.860742509365081787e-02
3.780000000000000000e+02 7.083159923553466797e+00 -3.783236145973205566e-01 -8.698947429656982422e-01 7.078599184751510620e-03 -2.588448226451873779e-01 -2.498974837362766266e-02
3.790000000000000000e+02 9.391937255859375000e+00 -1.125243306159973145e+00 -3.203974068164825439e-01 9.741996973752975464e-02 -6.689323484897613525e-02 1.148941069841384888e-01
3.800000000000000000e+02 8.707989692687988281e+00 -3.791981339454650879e-01 -8.745828270912170410e-01 1.239378005266189575e-02 -2.586567103862762451e-01 1.278697140514850616e-02
3.810000000000000000e+02 7.896021366119384766e+00 -3.777133226394653320e-01 -8.946483135223388672e-01 6.305593531578779221e-03 -2.665028274059295654e-01 -8.576799184083938599e-03
3.820000000000000000e+02 6.270441055297851562e+00 -3.787326812744140625e-01 -8.079077601432800293e-01 4.855313338339328766e-03 -2.409157305955886841e-01 -3.847622871398925781e-02
3.830000000000000000e+02 4.645446777343750000e+00 -3.803295791149139404e-01 -5.933246016502380371e-01 3.895064117386937141e-03 -1.768288612365722656e-01 -6.068897247314453125e-02
3.840000000000000000e+02 3.020702362060546875e+00 -3.771602213382720947e-01 -2.980921566486358643e-01 -2.719678916037082672e-03 -9.024355560541152954e-02 -6.620632112026214600e-02
3.850000000000000000e+02 2.212051868438720703e+00 -3.773235380649566650e-01 -1.608108431100845337e-01 -5.547669716179370880e-03 -4.990755394101142883e-02 -5.713540315628051758e-02
3.860000000000000000e+02 3.630247116088867188e-01 -9.609561562538146973e-01 -4.224969074130058289e-03 -3.048840537667274475e-02 -1.041401177644729614e-02 -2.135174535214900970e-02
3.870000000000000000e+02 9.517741203308105469e+00 -3.852433264255523682e-01 -7.270897030830383301e-01 5.381735414266586304e-02 -2.019816935062408447e-01 9.431974589824676514e-02
3.880000000000000000e+02 6.318174362182617188e+00 -1.118732690811157227e+00 -4.360195696353912354e-01 2.934074215590953827e-02 -1.220036521553993225e-01 -7.181206345558166504e-02
3.890000000000000000e+02 5.457782745361328125e+00 -3.797743618488311768e-01 -7.144968509674072266e-01 4.688655026257038116e-03 -2.129424661397933960e-01 -5.081078037619590759e-02
3.900000000000000000e+02 5.548900604248046875e+00 -1.119774341583251953e+00 -4.161830246448516846e-01 2.838799729943275452e-02 -1.163385063409805298e-01 -1.098768040537834167e-01
3.910000000000000000e+02 4.779949188232421875e+00 -1.120329618453979492e+00 -3.735130429267883301e-01 1.984984613955020905e-02 -1.060989573597908020e-01 -1.427277624607086182e-01
3.920000000000000000e+02 3.832484245300292969e+00 -3.779707849025726318e-01 -4.498782455921173096e-01 1.727935275994241238e-03 -1.344450861215591431e-01 -6.829126924276351929e-02
3.930000000000000000e+02 2.476707220077514648e+00 -1.117323517799377441e+00 -1.620509773492813110e-01 -2.278527617454528809e-02 -5.545087531208992004e-02 -1.574357300996780396e-01
3.940000000000000000e+02 1.724747538566589355e+00 -1.120735287666320801e+00 -9.783618897199630737e-02 -4.167938604950904846e-02 -4.185467213392257690e-02 -1.214283406734466553e-01
3.950000000000000000e+02 6.889261007308959961e-01 -4.032802283763885498e-01 -1.679747365415096283e-02 -1.344329584389925003e-02 -9.072231128811836243e-03 -1.102481130510568619e-02
3.960000000000000000e+02 3.241973400115966797e+00 -1.117160201072692871e+00 -2.412065267562866211e-01 -4.709812812507152557e-03 -7.377490401268005371e-02 -1.755183488130569458e-01
3.970000000000000000e+02 4.010371208190917969e+00 -1.117970824241638184e+00 -3.150284886360168457e-01 1.652799732983112335e-02 -8.955015242099761963e-02 -1.651605814695358276e-01
3.980000000000000000e+02 1.416707754135131836e+00 -3.807353377342224121e-01 -5.809043720364570618e-02 -9.266167879104614258e-03 -2.020698226988315582e-02 -3.832911327481269836e-02
3.990000000000000000e+02 7.087509632110595703e+00 -1.118323564529418945e+00 -4.233425259590148926e-01 3.600962832570075989e-02 -1.161998659372329712e-01 -2.781233377754688263e-02
4.000000000000000000e+02 7.856986522674560547e+00 -1.117713332176208496e+00 -3.842117786407470703e-01 3.676412254571914673e-02 -1.042343005537986755e-01 1.702284067869186401e-02
4.010000000000000000e+02 8.625570297241210938e+00 -1.119198203086853027e+00 -2.973251640796661377e-01 6.373645365238189697e-02 -7.007661461830139160e-02 8.525818586349487305e-02
4.020000000000000000e+02 8.600965499877929688e+00 -2.551734447479248047e+00 6.584578752517700195e-01 1.762491166591644287e-01 2.504121065139770508e-01 3.476856648921966553e-01
4.030000000000000000e+02 1.157833194732666016e+01 -1.323134708404541016e+01 -1.253725528717041016e+00 7.175003528594970703e+00 1.776383399963378906e+00 3.687306165695190430e+00
4.040000000000000000e+02 1.279941940307617188e+01 -1.507423973083496094e+01 3.154904842376708984e+00 3.762100934982299805e+00 2.075101613998413086e+00 3.782123804092407227e+00
4.050000000000000000e+02 1.659313964843750000e+01 -1.333095359802246094e+01 -7.700460433959960938e+00 2.141497433185577393e-01 -2.245893239974975586e+00 -2.418789118528366089e-01
4.060000000000000000e+02 1.528562736511230469e+01 -1.376830577850341797e+01 -3.927688598632812500e+00 6.152162551879882812e-01 -9.937417507171630859e-01 4.774775207042694092e-01
4.070000000000000000e+02 1.962368583679199219e+01 -9.980802536010742188e+00 -2.684454917907714844e+00 4.629898965358734131e-01 -6.664394736289978027e-01 8.051548600196838379e-01
4.080000000000000000e+02 1.663463592529296875e+01 -3.982147216796875000e+00 8.899706840515136719e+00 1.113847064971923828e+01 6.011453151702880859e+00 1.063391208648681641e+00
4.090000000000000000e+02 1.557798957824707031e+01 -4.696905136108398438e+00 4.966430664062500000e+00 1.164089775085449219e+01 4.982198715209960938e+00 5.253053665161132812e+00
4.100000000000000000e+02 1.512354755401611328e+01 -5.810781478881835938e+00 2.905707836151123047e+00 7.926853179931640625e+00 3.249768257141113281e+00 5.684609889984130859e+00
4.110000000000000000e+02 1.433559703826904297e+01 -3.973297595977783203e+00 8.883119583129882812e+00 5.116614818572998047e+00 4.199920177459716797e+00 7.353645324707031250e+00
4.120000000000000000e+02 9.317131042480468750e+00 -1.868403315544128418e+00 3.747538030147552490e-01 9.738685935735702515e-02 1.416421979665756226e-01 2.048068791627883911e-01
4.130000000000000000e+02 4.164866447448730469e+00 -1.902474045753479004e+00 -1.548565179109573364e-01 4.129808768630027771e-02 -3.406753018498420715e-02 -2.015174329280853271e-01
4.140000000000000000e+02 1.737836718559265137e+00 -1.098699378967285156e+01 -5.075119435787200928e-02 -3.074004948139190674e-01 -1.074455082416534424e-01 -2.337925136089324951e-01
4.150000000000000000e+02 1.846133947372436523e+00 -1.782142257690429688e+01 1.494625210762023926e-01 -4.316926002502441406e-01 -8.466902375221252441e-02 -6.202760338783264160e-02
4.160000000000000000e+02 5.071006298065185547e+00 -2.269237518310546875e+01 1.808841824531555176e+00 6.848731040954589844e+00 2.597271919250488281e+00 2.752403736114501953e+00
4.170000000000000000e+02 7.315275669097900391e-01 -3.185424613952636719e+01 -5.676318332552909851e-02 8.091859817504882812e+00 2.410528898239135742e+00 3.758601844310760498e-01
4.180000000000000000e+02 2.015801668167114258e+00 -3.770077514648437500e+01 -1.138465553522109985e-01 8.143992424011230469e+00 2.409043788909912109e+00 -4.011949151754379272e-02
4.190000000000000000e+02 6.778100132942199707e-01 -3.748790740966796875e+01 -1.016148254275321960e-01 9.135807037353515625e+00 2.710257530212402344e+00 -4.991775006055831909e-02
4.200000000000000000e+02 6.633589744567871094e+00 -3.832141494750976562e+01 -3.511847853660583496e-01 4.756570816040039062e+00 1.321615695953369141e+00 1.442968398332595825e-01
4.210000000000000000e+02 9.569310188293457031e+00 -3.726751327514648438e+01 -6.377828717231750488e-01 2.790058135986328125e+00 6.456825733184814453e-01 -3.856226801872253418e-02
4.220000000000000000e+02 1.367038631439208984e+01 -3.039780616760253906e+01 -4.891591548919677734e+00 -1.061313867568969727e+00 -1.785871624946594238e+00 1.862230539321899414e+00
4.230000000000000000e+02 1.239855194091796875e+01 -2.964981842041015625e+01 -3.989557743072509766e+00 -1.124151229858398438e+00 -1.534112691879272461e+00 1.980207920074462891e+00
4.240000000000000000e+02 1.130212593078613281e+01 -2.871979331970214844e+01 -2.449772596359252930e+00 -5.390177965164184570e-01 -8.966370820999145508e-01 1.339774012565612793e+00
4.250000000000000000e+02 1.049865531921386719e+01 -2.960021781921386719e+01 -2.775143384933471680e+00 1.898197174072265625e+00 -2.630838453769683838e-01 4.709098637104034424e-01
4.260000000000000000e+02 1.031978034973144531e+01 -2.771710014343261719e+01 -1.127716541290283203e+00 1.100194811820983887e+00 -8.256543427705764771e-03 3.232017457485198975e-01
4.270000000000000000e+02 5.893855690956115723e-01 -2.623231697082519531e+01 -1.835690438747406006e-02 2.850473642349243164e+00 8.496350646018981934e-01 7.512543797492980957e-01
4.280000000000000000e+02 8.573595046997070312e+00 -2.221288681030273438e+01 1.173672080039978027e+00 1.816064071655273438e+01 5.800293922424316406e+00 2.891804695129394531e+00
4.290000000000000000e+02 9.351707458496093750e+00 -1.957446670532226562e+01 3.061152935028076172e+00 1.555839252471923828e+01 5.585863590240478516e+00 6.187414169311523438e+00
4.300000000000000000e+02 8.211342811584472656e+00 -1.919242477416992188e+01 2.409917831420898438e+00 1.255973815917968750e+01 4.490896701812744141e+00 3.343950986862182617e+00
4.310000000000000000e+02 1.058491611480712891e+01 -1.699755096435546875e+01 4.219161987304687500e+00 1.140292739868164062e+01 4.686626911163330078e+00 6.100257873535156250e+00
4.320000000000000000e+02 1.155512046813964844e+01 -1.588286876678466797e+01 4.981332302093505859e+00 8.398509025573730469e+00 4.013952255249023438e+00 5.365967273712158203e+00
4.330000000000000000e+02 1.213965225219726562e+01 -1.417440891265869141e+01 4.694960713386535645e-01 6.738236904144287109e+00 2.162319898605346680e+00 4.087567806243896484e+00
4.340000000000000000e+02 5.768370628356933594e-01 -1.078872680664062500e+01 -1.299978327006101608e-02 -1.290534257888793945e+00 -3.910602033138275146e-01 -1.010017842054367065e-01
4.350000000000000000e+02 1.748755836486816406e+01 -3.769059753417968750e+01 -7.994260191917419434e-01 -5.321193337440490723e-01 -3.994636237621307373e-01 5.153264999389648438e-01
4.360000000000000000e+02 2.092937660217285156e+01 -3.769329071044921875e+01 -1.238017797470092773e+00 -5.465804934501647949e-01 -5.353794693946838379e-01 4.702930450439453125e-01
4.370000000000000000e+02 2.342663192749023438e+01 -3.153755760192871094e+01 -2.174387216567993164e+00 -8.281317539513111115e-03 -6.548005938529968262e-01 1.698686182498931885e-01
4.380000000000000000e+02 1.623099327087402344e+01 -3.231397628784179688e+01 -3.277887105941772461e+00 -6.660774350166320801e-01 -1.183189392089843750e+00 1.050940632820129395e+00
4.390000000000000000e+02 1.643918037414550781e+01 -3.111288642883300781e+01 -4.748724460601806641e+00 -3.889146745204925537e-01 -1.541291713714599609e+00 1.065811991691589355e+00
4.400000000000000000e+02 2.350858116149902344e+01 -3.834457397460937500e+01 -1.320066332817077637e+00 -4.862336218357086182e-01 -5.418899655342102051e-01 3.244363069534301758e-01
4.410000000000000000e+02 2.168382453918457031e+01 -3.608934402465820312e+01 -1.605161070823669434e+00 -4.376091063022613525e-01 -6.128310561180114746e-01 5.819333791732788086e-01
4.420000000000000000e+02 2.878447723388671875e+01 -3.175737190246582031e+01 -2.021500349044799805e+00 8.095733821392059326e-03 -6.040214300155639648e-01 2.188862264156341553e-01
4.430000000000000000e+02 3.276170349121093750e+01 -3.669323348999023438e+01 -1.721897959709167480e+00 -2.418448477983474731e-01 -5.891228318214416504e-01 -2.051843702793121338e-01
4.440000000000000000e+02 3.266442108154296875e+01 -3.254549789428710938e+01 -2.670542240142822266e+00 -8.388012647628784180e-02 -8.263267278671264648e-01 4.517575502395629883e-01
4.450000000000000000e+02 3.138599777221679688e+01 -3.217384719848632812e+01 -2.183140039443969727e+00 -4.853042587637901306e-02 -6.695011258125305176e-01 3.702817857265472412e-01
4.460000000000000000e+02 3.837084579467773438e+01 -4.101210403442382812e+01 -1.352858424186706543e+00 1.790248394012451172e+00 1.312169730663299561e-01 1.886572986841201782e-01
4.470000000000000000e+02 3.965355300903320312e+01 -3.201832962036132812e+01 -1.540564894676208496e+00 8.249709606170654297e-01 -2.146781682968139648e-01 2.664623856544494629e-01
4.480000000000000000e+02 3.550121688842773438e+01 -3.318434524536132812e+01 -3.891812324523925781e+00 -2.577078640460968018e-01 -1.244855999946594238e+00 -1.533381938934326172e-01
4.490000000000000000e+02 3.400560760498046875e+01 -3.301115417480468750e+01 -3.431409835815429688e+00 -2.699409127235412598e-01 -1.110405206680297852e+00 1.995013207197189331e-01
4.500000000000000000e+02 4.323820495605468750e+01 -3.830303573608398438e+01 -2.028892040252685547e+00 4.897472858428955078e+00 8.605743050575256348e-01 3.910584151744842529e-01
4.510000000000000000e+02 4.085203933715820312e+01 -3.135713577270507812e+01 -1.520879268646240234e-01 3.866348028182983398e+00 1.114277958869934082e+00 1.421962022781372070e+00
4.520000000000000000e+02 4.216427993774414062e+01 -2.935095596313476562e+01 9.737262129783630371e-01 1.009150409698486328e+01 3.319568872451782227e+00 1.795433878898620605e+00
4.530000000000000000e+02 4.749319076538085938e+01 -4.098932266235351562e+01 -2.179365396499633789e+00 6.472911357879638672e+00 1.288063764572143555e+00 -1.278081629425287247e-02
4.540000000000000000e+02 4.956727600097656250e+01 -3.677830886840820312e+01 -1.374018669128417969e+00 6.706312179565429688e+00 1.599688053131103516e+00 -5.014088153839111328e-01
4.550000000000000000e+02 5.369720840454101562e+01 -2.986349105834960938e+01 2.267219543457031250e+00 7.239534854888916016e+00 2.852026224136352539e+00 -2.386188507080078125e+00
4.560000000000000000e+02 5.552202606201171875e+01 -2.949219894409179688e+01 7.013759016990661621e-01 8.738406181335449219e+00 2.831934452056884766e+00 3.083914145827293396e-02
4.570000000000000000e+02 5.512786102294921875e+01 -2.820613288879394531e+01 1.305850744247436523e+00 6.677381515502929688e+00 2.394969701766967773e+00 -2.993715740740299225e-02
4.580000000000000000e+02 5.936417770385742188e+01 -2.468600082397460938e+01 1.874069690704345703e+00 1.248170495033264160e+00 9.366720318794250488e-01 1.498778700828552246e+00
4.590000000000000000e+02 5.571924972534179688e+01 -1.720374870300292969e+01 -3.134802579879760742e+00 -7.653136253356933594e-01 -1.170034885406494141e+00 7.652481794357299805e-01
4.600000000000000000e+02 5.468586730957031250e+01 -1.611850738525390625e+01 -3.929787397384643555e+00 -7.864683270454406738e-01 -1.414876699447631836e+00 1.219654202461242676e+00
4.610000000000000000e+02 5.203269195556640625e+01 -1.284050655364990234e+01 2.690951526165008545e-01 3.348985195159912109e+00 1.085424184799194336e+00 -7.606591582298278809e-01
4.620000000000000000e+02 5.114938354492187500e+01 -1.336456203460693359e+01 -6.908659338951110840e-01 4.060527801513671875e+00 1.010898590087890625e+00 -2.673367559909820557e-01
4.630000000000000000e+02 4.864640808105468750e+01 -6.894169807434082031e+00 3.179594874382019043e-01 5.745551586151123047e+00 1.819053292274475098e+00 -1.649034857749938965e+00
4.640000000000000000e+02 4.618664550781250000e+01 -6.280685067176818848e-01 7.754371166229248047e-01 5.687263488769531250e+00 1.938810229301452637e+00 -2.444146394729614258e+00
4.650000000000000000e+02 4.559039306640625000e+01 5.873826146125793457e-01 1.009539365768432617e+00 5.747272491455078125e+00 2.027043581008911133e+00 -2.618450880050659180e+00
4.660000000000000000e+02 4.259791183471679688e+01 8.961744308471679688e+00 1.601433992385864258e+00 1.134487342834472656e+01 3.883892297744750977e+00 -3.150414705276489258e+00
4.670000000000000000e+02 4.067702102661132812e+01 1.179360103607177734e+01 1.474551439285278320e+00 1.005070781707763672e+01 3.457577705383300781e+00 -8.934887051582336426e-01
4.680000000000000000e+02 4.238376617431640625e+01 1.631679344177246094e+01 6.732147932052612305e-01 1.064504623413085938e+01 3.395478248596191406e+00 1.399187445640563965e+00
4.690000000000000000e+02 4.309233474731445312e+01 1.914819717407226562e+01 7.426612377166748047e-01 8.871907234191894531e+00 2.884370565414428711e+00 2.167757511138916016e+00
4.700000000000000000e+02 4.455159759521484375e+01 2.314517402648925781e+01 1.233116984367370605e+00 6.850966453552246094e+00 2.425225019454956055e+00 2.640125036239624023e+00
4.710000000000000000e+02 3.581230545043945312e+01 2.728969955444335938e+01 -1.671883761882781982e-01 5.524340152740478516e+00 1.607145428657531738e+00 -1.430796086788177490e-01
4.720000000000000000e+02 2.748761558532714844e+01 4.088428878784179688e+01 -9.658669829368591309e-01 4.449049472808837891e+00 1.044954657554626465e+00 -7.241651415824890137e-02
4.730000000000000000e+02 1.784129524230957031e+01 4.066763687133789062e+01 -5.201963186264038086e-01 3.039537191390991211e+00 7.558022141456604004e-01 -8.497191965579986572e-02
4.740000000000000000e+02 2.267152214050292969e+01 4.089160537719726562e+01 -7.487016916275024414e-01 3.833509922027587891e+00 9.254424571990966797e-01 -6.401187926530838013e-02
4.750000000000000000e+02 1.669603347778320312e+01 3.111866950988769531e+01 -2.735838592052459717e-01 2.836772680282592773e+00 7.689566612243652344e-01 -3.970290720462799072e-01
4.760000000000000000e+02 1.539750671386718750e+01 2.609659004211425781e+01 -5.731605365872383118e-02 2.569880723953247070e+00 7.537693381309509277e-01 -4.794345796108245850e-01
4.770000000000000000e+02 1.475225353240966797e+01 1.920584106445312500e+01 1.735466867685317993e-01 2.429197788238525391e+00 7.808233499526977539e-01 -4.137001037597656250e-01
4.780000000000000000e+02 1.560968208312988281e+01 8.879373550415039062e+00 3.272531628608703613e-01 3.097844600677490234e+00 1.027529239654541016e+00 -1.934601664543151855e-01
4.790000000000000000e+02 1.074361038208007812e+01 1.603280544281005859e+00 -3.646433949470520020e-01 -9.526729583740234375e-02 -1.379732042551040649e-01 7.602065056562423706e-02
4.800000000000000000e+02 1.352322483062744141e+01 4.140622913837432861e-01 4.906915128231048584e-02 1.580553174018859863e+00 4.888867139816284180e-01 -9.034702181816101074e-01
4.810000000000000000e+02 1.651198959350585938e+01 -1.381676316261291504e+00 3.461651325225830078e+00 1.286130905151367188e+01 4.896888256072998047e+00 5.143675327301025391e+00
4.820000000000000000e+02 1.713817596435546875e+01 -2.259641885757446289e+00 9.955470085144042969e+00 9.156646728515625000e+00 5.733635425567626953e+00 5.731695652008056641e+00
4.830000000000000000e+02 1.718377113342285156e+01 -2.980148315429687500e+00 1.167574882507324219e+01 8.288226127624511719e+00 5.989192485809326172e+00 2.974830865859985352e+00
4.840000000000000000e+02 5.761687088012695312e+01 -3.582209396362304688e+01 -1.408397853374481201e-01 4.518665313720703125e+00 1.313347697257995605e+00 -2.398997783660888672e+00
4.850000000000000000e+02 6.155751419067382812e+01 -4.074488830566406250e+01 7.136519551277160645e-01 1.439599275588989258e+00 6.459753513336181641e-01 -3.394013941287994385e-01
4.860000000000000000e+02 5.721035385131835938e+01 -3.353544998168945312e+01 2.445125818252563477e+00 5.075791835784912109e+00 2.256275415420532227e+00 -3.378303050994873047e+00
4.870000000000000000e+02 5.822746658325195312e+01 -3.430373382568359375e+01 1.527257442474365234e+00 2.886693477630615234e+00 1.324185252189636230e+00 -2.113815546035766602e+00
4.880000000000000000e+02 5.639509582519531250e+01 -3.255948638916015625e+01 2.706034660339355469e+00 8.879658699035644531e+00 3.475708007812500000e+00 -3.940185785293579102e+00
4.890000000000000000e+02 5.542788314819335938e+01 -3.367982864379882812e+01 7.805908322334289551e-01 6.775337219238281250e+00 2.266778469085693359e+00 -1.266549110412597656e+00
4.900000000000000000e+02 6.144893646240234375e+01 -3.660685729980468750e+01 2.515729069709777832e-01 3.885540366172790527e-01 1.920380890369415283e-01 -8.221970200538635254e-01
4.910000000000000000e+02 6.284116744995117188e+01 -3.497779464721679688e+01 -1.638133883476257324e+00 -1.210710927844047546e-01 -5.277615189552307129e-01 -3.096210360527038574e-01
4.920000000000000000e+02 6.414830017089843750e+01 -3.466994094848632812e+01 -1.796810507774353027e+00 6.477686762809753418e-02 -5.196100473403930664e-01 -3.468147218227386475e-01
4.930000000000000000e+02 6.146207427978515625e+01 -3.496416473388671875e+01 -1.435954451560974121e+00 -1.521950662136077881e-01 -4.764448702335357666e-01 -1.139364242553710938e-01
4.940000000000000000e+02 6.025260162353515625e+01 -3.502085876464843750e+01 -5.618200898170471191e-01 5.588155388832092285e-01 -9.013760718517005444e-04 -6.263194084167480469e-01
4.950000000000000000e+02 6.792107391357421875e+01 -3.565975570678710938e+01 -3.281187713146209717e-01 1.857155442237854004e+00 4.587109982967376709e-01 8.322030901908874512e-01
4.960000000000000000e+02 7.031580352783203125e+01 -3.537867736816406250e+01 -6.556478142738342285e-01 4.253176689147949219e+00 1.079258561134338379e+00 1.027650952339172363e+00
4.970000000000000000e+02 7.009877777099609375e+01 -3.112640571594238281e+01 1.168336391448974609e+00 4.477155685424804688e+00 1.693647503852844238e+00 2.144093513488769531e+00
4.980000000000000000e+02 7.017519378662109375e+01 -3.320396423339843750e+01 -4.767081439495086670e-01 4.373875617980957031e+00 1.169150233268737793e+00 1.186743736267089844e+00
4.990000000000000000e+02 6.811411285400390625e+01 -3.316859054565429688e+01 -3.660362362861633301e-01 1.134884119033813477e+00 2.306543588638305664e-01 4.533865749835968018e-01
5.000000000000000000e+02 7.598043823242187500e+01 -4.068312072753906250e+01 -2.358565106987953186e-02 7.513487815856933594e+00 2.246970653533935547e+00 -1.977275013923645020e-01
5.010000000000000000e+02 7.748599243164062500e+01 -3.577153396606445312e+01 -1.464484333992004395e-01 7.826663970947265625e+00 2.304064512252807617e+00 -3.085649907588958740e-01
5.020000000000000000e+02 7.827891540527343750e+01 -2.934302520751953125e+01 8.882790803909301758e-02 6.933207988739013672e+00 2.106610774993896484e+00 -4.443330764770507812e-01
5.030000000000000000e+02 7.391506958007812500e+01 -2.586679840087890625e+01 1.117564916610717773e+00 9.127339363098144531e+00 3.073471307754516602e+00 3.142277896404266357e-01
5.040000000000000000e+02 7.809056091308593750e+01 -1.514542007446289062e+01 -1.007857918739318848e-01 7.891854763031005859e+00 2.337320566177368164e+00 -1.620134264230728149e-01
5.050000000000000000e+02 7.822007751464843750e+01 -8.217761039733886719e+00 -1.459030713886022568e-02 7.045100688934326172e+00 2.109153032302856445e+00 -4.004097580909729004e-01
5.060000000000000000e+02 7.812131500244140625e+01 -1.259665846824645996e+00 6.671588867902755737e-02 6.068486690521240234e+00 1.840560793876647949e+00 -2.965040504932403564e-01
5.070000000000000000e+02 7.822884368896484375e+01 5.729061126708984375e+00 5.662599578499794006e-02 6.093138217926025391e+00 1.844929218292236328e+00 2.756994962692260742e-01
5.080000000000000000e+02 7.825553131103515625e+01 1.259182834625244141e+01 -2.795257791876792908e-02 7.053570270538330078e+00 2.107685327529907227e+00 2.748088240623474121e-01
5.090000000000000000e+02 7.819812011718750000e+01 1.950117301940917969e+01 3.773371502757072449e-02 7.760853767395019531e+00 2.339576244354248047e+00 2.563067674636840820e-01
5.100000000000000000e+02 7.684328460693359375e+01 2.219246482849121094e+01 7.948957383632659912e-02 8.134944915771484375e+00 2.464330196380615234e+00 4.612535238265991211e-01
5.110000000000000000e+02 7.935756683349609375e+01 3.205419540405273438e+01 1.284945756196975708e-03 1.038169193267822266e+01 3.114892959594726562e+00 1.613160520792007446e-01
5.120000000000000000e+02 7.682773590087890625e+01 3.882147598266601562e+01 -1.903087049722671509e-01 9.698548316955566406e+00 2.852471828460693359e+00 -3.641634806990623474e-02
5.130000000000000000e+02 7.933593750000000000e+01 3.759072113037109375e+01 -1.411923468112945557e-01 1.074055671691894531e+01 3.179809331893920898e+00 -4.134918749332427979e-02
5.140000000000000000e+02 7.195758819580078125e+01 4.113634490966796875e+01 2.431158162653446198e-02 5.647744178771972656e+00 1.701616644859313965e+00 -7.518908474594354630e-03
5.150000000000000000e+02 6.777891540527343750e+01 3.098672103881835938e+01 -5.667867511510848999e-02 1.748391032218933105e+00 5.075137019157409668e-01 -5.965480208396911621e-01
5.160000000000000000e+02 6.699441528320312500e+01 3.218533325195312500e+01 -4.808572828769683838e-01 7.957456707954406738e-01 9.446652233600616455e-02 -3.772685071453452110e-03
5.170000000000000000e+02 6.849618530273437500e+01 2.977208709716796875e+01 4.919936656951904297e-01 3.687050580978393555e+00 1.253713250160217285e+00 -1.067763328552246094e+00
5.180000000000000000e+02 6.905012512207031250e+01 2.847020530700683594e+01 3.946230113506317139e-01 5.626010417938232422e+00 1.806190133094787598e+00 -1.257665395736694336e+00
5.190000000000000000e+02 6.972789001464843750e+01 2.570719718933105469e+01 2.701530456542968750e-01 8.327530860900878906e+00 2.579305171966552734e+00 -7.630270123481750488e-01
5.200000000000000000e+02 7.938163757324218750e+01 2.366697502136230469e+01 2.810056693851947784e-02 8.281993865966796875e+00 2.493028402328491211e+00 1.573903709650039673e-01
5.210000000000000000e+02 6.207280731201171875e+01 3.573416519165039062e+01 -1.391097426414489746e+00 -2.192140668630599976e-01 -4.830934405326843262e-01 5.095807909965515137e-01
5.220000000000000000e+02 6.054053115844726562e+01 3.614479064941406250e+01 -1.274334192276000977e+00 -2.291422039270401001e-01 -4.510429203510284424e-01 3.602567315101623535e-01
5.230000000000000000e+02 6.446704864501953125e+01 3.695298767089843750e+01 -3.294275403022766113e-01 3.168360795825719833e-03 -9.787775576114654541e-02 2.799019813537597656e-01
5.240000000000000000e+02 6.350594329833984375e+01 3.520967864990234375e+01 -1.592531442642211914e+00 -3.647924065589904785e-01 -5.871971845626831055e-01 6.366936564445495605e-01
5.250000000000000000e+02 6.594757080078125000e+01 3.636880874633789062e+01 -4.529115557670593262e-01 9.891871213912963867e-01 1.608826667070388794e-01 -1.602650433778762817e-01
5.260000000000000000e+02 5.729421234130859375e+01 3.606633377075195312e+01 -1.085710644721984863e+00 -1.072259396314620972e-01 -3.578809499740600586e-01 -4.371737316250801086e-02
5.270000000000000000e+02 5.889141845703125000e+01 3.632653427124023438e+01 -1.271027684211730957e+00 -2.225419133901596069e-01 -4.480708539485931396e-01 1.802309453487396240e-01
5.280000000000000000e+02 5.073536300659179688e+01 3.885725784301757812e+01 -5.097978115081787109e-01 1.666938424110412598e+00 3.471421599388122559e-01 3.248499631881713867e-01
5.290000000000000000e+02 4.925804901123046875e+01 3.537303543090820312e+01 -4.689014554023742676e-01 2.182019233703613281e+00 5.139353871345520020e-01 6.652125120162963867e-01
5.300000000000000000e+02 4.914461517333984375e+01 3.026261901855468750e+01 8.252642750740051270e-01 1.997974991798400879e+00 8.469717502593994141e-01 1.273073554039001465e+00
5.310000000000000000e+02 5.107835006713867188e+01 3.229679489135742188e+01 3.070422112941741943e-01 9.343789815902709961e-01 3.724263608455657959e-01 6.103689670562744141e-01
5.320000000000000000e+02 4.906541824340820312e+01 3.215187835693359375e+01 1.625009626150131226e-01 2.057532548904418945e+00 6.660100817680358887e-01 8.805311322212219238e-01
5.330000000000000000e+02 5.334304428100585938e+01 3.434169387817382812e+01 -3.318162262439727783e-01 2.955788671970367432e-01 -1.087120920419692993e-02 1.158709749579429626e-01
5.340000000000000000e+02 5.596186447143554688e+01 3.544885635375976562e+01 -7.612410187721252441e-01 -1.675045192241668701e-01 -2.786236703395843506e-01 -1.723473072052001953e-01
5.350000000000000000e+02 3.822533416748046875e+01 3.736355972290039062e+01 -1.160334587097167969e+00 4.847081661224365234e+00 1.106024146080017090e+00 -4.466043319553136826e-03
5.360000000000000000e+02 4.253330612182617188e+01 3.798360824584960938e+01 -1.082470655441284180e+00 4.198844909667968750e+00 9.349123239517211914e-01 2.233776301145553589e-01
5.370000000000000000e+02 4.544932174682617188e+01 3.167341995239257812e+01 -2.540679574012756348e-01 3.843443632125854492e+00 1.076812744140625000e+00 8.149817585945129395e-01
5.380000000000000000e+02 4.518063354492187500e+01 2.440212440490722656e+01 1.277067661285400391e+00 5.787467002868652344e+00 2.119360446929931641e+00 2.544300079345703125e+00
5.390000000000000000e+02 4.584346389770507812e+01 2.565292167663574219e+01 1.194969892501831055e+00 4.878454208374023438e+00 1.822027325630187988e+00 2.350347995758056641e+00
5.400000000000000000e+02 4.730315780639648438e+01 2.811363029479980469e+01 1.192884445190429688e+00 3.439601659774780273e+00 1.389745831489562988e+00 1.892358541488647461e+00
5.410000000000000000e+02 3.494401931762695312e+01 3.533684921264648438e+01 -1.021741151809692383e+00 5.005222320556640625e+00 1.195044398307800293e+00 -1.403975188732147217e-01
5.420000000000000000e+02 3.895058441162109375e+01 2.766599655151367188e+01 -1.538599878549575806e-01 5.636312007904052734e+00 1.644735693931579590e+00 2.496994286775588989e-01
5.430000000000000000e+02 3.244093322753906250e+01 4.063901519775390625e+01 -1.170436143875122070e+00 4.840597152709960938e+00 1.101048231124877930e+00 -6.464976072311401367e-02
5.440000000000000000e+02 1.291568279266357422e+01 4.070048522949218750e+01 -3.214589059352874756e-01 2.258687019348144531e+00 5.811684131622314453e-01 -7.659557461738586426e-02
5.450000000000000000e+02 4.991156578063964844e+00 4.032077407836914062e+01 -7.391312718391418457e-02 9.217753410339355469e-01 2.543586492538452148e-01 -1.061775628477334976e-02
5.460000000000000000e+02 6.920356750488281250e+00 3.230157852172851562e+01 -8.061321079730987549e-02 1.162574768066406250e+00 3.245884776115417480e-01 -2.438529580831527710e-01
5.470000000000000000e+02 8.077411651611328125e+00 2.314474487304687500e+01 8.143411949276924133e-03 1.117158532142639160e+00 3.375905752182006836e-01 -3.789283335208892822e-01
5.480000000000000000e+02 7.715497016906738281e+00 1.462076568603515625e+01 1.846420913934707642e-01 7.754845023155212402e-01 2.880379855632781982e-01 -2.429821044206619263e-01
5.490000000000000000e+02 6.361119747161865234e+00 1.002783489227294922e+01 2.494648694992065430e-01 2.675238251686096191e-01 1.550966054201126099e-01 -1.162051502615213394e-02
5.500000000000000000e+02 5.971922874450683594e+00 1.877507209777832031e+00 -3.971501886844635010e-01 -4.835044592618942261e-02 -1.336501985788345337e-01 3.134670853614807129e-01
5.510000000000000000e+02 1.153104591369628906e+01 1.296999335289001465e+00 -3.303260505199432373e-01 1.419618129730224609e-01 -5.650926753878593445e-02 -9.282577782869338989e-02
5.520000000000000000e+02 2.023282766342163086e+00 4.164310836791992188e+01 -7.272365689277648926e-02 5.728677511215209961e-01 1.500432193279266357e-01 -2.058816142380237579e-02
5.530000000000000000e+02 4.373300552368164062e+00 3.782682418823242188e+01 -1.306408084928989410e-02 7.632747888565063477e-01 2.250632196664810181e-01 -4.378599673509597778e-02
5.540000000000000000e+02 2.410082817077636719e+00 3.554398345947265625e+01 -3.704401664435863495e-03 5.179528594017028809e-01 1.542745381593704224e-01 -8.767282962799072266e-02
5.550000000000000000e+02 1.906242966651916504e+00 2.882166671752929688e+01 -2.201569732278585434e-03 1.666101813316345215e-01 4.932258650660514832e-02 -1.138474643230438232e-01
5.560000000000000000e+02 1.897300958633422852e+00 2.319728469848632812e+01 3.358483314514160156e-03 -1.496894210577011108e-01 -4.389928281307220459e-02 -1.227360889315605164e-01
5.570000000000000000e+02 1.809934020042419434e+00 1.756536674499511719e+01 1.159258279949426651e-02 -4.683649241924285889e-01 -1.370317041873931885e-01 -9.105498343706130981e-02
5.580000000000000000e+02 5.137569308280944824e-01 6.398642063140869141e+00 1.685200608335435390e-03 -5.846247673034667969e-01 -1.748818606138229370e-01 5.872752517461776733e-02
5.590000000000000000e+02 1.638794541358947754e+00 9.133075714111328125e+00 3.016757406294345856e-02 -5.956951975822448730e-01 -1.696582883596420288e-01 8.843734115362167358e-02
5.600000000000000000e+02 2.319480657577514648e+00 4.466266632080078125e+00 -7.597306743264198303e-03 -2.478969246149063110e-01 -7.664826512336730957e-02 2.382860481739044189e-01
5.610000000000000000e+02 6.563669586181640625e+01 -2.197632026672363281e+01 -1.347415447235107422e+00 2.079761177301406860e-01 -3.418318033218383789e-01 -1.003992557525634766e-01
5.620000000000000000e+02 6.421246337890625000e+01 -2.096083068847656250e+01 -6.360916495323181152e-01 7.989499568939208984e-01 4.885748028755187988e-02 9.833716750144958496e-01
5.630000000000000000e+02 5.941659164428710938e+01 -1.588284969329833984e+01 -1.000743865966796875e+00 3.153952062129974365e-01 -2.056045830249786377e-01 4.420581459999084473e-01
5.640000000000000000e+02 6.999874114990234375e+01 -2.073043441772460938e+01 -1.733490228652954102e+00 3.411748170852661133e+00 5.034773945808410645e-01 -1.503255963325500488e+00
5.650000000000000000e+02 7.053361511230468750e+01 -2.174259757995605469e+01 -7.262551784515380859e-01 4.322896003723144531e+00 1.078992247581481934e+00 -1.362229824066162109e+00
5.660000000000000000e+02 7.213885498046875000e+01 -2.209789657592773438e+01 -1.166739583015441895e+00 8.614121437072753906e+00 2.234214544296264648e+00 -1.799531877040863037e-01
5.670000000000000000e+02 7.167705535888671875e+01 -2.397098159790039062e+01 1.409636378288269043e+00 1.149324321746826172e+01 3.870863914489746094e+00 -1.888783216476440430e+00
5.680000000000000000e+02 7.197872161865234375e+01 -2.614130401611328125e+01 5.978142023086547852e-01 1.290460491180419922e+01 4.050725460052490234e+00 -9.049868583679199219e-02
5.690000000000000000e+02 7.144201660156250000e+01 -2.870025253295898438e+01 1.415959477424621582e+00 1.180437850952148438e+01 3.966101408004760742e+00 2.575210332870483398e+00
5.700000000000000000e+02 7.132038116455078125e+01 -3.422831344604492188e+01 -7.572211027145385742e-01 5.338385105133056641e+00 1.374349117279052734e+00 8.271448016166687012e-01
5.710000000000000000e+02 7.937377166748046875e+01 -3.336764907836914062e+01 1.294351677643135190e-04 7.832938194274902344e+00 2.349920272827148438e+00 -1.886688917875289917e-01
5.720000000000000000e+02 5.832050704956054688e+01 -2.555025100708007812e+01 1.691400885581970215e+00 1.774443149566650391e+00 1.039753198623657227e+00 1.466971993446350098e+00
5.730000000000000000e+02 6.047878265380859375e+01 -2.389169120788574219e+01 1.904656171798706055e+00 1.053431987762451172e+00 8.874264359474182129e-01 1.307825088500976562e+00
5.740000000000000000e+02 6.303673553466796875e+01 -2.267170333862304688e+01 2.718718945980072021e-01 4.467034339904785156e-01 2.155725955963134766e-01 6.495277285575866699e-01
5.750000000000000000e+02 6.438841247558593750e+01 -2.242737770080566406e+01 -4.936020374298095703e-01 2.497794181108474731e-01 -7.314678281545639038e-02 2.336808294057846069e-01
5.760000000000000000e+02 7.085252380371093750e+01 2.600622749328613281e+01 3.832038640975952148e-01 7.737791061401367188e+00 2.436298370361328125e+00 -1.363448798656463623e-01
5.770000000000000000e+02 7.002015686035156250e+01 2.006143951416015625e+01 2.042841166257858276e-02 9.097060203552246094e+00 2.735246419906616211e+00 1.046454831957817078e-01
5.780000000000000000e+02 7.940727996826171875e+01 1.672692489624023438e+01 -1.120392978191375732e-02 7.206538677215576172e+00 2.158600330352783203e+00 8.708994090557098389e-02
5.790000000000000000e+02 6.999219512939453125e+01 1.581387805938720703e+01 5.690413992851972580e-03 9.811349868774414062e+00 2.945112228393554688e+00 1.884345561265945435e-01
5.800000000000000000e+02 6.982271575927734375e+01 1.026538848876953125e+01 -1.841825544834136963e-01 8.676291465759277344e+00 2.547632455825805664e+00 -6.002448201179504395e-01
5.810000000000000000e+02 7.940972900390625000e+01 9.785035133361816406e+00 -1.338191237300634384e-02 6.091656684875488281e+00 1.823482513427734375e+00 1.427188664674758911e-01
5.820000000000000000e+02 6.999635314941406250e+01 8.899097442626953125e+00 8.630761504173278809e-02 1.038484477996826172e+01 3.141345739364624023e+00 -9.844111204147338867e-01
5.830000000000000000e+02 7.015856933593750000e+01 7.518631458282470703e+00 3.665171563625335693e-01 1.229872989654541016e+01 3.799574136734008789e+00 -7.554704546928405762e-01
5.840000000000000000e+02 7.016666412353515625e+01 1.879772782325744629e+00 5.353043079376220703e-01 1.388444709777832031e+01 4.325925350189208984e+00 1.083929777145385742e+00
5.850000000000000000e+02 6.966625976562500000e+01 -9.129771590232849121e-01 7.166595458984375000e-01 1.115552234649658203e+01 3.561654567718505859e+00 2.399192333221435547e+00
5.860000000000000000e+02 6.715766143798828125e+01 -7.540163040161132812e+00 8.465379476547241211e-01 4.877219676971435547e+00 1.717127203941345215e+00 1.930150151252746582e+00
5.870000000000000000e+02 6.776199340820312500e+01 -6.258898258209228516e+00 8.560841679573059082e-01 5.801963806152343750e+00 1.997414350509643555e+00 2.113188505172729492e+00
5.880000000000000000e+02 6.692065429687500000e+01 -1.057033920288085938e+01 7.799940705299377441e-01 3.875217199325561523e+00 1.396563410758972168e+00 1.316278100013732910e+00
5.890000000000000000e+02 6.581250762939453125e+01 -1.005062675476074219e+01 9.395414590835571289e-01 3.311090469360351562e+00 1.275189638137817383e+00 1.654756069183349609e+00
5.900000000000000000e+02 6.504216766357421875e+01 -1.127996063232421875e+01 1.194800138473510742e+00 2.729455947875976562e+00 1.177276849746704102e+00 1.591231465339660645e+00
5.910000000000000000e+02 6.293680572509765625e+01 -1.968995285034179688e+01 -4.533631503582000732e-01 1.193672299385070801e+00 2.220927327871322632e-01 1.521693229675292969e+00
5.920000000000000000e+02 6.827299499511718750e+01 -2.137306022644042969e+01 -3.220732688903808594e+00 -4.702744539827108383e-03 -9.676306247711181641e-01 -1.705797016620635986e-01
5.930000000000000000e+02 6.934704589843750000e+01 -1.986299324035644531e+01 -8.697569370269775391e-01 2.549969911575317383e+00 5.040639042854309082e-01 -1.315192818641662598e+00
5.940000000000000000e+02 6.691471862792968750e+01 -2.154708480834960938e+01 -2.943409442901611328e+00 -1.541801393032073975e-01 -9.292768836021423340e-01 -2.661332190036773682e-01
5.950000000000000000e+02 1.906381225585937500e+01 -1.218762016296386719e+01 -8.096133232116699219e+00 -5.670567154884338379e-01 -2.598957061767578125e+00 9.146593213081359863e-01
5.960000000000000000e+02 2.256567192077636719e+01 -1.396431732177734375e+01 -8.952170372009277344e+00 -1.086966753005981445e+00 -3.011741161346435547e+00 2.522699356079101562e+00
5.970000000000000000e+02 2.317509460449218750e+01 -1.300054073333740234e+01 -6.571857929229736328e+00 -5.300529003143310547e-01 -2.130573272705078125e+00 8.622605800628662109e-01
5.980000000000000000e+02 3.027260398864746094e+01 -1.598036289215087891e+01 -2.893468856811523438e+00 3.378212451934814453e-01 -7.666942477226257324e-01 4.030915796756744385e-01
5.990000000000000000e+02 3.250700759887695312e+01 -1.777190780639648438e+01 -2.706203460693359375e+00 1.306211948394775391e-01 -7.726746797561645508e-01 2.200714200735092163e-01
6.000000000000000000e+02 3.265185928344726562e+01 -1.657001113891601562e+01 -2.234203577041625977e+00 3.848343789577484131e-01 -5.548107624053955078e-01 -1.184285618364810944e-02
6.010000000000000000e+02 3.624915695190429688e+01 -1.548971080780029297e+01 -5.931375026702880859e-01 2.282971858978271484e+00 5.069503188133239746e-01 -2.478279352188110352e+00
6.020000000000000000e+02 3.713101959228515625e+01 -1.396855258941650391e+01 -7.404559254646301270e-01 3.673056840896606445e+00 8.797802925109863281e-01 -2.866628408432006836e+00
6.030000000000000000e+02 4.567693328857421875e+01 -2.583369970321655273e+00 4.535807073116302490e-01 5.782155513763427734e+00 1.870720863342285156e+00 -2.314097166061401367e+00
6.040000000000000000e+02 4.426875305175781250e+01 3.004088640213012695e+00 1.174154877662658691e+00 6.415050029754638672e+00 2.276761531829833984e+00 -2.876563549041748047e+00
6.050000000000000000e+02 2.501605224609375000e+01 -1.510703277587890625e+01 -5.212150096893310547e+00 -9.360540509223937988e-01 -1.844461321830749512e+00 2.222326517105102539e+00
6.060000000000000000e+02 2.869780731201171875e+01 -1.672667121887207031e+01 -3.478849411010742188e+00 -3.353218734264373779e-01 -1.144251346588134766e+00 1.186619281768798828e+00
6.070000000000000000e+02 3.784760665893554688e+01 -1.801527023315429688e+01 1.867737889289855957e+00 2.242919683456420898e+00 1.233197331428527832e+00 -2.441138029098510742e+00
6.080000000000000000e+02 3.976390838623046875e+01 -1.904707527160644531e+01 3.904451847076416016e+00 6.072961330413818359e+00 2.993223905563354492e+00 -4.668241024017333984e+00
6.090000000000000000e+02 5.189674377441406250e+01 -1.461653423309326172e+01 -1.208571076393127441e+00 3.196926593780517578e+00 5.965066552162170410e-01 -1.695267483592033386e-02
6.100000000000000000e+02 4.116939926147460938e+01 -1.840524482727050781e+01 1.245621681213378906e+00 8.880003929138183594e+00 3.037687540054321289e+00 -3.875750303268432617e+00
6.110000000000000000e+02 4.242071914672851562e+01 -2.408267402648925781e+01 5.478033423423767090e-01 1.694899559020996094e+01 5.249039649963378906e+00 -1.710046887397766113e+00
6.120000000000000000e+02 4.970941543579101562e+01 -3.218637847900390625e+01 5.112550854682922363e-01 6.825206279754638672e+00 2.200938463211059570e+00 -1.561829209327697754e+00
6.130000000000000000e+02 5.078383636474609375e+01 -3.049462699890136719e+01 1.495758771896362305e+00 6.597178459167480469e+00 2.427881240844726562e+00 -2.040596246719360352e+00
6.140000000000000000e+02 4.241861343383789062e+01 -2.281451988220214844e+01 2.768485307693481445e+00 1.847191429138183594e+01 6.372119903564453125e+00 -4.353388786315917969e+00
6.150000000000000000e+02 3.993077087402343750e+01 -3.376097488403320312e+01 -1.926099300384521484e+00 2.714759349822998047e+00 2.365980297327041626e-01 1.336188197135925293e+00
6.160000000000000000e+02 4.884725189208984375e+01 -3.655632734298706055e+00 5.993679165840148926e-01 5.631229400634765625e+00 1.869179129600524902e+00 -2.001327037811279297e+00
6.170000000000000000e+02 4.691377639770507812e+01 -9.371947288513183594e+00 -4.732370972633361816e-01 6.149138927459716797e+00 1.702770590782165527e+00 -1.314851880073547363e+00
6.180000000000000000e+02 4.057627868652343750e+01 -2.000399017333984375e+01 4.830251216888427734e+00 7.772330284118652344e+00 3.780774354934692383e+00 -6.405774593353271484e+00
6.190000000000000000e+02 1.941010856628417969e+01 -5.008581161499023438e+00 5.251666069030761719e+00 3.579423189163208008e+00 2.649326801300048828e+00 7.222284078598022461e-01
6.200000000000000000e+02 1.913405990600585938e+01 -4.261902332305908203e+00 6.545819759368896484e+00 3.911700725555419922e+00 3.137256145477294922e+00 1.184574484825134277e+00
6.210000000000000000e+02 2.946930122375488281e+01 -1.439185142517089844e+01 -2.822246551513671875e+00 6.174815297126770020e-01 -6.614295244216918945e-01 2.763709239661693573e-02
6.220000000000000000e+02 2.832246589660644531e+01 -1.396152114868164062e+01 -3.270152330398559570e+00 5.466933846473693848e-01 -8.170376420021057129e-01 1.320683807134628296e-01
6.230000000000000000e+02 3.737928771972656250e+01 -2.214369773864746094e+00 7.215116620063781738e-01 4.915786266326904297e+00 1.691189408302307129e+00 -1.700018763542175293e+00
6.240000000000000000e+02 3.978601455688476562e+01 2.359056711196899414e+00 1.038338899612426758e+00 6.329684734344482422e+00 2.210407018661499023e+00 -1.586692690849304199e+00
6.250000000000000000e+02 3.788881683349609375e+01 1.444908237457275391e+01 1.456232070922851562e+00 7.751953601837158203e+00 2.762455701828002930e+00 -1.528931856155395508e-01
6.260000000000000000e+02 3.722766113281250000e+01 1.661414527893066406e+01 1.276964068412780762e+00 7.165078163146972656e+00 2.532612800598144531e+00 1.080330647528171539e-02
6.270000000000000000e+02 3.952045059204101562e+01 2.452616882324218750e+01 3.418371081352233887e-01 6.223367214202880859e+00 1.969561338424682617e+00 4.875049889087677002e-01
6.280000000000000000e+02 3.150770568847656250e+01 2.227703475952148438e+01 5.194736123085021973e-01 5.258364200592041016e+00 1.733351349830627441e+00 -3.517867028713226318e-01
6.290000000000000000e+02 3.033104896545410156e+01 3.379983520507812500e+01 -7.865873575210571289e-01 4.797814846038818359e+00 1.203368186950683594e+00 -3.197778761386871338e-01
6.300000000000000000e+02 3.156713294982910156e+01 2.979083442687988281e+01 -4.559631943702697754e-01 4.984187602996826172e+00 1.358467340469360352e+00 -3.707320392131805420e-01
6.310000000000000000e+02 2.435068702697753906e+01 -1.354528427124023438e+01 -5.953283309936523438e+00 -3.130784034729003906e-01 -1.879908561706542969e+00 9.291727542877197266e-01
6.320000000000000000e+02 3.933069992065429688e+01 -3.206735610961914062e+00 3.191059529781341553e-01 5.340795040130615234e+00 1.697970271110534668e+00 -2.033056259155273438e+00
6.330000000000000000e+02 5.059772872924804688e+01 -8.907623291015625000e+00 3.229481279850006104e-01 5.410741806030273438e+00 1.720107078552246094e+00 -1.508845329284667969e+00
6.340000000000000000e+02 4.541861343383789062e+01 -8.664614677429199219e+00 -5.538548231124877930e-01 6.239511489868164062e+00 1.705697059631347656e+00 -1.634180784225463867e+00
6.350000000000000000e+02 2.538356399536132812e+01 -5.209155559539794922e+00 2.487467288970947266e+00 1.088981270790100098e+00 1.072934627532958984e+00 -5.601966381072998047e-01
6.360000000000000000e+02 3.136888504028320312e+01 6.912388801574707031e+00 2.112169027328491211e+00 4.632502555847167969e+00 2.023401498794555664e+00 3.070488870143890381e-01
6.370000000000000000e+02 3.219786071777343750e+01 1.199187946319580078e+01 1.836426377296447754e+00 5.325361251831054688e+00 2.148536205291748047e+00 4.443112388253211975e-02
6.380000000000000000e+02 3.107509613037109375e+01 1.657833290100097656e+01 1.255188226699829102e+00 5.219541549682617188e+00 1.942418932914733887e+00 -1.611272394657135010e-01
6.390000000000000000e+02 2.399766731262207031e+01 2.232217216491699219e+01 2.666305303573608398e-01 4.047352313995361328e+00 1.294194817543029785e+00 -4.256072938442230225e-01
6.400000000000000000e+02 2.766382408142089844e+01 2.933535385131835938e+01 -3.427320420742034912e-01 4.537016868591308594e+00 1.258285522460937500e+00 -4.626466631889343262e-01
6.410000000000000000e+02 2.046690940856933594e+01 3.388015365600585938e+01 -4.762003719806671143e-01 3.492646932601928711e+00 9.049339294433593750e-01 -3.821385800838470459e-01
6.420000000000000000e+02 3.595040130615234375e+01 -1.426378726959228516e+01 -6.864127516746520996e-01 2.559259891510009766e+00 5.618541240692138672e-01 -2.330181598663330078e+00
6.430000000000000000e+02 6.083130836486816406e-01 -1.778509902954101562e+01 3.470854461193084717e-02 -2.854773044586181641e+00 -8.460193872451782227e-01 -4.375446960330009460e-02
6.440000000000000000e+02 6.020300984382629395e-01 -2.342951393127441406e+01 5.251708999276161194e-02 -4.358127415180206299e-01 -1.149886995553970337e-01 5.936173200607299805e-01
6.450000000000000000e+02 8.689816474914550781e+00 -2.563408088684082031e+01 7.730149626731872559e-01 1.135751819610595703e+01 3.639159917831420898e+00 -7.018093466758728027e-01
6.460000000000000000e+02 6.769597530364990234e-01 -3.042806625366210938e+01 -7.329785823822021484e-02 7.250148773193359375e+00 2.153055429458618164e+00 5.096243023872375488e-01
6.470000000000000000e+02 7.932357025146484375e+01 -2.647784423828125000e+01 4.566502571105957031e-02 6.091105937957763672e+00 1.841031312942504883e+00 4.462794587016105652e-02
6.480000000000000000e+02 7.944304656982421875e+01 -2.087593841552734375e+01 -1.710637472569942474e-02 7.779794692993164062e+00 2.328806400299072266e+00 1.859275400638580322e-01
6.490000000000000000e+02 5.158865737915039062e+01 -2.788453865051269531e+01 1.652656435966491699e+00 6.287930965423583984e+00 2.382176160812377930e+00 -2.304378986358642578e+00
6.500000000000000000e+02 5.252484512329101562e+01 -2.633497047424316406e+01 1.433998703956604004e+00 5.551584720611572266e+00 2.095674991607666016e+00 -1.672934532165527344e+00
6.510000000000000000e+02 5.277787399291992188e+01 -1.404489421844482422e+01 -6.660285592079162598e-01 1.265373945236206055e+00 1.798036098480224609e-01 -1.504498422145843506e-01
6.520000000000000000e+02 5.167840194702148438e+01 -1.640914535522460938e+01 -1.575770735740661621e+00 3.803647756576538086e+00 6.683630943298339844e-01 -5.795951485633850098e-01
6.530000000000000000e+02 5.734503555297851562e+01 -2.647800636291503906e+01 1.400247812271118164e+00 2.506590843200683594e+00 1.172051668167114258e+00 1.686129450798034668e+00
6.540000000000000000e+02 7.938816833496093750e+01 -1.247525882720947266e+01 -3.150449600070714951e-03 8.012708663940429688e+00 2.402867555618286133e+00 -1.217000931501388550e-01
6.550000000000000000e+02 6.928164672851562500e+01 -2.279637098312377930e+00 7.628153562545776367e-01 9.611343383789062500e+00 3.112247705459594727e+00 2.432246923446655273e+00
6.560000000000000000e+02 7.939552307128906250e+01 -5.534597396850585938e+00 -7.763351779431104660e-03 6.348913669586181641e+00 1.902345180511474609e+00 -1.711483597755432129e-01
6.570000000000000000e+02 7.135549926757812500e+01 6.120697498321533203e+00 4.406421184539794922e-01 1.117847061157226562e+01 3.485733747482299805e+00 -2.687191776931285858e-02
6.580000000000000000e+02 7.940354919433593750e+01 2.845035076141357422e+00 2.660016529262065887e-02 4.928386211395263672e+00 1.486495852470397949e+00 2.138448320329189301e-02
6.590000000000000000e+02 7.935794830322265625e+01 3.066371154785156250e+01 -1.728378236293792725e-02 1.005962085723876953e+01 3.012701272964477539e+00 1.807319074869155884e-01
6.600000000000000000e+02 1.459649944305419922e+01 3.296861648559570312e+01 -2.699999213218688965e-01 2.432765960693359375e+00 6.488297581672668457e-01 -3.471130430698394775e-01
6.610000000000000000e+02 2.289137458801269531e+01 2.411930847167968750e+01 7.739154249429702759e-02 3.842745542526245117e+00 1.176041126251220703e+00 -4.690595269203186035e-01
6.620000000000000000e+02 2.645744705200195312e+01 1.709387397766113281e+01 8.592121005058288574e-01 4.412077903747558594e+00 1.581386923789978027e+00 -1.399243474006652832e-01
6.630000000000000000e+02 2.758119964599609375e+01 1.134592342376708984e+01 1.545728802680969238e+00 4.472125530242919922e+00 1.805356264114379883e+00 3.738601505756378174e-01
6.640000000000000000e+02 3.300343322753906250e+01 4.364180564880371094e+00 2.050419807434082031e+00 4.641172409057617188e+00 2.007477760314941406e+00 -4.400468245148658752e-02
6.650000000000000000e+02 2.003998279571533203e+00 3.157030487060546875e+01 -1.009231712669134140e-02 3.157891333103179932e-01 9.170904755592346191e-02 -9.875682741403579712e-02
6.660000000000000000e+02 6.661317825317382812e+00 1.881270027160644531e+01 7.674898207187652588e-02 6.904506087303161621e-01 2.301598638296127319e-01 -2.956849932670593262e-01
6.670000000000000000e+02 1.400187683105468750e+01 1.794446182250976562e+01 2.073283940553665161e-01 2.289678335189819336e+00 7.491019964218139648e-01 -3.951429426670074463e-01
6.680000000000000000e+02 3.248698806762695312e+01 1.990557861328125000e+01 8.504816293716430664e-01 5.511397838592529297e+00 1.908563852310180664e+00 -2.703714966773986816e-01
6.690000000000000000e+02 1.141396999359130859e+01 1.098625564575195312e+01 3.513013422489166260e-01 1.610188484191894531e+00 5.884469151496887207e-01 -3.124017417430877686e-01
6.700000000000000000e+02 2.619896697998046875e+01 1.211047458648681641e+01 1.315247058868408203e+00 4.345476150512695312e+00 1.698216915130615234e+00 3.316601216793060303e-01
6.710000000000000000e+02 3.877009582519531250e+01 1.577916336059570312e+01 1.197699189186096191e+00 8.112482070922851562e+00 2.793054342269897461e+00 8.049087971448898315e-02
6.720000000000000000e+02 1.801414132118225098e+00 1.615924263000488281e+01 1.264127157628536224e-02 -5.283874273300170898e-01 -1.547238379716873169e-01 -7.370151579380035400e-02
6.730000000000000000e+02 3.928952789306640625e+01 1.157183933258056641e+01 1.777192115783691406e+00 8.664447784423828125e+00 3.132492065429687500e+00 -6.439807415008544922e-01
6.740000000000000000e+02 4.225128173828125000e+01 1.041644668579101562e+01 1.194254517555236816e+00 1.286032962799072266e+01 4.216375350952148438e+00 -1.926858901977539062e+00
6.750000000000000000e+02 3.741516113281250000e+01 5.674077510833740234e+00 1.725812315940856934e+00 6.369687557220458984e+00 2.428649902343750000e+00 -6.557163000106811523e-01
6.760000000000000000e+02 4.384449768066406250e+01 6.286607265472412109e+00 1.946828722953796387e+00 8.047027587890625000e+00 2.998157024383544922e+00 -3.573432207107543945e+00
6.770000000000000000e+02 2.977399444580078125e+01 -7.592722892761230469e+00 3.937909901142120361e-01 1.761095762252807617e+00 6.464660167694091797e-01 -1.580555200576782227e+00
6.780000000000000000e+02 8.590175628662109375e+00 -1.851197838783264160e+00 1.691737771034240723e-01 1.209679618477821350e-01 8.704252541065216064e-02 1.709351986646652222e-01
6.790000000000000000e+02 7.856330871582031250e+00 -1.848162651062011719e+00 7.475542277097702026e-02 1.048750504851341248e-01 5.388914048671722412e-02 1.125192120671272278e-01
6.800000000000000000e+02 6.379481792449951172e+00 -1.859144806861877441e+00 -1.016397029161453247e-01 8.888020366430282593e-02 -3.827850334346294403e-03 -4.049595817923545837e-02
6.810000000000000000e+02 5.640185356140136719e+00 -1.868694186210632324e+00 -1.444508135318756104e-01 7.181930541992187500e-02 -2.178945206105709076e-02 -1.055073365569114685e-01
6.820000000000000000e+02 4.902631759643554688e+00 -1.881836891174316406e+00 -1.604311764240264893e-01 6.603439897298812866e-02 -2.831903472542762756e-02 -1.581988632678985596e-01
6.830000000000000000e+02 3.424573183059692383e+00 -1.942808389663696289e+00 -1.377386003732681274e-01 1.807834953069686890e-02 -3.589807450771331787e-02 -2.246085405349731445e-01
6.840000000000000000e+02 3.593408823013305664e+00 -2.786063194274902344e+00 -1.292811706662178040e-02 4.603787884116172791e-02 9.932927787303924561e-03 -2.207233458757400513e-01
6.850000000000000000e+02 1.932659745216369629e+00 -2.081336259841918945e+00 -5.922188609838485718e-02 -1.007254347205162048e-01 -4.798419773578643799e-02 -1.961285024881362915e-01
6.860000000000000000e+02 1.171022295951843262e+00 -2.150762081146240234e+00 -2.837011031806468964e-02 -1.357192099094390869e-01 -4.922679811716079712e-02 -1.358550339937210083e-01
6.870000000000000000e+02 3.934170305728912354e-01 -2.194325447082519531e+00 -9.432508610188961029e-03 -1.677404940128326416e-01 -5.315189808607101440e-02 -4.851991683244705200e-02
6.880000000000000000e+02 2.032360076904296875e+00 -4.159640884399414062e+01 2.858501970767974854e-01 8.481183052062988281e+00 2.630110025405883789e+00 -8.165936917066574097e-02
6.890000000000000000e+02 4.877165317535400391e+00 -3.705566787719726562e+01 -4.327583312988281250e-01 6.183438301086425781e+00 1.725203990936279297e+00 4.104522466659545898e-01
6.900000000000000000e+02 8.021424412727355957e-01 -3.869932937622070312e+01 3.499655053019523621e-02 8.920000076293945312e+00 2.686499118804931641e+00 -1.002145856618881226e-01
6.910000000000000000e+02 7.771046161651611328e-01 -3.473389053344726562e+01 -8.762871474027633667e-02 8.987240791320800781e+00 2.669883728027343750e+00 1.521347612142562866e-01
6.920000000000000000e+02 7.878447175025939941e-01 -3.329852294921875000e+01 -5.119067803025245667e-02 8.647568702697753906e+00 2.578913211822509766e+00 2.743695378303527832e-01
6.930000000000000000e+02 6.385195255279541016e-01 -2.902577209472656250e+01 -4.267039149999618530e-02 6.069093227386474609e+00 1.807926774024963379e+00 6.414239406585693359e-01
6.940000000000000000e+02 6.044130921363830566e-01 -2.762827682495117188e+01 -1.105536799877882004e-02 4.572515010833740234e+00 1.368437886238098145e+00 7.098076939582824707e-01
6.950000000000000000e+02 5.930202007293701172e-01 -2.483720779418945312e+01 5.310133099555969238e-02 1.107821702957153320e+00 3.482769131660461426e-01 7.147752642631530762e-01
6.960000000000000000e+02 6.139700412750244141e-01 -2.201469421386718750e+01 8.336619287729263306e-02 -1.633787870407104492e+00 -4.651265144348144531e-01 4.370079040527343750e-01
6.970000000000000000e+02 6.203836202621459961e-01 -2.060463333129882812e+01 7.069429010152816772e-02 -2.427087545394897461e+00 -7.069180011749267578e-01 2.625100910663604736e-01
6.980000000000000000e+02 1.874714732170104980e+00 -2.064148712158203125e+01 3.796894550323486328e-01 2.358844429254531860e-01 1.846721619367599487e-01 8.042012453079223633e-01
6.990000000000000000e+02 5.903826951980590820e-01 -1.638557052612304688e+01 1.918472722172737122e-02 -2.661804199218750000e+00 -7.927858829498291016e-01 -1.055432036519050598e-01
7.000000000000000000e+02 5.808461904525756836e-01 -1.498723125457763672e+01 2.745523117482662201e-02 -2.310965776443481445e+00 -6.850531697273254395e-01 -1.619822680950164795e-01
7.010000000000000000e+02 5.820001363754272461e-01 -1.358802795410156250e+01 -3.041934408247470856e-02 -1.913916826248168945e+00 -5.833008289337158203e-01 -1.506071984767913818e-01
7.020000000000000000e+02 1.767775654792785645e+00 -1.373399734497070312e+01 -4.364847391843795776e-02 -4.954599738121032715e-01 -1.617325395345687866e-01 -3.565686643123626709e-01
7.030000000000000000e+02 5.829230546951293945e-01 -9.389559745788574219e+00 -8.404963649809360504e-03 -1.064833402633666992e+00 -3.219715058803558350e-01 -7.442211359739303589e-02
7.040000000000000000e+02 6.084130406379699707e-01 -7.982812404632568359e+00 1.175940153189003468e-03 -8.854773640632629395e-01 -2.652904391288757324e-01 -6.666313856840133667e-02
7.050000000000000000e+02 6.811077594757080078e-01 -6.534599304199218750e+00 7.387713994830846786e-03 -7.116285562515258789e-01 -2.112722545862197876e-01 -7.651335000991821289e-02
7.060000000000000000e+02 3.119968795776367188e+01 -3.894760131835937500e+01 -1.386483430862426758e+00 -2.074314951896667480e-01 -4.781744778156280518e-01 -1.024318113923072815e-01
7.070000000000000000e+02 1.216064643859863281e+01 -3.934560394287109375e+01 -2.121653854846954346e-01 1.252120971679687500e+00 3.119866549968719482e-01 4.108769819140434265e-02
7.080000000000000000e+02 7.877147674560546875e+01 4.003289413452148438e+01 -1.721206605434417725e-01 1.024562835693359375e+01 3.022052288055419922e+00 -2.435340434312820435e-01
7.090000000000000000e+02 7.923752593994140625e+01 3.878244781494140625e+01 7.953532785177230835e-02 1.055650329589843750e+01 3.190811634063720703e+00 -7.746636122465133667e-02
7.100000000000000000e+02 7.810552215576171875e+01 3.789736938476562500e+01 -9.505063295364379883e-02 9.939101219177246094e+00 2.953215360641479492e+00 -7.664128392934799194e-02
7.110000000000000000e+02 7.921397399902343750e+01 3.626389312744140625e+01 3.665325045585632324e-02 1.075325393676757812e+01 3.236972093582153320e+00 4.811821132898330688e-02
7.120000000000000000e+02 7.760234069824218750e+01 3.483386611938476562e+01 -1.446997076272964478e-01 9.713515281677246094e+00 2.870644569396972656e+00 1.875352710485458374e-01
7.130000000000000000e+02 7.930382537841796875e+01 3.345029067993164062e+01 -5.288212746381759644e-02 1.061591815948486328e+01 3.168910741806030273e+00 1.065706312656402588e-01
7.140000000000000000e+02 7.659959411621093750e+01 2.939074325561523438e+01 -7.476617395877838135e-02 8.682943344116210938e+00 2.582453012466430664e+00 6.693271994590759277e-01
7.150000000000000000e+02 7.935462951660156250e+01 2.646767807006835938e+01 1.569045335054397583e-02 8.973675727844238281e+00 2.696809768676757812e+00 1.998615711927413940e-01
7.160000000000000000e+02 7.695879364013671875e+01 2.490476989746093750e+01 8.566317707300186157e-02 8.347716331481933594e+00 2.530013799667358398e+00 5.759693980216979980e-01
7.170000000000000000e+02 7.938193511962890625e+01 2.228047752380371094e+01 -1.108687557280063629e-02 8.005378723144531250e+00 2.398287773132324219e+00 1.384000927209854126e-01
7.180000000000000000e+02 7.938745117187500000e+01 2.089571952819824219e+01 2.727835439145565033e-02 7.768321514129638672e+00 2.338680028915405273e+00 1.210527122020721436e-01
7.190000000000000000e+02 7.815045928955078125e+01 2.086697196960449219e+01 1.575847156345844269e-02 7.920746326446533203e+00 2.380951404571533203e+00 2.907434403896331787e-01
7.200000000000000000e+02 7.939882659912109375e+01 1.951094627380371094e+01 -1.351848058402538300e-02 7.560819149017333984e+00 2.264190196990966797e+00 1.061845645308494568e-01
7.210000000000000000e+02 7.940731811523437500e+01 1.533596324920654297e+01 3.862083191052079201e-03 7.038451194763183594e+00 2.112694025039672852e+00 9.592550992965698242e-02
7.220000000000000000e+02 7.941198730468750000e+01 1.394810009002685547e+01 -6.401952356100082397e-03 6.850971221923828125e+00 2.053370714187622070e+00 9.975773096084594727e-02
7.230000000000000000e+02 7.941710662841796875e+01 1.255947780609130859e+01 -7.588139269500970840e-03 6.633289337158203125e+00 1.987710475921630859e+00 1.170211955904960632e-01
7.240000000000000000e+02 7.941595458984375000e+01 1.117027854919433594e+01 4.122669633943587542e-04 6.378293991088867188e+00 1.913611888885498047e+00 1.260906159877777100e-01
7.250000000000000000e+02 7.940639495849609375e+01 8.402046203613281250e+00 1.056880690157413483e-02 5.780949115753173828e+00 1.737455487251281738e+00 1.453230679035186768e-01
7.260000000000000000e+02 7.940775299072265625e+01 7.016547679901123047e+00 7.972854655236005783e-04 5.478594303131103516e+00 1.643817424774169922e+00 1.331047713756561279e-01
7.270000000000000000e+02 7.940972137451171875e+01 5.627920627593994141e+00 1.939903758466243744e-02 5.214498519897460938e+00 1.570169210433959961e+00 1.081930547952651978e-01
7.280000000000000000e+02 7.939356994628906250e+01 1.450347781181335449e+00 2.179167978465557098e-02 4.953871250152587891e+00 1.492698788642883301e+00 -3.473693132400512695e-02
7.290000000000000000e+02 7.938220214843750000e+01 5.275741219520568848e-02 2.048852108418941498e-02 5.092311382293701172e+00 1.533839941024780273e+00 -8.253223448991775513e-02
7.300000000000000000e+02 7.937602233886718750e+01 -1.345336556434631348e+00 1.880460046231746674e-02 5.326185226440429688e+00 1.603496909141540527e+00 -1.266828328371047974e-01
7.310000000000000000e+02 7.813435363769531250e+01 -2.673728227615356445e+00 5.180582404136657715e-02 6.216221332550048828e+00 1.880408048629760742e+00 -3.801542520523071289e-01
7.320000000000000000e+02 7.937860107421875000e+01 -2.743427276611328125e+00 2.114232163876295090e-03 5.628324508666992188e+00 1.689131617546081543e+00 -1.483753025531768799e-01
7.330000000000000000e+02 7.940226745605468750e+01 -6.924187660217285156e+00 2.179454779252409935e-03 6.722000122070312500e+00 2.017253875732421875e+00 -1.651544421911239624e-01
7.340000000000000000e+02 7.940599060058593750e+01 -8.310983657836914062e+00 -6.961518898606300354e-03 7.084058761596679688e+00 2.123129129409790039e+00 -1.581759750843048096e-01
7.350000000000000000e+02 7.821485900878906250e+01 -9.586765289306640625e+00 -2.096426859498023987e-02 7.256537914276123047e+00 2.170671939849853516e+00 -3.788841664791107178e-01
7.360000000000000000e+02 7.940448760986328125e+01 -9.698170661926269531e+00 -1.725711626932024956e-03 7.423989295959472656e+00 2.226679086685180664e+00 -1.482650488615036011e-01
7.370000000000000000e+02 7.937532806396484375e+01 -1.386672210693359375e+01 -1.773956045508384705e-02 8.243227958679199219e+00 2.467646598815917969e+00 -9.602976590394973755e-02
7.380000000000000000e+02 7.936020660400390625e+01 -1.527063846588134766e+01 -1.955810375511646271e-02 8.393365859985351562e+00 2.512142419815063477e+00 -5.462918058037757874e-02
7.390000000000000000e+02 7.804600524902343750e+01 -1.661365127563476562e+01 -1.352082192897796631e-01 7.953884601593017578e+00 2.345602750778198242e+00 -1.520547550171613693e-02
7.400000000000000000e+02 7.934940338134765625e+01 -1.668531036376953125e+01 -3.415879607200622559e-02 8.437428474426269531e+00 2.520980834960937500e+00 4.688564222306013107e-03
7.410000000000000000e+02 7.944226837158203125e+01 -2.225536537170410156e+01 -2.811390161514282227e-02 7.226153373718261719e+00 2.159411907196044922e+00 2.453944236040115356e-01
7.420000000000000000e+02 7.668174743652343750e+01 -2.684188270568847656e+01 6.800764799118041992e-01 7.497671127319335938e+00 2.453324317932128906e+00 5.479547753930091858e-02
7.430000000000000000e+02 7.939028167724609375e+01 -2.365112304687500000e+01 4.028530791401863098e-02 6.656318664550781250e+00 2.008981227874755859e+00 2.257622778415679932e-01
7.440000000000000000e+02 7.937769317626953125e+01 -2.789155197143554688e+01 8.111395686864852905e-02 6.127231597900390625e+00 1.862503647804260254e+00 -9.037032723426818848e-02
7.450000000000000000e+02 7.942573547363281250e+01 -2.927953147888183594e+01 -1.206584647297859192e-02 6.421416759490966797e+00 1.922805309295654297e+00 -1.759181469678878784e-01
7.460000000000000000e+02 7.835611724853515625e+01 -3.062927627563476562e+01 4.036929085850715637e-02 7.145234584808349609e+00 2.155681133270263672e+00 -5.248073339462280273e-01
7.470000000000000000e+02 7.945102691650390625e+01 -3.064473533630371094e+01 3.334153071045875549e-02 6.872759819030761719e+00 2.071830272674560547e+00 -2.012445479631423950e-01
7.480000000000000000e+02 7.927087402343750000e+01 -3.473320770263671875e+01 -4.292260482907295227e-02 8.145972251892089844e+00 2.430914878845214844e+00 -1.380078047513961792e-01
7.490000000000000000e+02 7.913195800781250000e+01 -3.611781311035156250e+01 -5.798792000859975815e-03 8.332926750183105469e+00 2.498138427734375000e+00 -9.961543232202529907e-02
7.500000000000000000e+02 7.895198822021484375e+01 -3.753757476806640625e+01 -2.908489666879177094e-02 8.444483757019042969e+00 2.524619579315185547e+00 -7.146634161472320557e-02
7.510000000000000000e+02 7.875133514404296875e+01 -3.897708129882812500e+01 -1.717779338359832764e-01 8.438685417175292969e+00 2.480072021484375000e+00 5.860761925578117371e-02
7.520000000000000000e+02 6.257488727569580078e+00 3.798031234741210938e+01 -8.299291133880615234e-02 1.167895317077636719e+00 3.254707157611846924e-01 -9.842935949563980103e-02
7.530000000000000000e+02 7.155934906005859375e+01 3.511809158325195312e+01 -5.740705728530883789e-01 5.631897926330566406e+00 1.517348170280456543e+00 -1.910234428942203522e-02
7.540000000000000000e+02 3.990783989429473877e-01 2.190956115722656250e+00 -6.384434644132852554e-03 -8.218874782323837280e-02 -2.657195366919040680e-02 2.946256846189498901e-02
7.550000000000000000e+02 2.909423828125000000e+00 3.075630187988281250e+00 -7.945459336042404175e-02 -1.332459449768066406e-01 -6.381016224622726440e-02 2.544153630733489990e-01
7.560000000000000000e+02 5.566849231719970703e+00 4.217972755432128906e+00 9.869989939033985138e-03 -8.596483618021011353e-02 -2.282845415174961090e-02 3.527722060680389404e-01
7.570000000000000000e+02 5.453051328659057617e-01 9.229700088500976562e+00 5.803367588669061661e-03 -8.374434113502502441e-01 -2.494920194149017334e-01 3.129229694604873657e-02
7.580000000000000000e+02 5.761573910713195801e-01 1.204592514038085938e+01 4.438665695488452911e-03 -9.265809059143066406e-01 -2.766426801681518555e-01 2.960988553240895271e-03
7.590000000000000000e+02 1.734653234481811523e+00 1.193020915985107422e+01 2.789730764925479889e-02 -6.286998987197875977e-01 -1.802407652139663696e-01 9.759871289134025574e-03
7.600000000000000000e+02 6.014220714569091797e-01 1.628029441833496094e+01 4.327454138547182083e-03 -8.345292210578918457e-01 -2.490605264902114868e-01 -2.739034034311771393e-02
7.610000000000000000e+02 6.047693490982055664e-01 1.769152450561523438e+01 6.288235308602452278e-04 -7.657716274261474609e-01 -2.295428365468978882e-01 -3.286098316311836243e-02
7.620000000000000000e+02 6.241483092308044434e-01 2.192558288574218750e+01 2.719903830438852310e-03 -5.020759105682373047e-01 -1.498068124055862427e-01 -4.308815672993659973e-02
7.630000000000000000e+02 6.369324922561645508e-01 2.334187889099121094e+01 -7.060640491545200348e-04 -4.037926197052001953e-01 -1.213496103882789612e-01 -4.503595456480979919e-02
7.640000000000000000e+02 6.469331979751586914e-01 2.475931167602539062e+01 2.401712117716670036e-04 -3.060375452041625977e-01 -9.173921495676040649e-02 -4.469182342290878296e-02
7.650000000000000000e+02 6.397714614868164062e-01 2.898412322998046875e+01 -2.598316408693790436e-03 -3.236403688788414001e-02 -1.048870664089918137e-02 -3.802455216646194458e-02
7.660000000000000000e+02 6.472010016441345215e-01 3.039028549194335938e+01 2.482616575434803963e-03 5.232519656419754028e-02 1.644234359264373779e-02 -3.862526640295982361e-02
7.670000000000000000e+02 1.932228565216064453e+00 3.019900131225585938e+01 -6.615671329200267792e-03 2.432228624820709229e-01 7.098215818405151367e-02 -1.052302345633506775e-01
7.680000000000000000e+02 6.656026244163513184e-01 3.179323196411132812e+01 -6.354413926601409912e-03 1.292577534914016724e-01 3.687100112438201904e-02 -3.322160616517066956e-02
7.690000000000000000e+02 8.013449311256408691e-01 3.596216964721679688e+01 1.178555563092231750e-02 3.328061401844024658e-01 1.033775061368942261e-01 -4.055029153823852539e-02
7.700000000000000000e+02 1.024796485900878906e+00 3.870863723754882812e+01 -4.990312736481428146e-03 4.727586209774017334e-01 1.403304934501647949e-01 -4.103616252541542053e-02
7.710000000000000000e+02 1.329408168792724609e+00 4.009381103515625000e+01 2.511442825198173523e-02 5.424656271934509277e-01 1.702740192413330078e-01 -6.133860349655151367e-02
7.720000000000000000e+02 9.938626289367675781e+00 1.779627799987792969e+00 -4.446206390857696533e-01 -1.761237829923629761e-01 -1.862233281135559082e-01 2.554749548435211182e-01
7.730000000000000000e+02 9.135670661926269531e+00 1.823263764381408691e+00 -5.291524529457092285e-01 -1.758649498224258423e-01 -2.115052193403244019e-01 3.443034589290618896e-01
7.740000000000000000e+02 8.341527938842773438e+00 1.844303965568542480e+00 -5.170577764511108398e-01 -9.702034294605255127e-02 -1.842234432697296143e-01 3.822334706783294678e-01
7.750000000000000000e+02 7.598258972167968750e+00 2.569072246551513672e+00 -2.589589953422546387e-01 -6.460329145193099976e-02 -9.706868976354598999e-02 3.682480454444885254e-01
7.760000000000000000e+02 6.761250972747802734e+00 1.864812850952148438e+00 -4.649052023887634277e-01 -2.497661858797073364e-02 -1.469645500183105469e-01 3.284986913204193115e-01
7.770000000000000000e+02 4.395878314971923828e+00 1.931743621826171875e+00 -2.539274394512176514e-01 -5.019345507025718689e-02 -9.123626351356506348e-02 2.637664079666137695e-01
7.780000000000000000e+02 3.602848291397094727e+00 1.976574063301086426e+00 -1.871687471866607666e-01 -5.646752566099166870e-02 -7.309088110923767090e-02 2.325529903173446655e-01
7.790000000000000000e+02 1.997969388961791992e+00 2.096430301666259766e+00 -7.551717013120651245e-02 -9.003737568855285645e-02 -4.966636374592781067e-02 1.439871191978454590e-01
7.800000000000000000e+02 1.197572112083435059e+00 2.151291847229003906e+00 -3.213192149996757507e-02 -1.009964942932128906e-01 -3.993852436542510986e-02 8.844823390245437622e-02
7.810000000000000000e+02 1.303784656524658203e+01 6.525575518608093262e-01 -1.624028980731964111e-01 1.001832365989685059e+00 2.518288195133209229e-01 -5.581275224685668945e-01
7.820000000000000000e+02 1.449654388427734375e+01 -1.601733863353729248e-01 -3.886065445840358734e-03 4.004262924194335938e+00 1.200113058090209961e+00 -1.515940546989440918e+00
7.830000000000000000e+02 1.487708091735839844e+01 -3.723770678043365479e-01 -6.727889925241470337e-02 5.788770675659179688e+00 1.716447472572326660e+00 -1.551188230514526367e+00
7.840000000000000000e+02 1.572579288482666016e+01 -5.998318791389465332e-01 -3.319412767887115479e-01 1.020225620269775391e+01 2.961094379425048828e+00 1.480933874845504761e-01
7.850000000000000000e+02 1.578821086883544922e+01 -9.434622526168823242e-01 -3.708105087280273438e-01 1.227041435241699219e+01 3.569881200790405273e+00 7.116690278053283691e-01
7.860000000000000000e+02 1.415641117095947266e+01 -3.845976352691650391e+00 9.458107948303222656e+00 3.536792039871215820e+00 3.898469924926757812e+00 6.875493049621582031e+00
7.870000000000000000e+02 1.364651012420654297e+01 -3.507149934768676758e+00 8.513694763183593750e+00 7.416151165962219238e-01 2.776592969894409180e+00 3.974193572998046875e+00
7.880000000000000000e+02 1.265102195739746094e+01 -2.962608098983764648e+00 4.586893558502197266e+00 -2.320923954248428345e-01 1.306440353393554688e+00 1.160853028297424316e+00
7.890000000000000000e+02 1.225910758972167969e+01 -2.823032379150390625e+00 3.647890567779541016e+00 -1.465642601251602173e-01 1.050397872924804688e+00 8.956996202468872070e-01
7.900000000000000000e+02 1.082419013977050781e+01 -2.256865739822387695e+00 1.250530838966369629e+00 -2.370301261544227600e-02 3.680483698844909668e-01 3.532861471176147461e-01
7.910000000000000000e+02 7.242546844482421875e+01 -2.936772918701171875e+01 9.745016098022460938e-01 9.222068786621093750e+00 3.058970928192138672e+00 5.239496827125549316e-01
7.920000000000000000e+02 7.086949157714843750e+01 -2.996003341674804688e+01 1.476640820503234863e+00 7.628242015838623047e+00 2.731464862823486328e+00 2.971133232116699219e+00
7.930000000000000000e+02 6.918221282958984375e+01 -3.219593048095703125e+01 4.158636033535003662e-01 2.370087862014770508e+00 8.357854485511779785e-01 1.280614852905273438e+00
7.940000000000000000e+02 6.683946228027343750e+01 -3.408177185058593750e+01 -1.093811631202697754e+00 3.282289206981658936e-01 -2.296748012304306030e-01 3.486926481127738953e-02
7.950000000000000000e+02 6.305921554565429688e+01 3.789944458007812500e+01 -2.265520989894866943e-01 -3.302337825298309326e-01 -1.670357584953308105e-01 2.238603532314300537e-01
7.960000000000000000e+02 6.495290374755859375e+01 3.452363967895507812e+01 -1.365307450294494629e+00 -2.829930931329727173e-02 -4.180820286273956299e-01 6.481521725654602051e-01
7.970000000000000000e+02 6.945105743408203125e+01 2.710342788696289062e+01 3.797712326049804688e-01 7.133011341094970703e+00 2.253834724426269531e+00 -1.110738515853881836e+00
7.980000000000000000e+02 6.996947479248046875e+01 2.288241195678710938e+01 1.074670478701591492e-01 9.026657104492187500e+00 2.740237236022949219e+00 -4.356397688388824463e-02
7.990000000000000000e+02 6.988859558105468750e+01 2.429495048522949219e+01 1.864311844110488892e-01 8.910225868225097656e+00 2.728996992111206055e+00 -3.528960347175598145e-01
8.000000000000000000e+02 7.001853179931640625e+01 1.864907646179199219e+01 -1.218288321979343891e-03 9.277215957641601562e+00 2.782799243927001953e+00 1.218741089105606079e-01
8.010000000000000000e+02 6.996525573730468750e+01 1.440039730072021484e+01 2.345273047685623169e-01 1.018882942199707031e+01 3.127007007598876953e+00 4.397296607494354248e-01
8.020000000000000000e+02 6.985386657714843750e+01 1.301083946228027344e+01 2.726513519883155823e-02 9.114377021789550781e+00 2.742492675781250000e+00 5.957411527633666992e-01
8.030000000000000000e+02 7.135292816162109375e+01 4.697679042816162109e+00 2.144679278135299683e-01 1.169486904144287109e+01 3.572800874710083008e+00 2.420705854892730713e-01
8.040000000000000000e+02 6.997974395751953125e+01 4.732314050197601318e-01 7.017013430595397949e-01 1.297375869750976562e+01 4.102638244628906250e+00 2.004373311996459961e+00
8.050000000000000000e+02 6.883747863769531250e+01 -3.629978656768798828e+00 8.333848118782043457e-01 8.289980888366699219e+00 2.737009763717651367e+00 2.384842395782470703e+00
8.060000000000000000e+02 6.833096313476562500e+01 -4.959268093109130859e+00 8.955653905868530273e-01 7.056365489959716797e+00 2.385579347610473633e+00 2.302814483642578125e+00
8.070000000000000000e+02 6.947212219238281250e+01 -8.469556808471679688e+00 2.732396721839904785e-01 5.873732089996337891e+00 1.844091534614562988e+00 8.705835342407226562e-01
8.080000000000000000e+02 6.412073516845703125e+01 -1.241303920745849609e+01 1.350267052650451660e+00 2.079192876815795898e+00 1.028838038444519043e+00 1.541134238243103027e+00
8.090000000000000000e+02 6.191719055175781250e+01 -1.430330371856689453e+01 1.062289953231811523e+00 9.625695347785949707e-01 6.074578166007995605e-01 1.083796501159667969e+00
8.100000000000000000e+02 5.804223251342773438e+01 -1.631603622436523438e+01 -2.363773107528686523e+00 3.825823068618774414e-01 -5.943572521209716797e-01 -1.036845222115516663e-01
8.110000000000000000e+02 5.103712081909179688e+01 -1.022436141967773438e+01 3.846372365951538086e-01 4.976198673248291016e+00 1.608250737190246582e+00 -1.277466654777526855e+00
8.120000000000000000e+02 5.017266845703125000e+01 -7.589354515075683594e+00 4.710243046283721924e-01 5.614384651184082031e+00 1.825622677803039551e+00 -1.625130295753479004e+00
8.130000000000000000e+02 4.973831939697265625e+01 -6.273899078369140625e+00 4.772428572177886963e-01 5.782209873199462891e+00 1.877835869789123535e+00 -1.808687567710876465e+00
8.140000000000000000e+02 4.773911666870117188e+01 -4.338311672210693359e+00 5.082317590713500977e-01 5.684348106384277344e+00 1.857774019241333008e+00 -2.047568798065185547e+00
8.150000000000000000e+02 4.783665084838867188e+01 -1.096055269241333008e+00 8.556819558143615723e-01 5.267500400543212891e+00 1.836954593658447266e+00 -2.321207046508789062e+00
8.160000000000000000e+02 4.724709320068359375e+01 1.495493948459625244e-01 1.131553888320922852e+00 5.434086799621582031e+00 1.969692230224609375e+00 -2.558575868606567383e+00
8.170000000000000000e+02 4.662915802001953125e+01 1.387486696243286133e+00 1.278630733489990234e+00 5.604204654693603516e+00 2.064850568771362305e+00 -2.715104103088378906e+00
8.180000000000000000e+02 4.598761749267578125e+01 2.616645574569702148e+00 1.379333972930908203e+00 5.639441013336181641e+00 2.105632543563842773e+00 -2.894445419311523438e+00
8.190000000000000000e+02 4.457672119140625000e+01 5.046511173248291016e+00 1.828512907028198242e+00 6.747126102447509766e+00 2.572691679000854492e+00 -3.462025165557861328e+00
8.200000000000000000e+02 4.316208267211914062e+01 7.584132194519042969e+00 1.674513339996337891e+00 9.305031776428222656e+00 3.293863773345947266e+00 -3.531724929809570312e+00
8.210000000000000000e+02 4.210287475585937500e+01 1.190237617492675781e+01 5.935804843902587891e-01 1.236754608154296875e+01 3.888338088989257812e+00 -4.123453497886657715e-01
8.220000000000000000e+02 4.217477035522460938e+01 1.486257743835449219e+01 3.195188939571380615e-01 1.076455497741699219e+01 3.325222253799438477e+00 8.443022966384887695e-01
8.230000000000000000e+02 4.270626449584960938e+01 1.774808883666992188e+01 6.256414651870727539e-01 9.714965820312500000e+00 3.102182149887084961e+00 1.960917949676513672e+00
8.240000000000000000e+02 4.399551010131835938e+01 2.185597419738769531e+01 1.078857779502868652e+00 7.700151443481445312e+00 2.633702754974365234e+00 2.510687112808227539e+00
8.250000000000000000e+02 4.653078460693359375e+01 2.690245819091796875e+01 1.211482763290405273e+00 4.223463058471679688e+00 1.630483746528625488e+00 2.132333040237426758e+00
8.260000000000000000e+02 4.819086837768554688e+01 2.923659706115722656e+01 1.018433570861816406e+00 2.597945213317871094e+00 1.084913611412048340e+00 1.582175850868225098e+00
8.270000000000000000e+02 5.010611724853515625e+01 3.126834869384765625e+01 6.140366196632385254e-01 1.453669786453247070e+00 6.203119158744812012e-01 9.408966302871704102e-01
8.280000000000000000e+02 2.010007095336914062e+01 -1.308771991729736328e+01 -1.078482913970947266e+01 -7.503727674484252930e-01 -3.460560560226440430e+00 1.354203701019287109e+00
8.290000000000000000e+02 2.622403526306152344e+01 -1.569356155395507812e+01 -4.305150032043457031e+00 -5.875684618949890137e-01 -1.467815518379211426e+00 1.753490686416625977e+00
8.300000000000000000e+02 2.789954185485839844e+01 -1.510108947753906250e+01 -3.599129915237426758e+00 5.317094177007675171e-02 -1.063787698745727539e+00 8.241796493530273438e-01
8.310000000000000000e+02 2.994298934936523438e+01 -1.719130134582519531e+01 -3.009465456008911133e+00 -1.149030029773712158e-01 -9.373105764389038086e-01 8.587910532951354980e-01
8.320000000000000000e+02 3.121159362792968750e+01 -1.755102539062500000e+01 -2.776614904403686523e+00 3.535061329603195190e-02 -8.223792314529418945e-01 5.355584621429443359e-01
8.330000000000000000e+02 3.517374801635742188e+01 -1.789167785644531250e+01 -2.231557369232177734e+00 1.624701023101806641e-01 -6.207261681556701660e-01 -2.800475955009460449e-01
8.340000000000000000e+02 3.926510620117187500e+01 -1.782098007202148438e+01 2.029753446578979492e+00 5.444013595581054688e+00 2.242130279541015625e+00 -3.614045619964599609e+00
8.350000000000000000e+02 4.277099227905273438e+01 -2.168023681640625000e+01 4.804108142852783203e+00 1.499073123931884766e+01 5.938451766967773438e+00 -4.475629329681396484e+00
8.360000000000000000e+02 4.395451736450195312e+01 -2.330629539489746094e+01 3.348111391067504883e+00 1.113538169860839844e+01 4.345047950744628906e+00 -3.243943691253662109e+00
8.370000000000000000e+02 4.229655075073242188e+01 -2.671572685241699219e+01 8.517063222825527191e-03 1.346781158447265625e+01 4.042898654937744141e+00 -2.411820590496063232e-01
8.380000000000000000e+02 3.836105346679687500e+01 -3.254387283325195312e+01 -3.001616239547729492e+00 2.019450515508651733e-01 -8.399013876914978027e-01 -4.344999492168426514e-01
8.390000000000000000e+02 3.699264907836914062e+01 -3.294758605957031250e+01 -3.904435873031616211e+00 -3.014601171016693115e-01 -1.261768817901611328e+00 -5.374510884284973145e-01
8.400000000000000000e+02 2.955810737609863281e+01 -3.482763671875000000e+01 -2.039482593536376953e+00 -2.575093694031238556e-02 -6.195700168609619141e-01 2.291884645819664001e-02
8.410000000000000000e+02 2.614631080627441406e+01 -3.158822059631347656e+01 -2.019802570343017578e+00 -1.051189284771680832e-02 -6.090943813323974609e-01 1.912245005369186401e-01
8.420000000000000000e+02 2.480134963989257812e+01 -3.154631423950195312e+01 -2.076781749725341797e+00 -5.197431892156600952e-04 -6.231904625892639160e-01 1.760848611593246460e-01
8.430000000000000000e+02 2.200752067565917969e+01 -3.154184150695800781e+01 -2.447887182235717773e+00 -1.832229271531105042e-02 -7.398628592491149902e-01 1.895950734615325928e-01
8.440000000000000000e+02 1.915889549255371094e+01 -3.149520874023437500e+01 -3.431857585906982422e+00 -7.286770641803741455e-02 -1.051417589187622070e+00 3.629707098007202148e-01
8.450000000000000000e+02 1.779800033569335938e+01 -3.131647300720214844e+01 -4.182487487792968750e+00 -2.520000040531158447e-01 -1.330346226692199707e+00 6.169714927673339844e-01
8.460000000000000000e+02 9.396637916564941406e+00 -2.669841957092285156e+01 -1.726731806993484497e-01 4.733972072601318359e+00 1.368389725685119629e+00 -1.189685463905334473e+00
8.470000000000000000e+02 8.407610893249511719e+00 -2.352217292785644531e+01 7.168098092079162598e-01 1.583932685852050781e+01 4.966841220855712891e+00 1.126173734664916992e+00
8.480000000000000000e+02 8.870578765869140625e+00 -2.088025093078613281e+01 2.543951034545898438e+00 1.842308235168457031e+01 6.290109634399414062e+00 4.969860553741455078e+00
8.490000000000000000e+02 9.936934471130371094e+00 -1.830143928527832031e+01 3.228046178817749023e+00 1.314503097534179688e+01 4.911922931671142578e+00 6.134212970733642578e+00
8.500000000000000000e+02 9.311112403869628906e+00 -1.514479637145996094e+01 9.760370254516601562e-01 8.452445030212402344e+00 2.828544616699218750e+00 2.452192544937133789e+00
8.510000000000000000e+02 1.402415943145751953e+01 -1.436530590057373047e+01 2.820629775524139404e-01 2.191551923751831055e+00 7.420844435691833496e-01 1.745560765266418457e+00
8.520000000000000000e+02 1.385590362548828125e+01 -4.013891696929931641e+00 8.353431701660156250e+00 2.751920700073242188e+00 3.331605672836303711e+00 6.108016014099121094e+00
8.530000000000000000e+02 1.314302349090576172e+01 -3.273286104202270508e+00 6.602144241333007812e+00 -8.948417007923126221e-02 1.953798055648803711e+00 2.231392621994018555e+00
8.540000000000000000e+02 1.397720527648925781e+01 -3.742332935333251953e+00 9.289925575256347656e+00 2.351969480514526367e+00 3.492568731307983398e+00 5.780693531036376953e+00
8.550000000000000000e+02 1.349602222442626953e+01 -3.401639699935913086e+00 8.191698074340820312e+00 2.526496946811676025e-01 2.533304452896118164e+00 3.308768033981323242e+00
8.560000000000000000e+02 1.155584049224853516e+01 -2.526844739913940430e+00 2.196907281875610352e+00 -8.062247931957244873e-02 6.348854303359985352e-01 5.524683594703674316e-01
8.570000000000000000e+02 1.380484580993652344e+01 -3.629011631011962891e+00 9.037620544433593750e+00 1.404097557067871094e+00 3.132515430450439453e+00 4.913134574890136719e+00
8.580000000000000000e+02 1.333206462860107422e+01 -3.338405847549438477e+00 7.369375705718994141e+00 6.068596243858337402e-02 2.229018449783325195e+00 2.684124231338500977e+00
8.590000000000000000e+02 1.202905654907226562e+01 -2.719853878021240234e+00 3.147731304168701172e+00 -2.012935131788253784e-01 8.839313387870788574e-01 7.343184351921081543e-01
8.600000000000000000e+02 1.230051040649414062e+01 9.754245877265930176e-01 -3.101237416267395020e-01 4.466946423053741455e-01 4.097126424312591553e-02 -2.868151664733886719e-01
8.610000000000000000e+02 1.469243431091308594e+01 -2.635297179222106934e-01 -2.678747288882732391e-03 4.679251670837402344e+00 1.402971863746643066e+00 -1.504351496696472168e+00
8.620000000000000000e+02 1.595322608947753906e+01 -1.064094781875610352e+00 1.086739972233772278e-01 1.241653823852539062e+01 3.757563591003417969e+00 1.485049366950988770e+00
8.630000000000000000e+02 1.546504783630371094e+01 -3.143606781959533691e-01 -4.794556200504302979e-01 8.317448616027832031e+00 2.351397991180419922e+00 -7.941001057624816895e-01
8.640000000000000000e+02 1.395587539672851562e+01 1.060565561056137085e-01 7.875765860080718994e-02 2.291529893875122070e+00 7.110862731933593750e-01 -1.141195893287658691e+00
8.650000000000000000e+02 1.454283523559570312e+01 2.261521667242050171e-01 2.023976482450962067e-02 4.243680000305175781e+00 1.279175996780395508e+00 -1.453804373741149902e+00
8.660000000000000000e+02 1.712330245971679688e+01 -1.606086134910583496e+00 6.125274658203125000e+00 1.041288471221923828e+01 4.961447715759277344e+00 6.066609382629394531e+00
8.670000000000000000e+02 1.507484626770019531e+01 -4.765809476375579834e-01 -2.346526831388473511e-01 6.725918292999267578e+00 1.947379708290100098e+00 -1.617704868316650391e+00
8.680000000000000000e+02 4.300395965576171875e+00 -2.683812141418457031e+00 -8.219739422202110291e-03 1.071620658040046692e-01 2.968269959092140198e-02 -1.743705868721008301e-01
8.690000000000000000e+02 7.178256511688232422e+00 -2.560702085494995117e+00 2.924571633338928223e-01 1.843752115964889526e-01 1.430497169494628906e-01 1.533887386322021484e-01
8.700000000000000000e+02 2.681928396224975586e+00 -2.006504774093627930e+00 -1.043976023793220520e-01 -3.644467517733573914e-02 -4.225268214941024780e-02 -2.350614666938781738e-01
8.710000000000000000e+02 1.819109678268432617e+00 -8.284076690673828125e+00 -1.150188408792018890e-02 -2.405200451612472534e-01 -7.560657709836959839e-02 -1.248806491494178772e-01
8.720000000000000000e+02 2.002399206161499023e+00 -6.940055370330810547e+00 8.377650752663612366e-03 -1.718813627958297729e-01 -4.905111715197563171e-02 -1.199613809585571289e-01
8.730000000000000000e+02 3.224295854568481445e+00 -7.513392448425292969e+00 2.478740364313125610e-02 4.824035465717315674e-01 1.521572917699813843e-01 -1.113310642540454865e-02
8.740000000000000000e+02 4.627844393253326416e-01 -3.587659358978271484e+00 1.500874990597367287e-03 -3.632437586784362793e-01 -1.085228621959686279e-01 -6.252676993608474731e-02
8.750000000000000000e+02 6.232722997665405273e-01 -5.040036201477050781e+00 -8.215366862714290619e-03 -5.605360269546508789e-01 -1.706254184246063232e-01 -7.385428249835968018e-02
8.760000000000000000e+02 7.894857883453369141e+00 -2.548270702362060547e+00 4.273966848850250244e-01 1.949107944965362549e-01 1.866922378540039062e-01 2.530868649482727051e-01
8.770000000000000000e+02 7.118882179260253906e+00 -1.852124691009521484e+00 -3.591839969158172607e-02 9.125553071498870850e-02 1.660113967955112457e-02 3.042778559029102325e-02
8.780000000000000000e+02 6.454634189605712891e+00 -2.580677270889282227e+00 1.684578657150268555e-01 1.685798615217208862e-01 1.011113151907920837e-01 5.312287807464599609e-02
8.790000000000000000e+02 5.011893272399902344e+00 -2.642496824264526367e+00 2.797514386475086212e-02 1.214123442769050598e-01 4.481624811887741089e-02 -1.144710034132003784e-01
8.800000000000000000e+02 5.730667114257812500e+00 -2.607862472534179688e+00 8.560737967491149902e-02 1.578136533498764038e-01 7.302630692720413208e-02 -3.849814459681510925e-02
8.810000000000000000e+02 1.496988773345947266e+01 -4.315882682800292969e+00 6.849560737609863281e+00 1.017754268646240234e+01 5.108130931854248047e+00 7.325243473052978516e+00
8.820000000000000000e+02 1.438913631439208984e+01 -4.594704627990722656e+00 6.395911216735839844e+00 6.842401027679443359e+00 3.971493721008300781e+00 7.499408245086669922e+00
8.830000000000000000e+02 1.794853210449218750e+01 -2.948847055435180664e+00 9.252769470214843750e+00 6.078913688659667969e+00 4.599504947662353516e+00 3.153365612030029297e+00
8.840000000000000000e+02 1.779003906250000000e+01 -1.057275891304016113e+00 4.523163795471191406e+00 8.462844848632812500e+00 3.895802736282348633e+00 5.078087329864501953e+00
8.850000000000000000e+02 1.664697647094726562e+01 -9.323173761367797852e-01 2.195344686508178711e+00 1.113883209228515625e+01 4.000253200531005859e+00 3.949382066726684570e+00
8.860000000000000000e+02 1.702784538269042969e+01 -4.647884368896484375e+00 5.985117912292480469e+00 8.820975303649902344e+00 4.441827774047851562e+00 1.483739376068115234e+00
8.870000000000000000e+02 1.603465080261230469e+01 -4.314495086669921875e+00 6.194803237915039062e+00 1.315929698944091797e+01 5.806230068206787109e+00 3.254971742630004883e+00
8.880000000000000000e+02 1.733334350585937500e+01 -3.734690189361572266e+00 9.630187034606933594e+00 8.100712776184082031e+00 5.319269657135009766e+00 1.397412657737731934e+00
8.890000000000000000e+02 8.424834251403808594e+00 3.248341798782348633e+00 -8.209644816815853119e-03 -2.604805119335651398e-02 -1.027730945497751236e-02 2.814301252365112305e-01
8.900000000000000000e+02 8.388541221618652344e+00 2.538407802581787109e+00 -2.602851390838623047e-01 -8.875013887882232666e-02 -1.047105789184570312e-01 3.442923128604888916e-01
8.910000000000000000e+02 1.577141284942626953e+00 7.739183902740478516e+00 2.848503552377223969e-02 -5.394641757011413574e-01 -1.532937437295913696e-01 1.287461817264556885e-01
8.920000000000000000e+02 5.183862209320068359e+00 1.899031162261962891e+00 -3.250066339969635010e-01 -3.556298837065696716e-02 -1.081708818674087524e-01 2.903288304805755615e-01
8.930000000000000000e+02 9.191683769226074219e+00 2.483075857162475586e+00 -1.735651642084121704e-01 -9.044234454631805420e-02 -7.920225709676742554e-02 2.749600112438201904e-01
8.940000000000000000e+02 7.550794124603271484e+00 1.855856895446777344e+00 -5.456244945526123047e-01 -6.633611023426055908e-02 -1.835881769657135010e-01 3.717139065265655518e-01
8.950000000000000000e+02 6.815769672393798828e+00 2.591649770736694336e+00 -2.811914682388305664e-01 -6.284776329994201660e-02 -1.032117679715156555e-01 3.759921491146087646e-01
8.960000000000000000e+02 7.631713390350341797e+00 3.289494037628173828e+00 -8.074664324522018433e-02 -4.780990630388259888e-02 -3.856696560978889465e-02 3.401437997817993164e-01
8.970000000000000000e+02 3.903499126434326172e+00 3.787041425704956055e+00 -5.106850713491439819e-02 -1.320476979017257690e-01 -5.493486300110816956e-02 3.188860118389129639e-01
8.980000000000000000e+02 1.259462594985961914e+00 3.463921308517456055e+00 -1.937582157552242279e-02 -2.072326838970184326e-01 -6.798254698514938354e-02 1.392811983823776245e-01
8.990000000000000000e+02 2.801703214645385742e+00 2.033718585968017578e+00 -1.264918297529220581e-01 -7.689546048641204834e-02 -6.101619079709053040e-02 1.917489022016525269e-01
9.000000000000000000e+02 2.086391448974609375e+00 3.283124685287475586e+00 -4.205216839909553528e-02 -1.791441291570663452e-01 -6.635888665914535522e-02 2.019135057926177979e-01
9.010000000000000000e+02 1.164742183685302734e+01 1.895621299743652344e+00 -3.706913813948631287e-02 3.873047232627868652e-01 1.050706729292869568e-01 -2.621179819107055664e-01
9.020000000000000000e+02 1.240507507324218750e+01 1.580096840858459473e+00 3.617457672953605652e-02 8.554857373237609863e-01 2.674981057643890381e-01 -5.312739610671997070e-01
9.030000000000000000e+02 1.412054538726806641e+01 -3.418488055467605591e-02 7.013719528913497925e-02 2.674802541732788086e+00 8.234819173812866211e-01 -1.264285564422607422e+00
9.040000000000000000e+02 1.085450267791748047e+01 2.188477516174316406e+00 -5.922723934054374695e-02 1.307723224163055420e-01 2.146352641284465790e-02 -7.472110539674758911e-02
9.050000000000000000e+02 1.068286609649658203e+01 -2.814483642578125000e+00 1.944315671920776367e+00 2.761762030422687531e-02 5.915799736976623535e-01 7.167761921882629395e-01
9.060000000000000000e+02 1.006088256835937500e+01 -2.002538442611694336e+00 6.836720705032348633e-01 9.594375640153884888e-02 2.338847517967224121e-01 2.765145003795623779e-01
9.070000000000000000e+02 9.989537239074707031e+00 -2.671612024307250977e+00 1.337828278541564941e+00 1.217802688479423523e-01 4.378825724124908447e-01 5.606285929679870605e-01
9.080000000000000000e+02 5.549178314208984375e+01 -3.079844856262207031e+01 1.925784349441528320e+00 1.094447135925292969e+01 3.861076831817626953e+00 -1.664434671401977539e+00
9.090000000000000000e+02 6.948897552490234375e+01 -2.174206733703613281e+01 -1.135252237319946289e+00 1.549709320068359375e+00 1.243371292948722839e-01 -8.321042060852050781e-01
9.100000000000000000e+02 6.549788665771484375e+01 -2.071309471130371094e+01 -1.263271331787109375e+00 6.366074085235595703e-01 -1.879991888999938965e-01 7.743567824363708496e-01
9.110000000000000000e+02 6.168567657470703125e+01 -2.310819816589355469e+01 1.124536633491516113e+00 6.464099884033203125e-01 5.312839746475219727e-01 1.093636989593505859e+00
9.120000000000000000e+02 5.972577667236328125e+01 -2.301623344421386719e+01 1.219762444496154785e+00 1.096802234649658203e+00 6.949694156646728516e-01 1.235426664352416992e+00
9.130000000000000000e+02 5.646356964111328125e+01 -2.745197868347167969e+01 1.233839631080627441e+00 5.195526123046875000e+00 1.928809762001037598e+00 1.423986673355102539e+00
9.140000000000000000e+02 5.343263244628906250e+01 -2.865753555297851562e+01 1.363962650299072266e+00 6.974217414855957031e+00 2.501453876495361328e+00 -1.858783364295959473e+00
9.150000000000000000e+02 7.104635620117187500e+01 -2.287936401367187500e+01 7.815364599227905273e-01 6.746155738830566406e+00 2.258307695388793945e+00 -2.328867435455322266e+00
9.160000000000000000e+02 7.820380401611328125e+01 -2.352473640441894531e+01 1.224127858877182007e-01 7.183325767517089844e+00 2.191721439361572266e+00 5.986837744712829590e-01
9.170000000000000000e+02 7.184139251708984375e+01 -3.070150566101074219e+01 2.544423043727874756e-01 8.048953056335449219e+00 2.491018533706665039e+00 9.029024839401245117e-01
9.180000000000000000e+02 5.859649276733398438e+01 -2.376399803161621094e+01 1.575337886810302734e+00 1.475486159324645996e+00 9.152472019195556641e-01 1.225775361061096191e+00
9.190000000000000000e+02 7.177285766601562500e+01 -2.739996719360351562e+01 7.521438002586364746e-01 1.316554546356201172e+01 4.175306797027587891e+00 1.199161529541015625e+00
9.200000000000000000e+02 7.286720275878906250e+01 -2.807462120056152344e+01 1.403997898101806641e+00 1.012903690338134766e+01 3.459910631179809570e+00 3.920347392559051514e-01
9.210000000000000000e+02 5.545640945434570312e+01 -2.626500892639160156e+01 9.804834127426147461e-01 4.794584274291992188e+00 1.732520341873168945e+00 2.943819016218185425e-02
9.220000000000000000e+02 7.155474090576171875e+01 -2.101965141296386719e+01 -1.502226233482360840e+00 6.886610507965087891e+00 1.615315198898315430e+00 -1.339983701705932617e+00
9.230000000000000000e+02 5.379640960693359375e+01 -3.116800880432128906e+01 2.521187782287597656e+00 6.577637672424316406e+00 2.729647636413574219e+00 -1.648661613464355469e+00
9.240000000000000000e+02 5.748996734619140625e+01 -2.455984306335449219e+01 1.568543434143066406e+00 1.949239492416381836e+00 1.055334925651550293e+00 1.276350021362304688e+00
9.250000000000000000e+02 6.498186492919921875e+01 -3.597057723999023438e+01 -3.553457558155059814e-01 2.253347188234329224e-01 -3.900331631302833557e-02 5.051279067993164062e-02
9.260000000000000000e+02 6.544698333740234375e+01 -3.448958587646484375e+01 -1.546787023544311523e+00 4.808614403009414673e-02 -4.496102631092071533e-01 -1.251724213361740112e-01
9.270000000000000000e+02 5.644665145874023438e+01 -2.542939376831054688e+01 1.266891479492187500e+00 3.554695606231689453e+00 1.446476101875305176e+00 1.045554995536804199e+00
9.280000000000000000e+02 6.476528167724609375e+01 -3.944861602783203125e+01 8.597019910812377930e-01 9.072501063346862793e-01 5.300856232643127441e-01 6.746790371835231781e-03
9.290000000000000000e+02 7.573327636718750000e+01 -2.742251777648925781e+01 9.082479476928710938e-01 7.747192859649658203e+00 2.596632242202758789e+00 -1.438044607639312744e-01
9.300000000000000000e+02 7.263386535644531250e+01 -2.500856399536132812e+01 1.367686748504638672e+00 1.123640155792236328e+01 3.781226634979248047e+00 -4.568201601505279541e-01
9.310000000000000000e+02 5.770322036743164062e+01 -2.033984947204589844e+01 1.797741055488586426e-01 9.907889366149902344e-01 3.511689305305480957e-01 1.184493660926818848e+00
9.320000000000000000e+02 6.149461364746093750e+01 -1.611612892150878906e+01 -2.590202987194061279e-01 1.150367140769958496e+00 2.674040198326110840e-01 1.119229316711425781e+00
9.330000000000000000e+02 7.107898712158203125e+01 -3.199179458618164062e+01 -2.041173130273818970e-01 6.001153945922851562e+00 1.739110946655273438e+00 1.207396745681762695e+00
9.340000000000000000e+02 4.543860626220703125e+01 -3.016938781738281250e+01 4.236419498920440674e-01 7.865229129791259766e+00 2.486661434173583984e+00 -1.647137522697448730e+00
9.350000000000000000e+02 4.335080337524414062e+01 -2.795919418334960938e+01 1.166012167930603027e+00 1.070401668548583984e+01 3.561008691787719727e+00 -4.283343628048896790e-02
9.360000000000000000e+02 8.572217941284179688e+00 -2.755842781066894531e+01 -2.153503656387329102e+00 7.148403644561767578e+00 1.498469948768615723e+00 7.302256822586059570e-01
9.370000000000000000e+02 3.507771682739257812e+01 -1.562314128875732422e+01 -7.002951502799987793e-01 1.233456254005432129e+00 1.599483191967010498e-01 -1.630092144012451172e+00
9.380000000000000000e+02 1.165813827514648438e+01 -3.066695594787597656e+01 -3.014131784439086914e+00 4.835932552814483643e-01 -7.591615915298461914e-01 5.273212194442749023e-01
9.390000000000000000e+02 1.504913234710693359e+01 -3.086708831787109375e+01 -5.005819797515869141e+00 -6.491234302520751953e-01 -1.696483016014099121e+00 1.480983018875122070e+00
9.400000000000000000e+02 4.270909118652343750e+01 -1.914690971374511719e+01 1.554800629615783691e+00 9.916622161865234375e+00 3.441426753997802734e+00 -2.115814208984375000e+00
9.410000000000000000e+02 3.566439056396484375e+01 -3.492138671875000000e+01 -2.121789455413818359e+00 -2.885015010833740234e-01 -7.230873107910156250e-01 -8.792570233345031738e-02
9.420000000000000000e+02 4.145671463012695312e+01 -2.093346786499023438e+01 5.875965595245361328e+00 1.414667606353759766e+01 6.006792545318603516e+00 -6.813274383544921875e+00
9.430000000000000000e+02 3.059671020507812500e+01 -1.479003143310546875e+01 -2.484221696853637695e+00 7.147011160850524902e-01 -5.308561921119689941e-01 -1.449340581893920898e-01
9.440000000000000000e+02 4.076451110839843750e+01 -1.728242683410644531e+01 3.573517501354217529e-01 8.045943260192871094e+00 2.520988464355468750e+00 -3.504603147506713867e+00
9.450000000000000000e+02 7.421857357025146484e+00 -2.186074256896972656e+01 2.485447645187377930e+00 1.247890281677246094e+01 4.489305019378662109e+00 2.869436264038085938e+00
9.460000000000000000e+02 4.236171340942382812e+01 -2.540112686157226562e+01 3.472561836242675781e-01 1.472582530975341797e+01 4.521924495697021484e+00 -7.395826578140258789e-01
9.470000000000000000e+02 4.228070449829101562e+01 -2.804109001159667969e+01 8.201852440834045410e-01 1.343654155731201172e+01 4.277018070220947266e+00 8.259377479553222656e-01
9.480000000000000000e+02 4.018580627441406250e+01 -3.567562484741210938e+01 -1.993510603904724121e+00 3.113180637359619141e+00 3.359010219573974609e-01 9.770078063011169434e-01
9.490000000000000000e+02 3.853326416015625000e+01 -3.403750610351562500e+01 -2.071998834609985352e+00 9.312538504600524902e-01 -3.422234654426574707e-01 6.605513691902160645e-01
9.500000000000000000e+02 2.351622772216796875e+01 -3.333529281616210938e+01 -2.163872480392456055e+00 -5.592162534594535828e-02 -6.659382581710815430e-01 3.490171730518341064e-01
9.510000000000000000e+02 2.492329216003417969e+01 -3.321062469482421875e+01 -2.045418262481689453e+00 -4.870827868580818176e-02 -6.282379627227783203e-01 2.701198756694793701e-01
9.520000000000000000e+02 2.131134033203125000e+01 -1.350150966644287109e+01 -1.012070369720458984e+01 -7.151265740394592285e-01 -3.250749111175537109e+00 2.217495441436767578e+00
9.530000000000000000e+02 1.788015365600585938e+01 -1.301928234100341797e+01 -1.031644725799560547e+01 -5.741043090820312500e-01 -3.267165660858154297e+00 5.446907281875610352e-01
9.540000000000000000e+02 4.255574035644531250e+01 -3.294330215454101562e+01 -2.000285148620605469e+00 6.149094104766845703e+00 1.244642734527587891e+00 1.453278511762619019e-01
9.550000000000000000e+02 4.228689193725585938e+01 -3.099806594848632812e+01 -1.997282803058624268e-01 7.055517196655273438e+00 2.056736707687377930e+00 8.127081990242004395e-01
9.560000000000000000e+02 1.594429492950439453e+01 -1.226298904418945312e+01 -5.054588794708251953e+00 1.711949944496154785e+00 -1.002791643142700195e+00 3.110028982162475586e+00
9.570000000000000000e+02 7.004757404327392578e+00 -1.881856536865234375e+01 2.235755681991577148e+00 9.166170120239257812e+00 3.420577526092529297e+00 2.101028919219970703e+00
9.580000000000000000e+02 8.711470603942871094e+00 -1.786763000488281250e+01 2.570653676986694336e+00 1.129238414764404297e+01 4.158911228179931641e+00 4.029408454895019531e+00
9.590000000000000000e+02 2.380796432495117188e+01 -1.450075817108154297e+01 -7.050327301025390625e+00 -1.202088117599487305e+00 -2.475724697113037109e+00 2.648499488830566406e+00
9.600000000000000000e+02 3.719670486450195312e+01 -3.451455688476562500e+01 -2.185262203216552734e+00 1.499150991439819336e-01 -6.106041669845581055e-01 2.400299459695816040e-01
9.610000000000000000e+02 1.657220268249511719e+01 -3.348723220825195312e+01 -2.411546230316162109e+00 -7.126074433326721191e-01 -9.372461438179016113e-01 1.000611782073974609e+00
9.620000000000000000e+02 1.812879371643066406e+01 -1.105515956878662109e+01 -3.832513093948364258e+00 4.745727479457855225e-01 -1.007382035255432129e+00 1.771038532257080078e+00
9.630000000000000000e+02 2.056628608703613281e+01 -3.157049179077148438e+01 -2.928049564361572266e+00 -6.006864830851554871e-02 -8.964354991912841797e-01 2.583097815513610840e-01
9.640000000000000000e+02 4.373780059814453125e+01 -2.446818923950195312e+01 1.864591836929321289e+00 1.319764518737792969e+01 4.518671035766601562e+00 -3.187698364257812500e+00
9.650000000000000000e+02 3.009292793273925781e+01 -3.193179321289062500e+01 -2.023704528808593750e+00 7.966846169438213110e-05 -6.070874333381652832e-01 2.944456338882446289e-01
9.660000000000000000e+02 3.101811981201171875e+01 -3.343321228027343750e+01 -2.388177156448364258e+00 7.468125969171524048e-02 -6.940487623214721680e-01 2.010026127099990845e-01
9.670000000000000000e+02 3.315441513061523438e+01 -3.450027465820312500e+01 -2.416221380233764648e+00 -1.921116709709167480e-01 -7.824999094009399414e-01 -2.380526810884475708e-01
9.680000000000000000e+02 2.205010414123535156e+01 -1.244172573089599609e+01 -6.987805366516113281e+00 -5.164267420768737793e-01 -2.251269578933715820e+00 4.239595234394073486e-01
9.690000000000000000e+02 1.471943378448486328e+01 -3.232326126098632812e+01 -2.951323509216308594e+00 -6.769440770149230957e-01 -1.088480234146118164e+00 1.009075522422790527e+00
9.700000000000000000e+02 2.620728874206542969e+01 -3.317103958129882812e+01 -2.021157741546630859e+00 -1.840547472238540649e-02 -6.118689179420471191e-01 1.869350820779800415e-01
9.710000000000000000e+02 1.307256793975830078e+01 -3.174943161010742188e+01 -2.871067047119140625e+00 -3.589801192283630371e-01 -9.690141677856445312e-01 7.243218421936035156e-01
9.720000000000000000e+02 2.745858001708984375e+01 -1.621998977661132812e+01 -3.976119279861450195e+00 -4.949195086956024170e-01 -1.341311693191528320e+00 1.439337968826293945e+00
9.730000000000000000e+02 2.553344535827636719e+01 -1.408767223358154297e+01 -5.098158836364746094e+00 -4.620349779725074768e-02 -1.543308734893798828e+00 1.097906827926635742e+00
9.740000000000000000e+02 2.104638862609863281e+01 -1.183761119842529297e+01 -5.605051040649414062e+00 -5.591717958450317383e-01 -1.849266886711120605e+00 6.701544672250747681e-02
9.750000000000000000e+02 3.514343643188476562e+01 -1.675591278076171875e+01 -1.129378199577331543e+00 4.838569164276123047e-01 -1.936563700437545776e-01 -9.125049710273742676e-01
9.760000000000000000e+02 3.652995300292968750e+01 -1.790746879577636719e+01 -8.712391853332519531e-01 2.551579475402832031e-01 -1.848243623971939087e-01 -7.320023775100708008e-01
9.770000000000000000e+02 2.195211219787597656e+01 -3.326788711547851562e+01 -2.271952390670776367e+00 -1.294660866260528564e-01 -7.204255461692810059e-01 4.748159050941467285e-01
9.780000000000000000e+02 3.383031845092773438e+01 -1.786227989196777344e+01 -2.684309244155883789e+00 5.698338896036148071e-02 -7.881977558135986328e-01 -2.002572268247604370e-02
9.790000000000000000e+02 2.671264457702636719e+01 -1.460895633697509766e+01 -4.282569885253906250e+00 -1.168954744935035706e-02 -1.288277745246887207e+00 1.056495308876037598e+00
9.800000000000000000e+02 3.145698165893554688e+01 -1.632197952270507812e+01 -2.547767639160156250e+00 4.218541681766510010e-01 -6.377740502357482910e-01 1.841841042041778564e-01
9.810000000000000000e+02 2.747016716003417969e+01 -3.166446113586425781e+01 -2.048043727874755859e+00 -2.601930126547813416e-02 -6.222189068794250488e-01 1.927105933427810669e-01
9.820000000000000000e+02 1.790892243385314941e+00 -2.486836624145507812e+01 1.261588633060455322e-01 2.730972766876220703e+00 8.571394681930541992e-01 1.908228635787963867e+00
9.830000000000000000e+02 7.832125663757324219e+00 -2.478423881530761719e+01 1.064617872238159180e+00 1.209679222106933594e+01 3.948422908782958984e+00 1.278742313385009766e+00
9.840000000000000000e+02 2.745622062683105469e+01 -3.313947677612304688e+01 -2.003623962402343750e+00 -1.021596323698759079e-02 -6.041520237922668457e-01 1.907874196767807007e-01
9.850000000000000000e+02 9.495024681091308594e+00 -2.855720901489257812e+01 -2.317490577697753906e+00 3.724713087081909180e+00 4.221667349338531494e-01 1.935621947050094604e-01
9.860000000000000000e+02 4.334407424926757812e+01 -2.687077331542968750e+01 8.904589414596557617e-01 1.258601379394531250e+01 4.042941570281982422e+00 -4.884583950042724609e-01
9.870000000000000000e+02 4.161264801025390625e+01 -1.936695671081542969e+01 1.900524377822875977e+00 1.178938007354736328e+01 4.106971263885498047e+00 -4.285537719726562500e+00
9.880000000000000000e+02 4.357917022705078125e+01 -2.571004867553710938e+01 8.894647955894470215e-01 1.286770915985107422e+01 4.127151966094970703e+00 -1.702054381370544434e+00
9.890000000000000000e+02 2.056065368652343750e+01 -3.504603576660156250e+01 -1.899672031402587891e+00 -4.210860133171081543e-01 -6.962273716926574707e-01 7.074144482612609863e-01
9.900000000000000000e+02 1.873608589172363281e+01 -3.316944122314453125e+01 -2.658857107162475586e+00 -4.288227856159210205e-01 -9.263039231300354004e-01 8.582627773284912109e-01
9.910000000000000000e+02 5.859081268310546875e+01 3.864851379394531250e+01 -2.442454248666763306e-01 -2.506920397281646729e-01 -1.484812498092651367e-01 2.681972980499267578e-01
9.920000000000000000e+02 6.470439147949218750e+01 4.003287124633789062e+01 2.838780879974365234e-01 6.053407192230224609e-01 2.667656540870666504e-01 5.307344719767570496e-03
9.930000000000000000e+02 5.661883163452148438e+01 -2.344124984741210938e+01 1.222580075263977051e+00 2.288769245147705078e+00 1.053404808044433594e+00 8.227208256721496582e-01
9.940000000000000000e+02 5.916334152221679688e+01 -1.787646484375000000e+01 -1.031566977500915527e+00 7.313519716262817383e-01 -9.006448835134506226e-02 1.429178476333618164e+00
9.950000000000000000e+02 5.682938003540039062e+01 -1.654901313781738281e+01 -4.344141483306884766e+00 -4.662085473537445068e-01 -1.443105101585388184e+00 4.028476476669311523e-01
9.960000000000000000e+02 5.487242507934570312e+01 3.993198013305664062e+01 -2.290321141481399536e-01 3.202386796474456787e-01 2.736197412014007568e-02 1.436340212821960449e-01
9.970000000000000000e+02 6.072410583496093750e+01 -1.512658023834228516e+01 4.396435618400573730e-01 6.927798390388488770e-01 3.397270143032073975e-01 6.665524244308471680e-01
9.980000000000000000e+02 4.090088653564453125e+01 1.017287063598632812e+01 1.897703170776367188e+00 9.859834671020507812e+00 3.527261257171630859e+00 -1.186139225959777832e+00
9.990000000000000000e+02 4.208319091796875000e+01 1.338936519622802734e+01 3.190726339817047119e-01 1.123091983795166016e+01 3.464997768402099609e+00 3.963157236576080322e-01
1.000000000000000000e+03 7.069608306884765625e+01 3.065097618103027344e+01 -4.460153579711914062e-01 5.713430881500244141e+00 1.580224633216857910e+00 1.099657937884330750e-01
1.001000000000000000e+03 6.804428863525390625e+01 3.445479202270507812e+01 -8.945251107215881348e-01 2.700254201889038086e+00 5.417187809944152832e-01 -3.276366591453552246e-01
1.002000000000000000e+03 3.979531478881835938e+01 1.897062683105468750e+01 8.718247413635253906e-01 7.806724071502685547e+00 2.603564739227294922e+00 6.989142298698425293e-01
1.003000000000000000e+03 4.085049057006835938e+01 1.678998184204101562e+01 8.921763300895690918e-01 8.933588981628417969e+00 2.947729587554931641e+00 8.339879512786865234e-01
1.004000000000000000e+03 7.022282409667968750e+01 6.115426540374755859e+00 1.960325390100479126e-01 1.281454086303710938e+01 3.903172016143798828e+00 -1.547220647335052490e-01
1.005000000000000000e+03 7.377979278564453125e+01 9.318119049072265625e+00 -1.486247926950454712e-01 8.917809486389160156e+00 2.630755186080932617e+00 5.773388147354125977e-01
1.006000000000000000e+03 7.797631072998046875e+01 3.338373947143554688e+01 -1.451576054096221924e-01 9.718567848205566406e+00 2.872023105621337891e+00 2.953330576419830322e-01
1.007000000000000000e+03 7.702097320556640625e+01 -2.816988372802734375e+01 3.783084452152252197e-01 7.262571811676025391e+00 2.292263984680175781e+00 -4.152242541313171387e-01
1.008000000000000000e+03 7.525322723388671875e+01 -2.214346694946289062e+01 -2.172071784734725952e-01 7.930721282958984375e+00 2.314054250717163086e+00 7.745931744575500488e-01
1.009000000000000000e+03 7.932662963867187500e+01 -2.505895423889160156e+01 4.412412270903587341e-02 6.272205352783203125e+00 1.894898772239685059e+00 1.341080069541931152e-01
1.010000000000000000e+03 7.794850158691406250e+01 -2.497505378723144531e+01 2.496852427721023560e-01 7.000544548034667969e+00 2.175068855285644531e+00 4.083684682846069336e-01
1.011000000000000000e+03 7.943685913085937500e+01 -3.200560760498046875e+01 -2.156190387904644012e-02 7.381369590759277344e+00 2.207942247390747070e+00 -2.131703048944473267e-01
1.012000000000000000e+03 7.813915252685546875e+01 -3.315042877197265625e+01 -1.041479185223579407e-01 7.650512695312500000e+00 2.263909339904785156e+00 -4.860318005084991455e-01
1.013000000000000000e+03 7.832673645019531250e+01 -3.188802146911621094e+01 -2.122741937637329102e-02 7.427249908447265625e+00 2.221806764602661133e+00 -5.291699171066284180e-01
1.014000000000000000e+03 7.543608856201171875e+01 -3.657075119018554688e+01 -3.634155690670013428e-01 7.313271045684814453e+00 2.084956645965576172e+00 -1.829857230186462402e-01
1.015000000000000000e+03 7.699029541015625000e+01 -3.720985412597656250e+01 -1.727743148803710938e-01 7.564408779144287109e+00 2.217490434646606445e+00 -1.334628313779830933e-01
1.016000000000000000e+03 7.624221038818359375e+01 -3.879586029052734375e+01 -3.089088499546051025e-01 7.287263870239257812e+00 2.093506574630737305e+00 -7.213144749402999878e-02
1.017000000000000000e+03 7.866315460205078125e+01 -4.036699676513671875e+01 -1.177844703197479248e-01 8.294608116149902344e+00 2.453047037124633789e+00 2.080897092819213867e-01
1.018000000000000000e+03 7.813368225097656250e+01 2.224119567871093750e+01 4.816481843590736389e-02 8.084580421447753906e+00 2.439823389053344727e+00 3.274845778942108154e-01
1.019000000000000000e+03 7.821794891357421875e+01 1.534737873077392578e+01 -2.022151648998260498e-02 7.347136497497558594e+00 2.198074579238891602e+00 2.159284502267837524e-01
1.020000000000000000e+03 7.812848663330078125e+01 3.204322433471679688e+01 -3.241416439414024353e-02 9.665209770202636719e+00 2.889838695526123047e+00 3.619189262390136719e-01
1.021000000000000000e+03 7.800003051757812500e+01 2.930389022827148438e+01 -2.112026698887348175e-02 9.208278656005859375e+00 2.756147384643554688e+00 4.937137067317962646e-01
1.022000000000000000e+03 7.933605957031250000e+01 2.787294387817382812e+01 -7.337304763495922089e-03 9.346127510070800781e+00 2.801637172698974609e+00 2.081220746040344238e-01
1.023000000000000000e+03 7.807538604736328125e+01 2.642371559143066406e+01 1.410713139921426773e-02 8.710924148559570312e+00 2.617509603500366211e+00 4.906583428382873535e-01
1.024000000000000000e+03 7.814004516601562500e+01 2.500277900695800781e+01 5.470913276076316833e-02 8.478407859802246094e+00 2.559935092926025391e+00 4.283033907413482666e-01
1.025000000000000000e+03 7.937409210205078125e+01 2.506230735778808594e+01 -1.608468941412866116e-03 8.608680725097656250e+00 2.582121610641479492e+00 1.856623739004135132e-01
1.026000000000000000e+03 7.700932312011718750e+01 1.535222721099853516e+01 -1.254062727093696594e-02 7.666459560394287109e+00 2.296175718307495117e+00 3.295406997203826904e-01
1.027000000000000000e+03 7.940666961669921875e+01 1.812091255187988281e+01 2.085474319756031036e-02 7.374773502349853516e+00 2.218688488006591797e+00 9.743727743625640869e-02
1.028000000000000000e+03 7.822666931152343750e+01 1.673564720153808594e+01 1.297951955348253250e-02 7.479286193847656250e+00 2.247679710388183594e+00 2.238246053457260132e-01
1.029000000000000000e+03 7.822998809814453125e+01 1.812681961059570312e+01 4.241814836859703064e-03 7.619390010833740234e+00 2.287089586257934570e+00 2.215418517589569092e-01
1.030000000000000000e+03 7.823258209228515625e+01 1.396807193756103516e+01 -1.944467425346374512e-02 7.212529659271240234e+00 2.157925605773925781e+00 2.537770867347717285e-01
1.031000000000000000e+03 7.444115447998046875e+01 8.275049209594726562e+00 5.187352746725082397e-02 8.645263671875000000e+00 2.609141111373901367e+00 6.763580441474914551e-01
1.032000000000000000e+03 7.821781921386718750e+01 9.850801467895507812e+00 -2.095008455216884613e-02 6.689289093017578125e+00 2.000501632690429688e+00 3.599368929862976074e-01
1.033000000000000000e+03 7.702284240722656250e+01 7.183681488037109375e+00 8.148334175348281860e-02 7.051987171173095703e+00 2.140041112899780273e+00 4.917353689670562744e-01
1.034000000000000000e+03 7.940065765380859375e+01 -1.949720954895019531e+01 -3.503614291548728943e-02 8.155887603759765625e+00 2.436255455017089844e+00 1.226906329393386841e-01
1.035000000000000000e+03 7.836804199218750000e+01 -2.216752052307128906e+01 -7.064329832792282104e-02 7.429894447326660156e+00 2.207775354385375977e+00 5.920681953430175781e-01
1.036000000000000000e+03 7.818096160888671875e+01 1.562359094619750977e+00 1.119673550128936768e-01 5.866944789886474609e+00 1.793673753738403320e+00 -6.182568147778511047e-02
1.037000000000000000e+03 7.933863830566406250e+01 2.927190780639648438e+01 3.471042437013238668e-04 9.712915420532226562e+00 2.913978815078735352e+00 1.990371346473693848e-01
1.038000000000000000e+03 7.808861541748046875e+01 3.069645881652832031e+01 -5.751276016235351562e-02 9.484932899475097656e+00 2.828226089477539062e+00 4.302029311656951904e-01
1.039000000000000000e+03 7.799389648437500000e+01 4.161035156250000000e+01 2.801694571971893311e-01 1.012691974639892578e+01 3.122126817703247070e+00 -7.887555658817291260e-02
1.040000000000000000e+03 7.921830749511718750e+01 3.485802459716796875e+01 -2.009560167789459229e-02 1.071465206146240234e+01 3.208366870880126953e+00 3.605303540825843811e-02
1.041000000000000000e+03 7.499353027343750000e+01 3.534423065185546875e+01 -2.580485045909881592e-01 7.980599403381347656e+00 2.316765308380126953e+00 2.803385257720947266e-01
1.042000000000000000e+03 7.824788665771484375e+01 1.121770000457763672e+01 -2.894029207527637482e-02 6.881419658660888672e+00 2.055743694305419922e+00 3.274880945682525635e-01
1.043000000000000000e+03 7.247745513916015625e+01 4.672739982604980469e+00 4.984523355960845947e-01 1.037959289550781250e+01 3.263413667678833008e+00 4.083839356899261475e-01
1.044000000000000000e+03 7.940895843505859375e+01 4.237107276916503906e+00 1.358389575034379959e-02 5.021790981292724609e+00 1.510612487792968750e+00 6.966213136911392212e-02
1.045000000000000000e+03 7.821315765380859375e+01 2.958626031875610352e+00 1.022654622793197632e-01 5.873091697692871094e+00 1.792607069015502930e+00 7.558755576610565186e-02
1.046000000000000000e+03 7.688372039794921875e+01 2.526368498802185059e-01 2.338463366031646729e-01 6.711771965026855469e+00 2.083685398101806641e+00 -2.218265831470489502e-01
1.047000000000000000e+03 7.814168548583984375e+01 1.544991433620452881e-01 9.494438022375106812e-02 5.948104381561279297e+00 1.812914609909057617e+00 -2.040805518627166748e-01
1.048000000000000000e+03 7.938691711425781250e+01 -4.140603542327880859e+00 1.338135451078414917e-02 5.973900794982910156e+00 1.796184659004211426e+00 -1.666527390480041504e-01
1.049000000000000000e+03 7.820978546142578125e+01 -6.851181030273437500e+00 -1.194008253514766693e-02 6.829319000244140625e+00 2.045213699340820312e+00 -4.231683909893035889e-01
1.050000000000000000e+03 7.816426849365234375e+01 -4.079192638397216797e+00 2.080760151147842407e-02 6.411182403564453125e+00 1.929597020149230957e+00 -4.191299676895141602e-01
1.051000000000000000e+03 7.939813995361328125e+01 -1.108694076538085938e+01 -8.692076429724693298e-03 7.736405849456787109e+00 2.318314075469970703e+00 -1.348341405391693115e-01
1.052000000000000000e+03 7.812985229492187500e+01 -1.372169113159179688e+01 -5.739371851086616516e-02 7.774405002593994141e+00 2.315103292465209961e+00 -2.582109868526458740e-01
1.053000000000000000e+03 7.819322967529296875e+01 -1.096248340606689453e+01 -2.536542899906635284e-02 7.456005096435546875e+00 2.229191780090332031e+00 -3.540210425853729248e-01
1.054000000000000000e+03 7.936023712158203125e+01 -1.809835624694824219e+01 -1.946912333369255066e-02 8.360136032104492188e+00 2.502200126647949219e+00 6.142283231019973755e-02
1.055000000000000000e+03 7.819546508789062500e+01 -1.952887535095214844e+01 -1.490780562162399292e-01 7.871853351593017578e+00 2.316832542419433594e+00 3.290909528732299805e-01
1.056000000000000000e+03 7.806459808349609375e+01 -1.809450721740722656e+01 -1.357240825891494751e-01 7.956377983093261719e+00 2.346196174621582031e+00 1.587812751531600952e-01
1.057000000000000000e+03 7.117955017089843750e+01 1.299485397338867188e+01 -2.230291515588760376e-01 9.148981094360351562e+00 2.677785634994506836e+00 -1.216979771852493286e-01
1.058000000000000000e+03 5.090027618408203125e+01 -1.520828437805175781e+01 -1.537885069847106934e+00 4.471993446350097656e+00 8.802325725555419922e-01 -1.899646520614624023e-01
1.059000000000000000e+03 5.367995452880859375e+01 -1.514615249633789062e+01 -1.608142256736755371e+00 -1.014582142233848572e-01 -5.128801465034484863e-01 9.768700599670410156e-01
1.060000000000000000e+03 5.211099243164062500e+01 3.334822845458984375e+01 -3.205666691064834595e-02 5.930429697036743164e-01 1.682959049940109253e-01 3.280668556690216064e-01
1.061000000000000000e+03 4.785842132568359375e+01 3.737469100952148438e+01 -7.015171647071838379e-01 2.610320806503295898e+00 5.726410746574401855e-01 5.221837759017944336e-01
1.062000000000000000e+03 6.614616394042968750e+01 3.347090911865234375e+01 -1.065025329589843750e+00 2.339132726192474365e-01 -2.493336051702499390e-01 3.312766551971435547e-01
1.063000000000000000e+03 7.106218719482421875e+01 2.454630470275878906e+01 3.594499528408050537e-01 8.252672195434570312e+00 2.583636522293090820e+00 -3.779223188757896423e-02
1.064000000000000000e+03 6.975479888916015625e+01 1.163720989227294922e+01 -4.311240315437316895e-01 7.997315406799316406e+00 2.269857406616210938e+00 9.267340600490570068e-02
1.065000000000000000e+03 4.725491333007812500e+01 -3.084481000900268555e+00 5.382845401763916016e-01 5.631416320800781250e+00 1.850910305976867676e+00 -2.230213642120361328e+00
1.066000000000000000e+03 6.106151580810546875e+01 3.859532546997070312e+01 -2.461015731096267700e-01 -2.752133905887603760e-01 -1.563944816589355469e-01 1.827893108129501343e-01
1.067000000000000000e+03 6.651083374023437500e+01 -8.801918983459472656e+00 9.010583758354187012e-01 4.052510261535644531e+00 1.486070513725280762e+00 1.769165039062500000e+00
1.068000000000000000e+03 7.010092926025390625e+01 2.886688232421875000e+01 1.228385940194129944e-01 5.946459770202636719e+00 1.820789575576782227e+00 -3.366914689540863037e-01
1.069000000000000000e+03 6.305361938476562500e+01 -1.340664196014404297e+01 1.419773221015930176e+00 1.465274333953857422e+00 8.655142784118652344e-01 1.313875794410705566e+00
1.070000000000000000e+03 6.510112762451171875e+01 -1.320412349700927734e+01 1.021167755126953125e+00 2.383707761764526367e+00 1.021462678909301758e+00 1.103392958641052246e+00
1.071000000000000000e+03 7.000678253173828125e+01 1.723315429687500000e+01 2.926106564700603485e-02 9.511429786682128906e+00 2.862207412719726562e+00 1.529217809438705444e-01
1.072000000000000000e+03 4.046527099609375000e+01 1.516820430755615234e+01 9.510498046875000000e-01 9.401550292968750000e+00 3.105780124664306641e+00 4.650713801383972168e-01
1.073000000000000000e+03 4.595109939575195312e+01 2.915272903442382812e+01 4.185608029365539551e-01 4.007779598236083984e+00 1.327902078628540039e+00 1.302407026290893555e+00
1.074000000000000000e+03 4.329326248168945312e+01 2.394188690185546875e+01 8.453485369682312012e-01 6.504882335662841797e+00 2.205069303512573242e+00 1.706483840942382812e+00
1.075000000000000000e+03 4.692499923706054688e+01 3.045466041564941406e+01 2.436386346817016602e-01 3.386912822723388672e+00 1.089165449142456055e+00 1.200022697448730469e+00
1.076000000000000000e+03 4.396491622924804688e+01 2.516995048522949219e+01 7.459662556648254395e-01 5.910766601562500000e+00 1.997019886970520020e+00 1.768472313880920410e+00
1.077000000000000000e+03 6.853103637695312500e+01 3.288080596923828125e+01 -9.596432447433471680e-01 3.046620368957519531e+00 6.260931491851806641e-01 -2.823733389377593994e-01
1.078000000000000000e+03 4.845517349243164062e+01 -1.007247257232666016e+01 -3.218809366226196289e-01 5.832261085510253906e+00 1.653114080429077148e+00 -1.057739257812500000e+00
1.079000000000000000e+03 4.351809310913085938e+01 2.052001190185546875e+01 8.401232361793518066e-01 8.257628440856933594e+00 2.729325532913208008e+00 2.358465671539306641e+00
1.080000000000000000e+03 4.930047225952148438e+01 -4.960440635681152344e+00 5.953614711761474609e-01 5.788335800170898438e+00 1.915109276771545410e+00 -1.881429910659790039e+00
1.081000000000000000e+03 4.756519699096679688e+01 -7.513080596923828125e+00 -1.912038214504718781e-02 5.884831428527832031e+00 1.759713292121887207e+00 -1.603601932525634766e+00
1.082000000000000000e+03 6.188739395141601562e+01 -1.816944694519042969e+01 -4.791621565818786621e-01 1.253592252731323242e+00 2.323290258646011353e-01 1.584307909011840820e+00
1.083000000000000000e+03 4.215220642089843750e+01 2.127353858947753906e+01 8.387882113456726074e-01 7.631252765655517578e+00 2.541012287139892578e+00 1.635679960250854492e+00
1.084000000000000000e+03 7.110260009765625000e+01 1.163010215759277344e+01 -6.199015974998474121e-01 9.532758712768554688e+00 2.673857212066650391e+00 3.834535181522369385e-02
1.085000000000000000e+03 5.273523330688476562e+01 -1.580480289459228516e+01 -2.233565330505371094e+00 2.257298231124877930e+00 7.119905669242143631e-03 -2.428507618606090546e-02
1.086000000000000000e+03 6.267322158813476562e+01 -1.513908100128173828e+01 6.128106713294982910e-01 1.362319350242614746e+00 5.925390124320983887e-01 1.057220578193664551e+00
1.087000000000000000e+03 4.042407608032226562e+01 1.346601963043212891e+01 9.655942320823669434e-01 9.787550926208496094e+00 3.225943565368652344e+00 -1.973976194858551025e-01
1.088000000000000000e+03 7.047219848632812500e+01 -2.533252239227294922e+00 5.014166831970214844e-01 9.334057807922363281e+00 2.950642347335815430e+00 1.322422027587890625e+00
1.089000000000000000e+03 7.021977233886718750e+01 3.297004461288452148e+00 1.374509334564208984e-01 1.320080757141113281e+01 4.001477241516113281e+00 3.324888944625854492e-01
1.090000000000000000e+03 4.165639495849609375e+01 4.545349121093750000e+00 1.160398960113525391e+00 7.471204757690429688e+00 2.589481115341186523e+00 -2.120552301406860352e+00
1.091000000000000000e+03 4.820092010498046875e+01 -5.609526157379150391e+00 3.709618747234344482e-01 5.741424560546875000e+00 1.833715915679931641e+00 -1.869743824005126953e+00
1.092000000000000000e+03 4.836506271362304688e+01 -2.365165472030639648e+00 7.272809743881225586e-01 5.429189682006835938e+00 1.846941232681274414e+00 -2.113526582717895508e+00
1.093000000000000000e+03 7.053622436523437500e+01 2.745535659790039062e+01 2.620530724525451660e-01 7.011994838714599609e+00 2.182214498519897461e+00 -2.266870141029357910e-01
1.094000000000000000e+03 7.003846740722656250e+01 -3.943902015686035156e+00 4.907597899436950684e-01 8.331434249877929688e+00 2.646658182144165039e+00 1.415500760078430176e+00
1.095000000000000000e+03 4.530109024047851562e+01 3.832317352294921875e+00 1.620891094207763672e+00 5.993172168731689453e+00 2.284219026565551758e+00 -3.138362884521484375e+00
1.096000000000000000e+03 4.519147872924804688e+01 2.779444694519042969e+01 6.070113778114318848e-01 4.546026706695556641e+00 1.545911431312561035e+00 1.517140865325927734e+00
1.097000000000000000e+03 6.052976226806640625e+01 -1.804626464843750000e+01 -5.989072322845458984e-01 1.172193408012390137e+00 1.719858497381210327e-01 1.552008152008056641e+00
1.098000000000000000e+03 6.016160964965820312e+01 -1.693612861633300781e+01 -8.129255175590515137e-01 9.789505600929260254e-01 4.980751127004623413e-02 1.228099584579467773e+00
1.099000000000000000e+03 4.674144363403320312e+01 -1.849696636199951172e+00 6.575397253036499023e-01 5.665336132049560547e+00 1.896862745285034180e+00 -2.367387533187866211e+00
1.100000000000000000e+03 6.893672180175781250e+01 -6.675834178924560547e+00 4.511013627052307129e-01 6.413634777069091797e+00 2.059420824050903320e+00 1.430152654647827148e+00
1.101000000000000000e+03 4.953156280517578125e+01 -9.480955123901367188e+00 1.339567154645919800e-01 5.496674537658691406e+00 1.689189434051513672e+00 -1.205792427062988281e+00
1.102000000000000000e+03 6.830516052246093750e+01 -7.986529350280761719e+00 5.385141968727111816e-01 5.451386451721191406e+00 1.796970129013061523e+00 1.416320323944091797e+00
1.103000000000000000e+03 7.022373962402343750e+01 4.707539558410644531e+00 2.812569402158260345e-02 1.258232784271240234e+01 3.783136129379272461e+00 1.250562667846679688e-01
1.104000000000000000e+03 7.124481964111328125e+01 8.928654670715332031e+00 -3.751222789287567139e-02 1.014318561553955078e+01 3.031702041625976562e+00 2.430154830217361450e-01
1.105000000000000000e+03 7.233418273925781250e+01 1.028899955749511719e+01 -4.161583185195922852e-01 9.546996116638183594e+00 2.739251136779785156e+00 4.176899194717407227e-01
1.106000000000000000e+03 4.169147491455078125e+01 1.982452964782714844e+01 7.288151383399963379e-01 8.203037261962890625e+00 2.679555892944335938e+00 1.484318137168884277e+00
1.107000000000000000e+03 6.742665100097656250e+01 -1.239298057556152344e+01 6.328946948051452637e-01 3.589842796325683594e+00 1.266821265220642090e+00 8.107091784477233887e-01
1.108000000000000000e+03 5.000535583496093750e+01 -1.077717304229736328e+01 -1.047245189547538757e-01 5.252290725708007812e+00 1.544269800186157227e+00 -9.643759131431579590e-01
1.109000000000000000e+03 5.149478912353515625e+01 -1.154082393646240234e+01 1.796840876340866089e-01 4.394606590270996094e+00 1.372287154197692871e+00 -1.137673735618591309e+00
1.110000000000000000e+03 5.052918243408203125e+01 -1.207353115081787109e+01 -7.780583202838897705e-02 4.740345478057861328e+00 1.398761868476867676e+00 -6.333963871002197266e-01
1.111000000000000000e+03 4.986791992187500000e+01 3.326158523559570312e+01 -6.046091020107269287e-02 1.809410452842712402e+00 5.246849060058593750e-01 7.612732052803039551e-01
1.112000000000000000e+03 6.951981353759765625e+01 -5.330494403839111328e+00 4.630207717418670654e-01 7.324184417724609375e+00 2.336161613464355469e+00 1.402625679969787598e+00
1.113000000000000000e+03 4.458861923217773438e+01 2.644191360473632812e+01 6.989298462867736816e-01 5.221189022064208984e+00 1.776035666465759277e+00 1.708725214004516602e+00
1.114000000000000000e+03 4.117602539062500000e+01 8.467045783996582031e+00 1.678872346878051758e+00 9.343751907348632812e+00 3.306787252426147461e+00 -1.514490723609924316e+00
1.115000000000000000e+03 4.181161499023437500e+01 6.855853557586669922e+00 1.488619446754455566e+00 8.714420318603515625e+00 3.060912132263183594e+00 -2.196905612945556641e+00
1.116000000000000000e+03 4.352400970458984375e+01 4.225626468658447266e+00 1.285887360572814941e+00 7.103673934936523438e+00 2.516868352890014648e+00 -2.804692745208740234e+00
1.117000000000000000e+03 4.270886230468750000e+01 5.487157821655273438e+00 1.404359579086303711e+00 7.687886238098144531e+00 2.727673768997192383e+00 -2.657030105590820312e+00
1.118000000000000000e+03 4.807825469970703125e+01 3.136159706115722656e+01 2.215201556682586670e-01 2.697446584701538086e+00 8.756900429725646973e-01 1.063358902931213379e+00
1.119000000000000000e+03 7.000394439697265625e+01 2.147247886657714844e+01 1.026539038866758347e-02 8.963341712951660156e+00 2.692082166671752930e+00 7.149573415517807007e-02
1.120000000000000000e+03 7.121849060058593750e+01 2.309702491760253906e+01 2.433633506298065186e-01 8.547884941101074219e+00 2.637374401092529297e+00 3.048220276832580566e-02
1.121000000000000000e+03 4.326876831054687500e+01 2.166511535644531250e+00 9.374052882194519043e-01 6.539679050445556641e+00 2.243125200271606445e+00 -2.526381969451904297e+00
1.122000000000000000e+03 7.822922515869140625e+01 4.345575332641601562e+00 7.742052525281906128e-02 5.956056594848632812e+00 1.810043215751647949e+00 1.945294588804244995e-01
1.123000000000000000e+03 7.132308197021484375e+01 2.165049362182617188e+01 1.113414391875267029e-01 8.774331092834472656e+00 2.665701866149902344e+00 1.497085988521575928e-01
1.124000000000000000e+03 7.574716949462890625e+01 1.536413860321044922e+01 -4.284155368804931641e-02 8.033395767211914062e+00 2.397166252136230469e+00 3.586519360542297363e-01
1.125000000000000000e+03 7.134913635253906250e+01 1.874033546447753906e+01 4.891288280487060547e-02 9.011907577514648438e+00 2.718246221542358398e+00 2.862278223037719727e-01
1.126000000000000000e+03 1.281804323196411133e+00 -3.997903442382812500e+01 -1.465935260057449341e-01 8.599623680114746094e+00 2.535909175872802734e+00 -2.524902820587158203e-01
1.127000000000000000e+03 8.890222311019897461e-01 3.733119964599609375e+01 -1.006500213406980038e-03 4.077004492282867432e-01 1.220081895589828491e-01 -4.675766453146934509e-02
1.128000000000000000e+03 7.335471510887145996e-01 3.458324050903320312e+01 -5.504429806023836136e-03 2.641437947750091553e-01 7.759181410074234009e-02 -3.133533149957656860e-02
1.129000000000000000e+03 6.908658742904663086e-01 3.319029617309570312e+01 5.010044202208518982e-03 1.992519497871398926e-01 6.127860024571418762e-02 -3.365571424365043640e-02
1.130000000000000000e+03 6.424347758293151855e-01 2.758112335205078125e+01 -6.379636033670976758e-05 -1.194723993539810181e-01 -3.586085885763168335e-02 -4.122420027852058411e-02
1.131000000000000000e+03 6.474185585975646973e-01 2.617413139343261719e+01 -1.715604099445044994e-03 -2.112283706665039062e-01 -6.388319283723831177e-02 -4.296153038740158081e-02
1.132000000000000000e+03 7.475365996360778809e-01 -3.614436721801757812e+01 -1.065477170050144196e-02 9.153571128845214844e+00 2.742874860763549805e+00 5.610478296875953674e-02
1.133000000000000000e+03 2.422293663024902344e+00 -3.327030563354492188e+01 -3.245616555213928223e-01 7.471304416656494141e+00 2.144022941589355469e+00 6.322242021560668945e-01
1.134000000000000000e+03 3.240239858627319336e+00 2.595426940917968750e+01 -1.028860174119472504e-02 2.557204067707061768e-01 7.362954318523406982e-02 -1.910746395587921143e-01
1.135000000000000000e+03 3.201882600784301758e+00 2.450116729736328125e+01 1.965579140232875943e-04 1.840608716011047363e-01 5.527723208069801331e-02 -1.897213459014892578e-01
1.136000000000000000e+03 2.070205450057983398e+00 3.292419433593750000e+01 -6.536761298775672913e-03 3.810687363147735596e-01 1.123595908284187317e-01 -9.014312177896499634e-02
1.137000000000000000e+03 2.827200174331665039e+00 3.810956192016601562e+01 3.414520528167486191e-03 5.964103937149047852e-01 1.799474805593490601e-01 -1.126019060611724854e-01
1.138000000000000000e+03 3.445894479751586914e+00 3.920567703247070312e+01 -1.831911690533161163e-02 6.272841095924377441e-01 1.826894879341125488e-01 -6.692466139793395996e-02
1.139000000000000000e+03 1.936334967613220215e+00 -2.890699577331542969e+01 -2.549118995666503906e-01 5.951447010040283203e+00 1.708960533142089844e+00 1.629258275032043457e+00
1.140000000000000000e+03 6.783334732055664062e+00 -2.422987365722656250e+01 1.173640847206115723e+00 1.000716686248779297e+01 3.354242086410522461e+00 2.890576601028442383e+00
1.141000000000000000e+03 2.279102325439453125e+00 -3.623849868774414062e+01 -2.335110604763031006e-01 7.953371524810791016e+00 2.315958261489868164e+00 6.751273572444915771e-02
1.142000000000000000e+03 1.749533653259277344e+00 -9.632928848266601562e+00 -5.089129135012626648e-02 -2.779988348484039307e-01 -9.866704046726226807e-02 -1.659409403800964355e-01
1.143000000000000000e+03 6.138545870780944824e-01 2.051279830932617188e+01 -5.576114053837954998e-04 -5.962635874748229980e-01 -1.790463477373123169e-01 -4.012949764728546143e-02
1.144000000000000000e+03 6.076223254203796387e-01 1.910217285156250000e+01 3.071431303396821022e-03 -6.851405501365661621e-01 -2.046207338571548462e-01 -3.755687922239303589e-02
1.145000000000000000e+03 5.956085920333862305e-01 1.486827754974365234e+01 2.193790860474109650e-03 -8.876867890357971191e-01 -2.656478881835937500e-01 -1.938079670071601868e-02
1.146000000000000000e+03 5.869938135147094727e-01 1.345642089843750000e+01 6.027214694768190384e-03 -9.204065799713134766e-01 -2.743138074874877930e-01 -9.945403784513473511e-03
1.147000000000000000e+03 5.289818644523620605e-01 7.819600582122802734e+00 6.611994933336973190e-03 -7.309957742691040039e-01 -2.173151373863220215e-01 4.733441025018692017e-02
1.148000000000000000e+03 1.782215476036071777e+00 -1.645072937011718750e+01 1.436209976673126221e-01 -5.582395195960998535e-01 -1.243855506181716919e-01 -2.595416903495788574e-01
1.149000000000000000e+03 3.171111583709716797e+00 -2.067445945739746094e+01 9.978109002113342285e-01 2.689338445663452148e+00 1.106144785881042480e+00 1.238405466079711914e+00
1.150000000000000000e+03 3.370090723037719727e+00 -3.870413970947265625e+01 -2.222966402769088745e-01 7.814248561859130859e+00 2.277585506439208984e+00 1.758228056132793427e-02
1.151000000000000000e+03 4.899999618530273438e+00 -3.432432937622070312e+01 -8.107179403305053711e-01 6.146938800811767578e+00 1.600866198539733887e+00 7.290387749671936035e-01
1.152000000000000000e+03 2.351802587509155273e+00 -3.479994201660156250e+01 -2.432452589273452759e-01 7.701880931854248047e+00 2.237590789794921875e+00 3.982808291912078857e-01
1.153000000000000000e+03 2.159783363342285156e+00 -3.171330261230468750e+01 -3.701293170452117920e-01 7.234855175018310547e+00 2.059417724609375000e+00 1.028468012809753418e+00
1.154000000000000000e+03 1.814445734024047852e+00 -2.755176734924316406e+01 -2.310902029275894165e-01 5.025419235229492188e+00 1.438298702239990234e+00 1.930220842361450195e+00
1.155000000000000000e+03 1.773681282997131348e+00 -2.621326828002929688e+01 6.052465736865997314e-02 3.791378974914550781e+00 1.155571103096008301e+00 2.021952629089355469e+00
1.156000000000000000e+03 3.105650663375854492e+00 -2.210922622680664062e+01 7.714399695396423340e-01 3.023564338684082031e+00 1.138501286506652832e+00 1.863893508911132812e+00
1.157000000000000000e+03 1.865765690803527832e+00 -1.922852134704589844e+01 3.922621607780456543e-01 -1.926828920841217041e-01 5.987378209829330444e-02 2.796931862831115723e-01
1.158000000000000000e+03 6.182122230529785156e-01 -1.919347572326660156e+01 8.192025125026702881e-02 -2.818631649017333984e+00 -8.210134506225585938e-01 8.853372931480407715e-02
1.159000000000000000e+03 3.114804267883300781e+00 -1.925079917907714844e+01 7.785514593124389648e-01 2.208662986755371094e+00 8.961642980575561523e-01 6.053916215896606445e-01
1.160000000000000000e+03 2.950862646102905273e+00 -1.250199222564697266e+01 -1.004237532615661621e-01 9.484104514122009277e-01 2.543959915637969971e-01 -3.321379423141479492e-01
1.161000000000000000e+03 5.796834230422973633e-01 -1.218839073181152344e+01 1.714655780233442783e-03 -1.572370409965515137e+00 -4.711967408657073975e-01 -1.184815838932991028e-01
1.162000000000000000e+03 1.754794120788574219e+00 -1.235651874542236328e+01 -4.332477226853370667e-02 -3.884605765342712402e-01 -1.295356005430221558e-01 -3.211558163166046143e-01
1.163000000000000000e+03 4.423023223876953125e+00 -3.419103622436523438e+00 1.209117770195007324e-01 1.797356456518173218e-01 9.019422531127929688e-02 -1.112734675407409668e-01
1.164000000000000000e+03 2.881771087646484375e+00 -2.977362394332885742e+00 -1.606350764632225037e-02 -6.075353361666202545e-03 -6.641658022999763489e-03 -2.337856590747833252e-01
1.165000000000000000e+03 2.139502286911010742e+00 -3.213559150695800781e+00 -1.004544738680124283e-02 -1.241927891969680786e-01 -4.027147218585014343e-02 -2.456026524305343628e-01
1.166000000000000000e+03 1.340680480003356934e+00 -3.446386337280273438e+00 6.329007912427186966e-03 -2.666356563568115234e-01 -7.809199392795562744e-02 -1.793030947446823120e-01
1.167000000000000000e+03 4.738136529922485352e-01 4.979327201843261719e+00 3.920955641660839319e-04 -4.141231477260589600e-01 -1.241193115711212158e-01 6.135651841759681702e-02
1.168000000000000000e+03 3.396594047546386719e+00 4.806124210357666016e+00 9.185049682855606079e-03 -1.985921114683151245e-01 -5.682212114334106445e-02 2.938651144504547119e-01
1.169000000000000000e+03 1.693988561630249023e+00 1.052797126770019531e+01 2.750268764793872833e-02 -6.253431439399719238e-01 -1.793521344661712646e-01 5.000087246298789978e-02
1.170000000000000000e+03 5.621747970581054688e-01 1.063717365264892578e+01 6.257317494601011276e-03 -9.003822207450866699e-01 -2.682374715805053711e-01 1.595913246273994446e-02
1.171000000000000000e+03 1.764416098594665527e+00 1.333592510223388672e+01 2.058378793299198151e-02 -6.110238432884216309e-01 -1.771320253610610962e-01 -2.239106036722660065e-02
1.172000000000000000e+03 2.980865716934204102e+00 1.463868713378906250e+01 4.357777908444404602e-02 -2.880572676658630371e-01 -7.334384322166442871e-02 -8.064113557338714600e-02
1.173000000000000000e+03 1.815630197525024414e+00 1.896817970275878906e+01 5.726838018745183945e-03 -3.999512791633605957e-01 -1.182673349976539612e-01 -1.026737168431282043e-01
1.174000000000000000e+03 1.933112621307373047e+00 2.462701225280761719e+01 -2.712739398702979088e-03 -6.113443151116371155e-02 -1.915415190160274506e-02 -1.264310777187347412e-01
1.175000000000000000e+03 5.906037139892578125e+01 -3.561761093139648438e+01 1.823206096887588501e-01 2.025013685226440430e+00 6.622003316879272461e-01 -1.867624282836914062e+00
1.176000000000000000e+03 1.340195941925048828e+01 -1.352047634124755859e+01 -1.188017725944519043e+00 4.117504596710205078e+00 8.788459897041320801e-01 3.484454631805419922e+00
1.177000000000000000e+03 1.079238128662109375e+01 -1.482366561889648438e+01 9.786962270736694336e-01 8.539212226867675781e+00 2.855372428894042969e+00 3.445587873458862305e+00
1.178000000000000000e+03 1.177252864837646484e+01 -3.084376811981201172e+00 3.366219282150268555e+00 -1.044708043336868286e-01 9.785245060920715332e-01 1.171519517898559570e+00
1.179000000000000000e+03 1.280764579772949219e+01 -3.045477867126464844e+00 5.332102298736572266e+00 -2.829320728778839111e-01 1.514751076698303223e+00 1.462713837623596191e+00
1.180000000000000000e+03 1.196549797058105469e+01 -3.526261091232299805e+00 4.277326583862304688e+00 6.112012639641761780e-02 1.301533937454223633e+00 1.950075626373291016e+00
1.181000000000000000e+03 1.545662879943847656e+01 -8.799978345632553101e-02 -3.786236345767974854e-01 8.032806396484375000e+00 2.296254873275756836e+00 -6.578712463378906250e-01
1.182000000000000000e+03 1.375950813293457031e+01 2.588350474834442139e-01 7.565631717443466187e-02 1.958485007286071777e+00 6.102423667907714844e-01 -9.982539415359497070e-01
1.183000000000000000e+03 1.527347946166992188e+01 -6.023569107055664062e-01 -2.261499315500259399e-01 8.068084716796875000e+00 2.352580308914184570e+00 -1.281540274620056152e+00
1.184000000000000000e+03 1.543935489654541016e+01 -7.280475497245788574e-01 -2.304663956165313721e-01 9.280191421508789062e+00 2.714917421340942383e+00 -9.151784777641296387e-01
1.185000000000000000e+03 1.778958702087402344e+01 -1.643393039703369141e+00 6.899100303649902344e+00 7.594885349273681641e+00 4.348195552825927734e+00 5.260432243347167969e+00
1.186000000000000000e+03 3.822641611099243164e+00 -3.515193223953247070e+00 6.617432087659835815e-02 1.260562390089035034e-01 5.766917020082473755e-02 -1.728948354721069336e-01
1.187000000000000000e+03 2.529734611511230469e+00 -4.264715194702148438e+00 5.477538332343101501e-02 -2.308768033981323242e-02 9.506311267614364624e-03 -2.065609395503997803e-01
1.188000000000000000e+03 6.531594753265380859e+00 -3.307287454605102539e+00 3.965961039066314697e-01 2.937665283679962158e-01 2.071087956428527832e-01 1.935897767543792725e-01
1.189000000000000000e+03 4.389263629913330078e+00 -5.085883617401123047e+00 1.866443902254104614e-01 4.073914289474487305e-01 1.782107502222061157e-01 3.925826773047447205e-02
1.190000000000000000e+03 1.702893376350402832e+00 -4.770090103149414062e+00 1.994515582919120789e-02 -2.622534036636352539e-01 -7.269246876239776611e-02 -1.918198168277740479e-01
1.191000000000000000e+03 7.235974788665771484e+00 -3.277824401855468750e+00 5.413976907730102539e-01 3.169799745082855225e-01 2.575132846832275391e-01 3.297070562839508057e-01
1.192000000000000000e+03 5.109453678131103516e+00 -3.415512084960937500e+00 1.834902316331863403e-01 2.333956062793731689e-01 1.250657439231872559e-01 -2.569262310862541199e-02
1.193000000000000000e+03 1.812819480895996094e+01 -3.650638580322265625e+00 8.526520729064941406e+00 5.596976280212402344e+00 4.237049102783203125e+00 1.793309569358825684e+00
1.194000000000000000e+03 1.784134483337402344e+01 -2.274381399154663086e+00 8.629559516906738281e+00 6.900255680084228516e+00 4.658944606781005859e+00 4.413434028625488281e+00
1.195000000000000000e+03 1.478290653228759766e+01 -4.911024093627929688e+00 4.857352733612060547e+00 8.252284049987792969e+00 3.932890892028808594e+00 6.589819908142089844e+00
1.196000000000000000e+03 1.531685924530029297e+01 -5.237181186676025391e+00 3.872273921966552734e+00 9.081341743469238281e+00 3.886084556579589844e+00 5.733926773071289062e+00
1.197000000000000000e+03 3.717952966690063477e+00 2.907770872116088867e+00 -1.225026398897171021e-01 -1.028517857193946838e-01 -6.760632991790771484e-02 2.908996641635894775e-01
1.198000000000000000e+03 4.500638484954833984e+00 2.783910512924194336e+00 -1.645243018865585327e-01 -7.634216547012329102e-02 -7.225994020700454712e-02 3.182867169380187988e-01
1.199000000000000000e+03 5.268740177154541016e+00 2.689358711242675781e+00 -2.076878100633621216e-01 -7.239714264869689941e-02 -8.402548730373382568e-02 3.448018133640289307e-01
1.200000000000000000e+03 5.385871410369873047e+00 3.462514638900756836e+00 -9.643944352865219116e-02 -7.461845129728317261e-02 -5.131736770272254944e-02 3.562102317810058594e-01
1.201000000000000000e+03 6.112666130065917969e+00 3.354449748992919922e+00 -1.102236360311508179e-01 -6.759422272443771362e-02 -5.334535613656044006e-02 3.703592717647552490e-01
1.202000000000000000e+03 9.242455482482910156e+00 3.174716711044311523e+00 4.073577001690864563e-02 1.763640530407428741e-02 1.751165278255939484e-02 1.729072034358978271e-01
1.203000000000000000e+03 6.038578033447265625e+00 2.626049280166625977e+00 -2.456746697425842285e-01 -4.738673567771911621e-02 -8.791842311620712280e-02 3.545129299163818359e-01
1.204000000000000000e+03 6.862023353576660156e+00 3.313785552978515625e+00 -9.138137847185134888e-02 -5.334633961319923401e-02 -4.341831803321838379e-02 3.592239618301391602e-01
1.205000000000000000e+03 1.430712461471557617e+00 4.832920551300048828e+00 3.254337352700531483e-04 -3.285500705242156982e-01 -9.846739470958709717e-02 1.708753257989883423e-01
1.206000000000000000e+03 4.218824803829193115e-01 3.577981472015380859e+00 -6.357627455145120621e-03 -2.290254384279251099e-01 -7.061491906642913818e-02 5.228079482913017273e-02
1.207000000000000000e+03 1.001840019226074219e+01 2.380847454071044922e+00 -1.171351447701454163e-01 -4.253182560205459595e-02 -4.790009185671806335e-02 1.220998540520668030e-01
1.208000000000000000e+03 1.009237861633300781e+01 3.057271718978881836e+00 1.273557841777801514e-01 1.382565349340438843e-01 7.968369871377944946e-02 1.828936301171779633e-02
1.209000000000000000e+03 1.178978061676025391e+01 2.538884401321411133e+00 2.095049619674682617e-01 7.220678925514221191e-01 2.794718742370605469e-01 -4.300206899642944336e-01
1.210000000000000000e+03 7.967079162597656250e+00 -3.969129800796508789e+00 9.737539291381835938e-01 5.186886787414550781e-01 4.477327764034271240e-01 7.652336359024047852e-01
1.211000000000000000e+03 9.294755935668945312e+00 -2.583973646163940430e+00 9.344808459281921387e-01 1.702480465173721313e-01 3.314186632633209229e-01 4.621177911758422852e-01
1.212000000000000000e+03 1.035302352905273438e+01 -1.366619491577148438e+01 -5.669983625411987305e-01 7.600705623626708984e+00 2.110112190246582031e+00 2.890678882598876953e+00
1.213000000000000000e+03 9.193725585937500000e+00 -1.651025962829589844e+01 2.514659166336059570e+00 9.510276794433593750e+00 3.607480764389038086e+00 3.305481433868408203e+00
1.214000000000000000e+03 1.851420974731445312e+01 -2.229285240173339844e+00 7.595504760742187500e+00 5.461472511291503906e+00 3.917093276977539062e+00 3.913602113723754883e+00
1.215000000000000000e+03 1.608539772033691406e+01 -5.180344581604003906e+00 3.766753196716308594e+00 1.034113788604736328e+01 4.232367515563964844e+00 3.304908037185668945e+00
1.216000000000000000e+03 1.732691955566406250e+01 -5.295989513397216797e+00 4.480253219604492188e+00 7.252248287200927734e+00 3.519750356674194336e+00 1.471551656723022461e+00
1.217000000000000000e+03 7.113013458251953125e+01 1.027717494964599609e+01 -5.940269231796264648e-01 9.644527435302734375e+00 2.715150117874145508e+00 2.307496517896652222e-01
1.218000000000000000e+03 7.249821472167968750e+01 1.294998931884765625e+01 -2.561422586441040039e-01 9.028010368347167969e+00 2.631560325622558594e+00 2.381920367479324341e-01
1.219000000000000000e+03 3.171545028686523438e+01 -1.513372802734375000e+01 -2.170301198959350586e+00 7.604885697364807129e-01 -4.229438006877899170e-01 -2.845956683158874512e-01
1.220000000000000000e+03 2.195432090759277344e+01 -3.476401901245117188e+01 -2.066987037658691406e+00 -2.313104420900344849e-01 -6.894892454147338867e-01 5.592402219772338867e-01
1.221000000000000000e+03 2.338544845581054688e+01 -3.493425750732421875e+01 -1.938606977462768555e+00 -1.942540407180786133e-01 -6.398583054542541504e-01 4.562748968601226807e-01
1.222000000000000000e+03 3.200043106079101562e+01 -1.396528053283691406e+01 -1.698933839797973633e+00 1.202644824981689453e+00 -1.488867104053497314e-01 -8.884474635124206543e-01
1.223000000000000000e+03 2.908901977539062500e+01 -1.556411266326904297e+01 -3.227643013000488281e+00 1.974332779645919800e-01 -9.090629220008850098e-01 5.625257492065429688e-01
1.224000000000000000e+03 2.718588256835937500e+01 -3.568784713745117188e+01 -1.827196359634399414e+00 -1.028349027037620544e-01 -5.790093541145324707e-01 1.242331266403198242e-01
1.225000000000000000e+03 3.107314872741699219e+01 -3.704202270507812500e+01 -1.651647090911865234e+00 -1.928411871194839478e-01 -5.533464550971984863e-01 -1.291518807411193848e-01
1.226000000000000000e+03 3.183703041076660156e+01 -3.566938400268554688e+01 -2.014072179794311523e+00 -1.435905694961547852e-01 -6.472988724708557129e-01 -1.286529451608657837e-01
1.227000000000000000e+03 3.387783432006835938e+01 -1.671580696105957031e+01 -1.776475191116333008e+00 4.306743443012237549e-01 -4.037402272224426270e-01 -3.971549868583679199e-01
1.228000000000000000e+03 4.463736343383789062e+01 -3.306263685226440430e+00 3.145282566547393799e-01 5.841326713562011719e+00 1.846756458282470703e+00 -2.283452749252319336e+00
1.229000000000000000e+03 8.608080863952636719e+00 -2.941014099121093750e+01 -2.759903192520141602e+00 5.435425758361816406e+00 8.026568293571472168e-01 7.569111585617065430e-01
1.230000000000000000e+03 4.514384460449218750e+01 -1.393822431564331055e+00 6.102583408355712891e-01 5.825564861297607422e+00 1.930747032165527344e+00 -2.433516740798950195e+00
1.231000000000000000e+03 4.495348358154296875e+01 1.795614004135131836e+00 1.113152503967285156e+00 6.044403553009033203e+00 2.147266864776611328e+00 -2.777708053588867188e+00
1.232000000000000000e+03 6.078962326049804688e+01 -2.211754798889160156e+01 5.737407207489013672e-01 1.084104418754577637e+00 4.973535239696502686e-01 1.314487218856811523e+00
1.233000000000000000e+03 4.894905090332031250e+01 -1.136643886566162109e+01 -3.562699854373931885e-01 5.621100902557373047e+00 1.579449295997619629e+00 -7.528321146965026855e-01
1.234000000000000000e+03 2.812104225158691406e+01 -3.428792190551757812e+01 -2.026757240295410156e+00 -1.041474658995866776e-02 -6.111516356468200684e-01 1.301557868719100952e-01
1.235000000000000000e+03 4.618025588989257812e+01 -3.786154985427856445e+00 3.864856958389282227e-01 5.771040916442871094e+00 1.847257971763610840e+00 -2.205730438232421875e+00
1.236000000000000000e+03 7.708846282958984375e+01 1.128078746795654297e+01 -7.818515598773956299e-02 7.407313346862792969e+00 2.198738574981689453e+00 4.445175230503082275e-01
1.237000000000000000e+03 4.908524703979492188e+01 -8.186550140380859375e+00 1.300425827503204346e-01 5.712898731231689453e+00 1.752882480621337891e+00 -1.469427943229675293e+00
1.238000000000000000e+03 4.328383636474609375e+01 2.708823966979980469e+01 3.223110139369964600e-01 5.373099803924560547e+00 1.708623170852661133e+00 1.184786558151245117e+00
1.239000000000000000e+03 4.500294113159179688e+01 -2.481415939331054688e+01 2.366179466247558594e+00 9.855924606323242188e+00 3.666630983352661133e+00 -2.480438470840454102e+00
1.240000000000000000e+03 4.491955947875976562e+01 -2.616576576232910156e+01 1.707102537155151367e+00 1.041735076904296875e+01 3.637336015701293945e+00 -2.293761491775512695e+00
1.241000000000000000e+03 6.681247711181640625e+01 -2.044225120544433594e+01 -1.277690291404724121e+00 1.728925555944442749e-01 -3.314393162727355957e-01 6.402552723884582520e-01
1.242000000000000000e+03 6.385086822509765625e+01 -1.420306110382080078e+01 8.624814748764038086e-01 1.688923120498657227e+00 7.654213309288024902e-01 1.163482785224914551e+00
1.243000000000000000e+03 4.712195968627929688e+01 -6.253717899322509766e+00 1.763786375522613525e-01 5.823102951049804688e+00 1.799844503402709961e+00 -1.827764153480529785e+00
1.244000000000000000e+03 7.250276184082031250e+01 6.084105968475341797e+00 3.929239511489868164e-01 1.012408161163330078e+01 3.155101537704467773e+00 3.928281366825103760e-01
1.245000000000000000e+03 2.717206001281738281e+01 -1.350729656219482422e+01 -3.703282594680786133e+00 4.663502573966979980e-01 -9.710797071456909180e-01 1.868142485618591309e-01
1.246000000000000000e+03 7.330429077148437500e+01 -2.691497993469238281e+01 1.478478550910949707e+00 9.871971130371093750e+00 3.405134916305541992e+00 1.467900574207305908e-01
1.247000000000000000e+03 4.800302505493164062e+01 -8.786489486694335938e+00 -8.019567281007766724e-02 5.845627307891845703e+00 1.729629397392272949e+00 -1.339854240417480469e+00
1.248000000000000000e+03 7.587024688720703125e+01 2.477145385742187500e+01 1.391203403472900391e-01 8.201567649841308594e+00 2.502206325531005859e+00 6.270640492439270020e-01
1.249000000000000000e+03 7.134532165527343750e+01 3.263734817504882812e+00 4.754376411437988281e-01 1.169901561737060547e+01 3.652335882186889648e+00 6.851142644882202148e-01
1.250000000000000000e+03 7.785201263427734375e+01 -3.443234634399414062e+01 -1.401446759700775146e-01 7.784588336944580078e+00 2.293333053588867188e+00 -4.001676440238952637e-01
1.251000000000000000e+03 7.200852966308593750e+01 -3.859006118774414062e+01 -1.006362363696098328e-01 5.083250999450683594e+00 1.494784474372863770e+00 3.631444573402404785e-01
1.252000000000000000e+03 7.700357055664062500e+01 1.943953514099121094e+01 4.537310451269149780e-02 7.949184894561767578e+00 2.398367404937744141e+00 3.476861417293548584e-01
1.253000000000000000e+03 7.685971069335937500e+01 3.309320449829101562e+01 -1.397853493690490723e-01 9.188714981079101562e+00 2.714678764343261719e+00 4.270328879356384277e-01
1.254000000000000000e+03 7.709205627441406250e+01 -2.323287582397460938e+01 4.778655245900154114e-02 7.498263359069824219e+00 2.263814926147460938e+00 8.167987465858459473e-01
1.255000000000000000e+03 7.815899658203125000e+01 -2.798191261291503906e+01 2.206846624612808228e-01 6.845418930053710938e+00 2.119831085205078125e+00 -2.594099938869476318e-01
1.256000000000000000e+03 7.519332885742187500e+01 -2.815002250671386719e+01 9.237841367721557617e-01 8.091217041015625000e+00 2.704500436782836914e+00 -3.935741186141967773e-01
1.257000000000000000e+03 7.835237121582031250e+01 -2.086310386657714844e+01 -1.039148345589637756e-01 7.698719501495361328e+00 2.278441429138183594e+00 4.761641919612884521e-01
1.258000000000000000e+03 7.452011871337890625e+01 -2.307465934753417969e+01 4.268251731991767883e-02 8.352302551269531250e+00 2.518495559692382812e+00 8.860002756118774414e-01
1.259000000000000000e+03 7.794504547119140625e+01 -2.650668907165527344e+01 3.122011721134185791e-01 6.898232936859130859e+00 2.163130283355712891e+00 7.063823193311691284e-02
1.260000000000000000e+03 7.601455688476562500e+01 -3.522099685668945312e+01 -3.325279951095581055e-01 7.356134414672851562e+00 2.107081890106201172e+00 -3.441428244113922119e-01
1.261000000000000000e+03 7.662118530273437500e+01 -2.455243492126464844e+01 5.403007268905639648e-01 7.623437404632568359e+00 2.449121475219726562e+00 6.042781472206115723e-01
1.262000000000000000e+03 7.695736694335937500e+01 -3.277864456176757812e+01 -1.633565425872802734e-01 7.573671817779541016e+00 2.223094463348388672e+00 -6.548489332199096680e-01
1.263000000000000000e+03 7.494136810302734375e+01 -3.143469810485839844e+01 -6.434698402881622314e-02 7.805848598480224609e+00 2.322450399398803711e+00 -6.866916418075561523e-01
1.264000000000000000e+03 7.435319519042968750e+01 -3.778669357299804688e+01 -2.983500063419342041e-01 6.523442745208740234e+00 1.867527842521667480e+00 -2.894357405602931976e-02
1.265000000000000000e+03 7.814893341064453125e+01 2.361384391784667969e+01 3.413886949419975281e-02 8.268624305725097656e+00 2.490828990936279297e+00 3.806902468204498291e-01
1.266000000000000000e+03 7.687202453613281250e+01 2.078549957275390625e+01 7.470575720071792603e-02 8.033363342285156250e+00 2.432420730590820312e+00 3.992565870285034180e-01
1.267000000000000000e+03 7.692591094970703125e+01 2.356070518493652344e+01 1.015090346336364746e-01 8.235173225402832031e+00 2.501004695892333984e+00 5.061299204826354980e-01
1.268000000000000000e+03 7.703719329833984375e+01 1.396337604522705078e+01 -5.788889899849891663e-02 7.580654144287109375e+00 2.256829500198364258e+00 3.247000575065612793e-01
1.269000000000000000e+03 7.711565399169921875e+01 1.260864543914794922e+01 -6.469517946243286133e-02 7.502542972564697266e+00 2.231354236602783203e+00 3.878316283226013184e-01
1.270000000000000000e+03 7.248472595214843750e+01 2.335968589782714844e+01 2.826944589614868164e-01 8.285398483276367188e+00 2.570427894592285156e+00 2.763281464576721191e-01
1.271000000000000000e+03 7.799570465087890625e+01 2.786637687683105469e+01 2.479177492205053568e-04 8.959627151489257812e+00 2.687962532043457031e+00 5.018677115440368652e-01
1.272000000000000000e+03 7.578825378417968750e+01 1.388246631622314453e+01 -7.008226960897445679e-02 7.992352962493896484e+00 2.376681089401245117e+00 3.972319066524505615e-01
1.273000000000000000e+03 7.740969848632812500e+01 -2.205018234252929688e+01 -4.549810662865638733e-02 7.612243175506591797e+00 2.270023584365844727e+00 7.256203293800354004e-01
1.274000000000000000e+03 7.452064514160156250e+01 2.856603622436523438e+01 -6.653702259063720703e-02 7.921599388122558594e+00 2.356518745422363281e+00 7.610394954681396484e-01
1.275000000000000000e+03 7.697409057617187500e+01 8.560921669006347656e+00 1.497115939855575562e-02 7.184316635131835938e+00 2.159786224365234375e+00 5.324609279632568359e-01
1.276000000000000000e+03 7.697182464599609375e+01 -1.972990226745605469e+01 -3.247027695178985596e-01 7.753896713256835938e+00 2.228758096694946289e+00 4.229469895362854004e-01
1.277000000000000000e+03 7.586097717285156250e+01 -9.365462303161621094e+00 -6.663372367620468140e-02 7.022799968719482422e+00 2.086849927902221680e+00 -5.488726496696472168e-01
1.278000000000000000e+03 7.692039489746093750e+01 -1.218764877319335938e+01 -8.086710423231124878e-02 7.299159049987792969e+00 2.165487527847290039e+00 -4.454175531864166260e-01
1.279000000000000000e+03 7.465887451171875000e+01 -5.490829944610595703e+00 3.097543865442276001e-02 7.280322074890136719e+00 2.193389177322387695e+00 -4.696384966373443604e-01
1.280000000000000000e+03 7.699371337890625000e+01 -5.447890281677246094e+00 9.295487776398658752e-03 6.878692150115966797e+00 2.066396236419677734e+00 -5.633128881454467773e-01
1.281000000000000000e+03 7.821765136718750000e+01 7.109888076782226562e+00 4.569136351346969604e-02 6.273986339569091797e+00 1.895903229713439941e+00 3.504070639610290527e-01
1.282000000000000000e+03 7.705546569824218750e+01 5.808413982391357422e+00 1.419983208179473877e-01 6.889204025268554688e+00 2.109360694885253906e+00 4.168440699577331543e-01
1.283000000000000000e+03 7.574514007568359375e+01 3.703096389770507812e+01 -2.553197443485260010e-01 8.723949432373046875e+00 2.540589094161987305e+00 3.227121829986572266e-01
1.284000000000000000e+03 7.755355072021484375e+01 3.642824172973632812e+01 -1.511876732110977173e-01 9.736347198486328125e+00 2.875547885894775391e+00 -3.228816390037536621e-02
1.285000000000000000e+03 7.820693969726562500e+01 8.484206199645996094e+00 -8.779714698903262615e-04 6.491288661956787109e+00 1.947123169898986816e+00 3.793423473834991455e-01
1.286000000000000000e+03 7.585400390625000000e+01 7.205863475799560547e+00 1.372779160737991333e-01 7.772740364074707031e+00 2.373005628585815430e+00 5.964004397392272949e-01
1.287000000000000000e+03 7.688100433349609375e+01 -2.654091119766235352e+00 1.113194078207015991e-01 6.800811290740966797e+00 2.073639154434204102e+00 -4.724974036216735840e-01
1.288000000000000000e+03 7.703127288818359375e+01 -9.476295471191406250e+00 -4.081139340996742249e-02 7.126863956451416016e+00 2.125815629959106445e+00 -5.128681063652038574e-01
1.289000000000000000e+03 7.673223876953125000e+01 -1.652303886413574219e+01 -2.876684665679931641e-01 7.568471431732177734e+00 2.184241056442260742e+00 -9.699897468090057373e-02
1.290000000000000000e+03 7.618483734130859375e+01 3.425986480712890625e+01 -3.128514587879180908e-01 8.708130836486816406e+00 2.518584012985229492e+00 3.771154582500457764e-01
1.291000000000000000e+03 7.316448974609375000e+01 3.277150344848632812e+01 -5.412374138832092285e-01 7.010776996612548828e+00 1.940861821174621582e+00 3.383938074111938477e-01
1.292000000000000000e+03 7.704459381103515625e+01 3.203613281250000000e+01 -1.611783504486083984e-01 9.161172866821289062e+00 2.699998378753662109e+00 4.696573317050933838e-01
1.293000000000000000e+03 7.705941772460937500e+01 1.674967765808105469e+01 -3.070883918553590775e-03 7.755233287811279297e+00 2.325648784637451172e+00 3.081446290016174316e-01
1.294000000000000000e+03 7.698902893066406250e+01 9.935800552368164062e+00 -6.308551877737045288e-02 7.318859100341796875e+00 2.176732063293457031e+00 5.246942043304443359e-01
1.295000000000000000e+03 7.816212463378906250e+01 -1.233779144287109375e+01 -3.809419274330139160e-02 7.635433673858642578e+00 2.279201984405517578e+00 -3.132617473602294922e-01
1.296000000000000000e+03 7.685558319091796875e+01 -1.499341011047363281e+01 -2.024372965097427368e-01 7.482530117034912109e+00 2.184027910232543945e+00 -2.647746801376342773e-01
1.297000000000000000e+03 7.819103240966796875e+01 -5.472814559936523438e+00 3.637568093836307526e-03 6.610007762908935547e+00 1.984093666076660156e+00 -4.270601272583007812e-01
1.298000000000000000e+03 7.703720855712890625e+01 -8.139321327209472656e+00 -3.256951645016670227e-02 7.036265850067138672e+00 2.101109027862548828e+00 -5.348059535026550293e-01
1.299000000000000000e+03 7.697344207763671875e+01 1.673329353332519531e+00 2.653688490390777588e-01 6.704605102539062500e+00 2.090992212295532227e+00 -3.163402527570724487e-02
1.300000000000000000e+03 7.579555511474609375e+01 1.799429178237915039e+00 3.947390913963317871e-01 7.522431373596191406e+00 2.375151157379150391e+00 4.688489437103271484e-02
1.301000000000000000e+03 7.705977630615234375e+01 4.439839363098144531e+00 1.725286543369293213e-01 6.774332046508789062e+00 2.084058284759521484e+00 2.794063985347747803e-01
1.302000000000000000e+03 7.684098052978515625e+01 -1.198908686637878418e+00 1.639934033155441284e-01 6.760136127471923828e+00 2.077238798141479492e+00 -3.841370642185211182e-01
1.303000000000000000e+03 7.694738769531250000e+01 -4.064824104309082031e+00 5.455899238586425781e-02 6.806282997131347656e+00 2.058252573013305664e+00 -5.335758328437805176e-01
1.304000000000000000e+03 7.698497009277343750e+01 -1.082877445220947266e+01 -5.656216666102409363e-02 7.216775894165039062e+00 2.148064136505126953e+00 -4.829747676849365234e-01
1.305000000000000000e+03 7.671621704101562500e+01 -1.815315818786621094e+01 -3.653146326541900635e-01 7.651721954345703125e+00 2.185922145843505859e+00 1.490564346313476562e-01
1.306000000000000000e+03 3.393976211547851562e+01 -1.559381198883056641e+01 -1.341896414756774902e+00 8.462769389152526855e-01 -1.486858725547790527e-01 -8.776087164878845215e-01
1.307000000000000000e+03 7.126802062988281250e+01 1.582955646514892578e+01 1.386141180992126465e-01 9.285114288330078125e+00 2.827118635177612305e+00 4.120630025863647461e-01
1.308000000000000000e+03 7.129949951171875000e+01 1.799941182136535645e+00 8.917182683944702148e-01 1.138577842712402344e+01 3.683248996734619141e+00 8.240551948547363281e-01
1.309000000000000000e+03 7.112724304199218750e+01 3.385004401206970215e-01 8.478587865829467773e-01 1.106243515014648438e+01 3.573088169097900391e+00 8.530747890472412109e-01
1.310000000000000000e+03 7.136555480957031250e+01 2.019499397277832031e+01 3.620498999953269958e-02 8.868926048278808594e+00 2.671539306640625000e+00 2.359501719474792480e-01
1.311000000000000000e+03 7.130339813232421875e+01 1.728621673583984375e+01 2.953808940947055817e-02 9.138449668884277344e+00 2.750396251678466797e+00 3.042105436325073242e-01
1.312000000000000000e+03 7.266165161132812500e+01 2.185716629028320312e+01 1.879484355449676514e-01 8.453828811645507812e+00 2.592533111572265625e+00 2.889124453067779541e-01
1.313000000000000000e+03 7.507208251953125000e+01 1.838208007812500000e+01 7.352197915315628052e-02 8.229826927185058594e+00 2.491004705429077148e+00 4.019446372985839844e-01
1.314000000000000000e+03 7.272007751464843750e+01 2.031423759460449219e+01 1.002257391810417175e-01 8.629574775695800781e+00 2.618940114974975586e+00 3.476724028587341309e-01
1.315000000000000000e+03 6.763307189941406250e+01 -9.273859024047851562e+00 5.950183868408203125e-01 4.637026786804199219e+00 1.569613575935363770e+00 1.367040634155273438e+00
1.316000000000000000e+03 7.012447357177734375e+01 -7.129690647125244141e+00 2.416563034057617188e-01 6.628005027770996094e+00 2.060898303985595703e+00 7.948028445243835449e-01
1.317000000000000000e+03 4.394582748413085938e+01 9.805674552917480469e-01 8.621870875358581543e-01 6.129862308502197266e+00 2.097614765167236328e+00 -2.546440839767456055e+00
1.318000000000000000e+03 4.295547103881835938e+01 1.581718325614929199e-01 6.461589932441711426e-01 6.185135841369628906e+00 2.049388408660888672e+00 -2.343306303024291992e+00
1.319000000000000000e+03 3.901425838470458984e+00 -1.587037086486816406e+01 2.978191971778869629e-01 2.634933471679687500e+00 8.798257708549499512e-01 -1.835133582353591919e-01
1.320000000000000000e+03 3.643412399291992188e+01 -1.670585632324218750e+01 2.343761920928955078e-02 1.314684033393859863e+00 4.014365077018737793e-01 -2.155096769332885742e+00
1.321000000000000000e+03 2.571444511413574219e+01 -3.454860305786132812e+01 -1.917079091072082520e+00 -9.769736975431442261e-02 -6.044329404830932617e-01 2.464737743139266968e-01
1.322000000000000000e+03 6.901557159423828125e+01 3.149668121337890625e+01 -5.348232388496398926e-01 3.792004346847534180e+00 9.771543145179748535e-01 -2.655991017818450928e-01
1.323000000000000000e+03 6.992401885986328125e+01 3.470832061767578125e+01 -7.618907094001770020e-01 4.355451107025146484e+00 1.078068137168884277e+00 -3.167105913162231445e-01
1.324000000000000000e+03 2.193603038787841797e+00 3.425403594970703125e+01 -4.755919508170336485e-05 4.569006562232971191e-01 1.370559334754943848e-01 -9.329391270875930786e-02
1.325000000000000000e+03 4.065048694610595703e+00 3.495668029785156250e+01 -2.444676868617534637e-02 7.303217649459838867e-01 2.117625027894973755e-01 -1.213175356388092041e-01
1.326000000000000000e+03 1.923465490341186523e+00 2.744729804992675781e+01 -4.512147046625614166e-03 9.126517176628112793e-02 2.602590620517730713e-02 -1.157339811325073242e-01
1.327000000000000000e+03 3.168272018432617188e+00 2.998815536499023438e+01 -1.365689467638731003e-02 4.328635334968566895e-01 1.257619857788085938e-01 -1.699725687503814697e-01
1.328000000000000000e+03 5.472820758819580078e+00 3.168867874145507812e+01 -4.409901425242424011e-02 8.647615313529968262e-01 2.461987584829330444e-01 -2.249863445758819580e-01
1.329000000000000000e+03 1.941847443580627441e+00 2.605017280578613281e+01 -4.066322930157184601e-03 2.001780271530151367e-02 4.785443656146526337e-03 -1.222591400146484375e-01
1.330000000000000000e+03 3.200478553771972656e+00 2.736077499389648438e+01 -1.166111510246992111e-02 3.172708749771118164e-01 9.168292582035064697e-02 -1.806174963712692261e-01
1.331000000000000000e+03 3.127310514450073242e+00 2.869159698486328125e+01 -4.730296321213245392e-03 3.622663617134094238e-01 1.072608232498168945e-01 -1.695758402347564697e-01
1.332000000000000000e+03 3.445739269256591797e+00 3.265690994262695312e+01 -2.082558348774909973e-02 5.825158953666687012e-01 1.685070991516113281e-01 -1.483730822801589966e-01
1.333000000000000000e+03 3.390624046325683594e+00 3.132750892639160156e+01 -2.633808180689811707e-02 5.227026939392089844e-01 1.489093899726867676e-01 -1.588392853736877441e-01
1.334000000000000000e+03 3.628007888793945312e+00 -3.561527252197265625e+01 -4.494429826736450195e-01 7.319489002227783203e+00 2.061013698577880859e+00 3.512738347053527832e-01
1.335000000000000000e+03 3.999419212341308594e+00 -3.283619689941406250e+01 -7.670543193817138672e-01 6.834366798400878906e+00 1.820193767547607422e+00 1.044219493865966797e+00
1.336000000000000000e+03 2.023019075393676758e+00 -3.028188896179199219e+01 -3.106679618358612061e-01 6.638381481170654297e+00 1.898314118385314941e+00 1.386322498321533203e+00
1.337000000000000000e+03 3.337253093719482422e+00 -2.872274780273437500e+01 -7.078122496604919434e-01 6.077412605285644531e+00 1.610880017280578613e+00 2.399783849716186523e+00
1.338000000000000000e+03 5.878197669982910156e+00 -2.705761146545410156e+01 -1.132808208465576172e+00 7.410910129547119141e+00 1.883430600166320801e+00 3.120437383651733398e+00
1.339000000000000000e+03 1.857812285423278809e+00 2.177677345275878906e+01 2.055146964266896248e-03 -2.367755472660064697e-01 -7.041612267494201660e-02 -1.177565008401870728e-01
1.340000000000000000e+03 3.125797271728515625e+00 2.304891777038574219e+01 2.305343048647046089e-03 1.038793697953224182e-01 3.185541182756423950e-02 -1.868485063314437866e-01
1.341000000000000000e+03 2.907547712326049805e+00 -1.117082500457763672e+01 -1.655609756708145142e-01 7.585932016372680664e-01 1.779096722602844238e-01 -2.148215025663375854e-01
1.342000000000000000e+03 1.751291155815124512e+00 -1.509804534912109375e+01 4.353220015764236450e-02 -5.672628879547119141e-01 -1.571191996335983276e-01 -3.591934442520141602e-01
1.343000000000000000e+03 1.829367756843566895e+00 2.037008666992187500e+01 5.680404603481292725e-03 -3.222238719463348389e-01 -9.496303647756576538e-02 -1.116672754287719727e-01
1.344000000000000000e+03 3.059252500534057617e+00 2.162967681884765625e+01 8.233504369854927063e-03 1.723169349133968353e-02 7.639559451490640640e-03 -1.807135045528411865e-01
1.345000000000000000e+03 2.909499406814575195e+00 1.181648349761962891e+01 6.131531298160552979e-02 -3.586986064910888672e-01 -8.921498805284500122e-02 9.511303156614303589e-03
1.346000000000000000e+03 3.008607864379882812e+00 1.746260261535644531e+01 2.441942133009433746e-02 -1.845360994338989258e-01 -4.803500324487686157e-02 -1.402256637811660767e-01
1.347000000000000000e+03 1.849003434181213379e+00 -2.204963111877441406e+01 3.344925045967102051e-01 8.697973489761352539e-01 3.612869679927825928e-01 1.233539700508117676e+00
1.348000000000000000e+03 2.987998723983764648e+00 -1.644537734985351562e+01 2.933672070503234863e-01 1.378463745117187500e+00 5.015493035316467285e-01 -1.960133761167526245e-01
1.349000000000000000e+03 2.620635032653808594e+00 7.668552398681640625e+00 6.617666035890579224e-02 -3.794177770614624023e-01 -9.397233277559280396e-02 1.759361922740936279e-01
1.350000000000000000e+03 1.548147439956665039e+00 6.289625167846679688e+00 1.782318763434886932e-02 -4.382990598678588867e-01 -1.261427551507949829e-01 1.655109673738479614e-01
1.351000000000000000e+03 1.786649703979492188e+00 1.474750900268554688e+01 1.954068802297115326e-02 -5.771791934967041016e-01 -1.672915518283843994e-01 -5.107393860816955566e-02
1.352000000000000000e+03 3.000005722045898438e+00 1.605697441101074219e+01 3.662592172622680664e-02 -2.391311824321746826e-01 -6.075157970190048218e-02 -1.145882233977317810e-01
1.353000000000000000e+03 3.734129905700683594e+00 -4.550176620483398438e+00 1.459578424692153931e-01 2.169113606214523315e-01 1.088607609272003174e-01 -1.055451780557632446e-01
1.354000000000000000e+03 3.221830606460571289e+00 -3.844781160354614258e+00 6.236924603581428528e-02 4.722658544778823853e-02 3.287874907255172729e-02 -1.965828388929367065e-01
1.355000000000000000e+03 2.494610548019409180e+00 -5.864170074462890625e+00 5.626349523663520813e-02 -1.145721226930618286e-02 1.344188489019870758e-02 -1.336274743080139160e-01
1.356000000000000000e+03 2.754621744155883789e+00 9.016764640808105469e+00 6.954478472471237183e-02 -3.903347253799438477e-01 -9.623698145151138306e-02 1.256276667118072510e-01
1.357000000000000000e+03 1.803382396697998047e+00 -2.347213172912597656e+01 3.244319856166839600e-01 1.717096567153930664e+00 6.124585866928100586e-01 1.651219367980957031e+00
1.358000000000000000e+03 2.985978603363037109e+00 -2.740880012512207031e+01 -3.731424212455749512e-01 5.491407871246337891e+00 1.535479664802551270e+00 2.615304946899414062e+00
1.359000000000000000e+03 2.910974264144897461e+00 -9.889298439025878906e+00 -9.656143188476562500e-02 6.182597875595092773e-01 1.565095037221908569e-01 -1.094742789864540100e-01
1.360000000000000000e+03 3.002931356430053711e+00 -8.649580001831054688e+00 -6.603510677814483643e-02 5.090439915657043457e-01 1.329026669263839722e-01 -4.600663110613822937e-02
1.361000000000000000e+03 2.926495790481567383e+00 -1.522522926330566406e+01 9.416282922029495239e-02 1.097676992416381836e+00 3.575519323348999023e-01 -3.500783741474151611e-01
1.362000000000000000e+03 6.500434875488281250e+00 -3.100932312011718750e+01 -1.954702973365783691e+00 5.987239837646484375e+00 1.209761142730712891e+00 1.256672620773315430e+00
1.363000000000000000e+03 2.960199117660522461e+00 -2.353341102600097656e+01 6.582376360893249512e-01 3.474416732788085938e+00 1.239796280860900879e+00 2.331888914108276367e+00
1.364000000000000000e+03 7.755040168762207031e+00 -2.053587722778320312e+01 2.785212993621826172e+00 1.265802383422851562e+01 4.632970809936523438e+00 3.013193130493164062e+00
1.365000000000000000e+03 3.020502090454101562e+00 -1.390523815155029297e+01 -4.296749085187911987e-02 1.098861455917358398e+00 3.167681992053985596e-01 -3.659729063510894775e-01
1.366000000000000000e+03 2.847572088241577148e+00 1.040901851654052734e+01 7.408060878515243530e-02 -3.801082670688629150e-01 -9.180830419063568115e-02 6.318380683660507202e-02
1.367000000000000000e+03 4.159155845642089844e+00 1.312650108337402344e+01 9.307112544775009155e-02 -5.976784229278564453e-02 9.990985505282878876e-03 -6.217149645090103149e-02
1.368000000000000000e+03 2.951861619949340820e+00 1.322334575653076172e+01 5.594693496823310852e-02 -3.298327624797821045e-01 -8.216574788093566895e-02 -3.912186995148658752e-02
1.369000000000000000e+03 4.210688114166259766e+00 1.739470291137695312e+01 4.537973925471305847e-02 9.404674917459487915e-02 4.182794690132141113e-02 -1.843974590301513672e-01
1.370000000000000000e+03 6.877952575683593750e+01 -9.760360717773437500e+00 4.194996654987335205e-01 5.067746162414550781e+00 1.646173715591430664e+00 9.187034368515014648e-01
1.371000000000000000e+03 4.517118453979492188e+01 -2.376612854003906250e+01 2.530743837356567383e+00 1.018877124786376953e+01 3.815854549407958984e+00 -2.530599594116210938e+00
1.372000000000000000e+03 7.561551666259765625e+01 -2.727272272109985352e+00 1.732224673032760620e-01 7.284576416015625000e+00 2.237339735031127930e+00 -4.727077484130859375e-01
1.373000000000000000e+03 7.082953643798828125e+01 -1.104861140251159668e+00 5.593858957290649414e-01 1.039283084869384766e+01 3.285664796829223633e+00 1.111952781677246094e+00
1.374000000000000000e+03 1.769964981079101562e+01 -3.469267272949218750e+01 -1.792799949645996094e+00 -6.439114809036254883e-01 -7.310134172439575195e-01 8.679089546203613281e-01
1.375000000000000000e+03 4.194015121459960938e+01 2.489434432983398438e+01 5.037562251091003418e-01 6.235386371612548828e+00 2.021742820739746094e+00 1.133306860923767090e+00
1.376000000000000000e+03 1.743775749206542969e+01 -3.256194686889648438e+01 -3.049834012985229492e+00 -5.556621551513671875e-01 -1.081648826599121094e+00 9.417411684989929199e-01
1.377000000000000000e+03 4.126097869873046875e+01 1.833405685424804688e+01 8.015727400779724121e-01 8.755146026611328125e+00 2.867015600204467773e+00 1.090389251708984375e+00
1.378000000000000000e+03 4.362125015258789062e+01 -2.920742797851562500e+01 9.219928383827209473e-01 9.096536636352539062e+00 3.005558967590332031e+00 -1.052672624588012695e+00
1.379000000000000000e+03 4.639229202270507812e+01 -2.652426338195800781e+01 2.007367372512817383e+00 8.309639930725097656e+00 3.095102310180664062e+00 -2.515073537826538086e+00
1.380000000000000000e+03 4.267535018920898438e+01 2.265678977966308594e+01 8.671172857284545898e-01 7.028479576110839844e+00 2.368679046630859375e+00 1.707615256309509277e+00
1.381000000000000000e+03 4.025107192993164062e+01 2.051594352722167969e+01 7.825810313224792480e-01 7.520453453063964844e+00 2.490910291671752930e+00 8.374060392379760742e-01
1.382000000000000000e+03 7.162497997283935547e+00 -2.310032844543457031e+01 1.825844168663024902e+00 1.121686553955078125e+01 3.912812948226928711e+00 2.861076354980468750e+00
1.383000000000000000e+03 4.950040817260742188e+00 -2.161041069030761719e+01 1.703838467597961426e+00 6.041348457336425781e+00 2.323556184768676758e+00 2.146727323532104492e+00
1.384000000000000000e+03 4.361767578125000000e+01 2.859263038635253906e+01 1.008643582463264465e-01 4.981684684753417969e+00 1.524764776229858398e+00 1.018652558326721191e+00
1.385000000000000000e+03 4.388655853271484375e+01 3.269191360473632812e+01 -5.908986330032348633e-01 4.315418720245361328e+00 1.117356061935424805e+00 5.927120447158813477e-01
1.386000000000000000e+03 4.069804000854492188e+01 2.205396461486816406e+01 6.785290241241455078e-01 7.006275653839111328e+00 2.305441379547119141e+00 9.940924048423767090e-01
1.387000000000000000e+03 7.763536930084228516e+00 -1.628629875183105469e+01 1.017841339111328125e+00 8.180175781250000000e+00 2.759405374526977539e+00 1.710304856300354004e+00
1.388000000000000000e+03 4.215740203857421875e+01 -1.684210014343261719e+01 -4.398134946823120117e-01 8.764146804809570312e+00 2.497299909591674805e+00 -2.593407154083251953e+00
1.389000000000000000e+03 2.280408859252929688e+01 -1.147702312469482422e+01 -4.103403568267822266e+00 -3.052299618721008301e-01 -1.322590112686157227e+00 -3.998440802097320557e-01
1.390000000000000000e+03 2.017201805114746094e+01 -1.104323387145996094e+01 -4.112497329711914062e+00 -2.709728777408599854e-01 -1.315041065216064453e+00 6.084586381912231445e-01
1.391000000000000000e+03 7.072595214843750000e+01 -5.731485366821289062e+00 2.060045003890991211e-01 7.426599979400634766e+00 2.289781332015991211e+00 7.194513082504272461e-01
1.392000000000000000e+03 4.251629638671875000e+01 3.352175235748291016e+00 1.059011220932006836e+00 6.872267246246337891e+00 2.379383563995361328e+00 -2.387294054031372070e+00
1.393000000000000000e+03 4.230830383300781250e+01 -2.008125877380371094e+01 2.219464540481567383e+00 1.227705001831054688e+01 4.348954200744628906e+00 -3.031052350997924805e+00
1.394000000000000000e+03 4.381510925292968750e+01 -1.761020660400390625e+01 -6.012137979269027710e-02 9.130249977111816406e+00 2.721038818359375000e+00 -1.448157310485839844e+00
1.395000000000000000e+03 7.133609008789062500e+01 7.544835090637207031e+00 3.971286714076995850e-01 1.055562782287597656e+01 3.285826921463012695e+00 1.396085619926452637e-01
1.396000000000000000e+03 4.275755310058593750e+01 2.596861839294433594e+01 4.487144649028778076e-01 5.848933696746826172e+00 1.889294505119323730e+00 1.210253000259399414e+00
1.397000000000000000e+03 3.932394409179687500e+01 6.629993438720703125e+00 1.661741375923156738e+00 7.441097736358642578e+00 2.730851888656616211e+00 -1.022204041481018066e+00
1.398000000000000000e+03 4.063093185424804688e+01 5.762762069702148438e+00 1.391584634780883789e+00 7.699615478515625000e+00 2.727360010147094727e+00 -1.513273477554321289e+00
1.399000000000000000e+03 7.067480468750000000e+01 -9.015863418579101562e+00 1.373409181833267212e-01 6.108343601226806641e+00 1.873705387115478516e+00 3.621439635753631592e-01
1.400000000000000000e+03 6.166277694702148438e+01 -1.952220153808593750e+01 -3.729467988014221191e-01 1.173864483833312988e+00 2.402752935886383057e-01 1.585659742355346680e+00
1.401000000000000000e+03 1.273640251159667969e+01 -1.267451381683349609e+01 -1.869213700294494629e+00 5.868675708770751953e+00 1.199838638305664062e+00 4.309380054473876953e+00
1.402000000000000000e+03 4.629698944091796875e+01 3.325502014160156250e+01 -4.224560856819152832e-01 3.381070852279663086e+00 8.875844478607177734e-01 7.444647550582885742e-01
1.403000000000000000e+03 5.080248641967773438e+01 3.451738357543945312e+01 -2.946764230728149414e-01 1.496473193168640137e+00 3.605390191078186035e-01 5.931426286697387695e-01
1.404000000000000000e+03 4.707754898071289062e+01 3.463838577270507812e+01 -5.364229083061218262e-01 3.090870380401611328e+00 7.663342952728271484e-01 6.554779410362243652e-01
1.405000000000000000e+03 5.432593536376953125e+01 -2.698133277893066406e+01 1.218493223190307617e+00 5.420981407165527344e+00 1.991842389106750488e+00 -7.909751534461975098e-01
1.406000000000000000e+03 5.456270980834960938e+01 -2.521613502502441406e+01 1.310574173927307129e+00 4.361184120178222656e+00 1.701527476310729980e+00 -4.040529727935791016e-01
1.407000000000000000e+03 4.121758270263671875e+01 2.355805397033691406e+01 6.030114889144897461e-01 6.631746768951416016e+00 2.170427560806274414e+00 1.028229594230651855e+00
1.408000000000000000e+03 6.615247344970703125e+01 -1.195017337799072266e+01 8.868533372879028320e-01 3.058475494384765625e+00 1.183598637580871582e+00 1.188603997230529785e+00
1.409000000000000000e+03 6.807317352294921875e+01 -1.103455924987792969e+01 5.305492281913757324e-01 4.311008453369140625e+00 1.452467322349548340e+00 8.976415991783142090e-01
1.410000000000000000e+03 7.773865222930908203e+00 -2.842731857299804688e+01 -2.299523353576660156e+00 6.365298748016357422e+00 1.219732522964477539e+00 1.742757797241210938e+00
1.411000000000000000e+03 6.533616638183593750e+01 -1.815643119812011719e+01 -1.001295074820518494e-01 1.253468632698059082e+00 3.460017144680023193e-01 9.999542236328125000e-01
1.412000000000000000e+03 5.531970214843750000e+01 -3.225091552734375000e+01 2.480859518051147461e+00 9.484663963317871094e+00 3.589657068252563477e+00 -2.129074096679687500e+00
1.413000000000000000e+03 5.714051818847656250e+01 -3.799920654296875000e+01 -6.282513141632080078e-01 4.652606487274169922e+00 1.207306504249572754e+00 -1.508446097373962402e+00
1.414000000000000000e+03 7.588775634765625000e+01 -3.220933151245117188e+01 -2.205310612916946411e-01 7.622748851776123047e+00 2.220665454864501953e+00 -6.942149400711059570e-01
1.415000000000000000e+03 5.554801559448242188e+01 -2.437818336486816406e+01 1.245093345642089844e+00 3.296834945678710938e+00 1.362578511238098145e+00 1.008788868784904480e-01
1.416000000000000000e+03 2.191554069519042969e+01 -1.087003040313720703e+01 -3.523902177810668945e+00 -2.407260537147521973e-01 -1.129388451576232910e+00 -1.528080850839614868e-01
1.417000000000000000e+03 2.115813636779785156e+01 -1.019079589843750000e+01 -2.599929809570312500e+00 2.287746816873550415e-01 -7.113465070724487305e-01 -1.210419982671737671e-01
1.418000000000000000e+03 3.888883590698242188e+01 1.313828563690185547e+01 1.550762534141540527e+00 8.468887329101562500e+00 3.005894899368286133e+00 -3.165394961833953857e-01
1.419000000000000000e+03 4.378998565673828125e+01 -3.551080703735351562e+01 -2.042359352111816406e+00 5.720424175262451172e+00 1.103419423103332520e+00 2.705647051334381104e-01
1.420000000000000000e+03 6.816603088378906250e+01 -2.022981262207031250e+01 -8.861769437789916992e-01 6.645402908325195312e-01 -6.649099290370941162e-02 -5.409938097000122070e-01
1.421000000000000000e+03 2.602905464172363281e+01 -1.303496170043945312e+01 -4.229358673095703125e+00 3.151742815971374512e-01 -1.174255371093750000e+00 1.067153513431549072e-01
1.422000000000000000e+03 7.224655914306640625e+01 2.482975387573242188e+01 3.628535568714141846e-01 7.986882209777832031e+00 2.504920721054077148e+00 2.541666030883789062e-01
1.423000000000000000e+03 7.204008483886718750e+01 2.634414482116699219e+01 2.941532433032989502e-01 7.612798690795898438e+00 2.372085571289062500e+00 3.103122711181640625e-01
1.424000000000000000e+03 6.728294372558593750e+01 -1.379571056365966797e+01 5.746173858642578125e-01 3.195922613143920898e+00 1.131162047386169434e+00 5.577281713485717773e-01
1.425000000000000000e+03 3.950734710693359375e+01 1.000297832489013672e+01 1.950969099998474121e+00 8.512134552001953125e+00 3.138931274414062500e+00 -8.077492117881774902e-01
1.426000000000000000e+03 7.259629821777343750e+01 7.542710304260253906e+00 2.516948580741882324e-01 9.769870758056640625e+00 3.006469726562500000e+00 4.846698045730590820e-01
1.427000000000000000e+03 6.912429809570312500e+01 -3.437219238281250000e+01 -6.578088998794555664e-01 3.035295724868774414e+00 7.132460474967956543e-01 1.060739159584045410e+00
1.428000000000000000e+03 1.072957038879394531e+01 -3.163356781005859375e+01 -2.513068675994873047e+00 1.868638396263122559e+00 -1.933290511369705200e-01 1.257056295871734619e-01
1.429000000000000000e+03 1.320108699798583984e+01 -3.469464111328125000e+01 -1.369401454925537109e+00 2.976465225219726562e-01 -3.215264976024627686e-01 3.236161470413208008e-01
1.430000000000000000e+03 1.501597881317138672e+01 -3.403516387939453125e+01 -1.817984342575073242e+00 -4.853549003601074219e-01 -6.910017728805541992e-01 6.760852336883544922e-01
1.431000000000000000e+03 1.204187583923339844e+01 -3.296384429931640625e+01 -2.012418508529663086e+00 6.750047802925109863e-01 -4.012241363525390625e-01 1.915125548839569092e-01
1.432000000000000000e+03 5.195785903930664062e+01 -2.901711845397949219e+01 2.049846410751342773e+00 6.363717555999755859e+00 2.524069309234619141e+00 -2.359485387802124023e+00
1.433000000000000000e+03 5.217577362060546875e+01 -3.019905281066894531e+01 1.995722293853759766e+00 6.237295150756835938e+00 2.469905138015747070e+00 -1.834986686706542969e+00
1.434000000000000000e+03 4.950965118408203125e+01 -1.266306495666503906e+01 -7.215949296951293945e-01 5.409573078155517578e+00 1.406393408775329590e+00 -4.035866260528564453e-01
1.435000000000000000e+03 3.712363815307617188e+01 -3.750461959838867188e+01 -1.424132227897644043e+00 9.205011725425720215e-01 -1.510893106460571289e-01 3.540627956390380859e-01
1.436000000000000000e+03 3.821093750000000000e+01 -3.555789184570312500e+01 -1.681579709053039551e+00 1.081023335456848145e+00 -1.801669150590896606e-01 7.719545960426330566e-01
1.437000000000000000e+03 6.672684478759765625e+01 -1.921479415893554688e+01 -3.094042241573333740e-01 8.627768754959106445e-01 1.660118103027343750e-01 4.434085786342620850e-01
1.438000000000000000e+03 5.793850708007812500e+01 4.116925048828125000e+01 3.933706507086753845e-02 -2.215109616518020630e-01 -5.465216934680938721e-02 1.197949573397636414e-01
1.439000000000000000e+03 4.126651763916015625e+01 -3.320318603515625000e+01 -2.298765659332275391e+00 4.653105735778808594e+00 7.063020467758178711e-01 9.237342476844787598e-01
1.440000000000000000e+03 7.710852813720703125e+01 -2.948094558715820312e+01 2.210755944252014160e-01 7.365331172943115234e+00 2.275922060012817383e+00 -5.732018947601318359e-01
1.441000000000000000e+03 7.257448577880859375e+01 1.438290786743164062e+01 -6.254506111145019531e-02 8.862083435058593750e+00 2.639861583709716797e+00 1.949157714843750000e-01
1.442000000000000000e+03 7.124835205078125000e+01 1.439167690277099609e+01 1.901106983423233032e-01 9.022539138793945312e+00 2.763794898986816406e+00 2.612605690956115723e-01
1.443000000000000000e+03 5.783518218994140625e+01 -1.736531829833984375e+01 -1.898466706275939941e+00 2.862841486930847168e-01 -4.836547672748565674e-01 1.435575366020202637e+00
1.444000000000000000e+03 4.344673538208007812e+01 -2.062307548522949219e+01 3.125005960464477539e+00 1.081302356719970703e+01 4.181408882141113281e+00 -2.127110004425048828e+00
1.445000000000000000e+03 4.146554183959960938e+01 3.052676963806152344e+01 -4.322385787963867188e-01 5.039220809936523438e+00 1.382094621658325195e+00 4.879956543445587158e-01
1.446000000000000000e+03 1.464704704284667969e+01 -1.283283710479736328e+01 -3.286653280258178711e+00 3.144874572753906250e+00 -4.253358021378517151e-02 3.097572565078735352e+00
1.447000000000000000e+03 1.715234947204589844e+01 -1.178412723541259766e+01 -4.775036334991455078e+00 6.845672130584716797e-01 -1.227140665054321289e+00 2.670262098312377930e+00
1.448000000000000000e+03 7.584659576416015625e+01 -2.571526336669921875e+01 7.416579127311706543e-01 7.763471126556396484e+00 2.551538705825805664e+00 3.492135405540466309e-01
1.449000000000000000e+03 6.956208801269531250e+01 3.019564819335937500e+01 -2.279036343097686768e-01 4.859853744506835938e+00 1.389585018157958984e+00 -2.621570825576782227e-01
1.450000000000000000e+03 7.304476165771484375e+01 -1.658402061462402344e+01 -6.131945252418518066e-01 6.258655548095703125e+00 1.693638324737548828e+00 -6.046723127365112305e-01
1.451000000000000000e+03 2.976402282714843750e+00 -2.622715950012207031e+01 -7.992036640644073486e-02 4.943306446075439453e+00 1.459015846252441406e+00 2.864561080932617188e+00
1.452000000000000000e+03 9.596338272094726562e+00 -3.048039627075195312e+01 -2.653242588043212891e+00 3.284357547760009766e+00 1.893344372510910034e-01 2.394369691610336304e-01
1.453000000000000000e+03 7.169602203369140625e+01 2.786000633239746094e+01 1.613122969865798950e-01 7.114938735961914062e+00 2.182875394821166992e+00 2.861598134040832520e-01
1.454000000000000000e+03 7.447325897216796875e+01 3.192634773254394531e+01 -3.245479166507720947e-01 7.729194641113281250e+00 2.221394062042236328e+00 5.489975810050964355e-01
1.455000000000000000e+03 5.192486572265625000e+01 3.593912124633789062e+01 -3.660019636154174805e-01 1.106075406074523926e+00 2.220220267772674561e-01 3.944041728973388672e-01
1.456000000000000000e+03 4.998486709594726562e+01 3.695970535278320312e+01 -5.707336664199829102e-01 2.011287212371826172e+00 4.321660995483398438e-01 4.990550279617309570e-01
1.457000000000000000e+03 5.641379547119140625e+01 3.791493988037109375e+01 -3.840067982673645020e-01 -1.039887517690658569e-01 -1.463986635208129883e-01 2.584957182407379150e-01
1.458000000000000000e+03 3.963277435302734375e+01 8.309249877929687500e+00 1.859288930892944336e+00 8.133095741271972656e+00 2.997715234756469727e+00 -9.808040857315063477e-01
1.459000000000000000e+03 3.903008270263671875e+01 -1.637321281433105469e+01 -3.761301338672637939e-01 5.377273082733154297e+00 1.500342845916748047e+00 -3.281453609466552734e+00
1.460000000000000000e+03 5.016210556030273438e+01 -1.395198059082031250e+01 -9.858774542808532715e-01 4.992948055267333984e+00 1.202121257781982422e+00 -2.183276116847991943e-01
1.461000000000000000e+03 5.679346466064453125e+01 -1.832200622558593750e+01 -7.599855661392211914e-01 -5.934974644333124161e-03 -2.297761738300323486e-01 9.965339303016662598e-01
1.462000000000000000e+03 5.758517074584960938e+01 -1.930467414855957031e+01 -2.857312560081481934e-01 6.636195182800292969e-01 1.133664846420288086e-01 1.346892237663269043e+00
1.463000000000000000e+03 5.450445175170898438e+01 -1.818990707397460938e+01 -7.826756834983825684e-01 7.623755931854248047e-01 -6.090024951845407486e-03 -3.194011449813842773e-01
1.464000000000000000e+03 5.360940933227539062e+01 -1.695606231689453125e+01 -1.951923966407775879e+00 1.476863980293273926e+00 -1.425179839134216309e-01 -5.440371036529541016e-01
1.465000000000000000e+03 7.880246639251708984e+00 -1.508169269561767578e+01 6.072860956192016602e-01 7.433962821960449219e+00 2.412374734878540039e+00 1.479002356529235840e+00
1.466000000000000000e+03 1.378998470306396484e+01 -1.199948692321777344e+01 -2.735765457153320312e+00 4.448398113250732422e+00 5.137897729873657227e-01 4.442073822021484375e+00
1.467000000000000000e+03 4.041844558715820312e+01 -1.600749778747558594e+01 -4.163145720958709717e-01 7.097990512847900391e+00 2.004502773284912109e+00 -3.175637483596801758e+00
1.468000000000000000e+03 6.284253311157226562e+01 -2.110389518737792969e+01 -2.286824434995651245e-01 9.334263801574707031e-01 2.114231735467910767e-01 1.260084033012390137e+00
1.469000000000000000e+03 6.543715667724609375e+01 -1.943540954589843750e+01 -4.889929294586181641e-01 8.348391056060791016e-01 1.037538498640060425e-01 1.163708806037902832e+00
1.470000000000000000e+03 7.307814025878906250e+01 -2.136177635192871094e+01 -9.251116514205932617e-01 7.750405311584472656e+00 2.047588109970092773e+00 8.087141811847686768e-02
1.471000000000000000e+03 7.365395355224609375e+01 -2.401061439514160156e+01 1.011173129081726074e+00 8.575156211853027344e+00 2.875898838043212891e+00 4.194633662700653076e-01
1.472000000000000000e+03 4.400760269165039062e+01 -3.084821891784667969e+01 -4.352727830410003662e-01 8.512528419494628906e+00 2.423176765441894531e+00 -9.600068330764770508e-01
1.473000000000000000e+03 6.846358299255371094e+00 -2.592343521118164062e+01 -8.435280621051788330e-02 8.121318817138671875e+00 2.411089897155761719e+00 2.849600791931152344e+00
1.474000000000000000e+03 4.435058975219726562e+01 -2.222791290283203125e+01 3.226719856262207031e+00 1.056772422790527344e+01 4.138333320617675781e+00 -2.291072368621826172e+00
1.475000000000000000e+03 4.254658126831054688e+01 -1.802895545959472656e+01 2.883521616458892822e-01 1.019751548767089844e+01 3.145760297775268555e+00 -2.481712102890014648e+00
1.476000000000000000e+03 6.799079132080078125e+01 3.639653015136718750e+01 -4.078788757324218750e-01 2.675913333892822266e+00 6.804103255271911621e-01 -3.159672617912292480e-01
1.477000000000000000e+03 6.585342407226562500e+01 3.817565917968750000e+01 3.272985666990280151e-02 1.326290488243103027e+00 4.077061116695404053e-01 -1.593807041645050049e-01
1.478000000000000000e+03 5.050016403198242188e+00 -4.031322860717773438e+01 1.362738758325576782e-02 6.101466178894042969e+00 1.834528088569641113e+00 2.716874182224273682e-01
1.479000000000000000e+03 5.559001922607421875e+01 -1.930078697204589844e+01 -2.627576887607574463e-01 6.199312806129455566e-01 1.071520671248435974e-01 3.367869257926940918e-01
1.480000000000000000e+03 5.403718948364257812e+01 -3.448429870605468750e+01 1.561519354581832886e-01 7.407522201538085938e+00 2.269102334976196289e+00 -9.415625333786010742e-01
1.481000000000000000e+03 5.627260589599609375e+01 -3.495879745483398438e+01 1.708190888166427612e-02 6.290860652923583984e+00 1.892382740974426270e+00 -1.888552069664001465e+00
1.482000000000000000e+03 1.363669872283935547e+01 -3.815087318420410156e+00 8.292281150817871094e+00 1.657843351364135742e+00 2.985037326812744141e+00 5.066660404205322266e+00
1.483000000000000000e+03 1.225563144683837891e+01 -3.655145883560180664e+00 4.979162693023681641e+00 1.300917863845825195e-01 1.532776355743408203e+00 2.382071495056152344e+00
1.484000000000000000e+03 1.281424522399902344e+01 -3.877704143524169922e+00 6.109689235687255859e+00 5.437093377113342285e-01 1.996019482612609863e+00 3.394168853759765625e+00
1.485000000000000000e+03 1.401439189910888672e+01 -4.116271495819091797e+00 8.132371902465820312e+00 3.936977624893188477e+00 3.620804786682128906e+00 6.746020793914794922e+00
1.486000000000000000e+03 1.388313865661621094e+01 1.415287494659423828e+00 6.190593168139457703e-02 2.771923542022705078e+00 8.501488566398620605e-01 -1.111421704292297363e+00
1.487000000000000000e+03 1.393606567382812500e+01 6.613244414329528809e-01 9.197778999805450439e-02 2.638493061065673828e+00 8.191412091255187988e-01 -1.171190738677978516e+00
1.488000000000000000e+03 1.528104114532470703e+01 -2.254379540681838989e-01 -3.780812621116638184e-01 7.207455635070800781e+00 2.048812389373779297e+00 -1.194706678390502930e+00
1.489000000000000000e+03 1.559503364562988281e+01 -8.468555808067321777e-01 -1.788335740566253662e-01 1.086278533935546875e+01 3.205185651779174805e+00 -2.650339007377624512e-01
1.490000000000000000e+03 1.725751304626464844e+01 -5.106956958770751953e-01 2.326690435409545898e+00 9.352039337158203125e+00 3.503618955612182617e+00 3.905373573303222656e+00
1.491000000000000000e+03 1.624736976623535156e+01 -3.003387153148651123e-01 1.256424188613891602e-01 1.015600013732910156e+01 3.084492683410644531e+00 1.570895910263061523e+00
1.492000000000000000e+03 1.208976268768310547e+01 -3.181546449661254883e+00 4.153582572937011719e+00 -8.924180269241333008e-02 1.219302296638488770e+00 1.494229316711425781e+00
1.493000000000000000e+03 8.606915473937988281e+00 -3.247730493545532227e+00 1.011854171752929688e+00 3.117862939834594727e-01 3.970921337604522705e-01 6.302038431167602539e-01
1.494000000000000000e+03 9.271404266357421875e+00 -3.267345666885375977e+00 1.362192630767822266e+00 2.780178785324096680e-01 4.920631647109985352e-01 7.807095646858215332e-01
1.495000000000000000e+03 1.457649993896484375e+01 -5.556284427642822266e+00 3.643104314804077148e+00 7.079580783843994141e+00 3.216805458068847656e+00 6.454630374908447266e+00
1.496000000000000000e+03 1.574696636199951172e+01 9.881141036748886108e-02 -2.657776176929473877e-01 8.391017913818359375e+00 2.437572002410888672e+00 2.972736023366451263e-03
1.497000000000000000e+03 1.841762542724609375e+01 -1.611217379570007324e+00 6.444868087768554688e+00 6.320160388946533203e+00 3.829508543014526367e+00 4.510255336761474609e+00
1.498000000000000000e+03 1.836604309082031250e+01 -1.016101002693176270e+00 4.969460487365722656e+00 6.793469429016113281e+00 3.528879165649414062e+00 4.598759651184082031e+00
1.499000000000000000e+03 1.838962745666503906e+01 -4.379622459411621094e+00 6.995213031768798828e+00 5.358893871307373047e+00 3.706232070922851562e+00 9.837145805358886719e-01
1.500000000000000000e+03 1.866579055786132812e+01 -2.876248836517333984e+00 7.938290596008300781e+00 4.859971523284912109e+00 3.839478731155395508e+00 2.869271516799926758e+00
1.501000000000000000e+03 7.929180145263671875e+00 -3.255263328552246094e+00 7.632532119750976562e-01 3.184226453304290771e-01 3.245027363300323486e-01 4.723853766918182373e-01
1.502000000000000000e+03 1.310847949981689453e+01 1.245780944824218750e+00 5.205048620700836182e-02 1.484113097190856934e+00 4.608490765094757080e-01 -7.954927682876586914e-01
1.503000000000000000e+03 7.289889812469482422e+00 -4.005076408386230469e+00 7.418806552886962891e-01 5.079998970031738281e-01 3.749641478061676025e-01 5.645533204078674316e-01
1.504000000000000000e+03 5.266288757324218750e+00 -4.125074386596679688e+00 2.841087579727172852e-01 3.520132899284362793e-01 1.908366084098815918e-01 1.033534109592437744e-01
1.505000000000000000e+03 5.826367378234863281e+00 -3.345767974853515625e+00 2.736428380012512207e-01 2.609864771366119385e-01 1.603887975215911865e-01 7.930766046047210693e-02
1.506000000000000000e+03 5.924315929412841797e+00 -4.073666095733642578e+00 3.978659808635711670e-01 4.115778505802154541e-01 2.428331524133682251e-01 2.180842459201812744e-01
1.507000000000000000e+03 4.361331462860107422e+00 -7.977460861206054688e+00 1.572761568240821362e-03 1.084355354309082031e+00 3.257784247398376465e-01 2.637293040752410889e-01
1.508000000000000000e+03 4.657257556915283203e+00 -7.077978134155273438e+00 1.207424476742744446e-01 9.786278605461120605e-01 3.298110961914062500e-01 2.888440489768981934e-01
1.509000000000000000e+03 1.011129474639892578e+01 3.806210041046142578e+00 2.716754674911499023e-01 3.120610415935516357e-01 1.751209497451782227e-01 -7.464718818664550781e-02
1.510000000000000000e+03 7.630843639373779297e+00 4.032752990722656250e+00 9.250196069478988647e-02 2.023042645305395126e-03 2.835750207304954529e-02 2.842854559421539307e-01
1.511000000000000000e+03 6.869783401489257812e+00 4.045372962951660156e+00 2.778004109859466553e-02 -3.565992787480354309e-02 -2.363966079428792000e-03 3.325819671154022217e-01
1.512000000000000000e+03 6.178865432739257812e+00 4.040233135223388672e+00 9.549845010042190552e-03 -5.692238360643386841e-02 -1.421176176518201828e-02 3.473753929138183594e-01
1.513000000000000000e+03 4.532845973968505859e+00 7.052236080169677734e+00 1.496027559041976929e-01 -1.300737559795379639e-01 5.858698394149541855e-03 2.210816740989685059e-01
1.514000000000000000e+03 8.430190086364746094e+00 3.988794803619384766e+00 1.384065598249435425e-01 5.565732717514038086e-02 5.821916460990905762e-02 2.095679640769958496e-01
1.515000000000000000e+03 4.985478401184082031e+00 5.370545864105224609e+00 8.715399354696273804e-02 -1.067132949829101562e-01 -5.867790430784225464e-03 3.128499090671539307e-01
1.516000000000000000e+03 4.658252239227294922e+00 3.617892026901245117e+00 -7.755926251411437988e-02 -1.103172898292541504e-01 -5.636296421289443970e-02 3.471326231956481934e-01
1.517000000000000000e+03 2.807420492172241211e+00 5.295566558837890625e+00 1.705425232648849487e-02 -2.704319655895233154e-01 -7.601331919431686401e-02 2.546548247337341309e-01
1.518000000000000000e+03 3.122499227523803711e+00 4.034745216369628906e+00 -2.672737464308738708e-02 -1.779073178768157959e-01 -6.139041110873222351e-02 2.862319648265838623e-01
1.519000000000000000e+03 4.105150222778320312e+00 4.613964557647705078e+00 9.471483528614044189e-03 -1.602200120687484741e-01 -4.522455483675003052e-02 3.243526816368103027e-01
1.520000000000000000e+03 9.869265556335449219e+00 -3.964855432510375977e+00 2.079774379730224609e+00 4.527292251586914062e-01 7.597510814666748047e-01 1.438315391540527344e+00
1.521000000000000000e+03 1.787276649475097656e+01 -9.490454673767089844e+00 -1.681921482086181641e+00 2.160306453704833984e+00 1.435154676437377930e-01 2.458908319473266602e+00
1.522000000000000000e+03 1.649443244934082031e+01 -4.878488063812255859e+00 5.033275127410888672e+00 9.909539222717285156e+00 4.482844352722167969e+00 2.223757982254028320e+00
1.523000000000000000e+03 1.097862720489501953e+01 2.881226301193237305e+00 1.836949884891510010e-01 4.010471701622009277e-01 1.754226535558700562e-01 -2.197349369525909424e-01
1.524000000000000000e+03 1.795350646972656250e+01 -5.234190464019775391e+00 4.952239036560058594e+00 6.099785327911376953e+00 3.315607309341430664e+00 1.086226105690002441e+00
1.525000000000000000e+03 1.766898918151855469e+01 -4.488004207611083984e+00 6.684260368347167969e+00 7.091684818267822266e+00 4.132783412933349609e+00 8.665669560432434082e-01
1.526000000000000000e+03 1.059843730926513672e+01 -3.451482772827148438e+00 2.486204385757446289e+00 2.040653377771377563e-01 8.070808649063110352e-01 1.304250717163085938e+00
1.527000000000000000e+03 1.731406021118164062e+01 -1.023870086669921875e+01 -2.592162370681762695e+00 2.242315530776977539e+00 -1.049540489912033081e-01 2.814734220504760742e+00
1.528000000000000000e+03 1.551589107513427734e+01 -1.123472690582275391e+01 -3.029398202896118164e+00 2.996069908142089844e+00 -9.998487308621406555e-03 4.173915386199951172e+00
1.529000000000000000e+03 3.093607521057128906e+01 -1.361046695709228516e+01 -2.043534994125366211e+00 1.080270648002624512e+00 -2.889793217182159424e-01 -6.452852487564086914e-01
1.530000000000000000e+03 6.799642181396484375e+01 -1.900312995910644531e+01 -3.022502362728118896e-01 1.653144121170043945e+00 4.052681624889373779e-01 -2.479802519083023071e-01
1.531000000000000000e+03 3.134413909912109375e+01 -1.245312118530273438e+01 -1.545302629470825195e+00 1.467327475547790527e+00 -2.339255996048450470e-02 -1.184519529342651367e+00
1.532000000000000000e+03 5.976127624511718750e+01 -2.151345443725585938e+01 4.793267846107482910e-01 1.091436386108398438e+00 4.712289273738861084e-01 1.421473979949951172e+00
1.533000000000000000e+03 6.513939666748046875e+01 -1.596616172790527344e+01 2.872178852558135986e-01 1.891121506690979004e+00 6.535018086433410645e-01 9.215655922889709473e-01
1.534000000000000000e+03 1.107533264160156250e+01 -1.229250144958496094e+01 -1.540491700172424316e+00 6.759970664978027344e+00 1.565843701362609863e+00 3.665161371231079102e+00
1.535000000000000000e+03 7.811000347137451172e+00 -1.391197490692138672e+01 -1.790782958269119263e-01 6.671196460723876953e+00 1.947635412216186523e+00 1.317472100257873535e+00
1.536000000000000000e+03 4.257946777343750000e+01 -1.786406159400939941e+00 3.853478133678436279e-01 5.949512481689453125e+00 1.900458097457885742e+00 -2.250595331192016602e+00
1.537000000000000000e+03 4.561510467529296875e+01 -5.657971382141113281e+00 6.438982486724853516e-02 5.880228042602539062e+00 1.783385276794433594e+00 -2.023128509521484375e+00
1.538000000000000000e+03 4.439186859130859375e+01 3.017714691162109375e+01 -9.579268097877502441e-02 4.502788543701171875e+00 1.322098731994628906e+00 9.288659691810607910e-01
1.539000000000000000e+03 4.311318206787109375e+01 -2.911087751388549805e+00 2.826948165893554688e-01 5.856713294982910156e+00 1.841822385787963867e+00 -2.273433208465576172e+00
1.540000000000000000e+03 4.456853866577148438e+01 -2.068714797496795654e-01 7.013930678367614746e-01 5.977507114410400391e+00 2.003669977188110352e+00 -2.483189582824707031e+00
1.541000000000000000e+03 4.513518142700195312e+01 -4.469487190246582031e+00 1.560770124197006226e-01 5.853793621063232422e+00 1.802961230278015137e+00 -2.159323453903198242e+00
1.542000000000000000e+03 4.666226959228515625e+01 -5.009475231170654297e+00 2.470669597387313843e-01 5.790234088897705078e+00 1.811190366744995117e+00 -2.036108970642089844e+00
1.543000000000000000e+03 4.228781890869140625e+01 1.298615932464599609e+00 8.049387931823730469e-01 6.343440055847167969e+00 2.144513607025146484e+00 -2.247602939605712891e+00
1.544000000000000000e+03 7.230729675292968750e+01 1.159454917907714844e+01 -4.427641630172729492e-01 9.253506660461425781e+00 2.643222808837890625e+00 2.003686428070068359e-01
1.545000000000000000e+03 4.851307296752929688e+01 3.399742126464843750e+01 -3.370947539806365967e-01 2.512140035629272461e+00 6.525135636329650879e-01 7.391173839569091797e-01
1.546000000000000000e+03 7.473217773437500000e+01 3.254508733749389648e+00 5.250269770622253418e-01 8.275876998901367188e+00 2.640271186828613281e+00 3.022230565547943115e-01
1.547000000000000000e+03 7.247747802734375000e+01 3.243169307708740234e+00 6.164168715476989746e-01 1.035250186920166016e+01 3.290675401687622070e+00 5.045880079269409180e-01
1.548000000000000000e+03 4.735842132568359375e+01 -1.065681743621826172e+01 -5.623155832290649414e-01 6.151327133178710938e+00 1.676703453063964844e+00 -1.042026400566101074e+00
1.549000000000000000e+03 7.516212463378906250e+01 1.215477371215820312e+01 -2.072255462408065796e-01 8.243861198425292969e+00 2.410990715026855469e+00 4.839817285537719727e-01
1.550000000000000000e+03 7.549980163574218750e+01 -1.173680782318115234e+00 2.967441082000732422e-01 7.466348171234130859e+00 2.328927755355834961e+00 -3.205068707466125488e-01
1.551000000000000000e+03 7.703419494628906250e+01 3.067608118057250977e+00 2.154385000467300415e-01 6.725130558013916016e+00 2.082170724868774414e+00 1.486835032701492310e-01
1.552000000000000000e+03 7.360258483886718750e+01 4.630846500396728516e+00 4.967747032642364502e-01 9.302687644958496094e+00 2.939838647842407227e+00 4.757368266582489014e-01
1.553000000000000000e+03 7.474894714355468750e+01 4.577738285064697266e+00 4.367202818393707275e-01 8.383793830871582031e+00 2.646154403686523438e+00 4.336248934268951416e-01
1.554000000000000000e+03 7.252046203613281250e+01 1.716303825378417969e+00 8.185833692550659180e-01 9.995755195617675781e+00 3.244301557540893555e+00 4.478937089443206787e-01
1.555000000000000000e+03 7.590438842773437500e+01 4.516020774841308594e+00 3.276142179965972900e-01 7.529923915863037109e+00 2.357261419296264648e+00 3.826074302196502686e-01
1.556000000000000000e+03 7.476376342773437500e+01 5.889781951904296875e+00 3.182331025600433350e-01 8.364582061767578125e+00 2.604844331741333008e+00 5.653116106986999512e-01
1.557000000000000000e+03 7.566982269287109375e+01 1.008781242370605469e+01 -1.237811222672462463e-01 7.973127365112304688e+00 2.354804039001464844e+00 5.730043053627014160e-01
1.558000000000000000e+03 7.584826660156250000e+01 -8.087905883789062500e+00 -4.649619013071060181e-02 7.032500267028808594e+00 2.095801115036010742e+00 -5.745160579681396484e-01
1.559000000000000000e+03 7.701755523681640625e+01 -6.807775020599365234e+00 -2.554374560713768005e-02 6.953566074371337891e+00 2.078406572341918945e+00 -5.519268512725830078e-01
1.560000000000000000e+03 7.253032684326171875e+01 -4.634541988372802734e+00 1.289945393800735474e-01 7.888578414916992188e+00 2.405272006988525391e+00 4.392250627279281616e-02
1.561000000000000000e+03 7.596968841552734375e+01 1.143060207366943359e+01 -1.229403167963027954e-01 7.910077571868896484e+00 2.336141347885131836e+00 5.243692994117736816e-01
1.562000000000000000e+03 7.430697631835937500e+01 1.160013484954833984e+01 -2.171647101640701294e-01 8.521638870239257812e+00 2.491342306137084961e+00 4.967814087867736816e-01
1.563000000000000000e+03 7.429266357421875000e+01 -2.970167398452758789e+00 2.204473167657852173e-01 7.815514564514160156e+00 2.410788536071777344e+00 -3.514750003814697266e-01
1.564000000000000000e+03 7.580469512939453125e+01 -5.461413860321044922e+00 1.726383692584931850e-03 7.115252494812011719e+00 2.135093688964843750e+00 -5.631344914436340332e-01
1.565000000000000000e+03 7.708833312988281250e+01 1.811849021911621094e+01 3.589055687189102173e-02 7.839818000793457031e+00 2.362712621688842773e+00 3.273546695709228516e-01
1.566000000000000000e+03 7.360039520263671875e+01 1.588148117065429688e+01 2.899505011737346649e-02 8.614586830139160156e+00 2.593074798583984375e+00 3.202757537364959717e-01
1.567000000000000000e+03 7.396063995361328125e+01 1.873281669616699219e+01 7.329693436622619629e-02 8.453075408935546875e+00 2.557911634445190430e+00 4.289149045944213867e-01
1.568000000000000000e+03 7.567575836181640625e+01 -1.481552505493164062e+01 -2.723026275634765625e-01 7.117489814758300781e+00 2.053556203842163086e+00 -3.763446807861328125e-01
1.569000000000000000e+03 7.688703155517578125e+01 -1.356229972839355469e+01 -1.262113004922866821e-01 7.402712821960449219e+00 2.182950496673583984e+00 -3.770326077938079834e-01
1.570000000000000000e+03 6.995337677001953125e+01 -1.030617618560791016e+01 2.113507837057113647e-01 5.428598403930664062e+00 1.691984772682189941e+00 4.284748733043670654e-01
1.571000000000000000e+03 7.562107849121093750e+01 -1.202395820617675781e+01 -1.148610264062881470e-01 6.986100196838378906e+00 2.061371803283691406e+00 -5.039293169975280762e-01
1.572000000000000000e+03 7.734039306640625000e+01 -2.098298835754394531e+01 -2.821411490440368652e-01 7.734416007995605469e+00 2.235682487487792969e+00 6.497557163238525391e-01
1.573000000000000000e+03 7.469067382812500000e+01 -2.012852668762207031e+01 -8.227330446243286133e-01 7.692032814025878906e+00 2.060790061950683594e+00 3.592601418495178223e-01
1.574000000000000000e+03 7.373351287841796875e+01 -2.226359748840332031e+01 -4.434824585914611816e-01 8.366437911987304688e+00 2.376886606216430664e+00 4.366280734539031982e-01
1.575000000000000000e+03 7.549780273437500000e+01 -1.619572639465332031e+01 -4.302034676074981689e-01 7.233760833740234375e+00 2.041067123413085938e+00 -2.540225088596343994e-01
1.576000000000000000e+03 7.587342071533203125e+01 -2.117185211181640625e+01 -4.154662191867828369e-01 7.864750385284423828e+00 2.234785318374633789e+00 6.844257116317749023e-01
1.577000000000000000e+03 7.526996612548828125e+01 -1.943229675292968750e+01 -6.002543568611145020e-01 7.576282024383544922e+00 2.092808246612548828e+00 2.494796365499496460e-01
1.578000000000000000e+03 7.496195220947265625e+01 -2.664180755615234375e+01 1.182429194450378418e+00 8.441173553466796875e+00 2.887080669403076172e+00 1.176626682281494141e-01
1.579000000000000000e+03 7.470865631103515625e+01 -2.486050987243652344e+01 1.117988586425781250e+00 8.636444091796875000e+00 2.926329851150512695e+00 4.908498227596282959e-01
1.580000000000000000e+03 7.547603607177734375e+01 -2.382544708251953125e+01 4.856731295585632324e-01 7.899163722991943359e+00 2.515450954437255859e+00 8.538765907287597656e-01
1.581000000000000000e+03 7.402005004882812500e+01 3.412123870849609375e+01 -5.222818851470947266e-01 7.297682285308837891e+00 2.032620191574096680e+00 2.577452361583709717e-01
1.582000000000000000e+03 7.377418518066406250e+01 2.369905662536621094e+01 2.711115777492523193e-01 8.120011329650878906e+00 2.517336845397949219e+00 4.619115591049194336e-01
1.583000000000000000e+03 7.683818817138671875e+01 2.629852676391601562e+01 6.895201653242111206e-02 8.437249183654785156e+00 2.551860332489013672e+00 6.318606138229370117e-01
1.584000000000000000e+03 7.452188110351562500e+01 2.554970932006835938e+01 2.035015076398849487e-01 7.997153282165527344e+00 2.460196495056152344e+00 6.463575959205627441e-01
1.585000000000000000e+03 7.660712432861328125e+01 2.781077384948730469e+01 2.621116349473595619e-03 8.531833648681640625e+00 2.560336351394653320e+00 7.079261541366577148e-01
1.586000000000000000e+03 7.489112854003906250e+01 2.429577445983886719e+01 1.979236900806427002e-01 8.161151885986328125e+00 2.507722616195678711e+00 6.072118282318115234e-01
1.587000000000000000e+03 6.793739318847656250e+01 -1.773634338378906250e+01 -5.277859419584274292e-02 2.137819528579711914e+00 6.255122423171997070e-01 -7.584977895021438599e-02
1.588000000000000000e+03 7.064802551269531250e+01 -1.620657348632812500e+01 -2.688518762588500977e-01 4.658937931060791016e+00 1.317025899887084961e+00 -5.814641118049621582e-01
1.589000000000000000e+03 7.466009521484375000e+01 -3.458716201782226562e+01 -5.832091569900512695e-01 7.164646148681640625e+00 1.974431157112121582e+00 -2.517793178558349609e-01
1.590000000000000000e+03 7.651855468750000000e+01 -3.394965362548828125e+01 -3.026451468467712402e-01 7.586323738098144531e+00 2.185103654861450195e+00 -5.429601669311523438e-01
1.591000000000000000e+03 7.685218811035156250e+01 3.082856750488281250e+01 -9.529298543930053711e-02 8.912565231323242188e+00 2.645181655883789062e+00 6.025919318199157715e-01
1.592000000000000000e+03 7.565475463867187500e+01 2.601093292236328125e+01 1.211224198341369629e-01 8.246811866760253906e+00 2.510380268096923828e+00 7.086337208747863770e-01
1.593000000000000000e+03 7.729834747314453125e+01 -3.170783042907714844e+01 -6.364702433347702026e-02 7.474370479583740234e+00 2.223217010498046875e+00 -6.987468004226684570e-01
1.594000000000000000e+03 7.727602386474609375e+01 -3.067138099670410156e+01 9.520293772220611572e-02 7.378356456756591797e+00 2.242067813873291016e+00 -6.854175329208374023e-01
1.595000000000000000e+03 7.266029357910156250e+01 3.113194465637207031e+01 -4.707286953926086426e-01 6.820731163024902344e+00 1.905000805854797363e+00 4.697335660457611084e-01
1.596000000000000000e+03 7.522888946533203125e+01 2.984189605712890625e+01 -1.316927224397659302e-01 8.128257751464843750e+00 2.398969650268554688e+00 7.326389551162719727e-01
1.597000000000000000e+03 7.558404541015625000e+01 3.729739785194396973e-01 4.388743340969085693e-01 7.551967620849609375e+00 2.397252559661865234e+00 -1.507304310798645020e-01
1.598000000000000000e+03 6.586037445068359375e+01 -1.426049041748046875e+01 6.440872550010681152e-01 2.441360712051391602e+00 9.256344437599182129e-01 8.570166230201721191e-01
1.599000000000000000e+03 7.367388153076171875e+01 3.782429504394531250e+01 -3.226585090160369873e-01 6.768088817596435547e+00 1.933629035949707031e+00 1.044895052909851074e-01
1.600000000000000000e+03 7.328180694580078125e+01 3.563910293579101562e+01 -3.299719691276550293e-01 6.795222282409667969e+00 1.939575076103210449e+00 1.455746144056320190e-01
1.601000000000000000e+03 7.235966491699218750e+01 1.787398159503936768e-01 7.364742755889892578e-01 9.677718162536621094e+00 3.124257564544677734e+00 3.544516861438751221e-01
1.602000000000000000e+03 7.249169921875000000e+01 1.583989810943603516e+01 1.359530836343765259e-01 8.742253303527832031e+00 2.663461923599243164e+00 3.439474999904632568e-01
1.603000000000000000e+03 7.386353302001953125e+01 1.466629695892333984e+01 -7.704067975282669067e-02 8.555878639221191406e+00 2.543651580810546875e+00 3.415457010269165039e-01
1.604000000000000000e+03 7.265979003906250000e+01 1.878453826904296875e+01 5.172210186719894409e-02 8.717257499694824219e+00 2.630693912506103516e+00 3.666694462299346924e-01
1.605000000000000000e+03 7.254615020751953125e+01 1.729817008972167969e+01 8.120521157979965210e-02 8.831672668457031250e+00 2.673863410949707031e+00 4.011702537536621094e-01
1.606000000000000000e+03 4.784861373901367188e+01 3.265793991088867188e+01 -1.563720256090164185e-01 2.871545553207397461e+00 8.145520687103271484e-01 9.109834432601928711e-01
1.607000000000000000e+03 4.225920104980468750e+01 3.299625015258789062e+01 -7.250014543533325195e-01 4.672448635101318359e+00 1.184234142303466797e+00 4.093439280986785889e-01
1.608000000000000000e+03 1.654378890991210938e+01 -1.083774662017822266e+01 -3.158736228942871094e+00 1.971408128738403320e+00 -3.561983704566955566e-01 3.347463607788085938e+00
1.609000000000000000e+03 4.649205398559570312e+01 -8.112116813659667969e+00 -2.394420206546783447e-01 6.027993679046630859e+00 1.736565470695495605e+00 -1.597451925277709961e+00
1.610000000000000000e+03 3.805882644653320312e+01 9.941968917846679688e+00 2.014975547790527344e+00 7.449603557586669922e+00 2.839373826980590820e+00 -5.287563800811767578e-01
1.611000000000000000e+03 4.224770545959472656e+00 2.149049568176269531e+01 1.211214717477560043e-02 2.638267576694488525e-01 8.278167247772216797e-02 -2.340224981307983398e-01
1.612000000000000000e+03 5.360052585601806641e+00 -1.965686607360839844e+01 1.841077923774719238e+00 6.269022941589355469e+00 2.433030128479003906e+00 1.481330394744873047e+00
1.613000000000000000e+03 3.153546810150146484e+00 -1.780301666259765625e+01 4.935084283351898193e-01 1.804260730743408203e+00 6.893307566642761230e-01 1.299185901880264282e-01
1.614000000000000000e+03 4.504750251770019531e+00 -1.797418975830078125e+01 9.796631336212158203e-01 4.005601882934570312e+00 1.495579481124877930e+00 4.540660381317138672e-01
1.615000000000000000e+03 6.874370574951171875e+00 -2.778584098815917969e+01 -1.620742917060852051e+00 7.133971691131591797e+00 1.653968572616577148e+00 2.305582523345947266e+00
1.616000000000000000e+03 7.436032772064208984e+00 -1.752918052673339844e+01 1.918484449386596680e+00 8.787251472473144531e+00 3.211720943450927734e+00 1.841271162033081055e+00
1.617000000000000000e+03 5.786448001861572266e+00 -1.840082359313964844e+01 1.679668784141540527e+00 6.699289321899414062e+00 2.513687372207641602e+00 1.019788146018981934e+00
1.618000000000000000e+03 3.040896654129028320e+00 -2.493269157409667969e+01 3.970125019550323486e-01 4.300481319427490234e+00 1.409248113632202148e+00 2.822235822677612305e+00
1.619000000000000000e+03 4.216607093811035156e+00 -2.470227050781250000e+01 7.468755841255187988e-01 5.722430229187011719e+00 1.940791726112365723e+00 3.208615064620971680e+00
1.620000000000000000e+03 3.021132946014404297e+00 2.023970985412597656e+01 1.044034026563167572e-02 -5.870261788368225098e-02 -1.447868347167968750e-02 -1.707221269607543945e-01
1.621000000000000000e+03 4.312031745910644531e+00 2.288873672485351562e+01 4.090951289981603622e-03 3.418715000152587891e-01 1.037887334823608398e-01 -2.401692122220993042e-01
1.622000000000000000e+03 4.566912174224853516e+00 2.589270591735839844e+01 -1.328285411000251770e-02 5.110060572624206543e-01 1.493169516324996948e-01 -2.420918196439743042e-01
1.623000000000000000e+03 4.646462917327880859e+00 3.081410026550292969e+01 -3.922357782721519470e-02 6.811732649803161621e-01 1.925849020481109619e-01 -1.988664716482162476e-01
1.624000000000000000e+03 4.183876037597656250e+00 1.455025577545166016e+01 8.497030287981033325e-02 -1.479638367891311646e-02 2.105217427015304565e-02 -1.126643046736717224e-01
1.625000000000000000e+03 4.202266693115234375e+00 1.598187065124511719e+01 6.177983060479164124e-02 4.040821641683578491e-02 3.065641410648822784e-02 -1.570922583341598511e-01
1.626000000000000000e+03 5.410003662109375000e+00 1.593991756439208984e+01 9.668455272912979126e-02 3.184757530689239502e-01 1.245480924844741821e-01 -1.962903589010238647e-01
1.627000000000000000e+03 4.198991775512695312e+00 1.877284049987792969e+01 3.208312392234802246e-02 1.411104798316955566e-01 5.195808410644531250e-02 -2.051747441291809082e-01
1.628000000000000000e+03 3.009728908538818359e+00 1.885444641113281250e+01 1.857321336865425110e-02 -1.247739493846893311e-01 -3.186022117733955383e-02 -1.581824421882629395e-01
1.629000000000000000e+03 4.194316387176513672e+00 2.013258361816406250e+01 2.286673523485660553e-02 1.960792690515518188e-01 6.568379700183868408e-02 -2.222746908664703369e-01
1.630000000000000000e+03 5.444733142852783203e+00 2.270602798461914062e+01 8.091542869806289673e-03 5.695009827613830566e-01 1.732777506113052368e-01 -2.866728901863098145e-01
1.631000000000000000e+03 4.503779888153076172e+00 2.739114761352539062e+01 -2.305442467331886292e-02 5.423439741134643555e-01 1.557868570089340210e-01 -2.339238822460174561e-01
1.632000000000000000e+03 4.453104972839355469e+00 2.436252975463867188e+01 -1.463473425246775150e-03 4.370364844799041748e-01 1.306719034910202026e-01 -2.455873191356658936e-01
1.633000000000000000e+03 4.047796726226806641e+00 -1.011622428894042969e+01 -2.406523376703262329e-01 1.593057870864868164e+00 4.057216346263885498e-01 6.664068251848220825e-02
1.634000000000000000e+03 5.337967395782470703e+00 1.160484981536865234e+01 1.651950925588607788e-01 1.360104084014892578e-01 9.036164730787277222e-02 -3.981266543269157410e-02
1.635000000000000000e+03 5.780867099761962891e+00 3.024382209777832031e+01 -4.599789530038833618e-02 8.996781110763549805e-01 2.561040520668029785e-01 -2.467086464166641235e-01
1.636000000000000000e+03 6.478934288024902344e+00 3.570758056640625000e+01 -8.382889628410339355e-02 1.135504126548767090e+00 3.155025839805603027e-01 -1.587878465652465820e-01
1.637000000000000000e+03 3.380919218063354492e+00 -3.012054252624511719e+01 -7.573941946029663086e-01 6.550305843353271484e+00 1.737873554229736328e+00 1.938838481903076172e+00
1.638000000000000000e+03 4.107075214385986328e+00 1.170971965789794922e+01 1.115803271532058716e-01 -1.089316904544830322e-01 7.945910328999161720e-04 -9.247086942195892334e-03
1.639000000000000000e+03 4.081244945526123047e+00 -1.131004524230957031e+01 -2.387947738170623779e-01 1.878920078277587891e+00 4.920376241207122803e-01 -4.318044334650039673e-02
1.640000000000000000e+03 5.943038463592529297e+00 -6.522551059722900391e+00 3.163931071758270264e-01 1.272957444190979004e+00 4.768051505088806152e-01 7.361753582954406738e-01
1.641000000000000000e+03 3.929778814315795898e+00 8.842214584350585938e+00 1.332937777042388916e-01 -1.906236857175827026e-01 -1.719897612929344177e-02 1.372885406017303467e-01
1.642000000000000000e+03 4.288666248321533203e+00 2.970274543762207031e+01 -2.502374909818172455e-02 6.047463417053222656e-01 1.739167869091033936e-01 -2.030164152383804321e-01
1.643000000000000000e+03 3.584257364273071289e+00 3.382161712646484375e+01 -1.001592073589563370e-02 6.576057076454162598e-01 1.942769438028335571e-01 -1.337927728891372681e-01
1.644000000000000000e+03 6.230203151702880859e+00 -3.321806716918945312e+01 -1.336216568946838379e+00 5.569633007049560547e+00 1.270025014877319336e+00 7.083439230918884277e-01
1.645000000000000000e+03 5.585563659667968750e+00 -2.961702919006347656e+01 -1.673403739929199219e+00 6.464864730834960938e+00 1.437438249588012695e+00 2.203287363052368164e+00
1.646000000000000000e+03 3.464276552200317383e+00 -3.141705703735351562e+01 -7.485887408256530762e-01 6.720976829528808594e+00 1.791716456413269043e+00 1.384001851081848145e+00
1.647000000000000000e+03 3.482245683670043945e+00 5.506288051605224609e+00 3.861495107412338257e-02 -2.341509163379669189e-01 -5.866078659892082214e-02 2.835482954978942871e-01
1.648000000000000000e+03 4.876999855041503906e+00 4.469870567321777344e+00 1.631704717874526978e-02 -1.082102134823799133e-01 -2.756794914603233337e-02 3.368232548236846924e-01
1.649000000000000000e+03 3.162594079971313477e+00 -5.138718605041503906e+00 8.757418394088745117e-02 1.245922967791557312e-01 6.364994496107101440e-02 -1.175948977470397949e-01
1.650000000000000000e+03 3.576975584030151367e+00 -6.569096088409423828e+00 6.552462279796600342e-02 4.302289783954620361e-01 1.487260907888412476e-01 1.946653053164482117e-02
1.651000000000000000e+03 5.164525985717773438e+01 -2.456577682495117188e+01 1.598759412765502930e+00 5.085100650787353516e+00 2.005157947540283203e+00 -1.695892453193664551e+00
1.652000000000000000e+03 4.601107788085937500e+01 -2.445853614807128906e+01 2.417225599288940430e+00 9.101114273071289062e+00 3.455502033233642578e+00 -2.824637413024902344e+00
1.653000000000000000e+03 6.142342090606689453e+00 -3.560413360595703125e+01 -7.327656745910644531e-01 5.339254856109619141e+00 1.381946802139282227e+00 3.293910622596740723e-01
1.654000000000000000e+03 7.251825714111328125e+01 -2.034782218933105469e+01 -1.360815525054931641e+00 7.249509334564208984e+00 1.766608119010925293e+00 -4.238572120666503906e-01
1.655000000000000000e+03 3.634526062011718750e+01 -1.140086269378662109e+01 -7.299311757087707520e-01 3.713402509689331055e+00 8.950414061546325684e-01 -2.579304933547973633e+00
1.656000000000000000e+03 3.494204711914062500e+01 -1.454357624053955078e+01 -9.068514704704284668e-01 1.940053582191467285e+00 3.099606633186340332e-01 -1.929794073104858398e+00
1.657000000000000000e+03 4.643056869506835938e+01 -2.808739089965820312e+01 1.467130422592163086e+00 8.187525749206542969e+00 2.896396875381469727e+00 -2.438192129135131836e+00
1.658000000000000000e+03 7.012062835693359375e+01 3.319086837768554688e+01 -8.385633230209350586e-01 4.633299350738525391e+00 1.138420820236206055e+00 -1.302798837423324585e-01
1.659000000000000000e+03 4.069175338745117188e+01 3.469116210937500000e+00 1.074539899826049805e+00 6.859677314758300781e+00 2.380265235900878906e+00 -1.700132966041564941e+00
1.660000000000000000e+03 4.154037475585937500e+01 2.408854246139526367e+00 9.019395112991333008e-01 6.691206455230712891e+00 2.277943849563598633e+00 -2.082136631011962891e+00
1.661000000000000000e+03 3.746505355834960938e+01 -1.527425003051757812e+01 -5.071159005165100098e-01 3.538511991500854492e+00 9.094188213348388672e-01 -2.889167547225952148e+00
1.662000000000000000e+03 3.771307754516601562e+01 -1.659844017028808594e+01 -4.258582368493080139e-02 3.475913763046264648e+00 1.029998302459716797e+00 -3.325621604919433594e+00
1.663000000000000000e+03 7.410368347167968750e+01 2.038652610778808594e+01 1.179292052984237671e-01 8.362440109252929688e+00 2.544110774993896484e+00 4.111956059932708740e-01
1.664000000000000000e+03 5.336077880859375000e+01 -2.026884651184082031e+01 3.918802440166473389e-01 2.690312862396240234e+00 9.246579408645629883e-01 -8.014578819274902344e-01
1.665000000000000000e+03 7.324246215820312500e+01 -1.014965248107910156e+01 -6.574110686779022217e-02 6.534363269805908203e+00 1.940586566925048828e+00 -3.381258845329284668e-01
1.666000000000000000e+03 7.126481628417968750e+01 -4.274668693542480469e+00 2.622120976448059082e-01 8.184930801391601562e+00 2.534142971038818359e+00 6.125230789184570312e-01
1.667000000000000000e+03 7.168341827392578125e+01 -2.790912389755249023e+00 3.778493106365203857e-01 8.890428543090820312e+00 2.780483245849609375e+00 5.409876108169555664e-01
1.668000000000000000e+03 4.924551010131835938e+00 -1.672022438049316406e+01 7.412807941436767578e-01 4.455084323883056641e+00 1.558909535408020020e+00 2.250106334686279297e-01
1.669000000000000000e+03 7.317199707031250000e+01 -6.647788047790527344e+00 -1.251591462641954422e-02 7.273561000823974609e+00 2.178313493728637695e+00 -2.080675065517425537e-01
1.670000000000000000e+03 7.113046264648437500e+01 -1.099402332305908203e+01 6.934912502765655518e-02 5.767343997955322266e+00 1.751007914543151855e+00 -1.142056891694664955e-03
1.671000000000000000e+03 3.630636215209960938e+01 2.132407760620117188e+01 6.889253258705139160e-01 6.291281223297119141e+00 2.094061851501464844e+00 -2.260098606348037720e-02
1.672000000000000000e+03 4.571797561645507812e+01 -2.276069068908691406e+01 2.837411642074584961e+00 9.224180221557617188e+00 3.618477582931518555e+00 -2.575300455093383789e+00
1.673000000000000000e+03 4.393000793457031250e+01 -1.950933647155761719e+01 1.341360569000244141e+00 1.048268985748291016e+01 3.547214984893798828e+00 -1.811728477478027344e+00
1.674000000000000000e+03 4.842498016357421875e+01 -1.327726173400878906e+01 -9.539687037467956543e-01 6.088670253753662109e+00 1.540410518646240234e+00 -4.692087173461914062e-01
1.675000000000000000e+03 3.932693481445312500e+01 1.738067817687988281e+01 9.872520565986633301e-01 8.138991355895996094e+00 2.737873077392578125e+00 4.478096067905426025e-01
1.676000000000000000e+03 3.764395141601562500e+01 1.256593418121337891e+01 1.827007293701171875e+00 7.448451995849609375e+00 2.782637834548950195e+00 -3.584299385547637939e-01
1.677000000000000000e+03 7.704457759857177734e+00 -2.669169807434082031e+01 -1.339352488517761230e+00 8.160304069519042969e+00 2.046285390853881836e+00 2.459263324737548828e+00
1.678000000000000000e+03 7.133895111083984375e+01 -7.632107734680175781e+00 6.425668299198150635e-02 6.780690193176269531e+00 2.053483963012695312e+00 2.834927737712860107e-01
1.679000000000000000e+03 6.658908081054687500e+01 -3.737821960449218750e+01 3.076811730861663818e-01 1.102661967277526855e+00 4.231029450893402100e-01 5.026666522026062012e-01
1.680000000000000000e+03 6.922148895263671875e+01 -1.150188827514648438e+01 3.398055732250213623e-01 4.719466209411621094e+00 1.517781615257263184e+00 4.658986032009124756e-01
1.681000000000000000e+03 3.876100540161132812e+01 2.118008613586425781e+01 7.341679930686950684e-01 6.914998054504394531e+00 2.294749736785888672e+00 4.380045831203460693e-01
1.682000000000000000e+03 3.787362670898437500e+01 1.802018165588378906e+01 1.059826612472534180e+00 7.272211074829101562e+00 2.499611377716064453e+00 1.338479071855545044e-01
1.683000000000000000e+03 2.441537284851074219e+01 -1.106155776977539062e+01 -2.971081256866455078e+00 1.533110886812210083e-01 -8.453310728073120117e-01 -7.689946889877319336e-01
1.684000000000000000e+03 5.784546279907226562e+01 -2.270082092285156250e+01 1.125749588012695312e+00 1.461941838264465332e+00 7.763074040412902832e-01 1.083645224571228027e+00
1.685000000000000000e+03 7.351905822753906250e+01 -3.005790901184082031e+01 4.230216443538665771e-01 8.479140281677246094e+00 2.670648574829101562e+00 -2.539310455322265625e-01
1.686000000000000000e+03 7.413195800781250000e+01 -3.242192077636718750e+01 -3.992901444435119629e-01 7.552262783050537109e+00 2.145891904830932617e+00 -3.667337894439697266e-01
1.687000000000000000e+03 7.420079040527343750e+01 2.674550819396972656e+01 1.384429335594177246e-01 7.900216579437255859e+00 2.411597967147827148e+00 7.121380567550659180e-01
1.688000000000000000e+03 5.243358993530273438e+01 -1.760332870483398438e+01 -1.097701787948608398e+00 2.858434915542602539e+00 5.282199382781982422e-01 -7.604014277458190918e-01
1.689000000000000000e+03 5.311052322387695312e+01 -1.889055442810058594e+01 -4.571245610713958740e-01 2.425945520401000977e+00 5.906463265419006348e-01 -7.340857386589050293e-01
1.690000000000000000e+03 7.507639312744140625e+01 4.020438766479492188e+01 1.105295959860086441e-02 8.149370193481445312e+00 2.448126792907714844e+00 2.071658670902252197e-01
1.691000000000000000e+03 4.606669998168945312e+01 -6.874090671539306641e+00 -1.329805254936218262e-01 5.970701694488525391e+00 1.751316428184509277e+00 -1.820780634880065918e+00
1.692000000000000000e+03 4.180238723754882812e+01 -1.560173034667968750e+01 -9.053722023963928223e-01 8.054130554199218750e+00 2.144627571105957031e+00 -2.567233324050903320e+00
1.693000000000000000e+03 6.198767662048339844e+00 -2.154655647277832031e+01 2.261488676071166992e+00 8.431155204772949219e+00 3.207793235778808594e+00 2.551495075225830078e+00
1.694000000000000000e+03 6.505514144897460938e+00 -2.017854118347167969e+01 2.390757083892822266e+00 8.951337814331054688e+00 3.402628660202026367e+00 2.083226680755615234e+00
1.695000000000000000e+03 5.902307128906250000e+01 -2.221029472351074219e+01 8.068823814392089844e-01 1.232493162155151367e+00 6.118126511573791504e-01 1.311357975006103516e+00
1.696000000000000000e+03 5.754783248901367188e+01 -2.149172592163085938e+01 6.783224344253540039e-01 1.309145212173461914e+00 5.962402820587158203e-01 1.157701611518859863e+00
1.697000000000000000e+03 6.249764633178710938e+01 -1.694312858581542969e+01 -1.992236971855163574e-01 1.398281455039978027e+00 3.597173392772674561e-01 1.369768261909484863e+00
1.698000000000000000e+03 3.642543411254882812e+01 1.536031913757324219e+01 1.467664957046508789e+00 6.913662910461425781e+00 2.514398336410522461e+00 -1.156439855694770813e-01
1.699000000000000000e+03 2.193997573852539062e+01 -9.387440681457519531e+00 -1.136507153511047363e+00 2.865126132965087891e-01 -2.549983859062194824e-01 -4.848782718181610107e-01
1.700000000000000000e+03 7.317812347412109375e+01 2.648570632934570312e+01 2.374556362628936768e-01 7.679708957672119141e+00 2.375149250030517578e+00 5.281545519828796387e-01
1.701000000000000000e+03 7.125599670410156250e+01 2.936292839050292969e+01 -1.834265738725662231e-01 6.425894260406494141e+00 1.872740268707275391e+00 2.803744077682495117e-01
1.702000000000000000e+03 2.490143585205078125e+01 -1.254441452026367188e+01 -4.558491230010986328e+00 1.361347436904907227e-01 -1.326706886291503906e+00 -8.104408159852027893e-03
1.703000000000000000e+03 2.348513793945312500e+01 -1.057096004486083984e+01 -2.723929166793823242e+00 8.341517299413681030e-02 -7.921541929244995117e-01 -7.128774523735046387e-01
1.704000000000000000e+03 1.606540298461914062e+01 -3.582538223266601562e+01 -1.140244603157043457e+00 -4.127354025840759277e-01 -4.658940136432647705e-01 6.409016251564025879e-01
1.705000000000000000e+03 1.412118244171142578e+01 -3.670366287231445312e+01 -7.398372292518615723e-01 1.668957471847534180e-01 -1.718824356794357300e-01 3.320393264293670654e-01
1.706000000000000000e+03 3.791267776489257812e+01 1.133202171325683594e+01 1.943776965141296387e+00 7.572669029235839844e+00 2.854933977127075195e+00 -4.129804968833923340e-01
1.707000000000000000e+03 3.529391098022460938e+01 -3.661272048950195312e+01 -1.503437042236328125e+00 -1.263194084167480469e-01 -4.889269471168518066e-01 1.130652893334627151e-02
1.708000000000000000e+03 3.661579513549804688e+01 1.856447410583496094e+01 1.059408187866210938e+00 6.728991031646728516e+00 2.336519718170166016e+00 4.893892630934715271e-02
1.709000000000000000e+03 6.855333709716796875e+01 -1.363605117797851562e+01 3.258455693721771240e-01 3.869653463363647461e+00 1.258649706840515137e+00 3.088046014308929443e-01
1.710000000000000000e+03 7.025877380371093750e+01 3.180710029602050781e+01 -6.973885297775268555e-01 5.041862010955810547e+00 1.303341984748840332e+00 7.619637250900268555e-02
1.711000000000000000e+03 7.169126892089843750e+01 3.324681091308593750e+01 -5.953844785690307617e-01 6.119055747985839844e+00 1.657101392745971680e+00 1.924944221973419189e-01
1.712000000000000000e+03 4.689262771606445312e+01 -2.347041511535644531e+01 2.428174018859863281e+00 7.722110748291015625e+00 3.045085430145263672e+00 -2.260586261749267578e+00
1.713000000000000000e+03 7.433391571044921875e+01 -2.760725402832031250e+01 1.276278972625732422e+00 8.601210594177246094e+00 2.963247060775756836e+00 2.221458777785301208e-02
1.714000000000000000e+03 7.389214324951171875e+01 -2.872015190124511719e+01 1.095957159996032715e+00 8.631855010986328125e+00 2.918343544006347656e+00 -3.234186172485351562e-01
1.715000000000000000e+03 6.430966186523437500e+01 -1.669407081604003906e+01 9.809330105781555176e-02 1.595535635948181152e+00 5.080886483192443848e-01 1.155929803848266602e+00
1.716000000000000000e+03 7.218896484375000000e+01 -3.289987564086914062e+01 -6.353570818901062012e-01 6.673857212066650391e+00 1.811550140380859375e+00 4.311445951461791992e-01
1.717000000000000000e+03 7.338691711425781250e+01 -3.381775283813476562e+01 -6.339028477668762207e-01 6.917821407318115234e+00 1.885175466537475586e+00 -5.164796859025955200e-02
1.718000000000000000e+03 5.361470794677734375e+01 -2.261549377441406250e+01 1.194422483444213867e+00 3.371407747268676758e+00 1.369749069213867188e+00 -7.402580380439758301e-01
1.719000000000000000e+03 5.491698455810546875e+01 3.659394073486328125e+01 -5.106490254402160645e-01 2.241134792566299438e-01 -8.596066385507583618e-02 9.835916757583618164e-02
1.720000000000000000e+03 6.012070465087890625e+01 -2.048959159851074219e+01 3.747975826263427734e-02 1.067253947257995605e+00 3.314200937747955322e-01 1.601279020309448242e+00
1.721000000000000000e+03 7.260259246826171875e+01 -3.539297866821289062e+01 -6.550720334053039551e-01 5.948917865753173828e+00 1.588153719902038574e+00 3.987145125865936279e-01
1.722000000000000000e+03 1.746636772155761719e+01 -5.962994575500488281e+00 3.223511457443237305e+00 6.369626998901367188e+00 2.877941608428955078e+00 1.796427965164184570e+00
1.723000000000000000e+03 3.228970718383789062e+01 -1.284491157531738281e+01 -1.380681991577148438e+00 1.597249984741210938e+00 6.497040390968322754e-02 -1.289078354835510254e+00
1.724000000000000000e+03 6.816612243652343750e+01 3.868054199218750000e+01 -8.831174112856388092e-03 2.709490776062011719e+00 8.101978898048400879e-01 -2.641481161117553711e-01
1.725000000000000000e+03 7.024333953857421875e+01 3.631996917724609375e+01 -4.771471917629241943e-01 4.565733909606933594e+00 1.226575970649719238e+00 -2.632541656494140625e-01
1.726000000000000000e+03 6.649027347564697266e+00 -1.495354557037353516e+01 2.179853022098541260e-01 6.019708156585693359e+00 1.871307969093322754e+00 7.390251159667968750e-01
1.727000000000000000e+03 1.063264465332031250e+01 -3.380496978759765625e+01 -1.581360936164855957e+00 2.060932636260986328e+00 1.438715457916259766e-01 1.628549396991729736e-02
1.728000000000000000e+03 4.737568855285644531e+00 -2.814392662048339844e+01 -1.023456573486328125e+00 6.649320125579833984e+00 1.687759041786193848e+00 2.839802503585815430e+00
1.729000000000000000e+03 4.793015670776367188e+01 -1.523986625671386719e+01 -1.099662661552429199e+00 6.695872783660888672e+00 1.678863048553466797e+00 -5.433957576751708984e-01
1.730000000000000000e+03 5.123566055297851562e+01 -1.810373115539550781e+01 -6.719562411308288574e-01 4.276285171508789062e+00 1.081298708915710449e+00 -9.239876866340637207e-01
1.731000000000000000e+03 2.403984069824218750e+01 -9.720996856689453125e+00 -1.348198533058166504e+00 2.955545783042907715e-01 -3.157931864261627197e-01 -1.010857105255126953e+00
1.732000000000000000e+03 5.057573699951171875e+01 -1.698375320434570312e+01 -1.044314146041870117e+00 4.812130451202392578e+00 1.130344867706298828e+00 -6.190082430839538574e-01
1.733000000000000000e+03 6.822885990142822266e+00 -2.899577903747558594e+01 -2.124556541442871094e+00 6.798869132995605469e+00 1.402293801307678223e+00 1.920828342437744141e+00
1.734000000000000000e+03 8.572464942932128906e+00 -3.134502410888671875e+01 -2.422980308532714844e+00 4.476816654205322266e+00 6.161509156227111816e-01 4.551761746406555176e-01
1.735000000000000000e+03 5.811773300170898438e+00 -2.402341842651367188e+01 1.254435777664184570e+00 8.109654426574707031e+00 2.809226989746093750e+00 3.198586940765380859e+00
1.736000000000000000e+03 6.060683250427246094e+00 -2.281596374511718750e+01 1.928260326385498047e+00 8.449721336364746094e+00 3.113394498825073242e+00 2.962998628616333008e+00
1.737000000000000000e+03 8.415534973144531250e+00 -3.336437606811523438e+01 -1.666373610496520996e+00 3.998592138290405273e+00 6.996655464172363281e-01 2.481778711080551147e-01
1.738000000000000000e+03 1.140219020843505859e+01 -3.538160705566406250e+01 -1.054168820381164551e+00 1.497520685195922852e+00 1.330055445432662964e-01 -2.927425317466259003e-03
1.739000000000000000e+03 6.418489074707031250e+01 -1.963537979125976562e+01 -5.851103663444519043e-01 1.092808842658996582e+00 1.523095220327377319e-01 1.312480926513671875e+00
1.740000000000000000e+03 6.357622146606445312e+01 -1.756809616088867188e+01 -1.759469360113143921e-01 1.342210769653320312e+00 3.498791456222534180e-01 1.370238065719604492e+00
1.741000000000000000e+03 5.180726242065429688e+01 4.119958496093750000e+01 -3.876604735851287842e-01 1.212297320365905762e+00 2.473910599946975708e-01 1.025559604167938232e-01
1.742000000000000000e+03 4.772505187988281250e+01 -2.230970573425292969e+01 2.120856046676635742e+00 7.304983615875244141e+00 2.827751874923706055e+00 -2.027198553085327148e+00
1.743000000000000000e+03 5.298175811767578125e+01 -2.748455429077148438e+01 1.620752573013305664e+00 6.122386455535888672e+00 2.322941541671752930e+00 -1.665778636932373047e+00
1.744000000000000000e+03 7.517884063720703125e+01 3.316516113281250000e+01 -3.326384723186492920e-01 8.051168441772460938e+00 2.315558910369873047e+00 4.650505483150482178e-01
1.745000000000000000e+03 5.998152923583984375e+01 -3.781903839111328125e+01 1.588332206010818481e-01 1.841521739959716797e+00 6.001064777374267578e-01 -1.188647150993347168e+00
1.746000000000000000e+03 6.033464431762695312e+01 -1.930214118957519531e+01 -4.054335951805114746e-01 1.164806842803955078e+00 2.278119623661041260e-01 1.687372922897338867e+00
1.747000000000000000e+03 4.497221755981445312e+01 -2.860472869873046875e+01 9.489070773124694824e-01 9.152720451354980469e+00 3.030488252639770508e+00 -1.641955256462097168e+00
1.748000000000000000e+03 3.827764892578125000e+01 1.963569259643554688e+01 8.580269217491149902e-01 7.162311553955078125e+00 2.406101465225219727e+00 3.077553808689117432e-01
1.749000000000000000e+03 4.295829391479492188e+01 3.137829589843750000e+01 -4.608199596405029297e-01 4.703165531158447266e+00 1.272703647613525391e+00 5.760353207588195801e-01
1.750000000000000000e+03 4.747271728515625000e+01 -1.723991584777832031e+01 -5.178258419036865234e-01 7.170877933502197266e+00 1.995915532112121582e+00 -7.444650530815124512e-01
1.751000000000000000e+03 7.296839904785156250e+01 -3.150208854675292969e+01 -1.982994079589843750e-01 7.703690052032470703e+00 2.251617193222045898e+00 -5.039430409669876099e-02
1.752000000000000000e+03 6.143303298950195312e+01 -2.089180946350097656e+01 -4.565534740686416626e-02 1.106523156166076660e+00 3.182603418827056885e-01 1.515294551849365234e+00
1.753000000000000000e+03 4.194477081298828125e+01 -3.471982574462890625e+01 -1.975483298301696777e+00 4.845276355743408203e+00 8.609378337860107422e-01 7.666985392570495605e-01
1.754000000000000000e+03 1.350327777862548828e+01 3.068364620208740234e+00 2.065814286470413208e-01 2.384011983871459961e+00 7.771780490875244141e-01 -8.226945996284484863e-01
1.755000000000000000e+03 1.496293640136718750e+01 -1.145957037806510925e-02 -1.710628122091293335e-01 5.880883693695068359e+00 1.712946295738220215e+00 -1.399013042449951172e+00
1.756000000000000000e+03 1.506615829467773438e+01 9.904162287712097168e-01 -2.364551275968551636e-01 5.339208126068115234e+00 1.530825972557067871e+00 -9.455765485763549805e-01
1.757000000000000000e+03 1.488405704498291016e+01 3.685841262340545654e-01 -1.238484233617782593e-01 5.342813968658447266e+00 1.565689682960510254e+00 -1.244623303413391113e+00
1.758000000000000000e+03 1.580409431457519531e+01 -2.669190466403961182e-01 -3.489082753658294678e-01 9.376714706420898438e+00 2.708341836929321289e+00 2.170586138963699341e-01
1.759000000000000000e+03 1.415621089935302734e+01 3.901718556880950928e-01 1.150809377431869507e-01 3.076929569244384766e+00 9.576031565666198730e-01 -1.272976398468017578e+00
1.760000000000000000e+03 1.672989273071289062e+01 -4.414363205432891846e-01 1.114581823348999023e+00 1.021595573425292969e+01 3.399161338806152344e+00 3.072260618209838867e+00
1.761000000000000000e+03 1.120827674865722656e+01 -3.500755310058593750e+00 3.100650548934936523e+00 1.253011524677276611e-01 9.677854776382446289e-01 1.507816672325134277e+00
1.762000000000000000e+03 1.397149085998535156e+01 -5.440814495086669922e+00 4.238107204437255859e+00 5.498998641967773438e+00 2.921131610870361328e+00 6.591039180755615234e+00
1.763000000000000000e+03 1.255673217773437500e+01 -3.783010005950927734e+00 5.624542236328125000e+00 2.858505845069885254e-01 1.773117780685424805e+00 2.877220869064331055e+00
1.764000000000000000e+03 1.402787780761718750e+01 -4.874108791351318359e+00 5.552107334136962891e+00 5.500308513641357422e+00 3.315724849700927734e+00 6.870996475219726562e+00
1.765000000000000000e+03 9.933156013488769531e+00 -3.332076787948608398e+00 1.823125720024108887e+00 2.475264966487884521e-01 6.211956739425659180e-01 9.941459298133850098e-01
1.766000000000000000e+03 1.779177284240722656e+01 -5.040973424911499023e-01 2.906799793243408203e+00 8.284036636352539062e+00 3.357250928878784180e+00 4.111793518066406250e+00
1.767000000000000000e+03 1.731067466735839844e+01 -3.355438262224197388e-02 1.370420575141906738e+00 8.868534088134765625e+00 3.071686267852783203e+00 3.194770574569702148e+00
1.768000000000000000e+03 1.131119441986083984e+01 -2.965243816375732422e+00 2.632053136825561523e+00 -6.708430009894073009e-05 7.895958423614501953e-01 9.608366489410400391e-01
1.769000000000000000e+03 1.338058757781982422e+01 -5.262910842895507812e+00 4.668323040008544922e+00 3.815653800964355469e+00 2.545193195343017578e+00 6.121780872344970703e+00
1.770000000000000000e+03 1.887452697753906250e+01 -3.552196979522705078e+00 7.516788959503173828e+00 4.418024063110351562e+00 3.580444097518920898e+00 1.995366215705871582e+00
1.771000000000000000e+03 8.657636642456054688e+00 -4.645886898040771484e+00 1.421123385429382324e+00 7.812121510505676270e-01 6.607006788253784180e-01 1.384762167930603027e+00
1.772000000000000000e+03 6.602152824401855469e+00 -4.041803836822509766e+00 5.332905650138854980e-01 4.689614176750183105e-01 3.006756007671356201e-01 3.796795010566711426e-01
1.773000000000000000e+03 1.028804397583007812e+01 -4.663468360900878906e+00 2.542711496353149414e+00 8.553957939147949219e-01 1.019432187080383301e+00 2.327080965042114258e+00
1.774000000000000000e+03 5.146443843841552734e+00 -5.451051235198974609e+00 2.994341850280761719e-01 6.832802891731262207e-01 2.948143482208251953e-01 2.828735113143920898e-01
1.775000000000000000e+03 4.235449790954589844e+00 -4.027863502502441406e+00 1.476801335811614990e-01 2.235386669635772705e-01 1.113656386733055115e-01 -7.626979053020477295e-02
1.776000000000000000e+03 1.329336261749267578e+01 2.591320276260375977e+00 2.081795334815979004e-01 2.087449312210083008e+00 6.886886954307556152e-01 -8.610405325889587402e-01
1.777000000000000000e+03 1.246225738525390625e+01 2.167276382446289062e+00 1.849517375230789185e-01 1.175556659698486328e+00 4.081524908542633057e-01 -6.575031876564025879e-01
1.778000000000000000e+03 6.655014991760253906e+00 -4.797438621520996094e+00 6.168686151504516602e-01 7.085814476013183594e-01 3.976350128650665283e-01 5.946890115737915039e-01
1.779000000000000000e+03 5.971419334411621094e+00 -4.815745830535888672e+00 4.460787475109100342e-01 6.185742616653442383e-01 3.193958997726440430e-01 3.928223252296447754e-01
1.780000000000000000e+03 5.951417922973632812e+00 -5.613752841949462891e+00 4.387293457984924316e-01 8.732956647872924805e-01 3.936074972152709961e-01 5.515326857566833496e-01
1.781000000000000000e+03 1.812530136108398438e+01 -6.065933227539062500e+00 3.223660469055175781e+00 5.197325229644775391e+00 2.526295661926269531e+00 1.154215693473815918e+00
1.782000000000000000e+03 1.682377815246582031e+01 -5.407424926757812500e+00 3.828055858612060547e+00 8.434474945068359375e+00 3.678759098052978516e+00 2.225552082061767578e+00
1.783000000000000000e+03 1.867018508911132812e+01 -5.154168605804443359e+00 5.132530212402343750e+00 4.775503158569335938e+00 2.972409963607788086e+00 6.989456415176391602e-01
1.784000000000000000e+03 9.251805305480957031e+00 -3.932491064071655273e+00 1.628040432929992676e+00 4.730892479419708252e-01 6.303389072418212891e-01 1.182729721069335938e+00
1.785000000000000000e+03 2.549224138259887695e+00 6.337135314941406250e+00 4.246784746646881104e-02 -3.311005830764770508e-01 -8.658982068300247192e-02 2.287085205316543579e-01
1.786000000000000000e+03 7.578144550323486328e+00 4.807812213897705078e+00 1.918008476495742798e-01 6.138759478926658630e-02 7.595653831958770752e-02 2.293929010629653931e-01
1.787000000000000000e+03 9.256893157958984375e+00 3.911280155181884766e+00 2.168458551168441772e-01 1.503342092037200928e-01 1.101540178060531616e-01 9.492604434490203857e-02
1.788000000000000000e+03 4.904848098754882812e+00 6.262311458587646484e+00 1.530486792325973511e-01 -9.096802026033401489e-02 1.862419955432415009e-02 2.612771391868591309e-01
1.789000000000000000e+03 1.361863517761230469e+01 9.308016896247863770e-01 3.663674741983413696e-02 2.069822788238525391e+00 6.319378614425659180e-01 -1.017765641212463379e+00
1.790000000000000000e+03 7.363387584686279297e+00 6.532229423522949219e+00 3.026556670665740967e-01 1.938907951116561890e-01 1.489639431238174438e-01 1.229079887270927429e-01
1.791000000000000000e+03 1.580866527557373047e+01 -5.590344905853271484e+00 3.011332035064697266e+00 9.452208518981933594e+00 3.739062309265136719e+00 4.473804473876953125e+00
1.792000000000000000e+03 1.212964630126953125e+01 3.029171943664550781e+00 2.715867459774017334e-01 1.132079958915710449e+00 4.210999906063079834e-01 -5.581797361373901367e-01
1.793000000000000000e+03 1.099430847167968750e+01 3.693163633346557617e+00 3.295297026634216309e-01 6.299147009849548340e-01 2.878333330154418945e-01 -2.844347953796386719e-01
1.794000000000000000e+03 1.644332885742187500e+01 -5.582977294921875000e+00 3.497578382492065430e+00 8.720011711120605469e+00 3.665277004241943359e+00 2.774729728698730469e+00
1.795000000000000000e+03 2.028972816467285156e+01 -3.213910341262817383e+00 6.146786212921142578e+00 2.961674213409423828e+00 2.732537984848022461e+00 1.914854168891906738e+00
1.796000000000000000e+03 3.543977737426757812e+01 -1.301618099212646484e+01 -8.415925502777099609e-01 2.781037807464599609e+00 5.818335413932800293e-01 -2.340509414672851562e+00
1.797000000000000000e+03 2.935077857971191406e+01 -1.056391239166259766e+01 -1.281769752502441406e+00 1.303267717361450195e+00 6.449406966567039490e-03 -1.304246902465820312e+00
1.798000000000000000e+03 9.172728538513183594e+00 5.510494709014892578e+00 3.862728476524353027e-01 4.032019376754760742e-01 2.368424385786056519e-01 -2.670561149716377258e-02
1.799000000000000000e+03 1.207789897918701172e+01 -1.184956550598144531e+01 -2.096544265747070312e+00 6.259341239929199219e+00 1.248839020729064941e+00 4.354247093200683594e+00
1.800000000000000000e+03 4.483639907836914062e+01 -2.112840843200683594e+01 3.135476350784301758e+00 1.022265625000000000e+01 4.007439613342285156e+00 -1.958780765533447266e+00
1.801000000000000000e+03 7.610137939453125000e+01 -2.273708152770996094e+01 -3.193430602550506592e-02 7.904512405395507812e+00 2.361773252487182617e+00 8.588882088661193848e-01
1.802000000000000000e+03 3.874666213989257812e+01 -1.500314331054687500e+01 -6.276449561119079590e-01 5.079435348510742188e+00 1.335537195205688477e+00 -3.262696027755737305e+00
1.803000000000000000e+03 4.956764698028564453e+00 -2.587607955932617188e+01 2.316266670823097229e-02 6.604074478149414062e+00 1.988171100616455078e+00 3.471525669097900391e+00
1.804000000000000000e+03 7.363310241699218750e+01 5.980679035186767578e+00 3.932761251926422119e-01 9.260727882385253906e+00 2.896201133728027344e+00 5.117841958999633789e-01
1.805000000000000000e+03 4.411973953247070312e+01 -2.153833389282226562e+00 3.951571881771087646e-01 5.907683849334716797e+00 1.890852332115173340e+00 -2.327680110931396484e+00
1.806000000000000000e+03 4.210834121704101562e+01 -3.648756265640258789e+00 1.143735349178314209e-01 5.800671100616455078e+00 1.774513363838195801e+00 -2.206795692443847656e+00
1.807000000000000000e+03 3.889072036743164062e+01 3.175030946731567383e+00 1.225279688835144043e+00 6.278567790985107422e+00 2.251154422760009766e+00 -1.267752051353454590e+00
1.808000000000000000e+03 3.807994842529296875e+01 8.481329917907714844e+00 1.968107581138610840e+00 7.130987167358398438e+00 2.729728460311889648e+00 -5.470937490463256836e-01
1.809000000000000000e+03 5.554318237304687500e+01 -2.244548034667968750e+01 1.087846875190734863e+00 2.146318912506103516e+00 9.702497124671936035e-01 1.771568953990936279e-01
1.810000000000000000e+03 1.551097488403320312e+01 -6.619681358337402344e+00 1.540774703025817871e+00 7.191696166992187500e+00 2.619741201400756836e+00 4.895214080810546875e+00
1.811000000000000000e+03 2.872712516784667969e+01 -1.280599689483642578e+01 -2.607711791992187500e+00 8.891084194183349609e-01 -5.155810117721557617e-01 -5.017583370208740234e-01
1.812000000000000000e+03 2.985583877563476562e+01 -1.320473098754882812e+01 -2.337841033935546875e+00 9.820777177810668945e-01 -4.067290127277374268e-01 -5.770203471183776855e-01
1.813000000000000000e+03 4.361117935180664062e+01 -4.027842521667480469e+00 1.103216856718063354e-01 5.871509552001953125e+00 1.794549345970153809e+00 -2.212517976760864258e+00
1.814000000000000000e+03 3.646337127685546875e+01 1.125451946258544922e+01 1.993500590324401855e+00 6.707339763641357422e+00 2.610252141952514648e+00 -2.968549728393554688e-01
1.815000000000000000e+03 4.074013900756835938e+01 -3.237709999084472656e+00 2.351885885000228882e-01 5.658919334411621094e+00 1.768232464790344238e+00 -2.117028236389160156e+00
1.816000000000000000e+03 4.059751510620117188e+01 1.422512531280517578e+00 8.506704568862915039e-01 6.265524387359619141e+00 2.134858369827270508e+00 -1.827181935310363770e+00
1.817000000000000000e+03 4.356348037719726562e+01 -9.985973834991455078e-01 5.600749850273132324e-01 5.966127872467041016e+00 1.957860827445983887e+00 -2.374906778335571289e+00
1.818000000000000000e+03 7.371861267089843750e+01 1.722990798950195312e+01 7.538305968046188354e-02 8.500097274780273438e+00 2.572644233703613281e+00 4.019602537155151367e-01
1.819000000000000000e+03 8.854752540588378906e+00 -1.278146648406982422e+01 -8.487427234649658203e-01 6.597315788269042969e+00 1.724571943283081055e+00 2.139122486114501953e+00
1.820000000000000000e+03 9.077956199645996094e+00 -1.389401435852050781e+01 -2.858818769454956055e-01 7.425161838531494141e+00 2.141783952713012695e+00 2.162567853927612305e+00
1.821000000000000000e+03 2.055534362792968750e+01 -9.423516273498535156e+00 -1.413843035697937012e+00 5.381407737731933594e-01 -2.627106904983520508e-01 6.343962997198104858e-02
1.822000000000000000e+03 6.863230895996093750e+01 -1.260320949554443359e+01 3.836859166622161865e-01 4.157708644866943359e+00 1.362418293952941895e+00 4.242396950721740723e-01
1.823000000000000000e+03 4.432662963867187500e+01 -9.129327774047851562e+00 -7.347365617752075195e-01 6.347423076629638672e+00 1.683805942535400391e+00 -1.801670670509338379e+00
1.824000000000000000e+03 7.356771087646484375e+01 2.759735298156738281e+01 8.062833547592163086e-02 7.606068611145019531e+00 2.306009054183959961e+00 6.576539874076843262e-01
1.825000000000000000e+03 7.566235351562500000e+01 3.123506546020507812e+01 -1.938483119010925293e-01 8.389024734497070312e+00 2.458552837371826172e+00 6.299480795860290527e-01
1.826000000000000000e+03 4.459535217285156250e+01 -6.275613784790039062e+00 -1.868012845516204834e-01 5.968084335327148438e+00 1.734385013580322266e+00 -2.024050235748291016e+00
1.827000000000000000e+03 4.132713317871093750e+01 4.023993015289306641e-01 6.732349991798400879e-01 6.192558288574218750e+00 2.059737920761108398e+00 -2.066438913345336914e+00
1.828000000000000000e+03 7.546524810791015625e+01 2.220098876953125000e+01 1.519160270690917969e-01 8.193226814270019531e+00 2.503542661666870117e+00 4.903982579708099365e-01
1.829000000000000000e+03 7.529429626464843750e+01 2.740176391601562500e+01 4.807643219828605652e-02 8.130250930786132812e+00 2.453498125076293945e+00 7.424228787422180176e-01
1.830000000000000000e+03 3.862368011474609375e+01 5.158230304718017578e+00 1.501570343971252441e+00 6.696860790252685547e+00 2.459529399871826172e+00 -9.885526895523071289e-01
1.831000000000000000e+03 7.587757873535156250e+01 3.172357320785522461e+00 3.425832092761993408e-01 7.491362571716308594e+00 2.350183725357055664e+00 1.773480772972106934e-01
1.832000000000000000e+03 7.571524810791015625e+01 2.360702514648437500e+01 1.610830873250961304e-01 8.176121711730957031e+00 2.501161575317382812e+00 5.634675025939941406e-01
1.833000000000000000e+03 7.551161193847656250e+01 2.056576919555664062e+01 9.654698520898818970e-02 8.193663597106933594e+00 2.487063169479370117e+00 4.441505968570709229e-01
1.834000000000000000e+03 7.593898010253906250e+01 -2.012520408630371094e+01 -5.500600337982177734e-01 7.712023735046386719e+00 2.148589134216308594e+00 5.114476680755615234e-01
1.835000000000000000e+03 7.459936523437500000e+01 -1.469533061981201172e+01 -3.437320590019226074e-01 6.777718067169189453e+00 1.930195808410644531e+00 -4.695507884025573730e-01
1.836000000000000000e+03 7.561444091796875000e+01 -1.342365264892578125e+01 -2.001856118440628052e-01 6.996618270874023438e+00 2.038929700851440430e+00 -4.506601393222808838e-01
1.837000000000000000e+03 7.605467224121093750e+01 1.257687759399414062e+01 -1.350328326225280762e-01 7.881112098693847656e+00 2.323823928833007812e+00 4.071391522884368896e-01
1.838000000000000000e+03 7.591786956787109375e+01 1.681612396240234375e+01 3.010718338191509247e-02 8.004615783691406250e+00 2.410416841506958008e+00 3.675890862941741943e-01
1.839000000000000000e+03 7.569166564941406250e+01 8.592754364013671875e+00 7.227499503642320633e-03 7.966990470886230469e+00 2.392265319824218750e+00 6.237776875495910645e-01
1.840000000000000000e+03 7.476833343505859375e+01 7.136518955230712891e+00 1.482982486486434937e-01 8.393087387084960938e+00 2.562415599822998047e+00 6.325859427452087402e-01
1.841000000000000000e+03 7.462821960449218750e+01 -8.133153915405273438e+00 -4.192462563514709473e-02 7.028925895690917969e+00 2.096100330352783203e+00 -4.896563291549682617e-01
1.842000000000000000e+03 7.580316162109375000e+01 -6.801057338714599609e+00 -2.158014290034770966e-02 7.055548191070556641e+00 2.110190391540527344e+00 -5.698263645172119141e-01
1.843000000000000000e+03 7.341295623779296875e+01 1.038371849060058594e+01 -2.398570179939270020e-01 9.095591545104980469e+00 2.656720399856567383e+00 5.018457174301147461e-01
1.844000000000000000e+03 7.573757934570312500e+01 -4.121338367462158203e+00 1.010457351803779602e-01 7.217971324920654297e+00 2.195705175399780273e+00 -5.442926883697509766e-01
1.845000000000000000e+03 7.363990020751953125e+01 -5.164158344268798828e+00 7.587140798568725586e-02 7.601550579071044922e+00 2.303226709365844727e+00 -3.084227144718170166e-01
1.846000000000000000e+03 7.603201293945312500e+01 1.809983825683593750e+01 3.108805604279041290e-02 8.027069091796875000e+00 2.417447328567504883e+00 3.773698210716247559e-01
1.847000000000000000e+03 7.582452392578125000e+01 1.922546577453613281e+01 7.744704931974411011e-02 8.108706474304199219e+00 2.455846071243286133e+00 4.149458110332489014e-01
1.848000000000000000e+03 7.577454376220703125e+01 -1.066888427734375000e+01 -7.668618857860565186e-02 6.997697830200195312e+00 2.076303482055664062e+00 -5.282166004180908203e-01
1.849000000000000000e+03 7.454595184326171875e+01 -1.043348693847656250e+01 -8.414303511381149292e-02 6.815565109252929688e+00 2.019426584243774414e+00 -5.095075964927673340e-01
1.850000000000000000e+03 7.373921966552734375e+01 -1.257592105865478516e+01 -1.741232573986053467e-01 6.415694713592529297e+00 1.872471451759338379e+00 -4.396582841873168945e-01
1.851000000000000000e+03 7.540339660644531250e+01 -1.830224418640136719e+01 -6.032906174659729004e-01 7.494092464447021484e+00 2.067240715026855469e+00 5.752620473504066467e-02
1.852000000000000000e+03 7.014715576171875000e+01 -1.903741836547851562e+01 -9.105598926544189453e-01 4.022614479064941406e+00 9.336163997650146484e-01 -1.200921416282653809e+00
1.853000000000000000e+03 7.346070861816406250e+01 -1.982305717468261719e+01 -1.090631961822509766e+00 7.261709690093994141e+00 1.851323366165161133e+00 -1.833461970090866089e-01
1.854000000000000000e+03 7.470012664794921875e+01 1.970302581787109375e+00 5.021868348121643066e-01 8.174728393554687500e+00 2.603074550628662109e+00 9.208375960588455200e-02
1.855000000000000000e+03 7.362784576416015625e+01 1.254828739166259766e+01 -2.872602641582489014e-01 8.806148529052734375e+00 2.555666446685791016e+00 3.193468153476715088e-01
1.856000000000000000e+03 7.453195953369140625e+01 1.342871761322021484e+01 -1.430893391370773315e-01 8.427229881286621094e+00 2.485242128372192383e+00 3.710614740848541260e-01
1.857000000000000000e+03 7.312770843505859375e+01 -1.533989906311035156e+00 5.092031955718994141e-01 8.745886802673339844e+00 2.776527166366577148e+00 3.996001929044723511e-02
1.858000000000000000e+03 7.200510406494140625e+01 -1.303188562393188477e+00 5.860514640808105469e-01 9.364962577819824219e+00 2.985304355621337891e+00 3.744406104087829590e-01
1.859000000000000000e+03 7.348960876464843750e+01 2.933840179443359375e+01 -1.779340058565139771e-01 7.439712047576904297e+00 2.178533315658569336e+00 6.960300207138061523e-01
1.860000000000000000e+03 7.371665954589843750e+01 -8.820855140686035156e+00 -6.485314667224884033e-02 6.842795848846435547e+00 2.033382654190063477e+00 -3.692912161350250244e-01
1.861000000000000000e+03 7.437985229492187500e+01 -1.577731037139892578e+01 -4.907250702381134033e-01 6.765285491943359375e+00 1.882368206977844238e+00 -4.310824573040008545e-01
1.862000000000000000e+03 7.331686401367187500e+01 -1.548747348785400391e+01 -4.574967622756958008e-01 6.236003875732421875e+00 1.733552098274230957e+00 -5.519460439682006836e-01
1.863000000000000000e+03 7.407578277587890625e+01 -1.673493576049804688e+01 -6.157748103141784668e-01 6.803632259368896484e+00 1.856357216835021973e+00 -4.096910357475280762e-01
1.864000000000000000e+03 5.227525329589843750e+01 -3.302312088012695312e+01 1.067039489746093750e+00 6.839278697967529297e+00 2.371895551681518555e+00 -1.234245061874389648e+00
1.865000000000000000e+03 4.667991638183593750e+01 -2.956175231933593750e+01 9.409294128417968750e-01 7.852003097534179688e+00 2.637879848480224609e+00 -2.116995096206665039e+00
1.866000000000000000e+03 7.646289825439453125e+01 -3.121474647521972656e+01 4.102046787738800049e-02 7.610109329223632812e+00 2.295338869094848633e+00 -7.794095277786254883e-01
1.867000000000000000e+03 7.562461853027343750e+01 -3.058501815795898438e+01 1.592430472373962402e-01 7.741283893585205078e+00 2.370158195495605469e+00 -6.925595402717590332e-01
1.868000000000000000e+03 7.095169830322265625e+01 -1.988036155700683594e+01 -1.142461061477661133e+00 4.948274612426757812e+00 1.141744136810302734e+00 -1.332458376884460449e+00
1.869000000000000000e+03 7.392673492431640625e+01 -2.070954704284667969e+01 -9.542827606201171875e-01 7.853169441223144531e+00 2.069665908813476562e+00 2.081760019063949585e-01
1.870000000000000000e+03 3.584484100341796875e+01 1.741802787780761719e+01 1.224079489707946777e+00 6.535386562347412109e+00 2.327839851379394531e+00 -7.984222471714019775e-02
1.871000000000000000e+03 7.612288665771484375e+01 3.237691497802734375e+01 -2.157649993896484375e-01 8.612642288208007812e+00 2.519063234329223633e+00 5.879748463630676270e-01
1.872000000000000000e+03 4.492706298828125000e+00 -3.065360832214355469e+01 -1.146122336387634277e+00 6.583465099334716797e+00 1.631202816963195801e+00 1.855547428131103516e+00
1.873000000000000000e+03 7.403468322753906250e+01 -3.610052490234375000e+01 -4.642101526260375977e-01 6.434739589691162109e+00 1.791158795356750488e+00 -3.035068325698375702e-02
1.874000000000000000e+03 7.528353118896484375e+01 -3.329991149902343750e+01 -3.694783151149749756e-01 7.429075241088867188e+00 2.117878913879394531e+00 -5.396978259086608887e-01
1.875000000000000000e+03 5.298740386962890625e+00 -1.136659622192382812e+01 -4.417493343353271484e-01 3.072281837463378906e+00 7.891597747802734375e-01 3.447468578815460205e-01
1.876000000000000000e+03 5.947169780731201172e+00 -9.802559852600097656e+00 -3.424117863178253174e-01 2.922757148742675781e+00 7.741036415100097656e-01 8.359463214874267578e-01
1.877000000000000000e+03 4.580109024047851562e+01 -9.916571617126464844e+00 -6.950594782829284668e-01 6.374283790588378906e+00 1.703767299652099609e+00 -1.430602431297302246e+00
1.878000000000000000e+03 3.786350250244140625e+01 7.041814804077148438e+00 1.862942934036254883e+00 6.843493938446044922e+00 2.611931085586547852e+00 -5.897703170776367188e-01
1.879000000000000000e+03 5.670638084411621094e+00 2.416587829589843750e+01 -5.307151004672050476e-03 6.677977442741394043e-01 1.987471729516983032e-01 -2.920381426811218262e-01
1.880000000000000000e+03 5.433241367340087891e+00 -1.574400711059570312e+01 4.213960170745849609e-01 4.820563316345214844e+00 1.572587847709655762e+00 2.604989111423492432e-01
1.881000000000000000e+03 4.641143798828125000e+00 -1.506607055664062500e+01 2.026914954185485840e-01 3.545225381851196289e+00 1.124375104904174805e+00 -7.811409980058670044e-02
1.882000000000000000e+03 5.396121501922607422e+00 1.449264621734619141e+01 1.228906065225601196e-01 2.641305029392242432e-01 1.161063313484191895e-01 -1.540033966302871704e-01
1.883000000000000000e+03 5.441018581390380859e+00 1.737130737304687500e+01 6.098444014787673950e-02 3.675741553306579590e-01 1.285675764083862305e-01 -2.276759594678878784e-01
1.884000000000000000e+03 6.179421424865722656e+00 -1.718437194824218750e+01 1.151625871658325195e+00 6.633291721343994141e+00 2.335475444793701172e+00 8.804136514663696289e-01
1.885000000000000000e+03 5.945395946502685547e+00 2.583215904235839844e+01 -1.554951630532741547e-02 7.886263132095336914e-01 2.319230437278747559e-01 -2.982926666736602783e-01
1.886000000000000000e+03 4.302737712860107422e+00 -1.928625679016113281e+01 1.157727718353271484e+00 3.937808990478515625e+00 1.528661012649536133e+00 9.157137274742126465e-01
1.887000000000000000e+03 3.966145515441894531e+00 -2.683571815490722656e+01 -3.775051534175872803e-01 5.989709377288818359e+00 1.683661341667175293e+00 3.160305976867675781e+00
1.888000000000000000e+03 4.144318103790283203e+00 -1.257603549957275391e+01 -2.430448085069656372e-01 2.226068019866943359e+00 5.949069857597351074e-01 -1.543368250131607056e-01
1.889000000000000000e+03 6.608517169952392578e+00 -1.383678817749023438e+01 -6.092087924480438232e-02 5.434268474578857422e+00 1.612004280090332031e+00 6.771925091743469238e-01
1.890000000000000000e+03 4.655319213867187500e+00 3.296575546264648438e+01 -3.481052443385124207e-02 7.785270214080810547e-01 2.231149524450302124e-01 -1.874696016311645508e-01
1.891000000000000000e+03 5.363901138305664062e+00 2.136979103088378906e+01 1.762276887893676758e-02 4.957559108734130859e-01 1.540136039257049561e-01 -2.754478454589843750e-01
1.892000000000000000e+03 5.404577732086181641e+00 1.874129676818847656e+01 5.600117519497871399e-02 4.090747535228729248e-01 1.395227760076522827e-01 -2.486009448766708374e-01
1.893000000000000000e+03 5.326424598693847656e+00 -3.192847442626953125e+01 -1.391777515411376953e+00 6.073965072631835938e+00 1.404656291007995605e+00 1.352920770645141602e+00
1.894000000000000000e+03 9.319451332092285156e+00 -3.445462036132812500e+01 -1.356716513633728027e+00 3.051704406738281250e+00 5.084964036941528320e-01 4.350584372878074646e-02
1.895000000000000000e+03 5.244362831115722656e+00 2.907274246215820312e+01 -2.623681910336017609e-02 7.895514369010925293e-01 2.289943844079971313e-01 -2.435098141431808472e-01
1.896000000000000000e+03 5.876627731323242188e+01 -2.134733963012695312e+01 4.866133332252502441e-01 1.193215131759643555e+00 5.039485096931457520e-01 1.358011603355407715e+00
1.897000000000000000e+03 4.024981021881103516e+00 1.028443813323974609e+01 1.285107135772705078e-01 -1.543406546115875244e-01 -7.748980075120925903e-03 6.004960834980010986e-02
1.898000000000000000e+03 5.208950996398925781e+00 1.017175483703613281e+01 1.925837397575378418e-01 6.089347973465919495e-02 7.604316622018814087e-02 3.190760686993598938e-02
1.899000000000000000e+03 5.129870414733886719e+00 8.754334449768066406e+00 1.945285648107528687e-01 -8.689855225384235382e-03 5.575161427259445190e-02 1.174739077687263489e-01
1.900000000000000000e+03 3.683814287185668945e+00 7.524259090423583984e+00 1.134156212210655212e-01 -2.266963571310043335e-01 -3.398422151803970337e-02 2.080836594104766846e-01
1.901000000000000000e+03 5.442908763885498047e+00 -8.403487205505371094e+00 -4.735031723976135254e-02 1.874275088310241699e+00 5.480774044990539551e-01 6.416363120079040527e-01
1.902000000000000000e+03 4.128184795379638672e+00 -8.995422363281250000e+00 -1.072280630469322205e-01 1.332336664199829102e+00 3.675325810909271240e-01 2.060675173997879028e-01
1.903000000000000000e+03 5.573055267333984375e+00 -1.484494781494140625e+01 2.251419275999069214e-01 4.693172454833984375e+00 1.475494384765625000e+00 2.241981029510498047e-01
1.904000000000000000e+03 6.529297351837158203e+00 -1.269005203247070312e+01 -4.757006466388702393e-01 4.856597423553466797e+00 1.314269065856933594e+00 7.550300955772399902e-01
1.905000000000000000e+03 5.778238773345947266e+00 3.399939727783203125e+01 -5.638607591390609741e-02 1.026315689086914062e+00 2.909788787364959717e-01 -1.923691481351852417e-01
1.906000000000000000e+03 7.252963256835937500e+01 8.965295791625976562e+00 -1.281974762678146362e-01 9.539345741271972656e+00 2.823344469070434570e+00 5.743588209152221680e-01
1.907000000000000000e+03 4.503327941894531250e+01 -7.450535297393798828e+00 -3.298664689064025879e-01 6.066094398498535156e+00 1.720868349075317383e+00 -1.872286081314086914e+00
1.908000000000000000e+03 3.991304636001586914e+00 -5.783472061157226562e+00 1.502635627985000610e-01 4.361671507358551025e-01 1.759292185306549072e-01 3.056357428431510925e-02
1.909000000000000000e+03 3.364027404785156250e+01 -3.812520599365234375e+01 -1.378333210945129395e+00 -1.229293197393417358e-01 -4.503787457942962646e-01 -6.391191482543945312e-02
1.910000000000000000e+03 3.523492050170898438e+01 -3.990370178222656250e+01 -1.200133919715881348e+00 3.697584867477416992e-01 -2.491126358509063721e-01 6.464507430791854858e-02
1.911000000000000000e+03 2.759593391418457031e+01 -1.238932228088378906e+01 -2.947698831558227539e+00 7.565476894378662109e-01 -6.573453545570373535e-01 -5.188711881637573242e-01
1.912000000000000000e+03 2.649048042297363281e+01 -1.195573806762695312e+01 -3.125935316085815430e+00 5.799177885055541992e-01 -7.638052105903625488e-01 -5.710674524307250977e-01
1.913000000000000000e+03 3.840843582153320312e+01 -1.365507793426513672e+01 -9.227617979049682617e-01 4.846175193786621094e+00 1.177024006843566895e+00 -2.976181745529174805e+00
1.914000000000000000e+03 4.670420837402343750e+01 -1.254220676422119141e+01 -1.028576016426086426e+00 6.706247806549072266e+00 1.703301548957824707e+00 -8.726008534431457520e-01
1.915000000000000000e+03 4.785457611083984375e+01 -1.196240997314453125e+01 -8.226674795150756836e-01 6.207484722137451172e+00 1.615445256233215332e+00 -7.004651427268981934e-01
1.916000000000000000e+03 1.346293449401855469e+01 -1.070995235443115234e+01 -2.012128829956054688e+00 5.021982192993164062e+00 9.029560685157775879e-01 5.117401599884033203e+00
1.917000000000000000e+03 1.439430713653564453e+01 -1.117028522491455078e+01 -2.746025323867797852e+00 4.146649360656738281e+00 4.201871454715728760e-01 4.732394218444824219e+00
1.918000000000000000e+03 6.347537994384765625e+01 -1.593797111511230469e+01 1.692748218774795532e-01 1.498478651046752930e+00 5.003260374069213867e-01 1.150105834007263184e+00
1.919000000000000000e+03 6.306695938110351562e+01 -1.849957275390625000e+01 -3.824233710765838623e-01 1.292903542518615723e+00 2.731440365314483643e-01 1.495732307434082031e+00
1.920000000000000000e+03 7.260265350341796875e+01 -8.173205375671386719e+00 -2.991035813465714455e-03 6.843616008758544922e+00 2.052187442779541016e+00 -1.458032280206680298e-01
1.921000000000000000e+03 5.891877746582031250e+01 -1.913198280334472656e+01 -5.539773106575012207e-01 7.628709077835083008e-01 6.266808509826660156e-02 1.579679131507873535e+00
1.922000000000000000e+03 7.489147949218750000e+01 -2.916479492187500000e+01 7.054041624069213867e-01 8.139833450317382812e+00 2.653571128845214844e+00 -4.478226900100708008e-01
1.923000000000000000e+03 6.413051605224609375e+01 -1.843598937988281250e+01 -2.547304928302764893e-01 1.284470438957214355e+00 3.089219927787780762e-01 1.419153928756713867e+00
1.924000000000000000e+03 7.438039398193359375e+01 -1.166909122467041016e+01 -1.226307973265647888e-01 6.704270362854003906e+00 1.974491834640502930e+00 -4.966065883636474609e-01
1.925000000000000000e+03 4.522962570190429688e+01 -1.999364852905273438e+01 1.723535299301147461e+00 9.022222518920898438e+00 3.223727464675903320e+00 -1.237153887748718262e+00
1.926000000000000000e+03 6.665002441406250000e+01 -1.795520019531250000e+01 1.075004786252975464e-02 1.591538190841674805e+00 4.806864857673645020e-01 5.051676034927368164e-01
1.927000000000000000e+03 7.193733978271484375e+01 -6.174347400665283203e+00 9.325612336397171021e-02 7.345124244689941406e+00 2.231513977050781250e+00 1.713747084140777588e-01
1.928000000000000000e+03 7.449420928955078125e+01 -6.847706794738769531e+00 -2.588029578328132629e-02 7.151636123657226562e+00 2.137726783752441406e+00 -4.835455119609832764e-01
1.929000000000000000e+03 7.404273223876953125e+01 2.210085105895996094e+01 1.885854750871658325e-01 8.285271644592285156e+00 2.542157173156738281e+00 4.518751502037048340e-01
1.930000000000000000e+03 7.358815002441406250e+01 -2.875315845012664795e-01 6.114953756332397461e-01 8.682010650634765625e+00 2.788051843643188477e+00 2.819946222007274628e-02
1.931000000000000000e+03 7.205247497558593750e+01 -1.197242736816406250e+01 -5.960943177342414856e-02 5.929034709930419922e+00 1.760827541351318359e+00 -2.455994188785552979e-01
1.932000000000000000e+03 4.421661758422851562e+01 -3.299960327148437500e+01 -1.344389319419860840e+00 7.072033882141113281e+00 1.718293309211730957e+00 -4.271513819694519043e-01
1.933000000000000000e+03 7.335897064208984375e+01 1.149896907806396484e+01 -3.577853441238403320e-01 9.085306167602539062e+00 2.618256330490112305e+00 4.232196509838104248e-01
1.934000000000000000e+03 4.763475799560546875e+01 -2.438198661804199219e+01 2.204550504684448242e+00 7.509121417999267578e+00 2.914101600646972656e+00 -2.500498294830322266e+00
1.935000000000000000e+03 4.680390930175781250e+01 -2.520667266845703125e+01 2.222873210906982422e+00 8.323418617248535156e+00 3.163887739181518555e+00 -2.500810384750366211e+00
1.936000000000000000e+03 7.104897308349609375e+01 3.846752929687500000e+01 -1.674353331327438354e-01 4.986966133117675781e+00 1.445859313011169434e+00 -1.536358594894409180e-01
1.937000000000000000e+03 7.280682373046875000e+01 -2.308933639526367188e+01 1.329005956649780273e-01 8.464125633239746094e+00 2.579107761383056641e+00 6.534309387207031250e-01
1.938000000000000000e+03 1.912930488586425781e+01 -3.619506072998046875e+01 -1.415573000907897949e+00 -5.698953866958618164e-01 -5.956405401229858398e-01 6.994470953941345215e-01
1.939000000000000000e+03 6.900600433349609375e+01 -3.854306030273437500e+01 2.918278276920318604e-01 2.835020065307617188e+00 9.380543828010559082e-01 5.986523032188415527e-01
1.940000000000000000e+03 6.955249023437500000e+01 -3.665428924560546875e+01 -1.848326623439788818e-01 3.414713621139526367e+00 9.689642786979675293e-01 8.593826889991760254e-01
1.941000000000000000e+03 7.340212249755859375e+01 2.513076972961425781e+01 2.886516451835632324e-01 7.933516502380371094e+00 2.466650485992431641e+00 5.133514404296875000e-01
1.942000000000000000e+03 6.512674808502197266e+00 -1.605253028869628906e+01 7.721810340881347656e-01 6.444010734558105469e+00 2.164857387542724609e+00 7.744140625000000000e-01
1.943000000000000000e+03 6.946747589111328125e+01 -1.310655593872070312e+01 2.399904727935791016e-01 4.463936805725097656e+00 1.411178112030029297e+00 1.369599699974060059e-01
1.944000000000000000e+03 5.619541549682617188e+01 -2.123048973083496094e+01 6.353993415832519531e-01 1.406312108039855957e+00 6.125134229660034180e-01 6.251336336135864258e-01
1.945000000000000000e+03 6.456687164306640625e+01 -1.506467914581298828e+01 6.257145404815673828e-01 1.871448278427124023e+00 7.491488456726074219e-01 9.838737249374389648e-01
1.946000000000000000e+03 3.342502975463867188e+01 -1.304893302917480469e+01 -1.095467925071716309e+00 1.820191860198974609e+00 2.174171656370162964e-01 -1.659726858139038086e+00
1.947000000000000000e+03 2.327008628845214844e+01 -9.250969886779785156e+00 -9.214434027671813965e-01 2.696554362773895264e-01 -1.955363899469375610e-01 -8.461902737617492676e-01
1.948000000000000000e+03 2.266006851196289062e+01 -1.001186752319335938e+01 -1.933726310729980469e+00 1.420076936483383179e-01 -5.375155806541442871e-01 -7.395437359809875488e-01
1.949000000000000000e+03 5.360760879516601562e+01 -2.432697105407714844e+01 1.311771988868713379e+00 4.210445880889892578e+00 1.656665444374084473e+00 -8.780778050422668457e-01
1.950000000000000000e+03 5.458046340942382812e+01 -2.344478607177734375e+01 1.256800770759582520e+00 3.424971818923950195e+00 1.404531717300415039e+00 -3.309989273548126221e-01
1.951000000000000000e+03 5.362916564941406250e+01 -2.595413780212402344e+01 1.313799142837524414e+00 5.107559204101562500e+00 1.926407575607299805e+00 -1.003907918930053711e+00
1.952000000000000000e+03 2.542344474792480469e+01 -1.151411056518554688e+01 -3.271276950836181641e+00 3.855776488780975342e-01 -8.657097816467285156e-01 -7.041567564010620117e-01
1.953000000000000000e+03 7.242857360839843750e+01 2.966079139709472656e+01 -2.764384150505065918e-01 6.927773475646972656e+00 1.995400547981262207e+00 4.888881146907806396e-01
1.954000000000000000e+03 7.395890045166015625e+01 3.057282257080078125e+01 -2.958317697048187256e-01 7.602659225463867188e+00 2.192048311233520508e+00 6.361082792282104492e-01
1.955000000000000000e+03 4.013254928588867188e+01 2.937905311584472656e+01 -3.330305814743041992e-01 5.391607761383056641e+00 1.517573118209838867e+00 3.455685079097747803e-01
1.956000000000000000e+03 4.188325881958007812e+01 2.713658332824707031e+01 1.285540014505386353e-01 5.601511955261230469e+00 1.719019770622253418e+00 8.065276741981506348e-01
1.957000000000000000e+03 4.458732604980468750e+01 3.447004699707031250e+01 -7.525695562362670898e-01 3.974393844604492188e+00 9.665473103523254395e-01 4.956548511981964111e-01
1.958000000000000000e+03 3.972534656524658203e+00 -2.358214187622070312e+01 8.548672795295715332e-01 4.762807369232177734e+00 1.685302495956420898e+00 2.806089639663696289e+00
1.959000000000000000e+03 7.294992065429687500e+01 -3.033758640289306641e+00 2.887881994247436523e-01 8.323758125305175781e+00 2.583764076232910156e+00 -4.568307846784591675e-02
1.960000000000000000e+03 4.726406478881835938e+01 -1.389535808563232422e+01 -1.155441641807556152e+00 6.826808929443359375e+00 1.701410174369812012e+00 -6.160490512847900391e-01
1.961000000000000000e+03 3.403731536865234375e+01 -1.453120422363281250e+01 -1.085275173187255859e+00 1.368283510208129883e+00 8.490248769521713257e-02 -1.439080834388732910e+00
1.962000000000000000e+03 4.622596359252929688e+01 -3.298946380615234375e+01 -8.555561900138854980e-01 7.153581619262695312e+00 1.889407634735107422e+00 -1.065136432647705078e+00
1.963000000000000000e+03 7.610236167907714844e+00 -3.020769309997558594e+01 -2.349935531616210938e+00 5.500818252563476562e+00 9.452647566795349121e-01 1.222474455833435059e+00
1.964000000000000000e+03 4.316657257080078125e+01 -1.521724224090576172e+01 -1.131478428840637207e+00 8.213512420654296875e+00 2.124610185623168945e+00 -1.944949269294738770e+00
1.965000000000000000e+03 3.657498931884765625e+01 9.951207160949707031e+00 2.036544322967529297e+00 6.594649314880371094e+00 2.589358091354370117e+00 -2.633841931819915771e-01
1.966000000000000000e+03 4.742368698120117188e+01 4.123367309570312500e+01 -8.425894975662231445e-01 2.873942375183105469e+00 6.094058752059936523e-01 1.029985472559928894e-01
1.967000000000000000e+03 7.259648323059082031e+00 -3.436516189575195312e+01 -1.202087044715881348e+00 4.663500308990478516e+00 1.038423895835876465e+00 4.266709983348846436e-01
1.968000000000000000e+03 4.473051452636718750e+01 -1.616586303710937500e+01 -8.403417468070983887e-01 8.292170524597167969e+00 2.235548496246337891e+00 -1.226209878921508789e+00
1.969000000000000000e+03 4.981931304931640625e+01 -1.583741664886474609e+01 -1.272345423698425293e+00 5.475225925445556641e+00 1.260864257812500000e+00 -4.686577320098876953e-01
1.970000000000000000e+03 4.951657867431640625e+01 -1.763304710388183594e+01 -4.919709861278533936e-01 5.827862262725830078e+00 1.600767374038696289e+00 -7.860673666000366211e-01
1.971000000000000000e+03 5.887491226196289062e+01 -2.031546401977539062e+01 2.116113603115081787e-01 1.025372982025146484e+00 3.710952997207641602e-01 1.503472208976745605e+00
1.972000000000000000e+03 7.142442321777343750e+01 3.163081359863281250e+01 -6.778115630149841309e-01 6.130226135253906250e+00 1.635724425315856934e+00 2.796058058738708496e-01
1.973000000000000000e+03 1.550285530090332031e+01 3.674574196338653564e-01 -3.457970023155212402e-01 7.137732505798339844e+00 2.037580490112304688e+00 -5.533074140548706055e-01
1.974000000000000000e+03 1.585096836090087891e+01 7.225905656814575195e-01 -2.707022130489349365e-01 7.300815105438232422e+00 2.109033823013305664e+00 2.750949747860431671e-02
1.975000000000000000e+03 1.621635818481445312e+01 -9.102263450622558594e-01 4.411194622516632080e-01 1.262486076354980469e+01 3.919794082641601562e+00 2.638676881790161133e+00
1.976000000000000000e+03 1.526539230346679688e+01 6.442610621452331543e-01 -2.559555768966674805e-01 6.213340282440185547e+00 1.787215352058410645e+00 -8.133926987648010254e-01
1.977000000000000000e+03 1.317350387573242188e+01 -3.725841283798217773e+00 7.101437568664550781e+00 6.187824010848999023e-01 2.316066026687622070e+00 3.698399782180786133e+00
1.978000000000000000e+03 1.611923408508300781e+01 4.464468657970428467e-01 -2.204258888959884644e-01 8.252354621887207031e+00 2.409578561782836914e+00 5.850793719291687012e-01
1.979000000000000000e+03 1.338180446624755859e+01 1.779339075088500977e+00 1.790311485528945923e-01 2.015548944473266602e+00 6.583740115165710449e-01 -8.911011815071105957e-01
1.980000000000000000e+03 1.833071327209472656e+01 -4.343623816967010498e-01 3.468865633010864258e+00 7.320412635803222656e+00 3.236783504486083984e+00 4.269937038421630859e+00
1.981000000000000000e+03 1.893022537231445312e+01 -9.424062371253967285e-01 4.905246734619140625e+00 5.954485893249511719e+00 3.257919788360595703e+00 4.211536407470703125e+00
1.982000000000000000e+03 8.014356613159179688e+00 -4.687744140625000000e+00 1.091212511062622070e+00 8.129758238792419434e-01 5.712564587593078613e-01 1.107603907585144043e+00
1.983000000000000000e+03 1.046884727478027344e+01 -4.085340499877929688e+00 2.688725948333740234e+00 4.815847277641296387e-01 9.510931968688964844e-01 1.861038684844970703e+00
1.984000000000000000e+03 1.319953918457031250e+01 -4.143688678741455078e+00 6.996667385101318359e+00 1.371953964233398438e+00 2.510586500167846680e+00 4.719790458679199219e+00
1.985000000000000000e+03 1.247143745422363281e+01 3.850325822830200195e+00 3.539883792400360107e-01 1.577757120132446289e+00 5.795236229896545410e-01 -6.260778903961181641e-01
1.986000000000000000e+03 1.289272117614746094e+01 2.887245655059814453e+00 2.312028259038925171e-01 1.653840899467468262e+00 5.655131340026855469e-01 -7.389295697212219238e-01
1.987000000000000000e+03 1.934597206115722656e+01 -2.758413791656494141e+00 7.028460979461669922e+00 4.042168140411376953e+00 3.321188688278198242e+00 2.775558471679687500e+00
1.988000000000000000e+03 1.393040180206298828e+01 -6.103068828582763672e+00 2.920088291168212891e+00 5.475217819213867188e+00 2.518591642379760742e+00 6.256170749664306641e+00
1.989000000000000000e+03 1.608954811096191406e+01 -1.004440498352050781e+01 -2.039994716644287109e+00 3.472041368484497070e+00 4.296139776706695557e-01 4.161815166473388672e+00
1.990000000000000000e+03 1.901653861999511719e+01 -1.533064365386962891e+00 6.041124820709228516e+00 5.230286598205566406e+00 3.381423473358154297e+00 4.023172378540039062e+00
1.991000000000000000e+03 1.006938838958740234e+01 4.607437133789062500e+00 3.800828158855438232e-01 4.823661744594573975e-01 2.587347030639648438e-01 -1.298200786113739014e-01
1.992000000000000000e+03 7.341033458709716797e+00 -4.741219997406005859e+00 8.061107993125915527e-01 7.735770344734191895e-01 4.739063382148742676e-01 8.309341669082641602e-01
1.993000000000000000e+03 9.816664695739746094e+00 -4.543575763702392578e+00 2.148872852325439453e+00 7.357606887817382812e-01 8.653900623321533203e-01 1.877257108688354492e+00
1.994000000000000000e+03 5.315443038940429688e+00 -4.757670402526855469e+00 3.346404731273651123e-01 5.163322091102600098e-01 2.552917897701263428e-01 2.130020111799240112e-01
1.995000000000000000e+03 6.043333530426025391e+00 4.681186676025390625e+00 7.401959598064422607e-02 -5.028972402215003967e-02 7.118962239474058151e-03 3.222347795963287354e-01
1.996000000000000000e+03 5.638101577758789062e+00 6.430830001831054688e+00 1.907173991203308105e-01 -2.987768873572349548e-02 4.825191572308540344e-02 2.356440722942352295e-01
1.997000000000000000e+03 3.457605600357055664e+00 6.408931732177734375e+00 7.543778419494628906e-02 -2.480787038803100586e-01 -5.179227888584136963e-02 2.553980648517608643e-01
1.998000000000000000e+03 4.203844070434570312e+00 5.432546138763427734e+00 6.221361458301544189e-02 -1.678660660982131958e-01 -3.169573470950126648e-02 3.015752732753753662e-01
1.999000000000000000e+03 1.989669036865234375e+01 -4.106692790985107422e+00 6.037349700927734375e+00 3.044463634490966797e+00 2.724544048309326172e+00 1.265464186668395996e+00
2.000000000000000000e+03 9.265689849853515625e+00 -4.592491626739501953e+00 1.793532133102416992e+00 7.409111261367797852e-01 7.603330016136169434e-01 1.610877633094787598e+00
2.001000000000000000e+03 1.260353469848632812e+01 3.268459796905517578e+00 3.184966444969177246e-01 1.551055073738098145e+00 5.608655214309692383e-01 -6.369944810867309570e-01
2.002000000000000000e+03 1.563335990905761719e+01 -6.088980197906494141e+00 2.279979228973388672e+00 7.995625495910644531e+00 3.082681417465209961e+00 4.847984313964843750e+00
2.003000000000000000e+03 6.640190124511718750e+00 5.603452205657958984e+00 2.063985466957092285e-01 3.037984296679496765e-02 7.103351503610610962e-02 2.427363991737365723e-01
2.004000000000000000e+03 8.397838592529296875e+00 4.767442226409912109e+00 2.629392743110656738e-01 1.500845700502395630e-01 1.239071562886238098e-01 1.447995454072952271e-01
2.005000000000000000e+03 5.811278820037841797e+00 5.461839199066162109e+00 1.463831216096878052e-01 -4.473153501749038696e-02 3.049547784030437469e-02 2.856924831867218018e-01
2.006000000000000000e+03 6.788831233978271484e+00 4.793890953063964844e+00 1.447555124759674072e-01 -2.202483592554926872e-03 4.276591166853904724e-02 2.827010750770568848e-01
2.007000000000000000e+03 7.477725505828857422e+00 5.631845951080322266e+00 2.708933651447296143e-01 1.222700402140617371e-01 1.179490238428115845e-01 1.778223514556884766e-01
2.008000000000000000e+03 1.896452903747558594e+01 -6.026327610015869141e+00 3.558435201644897461e+00 3.943426609039306641e+00 2.250558614730834961e+00 7.417159080505371094e-01
2.009000000000000000e+03 9.230937004089355469e+00 4.692705154418945312e+00 3.145976066589355469e-01 2.818173170089721680e-01 1.789244711399078369e-01 2.448670379817485809e-02
2.010000000000000000e+03 1.864015960693359375e+01 -1.005665397644042969e+01 -2.848411321640014648e+00 7.405824661254882812e-01 -6.323486566543579102e-01 1.465367078781127930e+00
2.011000000000000000e+03 1.743636512756347656e+01 -7.987433433532714844e+00 2.545132339000701904e-01 4.159492492675781250e+00 1.324201822280883789e+00 2.598967313766479492e+00
2.012000000000000000e+03 8.246709823608398438e+00 6.463942527770996094e+00 3.659000396728515625e-01 3.349490761756896973e-01 2.102547287940979004e-01 3.694951906800270081e-02
2.013000000000000000e+03 2.129714202880859375e+01 -8.732433319091796875e+00 -3.342522680759429932e-01 7.588664889335632324e-01 1.273842751979827881e-01 -3.148688077926635742e-01
2.014000000000000000e+03 1.852245140075683594e+01 -9.049942016601562500e+00 -8.625023365020751953e-01 2.038957118988037109e+00 3.529364466667175293e-01 1.704863071441650391e+00
2.015000000000000000e+03 1.150494098663330078e+01 -1.104424858093261719e+01 -1.523758292198181152e+00 5.986066818237304688e+00 1.338692665100097656e+00 4.351897716522216797e+00
2.016000000000000000e+03 1.063062477111816406e+01 -1.138411331176757812e+01 -1.543624281883239746e+00 6.214619636535644531e+00 1.401298642158508301e+00 3.692477703094482422e+00
2.017000000000000000e+03 3.444945907592773438e+01 -1.360899448394775391e+01 -9.717906713485717773e-01 2.073440551757812500e+00 3.304949700832366943e-01 -1.832387447357177734e+00
2.018000000000000000e+03 1.290611934661865234e+01 -1.131082344055175781e+01 -2.012291193008422852e+00 5.678699016571044922e+00 1.099922418594360352e+00 4.955659389495849609e+00
2.019000000000000000e+03 1.222902870178222656e+01 -1.064025211334228516e+01 -1.727595329284667969e+00 5.662974834442138672e+00 1.180613875389099121e+00 4.726928234100341797e+00
2.020000000000000000e+03 7.422782897949218750e+01 -1.853400230407714844e+01 -8.823689222335815430e-01 7.177503585815429688e+00 1.888540387153625488e+00 -1.776479929685592651e-01
2.021000000000000000e+03 6.924692535400390625e+01 -1.617215156555175781e+01 -1.695808395743370056e-02 3.568962574005126953e+00 1.065601348876953125e+00 -3.344682753086090088e-01
2.022000000000000000e+03 4.410862731933593750e+01 -5.141234397888183594e+00 1.318921707570552826e-02 5.874866485595703125e+00 1.766416788101196289e+00 -2.157841682434082031e+00
2.023000000000000000e+03 4.256217575073242188e+01 -4.760149955749511719e+00 -8.958226535469293594e-04 5.806930541992187500e+00 1.741810441017150879e+00 -2.204667091369628906e+00
2.024000000000000000e+03 3.306121444702148438e+01 -1.424867534637451172e+01 -1.419263958930969238e+00 1.224925041198730469e+00 -5.830167233943939209e-02 -1.091025829315185547e+00
2.025000000000000000e+03 3.048218917846679688e+01 -1.073651409149169922e+01 -1.126481890678405762e+00 1.557342290878295898e+00 1.292581558227539062e-01 -1.451964974403381348e+00
2.026000000000000000e+03 4.916605758666992188e+01 -2.301391029357910156e+01 1.781885266304016113e+00 6.088060855865478516e+00 2.360983848571777344e+00 -2.006052255630493164e+00
2.027000000000000000e+03 4.965681076049804688e+01 -2.738414955139160156e+01 1.810500621795654297e+00 6.525507450103759766e+00 2.500802278518676758e+00 -2.527240753173828125e+00
2.028000000000000000e+03 3.969538879394531250e+01 4.257919788360595703e-01 8.023667335510253906e-01 5.911499500274658203e+00 2.014159917831420898e+00 -1.751464486122131348e+00
2.029000000000000000e+03 4.162675094604492188e+01 -2.550214529037475586e+00 3.256616294384002686e-01 5.770279884338378906e+00 1.828782439231872559e+00 -2.180157423019409180e+00
2.030000000000000000e+03 1.669741058349609375e+01 -9.546016693115234375e+00 -1.692246913909912109e+00 3.139124631881713867e+00 4.340632855892181396e-01 3.531871318817138672e+00
2.031000000000000000e+03 1.454551124572753906e+01 -1.034579944610595703e+01 -2.114120006561279297e+00 4.290475368499755859e+00 6.529065370559692383e-01 4.946383476257324219e+00
2.032000000000000000e+03 4.926764011383056641e+00 -6.239274024963378906e+00 1.873999238014221191e-01 8.452297449111938477e-01 3.097889125347137451e-01 2.980091869831085205e-01
2.033000000000000000e+03 4.105060958862304688e+01 -4.266482830047607422e+00 5.871476233005523682e-02 5.621362686157226562e+00 1.704023241996765137e+00 -2.209408521652221680e+00
2.034000000000000000e+03 4.317297363281250000e+01 -9.441497802734375000e+00 -8.724344968795776367e-01 6.357556343078613281e+00 1.645536661148071289e+00 -1.972509503364562988e+00
2.035000000000000000e+03 4.280816650390625000e+01 -1.388867187500000000e+01 -1.301173090934753418e+00 7.643640518188476562e+00 1.902740120887756348e+00 -2.021290779113769531e+00
2.036000000000000000e+03 4.040032196044921875e+01 -5.084728002548217773e-01 6.369885206222534180e-01 5.860867023468017578e+00 1.949356675148010254e+00 -1.933791637420654297e+00
2.037000000000000000e+03 4.198333740234375000e+01 -6.728044748306274414e-01 5.657762289047241211e-01 6.000024795532226562e+00 1.969740390777587891e+00 -2.190180063247680664e+00
2.038000000000000000e+03 3.892448425292968750e+01 1.268311142921447754e+00 9.910103678703308105e-01 5.864416122436523438e+00 2.056627988815307617e+00 -1.493606925010681152e+00
2.039000000000000000e+03 3.028903388977050781e+01 -1.197621345520019531e+01 -1.699439525604248047e+00 1.327205181121826172e+00 -1.116703078150749207e-01 -1.095935106277465820e+00
2.040000000000000000e+03 5.439206123352050781e+00 -1.379220771789550781e+01 -1.070642024278640747e-01 4.252527236938476562e+00 1.243638873100280762e+00 2.196206450462341309e-01
2.041000000000000000e+03 1.604861068725585938e+01 -6.880011081695556641e+00 1.151374459266662598e+00 6.841145992279052734e+00 2.397756099700927734e+00 4.104743957519531250e+00
2.042000000000000000e+03 2.439550781250000000e+01 -8.952919006347656250e+00 -5.873880386352539062e-01 4.576518237590789795e-01 -3.892085701227188110e-02 -1.082487106323242188e+00
2.043000000000000000e+03 4.631620025634765625e+01 -2.158728218078613281e+01 2.360250473022460938e+00 8.002536773681640625e+00 3.108836174011230469e+00 -1.796280622482299805e+00
2.044000000000000000e+03 4.622189712524414062e+01 -1.120858287811279297e+01 -9.236823916435241699e-01 6.601716041564941406e+00 1.703410148620605469e+00 -1.115580439567565918e+00
2.045000000000000000e+03 3.645465469360351562e+01 7.314499855041503906e+00 1.980788707733154297e+00 6.200901031494140625e+00 2.454506874084472656e+00 -3.605765104293823242e-01
2.046000000000000000e+03 3.791318893432617188e+01 3.847648859024047852e+00 1.435180187225341797e+00 6.128757476806640625e+00 2.269181251525878906e+00 -9.860726594924926758e-01
2.047000000000000000e+03 5.668397903442382812e+01 -2.006546974182128906e+01 2.411656379699707031e-01 8.020597696304321289e-01 3.129676282405853271e-01 9.530988931655883789e-01
2.048000000000000000e+03 6.654615020751953125e+01 -1.671463966369628906e+01 1.628098189830780029e-01 1.973039388656616211e+00 6.407547593116760254e-01 5.155553221702575684e-01
2.049000000000000000e+03 6.760278320312500000e+01 -1.512484359741210938e+01 3.359670937061309814e-01 2.866527080535888672e+00 9.607481956481933594e-01 3.073380291461944580e-01
2.050000000000000000e+03 7.603427124023437500e+01 -2.833423042297363281e+01 6.548757553100585938e-01 7.693144798278808594e+00 2.504406213760375977e+00 -3.447745442390441895e-01
2.051000000000000000e+03 8.603034973144531250e+00 2.823619842529296875e+01 -5.250484868884086609e-02 1.361817359924316406e+00 3.927937448024749756e-01 -3.700648546218872070e-01
2.052000000000000000e+03 8.921968460083007812e+00 3.248392105102539062e+01 -1.232544854283332825e-01 1.490064620971679688e+00 4.100430309772491455e-01 -3.047135472297668457e-01
2.053000000000000000e+03 7.437355804443359375e+01 -1.943770980834960938e+01 -8.497656583786010742e-01 7.493916511535644531e+00 1.993245363235473633e+00 5.861528590321540833e-02
2.054000000000000000e+03 7.460634613037109375e+01 1.564525985717773438e+01 -6.574255414307117462e-03 8.307709693908691406e+00 2.490340709686279297e+00 3.839172422885894775e-01
2.055000000000000000e+03 7.482057952880859375e+01 1.701994895935058594e+01 2.694498747587203979e-02 8.274168014526367188e+00 2.490334033966064453e+00 3.952547311782836914e-01
2.056000000000000000e+03 7.444753265380859375e+01 1.032663059234619141e+01 -1.863288283348083496e-01 8.590224266052246094e+00 2.521168470382690430e+00 5.951715111732482910e-01
2.057000000000000000e+03 7.359946441650390625e+01 3.263058900833129883e+00 6.399303078651428223e-01 9.275545120239257812e+00 2.974642515182495117e+00 4.007759690284729004e-01
2.058000000000000000e+03 7.366749572753906250e+01 1.872924685478210449e+00 6.978498697280883789e-01 9.039611816406250000e+00 2.921238422393798828e+00 2.795648574829101562e-01
2.059000000000000000e+03 3.972111511230468750e+01 4.419779777526855469e+00 1.308034420013427734e+00 6.844444751739501953e+00 2.445743799209594727e+00 -1.356738805770874023e+00
2.060000000000000000e+03 7.452159881591796875e+01 -4.317665576934814453e+00 1.027356609702110291e-01 7.527725219726562500e+00 2.289138317108154297e+00 -4.107990562915802002e-01
2.061000000000000000e+03 7.313163757324218750e+01 -1.881743431091308594e+01 -1.046398758888244629e+00 6.900849342346191406e+00 1.756335139274597168e+00 -4.084564149379730225e-01
2.062000000000000000e+03 7.473161315917968750e+01 -9.250471115112304688e+00 -7.974379509687423706e-02 6.875896453857421875e+00 2.038845777511596680e+00 -5.170850753784179688e-01
2.063000000000000000e+03 7.590393066406250000e+01 5.855113029479980469e+00 2.079207599163055420e-01 7.642996788024902344e+00 2.355275392532348633e+00 5.138317346572875977e-01
2.064000000000000000e+03 7.111954498291015625e+01 -1.479653835296630859e+01 -1.399307101964950562e-01 5.049444198608398438e+00 1.472854018211364746e+00 -4.158844947814941406e-01
2.065000000000000000e+03 7.402859497070312500e+01 -1.759991645812988281e+01 -7.343351244926452637e-01 6.974957942962646484e+00 1.872186779975891113e+00 -2.844727039337158203e-01
2.066000000000000000e+03 8.477382659912109375e+00 2.094034957885742188e+01 5.322486534714698792e-02 1.135274648666381836e+00 3.565498590469360352e-01 -3.691490292549133301e-01
2.067000000000000000e+03 6.877808094024658203e+00 2.378812789916992188e+01 -1.539559889351949096e-04 8.639078140258789062e-01 2.591261565685272217e-01 -3.340874314308166504e-01
2.068000000000000000e+03 7.642335891723632812e+00 -1.173588085174560547e+01 -7.664757966995239258e-01 5.171074390411376953e+00 1.321379542350769043e+00 1.590480327606201172e+00
2.069000000000000000e+03 6.914540863037109375e+01 -1.883526420593261719e+01 -4.682090580463409424e-01 2.438074111938476562e+00 5.909595489501953125e-01 -8.640415668487548828e-01
2.070000000000000000e+03 9.989447593688964844e+00 -1.261439704895019531e+01 -1.216559886932373047e+00 6.921355724334716797e+00 1.711438775062561035e+00 2.926708221435546875e+00
2.071000000000000000e+03 5.879497051239013672e+00 2.767371559143066406e+01 -3.483982384204864502e-02 8.433276414871215820e-01 2.425463348627090454e-01 -2.881389260292053223e-01
2.072000000000000000e+03 6.435333251953125000e+00 -8.911746025085449219e+00 -2.112894952297210693e-01 2.692705869674682617e+00 7.444248795509338379e-01 1.155389070510864258e+00
2.073000000000000000e+03 5.136109828948974609e+00 -9.289741516113281250e+00 -2.013111412525177002e-01 1.976544022560119629e+00 5.325698852539062500e-01 5.040959715843200684e-01
2.074000000000000000e+03 6.597941398620605469e+00 1.591041660308837891e+01 1.240170598030090332e-01 5.902192592620849609e-01 2.142709046602249146e-01 -2.364564239978790283e-01
2.075000000000000000e+03 6.765165328979492188e+00 1.741194725036621094e+01 8.880579471588134766e-02 6.664334535598754883e-01 2.265717685222625732e-01 -2.713711857795715332e-01
2.076000000000000000e+03 6.586858272552490234e+00 1.448524856567382812e+01 1.578937619924545288e-01 5.256885886192321777e-01 2.050747126340866089e-01 -2.004640698432922363e-01
2.077000000000000000e+03 5.403825283050537109e+00 1.304833412170410156e+01 1.423970013856887817e-01 1.994433104991912842e-01 1.025520935654640198e-01 -1.029525548219680786e-01
2.078000000000000000e+03 4.479335308074951172e+00 -2.048425102233886719e+01 1.568604707717895508e+00 4.900397300720214844e+00 1.940700650215148926e+00 1.633878231048583984e+00
2.079000000000000000e+03 2.492617225646972656e+01 -1.007898044586181641e+01 -1.831386089324951172e+00 4.229950904846191406e-01 -4.225172996520996094e-01 -1.041625618934631348e+00
2.080000000000000000e+03 6.565864086151123047e+00 2.007305908203125000e+01 3.926390409469604492e-02 7.096474170684814453e-01 2.246733903884887695e-01 -3.023922145366668701e-01
2.081000000000000000e+03 5.364633560180664062e+00 2.006638526916503906e+01 3.342702612280845642e-02 4.520759880542755127e-01 1.456509083509445190e-01 -2.690973281860351562e-01
2.082000000000000000e+03 3.574920272827148438e+01 1.932783126831054688e+01 9.481213092803955078e-01 6.295293807983398438e+00 2.173024654388427734e+00 -1.021518483757972717e-01
2.083000000000000000e+03 4.008910369873046875e+01 -1.466431903839111328e+01 -1.040562391281127930e+00 6.421213626861572266e+00 1.614195346832275391e+00 -3.037760019302368164e+00
2.084000000000000000e+03 7.257567405700683594e+00 2.816254234313964844e+01 -4.177890345454216003e-02 1.093166708946228027e+00 3.154163360595703125e-01 -3.310212492942810059e-01
2.085000000000000000e+03 9.105321884155273438e+00 6.360656738281250000e+00 4.044070839881896973e-01 5.186765193939208984e-01 2.769250869750976562e-01 -6.801107525825500488e-02
2.086000000000000000e+03 5.323729038238525391e+00 7.490931987762451172e+00 2.008047997951507568e-01 -3.433852642774581909e-02 4.993988201022148132e-02 1.833731681108474731e-01
2.087000000000000000e+03 6.319719314575195312e+00 7.569393634796142578e+00 2.595258653163909912e-01 1.155628114938735962e-01 1.125266030430793762e-01 1.299159228801727295e-01
2.088000000000000000e+03 4.799141311645507812e+01 -2.011121559143066406e+01 1.165654420852661133e+00 6.816938400268554688e+00 2.394777774810791016e+00 -1.226790070533752441e+00
2.089000000000000000e+03 5.170135879516601562e+01 -1.926140213012695312e+01 -6.324701942503452301e-03 3.965330839157104492e+00 1.187701821327209473e+00 -1.110484838485717773e+00
2.090000000000000000e+03 6.716717243194580078e+00 1.300035953521728516e+01 1.914688795804977417e-01 4.902146458625793457e-01 2.045050561428070068e-01 -1.537174433469772339e-01
2.091000000000000000e+03 6.254681110382080078e+00 8.729531288146972656e+00 2.684093713760375977e-01 1.730557680130004883e-01 1.324395388364791870e-01 6.220608577132225037e-02
2.092000000000000000e+03 7.279896736145019531e+00 8.587885856628417969e+00 3.227024078369140625e-01 3.477411568164825439e-01 2.011330723762512207e-01 4.590148106217384338e-03
2.093000000000000000e+03 5.340332984924316406e+00 -1.260917186737060547e+01 -3.318209648132324219e-01 3.657972574234008789e+00 9.978455305099487305e-01 2.009536325931549072e-01
2.094000000000000000e+03 6.520596027374267578e+00 -1.151316738128662109e+01 -5.767106413841247559e-01 4.185206413269042969e+00 1.082548737525939941e+00 9.064599871635437012e-01
2.095000000000000000e+03 3.643868637084960938e+01 1.245174980163574219e+01 1.877058744430541992e+00 6.853481769561767578e+00 2.619162082672119141e+00 -2.714031040668487549e-01
2.096000000000000000e+03 3.689265060424804688e+01 1.346632385253906250e+01 1.739860057830810547e+00 7.153069019317626953e+00 2.667878627777099609e+00 -2.809756100177764893e-01
2.097000000000000000e+03 7.595269775390625000e+01 -2.945046424865722656e+01 3.671238422393798828e-01 7.646919250488281250e+00 2.404212951660156250e+00 -7.047404646873474121e-01
2.098000000000000000e+03 5.782364845275878906e+00 -7.484317779541015625e+00 1.230827569961547852e-01 1.608772993087768555e+00 5.195567011833190918e-01 7.528057694435119629e-01
2.099000000000000000e+03 3.802026367187500000e+01 -1.232845211029052734e+01 -8.691631555557250977e-01 4.633068561553955078e+00 1.129171609878540039e+00 -2.850993871688842773e+00
2.100000000000000000e+03 4.463967132568359375e+01 -1.038817310333251953e+01 -9.470972418785095215e-01 6.614765644073486328e+00 1.700300574302673340e+00 -1.572844147682189941e+00
2.101000000000000000e+03 4.806086349487304688e+01 -2.786765480041503906e+01 1.786771416664123535e+00 7.183940410614013672e+00 2.691213607788085938e+00 -2.546917438507080078e+00
2.102000000000000000e+03 4.649651336669921875e+01 -3.103560256958007812e+01 2.456184774637222290e-01 7.480983734130859375e+00 2.317980527877807617e+00 -1.800763249397277832e+00
2.103000000000000000e+03 4.944791793823242188e+01 -3.077617835998535156e+01 1.102204680442810059e+00 6.648896217346191406e+00 2.325330257415771484e+00 -2.088339090347290039e+00
2.104000000000000000e+03 7.432544708251953125e+01 8.070535659790039062e-01 5.798553228378295898e-01 8.390780448913574219e+00 2.691190958023071289e+00 8.718065917491912842e-03
2.105000000000000000e+03 4.908465576171875000e+01 -1.458399105072021484e+01 -1.204133152961730957e+00 5.908612728118896484e+00 1.411343812942504883e+00 -3.139173686504364014e-01
2.106000000000000000e+03 4.600242614746093750e+01 -1.449852371215820312e+01 -1.161148667335510254e+00 7.416155815124511719e+00 1.876502156257629395e+00 -9.159197807312011719e-01
2.107000000000000000e+03 4.488761520385742188e+01 -1.715282440185546875e+01 -2.058538198471069336e-01 8.666797637939453125e+00 2.538283109664916992e+00 -1.312407732009887695e+00
2.108000000000000000e+03 4.346097946166992188e+01 -1.644803810119628906e+01 -7.203443050384521484e-01 8.961220741271972656e+00 2.472262859344482422e+00 -1.768414616584777832e+00
2.109000000000000000e+03 7.023843383789062500e+01 -1.212652015686035156e+01 1.413292288780212402e-01 5.037990570068359375e+00 1.553795933723449707e+00 7.143272459506988525e-02
2.110000000000000000e+03 3.659976196289062500e+01 8.618695259094238281e+00 2.026946544647216797e+00 6.476082324981689453e+00 2.550908565521240234e+00 -3.203712701797485352e-01
2.111000000000000000e+03 7.192460632324218750e+01 -9.660044670104980469e+00 -7.744180504232645035e-03 6.309111595153808594e+00 1.890410184860229492e+00 -4.303584620356559753e-02
2.112000000000000000e+03 4.447712707519531250e+01 -1.854518890380859375e+01 8.326447606086730957e-01 9.251148223876953125e+00 3.025137901306152344e+00 -1.496557593345642090e+00
2.113000000000000000e+03 5.065510177612304688e+01 -2.937494277954101562e+01 1.680065751075744629e+00 6.304483890533447266e+00 2.395364999771118164e+00 -2.184606790542602539e+00
2.114000000000000000e+03 9.677529335021972656e+00 -1.163905334472656250e+01 -1.206633687019348145e+00 6.165087699890136719e+00 1.487536191940307617e+00 2.968371152877807617e+00
2.115000000000000000e+03 4.867745971679687500e+01 -1.658124351501464844e+01 -8.341414332389831543e-01 6.348437786102294922e+00 1.654288887977600098e+00 -6.163061261177062988e-01
2.116000000000000000e+03 5.258661270141601562e+01 -2.346696090698242188e+01 1.405738711357116699e+00 4.309464454650878906e+00 1.714560985565185547e+00 -1.242256522178649902e+00
2.117000000000000000e+03 3.686773681640625000e+01 1.986518669128417969e+01 8.940483331680297852e-01 6.603384494781494141e+00 2.249229669570922852e+00 8.124688267707824707e-02
2.118000000000000000e+03 3.672760391235351562e+01 -1.267588138580322266e+01 -7.971545457839965820e-01 3.700951576232910156e+00 8.711390495300292969e-01 -2.631419420242309570e+00
2.119000000000000000e+03 7.267507171630859375e+01 -1.303984165191650391e+01 -1.063694506883621216e-01 6.045049190521240234e+00 1.781603932380676270e+00 -4.249527454376220703e-01
2.120000000000000000e+03 3.909836959838867188e+01 2.274628639221191406e+01 5.379484295845031738e-01 6.590827941894531250e+00 2.138633012771606445e+00 4.566902220249176025e-01
2.121000000000000000e+03 4.308496093750000000e+01 -5.825749397277832031e+00 -1.889430284500122070e-01 5.885551452636718750e+00 1.708982586860656738e+00 -2.145837068557739258e+00
2.122000000000000000e+03 4.361344528198242188e+01 -6.859524250030517578e+00 -3.341804742813110352e-01 5.967300415039062500e+00 1.689935922622680664e+00 -2.088197231292724609e+00
2.123000000000000000e+03 7.016323852539062500e+01 -1.401343631744384766e+01 3.689564764499664307e-02 4.613750934600830078e+00 1.395193934440612793e+00 -1.566372364759445190e-01
2.124000000000000000e+03 7.108441162109375000e+01 -1.292784786224365234e+01 8.786222897469997406e-03 5.374298572540283203e+00 1.614925503730773926e+00 -1.964435279369354248e-01
2.125000000000000000e+03 4.181750488281250000e+01 2.880935478210449219e+01 -1.506867855787277222e-01 5.298500537872314453e+00 1.544344067573547363e+00 6.475983858108520508e-01
2.126000000000000000e+03 5.438286972045898438e+01 -2.175515174865722656e+01 8.501397371292114258e-01 2.661249876022338867e+00 1.053416967391967773e+00 -3.764827251434326172e-01
2.127000000000000000e+03 5.322738647460937500e+01 -2.158854103088378906e+01 8.774641752243041992e-01 3.155689001083374023e+00 1.209946036338806152e+00 -8.319455981254577637e-01
2.128000000000000000e+03 1.957879829406738281e+01 -3.981802749633789062e+01 -7.854527831077575684e-01 -5.919927954673767090e-01 -4.132336676120758057e-01 2.850904464721679688e-01
2.129000000000000000e+03 3.639709091186523438e+01 2.405339241027832031e+01 2.993893623352050781e-01 5.956507205963134766e+00 1.876768946647644043e+00 -3.039383888244628906e-02
2.130000000000000000e+03 3.194443702697753906e+01 -4.124218750000000000e+01 -1.145821928977966309e+00 -8.122487366199493408e-02 -3.681140542030334473e-01 -3.784887865185737610e-02
2.131000000000000000e+03 7.521276092529296875e+01 -2.073020553588867188e+01 -6.514002680778503418e-01 7.823875904083251953e+00 2.151742696762084961e+00 4.601843953132629395e-01
2.132000000000000000e+03 4.225930404663085938e+01 3.516186523437500000e+01 -9.350482225418090820e-01 4.450081348419189453e+00 1.054509997367858887e+00 3.366553783416748047e-01
2.133000000000000000e+03 4.039321136474609375e+01 3.232898330688476562e+01 -7.270145416259765625e-01 4.959017753601074219e+00 1.269600987434387207e+00 2.654848098754882812e-01
2.134000000000000000e+03 4.634864807128906250e+01 -3.544090270996093750e+01 -1.564598798751831055e+00 6.640947341918945312e+00 1.522904634475708008e+00 -4.728061258792877197e-01
2.135000000000000000e+03 5.482405471801757812e+01 -2.054233932495117188e+01 5.174291729927062988e-01 1.593757510185241699e+00 6.333560347557067871e-01 -1.693711727857589722e-01
2.136000000000000000e+03 1.282596111297607422e+01 -4.963521480560302734e+00 4.940595626831054688e+00 2.271837234497070312e+00 2.163729906082153320e+00 5.187438964843750000e+00
2.137000000000000000e+03 1.398383712768554688e+01 2.829349517822265625e+00 1.353898644447326660e-01 2.944350481033325195e+00 9.239220619201660156e-01 -8.618435263633728027e-01
2.138000000000000000e+03 1.686837005615234375e+01 4.069944471120834351e-02 8.036354780197143555e-01 9.128083229064941406e+00 2.979515552520751953e+00 2.447863578796386719e+00
2.139000000000000000e+03 1.442480564117431641e+01 6.025589704513549805e-01 1.684252731502056122e-02 3.981225490570068359e+00 1.199420452117919922e+00 -1.305096507072448730e+00
2.140000000000000000e+03 1.771871566772460938e+01 4.268963634967803955e-01 1.339368581771850586e+00 7.940125942230224609e+00 2.783848524093627930e+00 2.956142187118530273e+00
2.141000000000000000e+03 1.175385284423828125e+01 -3.797563552856445312e+00 4.093062400817871094e+00 2.144440710544586182e-01 1.292252063751220703e+00 2.199690103530883789e+00
2.142000000000000000e+03 1.645593452453613281e+01 1.954995244741439819e-01 1.807175129652023315e-01 8.957324028015136719e+00 2.741412401199340820e+00 1.516606450080871582e+00
2.143000000000000000e+03 1.304089832305908203e+01 -4.488202571868896484e+00 5.987530231475830078e+00 1.923899054527282715e+00 2.373428821563720703e+00 5.015817642211914062e+00
2.144000000000000000e+03 1.915262413024902344e+01 -2.134212493896484375e+00 6.757075786590576172e+00 4.665395259857177734e+00 3.426741361618041992e+00 3.447185516357421875e+00
2.145000000000000000e+03 1.949137115478515625e+01 -8.583611845970153809e-01 4.804753303527832031e+00 5.086220264434814453e+00 2.967292070388793945e+00 3.805327177047729492e+00
2.146000000000000000e+03 8.727109909057617188e+00 -5.370639801025390625e+00 1.414101839065551758e+00 1.182375907897949219e+00 7.789433002471923828e-01 1.813996315002441406e+00
2.147000000000000000e+03 1.362109375000000000e+01 3.613152742385864258e+00 2.494200766086578369e-01 2.540510416030883789e+00 8.369791507720947266e-01 -7.678996920585632324e-01
2.148000000000000000e+03 1.179884624481201172e+01 3.730903863906860352e+00 3.656724989414215088e-01 1.059145808219909668e+00 4.274455010890960693e-01 -4.827628731727600098e-01
2.149000000000000000e+03 1.500597572326660156e+01 -6.366420269012451172e+00 2.026846647262573242e+00 7.034531593322753906e+00 2.718413591384887695e+00 5.654404163360595703e+00
2.150000000000000000e+03 1.448491954803466797e+01 -6.182918071746826172e+00 2.554351806640625000e+00 6.475090503692626953e+00 2.708832740783691406e+00 6.098596572875976562e+00
2.151000000000000000e+03 1.959849548339843750e+01 -3.413388252258300781e+00 6.782434940338134766e+00 3.459885120391845703e+00 3.072695970535278320e+00 1.941050887107849121e+00
2.152000000000000000e+03 9.364028930664062500e+00 -5.253519535064697266e+00 1.762063503265380859e+00 1.169410228729248047e+00 8.794421553611755371e-01 2.151142120361328125e+00
2.153000000000000000e+03 1.077062034606933594e+01 -4.841703891754150391e+00 2.863104343414306641e+00 1.005371928215026855e+00 1.160542845726013184e+00 2.778425931930541992e+00
2.154000000000000000e+03 1.537823581695556641e+01 1.272992014884948730e+00 -2.384217828512191772e-01 5.788794994354248047e+00 1.665111899375915527e+00 -6.331710219383239746e-01
2.155000000000000000e+03 1.888404464721679688e+01 -3.430790305137634277e-01 3.771109819412231445e+00 6.236570835113525391e+00 3.002304077148437500e+00 3.990170001983642578e+00
2.156000000000000000e+03 6.859828948974609375e+00 -6.450232505798339844e+00 4.946313202381134033e-01 1.498413801193237305e+00 5.979135632514953613e-01 1.106249690055847168e+00
2.157000000000000000e+03 6.710121631622314453e+00 -5.587710380554199219e+00 5.641961693763732910e-01 1.018433809280395508e+00 4.747889935970306396e-01 8.048754930496215820e-01
2.158000000000000000e+03 7.404119491577148438e+00 -5.469573497772216797e+00 7.816267609596252441e-01 1.147039651870727539e+00 5.785999298095703125e-01 1.120415329933166504e+00
2.159000000000000000e+03 8.706654548645019531e+00 -6.124778270721435547e+00 1.210920095443725586e+00 1.612143635749816895e+00 8.469191193580627441e-01 2.141566038131713867e+00
2.160000000000000000e+03 6.478476047515869141e+00 6.530836582183837891e+00 2.454965561628341675e-01 6.373522430658340454e-02 9.276953339576721191e-02 1.916761100292205811e-01
2.161000000000000000e+03 1.700335311889648438e+01 -5.913155078887939453e+00 3.157215595245361328e+00 7.329784870147705078e+00 3.146100282669067383e+00 2.119867563247680664e+00
2.162000000000000000e+03 8.328678131103515625e+00 5.589647293090820312e+00 3.229292631149291992e-01 2.471968382596969604e-01 1.710378378629684448e-01 8.646177500486373901e-02
2.163000000000000000e+03 1.643618583679199219e+01 -8.440711021423339844e+00 -4.089652299880981445e-01 4.678637981414794922e+00 1.280901789665222168e+00 3.832848310470581055e+00
2.164000000000000000e+03 1.167781543731689453e+01 4.559754848480224609e+00 4.088513851165771484e-01 1.148511528968811035e+00 4.672088623046875000e-01 -4.461131393909454346e-01
2.165000000000000000e+03 1.515542507171630859e+01 -9.611050605773925781e+00 -1.510495185852050781e+00 4.442425727844238281e+00 8.795791864395141602e-01 4.815054416656494141e+00
2.166000000000000000e+03 1.535049629211425781e+01 -1.033421993255615234e+01 -2.375667810440063477e+00 3.859223365783691406e+00 4.450666606426239014e-01 4.493415355682373047e+00
2.167000000000000000e+03 1.975525665283203125e+01 -1.998559236526489258e+00 6.149500846862792969e+00 4.028349876403808594e+00 3.053355216979980469e+00 3.206477880477905273e+00
2.168000000000000000e+03 1.718505668640136719e+01 -8.859032630920410156e+00 -1.020489931106567383e+00 3.498625755310058594e+00 7.434407472610473633e-01 2.981677770614624023e+00
2.169000000000000000e+03 1.614994812011718750e+01 -9.022965431213378906e+00 -1.224115490913391113e+00 4.427375316619873047e+00 9.609779119491577148e-01 4.140568733215332031e+00
2.170000000000000000e+03 1.089606666564941406e+01 4.548921108245849609e+00 4.061259031295776367e-01 7.958511710166931152e-01 3.605931103229522705e-01 -3.023262619972229004e-01
2.171000000000000000e+03 8.198075294494628906e+00 7.392682075500488281e+00 3.706370592117309570e-01 4.321235418319702148e-01 2.408281862735748291e-01 -1.276704110205173492e-02
2.172000000000000000e+03 2.259873390197753906e+01 -8.647285461425781250e+00 -1.879961937665939331e-01 5.170767307281494141e-01 9.872416406869888306e-02 -7.726116776466369629e-01
2.173000000000000000e+03 1.934884643554687500e+01 -8.912454605102539062e+00 -5.084750652313232422e-01 1.643359899520874023e+00 3.404654264450073242e-01 8.762612342834472656e-01
2.174000000000000000e+03 2.377271270751953125e+01 -8.631427764892578125e+00 -2.027651220560073853e-01 4.815320670604705811e-01 8.363008499145507812e-02 -1.034723043441772461e+00
2.175000000000000000e+03 2.110299682617187500e+01 -7.382844448089599609e+00 1.587629556655883789e+00 1.232264757156372070e+00 8.459683060646057129e-01 -2.022368162870407104e-01
2.176000000000000000e+03 1.277255725860595703e+01 -1.019761466979980469e+01 -1.565012931823730469e+00 5.492688179016113281e+00 1.178302526473999023e+00 5.172403812408447266e+00
2.177000000000000000e+03 8.094959259033203125e+00 -6.054163455963134766e+00 9.722771048545837402e-01 1.511875033378601074e+00 7.452456355094909668e-01 1.739149332046508789e+00
2.178000000000000000e+03 8.180260658264160156e+00 -1.012057590484619141e+01 -6.810410618782043457e-01 4.331453323364257812e+00 1.095123767852783203e+00 2.184884071350097656e+00
2.179000000000000000e+03 8.048408508300781250e+00 1.327806186676025391e+01 2.264320552349090576e-01 7.913748025894165039e-01 3.053420484066009521e-01 -2.173877507448196411e-01
2.180000000000000000e+03 8.096915245056152344e+00 1.716928291320800781e+01 1.277237236499786377e-01 9.362418055534362793e-01 3.191896677017211914e-01 -3.072799146175384521e-01
2.181000000000000000e+03 1.379142475128173828e+01 -1.009497356414794922e+01 -1.787537217140197754e+00 4.803443431854248047e+00 9.047718048095703125e-01 5.272120952606201172e+00
2.182000000000000000e+03 9.999397277832031250e+00 5.427400588989257812e+00 4.171756803989410400e-01 6.268869638442993164e-01 3.132188022136688232e-01 -1.638901680707931519e-01
2.183000000000000000e+03 4.272630691528320312e+01 -7.435765266418457031e+00 -5.100024342536926270e-01 5.972779273986816406e+00 1.638833045959472656e+00 -2.128410100936889648e+00
2.184000000000000000e+03 6.532386779785156250e+01 -1.696541023254394531e+01 1.160976812243461609e-01 1.670601725578308105e+00 5.360097885131835938e-01 9.580860137939453125e-01
2.185000000000000000e+03 4.502422714233398438e+01 -1.170210742950439453e+01 -1.116383671760559082e+00 6.884387016296386719e+00 1.730401039123535156e+00 -1.406201720237731934e+00
2.186000000000000000e+03 4.459474945068359375e+01 -1.491379833221435547e+01 -1.136549711227416992e+00 8.052192687988281250e+00 2.074692726135253906e+00 -1.283349752426147461e+00
2.187000000000000000e+03 4.532733154296875000e+01 -1.802872467041015625e+01 -4.449364170432090759e-02 8.600690841674804688e+00 2.566859245300292969e+00 -1.009447693824768066e+00
2.188000000000000000e+03 4.104443359375000000e+01 -1.501777648925781250e+00 4.473014175891876221e-01 5.865688323974609375e+00 1.893896937370300293e+00 -2.081162691116333008e+00
2.189000000000000000e+03 1.741735267639160156e+01 -7.063209056854248047e+00 1.503502130508422852e+00 5.171687602996826172e+00 2.002557039260864258e+00 2.175312280654907227e+00
2.190000000000000000e+03 1.971203422546386719e+01 -5.787137985229492188e+00 3.917369604110717773e+00 2.955712318420410156e+00 2.061924457550048828e+00 4.694149494171142578e-01
2.191000000000000000e+03 1.917218017578125000e+01 -7.947184562683105469e+00 6.533447504043579102e-01 2.519788742065429688e+00 9.519400596618652344e-01 9.262886643409729004e-01
2.192000000000000000e+03 4.338691329956054688e+01 -1.075232219696044922e+01 -1.091536998748779297e+00 6.677198886871337891e+00 1.675698637962341309e+00 -1.899937987327575684e+00
2.193000000000000000e+03 7.050447845458984375e+01 -1.773967742919921875e+01 -5.728808045387268066e-01 4.300964355468750000e+00 1.118425011634826660e+00 -9.239659309387207031e-01
2.194000000000000000e+03 3.809881591796875000e+01 2.260655611753463745e-01 9.675291180610656738e-01 5.474832057952880859e+00 1.932708382606506348e+00 -1.491348981857299805e+00
2.195000000000000000e+03 2.797618484497070312e+01 -1.127556228637695312e+01 -2.042366743087768555e+00 9.549939036369323730e-01 -3.262118697166442871e-01 -9.997586607933044434e-01
2.196000000000000000e+03 2.691308021545410156e+01 -1.085446929931640625e+01 -2.099937438964843750e+00 7.819712162017822266e-01 -3.953899145126342773e-01 -1.045167803764343262e+00
2.197000000000000000e+03 2.589102363586425781e+01 -1.044224929809570312e+01 -1.918164610862731934e+00 5.421209335327148438e-01 -4.128130972385406494e-01 -1.070474147796630859e+00
2.198000000000000000e+03 2.629161834716796875e+01 -9.287323951721191406e+00 -8.004041910171508789e-01 7.561204433441162109e-01 -1.328513026237487793e-02 -1.257311940193176270e+00
2.199000000000000000e+03 7.742214679718017578e+00 -1.081480693817138672e+01 -7.164018750190734863e-01 4.625555992126464844e+00 1.172746181488037109e+00 1.759577274322509766e+00
2.200000000000000000e+03 5.083238983154296875e+01 -2.176403236389160156e+01 1.239871859550476074e+00 4.895695686340332031e+00 1.840670228004455566e+00 -1.541768193244934082e+00
2.201000000000000000e+03 7.876807212829589844e+00 -8.574420928955078125e+00 -7.738549262285232544e-02 3.179238796234130859e+00 9.305559992790222168e-01 2.101119279861450195e+00
2.202000000000000000e+03 3.731347274780273438e+01 9.156436920166015625e-01 1.153461337089538574e+00 5.345850944519042969e+00 1.949793577194213867e+00 -1.256912112236022949e+00
2.203000000000000000e+03 6.509535789489746094e+00 2.247350692749023438e+01 1.034627947956323624e-02 7.670661807060241699e-01 2.332237511873245239e-01 -3.185760378837585449e-01
2.204000000000000000e+03 8.690479278564453125e+00 2.458262062072753906e+01 -4.727005492895841599e-03 1.269929289817810059e+00 3.795606791973114014e-01 -3.942914009094238281e-01
2.205000000000000000e+03 7.440674591064453125e+01 -1.360430145263671875e+01 -2.121626138687133789e-01 6.623775959014892578e+00 1.923484086990356445e+00 -4.937096834182739258e-01
2.206000000000000000e+03 7.366676330566406250e+01 -1.439396572113037109e+01 -3.123484253883361816e-01 6.328495025634765625e+00 1.804843902587890625e+00 -4.944023787975311279e-01
2.207000000000000000e+03 7.319731140136718750e+01 -1.146950912475585938e+01 -8.834356814622879028e-02 6.355162620544433594e+00 1.880045771598815918e+00 -3.530302643775939941e-01
2.208000000000000000e+03 7.177386474609375000e+01 -1.782874488830566406e+01 -8.113313317298889160e-01 5.591675758361816406e+00 1.434103369712829590e+00 -8.773204684257507324e-01
2.209000000000000000e+03 7.296775054931640625e+01 -1.771279716491699219e+01 -8.841892480850219727e-01 6.500555038452148438e+00 1.684909820556640625e+00 -5.726422071456909180e-01
2.210000000000000000e+03 3.515775299072265625e+01 2.259592247009277344e+01 4.910687804222106934e-01 5.919694900512695312e+00 1.923229098320007324e+00 -1.547187566757202148e-01
2.211000000000000000e+03 2.011620712280273438e+01 -8.663042068481445312e+00 -3.674586415290832520e-01 1.134539365768432617e+00 2.301242202520370483e-01 3.352273702621459961e-01
2.212000000000000000e+03 1.830842208862304688e+01 -8.042043685913085938e+00 3.305594623088836670e-01 3.122471094131469727e+00 1.035909175872802734e+00 1.627763986587524414e+00
2.213000000000000000e+03 7.684267997741699219e+00 1.580911350250244141e+01 1.374848037958145142e-01 7.943657636642456055e-01 2.795551717281341553e-01 -2.590487897396087646e-01
2.214000000000000000e+03 4.417160415649414062e+01 -1.350751686096191406e+01 -1.334043622016906738e+00 7.517434597015380859e+00 1.855017304420471191e+00 -1.548169970512390137e+00
2.215000000000000000e+03 3.718842315673828125e+01 2.638450384140014648e+00 1.377978920936584473e+00 5.645786762237548828e+00 2.107129573822021484e+00 -9.818658828735351562e-01
2.216000000000000000e+03 8.838102340698242188e+00 1.862170982360839844e+01 1.038194820284843445e-01 1.153369307518005371e+00 3.771566450595855713e-01 -3.478949368000030518e-01
2.217000000000000000e+03 7.670125961303710938e+00 1.956819725036621094e+01 6.427770107984542847e-02 9.155974984169006348e-01 2.939625680446624756e-01 -3.342609703540802002e-01
2.218000000000000000e+03 6.897652435302734375e+01 -1.477760314941406250e+01 2.079950124025344849e-01 3.846064567565917969e+00 1.216217875480651855e+00 -2.828645147383213043e-02
2.219000000000000000e+03 6.784264373779296875e+01 -1.642891883850097656e+01 1.870708018541336060e-01 2.635621070861816406e+00 8.468075990676879883e-01 1.084798872470855713e-01
2.220000000000000000e+03 6.867749214172363281e+00 -7.994178771972656250e+00 1.144071891903877258e-01 2.335789203643798828e+00 7.350589036941528320e-01 1.367743015289306641e+00
2.221000000000000000e+03 7.278378963470458984e+00 7.515855789184570312e+00 3.231959342956542969e-01 2.614934444427490234e-01 1.754068136215209961e-01 6.477916985750198364e-02
2.222000000000000000e+03 5.115332794189453125e+01 -2.669694709777832031e+01 1.824131846427917480e+00 5.953459739685058594e+00 2.333277463912963867e+00 -2.196980476379394531e+00
2.223000000000000000e+03 4.905855178833007812e+01 -1.861898612976074219e+01 1.805892772972583771e-02 6.000461101531982422e+00 1.805555939674377441e+00 -8.810515999794006348e-01
2.224000000000000000e+03 9.890993118286132812e+00 7.097730159759521484e+00 4.377944469451904297e-01 8.404462337493896484e-01 3.834722042083740234e-01 -1.978297084569931030e-01
2.225000000000000000e+03 6.625096797943115234e+00 1.146465587615966797e+01 2.303444743156433105e-01 4.047939181327819824e-01 1.905415207147598267e-01 -9.515008330345153809e-02
2.226000000000000000e+03 3.973194503784179688e+01 -1.328700447082519531e+01 -1.041784644126892090e+00 5.867063522338867188e+00 1.447583675384521484e+00 -2.915058612823486328e+00
2.227000000000000000e+03 3.931457138061523438e+01 -1.190783214569091797e+01 -1.043533325195312500e+00 5.465312480926513672e+00 1.326533794403076172e+00 -2.768175601959228516e+00
2.228000000000000000e+03 7.155518054962158203e+00 3.016572380065917969e+01 -6.870522350072860718e-02 1.140142202377319336e+00 3.214310705661773682e-01 -3.017877042293548584e-01
2.229000000000000000e+03 1.062083721160888672e+01 2.964354133605957031e+01 -1.003910750150680542e-01 1.726756572723388672e+00 4.879096448421478271e-01 -3.915838599205017090e-01
2.230000000000000000e+03 3.601530838012695312e+01 -1.015334701538085938e+01 -5.867404341697692871e-01 3.710774183273315430e+00 9.372101426124572754e-01 -2.428083896636962891e+00
2.231000000000000000e+03 4.139818191528320312e+01 -5.497555255889892578e+00 -1.604978889226913452e-01 5.700023651123046875e+00 1.661857724189758301e+00 -2.193901777267456055e+00
2.232000000000000000e+03 4.207389068603515625e+01 -6.594329833984375000e+00 -3.283451497554779053e-01 5.792369842529296875e+00 1.639207363128662109e+00 -2.200022459030151367e+00
2.233000000000000000e+03 5.147447967529296875e+01 -2.267126274108886719e+01 1.364643335342407227e+00 4.577390193939208984e+00 1.782610058784484863e+00 -1.499534726142883301e+00
2.234000000000000000e+03 5.044212341308593750e+01 -1.956709480285644531e+01 1.649308651685714722e-01 4.925459384918212891e+00 1.527117133140563965e+00 -1.104741811752319336e+00
2.235000000000000000e+03 5.194237899780273438e+01 -2.043285560607910156e+01 4.485460221767425537e-01 3.710807323455810547e+00 1.247805953025817871e+00 -1.094115734100341797e+00
2.236000000000000000e+03 7.814743041992187500e+00 1.101288795471191406e+01 2.846456170082092285e-01 6.344277858734130859e-01 2.757220268249511719e-01 -1.379652321338653564e-01
2.237000000000000000e+03 3.396664428710937500e+01 1.979549598693847656e+01 8.838746547698974609e-01 5.835636615753173828e+00 2.015853404998779297e+00 -2.164089381694793701e-01
2.238000000000000000e+03 3.558531570434570312e+01 1.412418365478515625e+01 1.674382328987121582e+00 6.579158782958984375e+00 2.476062297821044922e+00 -1.778612285852432251e-01
2.239000000000000000e+03 4.813369750976562500e+01 -2.938202857971191406e+01 1.357969284057617188e+00 7.112460613250732422e+00 2.541129112243652344e+00 -2.365589857101440430e+00
2.240000000000000000e+03 4.787504959106445312e+01 -2.653928947448730469e+01 1.895156145095825195e+00 7.305251121520996094e+00 2.760122299194335938e+00 -2.604649782180786133e+00
2.241000000000000000e+03 4.960839080810546875e+01 -2.187234687805175781e+01 1.645615577697753906e+00 5.768555164337158203e+00 2.224251270294189453e+00 -1.720912337303161621e+00
2.242000000000000000e+03 4.402597808837890625e+01 -7.948200702667236328e+00 -5.596831440925598145e-01 6.154596328735351562e+00 1.678473949432373047e+00 -1.932261228561401367e+00
2.243000000000000000e+03 7.200788879394531250e+01 -1.918445968627929688e+01 -1.248613119125366211e+00 6.189645767211914062e+00 1.482309818267822266e+00 -9.119796156883239746e-01
2.244000000000000000e+03 5.071286392211914062e+01 -3.302414703369140625e+01 4.689313471317291260e-01 6.664013862609863281e+00 2.139883518218994141e+00 -1.243289709091186523e+00
2.245000000000000000e+03 5.228816604614257812e+01 -3.150742530822753906e+01 1.597461700439453125e+00 6.782646656036376953e+00 2.514032602310180664e+00 -1.585000753402709961e+00
2.246000000000000000e+03 4.948406219482421875e+01 -2.942185783386230469e+01 1.489532470703125000e+00 6.708097934722900391e+00 2.459289073944091797e+00 -2.380227088928222656e+00
2.247000000000000000e+03 4.144889068603515625e+01 -1.427779197692871094e+01 -1.190610289573669434e+00 7.293900012969970703e+00 1.830986857414245605e+00 -2.605164289474487305e+00
2.248000000000000000e+03 4.923316574096679688e+01 -1.979945755004882812e+01 7.435789108276367188e-01 5.908032894134521484e+00 1.995483517646789551e+00 -1.328664064407348633e+00
2.249000000000000000e+03 4.546240615844726562e+01 -1.894445800781250000e+01 9.801331758499145508e-01 8.916271209716796875e+00 2.968921184539794922e+00 -1.267456889152526855e+00
2.250000000000000000e+03 5.223918533325195312e+01 -3.495872116088867188e+01 -1.541095227003097534e-01 6.902084827423095703e+00 2.024392604827880859e+00 -8.071570992469787598e-01
2.251000000000000000e+03 4.852330017089843750e+01 -2.128518104553222656e+01 1.565465450286865234e+00 6.430242061614990234e+00 2.398712396621704102e+00 -1.627328515052795410e+00
2.252000000000000000e+03 5.013699722290039062e+01 -1.852427101135253906e+01 -1.887254714965820312e-01 5.158179759979248047e+00 1.490836262702941895e+00 -1.064611196517944336e+00
2.253000000000000000e+03 7.695582389831542969e+00 -1.278600025177001953e+01 -6.017546057701110840e-01 5.837426662445068359e+00 1.570701718330383301e+00 1.424062132835388184e+00
2.254000000000000000e+03 3.761450195312500000e+01 2.240719223022460938e+01 5.552439689636230469e-01 6.415187358856201172e+00 2.091129302978515625e+00 1.902230083942413330e-01
2.255000000000000000e+03 5.068597793579101562e+01 -2.064490890502929688e+01 8.436009287834167480e-01 4.975488662719726562e+00 1.745726943016052246e+00 -1.356591105461120605e+00
2.256000000000000000e+03 7.345241546630859375e+00 2.538843154907226562e+01 -1.415580883622169495e-02 1.032653212547302246e+00 3.055492341518402100e-01 -3.588123619556427002e-01
2.257000000000000000e+03 7.183705139160156250e+01 -1.368684005737304688e+01 -1.465142965316772461e-01 5.594186305999755859e+00 1.634301662445068359e+00 -3.409463763236999512e-01
2.258000000000000000e+03 3.500497817993164062e+01 -1.170106601715087891e+01 -7.435200810432434082e-01 2.905557155609130859e+00 6.486111283302307129e-01 -2.240817308425903320e+00
2.259000000000000000e+03 3.219411849975585938e+01 -1.173170948028564453e+01 -1.103657126426696777e+00 1.821924686431884766e+00 2.154802680015563965e-01 -1.577356815338134766e+00
2.260000000000000000e+03 3.355980682373046875e+01 -1.170975112915039062e+01 -9.210072755813598633e-01 2.328939676284790039e+00 4.223797023296356201e-01 -1.923832535743713379e+00
2.261000000000000000e+03 3.767971038818359375e+01 2.579550170898437500e+01 8.469005674123764038e-02 5.920376300811767578e+00 1.801519989967346191e+00 1.069042310118675232e-01
2.262000000000000000e+03 5.273167419433593750e+01 -2.526371574401855469e+01 1.564058065414428711e+00 4.998794555664062500e+00 1.968855857849121094e+00 -1.442400932312011719e+00
2.263000000000000000e+03 5.200593948364257812e+01 -2.162694168090820312e+01 1.036146759986877441e+00 3.967038393020629883e+00 1.500955581665039062e+00 -1.253714799880981445e+00
2.264000000000000000e+03 2.831866645812988281e+01 -1.020231628417968750e+01 -1.282675862312316895e+00 1.122116804122924805e+00 -4.816772043704986572e-02 -1.300296902656555176e+00
2.265000000000000000e+03 3.484359359741210938e+01 1.128376865386962891e+01 1.964167475700378418e+00 6.039832592010498047e+00 2.401200056076049805e+00 -1.153904423117637634e-01
2.266000000000000000e+03 3.512425613403320312e+01 9.935790061950683594e+00 2.042739629745483398e+00 5.994070053100585938e+00 2.411042928695678711e+00 -1.472910642623901367e-01
2.267000000000000000e+03 7.441710948944091797e+00 -3.223242187500000000e+01 -1.926843166351318359e+00 4.908759593963623047e+00 8.945749402046203613e-01 7.424053549766540527e-01
2.268000000000000000e+03 1.223305034637451172e+01 -4.757564067840576172e+00 4.576878547668457031e+00 1.419548630714416504e+00 1.798928141593933105e+00 4.151561737060546875e+00
2.269000000000000000e+03 1.560518836975097656e+01 9.820863604545593262e-01 -2.984201014041900635e-01 6.480011940002441406e+00 1.854477524757385254e+00 -3.629231750965118408e-01
2.270000000000000000e+03 1.422078800201416016e+01 1.017958998680114746e+00 9.718766435980796814e-03 3.381926774978637695e+00 1.017493605613708496e+00 -1.186099886894226074e+00
2.271000000000000000e+03 1.303260231018066406e+01 -5.784532070159912109e+00 3.606035470962524414e+00 3.674179553985595703e+00 2.184064388275146484e+00 5.830132484436035156e+00
2.272000000000000000e+03 1.016054725646972656e+01 -5.560276031494140625e+00 2.103661298751831055e+00 1.459762930870056152e+00 1.069027185440063477e+00 2.813216924667358398e+00
2.273000000000000000e+03 1.336546802520751953e+01 -6.281406879425048828e+00 2.830264329910278320e+00 4.575204372406005859e+00 2.221640586853027344e+00 6.121912479400634766e+00
2.274000000000000000e+03 1.204421329498291016e+01 -4.055625438690185547e+00 4.631589412689208984e+00 5.517634749412536621e-01 1.555005908012390137e+00 2.964090824127197266e+00
2.275000000000000000e+03 1.450190162658691406e+01 2.600101470947265625e+00 4.652741551399230957e-02 3.665979623794555664e+00 1.113752126693725586e+00 -8.254556059837341309e-01
2.276000000000000000e+03 1.373791313171386719e+01 2.273986816406250000e+00 1.425168514251708984e-01 2.620417356491088867e+00 8.288802504539489746e-01 -9.251053929328918457e-01
2.277000000000000000e+03 1.243033027648925781e+01 4.606690883636474609e+00 3.878800272941589355e-01 1.647563934326171875e+00 6.106331944465637207e-01 -5.820511579513549805e-01
2.278000000000000000e+03 9.941429138183593750e+00 -5.043422222137451172e+00 2.243463993072509766e+00 1.073968529701232910e+00 9.952297210693359375e-01 2.400588512420654297e+00
2.279000000000000000e+03 1.202481079101562500e+01 -5.336737632751464844e+00 3.832344055175781250e+00 1.965598702430725098e+00 1.739382863044738770e+00 4.503184795379638672e+00
2.280000000000000000e+03 1.959220504760742188e+01 -1.426208734512329102e+00 5.590701580047607422e+00 4.641654014587402344e+00 3.069706678390502930e+00 3.594557762145996094e+00
2.281000000000000000e+03 1.445812416076660156e+01 -6.738211631774902344e+00 1.701944351196289062e+00 6.109354019165039062e+00 2.343389511108398438e+00 5.862984180450439453e+00
2.282000000000000000e+03 1.440076446533203125e+01 -7.844286918640136719e+00 2.679460942745208740e-01 5.490875720977783203e+00 1.727646470069885254e+00 5.555509567260742188e+00
2.283000000000000000e+03 1.998429870605468750e+01 -2.591007471084594727e+00 6.353541851043701172e+00 3.459046125411987305e+00 2.943776369094848633e+00 2.560657024383544922e+00
2.284000000000000000e+03 1.314120388031005859e+01 4.469831466674804688e+00 3.380140364170074463e-01 2.153116703033447266e+00 7.473391890525817871e-01 -6.522314548492431641e-01
2.285000000000000000e+03 1.304700469970703125e+01 3.265557289123535156e+00 2.998588979244232178e-01 1.924632906913757324e+00 6.673475503921508789e-01 -7.700978517532348633e-01
2.286000000000000000e+03 1.570116138458251953e+01 -9.376257896423339844e+00 -1.593671798706054688e+00 4.314355373382568359e+00 8.162050247192382812e-01 4.413079738616943359e+00
2.287000000000000000e+03 1.827913856506347656e+01 1.359674632549285889e-01 2.399374723434448242e+00 7.240234851837158203e+00 2.891882896423339844e+00 3.563960075378417969e+00
2.288000000000000000e+03 1.612856101989746094e+01 -6.332168102264404297e+00 1.918267607688903809e+00 7.817207336425781250e+00 2.920642375946044922e+00 3.863097667694091797e+00
2.289000000000000000e+03 7.529008865356445312e+00 -6.147720336914062500e+00 7.114109396934509277e-01 1.502325534820556641e+00 6.641209721565246582e-01 1.419814586639404297e+00
2.290000000000000000e+03 1.721046066284179688e+01 -6.392242908477783203e+00 2.360895872116088867e+00 6.338970184326171875e+00 2.609959840774536133e+00 2.241523027420043945e+00
2.291000000000000000e+03 2.034385871887207031e+01 -6.283868312835693359e+00 3.101567745208740234e+00 2.280458688735961914e+00 1.614607930183410645e+00 1.697940528392791748e-01
2.292000000000000000e+03 2.066431999206542969e+01 -3.879206895828247070e+00 5.648449420928955078e+00 2.406562089920043945e+00 2.416503429412841797e+00 1.244351029396057129e+00
2.293000000000000000e+03 1.157053279876708984e+01 5.381434440612792969e+00 4.427686035633087158e-01 1.243858933448791504e+00 5.059882998466491699e-01 -4.260920584201812744e-01
2.294000000000000000e+03 9.070796012878417969e+00 7.240494728088378906e+00 4.165970087051391602e-01 6.184570789337158203e-01 3.105162382125854492e-01 -1.002978235483169556e-01
2.295000000000000000e+03 8.231739997863769531e+00 8.371688842773437500e+00 3.713475167751312256e-01 5.303725004196166992e-01 2.705160081386566162e-01 -6.058756634593009949e-02
2.296000000000000000e+03 2.527058029174804688e+01 -9.034422874450683594e+00 -5.236269235610961914e-01 5.596230030059814453e-01 1.079881377518177032e-02 -1.191464185714721680e+00
2.297000000000000000e+03 2.325742530822753906e+01 -8.043849945068359375e+00 4.885198175907135010e-01 5.078608393669128418e-01 2.989141941070556641e-01 -8.183087706565856934e-01
2.298000000000000000e+03 1.316871452331542969e+01 -9.728220939636230469e+00 -1.342874646186828613e+00 5.132795333862304688e+00 1.136976122856140137e+00 5.380608081817626953e+00
2.299000000000000000e+03 9.002934455871582031e+00 -9.777890205383300781e+00 -5.319573879241943359e-01 4.417736530303955078e+00 1.165733814239501953e+00 2.794120788574218750e+00
2.300000000000000000e+03 1.103800106048583984e+01 -1.024012756347656250e+01 -1.235326409339904785e+00 5.505414962768554688e+00 1.281026601791381836e+00 4.207279205322265625e+00
2.301000000000000000e+03 1.912727165222167969e+01 -6.980016231536865234e+00 2.154202461242675781e+00 3.155570507049560547e+00 1.592931866645812988e+00 7.296143770217895508e-01
2.302000000000000000e+03 1.171735382080078125e+01 -9.961668014526367188e+00 -1.083918452262878418e+00 5.425394058227539062e+00 1.302442669868469238e+00 4.757318973541259766e+00
2.303000000000000000e+03 4.021292114257812500e+01 -6.442339420318603516e+00 -2.751821577548980713e-01 5.450493335723876953e+00 1.552593350410461426e+00 -2.288577795028686523e+00
2.304000000000000000e+03 4.015185165405273438e+01 -2.340569257736206055e+00 4.064622223377227783e-01 5.596849441528320312e+00 1.800993561744689941e+00 -2.033761501312255859e+00
2.305000000000000000e+03 4.007690048217773438e+01 -4.103971481323242188e+00 1.329445391893386841e-01 5.444598674774169922e+00 1.673262953758239746e+00 -2.139165163040161133e+00
2.306000000000000000e+03 4.633269882202148438e+01 -1.768831825256347656e+01 1.866828999482095242e-03 7.962761402130126953e+00 2.389388561248779297e+00 -9.772685170173645020e-01
2.307000000000000000e+03 2.042116928100585938e+01 -5.570792675018310547e+00 4.131921291351318359e+00 2.325785636901855469e+00 1.937312126159667969e+00 3.440421223640441895e-01
2.308000000000000000e+03 3.952025985717773438e+01 -1.416952371597290039e+00 5.669816732406616211e-01 5.585596561431884766e+00 1.845773577690124512e+00 -1.895271182060241699e+00
2.309000000000000000e+03 1.080144214630126953e+01 5.375465393066406250e+00 4.386910200119018555e-01 9.015021920204162598e-01 4.020579457283020020e-01 -2.913146913051605225e-01
2.310000000000000000e+03 9.929938316345214844e+00 6.258109569549560547e+00 4.412682056427001953e-01 7.338313460350036621e-01 3.525298535823822021e-01 -1.766734570264816284e-01
2.311000000000000000e+03 4.548305511474609375e+01 -1.307189464569091797e+01 -1.230442404747009277e+00 7.253067493438720703e+00 1.806787490844726562e+00 -1.101395964622497559e+00
2.312000000000000000e+03 7.393893241882324219e+00 -9.484827041625976562e+00 -3.362617790699005127e-01 3.526022672653198242e+00 9.569283127784729004e-01 1.775868654251098633e+00
2.313000000000000000e+03 8.541926383972167969e+00 -1.088998317718505859e+01 -8.433734178543090820e-01 5.149867057800292969e+00 1.291948080062866211e+00 2.401619434356689453e+00
2.314000000000000000e+03 7.190633392333984375e+01 -1.644439888000488281e+01 -5.210069417953491211e-01 5.502183914184570312e+00 1.494353055953979492e+00 -6.896528005599975586e-01
2.315000000000000000e+03 2.731493949890136719e+01 -9.755352020263671875e+00 -1.031960129737854004e+00 9.329863190650939941e-01 -2.969215065240859985e-02 -1.290550947189331055e+00
2.316000000000000000e+03 6.922451019287109375e+01 -1.761044120788574219e+01 -2.188704311847686768e-01 3.123656272888183594e+00 8.714357614517211914e-01 -6.200698018074035645e-01
2.317000000000000000e+03 4.215782546997070312e+01 -8.235547065734863281e+00 -6.581737399101257324e-01 5.976557254791259766e+00 1.595515131950378418e+00 -2.179231882095336914e+00
2.318000000000000000e+03 3.521591949462890625e+01 8.698547363281250000e+00 2.076456069946289062e+00 5.881623744964599609e+00 2.387423992156982422e+00 -1.432974338531494141e-01
2.319000000000000000e+03 3.486624145507812500e+01 6.329430103302001953e+00 2.002925395965576172e+00 5.497038841247558594e+00 2.249989271163940430e+00 -1.927487850189208984e-01
2.320000000000000000e+03 4.201984786987304688e+01 -1.098330211639404297e+01 -1.128262877464294434e+00 6.463168621063232422e+00 1.600471735000610352e+00 -2.215505361557006836e+00
2.321000000000000000e+03 4.784403228759765625e+01 -1.867539787292480469e+01 4.145501852035522461e-01 7.061883449554443359e+00 2.242929935455322266e+00 -9.335952997207641602e-01
2.322000000000000000e+03 5.054207611083984375e+01 -2.366244697570800781e+01 1.715859651565551758e+00 5.454923629760742188e+00 2.151235103607177734e+00 -1.939890742301940918e+00
2.323000000000000000e+03 4.926469802856445312e+01 -2.620196151733398438e+01 1.998568534851074219e+00 6.579192638397216797e+00 2.573328256607055664e+00 -2.503655433654785156e+00
2.324000000000000000e+03 7.397496223449707031e+00 -7.215475082397460938e+00 3.751653432846069336e-01 2.045534133911132812e+00 7.262098193168640137e-01 1.565165996551513672e+00
2.325000000000000000e+03 1.072197341918945312e+01 2.528073120117187500e+01 -2.365048043429851532e-02 1.664827346801757812e+00 4.923530519008636475e-01 -4.275205731391906738e-01
2.326000000000000000e+03 9.373427391052246094e+00 2.607641601562500000e+01 -3.649889305233955383e-02 1.426867365837097168e+00 4.171105325222015381e-01 -4.068414568901062012e-01
2.327000000000000000e+03 4.803692245483398438e+01 -3.101252365112304688e+01 5.149598717689514160e-01 7.079337596893310547e+00 2.278289318084716797e+00 -1.914189934730529785e+00
2.328000000000000000e+03 4.877671432495117188e+01 -2.415494346618652344e+01 2.169042348861694336e+00 6.524963378906250000e+00 2.608201742172241211e+00 -2.314215421676635742e+00
2.329000000000000000e+03 3.808812332153320312e+01 2.005050897598266602e+00 1.194286465644836426e+00 5.787334442138671875e+00 2.094486236572265625e+00 -1.259053111076354980e+00
2.330000000000000000e+03 3.999637985229492188e+01 -1.004451560974121094e+01 -9.096057415008544922e-01 5.640614032745361328e+00 1.419302463531494141e+00 -2.509005784988403320e+00
2.331000000000000000e+03 9.371976852416992188e+00 -1.070571422576904297e+01 -1.068166971206665039e+00 5.412680625915527344e+00 1.303354024887084961e+00 2.975104570388793945e+00
2.332000000000000000e+03 6.512518882751464844e+00 2.130099487304687500e+01 2.966580726206302643e-02 7.284724712371826172e-01 2.274414747953414917e-01 -3.113727271556854248e-01
2.333000000000000000e+03 4.662760543823242188e+01 -2.024772644042968750e+01 1.795621514320373535e+00 8.013340950012207031e+00 2.942688703536987305e+00 -1.406101703643798828e+00
2.334000000000000000e+03 4.671316909790039062e+01 -1.588340663909912109e+01 -9.085910916328430176e-01 7.481736183166503906e+00 1.971943497657775879e+00 -7.667574286460876465e-01
2.335000000000000000e+03 1.115591812133789062e+01 1.660265159606933594e+01 1.962045729160308838e-01 1.640813231468200684e+00 5.511053204536437988e-01 -3.653942942619323730e-01
2.336000000000000000e+03 1.015773677825927734e+01 1.773204994201660156e+01 1.445309072732925415e-01 1.430981636047363281e+00 4.726537764072418213e-01 -3.694174885749816895e-01
2.337000000000000000e+03 4.660160827636718750e+01 -1.890638542175292969e+01 5.345102548599243164e-01 7.835461616516113281e+00 2.510991573333740234e+00 -9.406854510307312012e-01
2.338000000000000000e+03 9.256835937500000000e+00 9.018034934997558594e+00 3.962231278419494629e-01 8.586027026176452637e-01 3.764477372169494629e-01 -1.794476360082626343e-01
2.339000000000000000e+03 7.433737277984619141e+00 9.755514144897460938e+00 3.057436048984527588e-01 4.553906917572021484e-01 2.283402830362319946e-01 -6.014152988791465759e-02
2.340000000000000000e+03 3.482257080078125000e+01 -1.041362953186035156e+01 -6.292233467102050781e-01 3.102666139602661133e+00 7.420328259468078613e-01 -2.282884836196899414e+00
2.341000000000000000e+03 4.978878021240234375e+01 -2.462566947937011719e+01 1.936890482902526855e+00 5.925935268402099609e+00 2.358847618103027344e+00 -2.152517557144165039e+00
2.342000000000000000e+03 8.764179229736328125e+00 1.035056591033935547e+01 3.466622829437255859e-01 8.288724422454833984e-01 3.526604175567626953e-01 -1.819111257791519165e-01
2.343000000000000000e+03 7.440959930419921875e+00 2.186736679077148438e+01 2.886219508945941925e-02 9.258218407630920410e-01 2.864052057266235352e-01 -3.526117503643035889e-01
2.344000000000000000e+03 3.467554473876953125e+01 2.536786842346191406e+01 9.252337366342544556e-02 5.587972640991210938e+00 1.704148769378662109e+00 -2.147153019905090332e-01
2.345000000000000000e+03 8.569416999816894531e+00 1.531930160522460938e+01 1.729356646537780762e-01 9.904753565788269043e-01 3.490233123302459717e-01 -2.799656987190246582e-01
2.346000000000000000e+03 3.360093307495117188e+01 -1.044294738769531250e+01 -6.375069022178649902e-01 2.591179847717285156e+00 5.861018300056457520e-01 -2.062696456909179688e+00
2.347000000000000000e+03 3.033180618286132812e+01 -9.674099922180175781e+00 -6.580789089202880859e-01 1.713769197463989258e+00 3.167071044445037842e-01 -1.595789074897766113e+00
2.348000000000000000e+03 3.882027053833007812e+01 -1.058051013946533203e+01 -8.495165705680847168e-01 5.141533374786376953e+00 1.287605047225952148e+00 -2.657922983169555664e+00
2.349000000000000000e+03 1.124478244781494141e+01 3.186954498291015625e+01 -1.724148988723754883e-01 1.887563347816467285e+00 5.145445466041564941e-01 -3.565698266029357910e-01
2.350000000000000000e+03 8.824671745300292969e+00 3.013720512390136719e+01 -9.102902561426162720e-02 1.432959794998168945e+00 4.025792479515075684e-01 -3.567660748958587646e-01
2.351000000000000000e+03 4.853100585937500000e+01 -3.485610198974609375e+01 -8.446392416954040527e-01 6.793009757995605469e+00 1.784511089324951172e+00 -8.561494350433349609e-01
2.352000000000000000e+03 5.093112564086914062e+01 -3.170349502563476562e+01 1.421782255172729492e+00 6.474082946777343750e+00 2.368759393692016602e+00 -1.759293317794799805e+00
2.353000000000000000e+03 3.805471420288085938e+01 -1.448695302009582520e+00 7.302637696266174316e-01 5.199044227600097656e+00 1.778792381286621094e+00 -1.713805198669433594e+00
2.354000000000000000e+03 9.376459121704101562e+00 1.113975811004638672e+01 3.245450556278228760e-01 1.010422348976135254e+00 4.004902243614196777e-01 -2.250270694494247437e-01
2.355000000000000000e+03 8.615324974060058594e+00 1.201546955108642578e+01 2.794343233108520508e-01 8.636954426765441895e-01 3.429389297962188721e-01 -2.101548910140991211e-01
2.356000000000000000e+03 2.091601181030273438e+01 -2.942355155944824219e+00 5.668986320495605469e+00 2.594545125961303711e+00 2.479059457778930664e+00 1.858624219894409180e+00
2.357000000000000000e+03 2.193699455261230469e+01 -7.942503452301025391e+00 8.221699595451354980e-01 7.506474256515502930e-01 4.718452095985412598e-01 -4.946808218955993652e-01
2.358000000000000000e+03 2.590803527832031250e+01 -7.470088005065917969e+00 7.792154550552368164e-01 8.219999074935913086e-01 4.803646206855773926e-01 -1.143234848976135254e+00
2.359000000000000000e+03 2.136228561401367188e+01 -3.531405448913574219e+00 5.267452239990234375e+00 2.186813354492187500e+00 2.236279726028442383e+00 1.270370960235595703e+00
2.360000000000000000e+03 3.461817932128906250e+01 1.843592834472656250e+01 1.078641653060913086e+00 6.050412654876708984e+00 2.138716220855712891e+00 -1.565674692392349243e-01
2.361000000000000000e+03 3.496696853637695312e+01 1.621094703674316406e+01 1.403537034988403320e+00 6.314546108245849609e+00 2.315424919128417969e+00 -1.380286365747451782e-01
2.362000000000000000e+03 3.513675689697265625e+01 2.041507148742675781e+01 8.156689405441284180e-01 6.125037193298339844e+00 2.082211732864379883e+00 -1.350266337394714355e-01
2.363000000000000000e+03 3.410829925537109375e+01 1.486813354492187500e+01 1.585031151771545410e+00 6.016168594360351562e+00 2.280359983444213867e+00 -1.536478847265243530e-01
2.364000000000000000e+03 4.573984909057617188e+01 -1.659320640563964844e+01 -7.174355983734130859e-01 8.013362884521484375e+00 2.188778162002563477e+00 -9.525264501571655273e-01
2.365000000000000000e+03 3.398171615600585938e+01 8.720242500305175781e+00 2.066183328628540039e+00 5.517719745635986328e+00 2.275170803070068359e+00 -2.233284339308738708e-02
2.366000000000000000e+03 4.240850830078125000e+01 -1.248162841796875000e+01 -1.323055267333984375e+00 7.014199256896972656e+00 1.707343101501464844e+00 -2.174465417861938477e+00
2.367000000000000000e+03 8.051978111267089844e+00 2.683067893981933594e+01 -4.568112641572952271e-02 1.191578030586242676e+00 3.437690734863281250e-01 -3.621397912502288818e-01
2.368000000000000000e+03 4.953211593627929688e+01 -2.084346199035644531e+01 9.579742550849914551e-01 5.684936046600341797e+00 1.992873072624206543e+00 -1.422278404235839844e+00
2.369000000000000000e+03 3.614383697509765625e+01 6.046707153320312500e+00 1.897746562957763672e+00 5.924467563629150391e+00 2.346664190292358398e+00 -3.823393881320953369e-01
2.370000000000000000e+03 3.657471847534179688e+01 -6.583742797374725342e-02 1.135184526443481445e+00 4.990610122680664062e+00 1.837738394737243652e+00 -1.291883230209350586e+00
2.371000000000000000e+03 3.760483932495117188e+01 -1.103200435638427734e+01 -7.916142344474792480e-01 4.473362922668457031e+00 1.104524493217468262e+00 -2.643485307693481445e+00
2.372000000000000000e+03 3.699327850341796875e+01 -6.577425003051757812e+00 -2.320722490549087524e-02 4.402823925018310547e+00 1.313885092735290527e+00 -2.215886116027832031e+00
2.373000000000000000e+03 9.996051788330078125e+00 2.377415847778320312e+01 4.293445032089948654e-03 1.503642916679382324e+00 4.523809254169464111e-01 -4.250154793262481689e-01
2.374000000000000000e+03 1.294682025909423828e+01 2.596003913879394531e+01 -4.311389103531837463e-02 2.093161106109619141e+00 6.150141954421997070e-01 -4.536806344985961914e-01
2.375000000000000000e+03 7.224979400634765625e+01 -1.520173931121826172e+01 -3.328104913234710693e-01 5.698167800903320312e+00 1.609607219696044922e+00 -5.696157217025756836e-01
2.376000000000000000e+03 7.272026062011718750e+01 -1.406686496734619141e+01 -2.538360655307769775e-01 5.941003322601318359e+00 1.706150174140930176e+00 -4.831598699092864990e-01
2.377000000000000000e+03 1.173807144165039062e+01 -4.460711002349853516e+00 4.082707881927490234e+00 8.558225035667419434e-01 1.481559038162231445e+00 3.226281166076660156e+00
2.378000000000000000e+03 1.423130321502685547e+01 1.954372048377990723e+00 4.355252161622047424e-02 3.367103815078735352e+00 1.023196935653686523e+00 -9.652735590934753418e-01
2.379000000000000000e+03 9.597853660583496094e+00 -5.794311046600341797e+00 1.711460113525390625e+00 1.555046439170837402e+00 9.799519777297973633e-01 2.537961721420288086e+00
2.380000000000000000e+03 1.672806739807128906e+01 6.547516584396362305e-01 2.597386538982391357e-01 8.015101432800292969e+00 2.482451915740966797e+00 1.506704807281494141e+00
2.381000000000000000e+03 1.401250076293945312e+01 -6.649076461791992188e+00 1.912078857421875000e+00 5.550934791564941406e+00 2.238904237747192383e+00 6.004547595977783203e+00
2.382000000000000000e+03 1.491884803771972656e+01 -6.864098072052001953e+00 1.432212233543395996e+00 6.537008762359619141e+00 2.390766382217407227e+00 5.529864311218261719e+00
2.383000000000000000e+03 2.015119171142578125e+01 -1.303070664405822754e+00 5.241826534271240234e+00 4.071519374847412109e+00 2.794003725051879883e+00 3.295057773590087891e+00
2.384000000000000000e+03 2.032390022277832031e+01 -1.832064151763916016e+00 5.650746822357177734e+00 3.609112501144409180e+00 2.777957677841186523e+00 2.908105373382568359e+00
2.385000000000000000e+03 1.249085712432861328e+01 -7.708158493041992188e+00 8.181465864181518555e-01 4.372744560241699219e+00 1.557267308235168457e+00 5.481150150299072266e+00
2.386000000000000000e+03 2.005135726928710938e+01 -7.744619846343994141e-01 4.643714427947998047e+00 4.549901485443115234e+00 2.758084774017333984e+00 3.447983264923095703e+00
2.387000000000000000e+03 1.259330654144287109e+01 -5.477153778076171875e+00 4.100284099578857422e+00 2.700868129730224609e+00 2.040345668792724609e+00 5.300581455230712891e+00
2.388000000000000000e+03 1.307597541809082031e+01 3.799973249435424805e+00 3.138078153133392334e-01 2.030790805816650391e+00 7.033795714378356934e-01 -7.026002407073974609e-01
2.389000000000000000e+03 1.097503089904785156e+01 -4.350924015045166016e+00 3.251463890075683594e+00 5.507490038871765137e-01 1.140663862228393555e+00 2.337993144989013672e+00
2.390000000000000000e+03 1.507458591461181641e+01 2.488798618316650391e+00 -6.007993221282958984e-02 4.451661109924316406e+00 1.317474365234375000e+00 -6.348268985748291016e-01
2.391000000000000000e+03 1.662461090087890625e+01 -7.754319667816162109e+00 2.415847182273864746e-01 5.253128051757812500e+00 1.648413777351379395e+00 3.452603101730346680e+00
2.392000000000000000e+03 2.019652557373046875e+01 -4.834131717681884766e+00 5.091534137725830078e+00 2.534576654434204102e+00 2.287833213806152344e+00 6.738463044166564941e-01
2.393000000000000000e+03 2.134552764892578125e+01 -6.458165168762207031e+00 2.661576747894287109e+00 1.363978385925292969e+00 1.207666516304016113e+00 -1.333772689104080200e-01
2.394000000000000000e+03 1.534439277648925781e+01 -7.132710456848144531e+00 8.512015342712402344e-01 6.455634117126464844e+00 2.192050695419311523e+00 5.027071952819824219e+00
2.395000000000000000e+03 1.668877220153808594e+01 -7.055777072906494141e+00 1.152117848396301270e+00 6.107340335845947266e+00 2.177837371826171875e+00 3.230951547622680664e+00
2.396000000000000000e+03 1.589192676544189453e+01 -7.482957839965820312e+00 4.994268119335174561e-01 6.122707366943359375e+00 1.986640214920043945e+00 4.387964725494384766e+00
2.397000000000000000e+03 2.397456359863281250e+01 -7.637632846832275391e+00 8.752830624580383301e-01 6.774881482124328613e-01 4.658313691616058350e-01 -9.692736268043518066e-01
2.398000000000000000e+03 7.905729770660400391e+00 -6.637462615966796875e+00 7.520292401313781738e-01 1.829292893409729004e+00 7.743965983390808105e-01 1.814135670661926270e+00
2.399000000000000000e+03 8.280919075012207031e+00 -7.710467338562011719e+00 4.132483601570129395e-01 2.658419847488403320e+00 9.215004444122314453e-01 2.323083162307739258e+00
2.400000000000000000e+03 1.822628784179687500e+01 -7.009795665740966797e+00 1.930904984474182129e+00 4.419760704040527344e+00 1.905199646949768066e+00 1.522863388061523438e+00
2.401000000000000000e+03 1.558515262603759766e+01 -8.762219429016113281e+00 -6.936628818511962891e-01 4.821294307708740234e+00 1.238289475440979004e+00 4.664908885955810547e+00
2.402000000000000000e+03 1.071450328826904297e+01 6.192613124847412109e+00 4.540072679519653320e-01 1.000450491905212402e+00 4.363373517990112305e-01 -2.945217490196228027e-01
2.403000000000000000e+03 2.916232681274414062e+01 -8.354173660278320312e+00 -3.616217896342277527e-02 1.513698935508728027e+00 4.432610273361206055e-01 -1.542730569839477539e+00
2.404000000000000000e+03 9.659929275512695312e+00 -8.744425773620605469e+00 -2.553600352257490158e-03 3.955765962600708008e+00 1.185963630676269531e+00 3.461621761322021484e+00
2.405000000000000000e+03 2.010583686828613281e+01 -7.077413558959960938e+00 2.089567661285400391e+00 2.147279024124145508e+00 1.271054029464721680e+00 2.918718159198760986e-01
2.406000000000000000e+03 3.848267364501953125e+01 -4.032359123229980469e+00 3.019378185272216797e-01 5.043788433074951172e+00 1.603717803955078125e+00 -2.026889085769653320e+00
2.407000000000000000e+03 3.929955291748046875e+01 -5.131391525268554688e+00 1.064104493707418442e-02 5.228153705596923828e+00 1.571638464927673340e+00 -2.184556722640991211e+00
2.408000000000000000e+03 8.400600433349609375e+00 9.381434440612792969e+00 3.534517288208007812e-01 6.642650961875915527e-01 3.053150475025177002e-01 -1.140987351536750793e-01
2.409000000000000000e+03 1.023675632476806641e+01 -1.049125289916992188e+01 -1.045753121376037598e+00 5.464480876922607422e+00 1.325618386268615723e+00 3.634824752807617188e+00
2.410000000000000000e+03 1.137096595764160156e+01 -9.254879951477050781e+00 -6.515915989875793457e-01 4.914196968078613281e+00 1.278781652450561523e+00 4.578243732452392578e+00
2.411000000000000000e+03 9.109649658203125000e+00 8.136191368103027344e+00 4.015178084373474121e-01 7.341884970664978027e-01 3.407118916511535645e-01 -1.374824345111846924e-01
2.412000000000000000e+03 4.229309082031250000e+00 6.272600173950195312e+00 9.940277785062789917e-02 -1.850906908512115479e-01 -2.570637129247188568e-02 2.745432555675506592e-01
2.413000000000000000e+03 1.063878536224365234e+01 7.797154426574707031e+00 4.371655285358428955e-01 1.165469884872436523e+00 4.807906150817871094e-01 -2.872564494609832764e-01
2.414000000000000000e+03 2.679354095458984375e+01 -8.153572082519531250e+00 2.362912744283676147e-01 9.404327869415283203e-01 3.530172109603881836e-01 -1.327196478843688965e+00
2.415000000000000000e+03 3.869925308227539062e+01 -2.282706499099731445e+00 5.485450625419616699e-01 5.261081695556640625e+00 1.742887973785400391e+00 -1.866078376770019531e+00
2.416000000000000000e+03 3.788571929931640625e+01 -3.040401697158813477e+00 5.029301047325134277e-01 4.984995365142822266e+00 1.646377563476562500e+00 -1.873200535774230957e+00
2.417000000000000000e+03 3.357340621948242188e+01 -9.364447593688964844e+00 -3.755279481410980225e-01 2.832349300384521484e+00 7.370463609695434570e-01 -2.087921380996704102e+00
2.418000000000000000e+03 1.495461750030517578e+01 -8.611372947692871094e+00 -6.821330785751342773e-01 5.219373226165771484e+00 1.361172080039978027e+00 5.072991371154785156e+00
2.419000000000000000e+03 1.571748065948486328e+01 -8.124238967895507812e+00 -2.205845117568969727e-01 5.494026184082031250e+00 1.582032561302185059e+00 4.537455081939697266e+00
2.420000000000000000e+03 1.226334571838378906e+01 -9.662837982177734375e+00 -1.102282166481018066e+00 5.215790271759033203e+00 1.234052419662475586e+00 5.017902374267578125e+00
2.421000000000000000e+03 3.565230941772460938e+01 -8.981965065002441406e+00 -3.613714575767517090e-01 3.671782493591308594e+00 9.931233525276184082e-01 -2.349070072174072266e+00
2.422000000000000000e+03 2.514870452880859375e+01 -8.062829971313476562e+00 3.533266484737396240e-01 6.942201852798461914e-01 3.142640292644500732e-01 -1.189224362373352051e+00
2.423000000000000000e+03 3.498661422729492188e+01 -1.678741574287414551e+00 1.168337106704711914e+00 4.257566452026367188e+00 1.627771019935607910e+00 -1.341608405113220215e+00
2.424000000000000000e+03 2.240118026733398438e+01 -6.411231040954589844e+00 2.567226648330688477e+00 1.058936595916748047e+00 1.087849020957946777e+00 -3.797800838947296143e-01
2.425000000000000000e+03 2.272250938415527344e+01 -7.306824684143066406e+00 1.427593469619750977e+00 8.199312686920166016e-01 6.742574572563171387e-01 -6.274245977401733398e-01
2.426000000000000000e+03 2.516545295715332031e+01 -6.879194259643554688e+00 1.461842179298400879e+00 8.403658270835876465e-01 6.906624436378479004e-01 -9.783040881156921387e-01
2.427000000000000000e+03 4.106876754760742188e+01 -1.286970233917236328e+01 -1.257382512092590332e+00 6.642426013946533203e+00 1.615513086318969727e+00 -2.574352979660034180e+00
2.428000000000000000e+03 4.191552352905273438e+01 -9.474134445190429688e+00 -8.945083618164062500e-01 6.159790992736816406e+00 1.579584717750549316e+00 -2.232972621917724609e+00
2.429000000000000000e+03 3.115283203125000000e+01 -9.306725502014160156e+00 -4.273275434970855713e-01 1.975189328193664551e+00 4.643585383892059326e-01 -1.722280621528625488e+00
2.430000000000000000e+03 4.374435043334960938e+01 -1.211932849884033203e+01 -1.253539800643920898e+00 7.086888790130615234e+00 1.750004768371582031e+00 -1.701569080352783203e+00
2.431000000000000000e+03 3.646114730834960938e+01 1.512435913085937500e+00 1.375337123870849609e+00 5.188552379608154297e+00 1.969166994094848633e+00 -1.013081550598144531e+00
2.432000000000000000e+03 9.221698760986328125e+00 1.363480186462402344e+01 2.422567605972290039e-01 1.102777838706970215e+00 4.035103917121887207e-01 -2.668305039405822754e-01
2.433000000000000000e+03 3.267466735839843750e+01 -9.798142433166503906e+00 -5.082125067710876465e-01 2.380361557006835938e+00 5.616446733474731445e-01 -1.926560640335083008e+00
2.434000000000000000e+03 1.057147979736328125e+01 2.149702835083007812e+01 6.091726943850517273e-02 1.575151205062866211e+00 4.908205270767211914e-01 -4.213290214538574219e-01
2.435000000000000000e+03 3.685432052612304688e+01 4.387183189392089844e+00 1.615829586982727051e+00 5.892872333526611328e+00 2.252610683441162109e+00 -6.950231790542602539e-01
2.436000000000000000e+03 4.117696380615234375e+01 -7.602163314819335938e+00 -5.533541440963745117e-01 5.764777183532714844e+00 1.563426971435546875e+00 -2.274287223815917969e+00
2.437000000000000000e+03 3.775777053833007812e+01 -7.915430068969726562e+00 -3.645571172237396240e-01 4.616439342498779297e+00 1.275564670562744141e+00 -2.422792196273803711e+00
2.438000000000000000e+03 1.099873161315917969e+01 1.468879890441894531e+01 2.461431920528411865e-01 1.584538698196411133e+00 5.492045879364013672e-01 -3.262330889701843262e-01
2.439000000000000000e+03 9.249142646789550781e+00 1.649832534790039062e+01 1.659599989652633667e-01 1.207977056503295898e+00 4.121811091899871826e-01 -3.298321366310119629e-01
2.440000000000000000e+03 9.286099433898925781e+00 2.233856201171875000e+01 3.404973074793815613e-02 1.335186719894409180e+00 4.107709527015686035e-01 -4.009347259998321533e-01
2.441000000000000000e+03 5.056690597534179688e+01 -2.554509353637695312e+01 1.790338754653930664e+00 5.870981216430664062e+00 2.298396110534667969e+00 -2.224608421325683594e+00
2.442000000000000000e+03 1.053194427490234375e+01 1.011083221435546875e+01 3.831455409526824951e-01 1.310090303421020508e+00 5.079707503318786621e-01 -2.774649262428283691e-01
2.443000000000000000e+03 8.680982589721679688e+00 -1.177853965759277344e+01 -1.004627585411071777e+00 5.837246417999267578e+00 1.449785709381103516e+00 2.279952764511108398e+00
2.444000000000000000e+03 1.238389492034912109e+01 2.873613166809082031e+01 -1.143360361456871033e-01 2.029802083969116211e+00 5.746397972106933594e-01 -4.281274378299713135e-01
2.445000000000000000e+03 1.002805900573730469e+01 2.771328926086425781e+01 -6.775943934917449951e-02 1.582931995391845703e+00 4.545517563819885254e-01 -4.081570506095886230e-01
2.446000000000000000e+03 9.668869972229003906e+00 1.259384155273437500e+01 2.695969641208648682e-01 1.165540456771850586e+00 4.305412173271179199e-01 -2.620278596878051758e-01
2.447000000000000000e+03 3.327833557128906250e+01 1.338541412353515625e+01 1.753516197204589844e+00 5.680517673492431641e+00 2.230210304260253906e+00 -7.299043983221054077e-02
2.448000000000000000e+03 3.492863464355468750e+01 1.274404048919677734e+01 1.865390896797180176e+00 6.183262348175048828e+00 2.414595842361450195e+00 -1.555940657854080200e-01
2.449000000000000000e+03 5.382223129272460938e+01 -3.267082595825195312e+01 1.627361178398132324e+00 7.129990100860595703e+00 2.627205371856689453e+00 -8.687720894813537598e-01
2.450000000000000000e+03 4.819237518310546875e+01 -3.281060409545898438e+01 -8.629232645034790039e-02 6.835418701171875000e+00 2.024737834930419922e+00 -1.432340502738952637e+00
2.451000000000000000e+03 5.034986495971679688e+01 -3.475238800048828125e+01 -2.494960129261016846e-01 6.821516990661621094e+00 1.971606254577636719e+00 -1.018551111221313477e+00
2.452000000000000000e+03 1.209581375122070312e+01 2.442223358154296875e+01 -1.664071902632713318e-02 1.910237431526184082e+00 5.680790543556213379e-01 -4.495307207107543945e-01
2.453000000000000000e+03 1.150961017608642578e+01 2.692812538146972656e+01 -6.134407222270965576e-02 1.840265035629272461e+00 5.336762666702270508e-01 -4.362172782421112061e-01
2.454000000000000000e+03 3.189060783386230469e+01 1.814265251159667969e+01 1.074741721153259277e+00 5.423614978790283203e+00 1.949506998062133789e+00 -2.278210520744323730e-01
2.455000000000000000e+03 3.350091171264648438e+01 1.722717666625976562e+01 1.238639116287231445e+00 5.806195259094238281e+00 2.113450288772583008e+00 -2.001757919788360596e-01
2.456000000000000000e+03 3.949538421630859375e+01 -8.776868820190429688e+00 -6.349724531173706055e-01 5.302895545959472656e+00 1.400376915931701660e+00 -2.468017816543579102e+00
2.457000000000000000e+03 3.453356552124023438e+01 5.166659832000732422e+00 1.951472759246826172e+00 5.226355552673339844e+00 2.153348445892333984e+00 -2.058028876781463623e-01
2.458000000000000000e+03 3.290899658203125000e+01 9.011180877685546875e+00 2.054040193557739258e+00 5.205792903900146484e+00 2.177949905395507812e+00 1.173637658357620239e-01
2.459000000000000000e+03 4.890430068969726562e+01 -2.517188644409179688e+01 2.010801553726196289e+00 6.773550510406494141e+00 2.635305643081665039e+00 -2.499620199203491211e+00
2.460000000000000000e+03 3.425185775756835938e+01 2.122984504699707031e+01 6.787937879562377930e-01 5.806943893432617188e+00 1.945721268653869629e+00 -2.164573520421981812e-01
2.461000000000000000e+03 9.074153900146484375e+00 3.513629150390625000e+01 -1.495200693607330322e-01 1.585098385810852051e+00 4.306735098361968994e-01 -2.272208333015441895e-01
2.462000000000000000e+03 3.711540985107421875e+01 2.924233818054199219e+01 -4.195568859577178955e-01 5.451924800872802734e+00 1.509710431098937988e+00 -3.509965166449546814e-02
2.463000000000000000e+03 6.809089660644531250e+01 -4.108445739746093750e+01 7.025079131126403809e-01 2.205226421356201172e+00 8.723202943801879883e-01 2.164942771196365356e-01
2.464000000000000000e+03 9.730867385864257812e+00 -3.568459320068359375e+01 -9.289127588272094727e-01 2.699407577514648438e+00 5.311484336853027344e-01 2.682287432253360748e-02
2.465000000000000000e+03 1.185695743560791016e+01 -3.726098251342773438e+01 -5.810812115669250488e-01 1.332041501998901367e+00 2.252881079912185669e-01 7.147835940122604370e-02
2.466000000000000000e+03 2.002788734436035156e+01 -2.443753927946090698e-01 3.972443103790283203e+00 4.800873279571533203e+00 2.631994962692260742e+00 3.437760114669799805e+00
2.467000000000000000e+03 1.565412044525146484e+01 1.598776578903198242e+00 -2.442978620529174805e-01 5.916235446929931641e+00 1.701581239700317383e+00 -2.718475461006164551e-01
2.468000000000000000e+03 1.396168327331542969e+01 -7.080913066864013672e+00 1.301180601119995117e+00 5.476426124572753906e+00 2.033282041549682617e+00 5.924168109893798828e+00
2.469000000000000000e+03 1.363929367065429688e+01 -6.751888275146484375e+00 1.855790495872497559e+00 5.143321514129638672e+00 2.099733591079711914e+00 6.005761146545410156e+00
2.470000000000000000e+03 2.057223320007324219e+01 -2.376534223556518555e+00 5.787029743194580078e+00 3.132800817489624023e+00 2.675949096679687500e+00 2.462488412857055664e+00
2.471000000000000000e+03 1.456348705291748047e+01 1.202243566513061523e+00 -9.741310775279998779e-02 4.090489864349365234e+00 1.197922945022583008e+00 -1.041037797927856445e+00
2.472000000000000000e+03 1.076275062561035156e+01 -5.417388916015625000e+00 2.646640777587890625e+00 1.442804813385009766e+00 1.226833701133728027e+00 3.202646970748901367e+00
2.473000000000000000e+03 9.276438713073730469e+00 -6.242773056030273438e+00 1.337941288948059082e+00 1.810386896133422852e+00 9.444984793663024902e-01 2.500452756881713867e+00
2.474000000000000000e+03 1.470207214355468750e+01 3.792881727218627930e+00 1.113907098770141602e-01 3.617340087890625000e+00 1.118619203567504883e+00 -5.996837019920349121e-01
2.475000000000000000e+03 1.438709735870361328e+01 4.429804801940917969e+00 1.820418387651443481e-01 3.202793121337890625e+00 1.015450477600097656e+00 -5.921087861061096191e-01
2.476000000000000000e+03 1.251563262939453125e+01 -5.968974113464355469e+00 3.142458677291870117e+00 3.205142736434936523e+00 1.904280424118041992e+00 5.393845081329345703e+00
2.477000000000000000e+03 1.342145538330078125e+01 5.091899394989013672e+00 3.121481835842132568e-01 2.361374616622924805e+00 8.020568490028381348e-01 -5.978519320487976074e-01
2.478000000000000000e+03 1.373851776123046875e+01 4.179742813110351562e+00 2.538650035858154297e-01 2.683069229125976562e+00 8.810802698135375977e-01 -6.936829090118408203e-01
2.479000000000000000e+03 9.789717674255371094e+00 -6.861811637878417969e+00 1.279537200927734375e+00 2.464857101440429688e+00 1.123318314552307129e+00 3.319388151168823242e+00
2.480000000000000000e+03 1.027987384796142578e+01 -6.158876419067382812e+00 1.942043423652648926e+00 1.979772090911865234e+00 1.176544666290283203e+00 3.345230579376220703e+00
2.481000000000000000e+03 1.345834255218505859e+01 -9.236496925354003906e+00 -9.586727023124694824e-01 5.033610820770263672e+00 1.222481489181518555e+00 5.528338432312011719e+00
2.482000000000000000e+03 1.193190956115722656e+01 -9.109808921813964844e+00 -4.931491613388061523e-01 4.972723960876464844e+00 1.343872427940368652e+00 5.065999031066894531e+00
2.483000000000000000e+03 1.382167339324951172e+01 -8.266004562377929688e+00 -6.342472881078720093e-02 5.205862045288085938e+00 1.542731165885925293e+00 5.638366699218750000e+00
2.484000000000000000e+03 1.129637622833251953e+01 -4.777644157409667969e+00 3.559877395629882812e+00 1.049521684646606445e+00 1.382819771766662598e+00 3.227260828018188477e+00
2.485000000000000000e+03 8.578327178955078125e+00 -6.916018009185791016e+00 7.846961617469787598e-01 2.152983903884887695e+00 8.813040256500244141e-01 2.269293308258056641e+00
2.486000000000000000e+03 2.134116554260253906e+01 -5.487994194030761719e+00 3.949414014816284180e+00 1.671327829360961914e+00 1.686222553253173828e+00 1.681416034698486328e-01
2.487000000000000000e+03 1.231847286224365234e+01 5.452434539794921875e+00 4.096963703632354736e-01 1.673952460289001465e+00 6.250946521759033203e-01 -5.173094272613525391e-01
2.488000000000000000e+03 1.212540149688720703e+01 6.274139881134033203e+00 4.324008822441101074e-01 1.642084002494812012e+00 6.223454475402832031e-01 -4.546969234943389893e-01
2.489000000000000000e+03 1.068934154510498047e+01 -9.411914825439453125e+00 -5.571033954620361328e-01 4.857189655303955078e+00 1.290025830268859863e+00 4.158671379089355469e+00
2.490000000000000000e+03 1.065419387817382812e+01 7.003503322601318359e+00 4.525259733200073242e-01 1.087589025497436523e+00 4.620344936847686768e-01 -2.884972095489501953e-01
2.491000000000000000e+03 1.145001029968261719e+01 6.192399024963378906e+00 4.505667686462402344e-01 1.311584353446960449e+00 5.286453366279602051e-01 -3.921531736850738525e-01
2.492000000000000000e+03 1.130197811126708984e+01 7.750525474548339844e+00 4.337686002254486084e-01 1.406616330146789551e+00 5.521154999732971191e-01 -3.435953855514526367e-01
2.493000000000000000e+03 2.361714935302734375e+01 -6.941221237182617188e+00 1.807409405708312988e+00 7.523435354232788086e-01 7.679259181022644043e-01 -7.380080819129943848e-01
2.494000000000000000e+03 1.496136379241943359e+01 -7.360012054443359375e+00 6.457377076148986816e-01 6.074128150939941406e+00 2.015959739685058594e+00 5.287086963653564453e+00
2.495000000000000000e+03 2.059023666381835938e+01 -6.927456855773925781e-01 4.504858493804931641e+00 4.005341529846191406e+00 2.553060054779052734e+00 3.150772333145141602e+00
2.496000000000000000e+03 2.086294174194335938e+01 -1.643183350563049316e+00 5.220106601715087891e+00 3.310736417770385742e+00 2.559252977371215820e+00 2.735575199127197266e+00
2.497000000000000000e+03 1.298652362823486328e+01 -8.943219184875488281e+00 -5.704088211059570312e-01 4.997313022613525391e+00 1.328071236610412598e+00 5.535770416259765625e+00
2.498000000000000000e+03 1.225295448303222656e+01 -8.558753967285156250e+00 -3.263659402728080750e-02 4.732990741729736328e+00 1.410106182098388672e+00 5.324934959411621094e+00
2.499000000000000000e+03 3.462610626220703125e+01 -9.277118682861328125e+00 -3.560328185558319092e-01 3.196413278579711914e+00 8.521141409873962402e-01 -2.218425512313842773e+00
2.500000000000000000e+03 3.518496704101562500e+01 -7.991108417510986328e+00 -1.356198936700820923e-01 3.612550258636474609e+00 1.043079137802124023e+00 -2.210392713546752930e+00
2.501000000000000000e+03 1.122257137298583984e+01 -8.507855415344238281e+00 1.312674432992935181e-01 4.307465553283691406e+00 1.331619977951049805e+00 4.625514507293701172e+00
2.502000000000000000e+03 1.014732074737548828e+01 1.401755237579345703e+01 2.605218589305877686e-01 1.360406517982482910e+00 4.862785041332244873e-01 -3.108795881271362305e-01
2.503000000000000000e+03 9.415510177612304688e+00 1.469093322753906250e+01 2.194338440895080566e-01 1.176760554313659668e+00 4.188583195209503174e-01 -2.988315224647521973e-01
2.504000000000000000e+03 2.868219757080078125e+01 -9.214422225952148438e+00 -5.219068527221679688e-01 1.275411248207092285e+00 2.260513007640838623e-01 -1.449647784233093262e+00
2.505000000000000000e+03 9.909746170043945312e+00 7.932189464569091797e+00 4.323113560676574707e-01 9.411902427673339844e-01 4.120504856109619141e-01 -2.170274704694747925e-01
2.506000000000000000e+03 3.717412567138671875e+01 -9.747736930847167969e+00 -5.970507264137268066e-01 4.314728736877441406e+00 1.115303397178649902e+00 -2.555832386016845703e+00
2.507000000000000000e+03 3.832199478149414062e+01 -9.261183738708496094e+00 -6.182955503463745117e-01 4.855731487274169922e+00 1.271230816841125488e+00 -2.503185033798217773e+00
2.508000000000000000e+03 9.964676856994628906e+00 1.048472309112548828e+01 3.627183735370635986e-01 1.137929201126098633e+00 4.501942694187164307e-01 -2.488374263048171997e-01
2.509000000000000000e+03 1.019950771331787109e+01 1.167417526245117188e+01 3.143244981765747070e-01 1.265897393226623535e+00 4.740665555000305176e-01 -2.741959691047668457e-01
2.510000000000000000e+03 9.540071487426757812e+00 9.828583717346191406e+00 3.816579580307006836e-01 9.894003868103027344e-01 4.113174974918365479e-01 -2.151904702186584473e-01
2.511000000000000000e+03 2.740420341491699219e+01 -7.146330833435058594e+00 8.499073386192321777e-01 1.196375012397766113e+00 6.138846874237060547e-01 -1.257739186286926270e+00
2.512000000000000000e+03 2.989509201049804688e+01 -8.933533668518066406e+00 -2.713451683521270752e-01 1.659878134727478027e+00 4.165598750114440918e-01 -1.615665674209594727e+00
2.513000000000000000e+03 3.673307418823242188e+01 -1.706060528755187988e+00 9.136437177658081055e-01 4.762493610382080078e+00 1.702841162681579590e+00 -1.545614004135131836e+00
2.514000000000000000e+03 4.063552474975585938e+01 -1.136956691741943359e+01 -1.098372340202331543e+00 6.064476966857910156e+00 1.489831447601318359e+00 -2.555879592895507812e+00
2.515000000000000000e+03 4.067577743530273438e+01 -8.972304344177246094e+00 -7.632171511650085449e-01 5.741155147552490234e+00 1.493381381034851074e+00 -2.376857519149780273e+00
2.516000000000000000e+03 1.271590423583984375e+01 2.211499404907226562e+01 6.119421496987342834e-02 2.012803077697753906e+00 6.221991777420043945e-01 -4.452590942382812500e-01
2.517000000000000000e+03 3.199070549011230469e+01 -8.701860427856445312e+00 -2.260270267724990845e-01 2.297117471694946289e+00 6.213271617889404297e-01 -1.853126764297485352e+00
2.518000000000000000e+03 3.899408721923828125e+01 -7.324077606201171875e+00 -3.783183097839355469e-01 5.103913784027099609e+00 1.417678594589233398e+00 -2.359001398086547852e+00
2.519000000000000000e+03 3.522050094604492188e+01 3.648112297058105469e+00 1.743179082870483398e+00 5.209208488464355469e+00 2.085716247558593750e+00 -4.923319518566131592e-01
2.520000000000000000e+03 1.105221271514892578e+01 9.743504524230957031e+00 3.942719101905822754e-01 1.446176171302795410e+00 5.521343946456909180e-01 -3.076234161853790283e-01
2.521000000000000000e+03 3.510572814941406250e+01 7.505031108856201172e+00 2.042399406433105469e+00 5.744712829589843750e+00 2.336133718490600586e+00 -1.619079560041427612e-01
2.522000000000000000e+03 3.571926879882812500e+01 4.819230079650878906e+00 1.807734131813049316e+00 5.573411941528320312e+00 2.214343786239624023e+00 -4.429313838481903076e-01
2.523000000000000000e+03 3.623344802856445312e+01 3.180575132369995117e+00 1.576474308967590332e+00 5.445222854614257812e+00 2.106509208679199219e+00 -7.413475513458251953e-01
2.524000000000000000e+03 3.095693588256835938e+01 1.080146312713623047e+01 1.857652902603149414e+00 4.919812679290771484e+00 2.033239603042602539e+00 2.117632478475570679e-01
2.525000000000000000e+03 3.382921600341796875e+01 9.707687377929687500e+00 2.038712263107299805e+00 5.580616474151611328e+00 2.285798549652099609e+00 3.807719796895980835e-03
2.526000000000000000e+03 2.644838523864746094e+01 -6.505023479461669922e+00 1.470664024353027344e+00 1.072991967201232910e+00 7.630968093872070312e-01 -1.056849718093872070e+00
2.527000000000000000e+03 2.110235023498535156e+01 -2.127161502838134766e+00 5.351377964019775391e+00 2.882648944854736328e+00 2.470208168029785156e+00 2.312483072280883789e+00
2.528000000000000000e+03 3.729832458496093750e+01 -7.545147538185119629e-01 9.557629227638244629e-01 5.061167240142822266e+00 1.805078983306884766e+00 -1.471022963523864746e+00
2.529000000000000000e+03 3.696533584594726562e+01 -3.599551677703857422e+00 5.679269433021545410e-01 4.612038135528564453e+00 1.553989529609680176e+00 -1.848211050033569336e+00
2.530000000000000000e+03 3.665972900390625000e+01 -2.632636547088623047e+00 7.458946108818054199e-01 4.618941783905029297e+00 1.609450936317443848e+00 -1.669344544410705566e+00
2.531000000000000000e+03 2.776808357238769531e+01 -8.712559700012207031e+00 -3.030107319355010986e-01 1.114884018898010254e+00 2.435619682073593140e-01 -1.403348684310913086e+00
2.532000000000000000e+03 5.225866699218750000e+01 -3.759678268432617188e+01 -1.269895195960998535e+00 6.819824218750000000e+00 1.664978742599487305e+00 -6.089926958084106445e-01
2.533000000000000000e+03 3.174441719055175781e+01 1.429282188415527344e+01 1.563155531883239746e+00 5.301172256469726562e+00 2.059298276901245117e+00 -5.486149340867996216e-02
2.534000000000000000e+03 3.260873794555664062e+01 1.573673820495605469e+01 1.428616404533386230e+00 5.565994739532470703e+00 2.098383426666259766e+00 -1.491984724998474121e-01
2.535000000000000000e+03 1.427315044403076172e+01 2.497017288208007812e+01 -3.494553267955780029e-02 2.314906835556030273e+00 6.839883923530578613e-01 -4.636143743991851807e-01
2.536000000000000000e+03 1.400585651397705078e+01 2.752975082397460938e+01 -9.830264747142791748e-02 2.323926448822021484e+00 6.676871180534362793e-01 -4.567732810974121094e-01
2.537000000000000000e+03 2.885694694519042969e+01 1.981330871582031250e+01 7.365385293960571289e-01 4.816032886505126953e+00 1.665771365165710449e+00 -3.018459975719451904e-01
2.538000000000000000e+03 2.673885917663574219e+01 2.093477439880371094e+01 5.042612552642822266e-01 4.468326568603515625e+00 1.491776347160339355e+00 -3.650372326374053955e-01
2.539000000000000000e+03 3.207947921752929688e+01 2.425724411010742188e+01 2.345849573612213135e-01 5.267407894134521484e+00 1.650597929954528809e+00 -3.511842787265777588e-01
2.540000000000000000e+03 9.751728057861328125e+00 2.004802703857421875e+01 8.155955374240875244e-02 1.374937534332275391e+00 4.369491338729858398e-01 -3.904139697551727295e-01
2.541000000000000000e+03 1.133341598510742188e+01 2.294663810729980469e+01 3.176408633589744568e-02 1.751720428466796875e+00 5.350453257560729980e-01 -4.407533109188079834e-01
2.542000000000000000e+03 3.818358993530273438e+01 -5.944970607757568359e+00 -3.368366509675979614e-03 4.849834918975830078e+00 1.453940033912658691e+00 -2.210811614990234375e+00
2.543000000000000000e+03 3.747637939453125000e+01 -4.709191799163818359e+00 2.770858108997344971e-01 4.716852664947509766e+00 1.498181581497192383e+00 -2.034239530563354492e+00
2.544000000000000000e+03 7.638389587402343750e+00 -3.664891433715820312e+01 -6.500587463378906250e-01 4.234369277954101562e+00 1.075293183326721191e+00 1.581477820873260498e-01
2.545000000000000000e+03 9.072559356689453125e+00 -3.917921829223632812e+01 -2.167157083749771118e-01 3.200733900070190430e+00 8.952054381370544434e-01 -2.501624403521418571e-03
2.546000000000000000e+03 1.286630439758300781e+01 3.731500625610351562e+01 -2.998655736446380615e-01 2.235748291015625000e+00 5.807648301124572754e-01 -2.066403329372406006e-01
2.547000000000000000e+03 5.471050262451171875e+01 3.493812942504882812e+01 -4.438947737216949463e-01 2.120513916015625000e-01 -6.955301761627197266e-02 -1.429509371519088745e-01
2.548000000000000000e+03 7.131494903564453125e+01 -3.661237335205078125e+01 -4.593863785266876221e-01 4.922668457031250000e+00 1.338984608650207520e+00 6.714682579040527344e-01
2.549000000000000000e+03 3.978941726684570312e+01 -3.810599899291992188e+01 -1.658628940582275391e+00 2.666358470916748047e+00 3.023188710212707520e-01 6.503434181213378906e-01
2.550000000000000000e+03 3.103317832946777344e+01 -3.466886520385742188e+01 -2.204999685287475586e+00 -3.916632384061813354e-02 -6.732498407363891602e-01 -1.250677257776260376e-01
2.551000000000000000e+03 2.905088615417480469e+01 -3.661459350585937500e+01 -1.788819909095764160e+00 -1.340084075927734375e-01 -5.768485069274902344e-01 -1.615110225975513458e-02
2.552000000000000000e+03 4.277996063232421875e+01 -4.114474868774414062e+01 -1.953512430191040039e+00 4.396654129028320312e+00 7.329424619674682617e-01 1.301456838846206665e-01
2.553000000000000000e+03 8.116889953613281250e+00 -4.134965133666992188e+01 -5.710738524794578552e-02 3.893893480300903320e+00 1.151035904884338379e+00 -9.479549713432788849e-03
2.554000000000000000e+03 3.280012893676757812e+01 2.639188957214355469e+01 -6.382428109645843506e-02 5.271415710449218750e+00 1.562277436256408691e+00 -3.344728648662567139e-01
2.555000000000000000e+03 9.094261169433593750e+00 3.794499588012695312e+01 -1.683544814586639404e-01 1.575484395027160645e+00 4.221389591693878174e-01 -1.320248991250991821e-01
2.556000000000000000e+03 7.241311645507812500e+01 -4.114744949340820312e+01 1.163856610655784607e-01 5.088504791259765625e+00 1.561467051506042480e+00 6.513100117444992065e-02
2.557000000000000000e+03 3.698722076416015625e+01 3.301714706420898438e+01 -8.618516325950622559e-01 5.134693145751953125e+00 1.281852483749389648e+00 -7.069149613380432129e-02
2.558000000000000000e+03 3.940247344970703125e+01 3.457749176025390625e+01 -9.598359465599060059e-01 4.861437320709228516e+00 1.170480370521545410e+00 9.692866355180740356e-02
2.559000000000000000e+03 4.574884796142578125e+01 3.772663116455078125e+01 -8.896766304969787598e-01 3.392424583435058594e+00 7.508243322372436523e-01 3.102454841136932373e-01
2.560000000000000000e+03 1.463562774658203125e+01 1.658241987228393555e+00 -5.817968770861625671e-02 4.141512870788574219e+00 1.225000023841857910e+00 -9.848432540893554688e-01
2.561000000000000000e+03 1.644492912292480469e+01 9.225598573684692383e-01 -2.951872721314430237e-02 7.663228034973144531e+00 2.290112733840942383e+00 9.424543976783752441e-01
2.562000000000000000e+03 1.945396232604980469e+01 -2.791656553745269775e-01 3.904936313629150391e+00 5.560133934020996094e+00 2.839521169662475586e+00 3.763975858688354492e+00
2.563000000000000000e+03 1.884876441955566406e+01 2.958807945251464844e-01 2.711868047714233398e+00 6.513139247894287109e+00 2.767502069473266602e+00 3.605690479278564453e+00
2.564000000000000000e+03 2.068929290771484375e+01 -1.168769598007202148e+00 4.932920932769775391e+00 3.700323820114135742e+00 2.589973449707031250e+00 2.978369951248168945e+00
2.565000000000000000e+03 1.660501670837402344e+01 1.798593401908874512e+00 2.497032801329623908e-05 6.636921882629394531e+00 1.991083979606628418e+00 7.242318987846374512e-01
2.566000000000000000e+03 1.036940765380859375e+01 -6.818319320678710938e+00 1.496974468231201172e+00 2.537677764892578125e+00 1.210395693778991699e+00 3.685657739639282227e+00
2.567000000000000000e+03 1.442543029785156250e+01 -7.275736808776855469e+00 9.532223939895629883e-01 5.716781616210937500e+00 2.001001119613647461e+00 5.679880142211914062e+00
2.568000000000000000e+03 1.737348365783691406e+01 3.662853538990020752e-01 1.137369871139526367e+00 8.301268577575683594e+00 2.831591606140136719e+00 2.724382877349853516e+00
2.569000000000000000e+03 9.767099380493164062e+00 -6.279985427856445312e+00 1.535305976867675781e+00 2.036709308624267578e+00 1.071604609489440918e+00 2.987573862075805664e+00
2.570000000000000000e+03 1.517676162719726562e+01 3.168281078338623047e+00 5.687164142727851868e-03 4.284488201141357422e+00 1.287052512168884277e+00 -5.006214380264282227e-01
2.571000000000000000e+03 1.423931980133056641e+01 3.944987773895263672e+00 1.818607151508331299e-01 3.136396408081054688e+00 9.954770803451538086e-01 -6.826624870300292969e-01
2.572000000000000000e+03 1.412894821166992188e+01 3.403294324874877930e+00 1.542497426271438599e-01 3.107042789459228516e+00 9.783877730369567871e-01 -7.757989168167114258e-01
2.573000000000000000e+03 1.425480365753173828e+01 5.163576126098632812e+00 2.211721390485763550e-01 2.968722343444824219e+00 9.569683074951171875e-01 -5.318780541419982910e-01
2.574000000000000000e+03 1.195064640045166016e+01 -5.912740230560302734e+00 2.966254949569702148e+00 2.584851026535034180e+00 1.665331840515136719e+00 4.801506519317626953e+00
2.575000000000000000e+03 1.139499187469482422e+01 -5.331963539123535156e+00 3.296728849411010742e+00 1.555539250373840332e+00 1.455680489540100098e+00 3.786540269851684570e+00
2.576000000000000000e+03 9.239357948303222656e+00 -6.932033538818359375e+00 8.805739283561706543e-01 2.409733772277832031e+00 9.870923161506652832e-01 2.713891506195068359e+00
2.577000000000000000e+03 1.389648151397705078e+01 -7.785732269287109375e+00 5.202884674072265625e-01 5.289850711822509766e+00 1.743041753768920898e+00 5.750842094421386719e+00
2.578000000000000000e+03 1.434725761413574219e+01 -8.419222831726074219e+00 -2.414532005786895752e-01 5.226081371307373047e+00 1.495388507843017578e+00 5.456422805786132812e+00
2.579000000000000000e+03 8.835130691528320312e+00 -8.875632286071777344e+00 -2.039518207311630249e-01 3.756602764129638672e+00 1.065795302391052246e+00 2.714527130126953125e+00
2.580000000000000000e+03 2.109034729003906250e+01 -4.615084648132324219e+00 4.758867263793945312e+00 2.034429550170898438e+00 2.037988901138305664e+00 6.288714408874511719e-01
2.581000000000000000e+03 1.394392299652099609e+01 4.705071449279785156e+00 2.556409537792205811e-01 2.799997329711914062e+00 9.166914820671081543e-01 -6.196212768554687500e-01
2.582000000000000000e+03 2.442438316345214844e+01 -6.738493442535400391e+00 1.712766647338867188e+00 8.097195029258728027e-01 7.567458152770996094e-01 -8.081189393997192383e-01
2.583000000000000000e+03 1.199074554443359375e+01 7.041241645812988281e+00 4.238075315952301025e-01 1.627750039100646973e+00 6.154672503471374512e-01 -4.156470298767089844e-01
2.584000000000000000e+03 1.235338973999023438e+01 -8.943737983703613281e+00 -4.926826655864715576e-01 4.902814388275146484e+00 1.323039531707763672e+00 5.240152359008789062e+00
2.585000000000000000e+03 1.135397624969482422e+01 6.984017372131347656e+00 4.440021812915802002e-01 1.358185052871704102e+00 5.406562089920043945e-01 -3.658449053764343262e-01
2.586000000000000000e+03 1.068081092834472656e+01 8.544082641601562500e+00 4.243094921112060547e-01 1.244506597518920898e+00 5.006448030471801758e-01 -2.897208929061889648e-01
2.587000000000000000e+03 1.020994186401367188e+01 9.460472106933593750e+00 4.033114910125732422e-01 1.167553424835205078e+00 4.712594747543334961e-01 -2.587569057941436768e-01
2.588000000000000000e+03 1.001026535034179688e+01 8.730112075805664062e+00 4.112020134925842285e-01 1.044778466224670410e+00 4.367941319942474365e-01 -2.365713566541671753e-01
2.589000000000000000e+03 1.181083011627197266e+01 -8.556506156921386719e+00 -9.555070102214813232e-02 4.634127616882324219e+00 1.361573100090026855e+00 4.993438720703125000e+00
2.590000000000000000e+03 1.090568637847900391e+01 -6.595633029937744141e+00 1.819633722305297852e+00 2.644528865814208984e+00 1.339248776435852051e+00 4.078366279602050781e+00
2.591000000000000000e+03 9.903637886047363281e+00 -9.604809761047363281e+00 -6.442005038261413574e-01 4.728150367736816406e+00 1.225184917449951172e+00 3.581072330474853516e+00
2.592000000000000000e+03 1.319564056396484375e+01 -8.517003059387207031e+00 -1.988842189311981201e-01 4.998359203338623047e+00 1.439842581748962402e+00 5.629165649414062500e+00
2.593000000000000000e+03 1.367079067230224609e+01 -8.746658325195312500e+00 -4.668233096599578857e-01 5.019553661346435547e+00 1.365819215774536133e+00 5.588597774505615234e+00
2.594000000000000000e+03 3.595527267456054688e+01 -7.291546821594238281e+00 -5.535100400447845459e-02 3.945417642593383789e+00 1.167019963264465332e+00 -2.241772651672363281e+00
2.595000000000000000e+03 3.666811752319335938e+01 -8.487722396850585938e+00 -3.602553606033325195e-01 4.188208103179931641e+00 1.148385882377624512e+00 -2.381466865539550781e+00
2.596000000000000000e+03 3.631698989868164062e+01 -5.227344989776611328e+00 3.490689098834991455e-01 4.242895603179931641e+00 1.377589464187622070e+00 -2.010637283325195312e+00
2.597000000000000000e+03 2.541259956359863281e+01 -6.090393066406250000e+00 1.921474456787109375e+00 9.494511485099792480e-01 8.612776994705200195e-01 -7.994900941848754883e-01
2.598000000000000000e+03 3.047732162475585938e+01 -6.853834629058837891e+00 6.163712739944458008e-01 2.027064561843872070e+00 7.930307984352111816e-01 -1.577466607093811035e+00
2.599000000000000000e+03 2.427981376647949219e+01 -5.164395809173583984e+00 2.864129304885864258e+00 1.043307065963745117e+00 1.172230958938598633e+00 -3.241020441055297852e-01
2.600000000000000000e+03 1.019637298583984375e+01 1.565969753265380859e+01 1.893025487661361694e-01 1.383293271064758301e+00 4.717787504196166992e-01 -3.325128257274627686e-01
2.601000000000000000e+03 3.349576950073242188e+01 -8.351891517639160156e+00 -1.602263152599334717e-01 2.928431987762451172e+00 8.304616808891296387e-01 -2.087854862213134766e+00
2.602000000000000000e+03 3.270080184936523438e+01 -7.946782112121582031e+00 4.654183238744735718e-02 2.669695854187011719e+00 8.148713111877441406e-01 -1.927410602569580078e+00
2.603000000000000000e+03 3.569302368164062500e+01 -5.470098853111267090e-01 1.237919211387634277e+00 4.611428737640380859e+00 1.754804372787475586e+00 -1.208743691444396973e+00
2.604000000000000000e+03 3.578902435302734375e+01 4.576208293437957764e-01 1.343557476997375488e+00 4.797387599945068359e+00 1.842283606529235840e+00 -1.056895256042480469e+00
2.605000000000000000e+03 1.115519142150878906e+01 1.205419731140136719e+01 3.018308877944946289e-01 1.559783339500427246e+00 5.584842562675476074e-01 -3.067483603954315186e-01
2.606000000000000000e+03 2.683106994628906250e+01 -3.973404169082641602e+00 2.547321319580078125e+00 1.535243749618530273e+00 1.224769473075866699e+00 -4.256309270858764648e-01
2.607000000000000000e+03 1.067704010009765625e+01 1.307474422454833984e+01 2.796586751937866211e-01 1.462266445159912109e+00 5.225775241851806641e-01 -3.096498847007751465e-01
2.608000000000000000e+03 2.893278121948242188e+01 -6.898698806762695312e+00 7.806091904640197754e-01 1.589020013809204102e+00 7.108887434005737305e-01 -1.408181190490722656e+00
2.609000000000000000e+03 1.192281055450439453e+01 2.067445182800292969e+01 9.368750452995300293e-02 1.849094748497009277e+00 5.828346610069274902e-01 -4.285671114921569824e-01
2.610000000000000000e+03 3.361159133911132812e+01 6.563769817352294922e+00 2.058467149734497070e+00 5.142007827758789062e+00 2.160142421722412109e+00 1.699843071401119232e-02
2.611000000000000000e+03 3.381475067138671875e+01 7.672914981842041016e+00 2.084128618240356445e+00 5.344958782196044922e+00 2.228726148605346680e+00 -3.819520818069577217e-03
2.612000000000000000e+03 3.556314086914062500e+01 2.036785602569580078e+00 1.539621472358703613e+00 5.047336101531982422e+00 1.976087331771850586e+00 -7.636740803718566895e-01
2.613000000000000000e+03 3.195945549011230469e+01 9.816820144653320312e+00 1.970084786415100098e+00 5.051069259643554688e+00 2.106346130371093750e+00 1.846663802862167358e-01
2.614000000000000000e+03 1.190161705017089844e+01 1.539661502838134766e+01 2.340898215770721436e-01 1.806861996650695801e+00 6.122855544090270996e-01 -3.652844130992889404e-01
2.615000000000000000e+03 3.052775382995605469e+01 -8.365782737731933594e+00 -6.045231968164443970e-02 1.904904961585998535e+00 5.533357858657836914e-01 -1.675303697586059570e+00
2.616000000000000000e+03 3.587527084350585938e+01 -3.940619468688964844e+00 6.535068750381469727e-01 4.255045890808105469e+00 1.472565889358520508e+00 -1.764460802078247070e+00
2.617000000000000000e+03 3.078851890563964844e+01 1.293933963775634766e+01 1.653092384338378906e+00 5.038447856903076172e+00 2.007462024688720703e+00 8.051589876413345337e-02
2.618000000000000000e+03 1.350381374359130859e+01 2.355441474914550781e+01 2.040518075227737427e-02 2.177021741867065430e+00 6.592280268669128418e-01 -4.596458375453948975e-01
2.619000000000000000e+03 1.110731220245361328e+01 1.915208625793457031e+01 1.221259683370590210e-01 1.652270793914794922e+00 5.323190093040466309e-01 -3.994041979312896729e-01
2.620000000000000000e+03 3.095491790771484375e+01 2.046745491027832031e+01 7.396979928016662598e-01 5.190201759338378906e+00 1.778969883918762207e+00 -3.241300880908966064e-01
2.621000000000000000e+03 3.027938842773437500e+01 1.512438774108886719e+01 1.376423835754394531e+00 5.019366264343261719e+00 1.918737053871154785e+00 -5.190904811024665833e-02
2.622000000000000000e+03 1.664341163635253906e+01 -4.120914077758789062e+01 -3.757411539554595947e-01 -3.278636932373046875e-01 -2.110814452171325684e-01 1.009958088397979736e-01
2.623000000000000000e+03 5.238394165039062500e+01 -4.080576705932617188e+01 -1.790037989616394043e+00 6.444372653961181641e+00 1.396300435066223145e+00 -2.420092523097991943e-01
2.624000000000000000e+03 5.490137100219726562e+01 -3.663709259033203125e+01 -8.214753866195678711e-01 6.089276313781738281e+00 1.580340266227722168e+00 -1.020808219909667969e+00
2.625000000000000000e+03 3.370904541015625000e+01 2.354695701599121094e+01 3.525257408618927002e-01 5.564133167266845703e+00 1.774997591972351074e+00 -2.600347995758056641e-01
2.626000000000000000e+03 2.583398437500000000e+01 -3.745501327514648438e+01 -1.508974432945251465e+00 -3.131082653999328613e-01 -5.466248393058776855e-01 1.798152625560760498e-01
2.627000000000000000e+03 2.814875984191894531e+01 -3.875975036621093750e+01 -1.382045030593872070e+00 -3.090431988239288330e-01 -5.073264837265014648e-01 -3.239582059904932976e-03
2.628000000000000000e+03 3.381052017211914062e+01 2.863440322875976562e+01 -3.451132774353027344e-01 5.282963752746582031e+00 1.481355190277099609e+00 -2.847292125225067139e-01
2.629000000000000000e+03 2.963186073303222656e+01 2.102083206176757812e+01 6.453859210014343262e-01 4.954180240631103516e+00 1.679869890213012695e+00 -3.591500818729400635e-01
2.630000000000000000e+03 3.296227645874023438e+01 2.175546264648437500e+01 5.975244641304016113e-01 5.533164501190185547e+00 1.839206695556640625e+00 -2.804705500602722168e-01
2.631000000000000000e+03 1.198542594909667969e+01 3.438942718505859375e+01 -2.219366580247879028e-01 2.048485994338989258e+00 5.479647517204284668e-01 -3.159837722778320312e-01
2.632000000000000000e+03 3.415669250488281250e+01 -3.556327056884765625e+01 -2.039810180664062500e+00 -3.120961785316467285e-01 -7.055719494819641113e-01 -2.284137159585952759e-01
2.633000000000000000e+03 2.757035827636718750e+01 -4.120751190185546875e+01 -1.236416578292846680e+00 -4.557770788669586182e-01 -5.076580643653869629e-01 -1.373187405988574028e-03
2.634000000000000000e+03 4.769466018676757812e+01 3.907304763793945312e+01 -7.801035046577453613e-01 2.796505689620971680e+00 6.049206852912902832e-01 3.311918079853057861e-01
2.635000000000000000e+03 4.259866333007812500e+01 4.102660751342773438e+01 -1.159901857376098633e+00 4.110744476318359375e+00 8.852527737617492676e-01 7.708299160003662109e-02
2.636000000000000000e+03 1.736923027038574219e+01 1.154553294181823730e+00 5.398486852645874023e-01 7.302775382995605469e+00 2.352787256240844727e+00 1.900117993354797363e+00
2.637000000000000000e+03 2.008113479614257812e+01 2.829512953758239746e-01 3.399730205535888672e+00 4.994537830352783203e+00 2.518280267715454102e+00 3.305936098098754883e+00
2.638000000000000000e+03 1.294325542449951172e+01 -6.728597640991210938e+00 2.173933744430541992e+00 4.121403694152832031e+00 1.888601303100585938e+00 5.781311511993408203e+00
2.639000000000000000e+03 1.812817001342773438e+01 6.910493373870849609e-01 1.558563232421875000e+00 7.282646656036376953e+00 2.652363061904907227e+00 3.011523485183715820e+00
2.640000000000000000e+03 1.187643337249755859e+01 -6.457376480102539062e+00 2.314471960067749023e+00 3.019275903701782227e+00 1.600124359130859375e+00 4.881091594696044922e+00
2.641000000000000000e+03 1.082024955749511719e+01 -6.015000343322753906e+00 2.265733718872070312e+00 2.006162405014038086e+00 1.281568765640258789e+00 3.679177284240722656e+00
2.642000000000000000e+03 1.572493648529052734e+01 3.304961442947387695e+00 -3.298976644873619080e-02 4.718552112579345703e+00 1.405668735504150391e+00 -2.374611347913742065e-01
2.643000000000000000e+03 1.633856391906738281e+01 2.283377408981323242e+00 -8.377349376678466797e-02 5.985364913940429688e+00 1.770477414131164551e+00 3.005024194717407227e-01
2.644000000000000000e+03 2.058900260925292969e+01 -2.133365869522094727e-01 3.995713472366333008e+00 4.321881771087646484e+00 2.495278596878051758e+00 3.163107633590698242e+00
2.645000000000000000e+03 1.599123001098632812e+01 2.752545833587646484e+00 -7.012008130550384521e-02 5.290872097015380859e+00 1.566225647926330566e+00 -4.474846273660659790e-02
2.646000000000000000e+03 1.137137794494628906e+01 -7.912884712219238281e+00 5.674650669097900391e-01 4.009338855743408203e+00 1.373041152954101562e+00 4.710794448852539062e+00
2.647000000000000000e+03 1.204818153381347656e+01 -7.573752403259277344e+00 9.475035667419433594e-01 4.072722911834716797e+00 1.506067991256713867e+00 5.180160045623779297e+00
2.648000000000000000e+03 1.463711738586425781e+01 3.238138437271118164e+00 6.591510027647018433e-02 3.677888631820678711e+00 1.123141169548034668e+00 -6.926930546760559082e-01
2.649000000000000000e+03 1.588638019561767578e+01 1.315280079841613770e+00 -2.555372714996337891e-01 6.528559684753417969e+00 1.881906747817993164e+00 -5.758923292160034180e-02
2.650000000000000000e+03 1.331519699096679688e+01 6.707087516784667969e+00 3.634288609027862549e-01 2.276153802871704102e+00 7.918748259544372559e-01 -4.791289269924163818e-01
2.651000000000000000e+03 1.298492908477783203e+01 5.704391479492187500e+00 3.797142803668975830e-01 2.084554910659790039e+00 7.392807602882385254e-01 -5.469076633453369141e-01
2.652000000000000000e+03 2.111579132080078125e+01 -2.170357257127761841e-01 4.015377998352050781e+00 3.838839530944824219e+00 2.356265306472778320e+00 2.891082763671875000e+00
2.653000000000000000e+03 1.462468051910400391e+01 4.851325988769531250e+00 1.926004886627197266e-01 3.292204380035400391e+00 1.045441508293151855e+00 -4.897413849830627441e-01
2.654000000000000000e+03 1.260808467864990234e+01 -8.678466796875000000e+00 -2.912318110466003418e-01 4.939979076385498047e+00 1.394624233245849609e+00 5.414151668548583984e+00
2.655000000000000000e+03 1.276462173461914062e+01 -8.300934791564941406e+00 1.359597593545913696e-01 4.763571262359619141e+00 1.469859242439270020e+00 5.577949047088623047e+00
2.656000000000000000e+03 9.152666091918945312e+00 -8.110726356506347656e+00 2.705703973770141602e-01 3.220388174057006836e+00 1.047287583351135254e+00 2.917600631713867188e+00
2.657000000000000000e+03 2.192854499816894531e+01 -4.165156364440917969e+00 4.629673480987548828e+00 1.715649485588073730e+00 1.903596878051757812e+00 7.398200035095214844e-01
2.658000000000000000e+03 2.232663154602050781e+01 -5.476908683776855469e+00 3.536410808563232422e+00 1.281341791152954102e+00 1.445325732231140137e+00 -1.190800126641988754e-02
2.659000000000000000e+03 2.541836357116699219e+01 -4.392153739929199219e+00 2.862140893936157227e+00 1.269741654396057129e+00 1.239564776420593262e+00 -2.838281691074371338e-01
2.660000000000000000e+03 1.138209915161132812e+01 -5.915890693664550781e+00 2.714528799057006836e+00 2.234109640121459961e+00 1.484591603279113770e+00 4.257230758666992188e+00
2.661000000000000000e+03 1.371796035766601562e+01 -7.387402057647705078e+00 9.660643339157104492e-01 5.229114055633544922e+00 1.858553528785705566e+00 5.820116043090820312e+00
2.662000000000000000e+03 1.273874759674072266e+01 6.454656124114990234e+00 3.934588730335235596e-01 1.943758249282836914e+00 7.011651396751403809e-01 -4.842985272407531738e-01
2.663000000000000000e+03 1.045874118804931641e+01 -8.514803886413574219e+00 7.585024461150169373e-03 4.121654510498046875e+00 1.238771796226501465e+00 4.026288032531738281e+00
2.664000000000000000e+03 1.128888702392578125e+01 8.482043266296386719e+00 4.223292768001556396e-01 1.447732925415039062e+00 5.610186457633972168e-01 -3.337033092975616455e-01
2.665000000000000000e+03 1.077767848968505859e+01 9.207798957824707031e+00 4.010600745677947998e-01 1.304597258567810059e+00 5.116971731185913086e-01 -2.899440228939056396e-01
2.666000000000000000e+03 2.325295066833496094e+01 -5.340275764465332031e+00 3.169243097305297852e+00 1.061605572700500488e+00 1.269254565238952637e+00 -1.958048194646835327e-01
2.667000000000000000e+03 2.255000686645507812e+01 -3.527449846267700195e+00 4.524299621582031250e+00 1.716191053390502930e+00 1.872147202491760254e+00 8.979782462120056152e-01
2.668000000000000000e+03 1.058910083770751953e+01 1.082566738128662109e+01 3.507720232009887695e-01 1.339988827705383301e+00 5.072282552719116211e-01 -2.774408161640167236e-01
2.669000000000000000e+03 2.802428627014160156e+01 -6.231487751007080078e+00 1.287886738777160645e+00 1.440735459327697754e+00 8.185866475105285645e-01 -1.213693737983703613e+00
2.670000000000000000e+03 1.257416057586669922e+01 1.848520851135253906e+01 1.613295227289199829e-01 1.953340530395507812e+00 6.344010233879089355e-01 -4.071550965309143066e-01
2.671000000000000000e+03 2.271121215820312500e+01 -4.707283496856689453e+00 3.924723625183105469e+00 1.343111991882324219e+00 1.580350756645202637e+00 2.157308161258697510e-01
2.672000000000000000e+03 2.941820144653320312e+01 -4.527711868286132812e+00 1.703332901000976562e+00 2.065321922302246094e+00 1.130596518516540527e+00 -1.036706686019897461e+00
2.673000000000000000e+03 3.481122589111328125e+01 9.019798040390014648e-01 1.552961826324462891e+00 4.599990367889404297e+00 1.845885753631591797e+00 -8.302356004714965820e-01
2.674000000000000000e+03 3.584612655639648438e+01 -1.607522368431091309e+00 1.037543654441833496e+00 4.536721706390380859e+00 1.672279596328735352e+00 -1.407455325126647949e+00
2.675000000000000000e+03 3.466663360595703125e+01 2.547134637832641602e+00 1.726986646652221680e+00 4.836289882659912109e+00 1.968982934951782227e+00 -5.726000070571899414e-01
2.676000000000000000e+03 3.338028717041015625e+01 -4.653642177581787109e+00 8.997446298599243164e-01 3.275013923645019531e+00 1.252427577972412109e+00 -1.611419796943664551e+00
2.677000000000000000e+03 3.242350387573242188e+01 6.766640186309814453e+00 2.115158557891845703e+00 4.810124874114990234e+00 2.077584981918334961e+00 1.695348173379898071e-01
2.678000000000000000e+03 3.370142364501953125e+01 2.984012365341186523e+00 1.899129748344421387e+00 4.602647304534912109e+00 1.950533151626586914e+00 -3.164322972297668457e-01
2.679000000000000000e+03 1.359243488311767578e+01 1.518446254730224609e+01 2.578088045120239258e-01 2.205426931381225586e+00 7.389707565307617188e-01 -3.489439785480499268e-01
2.680000000000000000e+03 3.255147552490234375e+01 7.912588119506835938e+00 2.059838533401489258e+00 5.014126300811767578e+00 2.122189521789550781e+00 1.739911139011383057e-01
2.681000000000000000e+03 3.442853164672851562e+01 -7.411377429962158203e+00 6.534142792224884033e-02 3.359778165817260742e+00 1.027535915374755859e+00 -2.099752187728881836e+00
2.682000000000000000e+03 3.441035842895507812e+01 -8.299472808837890625e+00 -1.654596626758575439e-01 3.229836940765380859e+00 9.193131923675537109e-01 -2.172652244567871094e+00
2.683000000000000000e+03 1.170897483825683594e+01 1.361134624481201172e+01 2.774227857589721680e-01 1.746838331222534180e+00 6.072783470153808594e-01 -3.422119617462158203e-01
2.684000000000000000e+03 3.125027847290039062e+01 -7.727938175201416016e+00 2.275323718786239624e-01 2.191334009170532227e+00 7.256599068641662598e-01 -1.721989035606384277e+00
2.685000000000000000e+03 1.231971740722656250e+01 1.710932540893554688e+01 1.910945028066635132e-01 1.883521080017089844e+00 6.223846673965454102e-01 -3.839762806892395020e-01
2.686000000000000000e+03 3.203885650634765625e+01 -7.029553890228271484e+00 3.943526744842529297e-01 2.496462345123291016e+00 8.672444820404052734e-01 -1.779091596603393555e+00
2.687000000000000000e+03 3.491149139404296875e+01 -6.520703315734863281e+00 2.287888079881668091e-01 3.658476352691650391e+00 1.166179537773132324e+00 -2.036154747009277344e+00
2.688000000000000000e+03 2.976597213745117188e+01 1.169887542724609375e+01 1.712273478507995605e+00 4.790473461151123047e+00 1.950824022293090820e+00 2.243867367506027222e-01
2.689000000000000000e+03 3.017973709106445312e+01 1.886710929870605469e+01 8.987187743186950684e-01 5.033345222473144531e+00 1.779619216918945312e+00 -2.627435624599456787e-01
2.690000000000000000e+03 2.946072769165039062e+01 1.733034706115722656e+01 1.053089857101440430e+00 4.919011592864990234e+00 1.791630506515502930e+00 -1.775866895914077759e-01
2.691000000000000000e+03 3.402181243896484375e+01 1.560048222541809082e+00 1.740424036979675293e+00 4.438867568969726562e+00 1.853787541389465332e+00 -5.951531529426574707e-01
2.692000000000000000e+03 1.735955047607421875e+01 2.385495758056640625e+01 2.833620831370353699e-02 2.907592058181762695e+00 8.807784318923950195e-01 -4.737797975540161133e-01
2.693000000000000000e+03 5.716860198974609375e+01 -4.089008712768554688e+01 -6.473537683486938477e-01 4.372447967529296875e+00 1.117528200149536133e+00 -5.243280529975891113e-01
2.694000000000000000e+03 3.861774826049804688e+01 3.101798629760742188e+01 -6.068010926246643066e-01 5.241989135742187500e+00 1.390556335449218750e+00 9.916904568672180176e-02
2.695000000000000000e+03 1.867962837219238281e+01 9.571793675422668457e-01 1.791804790496826172e+00 6.524153709411621094e+00 2.494787454605102539e+00 2.958106994628906250e+00
2.696000000000000000e+03 1.618966865539550781e+01 1.548921465873718262e+00 -2.095073014497756958e-01 6.712621688842773438e+00 1.950934290885925293e+00 3.503175973892211914e-01
2.697000000000000000e+03 1.559199142456054688e+01 2.307955980300903320e+00 -1.302789598703384399e-01 5.260843276977539062e+00 1.539169311523437500e+00 -3.367423713207244873e-01
2.698000000000000000e+03 1.595216751098632812e+01 1.943051338195800781e+00 -1.417932808399200439e-01 6.003411293029785156e+00 1.758485317230224609e+00 2.012143097817897797e-02
2.699000000000000000e+03 1.947079658508300781e+01 3.319903016090393066e-01 3.017376184463500977e+00 5.686323165893554688e+00 2.611109733581542969e+00 3.438263416290283203e+00
2.700000000000000000e+03 2.066643142700195312e+01 2.745914459228515625e-01 3.552142381668090820e+00 4.436967849731445312e+00 2.396733045578002930e+00 3.083568572998046875e+00
2.701000000000000000e+03 1.223044013977050781e+01 -7.071554660797119141e+00 1.611423969268798828e+00 3.807977676391601562e+00 1.625820517539978027e+00 5.336318016052246094e+00
2.702000000000000000e+03 1.173326778411865234e+01 -6.977345466613769531e+00 1.553568840026855469e+00 3.511465311050415039e+00 1.519510269165039062e+00 4.952682495117187500e+00
2.703000000000000000e+03 1.778915977478027344e+01 1.061054706573486328e+00 1.001533627510070801e+00 7.205238342285156250e+00 2.462031602859497070e+00 2.347892999649047852e+00
2.704000000000000000e+03 1.559539031982421875e+01 3.891636848449707031e+00 6.425964832305908203e-02 4.283239364624023438e+00 1.304249644279479980e+00 -2.785635292530059814e-01
2.705000000000000000e+03 1.039451122283935547e+01 -7.604874610900878906e+00 8.224672675132751465e-01 3.290779829025268555e+00 1.233974099159240723e+00 3.877992868423461914e+00
2.706000000000000000e+03 1.122144889831542969e+01 -6.911627292633056641e+00 1.569361567497253418e+00 3.059121131896972656e+00 1.388544797897338867e+00 4.378323078155517578e+00
2.707000000000000000e+03 1.476315879821777344e+01 4.247290611267089844e+00 1.345965862274169922e-01 3.527623891830444336e+00 1.098666191101074219e+00 -5.240361094474792480e-01
2.708000000000000000e+03 1.405140590667724609e+01 6.408093929290771484e+00 3.126206398010253906e-01 2.717008113861083984e+00 9.088886380195617676e-01 -4.410425126552581787e-01
2.709000000000000000e+03 1.462675857543945312e+01 5.575479507446289062e+00 2.357457280158996582e-01 3.159253597259521484e+00 1.018499732017517090e+00 -4.351129233837127686e-01
2.710000000000000000e+03 1.430751705169677734e+01 5.948678970336914062e+00 2.658597230911254883e-01 2.918256998062133789e+00 9.552350044250488281e-01 -4.480533301830291748e-01
2.711000000000000000e+03 1.387031173706054688e+01 5.559604644775390625e+00 3.000898361206054688e-01 2.671707153320312500e+00 8.915390968322753906e-01 -5.236738324165344238e-01
2.712000000000000000e+03 1.234176826477050781e+01 -8.149482727050781250e+00 2.534008026123046875e-01 4.602557182312011719e+00 1.456787467002868652e+00 5.318431377410888672e+00
2.713000000000000000e+03 1.292032623291015625e+01 -7.885149478912353516e+00 5.240930318832397461e-01 4.730503082275390625e+00 1.576378822326660156e+00 5.624327182769775391e+00
2.714000000000000000e+03 1.349436378479003906e+01 -7.687595367431640625e+00 6.549560427665710449e-01 5.065777778625488281e+00 1.716220140457153320e+00 5.779630661010742188e+00
2.715000000000000000e+03 2.470122146606445312e+01 -3.321957826614379883e+00 3.584101915359497070e+00 1.533679604530334473e+00 1.535334467887878418e+00 3.789740502834320068e-01
2.716000000000000000e+03 2.192966079711914062e+01 -3.076910495758056641e+00 4.962637424468994141e+00 2.025832414627075195e+00 2.096540927886962891e+00 1.384131073951721191e+00
2.717000000000000000e+03 2.186814308166503906e+01 -2.254239559173583984e+00 4.955789089202880859e+00 2.384869813919067383e+00 2.202197790145874023e+00 1.878540277481079102e+00
2.718000000000000000e+03 2.158852577209472656e+01 -1.878309965133666992e+00 4.952048778533935547e+00 2.757950305938720703e+00 2.312999725341796875e+00 2.233966588973999023e+00
2.719000000000000000e+03 9.614694595336914062e+00 -7.475769996643066406e+00 7.401327490806579590e-01 2.924777984619140625e+00 1.099473237991333008e+00 3.235262393951416016e+00
2.720000000000000000e+03 1.190608501434326172e+01 7.780740737915039062e+00 4.228238463401794434e-01 1.640389919281005859e+00 6.189641356468200684e-01 -3.893566131591796875e-01
2.721000000000000000e+03 2.335746765136718750e+01 -3.960344552993774414e+00 3.965285062789916992e+00 1.391347169876098633e+00 1.606989622116088867e+00 4.578168690204620361e-01
2.722000000000000000e+03 1.258088397979736328e+01 7.169207572937011719e+00 4.104111790657043457e-01 1.899869203567504883e+00 6.930841207504272461e-01 -4.395092427730560303e-01
2.723000000000000000e+03 1.247153282165527344e+01 7.863613605499267578e+00 3.978277146816253662e-01 1.868780255317687988e+00 6.799824237823486328e-01 -4.126795530319213867e-01
2.724000000000000000e+03 1.108627510070800781e+01 -7.482645511627197266e+00 9.369424581527709961e-01 3.553965806961059570e+00 1.347272515296936035e+00 4.456655502319335938e+00
2.725000000000000000e+03 1.315611553192138672e+01 7.357812404632568359e+00 3.736054897308349609e-01 2.171859502792358398e+00 7.636394500732421875e-01 -4.376553297042846680e-01
2.726000000000000000e+03 1.354363632202148438e+01 6.081609725952148438e+00 3.318674564361572266e-01 2.451576948165893555e+00 8.350332975387573242e-01 -5.034837722778320312e-01
2.727000000000000000e+03 2.622480201721191406e+01 -4.847459316253662109e+00 2.407026290893554688e+00 1.267640709877014160e+00 1.102400183677673340e+00 -6.042587757110595703e-01
2.728000000000000000e+03 2.235889625549316406e+01 -2.563339471817016602e+00 4.727257251739501953e+00 2.122423410415649414e+00 2.054904222488403320e+00 1.491091012954711914e+00
2.729000000000000000e+03 2.705404853820800781e+01 -5.559609889984130859e+00 1.815075755119323730e+00 1.314443826675415039e+00 9.388558864593505859e-01 -8.931817412376403809e-01
2.730000000000000000e+03 1.185706520080566406e+01 8.512493133544921875e+00 4.089392721652984619e-01 1.667684435844421387e+00 6.229870915412902832e-01 -3.638094067573547363e-01
2.731000000000000000e+03 1.373314952850341797e+01 7.595196723937988281e+00 3.482086658477783203e-01 2.452256441116333008e+00 8.401395082473754883e-01 -4.057080149650573730e-01
2.732000000000000000e+03 3.346555709838867188e+01 -7.403800010681152344e+00 1.645458191633224487e-01 3.083819866180419922e+00 9.745096564292907715e-01 -1.972208142280578613e+00
2.733000000000000000e+03 3.508394241333007812e+01 -5.465326786041259766e+00 4.470305144786834717e-01 3.831418991088867188e+00 1.283534765243530273e+00 -1.927469015121459961e+00
2.734000000000000000e+03 3.573138427734375000e+01 -2.756616115570068359e+00 8.709493875503540039e-01 4.337051868438720703e+00 1.562400341033935547e+00 -1.603309035301208496e+00
2.735000000000000000e+03 2.962333106994628906e+01 -6.079277515411376953e+00 1.082218527793884277e+00 1.892396926879882812e+00 8.923846483230590820e-01 -1.379504799842834473e+00
2.736000000000000000e+03 3.478557205200195312e+01 -8.510033488273620605e-01 1.344558954238891602e+00 4.310816764831542969e+00 1.696612715721130371e+00 -1.134014964103698730e+00
2.737000000000000000e+03 3.105338287353515625e+01 5.949073314666748047e+00 2.161438941955566406e+00 4.421381473541259766e+00 1.974846124649047852e+00 3.339348435401916504e-01
2.738000000000000000e+03 1.332698726654052734e+01 1.992811012268066406e+01 1.242242753505706787e-01 2.124271154403686523e+00 6.745486259460449219e-01 -4.290675222873687744e-01
2.739000000000000000e+03 2.437845802307128906e+01 -4.239952087402343750e+00 3.401494979858398438e+00 1.256565570831298828e+00 1.397418141365051270e+00 2.133359201252460480e-02
2.740000000000000000e+03 3.405429840087890625e+01 -1.996315866708755493e-01 1.549735188484191895e+00 4.175428390502929688e+00 1.717549085617065430e+00 -8.840093016624450684e-01
2.741000000000000000e+03 3.426556015014648438e+01 -1.551187396049499512e+00 1.354064583778381348e+00 3.978780269622802734e+00 1.599853515625000000e+00 -1.143582224845886230e+00
2.742000000000000000e+03 3.399711990356445312e+01 -5.790863513946533203e+00 5.236792564392089844e-01 3.352298021316528320e+00 1.162793159484863281e+00 -1.854447960853576660e+00
2.743000000000000000e+03 1.523000431060791016e+01 1.721695327758789062e+01 2.437184751033782959e-01 2.557371139526367188e+00 8.403268456459045410e-01 -3.684943020343780518e-01
2.744000000000000000e+03 2.986886215209960938e+01 9.720489501953125000e+00 1.871806383132934570e+00 4.663030147552490234e+00 1.960450887680053711e+00 3.622312843799591064e-01
2.745000000000000000e+03 3.080257987976074219e+01 8.830708503723144531e+00 1.989353299140930176e+00 4.730442523956298828e+00 2.015938758850097656e+00 3.173058927059173584e-01
2.746000000000000000e+03 1.414490795135498047e+01 2.133054161071777344e+01 9.553824365139007568e-02 2.301683425903320312e+00 7.191665172576904297e-01 -4.438098967075347900e-01
2.747000000000000000e+03 3.327399826049804688e+01 2.047167062759399414e+00 1.899525046348571777e+00 4.353928089141845703e+00 1.876035928726196289e+00 -3.580546677112579346e-01
2.748000000000000000e+03 3.413560867309570312e+01 4.041850566864013672e+00 1.921971559524536133e+00 4.917102336883544922e+00 2.051722288131713867e+00 -2.704743146896362305e-01
2.749000000000000000e+03 3.333747100830078125e+01 5.449307441711425781e+00 2.065834045410156250e+00 4.887209415435791016e+00 2.085912942886352539e+00 -1.908107660710811615e-02
2.750000000000000000e+03 3.229814529418945312e+01 2.305463790893554688e+00 2.033480644226074219e+00 4.129210472106933594e+00 1.848807334899902344e+00 -1.845800578594207764e-01
2.751000000000000000e+03 1.518784427642822266e+01 -3.881338119506835938e+01 -4.467079937458038330e-01 -1.363900490105152130e-02 -1.381040960550308228e-01 3.239863812923431396e-01
2.752000000000000000e+03 3.000483703613281250e+01 2.267802238464355469e+01 4.308415055274963379e-01 4.993275165557861328e+00 1.627235054969787598e+00 -3.950178027153015137e-01
2.753000000000000000e+03 2.835310363769531250e+01 2.115811347961425781e+01 5.598678588867187500e-01 4.728972434997558594e+00 1.586652159690856934e+00 -3.677560389041900635e-01
2.754000000000000000e+03 2.939414405822753906e+01 1.377383995056152344e+01 1.455158114433288574e+00 4.820924282073974609e+00 1.882824659347534180e+00 7.209068536758422852e-02
2.755000000000000000e+03 2.844998931884765625e+01 1.253120422363281250e+01 1.509289383888244629e+00 4.628645896911621094e+00 1.841380596160888672e+00 2.210062891244888306e-01
2.756000000000000000e+03 1.851276016235351562e+01 1.629523515701293945e+00 1.218420743942260742e+00 6.412962913513183594e+00 2.289415121078491211e+00 2.410002470016479492e+00
2.757000000000000000e+03 2.126728057861328125e+01 2.511582672595977783e-01 3.645855426788330078e+00 3.993645668029785156e+00 2.291850328445434570e+00 2.838780641555786133e+00
2.758000000000000000e+03 1.302675056457519531e+01 7.998905658721923828e+00 3.836469054222106934e-01 2.104244947433471680e+00 7.463675141334533691e-01 -4.064893424510955811e-01
2.759000000000000000e+03 1.965398406982421875e+01 9.038351774215698242e-01 2.518290996551513672e+00 5.619907379150390625e+00 2.441459417343139648e+00 3.136265993118286133e+00
2.760000000000000000e+03 1.268399047851562500e+01 -7.234294414520263672e+00 1.373628735542297363e+00 4.262189865112304688e+00 1.690745711326599121e+00 5.597544193267822266e+00
2.761000000000000000e+03 1.495506095886230469e+01 5.227945804595947266e+00 1.741353124380111694e-01 3.422552108764648438e+00 1.079006314277648926e+00 -4.038040637969970703e-01
2.762000000000000000e+03 1.923830795288085938e+01 1.246975898742675781e+00 2.003118038177490234e+00 5.965687751770019531e+00 2.390641689300537109e+00 2.925764560699462891e+00
2.763000000000000000e+03 1.501501464843750000e+01 5.982954978942871094e+00 2.159761041402816772e-01 3.303547620773315430e+00 1.055857062339782715e+00 -3.483307659626007080e-01
2.764000000000000000e+03 1.678413200378417969e+01 2.648628711700439453e+00 5.026196315884590149e-02 5.860154151916503906e+00 1.773124814033508301e+00 5.876629352569580078e-01
2.765000000000000000e+03 2.144800758361816406e+01 -2.609854698181152344e+00 5.250135898590087891e+00 2.488121747970581055e+00 2.321477413177490234e+00 1.859999895095825195e+00
2.766000000000000000e+03 2.208315086364746094e+01 -1.847979545593261719e+00 4.707751274108886719e+00 2.534958362579345703e+00 2.172812938690185547e+00 1.958024501800537109e+00
2.767000000000000000e+03 2.183516693115234375e+01 -1.191144227981567383e+00 4.532832622528076172e+00 2.961827754974365234e+00 2.248398065567016602e+00 2.371422529220581055e+00
2.768000000000000000e+03 2.376665878295898438e+01 -3.126163721084594727e+00 3.996873378753662109e+00 1.615780234336853027e+00 1.683796048164367676e+00 6.973717808723449707e-01
2.769000000000000000e+03 2.578723144531250000e+01 -3.501004695892333984e+00 3.108300924301147461e+00 1.497200489044189453e+00 1.381650447845458984e+00 -3.662778809666633606e-02
2.770000000000000000e+03 2.327261161804199219e+01 -2.178910255432128906e+00 4.258527278900146484e+00 2.017862081527709961e+00 1.882916808128356934e+00 1.292633295059204102e+00
2.771000000000000000e+03 1.240530681610107422e+01 8.565771102905273438e+00 4.002307355403900146e-01 1.865109324455261230e+00 6.796020269393920898e-01 -3.900261819362640381e-01
2.772000000000000000e+03 1.470383834838867188e+01 6.291641235351562500e+00 2.692993879318237305e-01 3.107754945755004883e+00 1.013116240501403809e+00 -3.651239573955535889e-01
2.773000000000000000e+03 1.288082599639892578e+01 1.044232559204101562e+01 3.490200340747833252e-01 2.064790487289428711e+00 7.241432070732116699e-01 -3.482975959777832031e-01
2.774000000000000000e+03 1.127188682556152344e+01 9.154960632324218750e+00 3.986315429210662842e-01 1.500356078147888184e+00 5.696962475776672363e-01 -3.278779387474060059e-01
2.775000000000000000e+03 3.465974426269531250e+01 -4.259471416473388672e+00 7.782253623008728027e-01 3.827301263809204102e+00 1.381657958030700684e+00 -1.697947621345520020e+00
2.776000000000000000e+03 3.484219741821289062e+01 -2.613757133483886719e+00 1.019106507301330566e+00 4.085594177246093750e+00 1.531410217285156250e+00 -1.459873437881469727e+00
2.777000000000000000e+03 2.846099281311035156e+01 -3.864013910293579102e+00 2.119341135025024414e+00 1.892371177673339844e+00 1.203513741493225098e+00 -7.182334661483764648e-01
2.778000000000000000e+03 1.214359188079833984e+01 1.249227523803710938e+01 3.149529695510864258e-01 1.841985225677490234e+00 6.470814347267150879e-01 -3.352779150009155273e-01
2.779000000000000000e+03 2.870592880249023438e+01 -5.375796794891357422e+00 1.524266719818115234e+00 1.716204524040222168e+00 9.721413850784301758e-01 -1.117293596267700195e+00
2.780000000000000000e+03 2.757379531860351562e+01 -3.156352043151855469e+00 2.582586288452148438e+00 1.864532470703125000e+00 1.334135651588439941e+00 -3.475074470043182373e-01
2.781000000000000000e+03 3.128063392639160156e+01 -6.084260940551757812e+00 8.343639969825744629e-01 2.389773130416870117e+00 9.672411680221557617e-01 -1.572304368019104004e+00
2.782000000000000000e+03 3.221908569335937500e+01 -5.270030498504638672e+00 9.419285058975219727e-01 2.805427789688110352e+00 1.124206900596618652e+00 -1.562734603881835938e+00
2.783000000000000000e+03 1.442407989501953125e+01 1.613879585266113281e+01 2.486672550439834595e-01 2.391714096069335938e+00 7.921143770217895508e-01 -3.524861037731170654e-01
2.784000000000000000e+03 1.706843185424804688e+01 1.970105934143066406e+01 2.091732621192932129e-01 2.882752180099487305e+00 9.275776147842407227e-01 -4.044346213340759277e-01
2.785000000000000000e+03 2.977297019958496094e+01 7.937659263610839844e+00 2.005665302276611328e+00 4.452341556549072266e+00 1.937402009963989258e+00 4.814616143703460693e-01
2.786000000000000000e+03 3.137524795532226562e+01 7.873828887939453125e+00 2.068548440933227539e+00 4.741004943847656250e+00 2.042865991592407227e+00 2.971305847167968750e-01
2.787000000000000000e+03 3.038976097106933594e+01 -5.244107246398925781e+00 1.239904284477233887e+00 2.204073429107666016e+00 1.033193349838256836e+00 -1.331943750381469727e+00
2.788000000000000000e+03 1.344580936431884766e+01 1.683541107177734375e+01 2.099140286445617676e-01 2.177424430847167969e+00 7.162014842033386230e-01 -3.767649531364440918e-01
2.789000000000000000e+03 1.445590972900390625e+01 1.437227249145507812e+01 2.900432944297790527e-01 2.419610261917114258e+00 8.128960132598876953e-01 -3.210180699825286865e-01
2.790000000000000000e+03 3.312512588500976562e+01 1.162551403045654297e+00 1.839741110801696777e+00 4.143001079559326172e+00 1.794822692871093750e+00 -4.982081353664398193e-01
2.791000000000000000e+03 3.348714828491210938e+01 -1.242955923080444336e+00 1.545569896697998047e+00 3.777815103530883789e+00 1.597015500068664551e+00 -9.942247271537780762e-01
2.792000000000000000e+03 3.253836441040039062e+01 -9.407081007957458496e-01 1.725347518920898438e+00 3.598281860351562500e+00 1.597088813781738281e+00 -7.774432301521301270e-01
2.793000000000000000e+03 3.299092102050781250e+01 -6.387669563293457031e+00 4.873255789279937744e-01 2.992197751998901367e+00 1.043856978416442871e+00 -1.839539408683776855e+00
2.794000000000000000e+03 1.570073509216308594e+01 2.444434547424316406e+01 -2.618463942781090736e-03 2.620825290679931641e+00 7.854620218276977539e-01 -4.656527936458587646e-01
2.795000000000000000e+03 3.217292785644531250e+01 5.690975666046142578e+00 2.124460697174072266e+00 4.632276535034179688e+00 2.027021169662475586e+00 1.698705255985260010e-01
2.796000000000000000e+03 3.264095306396484375e+01 3.314791917800903320e+00 2.050197601318359375e+00 4.383511066436767578e+00 1.930112481117248535e+00 -9.755580127239227295e-02
2.797000000000000000e+03 2.879688453674316406e+01 1.055535602569580078e+01 1.719720005989074707e+00 4.567179679870605469e+00 1.886069893836975098e+00 3.804381787776947021e-01
2.798000000000000000e+03 2.485392951965332031e+01 2.039197731018066406e+01 4.741603434085845947e-01 4.187132835388183594e+00 1.398388028144836426e+00 -3.485482335090637207e-01
2.799000000000000000e+03 2.757687377929687500e+01 1.639964485168457031e+01 1.080956339836120605e+00 4.609609127044677734e+00 1.707169651985168457e+00 -8.014859259128570557e-02
2.800000000000000000e+03 1.560854721069335938e+01 2.056039047241210938e+01 1.360635459423065186e-01 2.592921495437622070e+00 8.186955451965332031e-01 -4.353540539741516113e-01
2.801000000000000000e+03 2.807545661926269531e+01 1.454836559295654297e+01 1.275630831718444824e+00 4.645124435424804688e+00 1.776226639747619629e+00 3.721249103546142578e-02
2.802000000000000000e+03 3.153794097900390625e+01 3.591638565063476562e+00 2.169447898864746094e+00 4.153101921081542969e+00 1.896764993667602539e+00 1.187249422073364258e-01
2.803000000000000000e+03 2.735870742797851562e+01 1.914209556579589844e+01 7.500342130661010742e-01 4.586635112762451172e+00 1.601000905036926270e+00 -2.752396166324615479e-01
2.804000000000000000e+03 2.890181350708007812e+01 8.708267211914062500e+00 1.895425915718078613e+00 4.421432495117187500e+00 1.895057559013366699e+00 5.194422006607055664e-01
2.805000000000000000e+03 3.186434936523437500e+01 4.640478134155273438e+00 2.150205135345458984e+00 4.399446487426757812e+00 1.964895606040954590e+00 1.511175781488418579e-01
2.806000000000000000e+03 1.711778259277343750e+01 2.165725231170654297e+00 1.901053637266159058e-01 6.411318302154541016e+00 1.980427026748657227e+00 1.084434509277343750e+00
2.807000000000000000e+03 1.510044384002685547e+01 4.239057540893554688e+00 1.156870350241661072e-01 3.797859191894531250e+00 1.174063920974731445e+00 -4.298752844333648682e-01
2.808000000000000000e+03 1.792127227783203125e+01 1.661734819412231445e+00 7.499319314956665039e-01 6.687478542327880859e+00 2.231223106384277344e+00 2.015172481536865234e+00
2.809000000000000000e+03 2.077357482910156250e+01 7.854422330856323242e-01 3.136459827423095703e+00 4.551478862762451172e+00 2.306381702423095703e+00 2.950218200683593750e+00
2.810000000000000000e+03 2.190938949584960938e+01 -2.229538112878799438e-01 3.994563579559326172e+00 3.366604089736938477e+00 2.208350181579589844e+00 2.537744283676147461e+00
2.811000000000000000e+03 2.203674697875976562e+01 7.722645401954650879e-01 3.337134599685668945e+00 3.728213548660278320e+00 2.119604349136352539e+00 2.491745948791503906e+00
2.812000000000000000e+03 1.564058780670166016e+01 5.151044368743896484e+00 1.423437744379043579e-01 3.873023033142089844e+00 1.204610109329223633e+00 -2.254850864410400391e-01
2.813000000000000000e+03 1.648654747009277344e+01 4.356789588928222656e+00 1.203748583793640137e-01 4.675036430358886719e+00 1.438623428344726562e+00 1.496648192405700684e-01
2.814000000000000000e+03 1.493411350250244141e+01 4.576113224029541016e+00 1.360099911689758301e-01 3.570052862167358398e+00 1.111818790435791016e+00 -4.577311277389526367e-01
2.815000000000000000e+03 2.190687751770019531e+01 2.252646684646606445e-01 3.676016807556152344e+00 3.552207708358764648e+00 2.168467283248901367e+00 2.556354045867919922e+00
2.816000000000000000e+03 2.146659851074218750e+01 -4.303011596202850342e-01 4.151089668273925781e+00 3.519589662551879883e+00 2.301203727722167969e+00 2.721264839172363281e+00
2.817000000000000000e+03 1.621364212036132812e+01 3.596838474273681641e+00 3.503191098570823669e-02 4.959159851074218750e+00 1.498257517814636230e+00 7.572088390588760376e-02
2.818000000000000000e+03 1.551285076141357422e+01 7.485537528991699219e+00 2.917892634868621826e-01 3.283971786499023438e+00 1.072728276252746582e+00 -2.103627026081085205e-01
2.819000000000000000e+03 1.387279605865478516e+01 6.971957206726074219e+00 3.247253596782684326e-01 2.574254512786865234e+00 8.696939945220947266e-01 -4.232522547245025635e-01
2.820000000000000000e+03 1.417845249176025391e+01 8.542953491210937500e+00 3.373175561428070068e-01 2.592879772186279297e+00 8.790591955184936523e-01 -3.423624932765960693e-01
2.821000000000000000e+03 1.442276477813720703e+01 7.202369689941406250e+00 3.033130764961242676e-01 2.835664749145507812e+00 9.416933059692382812e-01 -3.658850193023681641e-01
2.822000000000000000e+03 3.065303993225097656e+01 -2.672384500503540039e+00 1.905641794204711914e+00 2.692439079284667969e+00 1.379424333572387695e+00 -8.183932304382324219e-01
2.823000000000000000e+03 2.491927528381347656e+01 -2.413339614868164062e+00 3.618889093399047852e+00 1.773708343505859375e+00 1.617779254913330078e+00 6.287974715232849121e-01
2.824000000000000000e+03 1.308911705017089844e+01 1.247147750854492188e+01 3.085999190807342529e-01 2.100199937820434570e+00 7.226399183273315430e-01 -3.342981338500976562e-01
2.825000000000000000e+03 3.096868515014648438e+01 1.542861580848693848e+00 2.199518918991088867e+00 3.627093553543090820e+00 1.747983813285827637e+00 -5.644295364618301392e-02
2.826000000000000000e+03 3.296561431884765625e+01 1.533606946468353271e-01 1.794461131095886230e+00 3.922109365463256836e+00 1.714971065521240234e+00 -6.411048173904418945e-01
2.827000000000000000e+03 1.160444831848144531e+01 1.004095458984375000e+01 3.706664144992828369e-01 1.617585778236389160e+00 5.964756608009338379e-01 -3.279666006565093994e-01
2.828000000000000000e+03 1.240565395355224609e+01 9.330427169799804688e+00 3.781253397464752197e-01 1.881288528442382812e+00 6.778241395950317383e-01 -3.549023568630218506e-01
2.829000000000000000e+03 1.631489562988281250e+01 7.446100711822509766e+00 2.925676703453063965e-01 3.596548318862915039e+00 1.166734814643859863e+00 -4.883845150470733643e-02
2.830000000000000000e+03 2.912563705444335938e+01 -3.058231115341186523e+00 2.200854539871215820e+00 2.219079494476318359e+00 1.325980186462402344e+00 -6.343240737915039062e-01
2.831000000000000000e+03 1.179530334472656250e+01 9.257110595703125000e+00 4.017468094825744629e-01 1.649556517601013184e+00 6.153909564018249512e-01 -3.520465195178985596e-01
2.832000000000000000e+03 3.406270980834960938e+01 -2.408576726913452148e+00 1.259700775146484375e+00 3.781348943710327148e+00 1.512314915657043457e+00 -1.295468330383300781e+00
2.833000000000000000e+03 1.610806465148925781e+01 1.840236282348632812e+01 2.344251424074172974e-01 2.716309547424316406e+00 8.852204084396362305e-01 -3.774689137935638428e-01
2.834000000000000000e+03 3.306122589111328125e+01 -3.455334186553955078e+00 1.232216477394104004e+00 3.313228130340576172e+00 1.363633394241333008e+00 -1.365770578384399414e+00
2.835000000000000000e+03 2.898255920410156250e+01 6.974023342132568359e+00 2.059218883514404297e+00 4.233466148376464844e+00 1.887805581092834473e+00 6.145493388175964355e-01
2.836000000000000000e+03 2.596870040893554688e+01 -2.467805862426757812e+00 3.206377029418945312e+00 1.796266555786132812e+00 1.500793099403381348e+00 2.919752597808837891e-01
2.837000000000000000e+03 2.402910041809082031e+01 -2.315940618515014648e+00 3.938578367233276367e+00 1.870210886001586914e+00 1.742636799812316895e+00 9.734606146812438965e-01
2.838000000000000000e+03 2.959381294250488281e+01 5.231717586517333984e+00 2.225630760192871094e+00 4.061221599578857422e+00 1.886055588722229004e+00 5.522361397743225098e-01
2.839000000000000000e+03 3.053089714050292969e+01 7.261399269104003906e+00 2.076452016830444336e+00 4.493456840515136719e+00 1.970972657203674316e+00 4.160085618495941162e-01
2.840000000000000000e+03 2.807181739807128906e+01 7.738278865814208984e+00 1.917012095451354980e+00 4.246201515197753906e+00 1.848964095115661621e+00 6.893295645713806152e-01
2.841000000000000000e+03 2.556901550292968750e+01 1.847127342224121094e+01 6.961703300476074219e-01 4.286682128906250000e+00 1.494855761528015137e+00 -2.249704897403717041e-01
2.842000000000000000e+03 1.649067306518554688e+01 2.205719566345214844e+01 9.877601265907287598e-02 2.749711751937866211e+00 8.545463085174560547e-01 -4.557297527790069580e-01
2.843000000000000000e+03 1.496876239776611328e+01 2.279695701599121094e+01 6.013280153274536133e-02 2.474872112274169922e+00 7.605014443397521973e-01 -4.591087400913238525e-01
2.844000000000000000e+03 2.706033706665039062e+01 1.337410259246826172e+01 1.281261324882507324e+00 4.470622062683105469e+00 1.725565075874328613e+00 1.915078908205032349e-01
2.845000000000000000e+03 1.692681884765625000e+01 2.745474815368652344e+01 -1.294333934783935547e-01 2.852339029312133789e+00 8.168717026710510254e-01 -4.598531424999237061e-01
2.846000000000000000e+03 1.546260070800781250e+01 4.402955532073974609e+00 8.729592710733413696e-02 4.002651214599609375e+00 1.226984143257141113e+00 -3.106204569339752197e-01
2.847000000000000000e+03 1.647037315368652344e+01 3.113250970840454102e+00 -5.433965940028429031e-03 5.370365619659423828e+00 1.609479546546936035e+00 2.605279982089996338e-01
2.848000000000000000e+03 2.033665847778320312e+01 1.256929516792297363e+00 2.530548334121704102e+00 5.056494235992431641e+00 2.276112794876098633e+00 2.893271923065185547e+00
2.849000000000000000e+03 2.030637550354003906e+01 1.648851990699768066e+00 2.234318971633911133e+00 5.054350852966308594e+00 2.186600923538208008e+00 2.674691677093505859e+00
2.850000000000000000e+03 1.968011474609375000e+01 1.621981382369995117e+00 1.994715213775634766e+00 5.507833957672119141e+00 2.250764608383178711e+00 2.728524446487426758e+00
2.851000000000000000e+03 2.137756347656250000e+01 7.930676937103271484e-01 3.238913059234619141e+00 4.113986492156982422e+00 2.205869913101196289e+00 2.742125272750854492e+00
2.852000000000000000e+03 1.451488208770751953e+01 6.665205955505371094e+00 2.833578884601593018e-01 2.933341264724731445e+00 9.650097489356994629e-01 -3.795706629753112793e-01
2.853000000000000000e+03 1.538775920867919922e+01 6.464339256286621094e+00 2.476752251386642456e-01 3.405666112899780273e+00 1.096002340316772461e+00 -2.463395744562149048e-01
2.854000000000000000e+03 1.854570007324218750e+01 2.272784233093261719e+00 8.898569345474243164e-01 6.089231491088867188e+00 2.093726634979248047e+00 1.984497666358947754e+00
2.855000000000000000e+03 2.321575927734375000e+01 1.111309885978698730e+00 3.165481805801391602e+00 3.345556259155273438e+00 1.953311443328857422e+00 2.033984422683715820e+00
2.856000000000000000e+03 2.220500946044921875e+01 -1.413909554481506348e+00 4.516202926635742188e+00 2.645997762680053711e+00 2.148660182952880859e+00 2.101234197616577148e+00
2.857000000000000000e+03 2.147053337097167969e+01 1.392446994781494141e+00 2.852323055267333984e+00 4.248924732208251953e+00 2.130374193191528320e+00 2.597213983535766602e+00
2.858000000000000000e+03 1.904346084594726562e+01 1.761001348495483398e+00 1.502758264541625977e+00 6.010638236999511719e+00 2.254018783569335938e+00 2.545583963394165039e+00
2.859000000000000000e+03 1.534039592742919922e+01 5.603988647460937500e+00 2.001846730709075928e-01 3.560609340667724609e+00 1.128238201141357422e+00 -2.879867851734161377e-01
2.860000000000000000e+03 1.525028896331787109e+01 4.846909523010253906e+00 1.516155302524566650e-01 3.704897403717041016e+00 1.156953811645507812e+00 -3.448450863361358643e-01
2.861000000000000000e+03 1.575541687011718750e+01 6.009322166442871094e+00 1.990673542022705078e-01 3.690363883972167969e+00 1.166829347610473633e+00 -1.764290928840637207e-01
2.862000000000000000e+03 1.604067611694335938e+01 4.119668960571289062e+00 5.043968558311462402e-02 4.511405944824218750e+00 1.368553757667541504e+00 -9.572739899158477783e-02
2.863000000000000000e+03 1.827329826354980469e+01 2.948247671127319336e+00 5.899406671524047852e-01 5.762949943542480469e+00 1.905867218971252441e+00 1.495087981224060059e+00
2.864000000000000000e+03 2.263380813598632812e+01 -2.019169569015502930e+00 4.489730834960937500e+00 2.227305650711059570e+00 2.015110969543457031e+00 1.657590389251708984e+00
2.865000000000000000e+03 2.299008750915527344e+01 -2.861785173416137695e+00 4.385055065155029297e+00 1.793358206748962402e+00 1.853523969650268555e+00 1.112428426742553711e+00
2.866000000000000000e+03 2.340443992614746094e+01 -1.503052353858947754e+00 4.081348896026611328e+00 2.266262054443359375e+00 1.904283285140991211e+00 1.516775965690612793e+00
2.867000000000000000e+03 2.703846931457519531e+01 -2.266726732254028320e+00 2.919553995132446289e+00 1.956403970718383789e+00 1.462787389755249023e+00 6.080462411046028137e-02
2.868000000000000000e+03 2.498578071594238281e+01 -1.517422676086425781e+00 3.558813571929931641e+00 2.076734781265258789e+00 1.690664410591125488e+00 9.205613136291503906e-01
2.869000000000000000e+03 3.316723251342773438e+01 -2.308894634246826172e+00 1.439085364341735840e+00 3.546909570693969727e+00 1.495798468589782715e+00 -1.126345992088317871e+00
2.870000000000000000e+03 3.215172195434570312e+01 -2.047309398651123047e+00 1.679582357406616211e+00 3.280189275741577148e+00 1.487931489944458008e+00 -9.473499059677124023e-01
2.871000000000000000e+03 2.963720321655273438e+01 -2.176978826522827148e+00 2.203726053237915039e+00 2.529663324356079102e+00 1.420016884803771973e+00 -4.854087829589843750e-01
2.872000000000000000e+03 3.205307388305664062e+01 1.333110451698303223e+00 2.033407449722290039e+00 3.867506980895996094e+00 1.770274400711059570e+00 -2.797388732433319092e-01
2.873000000000000000e+03 3.009887886047363281e+01 -3.640525341033935547e+00 1.803128838539123535e+00 2.375505685806274414e+00 1.253590345382690430e+00 -9.228290319442749023e-01
2.874000000000000000e+03 1.530486202239990234e+01 1.360570430755615234e+01 3.140032887458801270e-01 2.655904769897460938e+00 8.909723758697509766e-01 -2.828177511692047119e-01
2.875000000000000000e+03 1.362139415740966797e+01 1.343023300170898438e+01 3.020508289337158203e-01 2.225958347320556641e+00 7.584027647972106934e-01 -3.331119716167449951e-01
2.876000000000000000e+03 3.042587661743164062e+01 3.854515552520751953e+00 2.270443201065063477e+00 3.955666303634643555e+00 1.867832899093627930e+00 3.464438021183013916e-01
2.877000000000000000e+03 2.855075073242187500e+01 5.355943202972412109e+00 2.204160690307617188e+00 3.973464488983154297e+00 1.853287577629089355e+00 7.200255990028381348e-01
2.878000000000000000e+03 1.534675884246826172e+01 1.535352802276611328e+01 2.840766906738281250e-01 2.613802433013916016e+00 8.693637251853942871e-01 -3.188259601593017578e-01
2.879000000000000000e+03 1.731664466857910156e+01 1.750292968750000000e+01 2.901449203491210938e-01 2.969864845275878906e+00 9.780029654502868652e-01 -3.303004503250122070e-01
2.880000000000000000e+03 2.601022911071777344e+01 1.446815681457519531e+01 1.080653786659240723e+00 4.341336250305175781e+00 1.626597046852111816e+00 1.013824343681335449e-01
2.881000000000000000e+03 2.737461853027343750e+01 6.844644069671630859e+00 1.985483288764953613e+00 4.098026275634765625e+00 1.825052976608276367e+00 8.153039216995239258e-01
2.882000000000000000e+03 2.791876411437988281e+01 9.470355987548828125e+00 1.741065859794616699e+00 4.393620967864990234e+00 1.840406060218811035e+00 5.427098870277404785e-01
2.883000000000000000e+03 3.121682357788085938e+01 -4.325328826904296875e+00 1.376885533332824707e+00 2.632096290588378906e+00 1.202694535255432129e+00 -1.273790359497070312e+00
2.884000000000000000e+03 2.783079910278320312e+01 1.763596916198730469e+01 8.985307216644287109e-01 4.639994621276855469e+00 1.661557555198669434e+00 -1.888633221387863159e-01
2.885000000000000000e+03 2.375257301330566406e+01 1.771151351928710938e+01 6.285839080810546875e-01 4.039495468139648438e+00 1.400423884391784668e+00 -1.886055171489715576e-01
2.886000000000000000e+03 2.010911178588867188e+01 2.011242151260375977e+00 1.940486073493957520e+00 5.183951854705810547e+00 2.137331485748291016e+00 2.521173477172851562e+00
2.887000000000000000e+03 2.136270141601562500e+01 2.740253925323486328e+00 2.050478219985961914e+00 4.531534194946289062e+00 1.974603772163391113e+00 2.214518308639526367e+00
2.888000000000000000e+03 2.083603477478027344e+01 1.871317863464355469e+00 2.299938917160034180e+00 4.772120475769042969e+00 2.121617794036865234e+00 2.568122625350952148e+00
2.889000000000000000e+03 1.994922065734863281e+01 1.347717285156250000e+00 2.247629880905151367e+00 5.339729785919189453e+00 2.276207923889160156e+00 2.825788021087646484e+00
2.890000000000000000e+03 2.238653564453125000e+01 7.058131974190473557e-03 3.736135721206665039e+00 3.251436471939086914e+00 2.096271753311157227e+00 2.319458961486816406e+00
2.891000000000000000e+03 1.757565498352050781e+01 2.647207498550415039e+00 3.492477834224700928e-01 6.065588951110839844e+00 1.924451112747192383e+00 1.240602493286132812e+00
2.892000000000000000e+03 1.720793342590332031e+01 3.076264381408691406e+00 1.588377207517623901e-01 5.704298496246337891e+00 1.758940935134887695e+00 7.784852981567382812e-01
2.893000000000000000e+03 1.465281295776367188e+01 1.116600418090820312e+01 3.326673209667205811e-01 2.597065210342407227e+00 8.789197802543640137e-01 -2.829517424106597900e-01
2.894000000000000000e+03 1.803735542297363281e+01 2.359485149383544922e+00 6.282098293304443359e-01 6.166586875915527344e+00 2.038439035415649414e+00 1.639379501342773438e+00
2.895000000000000000e+03 1.943259429931640625e+01 2.317813873291015625e+00 1.388689637184143066e+00 5.628509521484375000e+00 2.105159759521484375e+00 2.305750846862792969e+00
2.896000000000000000e+03 1.587772750854492188e+01 4.647749423980712891e+00 1.107815653085708618e-01 4.186264514923095703e+00 1.289113759994506836e+00 -1.523897051811218262e-01
2.897000000000000000e+03 1.620896530151367188e+01 6.443220615386962891e+00 2.423643320798873901e-01 3.793850183486938477e+00 1.210864424705505371e+00 -5.433801561594009399e-02
2.898000000000000000e+03 1.661826515197753906e+01 3.891066312789916992e+00 6.772384047508239746e-02 4.996777057647705078e+00 1.519350290298461914e+00 2.473438978195190430e-01
2.899000000000000000e+03 2.269187355041503906e+01 8.188823461532592773e-01 3.314049005508422852e+00 3.445609331130981445e+00 2.027897596359252930e+00 2.249570131301879883e+00
2.900000000000000000e+03 1.291883850097656250e+01 8.613753318786621094e+00 3.766115307807922363e-01 2.043896675109863281e+00 7.261524796485900879e-01 -3.841263651847839355e-01
2.901000000000000000e+03 1.432213497161865234e+01 7.845699310302734375e+00 3.269066512584686279e-01 2.728708028793334961e+00 9.166843891143798828e-01 -3.437654078006744385e-01
2.902000000000000000e+03 1.654330825805664062e+01 5.886116027832031250e+00 2.002652138471603394e-01 4.080473423004150391e+00 1.284221649169921875e+00 4.240600019693374634e-02
2.903000000000000000e+03 2.414423751831054688e+01 -1.520861625671386719e+00 3.852003574371337891e+00 2.142485141754150391e+00 1.798346519470214844e+00 1.211131095886230469e+00
2.904000000000000000e+03 1.724209785461425781e+01 3.930336475372314453e+00 1.932405978441238403e-01 5.181325912475585938e+00 1.612369894981384277e+00 6.032000184059143066e-01
2.905000000000000000e+03 1.689565086364746094e+01 4.292515754699707031e+00 1.449525952339172363e-01 4.884507656097412109e+00 1.508838176727294922e+00 3.463735580444335938e-01
2.906000000000000000e+03 3.183321762084960938e+01 3.616067767143249512e-01 2.018607616424560547e+00 3.616769790649414062e+00 1.690613150596618652e+00 -3.775924146175384521e-01
2.907000000000000000e+03 3.045086860656738281e+01 -2.310947626829147339e-01 2.247277975082397461e+00 3.109714269638061523e+00 1.607097625732421875e+00 -2.273285239934921265e-01
2.908000000000000000e+03 1.338124179840087891e+01 8.818885803222656250e+00 3.573129475116729736e-01 2.265808820724487305e+00 7.869365215301513672e-01 -3.660880923271179199e-01
2.909000000000000000e+03 1.338918209075927734e+01 1.109618568420410156e+01 3.395811319351196289e-01 2.206201553344726562e+00 7.637348175048828125e-01 -3.293577134609222412e-01
2.910000000000000000e+03 1.229215812683105469e+01 1.011955642700195312e+01 3.608411550521850586e-01 1.848002314567565918e+00 6.626530289649963379e-01 -3.414845466613769531e-01
2.911000000000000000e+03 2.834150505065917969e+01 -2.532031297683715820e+00 2.474128484725952148e+00 2.160266876220703125e+00 1.390318632125854492e+00 -3.141907453536987305e-01
2.912000000000000000e+03 3.180963897705078125e+01 -3.224771022796630859e+00 1.498310327529907227e+00 2.970105648040771484e+00 1.340524792671203613e+00 -1.130464315414428711e+00
2.913000000000000000e+03 2.794125366210937500e+01 -1.890001654624938965e+00 2.651195764541625977e+00 2.241519689559936523e+00 1.467814683914184570e+00 -6.800032407045364380e-02
2.914000000000000000e+03 2.591058349609375000e+01 -1.458765864372253418e+00 3.305088996887207031e+00 2.122364044189453125e+00 1.628235816955566406e+00 6.381025314331054688e-01
2.915000000000000000e+03 1.531957912445068359e+01 1.198603057861328125e+01 3.295826911926269531e-01 2.747231483459472656e+00 9.230442643165588379e-01 -2.547715604305267334e-01
2.916000000000000000e+03 2.412867927551269531e+01 -7.457019090652465820e-01 3.689558744430541992e+00 2.437354326248168945e+00 1.838073968887329102e+00 1.452922344207763672e+00
2.917000000000000000e+03 2.934360885620117188e+01 4.113132476806640625e+00 2.316165924072265625e+00 3.828141927719116211e+00 1.843292355537414551e+00 5.667997002601623535e-01
2.918000000000000000e+03 3.073042106628417969e+01 4.919346332550048828e+00 2.201590538024902344e+00 4.212104797363281250e+00 1.924108505249023438e+00 3.550335764884948730e-01
2.919000000000000000e+03 2.982966995239257812e+01 1.680771946907043457e+00 2.415006160736083984e+00 3.377662181854248047e+00 1.737800478935241699e+00 2.191101312637329102e-01
2.920000000000000000e+03 3.122361946105957031e+01 2.551966428756713867e+00 2.211176156997680664e+00 3.870955228805541992e+00 1.824639439582824707e+00 5.325892567634582520e-02
2.921000000000000000e+03 2.996644783020019531e+01 6.328556537628173828e+00 2.136649608612060547e+00 4.281349658966064453e+00 1.925399780273437500e+00 5.107310414314270020e-01
2.922000000000000000e+03 2.823414230346679688e+01 6.209043025970458984e+00 2.110965251922607422e+00 4.066936016082763672e+00 1.853370428085327148e+00 7.412215471267700195e-01
2.923000000000000000e+03 1.629072952270507812e+01 1.639260864257812500e+01 2.917137742042541504e-01 2.794257402420043945e+00 9.257913827896118164e-01 -3.211756944656372070e-01
2.924000000000000000e+03 1.833534240722656250e+01 1.651133537292480469e+01 3.654122054576873779e-01 3.190096139907836914e+00 1.066652536392211914e+00 -2.617193460464477539e-01
2.925000000000000000e+03 1.899725341796875000e+01 2.273144531250000000e+01 1.120419725775718689e-01 3.208173751831054688e+00 9.960647225379943848e-01 -4.594386219978332520e-01
2.926000000000000000e+03 2.044703674316406250e+01 2.905511856079101562e+00 1.655710697174072266e+00 4.976378440856933594e+00 1.989626765251159668e+00 2.182726860046386719e+00
2.927000000000000000e+03 2.591854286193847656e+01 6.369262218475341797e+00 1.914242267608642578e+00 4.022618293762207031e+00 1.781058073043823242e+00 1.034275293350219727e+00
2.928000000000000000e+03 2.712244033813476562e+01 8.427697181701660156e+00 1.761027574539184570e+00 4.247988224029541016e+00 1.802704691886901855e+00 7.032710909843444824e-01
2.929000000000000000e+03 2.454788780212402344e+01 1.411636161804199219e+01 9.894495010375976562e-01 4.194699764251708984e+00 1.555244803428649902e+00 1.271581202745437622e-01
2.930000000000000000e+03 1.619822311401367188e+01 1.454494953155517578e+01 3.248802423477172852e-01 2.833677291870117188e+00 9.475672841072082520e-01 -2.683355212211608887e-01
2.931000000000000000e+03 2.462482833862304688e+01 1.252744293212890625e+01 1.096540212631225586e+00 4.210435867309570312e+00 1.592092752456665039e+00 2.953077256679534912e-01
2.932000000000000000e+03 2.844514465332031250e+01 2.280886459350585938e+01 3.728437721729278564e-01 4.731287479400634766e+00 1.531239390373229980e+00 -4.220221042633056641e-01
2.933000000000000000e+03 1.968931198120117188e+01 2.005648803710937500e+01 2.636666893959045410e-01 3.362380981445312500e+00 1.087814331054687500e+00 -3.730163574218750000e-01
2.934000000000000000e+03 2.465265464782714844e+01 7.264082431793212891e+00 1.625190377235412598e+00 4.131444454193115234e+00 1.726990342140197754e+00 1.028876304626464844e+00
2.935000000000000000e+03 2.683405876159667969e+01 1.018320178985595703e+01 1.553774714469909668e+00 4.340975761413574219e+00 1.768425107002258301e+00 5.326174497604370117e-01
2.936000000000000000e+03 1.756875228881835938e+01 3.547611236572265625e+00 2.832389175891876221e-01 5.492641925811767578e+00 1.732764244079589844e+00 8.967965245246887207e-01
2.937000000000000000e+03 1.867241096496582031e+01 2.815363168716430664e+00 8.089258074760437012e-01 5.773497104644775391e+00 1.974726915359497070e+00 1.743799686431884766e+00
2.938000000000000000e+03 1.901633262634277344e+01 2.282481908798217773e+00 1.199939608573913574e+00 5.884509563446044922e+00 2.125334739685058594e+00 2.224396228790283203e+00
2.939000000000000000e+03 2.422910499572753906e+01 1.222560405731201172e+00 3.107035398483276367e+00 3.109582901000976562e+00 1.864985466003417969e+00 1.698097944259643555e+00
2.940000000000000000e+03 1.582551097869873047e+01 6.957797527313232422e+00 2.532351613044738770e-01 3.490139484405517578e+00 1.123012423515319824e+00 -1.603904217481613159e-01
2.941000000000000000e+03 1.820234870910644531e+01 7.361763954162597656e+00 4.436001479625701904e-01 4.140445709228515625e+00 1.375213742256164551e+00 4.003668427467346191e-01
2.942000000000000000e+03 2.263152694702148438e+01 -4.451864361763000488e-01 3.944368124008178711e+00 2.947064638137817383e+00 2.067429780960083008e+00 2.126132249832153320e+00
2.943000000000000000e+03 2.561827087402343750e+01 5.360288143157958984e+00 2.056111574172973633e+00 3.897970676422119141e+00 1.786224603652954102e+00 1.192912459373474121e+00
2.944000000000000000e+03 1.980767822265625000e+01 2.262793779373168945e+00 1.696897625923156738e+00 5.333813190460205078e+00 2.109213352203369141e+00 2.418460607528686523e+00
2.945000000000000000e+03 1.977345085144042969e+01 3.095298051834106445e+00 1.262961030006408691e+00 5.267896175384521484e+00 1.959257125854492188e+00 2.002487182617187500e+00
2.946000000000000000e+03 1.607535743713378906e+01 5.493282318115234375e+00 1.796294599771499634e-01 3.998217582702636719e+00 1.253354072570800781e+00 -7.898934185504913330e-02
2.947000000000000000e+03 1.498365116119384766e+01 7.329195976257324219e+00 2.789032459259033203e-01 3.100570917129516602e+00 1.013842225074768066e+00 -2.891706526279449463e-01
2.948000000000000000e+03 1.635132598876953125e+01 4.928358554840087891e+00 1.263321787118911743e-01 4.354038238525390625e+00 1.344111084938049316e+00 2.571314945816993713e-02
2.949000000000000000e+03 1.719142723083496094e+01 4.791397094726562500e+00 2.168318927288055420e-01 4.753398895263671875e+00 1.491069316864013672e+00 4.167621433734893799e-01
2.950000000000000000e+03 2.224126815795898438e+01 -1.015751957893371582e+00 4.304702758789062500e+00 2.841041803359985352e+00 2.143723487854003906e+00 2.175408601760864258e+00
2.951000000000000000e+03 1.683907508850097656e+01 5.298552513122558594e+00 1.956475973129272461e-01 4.418976783752441406e+00 1.384387254714965820e+00 2.025753706693649292e-01
2.952000000000000000e+03 1.389875411987304688e+01 9.226797103881835938e+00 3.411258459091186523e-01 2.447018623352050781e+00 8.364433646202087402e-01 -3.448757529258728027e-01
2.953000000000000000e+03 2.324646949768066406e+01 -2.392376065254211426e-01 3.735178232192993164e+00 2.844342231750488281e+00 1.973856210708618164e+00 1.942088842391967773e+00
2.954000000000000000e+03 2.875193405151367188e+01 -1.843205809593200684e+00 2.464607000350952148e+00 2.405856370925903320e+00 1.461139082908630371e+00 -2.594425380229949951e-01
2.955000000000000000e+03 2.783651351928710938e+01 -1.049610018730163574e+00 2.801268577575683594e+00 2.386212825775146484e+00 1.556244373321533203e+00 1.919991374015808105e-01
2.956000000000000000e+03 1.491287136077880859e+01 8.035119056701660156e+00 3.181952536106109619e-01 2.975918292999267578e+00 9.882340431213378906e-01 -2.764940261840820312e-01
2.957000000000000000e+03 2.736196517944335938e+01 4.655574798583984375e+00 2.275942325592041016e+00 3.764555454254150391e+00 1.812149286270141602e+00 9.448481202125549316e-01
2.958000000000000000e+03 1.299740791320800781e+01 9.225101470947265625e+00 3.622376322746276855e-01 2.089507102966308594e+00 7.355234026908874512e-01 -3.631846010684967041e-01
2.959000000000000000e+03 3.149334144592285156e+01 -6.262738108634948730e-01 1.995357394218444824e+00 3.340975761413574219e+00 1.600899934768676758e+00 -5.397819876670837402e-01
2.960000000000000000e+03 3.080997276306152344e+01 5.998347997665405273e-01 2.194296598434448242e+00 3.446635007858276367e+00 1.692279458045959473e+00 -1.618507355451583862e-01
2.961000000000000000e+03 2.874851417541503906e+01 1.880885362625122070e-01 2.596421241760253906e+00 2.870657205581665039e+00 1.640123486518859863e+00 2.150653451681137085e-01
2.962000000000000000e+03 2.685229873657226562e+01 5.952703475952148438e+00 2.064981698989868164e+00 3.955249071121215820e+00 1.806069254875183105e+00 9.561445713043212891e-01
2.963000000000000000e+03 2.903688240051269531e+01 3.053284645080566406e+00 2.426839828491210938e+00 3.576278448104858398e+00 1.800935506820678711e+00 5.482065677642822266e-01
2.964000000000000000e+03 1.695826530456542969e+01 1.372151947021484375e+01 3.616344630718231201e-01 3.036966323852539062e+00 1.019580245018005371e+00 -1.998163610696792603e-01
2.965000000000000000e+03 1.454815101623535156e+01 1.271070957183837891e+01 3.229506909847259521e-01 2.503188610076904297e+00 8.478417992591857910e-01 -3.028392791748046875e-01
2.966000000000000000e+03 1.393362331390380859e+01 1.185769081115722656e+01 3.147634863853454590e-01 2.360341548919677734e+00 8.025315403938293457e-01 -3.100844621658325195e-01
2.967000000000000000e+03 1.402212047576904297e+01 1.044514751434326172e+01 3.367355167865753174e-01 2.436626911163330078e+00 8.320087194442749023e-01 -3.124010562896728516e-01
2.968000000000000000e+03 2.200068092346191406e+01 1.704469299316406250e+01 5.553557872772216797e-01 3.787369966506958008e+00 1.302817702293395996e+00 -1.777088940143585205e-01
2.969000000000000000e+03 2.437853431701660156e+01 1.114734268188476562e+01 1.196419596672058105e+00 4.198709964752197266e+00 1.618538856506347656e+00 4.726183712482452393e-01
2.970000000000000000e+03 2.613939285278320312e+01 9.079080581665039062e+00 1.593248128890991211e+00 4.234768867492675781e+00 1.748405218124389648e+00 6.983180642127990723e-01
2.971000000000000000e+03 2.565648269653320312e+01 1.079003429412841797e+01 1.364861488342285156e+00 4.269107818603515625e+00 1.690190792083740234e+00 5.028598904609680176e-01
2.972000000000000000e+03 3.012017250061035156e+01 2.784800529479980469e+00 2.333333253860473633e+00 3.689238309860229492e+00 1.806771516799926758e+00 3.113449513912200928e-01
2.973000000000000000e+03 2.831786918640136719e+01 4.356400012969970703e+00 2.328901052474975586e+00 3.771309375762939453e+00 1.830063104629516602e+00 7.533828020095825195e-01
2.974000000000000000e+03 1.804624557495117188e+01 2.113568878173828125e+01 1.585072129964828491e-01 3.031306743621826172e+00 9.569442272186279297e-01 -4.226483404636383057e-01
2.975000000000000000e+03 1.607329750061035156e+01 1.284667873382568359e+01 3.475248515605926514e-01 2.893485784530639648e+00 9.723031520843505859e-01 -2.250272184610366821e-01
2.976000000000000000e+03 3.070632934570312500e+01 2.712722396850585938e+01 -1.545868068933486938e-01 4.968363761901855469e+00 1.444133043289184570e+00 -4.172904491424560547e-01
2.977000000000000000e+03 3.034665870666503906e+01 2.470039558410644531e+01 1.675585806369781494e-01 4.992241382598876953e+00 1.547939896583557129e+00 -4.281583428382873535e-01
2.978000000000000000e+03 1.979714202880859375e+01 1.433948993682861328e+01 5.168882608413696289e-01 3.543784141540527344e+00 1.218201756477355957e+00 -6.516397744417190552e-02
2.979000000000000000e+03 2.259649658203125000e+01 1.545922374725341797e+01 6.985296607017517090e-01 3.913258075714111328e+00 1.383536338806152344e+00 -4.548459872603416443e-02
2.980000000000000000e+03 2.446528244018554688e+01 2.531988334655761719e+01 1.390322763472795486e-02 4.094441890716552734e+00 1.232503533363342285e+00 -4.949125945568084717e-01
2.981000000000000000e+03 1.914725685119628906e+01 3.224410057067871094e+00 9.521715641021728516e-01 5.474979877471923828e+00 1.928145527839660645e+00 1.773029804229736328e+00
2.982000000000000000e+03 2.066340827941894531e+01 2.387565612792968750e+00 1.974813580513000488e+00 4.868523120880126953e+00 2.053000926971435547e+00 2.384469032287597656e+00
2.983000000000000000e+03 1.951790809631347656e+01 2.745352029800415039e+00 1.275949001312255859e+00 5.497894763946533203e+00 2.032153129577636719e+00 2.128488302230834961e+00
2.984000000000000000e+03 1.821007919311523438e+01 3.672712087631225586e+00 5.064955949783325195e-01 5.402986526489257812e+00 1.772844552993774414e+00 1.191348075866699219e+00
2.985000000000000000e+03 1.790800476074218750e+01 3.199314355850219727e+00 4.406374692916870117e-01 5.654499053955078125e+00 1.828540921211242676e+00 1.203145027160644531e+00
2.986000000000000000e+03 2.272466468811035156e+01 1.338212966918945312e+00 3.027337551116943359e+00 3.660856008529663086e+00 2.006458044052124023e+00 2.233340024948120117e+00
2.987000000000000000e+03 2.700133895874023438e+01 3.743768215179443359e+00 2.422430276870727539e+00 3.583258152008056641e+00 1.801706552505493164e+00 1.021996736526489258e+00
2.988000000000000000e+03 1.880891799926757812e+01 3.235690593719482422e+00 7.706516385078430176e-01 5.556828975677490234e+00 1.898244142532348633e+00 1.627953886985778809e+00
2.989000000000000000e+03 1.910762023925781250e+01 2.790803432464599609e+00 1.021176099777221680e+00 5.647409915924072266e+00 2.000575780868530273e+00 1.953813433647155762e+00
2.990000000000000000e+03 1.670783233642578125e+01 6.911872386932373047e+00 2.735078632831573486e-01 3.846977710723876953e+00 1.236145734786987305e+00 5.172951519489288330e-02
2.991000000000000000e+03 1.591326904296875000e+01 7.890079498291015625e+00 2.935417890548706055e-01 3.364341974258422852e+00 1.097365140914916992e+00 -1.347261369228363037e-01
2.992000000000000000e+03 1.782314300537109375e+01 7.988836288452148438e+00 3.957706689834594727e-01 3.920668125152587891e+00 1.294931650161743164e+00 2.348501682281494141e-01
2.993000000000000000e+03 2.276366233825683594e+01 -9.414708018302917480e-01 4.126513957977294922e+00 2.689127206802368164e+00 2.044692277908325195e+00 1.996205687522888184e+00
2.994000000000000000e+03 2.294986724853515625e+01 3.091435432434082031e-01 3.567997455596923828e+00 3.143112182617187500e+00 2.013332843780517578e+00 2.117295980453491211e+00
2.995000000000000000e+03 1.545874500274658203e+01 8.094998359680175781e+00 2.951993048191070557e-01 3.148029327392578125e+00 1.032968640327453613e+00 -2.203856855630874634e-01
2.996000000000000000e+03 1.486909580230712891e+01 8.862609863281250000e+00 3.245166838169097900e-01 2.848403215408325195e+00 9.518759846687316895e-01 -2.736403942108154297e-01
2.997000000000000000e+03 1.790705680847167969e+01 4.018329620361328125e+00 3.703429996967315674e-01 5.226912498474121094e+00 1.679176688194274902e+00 9.152063727378845215e-01
2.998000000000000000e+03 1.731742286682128906e+01 5.704992294311523438e+00 2.674696743488311768e-01 4.418196201324462891e+00 1.405699729919433594e+00 3.431298434734344482e-01
2.999000000000000000e+03 2.495108222961425781e+01 -6.575028896331787109e-01 3.496539354324340820e+00 2.393441438674926758e+00 1.766994237899780273e+00 1.171503663063049316e+00
3.000000000000000000e+03 1.707313537597656250e+01 6.317108631134033203e+00 2.720507383346557617e-01 4.163428306579589844e+00 1.330643653869628906e+00 2.017215192317962646e-01
3.001000000000000000e+03 2.583104133605957031e+01 -5.550473928451538086e-01 3.248210668563842773e+00 2.403883695602416992e+00 1.695628285408020020e+00 9.043823480606079102e-01
3.002000000000000000e+03 2.686635589599609375e+01 -1.288826346397399902e+00 3.053686618804931641e+00 2.207977294921875000e+00 1.578499197959899902e+00 4.210632145404815674e-01
3.003000000000000000e+03 2.999278831481933594e+01 -1.157784461975097656e+00 2.264932632446289062e+00 2.827905893325805664e+00 1.527851581573486328e+00 -3.465041518211364746e-01
3.004000000000000000e+03 2.514823722839355469e+01 9.655460357666015625e+00 1.400020837783813477e+00 4.226193904876708984e+00 1.687864422798156738e+00 6.600931882858276367e-01
3.005000000000000000e+03 2.305276489257812500e+01 1.114446544647216797e+01 9.993995428085327148e-01 4.105119705200195312e+00 1.531355738639831543e+00 4.422144293785095215e-01
3.006000000000000000e+03 1.458139324188232422e+01 9.714937210083007812e+00 3.351258933544158936e-01 2.678271770477294922e+00 9.040192961692810059e-01 -2.889737486839294434e-01
3.007000000000000000e+03 2.646878242492675781e+01 5.028077125549316406e+00 2.177447319030761719e+00 3.824184179306030273e+00 1.800489425659179688e+00 1.083693027496337891e+00
3.008000000000000000e+03 2.768543434143066406e+01 5.521324157714843750e+00 2.166940689086914062e+00 3.916243553161621094e+00 1.824955224990844727e+00 8.632476925849914551e-01
3.009000000000000000e+03 1.960465240478515625e+01 4.116520881652832031e+00 9.129003882408142090e-01 5.060078620910644531e+00 1.791893720626831055e+00 1.517709136009216309e+00
3.010000000000000000e+03 2.639939308166503906e+01 7.415931224822998047e+00 1.811396956443786621e+00 4.125457763671875000e+00 1.781056404113769531e+00 8.829723000526428223e-01
3.011000000000000000e+03 2.543244361877441406e+01 8.054101943969726562e+00 1.613723635673522949e+00 4.168075084686279297e+00 1.734539628028869629e+00 8.697741031646728516e-01
3.012000000000000000e+03 2.376507377624511719e+01 9.277241706848144531e+00 1.245564699172973633e+00 4.190647602081298828e+00 1.630863785743713379e+00 7.356145381927490234e-01
3.013000000000000000e+03 1.798584365844726562e+01 1.458955287933349609e+01 3.965296447277069092e-01 3.207073688507080078e+00 1.081081032752990723e+00 -1.834760308265686035e-01
3.014000000000000000e+03 1.720637321472167969e+01 1.551019382476806641e+01 3.386058509349822998e-01 3.005833387374877930e+00 1.003331780433654785e+00 -2.589986920356750488e-01
3.015000000000000000e+03 2.573052024841308594e+01 2.668361961841583252e-01 3.142348766326904297e+00 2.681921482086181641e+00 1.747281074523925781e+00 1.083271265029907227e+00
3.016000000000000000e+03 2.058679008483886719e+01 2.160214805603027344e+01 2.242375165224075317e-01 3.485929965972900391e+00 1.113050222396850586e+00 -4.171882867813110352e-01
3.017000000000000000e+03 1.844912338256835938e+01 1.870756149291992188e+01 2.960497438907623291e-01 3.154134750366210938e+00 1.035055279731750488e+00 -3.448958694934844971e-01
3.018000000000000000e+03 2.888418960571289062e+01 -9.159433245658874512e-01 2.494279861450195312e+00 2.659901142120361328e+00 1.546254277229309082e+00 -5.488695204257965088e-02
3.019000000000000000e+03 2.769209671020507812e+01 -1.520719826221466064e-01 2.839995861053466797e+00 2.585949659347534180e+00 1.627783656120300293e+00 4.467640221118927002e-01
3.020000000000000000e+03 2.289274597167968750e+01 1.959944725036621094e+01 4.339087009429931641e-01 3.867187261581420898e+00 1.290328741073608398e+00 -3.176551461219787598e-01
3.021000000000000000e+03 2.226276588439941406e+01 2.143103218078613281e+01 2.773064672946929932e-01 3.772807598114013672e+00 1.215034246444702148e+00 -3.989662826061248779e-01
3.022000000000000000e+03 1.853971862792968750e+01 4.056369304656982422e+00 5.766347646713256836e-01 5.211458683013916016e+00 1.736428022384643555e+00 1.187960624694824219e+00
3.023000000000000000e+03 1.889877510070800781e+01 4.302497863769531250e+00 6.743807196617126465e-01 5.099635601043701172e+00 1.732204914093017578e+00 1.253254175186157227e+00
3.024000000000000000e+03 1.850857734680175781e+01 3.408406019210815430e+00 6.529468297958374023e-01 5.505974769592285156e+00 1.847676396369934082e+00 1.409156799316406250e+00
3.025000000000000000e+03 2.227005386352539062e+01 2.107565164566040039e+00 2.576460838317871094e+00 4.056956291198730469e+00 1.990025162696838379e+00 2.243553400039672852e+00
3.026000000000000000e+03 2.361764335632324219e+01 1.634205818176269531e+00 2.960937738418579102e+00 3.424350738525390625e+00 1.915586471557617188e+00 1.919888973236083984e+00
3.027000000000000000e+03 1.757784652709960938e+01 4.396145820617675781e+00 2.748382389545440674e-01 5.072157859802246094e+00 1.604098796844482422e+00 6.814099550247192383e-01
3.028000000000000000e+03 1.679265594482421875e+01 8.010119438171386719e+00 3.251928687095642090e-01 3.646926641464233398e+00 1.191635847091674805e+00 2.355642616748809814e-02
3.029000000000000000e+03 1.531350803375244141e+01 1.041490459442138672e+01 3.334520161151885986e-01 2.855771541595458984e+00 9.567670226097106934e-01 -2.339489012956619263e-01
3.030000000000000000e+03 1.723438644409179688e+01 7.432075023651123047e+00 3.326054513454437256e-01 3.903455972671508789e+00 1.270818471908569336e+00 1.484075486660003662e-01
3.031000000000000000e+03 1.762826538085937500e+01 6.824361801147460938e+00 3.442604243755340576e-01 4.157591819763183594e+00 1.350555658340454102e+00 3.119288980960845947e-01
3.032000000000000000e+03 2.297384452819824219e+01 1.924593687057495117e+00 2.771624088287353516e+00 3.708770751953125000e+00 1.944118380546569824e+00 2.083398818969726562e+00
3.033000000000000000e+03 2.211669540405273438e+01 1.397620916366577148e+00 2.924325466156005859e+00 3.916356801986694336e+00 2.052204608917236328e+00 2.400255680084228516e+00
3.034000000000000000e+03 2.399585914611816406e+01 1.080087572336196899e-02 3.525060415267944336e+00 2.761320829391479492e+00 1.885914444923400879e+00 1.658859610557556152e+00
3.035000000000000000e+03 2.656593322753906250e+01 2.829357862472534180e+00 2.594357013702392578e+00 3.368900537490844727e+00 1.788977265357971191e+00 1.114345431327819824e+00
3.036000000000000000e+03 1.830330657958984375e+01 4.473686218261718750e+00 4.686003029346466064e-01 5.055843830108642578e+00 1.657333254814147949e+00 9.725942611694335938e-01
3.037000000000000000e+03 1.805321121215820312e+01 6.334874153137207031e+00 3.963801860809326172e-01 4.392376899719238281e+00 1.436627030372619629e+00 4.994302392005920410e-01
3.038000000000000000e+03 2.485443687438964844e+01 1.658316850662231445e-01 3.317000865936279297e+00 2.703001737594604492e+00 1.806000828742980957e+00 1.400829672813415527e+00
3.039000000000000000e+03 2.673808097839355469e+01 -3.880948126316070557e-01 3.050289392471313477e+00 2.461167097091674805e+00 1.653437018394470215e+00 6.494368910789489746e-01
3.040000000000000000e+03 2.408527755737304688e+01 5.746197223663330078e+00 1.761185884475708008e+00 4.081496715545654297e+00 1.752804756164550781e+00 1.307933330535888672e+00
3.041000000000000000e+03 2.067100906372070312e+01 3.783987522125244141e+00 1.388105750083923340e+00 4.828604221343994141e+00 1.865013003349304199e+00 1.852431893348693848e+00
3.042000000000000000e+03 2.416135787963867188e+01 3.998731613159179688e+00 2.192514419555664062e+00 3.867422819137573242e+00 1.817981123924255371e+00 1.566063880920410156e+00
3.043000000000000000e+03 2.456100463867187500e+01 8.710097312927246094e+00 1.418086886405944824e+00 4.188245296478271484e+00 1.681899666786193848e+00 8.165078163146972656e-01
3.044000000000000000e+03 2.386868476867675781e+01 7.902731418609619141e+00 1.412530303001403809e+00 4.184563636779785156e+00 1.679128170013427734e+00 9.412423968315124512e-01
3.045000000000000000e+03 2.869915390014648438e+01 1.976807117462158203e+00 2.537913560867309570e+00 3.273080825805664062e+00 1.743298292160034180e+00 5.144889950752258301e-01
3.046000000000000000e+03 1.601293373107910156e+01 1.127112197875976562e+01 3.516721129417419434e-01 2.995292901992797852e+00 1.004089474678039551e+00 -1.865900009870529175e-01
3.047000000000000000e+03 1.739219284057617188e+01 1.137043190002441406e+01 4.026406705379486084e-01 3.320029497146606445e+00 1.116801023483276367e+00 -6.232080608606338501e-02
3.048000000000000000e+03 2.798614501953125000e+01 3.374551296234130859e+00 2.451314210891723633e+00 3.536208152770996094e+00 1.796256780624389648e+00 8.091397285461425781e-01
3.049000000000000000e+03 2.981561660766601562e+01 5.544480681419372559e-01 2.391435384750366211e+00 3.145282506942749023e+00 1.661015391349792480e+00 4.553901776671409607e-02
3.050000000000000000e+03 2.048802566528320312e+01 1.627173042297363281e+01 4.930540323257446289e-01 3.569252729415893555e+00 1.218692064285278320e+00 -1.686662733554840088e-01
3.051000000000000000e+03 2.108547019958496094e+01 1.866569137573242188e+01 4.024420380592346191e-01 3.610699415206909180e+00 1.203942418098449707e+00 -2.951763272285461426e-01
3.052000000000000000e+03 2.014185523986816406e+01 2.436236190795898438e+01 3.294886648654937744e-02 3.411855220794677734e+00 1.033441185951232910e+00 -4.832303822040557861e-01
3.053000000000000000e+03 2.294707489013671875e+01 1.393633842468261719e+01 8.231983780860900879e-01 3.996113300323486328e+00 1.445793509483337402e+00 1.129160672426223755e-01
3.054000000000000000e+03 1.820241355895996094e+01 1.209071350097656250e+01 4.431994557380676270e-01 3.417273044586181641e+00 1.158141732215881348e+00 -2.731418050825595856e-02
3.055000000000000000e+03 2.683513259887695312e+01 2.445841979980468750e+01 1.283019781112670898e-01 4.458766937255859375e+00 1.376120686531066895e+00 -4.675889015197753906e-01
3.056000000000000000e+03 2.162727546691894531e+01 2.589477157592773438e+01 -5.879411101341247559e-02 3.636514663696289062e+00 1.073316097259521484e+00 -4.807108044624328613e-01
3.057000000000000000e+03 1.855068588256835938e+01 2.579202651977539062e+01 -5.805966258049011230e-02 3.126030445098876953e+00 9.203912615776062012e-01 -4.915707409381866455e-01
3.058000000000000000e+03 1.850152969360351562e+01 2.931233406066894531e+01 -2.225245982408523560e-01 3.173051834106445312e+00 8.851581811904907227e-01 -4.688860177993774414e-01
3.059000000000000000e+03 2.855157470703125000e+01 2.475710868835449219e+01 1.303165853023529053e-01 4.726538658142089844e+00 1.457056522369384766e+00 -4.638532996177673340e-01
3.060000000000000000e+03 2.336996269226074219e+01 2.733690452575683594e+01 -1.501999348402023315e-01 3.934528112411499023e+00 1.135298490524291992e+00 -5.007022619247436523e-01
3.061000000000000000e+03 1.937150955200195312e+01 4.776389122009277344e+00 7.657403349876403809e-01 4.893898963928222656e+00 1.697891831398010254e+00 1.242063879966735840e+00
3.062000000000000000e+03 1.877681541442871094e+01 3.755975246429443359e+00 6.956807374954223633e-01 5.325458049774169922e+00 1.806341648101806641e+00 1.416953682899475098e+00
3.063000000000000000e+03 1.668060302734375000e+01 1.060003280639648438e+01 3.617777824401855469e-01 3.221209049224853516e+00 1.074896097183227539e+00 -1.060386970639228821e-01
3.064000000000000000e+03 1.796882820129394531e+01 4.893930435180664062e+00 3.571648001670837402e-01 4.852638244628906250e+00 1.562940955162048340e+00 7.249679565429687500e-01
3.065000000000000000e+03 2.365987586975097656e+01 6.545167565345764160e-01 3.310751676559448242e+00 3.085644960403442383e+00 1.918919086456298828e+00 1.857301115989685059e+00
3.066000000000000000e+03 1.626394653320312500e+01 8.514252662658691406e+00 3.225729763507843018e-01 3.399069786071777344e+00 1.116492867469787598e+00 -8.551383763551712036e-02
3.067000000000000000e+03 1.953510475158691406e+01 3.441290616989135742e+00 1.046403169631958008e+00 5.270791053771972656e+00 1.895158290863037109e+00 1.777243256568908691e+00
3.068000000000000000e+03 1.992337799072265625e+01 3.794099330902099609e+00 1.112587571144104004e+00 5.045933723449707031e+00 1.847556352615356445e+00 1.732674598693847656e+00
3.069000000000000000e+03 1.880703735351562500e+01 4.749518871307373047e+00 5.658662319183349609e-01 4.940307617187500000e+00 1.651852250099182129e+00 1.059754252433776855e+00
3.070000000000000000e+03 2.111774063110351562e+01 4.266584873199462891e+00 1.413494706153869629e+00 4.627781391143798828e+00 1.812382936477661133e+00 1.716523885726928711e+00
3.071000000000000000e+03 1.734792327880859375e+01 9.950499534606933594e+00 3.919977545738220215e-01 3.470942497253417969e+00 1.158882141113281250e+00 5.254607647657394409e-03
3.072000000000000000e+03 1.779797363281250000e+01 5.746568679809570312e+00 3.337296843528747559e-01 4.504458904266357422e+00 1.451456546783447266e+00 4.976235926151275635e-01
3.073000000000000000e+03 2.350675773620605469e+01 4.289600849151611328e+00 2.003383159637451172e+00 4.022783756256103516e+00 1.807850003242492676e+00 1.617354869842529297e+00
3.074000000000000000e+03 2.743388557434082031e+01 6.702305078506469727e-01 2.835121154785156250e+00 2.789365053176879883e+00 1.687345862388610840e+00 6.447044014930725098e-01
3.075000000000000000e+03 2.527389144897460938e+01 4.478559970855712891e+00 2.198824405670166016e+00 3.801202774047851562e+00 1.800008177757263184e+00 1.328851461410522461e+00
3.076000000000000000e+03 1.827163887023925781e+01 5.465494632720947266e+00 4.275780916213989258e-01 4.688313961029052734e+00 1.534767627716064453e+00 7.285068035125732422e-01
3.077000000000000000e+03 1.853021049499511719e+01 6.816700935363769531e+00 4.732103943824768066e-01 4.307451248168945312e+00 1.434198498725891113e+00 5.508917570114135742e-01
3.078000000000000000e+03 1.762302780151367188e+01 1.289773082733154297e+01 4.077667593955993652e-01 3.239329576492309570e+00 1.094128966331481934e+00 -1.193469688296318054e-01
3.079000000000000000e+03 1.676047134399414062e+01 1.209876918792724609e+01 3.690239191055297852e-01 3.103550434112548828e+00 1.041772365570068359e+00 -1.516629904508590698e-01
3.080000000000000000e+03 2.417179679870605469e+01 1.005936527252197266e+01 1.223835945129394531e+00 4.189218997955322266e+00 1.623916506767272949e+00 6.107390522956848145e-01
3.081000000000000000e+03 2.594702720642089844e+01 2.068639993667602539e+00 2.771739244461059570e+00 3.205706119537353516e+00 1.793233633041381836e+00 1.232821464538574219e+00
3.082000000000000000e+03 1.863333129882812500e+01 1.365143871307373047e+01 4.512159824371337891e-01 3.377494812011718750e+00 1.148613214492797852e+00 -9.139027446508407593e-02
3.083000000000000000e+03 2.346272850036621094e+01 6.540402889251708984e+00 1.505138397216796875e+00 4.188200473785400391e+00 1.708001613616943359e+00 1.194542527198791504e+00
3.084000000000000000e+03 1.602355384826660156e+01 9.770486831665039062e+00 3.406859636306762695e-01 3.131988763809204102e+00 1.041802406311035156e+00 -1.601141542196273804e-01
3.085000000000000000e+03 2.308369636535644531e+01 1.250762271881103516e+01 9.087316393852233887e-01 4.060894966125488281e+00 1.490887999534606934e+00 2.674255073070526123e-01
3.086000000000000000e+03 2.311681556701660156e+01 8.592884063720703125e+00 1.219639778137207031e+00 4.203528404235839844e+00 1.626950502395629883e+00 8.337530493736267090e-01
3.087000000000000000e+03 2.819224357604980469e+01 1.095501899719238281e+00 2.641592264175415039e+00 3.048045158386230469e+00 1.706891298294067383e+00 5.112947225570678711e-01
3.088000000000000000e+03 2.758922958374023438e+01 2.394216537475585938e+00 2.620694398880004883e+00 3.285175800323486328e+00 1.771761059761047363e+00 8.514075875282287598e-01
3.089000000000000000e+03 2.153027153015136719e+01 1.364307403564453125e+01 6.908012628555297852e-01 3.836160659790039062e+00 1.358088493347167969e+00 8.448609709739685059e-02
3.090000000000000000e+03 2.175779533386230469e+01 1.237477111816406250e+01 7.746941447257995605e-01 3.925114154815673828e+00 1.409942507743835449e+00 2.235182523727416992e-01
3.091000000000000000e+03 1.825769233703613281e+01 3.296160888671875000e+01 -3.908982276916503906e-01 3.130067348480224609e+00 8.217507600784301758e-01 -3.615887463092803955e-01
3.092000000000000000e+03 1.527904224395751953e+01 2.923141098022460938e+01 -1.673328876495361328e-01 2.545374393463134766e+00 7.134124636650085449e-01 -4.347673058509826660e-01
3.093000000000000000e+03 2.015839195251464844e+01 2.762746047973632812e+01 -1.655777990818023682e-01 3.402037143707275391e+00 9.709378480911254883e-01 -4.904415011405944824e-01
3.094000000000000000e+03 1.915851593017578125e+01 1.544429016113281250e+01 4.373565018177032471e-01 3.372330665588378906e+00 1.142906188964843750e+00 -1.706735789775848389e-01
3.095000000000000000e+03 1.931007194519042969e+01 3.772024393081665039e+00 8.643468618392944336e-01 5.232470035552978516e+00 1.829045057296752930e+00 1.573747754096984863e+00
3.096000000000000000e+03 1.847086715698242188e+01 6.015077590942382812e+00 4.721653759479522705e-01 4.539977550506591797e+00 1.503642916679382324e+00 6.831254959106445312e-01
3.097000000000000000e+03 1.734457206726074219e+01 8.628693580627441406e+00 3.776572048664093018e-01 3.694658041000366211e+00 1.221694588661193848e+00 9.371086210012435913e-02
3.098000000000000000e+03 2.236976814270019531e+01 9.344084739685058594e+00 1.019190311431884766e+00 4.151112079620361328e+00 1.551090717315673828e+00 6.623331308364868164e-01
3.099000000000000000e+03 2.102163314819335938e+01 3.292749166488647461e+00 1.700072526931762695e+00 4.687971591949462891e+00 1.916413187980651855e+00 2.032629251480102539e+00
3.100000000000000000e+03 2.261499786376953125e+01 2.868837356567382812e+00 2.302660465240478516e+00 4.068802833557128906e+00 1.911438941955566406e+00 2.029100418090820312e+00
3.101000000000000000e+03 1.925837707519531250e+01 4.318595886230468750e+00 7.602339982986450195e-01 5.052435874938964844e+00 1.743800997734069824e+00 1.362354278564453125e+00
3.102000000000000000e+03 1.880788040161132812e+01 5.334358692169189453e+00 5.516439676284790039e-01 4.776549339294433594e+00 1.598457932472229004e+00 9.279092550277709961e-01
3.103000000000000000e+03 2.561649894714355469e+01 9.879053831100463867e-01 3.045247077941894531e+00 2.883655786514282227e+00 1.778670787811279297e+00 1.249752163887023926e+00
3.104000000000000000e+03 2.055885696411132812e+01 5.562143325805664062e+00 1.001503467559814453e+00 4.583614349365234375e+00 1.675535321235656738e+00 1.275265455245971680e+00
3.105000000000000000e+03 2.375113105773925781e+01 3.280544996261596680e+00 2.346402168273925781e+00 3.816024541854858398e+00 1.848728060722351074e+00 1.749597549438476562e+00
3.106000000000000000e+03 2.343398094177246094e+01 5.868294715881347656e+00 1.658165693283081055e+00 4.163591384887695312e+00 1.746527075767517090e+00 1.336783289909362793e+00
3.107000000000000000e+03 2.402649688720703125e+01 2.267818927764892578e+00 2.732882976531982422e+00 3.491116523742675781e+00 1.867199897766113281e+00 1.765336155891418457e+00
3.108000000000000000e+03 2.610046195983886719e+01 4.135563850402832031e+00 2.331554889678955078e+00 3.667378664016723633e+00 1.799680113792419434e+00 1.205924630165100098e+00
3.109000000000000000e+03 1.888274192810058594e+01 5.900600433349609375e+00 5.490617156028747559e-01 4.602996349334716797e+00 1.545617341995239258e+00 8.194879889488220215e-01
3.110000000000000000e+03 1.910007858276367188e+01 7.146283149719238281e+00 5.835866928100585938e-01 4.299449443817138672e+00 1.464910864830017090e+00 6.309955120086669922e-01
3.111000000000000000e+03 1.674168014526367188e+01 9.227791786193847656e+00 3.648355007171630859e-01 3.428380966186523438e+00 1.137964963912963867e+00 -4.066710174083709717e-02
3.112000000000000000e+03 1.799997329711914062e+01 1.066483497619628906e+01 4.288533031940460205e-01 3.523949623107910156e+00 1.185840845108032227e+00 4.036623984575271606e-02
3.113000000000000000e+03 2.155135536193847656e+01 3.785781621932983398e+00 1.685699701309204102e+00 4.525272369384765625e+00 1.863291740417480469e+00 1.888948321342468262e+00
3.114000000000000000e+03 2.452176856994628906e+01 4.758672714233398438e+00 2.045516967773437500e+00 3.919503688812255859e+00 1.789506196975708008e+00 1.413633227348327637e+00
3.115000000000000000e+03 2.320254707336425781e+01 1.000990962982177734e+01 1.090366005897521973e+00 4.157248973846435547e+00 1.574284434318542480e+00 6.037682890892028809e-01
3.116000000000000000e+03 2.027132606506347656e+01 1.324212455749511719e+01 5.897585153579711914e-01 3.678978443145751953e+00 1.280621051788330078e+00 4.947347939014434814e-02
3.117000000000000000e+03 2.111503982543945312e+01 1.494637775421142578e+01 5.971421599388122559e-01 3.714470863342285156e+00 1.293483972549438477e+00 -4.694405198097229004e-02
3.118000000000000000e+03 2.658191871643066406e+01 4.662631750106811523e-01 2.979682445526123047e+00 2.710322856903076172e+00 1.707001566886901855e+00 8.509823679924011230e-01
3.119000000000000000e+03 2.058913612365722656e+01 1.217584705352783203e+01 6.580392122268676758e-01 3.802411794662475586e+00 1.338135242462158203e+00 1.735204160213470459e-01
3.120000000000000000e+03 2.568981170654296875e+01 3.309859991073608398e+00 2.495390892028808594e+00 3.535467624664306641e+00 1.809257626533508301e+00 1.328188896179199219e+00
3.121000000000000000e+03 1.915874862670898438e+01 1.272512722015380859e+01 5.113002061843872070e-01 3.545276641845703125e+00 1.216973066329956055e+00 1.445544976741075516e-02
3.122000000000000000e+03 1.961104583740234375e+01 1.755486869812011719e+01 3.791748881340026855e-01 3.375833511352539062e+00 1.126502513885498047e+00 -2.677426636219024658e-01
3.123000000000000000e+03 1.998877906799316406e+01 5.491100788116455078e+00 8.401002287864685059e-01 4.687005043029785156e+00 1.658131599426269531e+00 1.183607339859008789e+00
3.124000000000000000e+03 2.021368789672851562e+01 3.395659446716308594e+00 1.337685704231262207e+00 5.012088775634765625e+00 1.904932260513305664e+00 1.924183487892150879e+00
3.125000000000000000e+03 2.069159507751464844e+01 4.690120697021484375e+00 1.161651968955993652e+00 4.725681781768798828e+00 1.766200184822082520e+00 1.552052497863769531e+00
3.126000000000000000e+03 2.201444435119628906e+01 3.272048473358154297e+00 2.029355764389038086e+00 4.319089889526367188e+00 1.904533743858337402e+00 2.017626523971557617e+00
3.127000000000000000e+03 2.286395072937011719e+01 6.089173793792724609e+00 1.465095400810241699e+00 4.243575572967529297e+00 1.712601304054260254e+00 1.290267944335937500e+00
3.128000000000000000e+03 2.332907867431640625e+01 2.585812807083129883e+00 2.563074588775634766e+00 3.772419929504394531e+00 1.900648355484008789e+00 1.930741786956787109e+00
3.129000000000000000e+03 2.384027671813964844e+01 4.998621463775634766e+00 1.897120237350463867e+00 4.048858165740966797e+00 1.783793449401855469e+00 1.451629519462585449e+00
3.130000000000000000e+03 1.941250228881835938e+01 5.363725185394287109e+00 7.054351568222045898e-01 4.757543087005615234e+00 1.638893485069274902e+00 1.098658204078674316e+00
3.131000000000000000e+03 1.879737091064453125e+01 6.361351966857910156e+00 5.311267375946044922e-01 4.468934059143066406e+00 1.500018239021301270e+00 7.068981528282165527e-01
3.132000000000000000e+03 2.469309234619140625e+01 1.902750492095947266e+00 2.849908351898193359e+00 3.278516530990600586e+00 1.838527441024780273e+00 1.557739734649658203e+00
3.133000000000000000e+03 2.520696830749511719e+01 2.572549581527709961e+00 2.650244712829589844e+00 3.410504102706909180e+00 1.818224668502807617e+00 1.447353839874267578e+00
3.134000000000000000e+03 2.070877838134765625e+01 1.114620494842529297e+01 6.859179139137268066e-01 3.897146224975585938e+00 1.374919295310974121e+00 2.904209196567535400e-01
3.135000000000000000e+03 2.309321022033691406e+01 7.220752716064453125e+00 1.381367564201354980e+00 4.210020065307617188e+00 1.677416324615478516e+00 1.073886513710021973e+00
3.136000000000000000e+03 2.082841300964355469e+01 7.100643157958984375e+00 8.916228413581848145e-01 4.348420143127441406e+00 1.572012901306152344e+00 9.416953921318054199e-01
3.137000000000000000e+03 2.481596374511718750e+01 5.584104537963867188e+00 1.923192739486694336e+00 3.992618322372436523e+00 1.774743318557739258e+00 1.253642797470092773e+00
3.138000000000000000e+03 2.446418380737304688e+01 2.952822446823120117e+00 2.534894227981567383e+00 3.598446607589721680e+00 1.840002298355102539e+00 1.614374518394470215e+00
3.139000000000000000e+03 2.488919258117675781e+01 3.683458089828491211e+00 2.349014282226562500e+00 3.695629835128784180e+00 1.813393235206604004e+00 1.474469900131225586e+00
3.140000000000000000e+03 2.054469490051269531e+01 1.018964576721191406e+01 7.070368528366088867e-01 3.979431152343750000e+00 1.405940413475036621e+00 3.960797786712646484e-01
3.141000000000000000e+03 2.245997047424316406e+01 7.865930557250976562e+00 1.170252442359924316e+00 4.225868225097656250e+00 1.618836283683776855e+00 9.310638308525085449e-01
3.142000000000000000e+03 2.179864311218261719e+01 1.110089302062988281e+01 8.366426229476928711e-01 4.016921043395996094e+00 1.456069111824035645e+00 3.873585760593414307e-01
3.143000000000000000e+03 2.732770538330078125e+01 1.477110624313354492e+00 2.743476390838623047e+00 3.062590837478637695e+00 1.741820096969604492e+00 8.292558193206787109e-01
3.144000000000000000e+03 1.886601257324218750e+01 7.792571544647216797e+00 5.270615220069885254e-01 4.134915351867675781e+00 1.398593068122863770e+00 4.771514534950256348e-01
3.145000000000000000e+03 2.155797767639160156e+01 4.818439006805419922e+00 1.401138067245483398e+00 4.495508670806884766e+00 1.768994092941284180e+00 1.575605750083923340e+00
3.146000000000000000e+03 2.204841995239257812e+01 5.337826251983642578e+00 1.432547688484191895e+00 4.367245197296142578e+00 1.739937901496887207e+00 1.465863943099975586e+00
3.147000000000000000e+03 2.528597640991210938e+01 1.514242768287658691e+00 2.937719821929931641e+00 3.093252420425415039e+00 1.809291720390319824e+00 1.411671757698059082e+00
3.148000000000000000e+03 2.640389633178710938e+01 1.330340743064880371e+00 2.871955633163452148e+00 2.991183042526245117e+00 1.758941650390625000e+00 1.042421221733093262e+00
3.149000000000000000e+03 1.854288673400878906e+01 8.533489227294921875e+00 4.917833507061004639e-01 3.958559751510620117e+00 1.335102915763854980e+00 3.265832960605621338e-01
3.150000000000000000e+03 1.941796875000000000e+01 8.870073318481445312e+00 6.029570102691650391e-01 4.008126258850097656e+00 1.383324980735778809e+00 4.311473369598388672e-01
3.151000000000000000e+03 1.965918922424316406e+01 8.080347061157226562e+00 6.416514515876770020e-01 4.171700000762939453e+00 1.444005489349365234e+00 5.812619328498840332e-01
3.152000000000000000e+03 1.927753829956054688e+01 6.551579475402832031e+00 6.034908890724182129e-01 4.453737735748291016e+00 1.517168521881103516e+00 7.809933423995971680e-01
3.153000000000000000e+03 1.988132095336914062e+01 4.575312137603759766e+00 9.321961998939514160e-01 4.885415077209472656e+00 1.745283365249633789e+00 1.435651779174804688e+00
3.154000000000000000e+03 2.251877784729003906e+01 3.938814878463745117e+00 1.914377570152282715e+00 4.214791774749755859e+00 1.838750839233398438e+00 1.794104456901550293e+00
3.155000000000000000e+03 2.235580444335937500e+01 6.569283962249755859e+00 1.291584491729736328e+00 4.290328979492187500e+00 1.674574017524719238e+00 1.204258203506469727e+00
3.156000000000000000e+03 2.029888916015625000e+01 4.206666469573974609e+00 1.158499956130981445e+00 4.860490322113037109e+00 1.805697202682495117e+00 1.641081929206848145e+00
3.157000000000000000e+03 1.801699829101562500e+01 9.277251243591308594e+00 4.459068179130554199e-01 3.731274366378784180e+00 1.253154397010803223e+00 1.613685786724090576e-01
3.158000000000000000e+03 1.972265052795410156e+01 7.335588455200195312e+00 6.718093752861022949e-01 4.309124469757080078e+00 1.494280219078063965e+00 7.162983417510986328e-01
3.159000000000000000e+03 1.992679214477539062e+01 6.085288524627685547e+00 7.525874972343444824e-01 4.582850456237792969e+00 1.600631475448608398e+00 1.032523989677429199e+00
3.160000000000000000e+03 1.982008934020996094e+01 6.690816879272460938e+00 7.273556590080261230e-01 4.447524070739746094e+00 1.552463889122009277e+00 8.725228309631347656e-01
3.161000000000000000e+03 2.055912590026855469e+01 6.210852622985839844e+00 9.306175708770751953e-01 4.506994724273681641e+00 1.631283640861511230e+00 1.119459033012390137e+00
3.162000000000000000e+03 2.148759841918945312e+01 9.914748191833496094e+00 8.568097352981567383e-01 4.074531555175781250e+00 1.479402303695678711e+00 5.221497416496276855e-01
3.163000000000000000e+03 2.183794212341308594e+01 7.163331031799316406e+00 1.120367646217346191e+00 4.298513412475585938e+00 1.625664234161376953e+00 1.042194724082946777e+00
3.164000000000000000e+03 2.201390266418457031e+01 4.350395202636718750e+00 1.675466895103454590e+00 4.376208305358886719e+00 1.815502524375915527e+00 1.726911902427673340e+00
3.165000000000000000e+03 1.982460784912109375e+01 1.106522464752197266e+01 5.996832251548767090e-01 3.795206069946289062e+00 1.318466782569885254e+00 2.165922373533248901e-01
3.166000000000000000e+03 1.956705856323242188e+01 1.184743976593017578e+01 5.578751564025878906e-01 3.678267002105712891e+00 1.270842671394348145e+00 1.205880492925643921e-01
3.167000000000000000e+03 2.309299850463867188e+01 3.593024015426635742e+00 2.136618852615356445e+00 4.038095474243164062e+00 1.852414250373840332e+00 1.797661066055297852e+00
3.168000000000000000e+03 2.261692810058593750e+01 5.453666210174560547e+00 1.526235818862915039e+00 4.281176090240478516e+00 1.742223501205444336e+00 1.431576490402221680e+00
3.169000000000000000e+03 1.864507484436035156e+01 1.000663852691650391e+01 4.958069324493408203e-01 3.739829778671264648e+00 1.270691037178039551e+00 1.884308606386184692e-01
3.170000000000000000e+03 2.090750885009765625e+01 8.918951034545898438e+00 8.183205723762512207e-01 4.134057521820068359e+00 1.485713481903076172e+00 6.190072298049926758e-01
3.171000000000000000e+03 2.174037933349609375e+01 8.459361076354980469e+00 9.713995456695556641e-01 4.207877635955810547e+00 1.553783059120178223e+00 7.795040011405944824e-01
3.172000000000000000e+03 2.110221862792968750e+01 5.292868137359619141e+00 1.170646309852600098e+00 4.551185607910156250e+00 1.716549515724182129e+00 1.410339832305908203e+00
3.173000000000000000e+03 2.024263954162597656e+01 5.038000106811523438e+00 9.882482886314392090e-01 4.732303142547607422e+00 1.716165423393249512e+00 1.368124604225158691e+00
3.174000000000000000e+03 2.050536537170410156e+01 8.058694839477539062e+00 7.642926573753356934e-01 4.217221736907958984e+00 1.494454383850097656e+00 7.028350830078125000e-01
3.175000000000000000e+03 2.013597297668457031e+01 9.341127395629882812e+00 6.940786242485046387e-01 4.047035217285156250e+00 1.422334194183349609e+00 4.752005338668823242e-01
3.176000000000000000e+03 1.940237236022949219e+01 9.637858390808105469e+00 5.763411521911621094e-01 3.895436048507690430e+00 1.341533184051513672e+00 3.163279294967651367e-01
3.177000000000000000e+03 2.036692810058593750e+01 6.803610801696777344e+00 8.161258101463317871e-01 4.414063930511474609e+00 1.569056868553161621e+00 9.363228082656860352e-01
3.178000000000000000e+03 2.122176742553710938e+01 6.545829772949218750e+00 1.038462400436401367e+00 4.396215438842773438e+00 1.630403399467468262e+00 1.124624133110046387e+00
3.179000000000000000e+03 2.166810989379882812e+01 5.926051616668701172e+00 1.225032567977905273e+00 4.410181045532226562e+00 1.690564036369323730e+00 1.299278497695922852e+00
3.180000000000000000e+03 1.871110343933105469e+01 1.133139705657958984e+01 4.898196458816528320e-01 3.597596168518066406e+00 1.226224780082702637e+00 8.229155093431472778e-02
3.181000000000000000e+03 1.917006683349609375e+01 1.069875144958496094e+01 5.360790491104125977e-01 3.721954822540283203e+00 1.277410149574279785e+00 1.792949587106704712e-01
3.182000000000000000e+03 1.975284004211425781e+01 1.036437416076660156e+01 5.908814668655395508e-01 3.862027645111083984e+00 1.335872769355773926e+00 2.779538035392761230e-01
3.183000000000000000e+03 2.124032211303710938e+01 7.694896221160888672e+00 9.445214271545410156e-01 4.276650905609130859e+00 1.566351771354675293e+00 8.751860260963439941e-01
3.184000000000000000e+03 2.842613792419433594e+01 2.708747863769531250e+01 -1.370392441749572754e-01 4.665198326110839844e+00 1.358447790145874023e+00 -4.712503552436828613e-01
3.185000000000000000e+03 1.239676189422607422e+01 -4.146534729003906250e+01 -7.009503990411758423e-02 1.108730554580688477e+00 3.115906715393066406e-01 1.662348955869674683e-02
3.186000000000000000e+03 4.697060775756835938e+01 -3.809431076049804688e+01 -1.936317443847656250e+00 6.428191184997558594e+00 1.347562074661254883e+00 -1.278062313795089722e-01
3.187000000000000000e+03 2.706517791748046875e+01 3.439901351928710938e+01 -7.300211191177368164e-01 4.419002056121826172e+00 1.106694340705871582e+00 -3.391300141811370850e-01
3.188000000000000000e+03 2.931892967224121094e+01 3.100464248657226562e+01 -5.328655838966369629e-01 4.734343051910400391e+00 1.260443210601806641e+00 -3.998523354530334473e-01
3.189000000000000000e+03 7.808705139160156250e+01 -4.176896286010742188e+01 3.079580664634704590e-01 8.134366035461425781e+00 2.532697439193725586e+00 8.643888682126998901e-02
3.190000000000000000e+03 8.221626281738281250e+00 4.094034194946289062e+01 -1.467784792184829712e-01 1.431671977043151855e+00 3.854680359363555908e-01 -4.051326587796211243e-02
3.191000000000000000e+03 2.307390022277832031e+01 -4.100851440429687500e+01 -9.966285228729248047e-01 -5.919316411018371582e-01 -4.765680432319641113e-01 1.251893937587738037e-01
3.192000000000000000e+03 1.620048713684082031e+01 3.544306945800781250e+01 -3.774392008781433105e-01 2.763133287429809570e+00 7.157082557678222656e-01 -2.740370035171508789e-01
3.193000000000000000e+03 1.339060497283935547e+01 3.074149513244628906e+01 -1.794602572917938232e-01 2.235044479370117188e+00 6.166752576828002930e-01 -4.099351763725280762e-01
3.194000000000000000e+03 3.301124954223632812e+01 3.250577926635742188e+01 -7.531856894493103027e-01 5.033851623535156250e+00 1.284199714660644531e+00 -2.715353369712829590e-01
3.195000000000000000e+03 2.011753654479980469e+01 3.129998016357421875e+01 -3.622057735919952393e-01 3.447213172912597656e+00 9.255021810531616211e-01 -4.410499930381774902e-01
3.196000000000000000e+03 2.198439598083496094e+01 2.957041168212890625e+01 -2.956380248069763184e-01 3.710115194320678711e+00 1.024343132972717285e+00 -4.803335964679718018e-01
3.197000000000000000e+03 3.518754196166992188e+01 3.090207481384277344e+01 -6.233468651771545410e-01 5.217101097106933594e+00 1.378126263618469238e+00 -1.898245960474014282e-01
3.198000000000000000e+03 3.751985168457031250e+01 4.070174026489257812e+01 -1.262165188789367676e+00 4.813595771789550781e+00 1.065429210662841797e+00 -1.149674877524375916e-02
3.199000000000000000e+03 6.193123245239257812e+01 4.116300964355468750e+01 3.413627147674560547e-01 -1.502741873264312744e-01 5.732655152678489685e-02 2.826669625937938690e-02
3.200000000000000000e+03 1.909044647216796875e+01 3.712477874755859375e+01 -5.219435691833496094e-01 3.237702846527099609e+00 8.147277235984802246e-01 -2.362579107284545898e-01
3.201000000000000000e+03 2.311280632019042969e+01 3.760916137695312500e+01 -7.125133872032165527e-01 3.868732213973999023e+00 9.468656778335571289e-01 -2.037773430347442627e-01
3.202000000000000000e+03 2.733030700683593750e+01 3.761481857299804688e+01 -8.976876139640808105e-01 4.432883262634277344e+00 1.060558676719665527e+00 -2.138415873050689697e-01
3.203000000000000000e+03 3.162228393554687500e+01 3.704333496093750000e+01 -1.032503962516784668e+00 4.835916996002197266e+00 1.141023874282836914e+00 -1.841227114200592041e-01
3.204000000000000000e+03 6.782276916503906250e+01 4.118920516967773438e+01 2.468465417623519897e-01 2.383189678192138672e+00 7.890108823776245117e-01 -1.070385351777076721e-01
3.205000000000000000e+03 2.358696937561035156e+01 3.419712829589843750e+01 -5.998639464378356934e-01 3.919303417205810547e+00 9.958318471908569336e-01 -3.515828847885131836e-01
3.206000000000000000e+03 2.698288345336914062e+01 3.158037376403808594e+01 -5.454176664352416992e-01 4.402055740356445312e+00 1.156991362571716309e+00 -4.125897586345672607e-01
3.207000000000000000e+03 2.433261108398437500e+01 3.104083633422851562e+01 -4.345910251140594482e-01 4.053631305694580078e+00 1.085712075233459473e+00 -4.596424102783203125e-01
3.208000000000000000e+03 1.246496582031250000e+01 -2.905569076538085938e+00 4.191108226776123047e+00 -2.736273407936096191e-01 1.175244331359863281e+00 1.002610325813293457e+00
3.209000000000000000e+03 1.296136665344238281e+01 -3.163564443588256836e+00 5.894526004791259766e+00 -1.838982552289962769e-01 1.713188290596008301e+00 1.755746483802795410e+00
3.210000000000000000e+03 1.262532997131347656e+01 -3.226249933242797852e+00 5.240640163421630859e+00 -1.534480303525924683e-01 1.526157617568969727e+00 1.773738265037536621e+00
3.211000000000000000e+03 1.275959682464599609e+01 -3.438241958618164062e+00 5.761800765991210938e+00 -3.958652541041374207e-02 1.716664314270019531e+00 2.264806985855102539e+00
3.212000000000000000e+03 1.335332393646240234e+01 -3.542842626571655273e+00 7.545363426208496094e+00 4.978503882884979248e-01 2.412964105606079102e+00 3.464066743850708008e+00
3.213000000000000000e+03 1.367258167266845703e+01 -4.003622055053710938e+00 8.038933753967285156e+00 2.216539621353149414e+00 3.076642036437988281e+00 5.466595649719238281e+00
3.214000000000000000e+03 1.454232692718505859e+01 -4.120261669158935547e+00 8.410848617553710938e+00 6.917941093444824219e+00 4.598637104034423828e+00 8.105124473571777344e+00
3.215000000000000000e+03 1.417137622833251953e+01 -4.309416294097900391e+00 7.807421207427978516e+00 4.656044006347656250e+00 3.739039659500122070e+00 7.206756591796875000e+00
3.216000000000000000e+03 1.428675365447998047e+01 -1.196595579385757446e-01 5.261293798685073853e-02 3.231286764144897461e+00 9.851698875427246094e-01 -1.401837706565856934e+00
3.217000000000000000e+03 1.429124832153320312e+01 1.375544667243957520e-01 5.782072246074676514e-02 3.347029209136962891e+00 1.021454930305480957e+00 -1.371319055557250977e+00
3.218000000000000000e+03 1.613446426391601562e+01 -1.162798404693603516e+00 4.267563223838806152e-01 1.351022148132324219e+01 4.181093215942382812e+00 2.709277153015136719e+00
3.219000000000000000e+03 1.720738029479980469e+01 -1.036288499832153320e+00 3.311766624450683594e+00 9.898844718933105469e+00 3.963183403015136719e+00 4.659377098083496094e+00
3.220000000000000000e+03 6.331059646606445312e+01 -3.691719055175781250e+01 1.666247248649597168e-01 2.941146194934844971e-01 1.382218003273010254e-01 -2.639870345592498779e-01
3.221000000000000000e+03 1.390981578826904297e+01 -4.533548355102539062e+00 7.133915901184082031e+00 4.437533855438232422e+00 3.471434831619262695e+00 6.864723682403564453e+00
3.222000000000000000e+03 1.381776046752929688e+01 -4.273707866668701172e+00 7.472612857818603516e+00 3.489111900329589844e+00 3.288517475128173828e+00 6.356715679168701172e+00
3.223000000000000000e+03 1.349580383300781250e+01 -3.686582326889038086e+00 8.059080123901367188e+00 9.561197757720947266e-01 2.704560041427612305e+00 4.230021476745605469e+00
3.224000000000000000e+03 1.297727012634277344e+01 -3.573349237442016602e+00 6.483190536499023438e+00 3.089661300182342529e-01 2.037647008895874023e+00 2.948370456695556641e+00
3.225000000000000000e+03 1.300985813140869141e+01 -3.993567228317260742e+00 6.547110080718994141e+00 1.167543888092041016e+00 2.314396142959594727e+00 4.154732704162597656e+00
3.226000000000000000e+03 1.334221649169921875e+01 -3.879650115966796875e+00 7.459074974060058594e+00 1.212985754013061523e+00 2.601618289947509766e+00 4.517415046691894531e+00
3.227000000000000000e+03 1.236992168426513672e+01 -3.260787963867187500e+00 4.776107788085937500e+00 -1.155948117375373840e-01 1.398153901100158691e+00 1.694306612014770508e+00
3.228000000000000000e+03 5.318376922607421875e+01 3.775522994995117188e+01 -4.242466986179351807e-01 8.600633740425109863e-01 1.307450085878372192e-01 2.682990431785583496e-01
3.229000000000000000e+03 2.381390571594238281e+01 -1.203105545043945312e+01 -4.777397155761718750e+00 -6.218855082988739014e-02 -1.451875686645507812e+00 -2.783291041851043701e-01
3.230000000000000000e+03 2.327455902099609375e+01 -3.640144348144531250e+01 -1.651286363601684570e+00 -3.364168703556060791e-01 -5.963109731674194336e-01 4.426982104778289795e-01
3.231000000000000000e+03 1.341195011138916016e+01 -4.495801925659179688e+00 6.388211250305175781e+00 2.774504423141479492e+00 2.748814582824707031e+00 5.739792346954345703e+00
3.232000000000000000e+03 1.360820007324218750e+01 -4.267073154449462891e+00 7.240641593933105469e+00 2.944202184677124023e+00 3.055453062057495117e+00 5.941725730895996094e+00
3.233000000000000000e+03 1.362563419342041016e+01 -4.782032012939453125e+00 5.893307685852050781e+00 3.719264030456542969e+00 2.883771657943725586e+00 6.308171749114990234e+00
3.234000000000000000e+03 4.432563400268554688e+01 -2.740016746520996094e+01 1.386768817901611328e+00 9.927175521850585938e+00 3.394183397293090820e+00 -1.635429739952087402e+00
3.235000000000000000e+03 1.604040527343750000e+01 -6.842143535614013672e-01 2.432266920804977417e-01 1.128244972229003906e+01 3.457703113555908203e+00 1.601930618286132812e+00
3.236000000000000000e+03 1.137112045288085938e+01 -4.019460201263427734e+00 3.586143970489501953e+00 3.938556611537933350e-01 1.193999886512756348e+00 2.271198987960815430e+00
3.237000000000000000e+03 1.165954685211181641e+01 -3.467057704925537109e+00 3.726809740066528320e+00 6.077602133154869080e-02 1.136275649070739746e+00 1.700736045837402344e+00
3.238000000000000000e+03 1.243149280548095703e+01 -4.235826015472412109e+00 5.274020195007324219e+00 8.447320461273193359e-01 1.835625767707824707e+00 3.701545238494873047e+00
3.239000000000000000e+03 1.279119014739990234e+01 -4.214097499847412109e+00 5.792849063873291016e+00 1.128428459167480469e+00 2.076383113861083984e+00 4.107180118560791016e+00
3.240000000000000000e+03 1.526642227172851562e+01 2.793863974511623383e-02 -2.427758872509002686e-01 7.017937183380126953e+00 2.032548427581787109e+00 -9.955589771270751953e-01
3.241000000000000000e+03 1.350305938720703125e+01 -3.977353096008300781e+00 7.730517387390136719e+00 1.660317540168762207e+00 2.817250490188598633e+00 4.968323230743408203e+00
3.242000000000000000e+03 1.341457939147949219e+01 -4.212160110473632812e+00 6.961851119995117188e+00 1.871785163879394531e+00 2.650090932846069336e+00 5.059286594390869141e+00
3.243000000000000000e+03 2.627774238586425781e+00 3.683066177368164062e+01 2.597801852971315384e-03 5.365847945213317871e-01 1.617547720670700073e-01 -7.905451208353042603e-02
3.244000000000000000e+03 3.206533050537109375e+01 -3.378182983398437500e+01 -2.614593267440795898e+00 -2.281251177191734314e-02 -7.912217378616333008e-01 -9.370828978717327118e-03
3.245000000000000000e+03 2.980975914001464844e+01 -3.331636047363281250e+01 -2.237975120544433594e+00 6.255251169204711914e-02 -6.526267528533935547e-01 1.666848361492156982e-01
3.246000000000000000e+03 2.861269569396972656e+01 -3.308693695068359375e+01 -2.076016902923583984e+00 1.758227869868278503e-02 -6.175304055213928223e-01 1.868668645620346069e-01
3.247000000000000000e+03 2.032511138916015625e+01 -3.338315200805664062e+01 -2.388290643692016602e+00 -2.613567411899566650e-01 -7.948942184448242188e-01 6.796151399612426758e-01
3.248000000000000000e+03 2.463531684875488281e+01 -3.575980377197265625e+01 -1.785863399505615234e+00 -2.219457924365997314e-01 -6.023427844047546387e-01 3.521845936775207520e-01
3.249000000000000000e+03 7.453014373779296875e+01 -2.148225975036621094e+01 -6.170105338096618652e-01 7.973664283752441406e+00 2.206996202468872070e+00 6.335253715515136719e-01
3.250000000000000000e+03 4.863336563110351562e+00 -2.382997894287109375e+01 1.068948149681091309e+00 6.584732532501220703e+00 2.296104192733764648e+00 3.186435699462890625e+00
3.251000000000000000e+03 6.036082744598388672e+00 -2.508152961730957031e+01 7.419847846031188965e-01 8.300785064697265625e+00 2.712831020355224609e+00 3.135855197906494141e+00
3.252000000000000000e+03 7.662026214599609375e+01 -2.163836097717285156e+01 -2.160199284553527832e-01 7.696846008300781250e+00 2.244247913360595703e+00 7.703413963317871094e-01
3.253000000000000000e+03 1.660887908935546875e+01 -5.981182098388671875e+00 2.798152923583984375e+00 7.858467578887939453e+00 3.196986198425292969e+00 2.784460544586181641e+00
3.254000000000000000e+03 1.473582363128662109e+01 7.739489078521728516e-01 -1.220643818378448486e-01 4.660732269287109375e+00 1.361600399017333984e+00 -1.137116789817810059e+00
3.255000000000000000e+03 1.487810897827148438e+01 1.343590617179870605e+00 -1.251449733972549438e-01 4.875407695770263672e+00 1.425078749656677246e+00 -9.386017322540283203e-01
3.256000000000000000e+03 8.378687858581542969e+00 -3.531343841552734375e+01 -1.043796658515930176e+00 3.792032241821289062e+00 8.244706392288208008e-01 1.224567368626594543e-01
3.257000000000000000e+03 1.703972625732421875e+01 4.684543311595916748e-01 6.394857764244079590e-01 8.368906974792480469e+00 2.702517747879028320e+00 2.245271444320678711e+00
3.258000000000000000e+03 1.515691089630126953e+01 1.568599462509155273e+00 -1.760870665311813354e-01 5.100404739379882812e+00 1.477295279502868652e+00 -7.740197777748107910e-01
3.259000000000000000e+03 1.500518512725830078e+01 1.928308606147766113e+00 -1.194032281637191772e-01 4.581479549407958984e+00 1.338622927665710449e+00 -7.765223383903503418e-01
3.260000000000000000e+03 1.296530246734619141e+01 2.203949928283691406e+00 1.680421680212020874e-01 1.595459222793579102e+00 5.290504097938537598e-01 -7.994876503944396973e-01
3.261000000000000000e+03 1.260853958129882812e+01 2.588336706161499023e+00 2.347134202718734741e-01 1.393832921981811523e+00 4.885638952255249023e-01 -6.628529429435729980e-01
3.262000000000000000e+03 4.759350967407226562e+01 3.588509750366210938e+01 -6.377789974212646484e-01 2.751058816909790039e+00 6.339839696884155273e-01 5.400426387786865234e-01
3.263000000000000000e+03 4.588113784790039062e+01 3.575772857666015625e+01 -7.690994143486022949e-01 3.482501268386840820e+00 8.140205740928649902e-01 4.650758504867553711e-01
3.264000000000000000e+03 8.620445251464843750e+00 -3.942600727081298828e+00 1.282661080360412598e+00 5.029883384704589844e-01 5.356948375701904297e-01 9.611080884933471680e-01
3.265000000000000000e+03 4.760981082916259766e+00 -4.458880901336669922e+00 2.392251938581466675e-01 3.765519857406616211e-01 1.847331523895263672e-01 3.847710415720939636e-02
3.266000000000000000e+03 1.476056671142578125e+01 -9.170202255249023438e+00 -1.110562443733215332e+00 4.803046226501464844e+00 1.107745170593261719e+00 5.026504516601562500e+00
3.267000000000000000e+03 2.067940521240234375e+01 -8.164630889892578125e+00 4.780606329441070557e-01 1.100075244903564453e+00 4.734407663345336914e-01 -9.327244013547897339e-02
3.268000000000000000e+03 1.998013687133789062e+01 -7.915130138397216797e+00 9.227221608161926270e-01 1.807211399078369141e+00 8.189800977706909180e-01 4.375619888305664062e-01
3.269000000000000000e+03 4.175415515899658203e+00 -2.240344238281250000e+01 1.295004010200500488e+00 4.740966796875000000e+00 1.810791254043579102e+00 2.396732568740844727e+00
3.270000000000000000e+03 4.412796974182128906e+00 3.630922698974609375e+01 -2.870992384850978851e-02 8.077363967895507812e-01 2.337079346179962158e-01 -1.028647795319557190e-01
3.271000000000000000e+03 5.145135879516601562e+00 -1.023026084899902344e+01 -3.310655355453491211e-01 2.513877868652343750e+00 6.548436880111694336e-01 4.740307629108428955e-01
3.272000000000000000e+03 4.783448028564453125e+01 -2.539027595520019531e+01 2.189300298690795898e+00 7.190688133239746094e+00 2.813996553421020508e+00 -2.546653509140014648e+00
3.273000000000000000e+03 1.622367668151855469e+01 -5.880125999450683594e+00 2.717363834381103516e+00 8.375615119934082031e+00 3.327893495559692383e+00 3.390511989593505859e+00
3.274000000000000000e+03 9.612583160400390625e+00 -3.250641250610351562e+01 -2.106005668640136719e+00 2.957710504531860352e+00 2.555114924907684326e-01 7.858487218618392944e-02
3.275000000000000000e+03 1.777816390991210938e+01 2.834588289260864258e-03 2.072494029998779297e+00 8.120383262634277344e+00 3.057863235473632812e+00 3.567480564117431641e+00
3.276000000000000000e+03 3.282630157470703125e+01 -1.540678691864013672e+01 -1.755106806755065918e+00 7.956212759017944336e-01 -2.878456711769104004e-01 -5.873113274574279785e-01
3.277000000000000000e+03 6.629815673828125000e+01 -1.549625015258789062e+01 4.299615025520324707e-01 2.339204072952270508e+00 8.307496309280395508e-01 6.229397654533386230e-01
3.278000000000000000e+03 7.277166748046875000e+01 2.842911529541015625e+01 1.135444082319736481e-02 7.284622192382812500e+00 2.188792943954467773e+00 5.935267210006713867e-01
3.279000000000000000e+03 7.493840789794921875e+01 -1.721086311340332031e+01 -5.612134933471679688e-01 7.184131622314453125e+00 1.986875414848327637e+00 -1.827753037214279175e-01
3.280000000000000000e+03 1.537057590484619141e+01 1.858523368835449219e+00 -1.900322139263153076e-01 5.253368854522705078e+00 1.519000887870788574e+00 -5.232241749763488770e-01
3.281000000000000000e+03 2.539619827270507812e+01 2.849484252929687500e+01 -2.299150824546813965e-01 4.229905128479003906e+00 1.199996948242187500e+00 -5.060470104217529297e-01
3.282000000000000000e+03 5.022513961791992188e+01 -2.842913055419921875e+01 1.912818670272827148e+00 6.370764255523681641e+00 2.485074758529663086e+00 -2.449843645095825195e+00
3.283000000000000000e+03 1.243653011322021484e+01 -6.520586013793945312e+00 2.300833463668823242e+00 3.590839385986328125e+00 1.767501831054687500e+00 5.400002002716064453e+00
3.284000000000000000e+03 7.461676788330078125e+01 -3.036187362670898438e+01 2.575346529483795166e-01 7.900840282440185547e+00 2.447512388229370117e+00 -6.220628023147583008e-01
3.285000000000000000e+03 1.310125541687011719e+01 -7.457921981811523438e+00 1.070448040962219238e+00 4.669545173645019531e+00 1.721998095512390137e+00 5.806249141693115234e+00
3.286000000000000000e+03 1.333963871002197266e+01 -7.063061237335205078e+00 1.612531185150146484e+00 4.922026157379150391e+00 1.960367202758789062e+00 6.006536483764648438e+00
3.287000000000000000e+03 1.460098838806152344e+01 -9.687543869018554688e+00 -1.601621150970458984e+00 4.571083068847656250e+00 8.908385634422302246e-01 5.078584671020507812e+00
3.288000000000000000e+03 1.401145744323730469e+01 -9.504019737243652344e+00 -1.325323224067687988e+00 4.822871685028076172e+00 1.049264550209045410e+00 5.317485809326171875e+00
3.289000000000000000e+03 1.419856643676757812e+01 -8.957451820373535156e+00 -8.318050503730773926e-01 5.076705932617187500e+00 1.273470282554626465e+00 5.418458461761474609e+00
3.290000000000000000e+03 2.626994705200195312e+01 2.633987808227539062e+01 -5.803991109132766724e-02 4.361505508422851562e+00 1.291039705276489258e+00 -4.938076734542846680e-01
3.291000000000000000e+03 1.614781761169433594e+01 1.126918554306030273e+00 -2.007760405540466309e-01 7.132402896881103516e+00 2.079488039016723633e+00 3.692758381366729736e-01
3.292000000000000000e+03 1.682521247863769531e+01 1.345035433769226074e+00 6.886900216341018677e-02 7.175489425659179688e+00 2.173307657241821289e+00 1.125085115432739258e+00
3.293000000000000000e+03 1.752932548522949219e+01 6.849136948585510254e-01 9.836806058883666992e-01 7.840820789337158203e+00 2.647350311279296875e+00 2.585405111312866211e+00
3.294000000000000000e+03 1.137295150756835938e+01 -6.435810565948486328e+00 2.162425518035888672e+00 2.699159383773803711e+00 1.458475470542907715e+00 4.467238903045654297e+00
3.295000000000000000e+03 8.069052696228027344e+00 -5.392987728118896484e+00 1.074482321739196777e+00 1.157091379165649414e+00 6.694720983505249023e-01 1.471492528915405273e+00
3.296000000000000000e+03 1.502480030059814453e+01 -7.952971458435058594e+00 1.259753406047821045e-01 5.657833576202392578e+00 1.735142707824707031e+00 5.164422512054443359e+00
3.297000000000000000e+03 1.665951156616210938e+01 -6.458161830902099609e+00 1.989664793014526367e+00 6.839344501495361328e+00 2.648702859878540039e+00 2.958391666412353516e+00
3.298000000000000000e+03 1.335601615905761719e+01 -8.089806556701660156e+00 3.048535287380218506e-01 4.950627803802490234e+00 1.576644420623779297e+00 5.747749805450439453e+00
3.299000000000000000e+03 1.159116268157958984e+01 -7.464262485504150391e+00 1.171655297279357910e+00 3.707070589065551758e+00 1.463617801666259766e+00 4.949947834014892578e+00
3.300000000000000000e+03 6.814696311950683594e+00 -1.041769599914550781e+01 -5.896222591400146484e-01 3.784222126007080078e+00 9.583799242973327637e-01 1.230759024620056152e+00
3.301000000000000000e+03 1.268462562561035156e+01 -9.331486701965332031e+00 -8.876442909240722656e-01 5.194767475128173828e+00 1.292137026786804199e+00 5.343096256256103516e+00
3.302000000000000000e+03 1.724459266662597656e+01 8.145191073417663574e-01 7.167357802391052246e-01 7.718061447143554688e+00 2.530439138412475586e+00 2.053941726684570312e+00
3.303000000000000000e+03 1.701785087585449219e+01 1.007270336151123047e+00 3.940084874629974365e-01 7.588819026947021484e+00 2.394848108291625977e+00 1.651436209678649902e+00
3.304000000000000000e+03 1.733551979064941406e+01 1.631262660026550293e+00 3.971497714519500732e-01 6.869520664215087891e+00 2.180001020431518555e+00 1.538414478302001953e+00
3.305000000000000000e+03 2.340031814575195312e+01 -6.167698383331298828e+00 2.431540489196777344e+00 8.929821252822875977e-01 9.973567724227905273e-01 -5.036202073097229004e-01
3.306000000000000000e+03 2.435001182556152344e+01 -8.278901100158691406e+00 1.920824050903320312e-01 4.891267120838165283e-01 2.043627351522445679e-01 -1.037025213241577148e+00
3.307000000000000000e+03 2.020804405212402344e+01 7.954047918319702148e-01 2.929744720458984375e+00 5.018396377563476562e+00 2.384442329406738281e+00 3.096478700637817383e+00
3.308000000000000000e+03 1.514983272552490234e+01 3.768363237380981445e+00 6.058025360107421875e-02 3.999657392501831055e+00 1.218071341514587402e+00 -4.423296749591827393e-01
3.309000000000000000e+03 2.085782051086425781e+01 1.322696328163146973e+00 2.701710224151611328e+00 4.628079891204833984e+00 2.198937177658081055e+00 2.755380392074584961e+00
3.310000000000000000e+03 1.947826957702636719e+01 1.947055339813232422e+00 1.719497799873352051e+00 5.635261535644531250e+00 2.206427812576293945e+00 2.565915822982788086e+00
3.311000000000000000e+03 4.055724334716796875e+01 2.616783714294433594e+01 1.572596430778503418e-01 5.883120536804199219e+00 1.812114119529724121e+00 6.040629148483276367e-01
3.312000000000000000e+03 4.261667728424072266e+00 -1.389690971374511719e+01 -3.708552569150924683e-02 2.753131628036499023e+00 8.148137927055358887e-01 -2.443512827157974243e-01
3.313000000000000000e+03 4.266037940979003906e+00 2.866016387939453125e+01 -4.092408344149589539e-03 5.679557323455810547e-01 1.691590100526809692e-01 -2.206750065088272095e-01
3.314000000000000000e+03 2.544639396667480469e+01 2.354453849792480469e+01 2.041850537061691284e-01 4.250579833984375000e+00 1.336429476737976074e+00 -4.557830393314361572e-01
3.315000000000000000e+03 2.909066200256347656e+01 -1.165808010101318359e+01 -1.947485089302062988e+00 1.146448731422424316e+00 -2.403109073638916016e-01 -1.017294168472290039e+00
3.316000000000000000e+03 4.306729125976562500e+01 -8.310642242431640625e+00 -6.674384474754333496e-01 6.132978439331054688e+00 1.639662027359008789e+00 -2.079847574234008789e+00
3.317000000000000000e+03 7.375116729736328125e+01 7.305670738220214844e+00 1.799981743097305298e-01 9.042089462280273438e+00 2.766626119613647461e+00 6.073461771011352539e-01
3.318000000000000000e+03 7.423622894287109375e+01 -1.416778564453125000e+00 3.938585519790649414e-01 8.073520660400390625e+00 2.540213823318481445e+00 -2.446413636207580566e-01
3.319000000000000000e+03 2.437284088134765625e+01 -6.021926879882812500e+00 2.317312002182006836e+00 8.983358740806579590e-01 9.646943807601928711e-01 -6.359247565269470215e-01
3.320000000000000000e+03 2.139494895935058594e+01 -1.439210891723632812e+00 4.867567062377929688e+00 3.039469480514526367e+00 2.372110843658447266e+00 2.475938081741333008e+00
3.321000000000000000e+03 2.148556900024414062e+01 2.297430419921875000e+01 1.459704339504241943e-01 3.631578683853149414e+00 1.133264660835266113e+00 -4.517341852188110352e-01
3.322000000000000000e+03 2.679005432128906250e+01 2.275861549377441406e+01 3.187167644500732422e-01 4.462197780609130859e+00 1.434274315834045410e+00 -4.207094311714172363e-01
3.323000000000000000e+03 1.689035606384277344e+01 3.498036623001098633e+00 1.127562150359153748e-01 5.317405223846435547e+00 1.629048466682434082e+00 4.670297503471374512e-01
3.324000000000000000e+03 2.152298164367675781e+01 2.081087112426757812e+00 2.406968832015991211e+00 4.371553421020507812e+00 2.033556699752807617e+00 2.385647058486938477e+00
3.325000000000000000e+03 3.883842849731445312e+01 -5.466113090515136719e-01 7.784857153892517090e-01 5.514959335327148438e+00 1.888033509254455566e+00 -1.689409017562866211e+00
3.326000000000000000e+03 2.468016242980957031e+01 -7.348536968231201172e+00 1.179230570793151855e+00 7.010211944580078125e-01 5.640755295753479004e-01 -9.621457457542419434e-01
3.327000000000000000e+03 1.992773818969726562e+01 2.708943843841552734e+00 1.536824941635131836e+00 5.235628604888916016e+00 2.031735897064208984e+00 2.237235546112060547e+00
3.328000000000000000e+03 2.107074356079101562e+01 -6.149802803993225098e-01 4.394443988800048828e+00 3.712216615676879883e+00 2.431998014450073242e+00 2.896699905395507812e+00
3.329000000000000000e+03 2.119542884826660156e+01 -1.013864159584045410e+00 4.628605365753173828e+00 3.427813053131103516e+00 2.416925430297851562e+00 2.777944564819335938e+00
3.330000000000000000e+03 3.169272994995117188e+01 -1.049495220184326172e+01 -8.818739056587219238e-01 1.952902078628540039e+00 3.213084340095520020e-01 -1.674124002456665039e+00
3.331000000000000000e+03 2.831350517272949219e+01 -7.763222694396972656e+00 4.141491651535034180e-01 1.321624040603637695e+00 5.207319855690002441e-01 -1.454461097717285156e+00
3.332000000000000000e+03 1.188618469238281250e+01 -8.051434516906738281e+00 4.717495739459991455e-01 4.290337562561035156e+00 1.428626179695129395e+00 5.075957298278808594e+00
3.333000000000000000e+03 2.164709472656250000e+01 -8.156911730766296387e-01 4.409855365753173828e+00 3.204660892486572266e+00 2.284354925155639648e+00 2.537624835968017578e+00
3.334000000000000000e+03 2.210694694519042969e+01 -6.231876611709594727e-01 4.154231548309326172e+00 3.083158731460571289e+00 2.171217203140258789e+00 2.379141092300415039e+00
3.335000000000000000e+03 3.324848556518554688e+01 1.083757209777832031e+01 1.965582251548767090e+00 5.503516197204589844e+00 2.240729570388793945e+00 1.390345674008131027e-02
3.336000000000000000e+03 2.276500892639160156e+01 -1.472379803657531738e+00 4.324105739593505859e+00 2.437500000000000000e+00 2.028481721878051758e+00 1.781716465950012207e+00
3.337000000000000000e+03 2.887527084350585938e+01 1.584949970245361328e+01 1.209994435310363770e+00 4.782346248626708984e+00 1.797702193260192871e+00 -6.992489844560623169e-02
3.338000000000000000e+03 1.757213401794433594e+01 5.236220359802246094e+00 2.854148447513580322e-01 4.667232990264892578e+00 1.485794305801391602e+00 5.057483315467834473e-01
3.339000000000000000e+03 2.952742767333984375e+01 -9.619280815124511719e+00 -7.152020335197448730e-01 1.445258975028991699e+00 2.190170735120773315e-01 -1.506031632423400879e+00
3.340000000000000000e+03 2.339408493041992188e+01 -8.487038016319274902e-01 3.924732208251953125e+00 2.548383474349975586e+00 1.941934704780578613e+00 1.711403489112854004e+00
3.341000000000000000e+03 1.358496952056884766e+01 8.228950500488281250e+00 3.538986742496490479e-01 2.356526851654052734e+00 8.131276369094848633e-01 -3.845309317111968994e-01
3.342000000000000000e+03 2.694331359863281250e+01 1.530774784088134766e+01 1.124230027198791504e+00 4.520459175109863281e+00 1.693406701087951660e+00 -7.334789843298494816e-04
3.343000000000000000e+03 2.577564811706542969e+01 1.586515522003173828e+01 9.259385466575622559e-01 4.317728996276855469e+00 1.573100209236145020e+00 -4.078931361436843872e-02
3.344000000000000000e+03 2.424578666687011719e+01 1.586618518829345703e+01 8.054273724555969238e-01 4.128658771514892578e+00 1.480225801467895508e+00 -5.737697333097457886e-02
3.345000000000000000e+03 2.776605796813964844e+01 -4.689700126647949219e+00 2.035437822341918945e+00 1.639723181724548340e+00 1.102548241615295410e+00 -8.144627809524536133e-01
3.346000000000000000e+03 1.906383705139160156e+01 4.018537521362304688e+00 7.509769797325134277e-01 5.185425758361816406e+00 1.780920863151550293e+00 1.387519121170043945e+00
3.347000000000000000e+03 1.496323013305664062e+01 6.723727703094482422e+00 2.668458223342895508e-01 3.170032978057861328e+00 1.031063675880432129e+00 -3.117142617702484131e-01
3.348000000000000000e+03 1.901115417480468750e+01 3.518518686294555664e+00 8.184420466423034668e-01 5.369554996490478516e+00 1.856399178504943848e+00 1.552241086959838867e+00
3.349000000000000000e+03 2.240959358215332031e+01 4.885693550109863281e+00 1.629305124282836914e+00 4.301847457885742188e+00 1.779345750808715820e+00 1.584925174713134766e+00
3.350000000000000000e+03 3.421546936035156250e+01 -3.255667209625244141e+00 1.016631841659545898e+00 3.807435512542724609e+00 1.447220206260681152e+00 -1.490367531776428223e+00
3.351000000000000000e+03 1.279160785675048828e+01 1.604269409179687500e+01 2.291403114795684814e-01 1.989807009696960449e+00 6.656841635704040527e-01 -3.692663609981536865e-01
3.352000000000000000e+03 1.937444305419921875e+01 5.969649314880371094e+00 6.526844501495361328e-01 4.608061313629150391e+00 1.578223705291748047e+00 9.315267801284790039e-01
3.353000000000000000e+03 1.341655540466308594e+01 9.831077575683593750e+00 3.562751710414886475e-01 2.241739511489868164e+00 7.794044017791748047e-01 -3.427547514438629150e-01
3.354000000000000000e+03 3.108618164062500000e+01 -1.641746520996093750e+00 1.929580688476562500e+00 3.036324024200439453e+00 1.489771485328674316e+00 -6.701294183731079102e-01
3.355000000000000000e+03 2.489905357360839844e+01 9.180348515510559082e-01 3.139297246932983398e+00 2.949053049087524414e+00 1.826505184173583984e+00 1.464904546737670898e+00
3.356000000000000000e+03 1.269892501831054688e+01 1.431729221343994141e+01 2.766161561012268066e-01 1.984775662422180176e+00 6.784175634384155273e-01 -3.513607978820800781e-01
3.357000000000000000e+03 2.292150497436523438e+01 4.580541610717773438e+00 1.816563963890075684e+00 4.180336952209472656e+00 1.799070358276367188e+00 1.619233608245849609e+00
3.358000000000000000e+03 2.321606445312500000e+01 5.224787712097167969e+00 1.714936614036560059e+00 4.154133319854736328e+00 1.760720968246459961e+00 1.451745629310607910e+00
3.359000000000000000e+03 1.224966812133789062e+01 1.093068313598632812e+01 3.442460000514984131e-01 1.860255956649780273e+00 6.613506078720092773e-01 -3.352068960666656494e-01
3.360000000000000000e+03 1.264916992187500000e+01 1.166949272155761719e+01 3.188548386096954346e-01 1.961596846580505371e+00 6.841354966163635254e-01 -3.416632413864135742e-01
3.361000000000000000e+03 2.033395004272460938e+01 7.361845970153808594e+00 7.841820716857910156e-01 4.319362163543701172e+00 1.531063318252563477e+00 8.136544227600097656e-01
3.362000000000000000e+03 2.500414276123046875e+01 6.493866920471191406e+00 1.779739379882812500e+00 4.063775539398193359e+00 1.753054499626159668e+00 1.104297995567321777e+00
3.363000000000000000e+03 2.421184921264648438e+01 6.551110744476318359e+00 1.628597021102905273e+00 4.133829116821289062e+00 1.728727817535400391e+00 1.162902712821960449e+00
3.364000000000000000e+03 1.529219436645507812e+01 -2.584899187088012695e+00 3.908452987670898438e+01 3.723328590393066406e+00 1.284235763549804688e+01 -8.331800460815429688e+00
3.365000000000000000e+03 1.528623390197753906e+01 -2.603432893753051758e+00 4.828708648681640625e+01 2.612339258193969727e+00 1.526982784271240234e+01 2.482870817184448242e+00
3.366000000000000000e+03 1.528399562835693359e+01 -2.622772216796875000e+00 5.191705322265625000e+01 6.358510971069335938e+00 1.748266792297363281e+01 9.917918205261230469e+00
3.367000000000000000e+03 1.528556442260742188e+01 -2.642177343368530273e+00 5.246810531616210938e+01 1.240800762176513672e+01 1.946283531188964844e+01 1.698044013977050781e+01
3.368000000000000000e+03 1.529088211059570312e+01 -2.660905361175537109e+00 5.059999847412109375e+01 1.980084419250488281e+01 2.112025260925292969e+01 2.198477935791015625e+01
3.369000000000000000e+03 1.529974365234375000e+01 -2.678240060806274414e+00 4.663361358642578125e+01 2.824202156066894531e+01 2.246269035339355469e+01 2.514067077636718750e+01
3.370000000000000000e+03 1.531181049346923828e+01 -2.693517923355102539e+00 4.191246032714843750e+01 3.650087738037109375e+01 2.352400207519531250e+01 2.581477546691894531e+01
3.371000000000000000e+03 1.532662105560302734e+01 -2.706153869628906250e+00 3.673503875732421875e+01 4.393001174926757812e+01 2.419951438903808594e+01 2.424057388305664062e+01
3.372000000000000000e+03 1.534360790252685547e+01 -2.715665102005004883e+00 3.264716720581054688e+01 4.957518768310546875e+01 2.466670799255371094e+01 2.079940223693847656e+01
3.373000000000000000e+03 1.536212158203125000e+01 -2.721686840057373047e+00 2.967741012573242188e+01 5.305086898803710938e+01 2.481848526000976562e+01 1.610378265380859375e+01
3.374000000000000000e+03 1.538145351409912109e+01 -2.723989248275756836e+00 2.870759963989257812e+01 5.433787155151367188e+01 2.491364097595214844e+01 1.101332187652587891e+01
3.375000000000000000e+03 1.540086364746093750e+01 -2.722484111785888672e+00 2.913744926452636719e+01 5.343225097656250000e+01 2.477091026306152344e+01 6.258041381835937500e+00
3.376000000000000000e+03 1.541961002349853516e+01 -2.717228889465332031e+00 3.096125602722167969e+01 5.093761825561523438e+01 2.456966209411621094e+01 2.476562023162841797e+00
3.377000000000000000e+03 1.543697357177734375e+01 -2.708424568176269531e+00 3.425662231445312500e+01 4.771222305297851562e+01 2.459065437316894531e+01 1.154813170433044434e-01
3.378000000000000000e+03 1.545229148864746094e+01 -2.696408271789550781e+00 3.744619750976562500e+01 4.334952545166015625e+01 2.423871612548828125e+01 -1.045415043830871582e+00
3.379000000000000000e+03 1.546497631072998047e+01 -2.681639909744262695e+00 4.082298660278320312e+01 4.004428482055664062e+01 2.426018142700195312e+01 -5.163023471832275391e-01
3.380000000000000000e+03 1.547454357147216797e+01 -2.664684534072875977e+00 4.447166824340820312e+01 3.694731903076171875e+01 2.442569541931152344e+01 1.655636429786682129e+00
3.381000000000000000e+03 1.548062705993652344e+01 -2.646190881729125977e+00 4.628827285766601562e+01 3.410234069824218750e+01 2.411718368530273438e+01 4.475108146667480469e+00
3.382000000000000000e+03 1.548299312591552734e+01 -2.626866579055786133e+00 4.762121582031250000e+01 3.394886016845703125e+01 2.447102355957031250e+01 8.448794364929199219e+00
3.383000000000000000e+03 1.548155212402343750e+01 -2.607451677322387695e+00 4.696107864379882812e+01 3.463325500488281250e+01 2.447830009460449219e+01 1.294025516510009766e+01
3.384000000000000000e+03 1.547635936737060547e+01 -2.588688611984252930e+00 4.426946258544921875e+01 3.656870269775390625e+01 2.425144958496093750e+01 1.711567306518554688e+01
3.385000000000000000e+03 1.546761226654052734e+01 -2.571295499801635742e+00 4.022237014770507812e+01 4.073123931884765625e+01 2.428608322143554688e+01 2.016657447814941406e+01
3.386000000000000000e+03 1.545564651489257812e+01 -2.555938243865966797e+00 3.393581008911132812e+01 4.535026931762695312e+01 2.378582382202148438e+01 2.193181228637695312e+01
3.387000000000000000e+03 1.544091987609863281e+01 -2.543204307556152344e+00 2.707827949523925781e+01 5.012017440795898438e+01 2.315953636169433594e+01 2.157304382324218750e+01
3.388000000000000000e+03 1.542399597167968750e+01 -2.533581018447875977e+00 1.985256195068359375e+01 5.415296173095703125e+01 2.220165634155273438e+01 1.907743644714355469e+01
3.389000000000000000e+03 1.540552330017089844e+01 -2.527436494827270508e+00 1.335483932495117188e+01 5.653380966186523438e+01 2.096659469604492188e+01 1.472111892700195312e+01
3.390000000000000000e+03 1.538620662689208984e+01 -2.525006294250488281e+00 7.831013679504394531e+00 5.650139999389648438e+01 1.929972457885742188e+01 9.071551322937011719e+00
3.391000000000000000e+03 1.536678695678710938e+01 -2.526382923126220703e+00 4.169725418090820312e+00 5.394990539550781250e+01 1.743588829040527344e+01 2.949282407760620117e+00
3.392000000000000000e+03 1.534800720214843750e+01 -2.531514167785644531e+00 1.965248465538024902e+00 4.873036575317382812e+01 1.520868396759033203e+01 -2.892714262008666992e+00
3.393000000000000000e+03 1.533058547973632812e+01 -2.540203332901000977e+00 1.815866827964782715e+00 4.111834335327148438e+01 1.288026332855224609e+01 -7.914425373077392578e+00
3.394000000000000000e+03 1.531518840789794922e+01 -2.552118062973022461e+00 2.847470045089721680e+00 3.160760116577148438e+01 1.033652114868164062e+01 -1.126864337921142578e+01
3.395000000000000000e+03 1.530240535736083984e+01 -2.566802263259887695e+00 9.442098617553710938e+00 1.707637405395507812e+01 7.955542087554931641e+00 -1.182563018798828125e+01
