# el_label, x, y, sXX, sYY, sZZ, sXY
1.000000000000000000e+00 7.717639923095703125e+01 -2.701811027526855469e+01 -2.642819192260503769e-03 1.356418360956013203e-03 -3.859202552121132612e-04 -1.360557042062282562e-03
2.000000000000000000e+00 7.937857055664062500e+01 -2.604552459716796875e+01 -6.549110985361039639e-04 -4.678789409808814526e-04 -3.368370234966278076e-04 -3.572032073861919343e-05
3.000000000000000000e+00 7.655825805664062500e+01 -2.712063026428222656e+01 -4.597444087266921997e-03 -1.281928154639899731e-03 -1.763811684213578701e-03 1.468862956244265661e-05
4.000000000000000000e+00 7.985607910156250000e+01 -2.604024314880371094e+01 -2.718535542953759432e-04 1.408850541338324547e-03 3.410990757402032614e-04 4.271423968020826578e-04
5.000000000000000000e+00 7.660035705566406250e+01 -2.667923545837402344e+01 -6.650012917816638947e-03 -4.691749345511198044e-04 -2.135756425559520721e-03 -2.398322336375713348e-03
6.000000000000000000e+00 7.661837005615234375e+01 -2.616293144226074219e+01 -1.114579476416110992e-02 -4.936380428262054920e-04 -3.491829847916960716e-03 -5.507606547325849533e-03
7.000000000000000000e+00 7.968909454345703125e+01 -2.680004882812500000e+01 2.581103763077408075e-04 2.689399698283523321e-04 1.581151009304448962e-04 2.696595329325646162e-04
8.000000000000000000e+00 7.742279052734375000e+01 -2.615484428405761719e+01 -8.092234842479228973e-03 -2.326516550965607166e-04 -2.497466048225760460e-03 -4.348249174654483795e-03
9.000000000000000000e+00 7.811077117919921875e+01 -2.604147911071777344e+01 -4.770001862198114395e-03 -2.457394497469067574e-03 -2.168218838050961494e-03 -4.179314710199832916e-03
1.000000000000000000e+01 7.873431396484375000e+01 -2.600492095947265625e+01 -2.278367988765239716e-03 -2.782492898404598236e-03 -1.518258242867887020e-03 -1.718266401439905167e-03
1.100000000000000000e+01 7.782653808593750000e+01 -2.687680625915527344e+01 -6.799132679589092731e-04 -5.177334533073008060e-04 -3.592940338421612978e-04 -9.616867173463106155e-04
1.200000000000000000e+01 7.843991851806640625e+01 -2.656050109863281250e+01 -4.719784192275255919e-04 -8.652164251543581486e-04 -4.011584387626498938e-04 -9.400467388331890106e-04
1.300000000000000000e+01 7.904193878173828125e+01 -2.681424140930175781e+01 4.753752145916223526e-04 -2.328739064978435636e-04 7.275039388332515955e-05 1.485237735323607922e-04
1.400000000000000000e+01 7.435043334960937500e+01 -2.660395431518554688e+01 -1.037534605711698532e-02 1.179380269604735076e-04 -3.077222499996423721e-03 3.120648441836237907e-03
1.500000000000000000e+01 7.362012481689453125e+01 -2.609986114501953125e+01 -1.559535320848226547e-02 -1.685798168182373047e-03 -5.184345412999391556e-03 7.117705885320901871e-03
1.600000000000000000e+01 7.359963989257812500e+01 -2.708651733398437500e+01 -4.960949881933629513e-04 -2.875522477552294731e-04 -2.350941649638116360e-04 1.565090380609035492e-03
1.700000000000000000e+01 7.360990905761718750e+01 -2.659360885620117188e+01 -8.816725574433803558e-03 7.404273492284119129e-04 -2.422889461740851402e-03 3.173812525346875191e-03
1.800000000000000000e+01 7.509108734130859375e+01 -2.661277389526367188e+01 -1.221760176122188568e-02 2.543994458392262459e-03 -2.902082167565822601e-03 2.168940409319475293e-04
1.900000000000000000e+01 7.508825683593750000e+01 -2.611927032470703125e+01 -1.800391077995300293e-02 2.651827642694115639e-03 -4.605624824762344360e-03 -6.754505448043346405e-04
2.000000000000000000e+01 7.583954620361328125e+01 -2.711462211608886719e+01 -5.369995255023241043e-03 8.322895155288279057e-04 -1.361311646178364754e-03 -7.184644928202033043e-04
2.100000000000000000e+01 7.583108520507812500e+01 -2.662142753601074219e+01 -1.056543178856372833e-02 1.559421361889690161e-04 -3.122846828773617744e-03 -1.883692224510014057e-03
2.200000000000000000e+01 7.582217407226562500e+01 -2.612807083129882812e+01 -1.684345304965972900e-02 3.005313454195857048e-03 -4.151441622525453568e-03 -2.983865328133106232e-03
2.300000000000000000e+01 7.509320831298828125e+01 -2.710527038574218750e+01 -5.975859239697456360e-03 -2.527156611904501915e-04 -1.868572435341775417e-03 2.852451580110937357e-04
2.400000000000000000e+01 7.434638977050781250e+01 -2.709632492065429688e+01 -4.363343585282564163e-03 6.395733798854053020e-04 -1.117131090722978115e-03 9.095993591472506523e-04
2.500000000000000000e+01 7.435416412353515625e+01 -2.610989761352539062e+01 -2.083569020032882690e-02 4.873407073318958282e-03 -4.788685124367475510e-03 3.629135433584451675e-03
2.600000000000000000e+01 7.158032989501953125e+01 -2.613537025451660156e+01 -7.446886738762259483e-04 1.319158705882728100e-03 1.723409950500354171e-04 -5.444132839329540730e-04
2.700000000000000000e+01 7.225865936279296875e+01 -2.611459541320800781e+01 -5.895562935620546341e-03 -4.660550970584154129e-03 -3.166834125295281410e-03 3.733495948836207390e-03
2.800000000000000000e+01 7.236230468750000000e+01 -2.673562240600585938e+01 6.567030213773250580e-04 -2.863522968254983425e-04 1.111052188207395375e-04 -2.936089586000889540e-04
2.900000000000000000e+01 7.166560363769531250e+01 -2.687954711914062500e+01 6.488323560915887356e-04 3.506966459099203348e-04 2.998586860485374928e-04 -4.859835316892713308e-04
3.000000000000000000e+01 7.291873168945312500e+01 -2.609382438659667969e+01 -1.112342718988656998e-02 -1.849610940553247929e-03 -3.891911357641220093e-03 5.256733391433954239e-03
3.100000000000000000e+01 7.283872985839843750e+01 -2.706465530395507812e+01 1.643363735638558865e-03 -6.311398465186357498e-04 3.036671550944447517e-04 -9.287399007007479668e-05
3.200000000000000000e+01 7.293415832519531250e+01 -2.658774948120117188e+01 -4.732476547360420227e-03 -3.456652862951159477e-03 -2.456738846376538277e-03 3.315974725410342216e-03
3.300000000000000000e+01 7.891347503662109375e+01 -2.988241767883300781e+01 -1.657777815125882626e-03 -3.678996290545910597e-05 -5.083703435957431793e-04 4.274885577615350485e-04
3.400000000000000000e+01 7.958039093017578125e+01 -3.393603134155273438e+01 -3.398800734430551529e-03 -6.608286872506141663e-03 -3.002126235514879227e-03 1.708067720755934715e-03
3.500000000000000000e+01 6.989132690429687500e+01 -3.652379989624023438e+01 -1.376152876764535904e-02 1.526868902146816254e-02 4.521480877883732319e-04 4.231442511081695557e-02
3.600000000000000000e+01 6.308322906494140625e+01 -3.517775726318359375e+01 -1.968155056238174438e-01 3.055433183908462524e-02 -4.987835139036178589e-02 1.040107384324073792e-02
3.700000000000000000e+01 5.806831741333007812e+01 -3.454862213134765625e+01 4.609111249446868896e-01 1.094326853752136230e+00 4.665713906288146973e-01 -7.081462144851684570e-01
3.800000000000000000e+01 5.091397857666015625e+01 -3.623302078247070312e+01 8.771958202123641968e-02 1.271782517433166504e+00 4.078506231307983398e-01 5.357629656791687012e-01
3.900000000000000000e+01 4.254478073120117188e+01 -3.637774658203125000e+01 3.396875262260437012e-01 -8.213184475898742676e-01 -1.444892734289169312e-01 -9.188601747155189514e-03
4.000000000000000000e+01 2.944128227233886719e+01 -3.445138931274414062e+01 -2.010091411648318172e-04 -2.101644687354564667e-02 -6.365236826241016388e-03 -1.565018482506275177e-02
4.100000000000000000e+01 2.495985412597656250e+01 -3.528051757812500000e+01 1.254141447134315968e-03 -8.555532433092594147e-03 -2.190417377278208733e-03 9.349206462502479553e-03
4.200000000000000000e+01 1.659213638305664062e+01 -3.503300094604492188e+01 4.931956529617309570e-03 3.346896497532725334e-03 2.483655931428074837e-03 9.337855502963066101e-03
4.300000000000000000e+01 1.031806945800781250e+01 -3.532409667968750000e+01 -1.380977919325232506e-04 1.481409417465329170e-03 4.029934643767774105e-04 3.011269727721810341e-03
4.400000000000000000e+01 4.181941747665405273e-01 -3.642813110351562500e+01 -7.738856947980821133e-04 9.915655246004462242e-04 6.530393147841095924e-05 1.209927650052122772e-04
4.500000000000000000e+01 1.736583113670349121e+00 -4.073777389526367188e+01 9.357935632579028606e-04 1.379803870804607868e-03 6.946792127564549446e-04 1.546054845675826073e-04
4.600000000000000000e+01 7.513581085205078125e+01 -2.922253608703613281e+01 -3.393140155822038651e-03 1.199517748318612576e-03 -6.580867338925600052e-04 9.047583444043993950e-04
4.700000000000000000e+01 7.223725128173828125e+01 -3.011812782287597656e+01 -7.398132700473070145e-03 -1.451731892302632332e-03 -2.654959447681903839e-03 -2.034109085798263550e-03
4.800000000000000000e+01 6.957761383056640625e+01 -3.137961959838867188e+01 -1.535602658987045288e-02 -4.314312245696783066e-03 -5.901101510971784592e-03 -1.436824910342693329e-02
4.900000000000000000e+01 6.833730316162109375e+01 -3.245563888549804688e+01 -4.740327969193458557e-02 -1.148838829249143600e-02 -1.766750030219554901e-02 -3.190517798066139221e-02
5.000000000000000000e+01 6.868672943115234375e+01 -3.301683807373046875e+01 -6.556401401758193970e-02 -5.930607672780752182e-03 -2.144838683307170868e-02 -9.656099602580070496e-03
5.100000000000000000e+01 6.701332855224609375e+01 -3.336279296875000000e+01 -1.118599623441696167e-01 -1.216739881783723831e-02 -3.720820695161819458e-02 -4.597768187522888184e-02
5.200000000000000000e+01 6.380578613281250000e+01 -3.443598175048828125e+01 -3.269400298595428467e-01 3.021757816895842552e-03 -9.717547893524169922e-02 -2.055385150015354156e-02
5.300000000000000000e+01 5.970301818847656250e+01 -3.485792541503906250e+01 1.586475074291229248e-01 1.543072462081909180e-01 9.388642758131027222e-02 -2.835528850555419922e-01
5.400000000000000000e+01 5.885613250732421875e+01 -3.447476959228515625e+01 4.727308452129364014e-01 6.343787908554077148e-01 3.321328759193420410e-01 -5.304800868034362793e-01
5.500000000000000000e+01 5.596205902099609375e+01 -3.082034683227539062e+01 7.465873956680297852e-01 7.225340843200683594e+00 2.391578435897827148e+00 -2.460044920444488525e-01
5.600000000000000000e+01 5.494300842285156250e+01 -3.145655059814453125e+01 1.309398412704467773e+00 4.362953186035156250e+00 1.701705455780029297e+00 4.031335711479187012e-01
5.700000000000000000e+01 4.864637374877929688e+01 -2.277140998840332031e+01 -1.219169020652770996e+00 -5.466381907463073730e-01 -5.297421216964721680e-01 -1.429677128791809082e+00
5.800000000000000000e+01 4.846706008911132812e+01 -2.209186935424804688e+01 -1.666248321533203125e+00 -4.519191682338714600e-01 -6.354502439498901367e-01 -1.306024312973022461e+00
5.900000000000000000e+01 4.633061599731445312e+01 -2.256282043457031250e+01 -9.399375915527343750e-01 -4.739767313003540039e-01 -4.241742789745330811e-01 -1.076725006103515625e+00
6.000000000000000000e+01 4.280578231811523438e+01 -2.735993576049804688e+01 -1.785454750061035156e-01 -2.317334413528442383e+00 -7.487639784812927246e-01 -7.804164290428161621e-01
6.100000000000000000e+01 4.212912750244140625e+01 -2.732213020324707031e+01 3.131896955892443657e-03 -2.495944261550903320e+00 -7.478437423706054688e-01 -2.398375719785690308e-01
6.200000000000000000e+01 4.180191421508789062e+01 -2.971529197692871094e+01 -1.184958457946777344e+00 -3.188072919845581055e+00 -1.311909437179565430e+00 -1.498659610748291016e+00
6.300000000000000000e+01 4.283038330078125000e+01 -3.073614501953125000e+01 -5.142706632614135742e-01 -1.940764546394348145e+00 -7.365105748176574707e-01 -4.068934917449951172e-01
6.400000000000000000e+01 5.299235916137695312e+01 -3.230391311645507812e+01 9.605886340141296387e-01 2.350730657577514648e+00 9.933957457542419434e-01 7.897965312004089355e-01
6.500000000000000000e+01 5.196203231811523438e+01 -3.189541816711425781e+01 1.111614465713500977e+00 1.532349944114685059e+00 7.931893467903137207e-01 7.593482732772827148e-01
6.600000000000000000e+01 7.218479919433593750e+01 -2.924998855590820312e+01 -3.119588596746325493e-03 7.956239860504865646e-04 -6.971894181333482265e-04 -5.707866512238979340e-05
6.700000000000000000e+01 7.092666625976562500e+01 -2.917392539978027344e+01 -4.245392046868801117e-03 1.283287769183516502e-03 -8.886312716640532017e-04 5.184699548408389091e-04
6.800000000000000000e+01 5.604298019409179688e+01 -3.002811431884765625e+01 2.488094717264175415e-01 7.536099910736083984e+00 2.335472822189331055e+00 8.551729917526245117e-01
6.900000000000000000e+01 5.618707275390625000e+01 -2.921785926818847656e+01 1.274119973182678223e+00 8.572118759155273438e+00 2.953871488571166992e+00 2.001461982727050781e+00
7.000000000000000000e+01 5.733951187133789062e+01 -2.702274131774902344e+01 3.609257459640502930e+00 5.826885223388671875e+00 2.830842733383178711e+00 4.387926101684570312e+00
7.100000000000000000e+01 5.585932159423828125e+01 -2.061093139648437500e+01 -3.618642091751098633e+00 -3.127731680870056152e-01 -1.179424524307250977e+00 -1.140797734260559082e+00
7.200000000000000000e+01 6.382989120483398438e+01 -2.217328071594238281e+01 2.225004434585571289e+00 4.375095069408416748e-01 7.987542152404785156e-01 1.553901553153991699e+00
7.300000000000000000e+01 5.815782165527343750e+01 -2.013212585449218750e+01 -3.157438755035400391e+00 1.233277469873428345e-01 -9.102333188056945801e-01 -2.984382212162017822e-01
7.400000000000000000e+01 5.967580032348632812e+01 -2.468605995178222656e+01 5.698226928710937500e+00 3.850314855575561523e+00 2.864562511444091797e+00 4.516511440277099609e+00
7.500000000000000000e+01 6.034191131591796875e+01 -2.416745185852050781e+01 6.441792964935302734e+00 3.410675525665283203e+00 2.955740451812744141e+00 4.220799446105957031e+00
7.600000000000000000e+01 6.340052795410156250e+01 -2.312582397460937500e+01 2.821677446365356445e+00 -5.752490833401679993e-02 8.292457461357116699e-01 8.843172192573547363e-01
7.700000000000000000e+01 6.485063171386718750e+01 -2.260397338867187500e+01 1.949805498123168945e+00 5.729126930236816406e-01 7.568154931068420410e-01 1.124760031700134277e+00
7.800000000000000000e+01 6.413744354248046875e+01 -2.293012046813964844e+01 2.043452501296997070e+00 2.974864542484283447e-01 7.022817134857177734e-01 1.009428739547729492e+00
7.900000000000000000e+01 6.524199676513671875e+01 -2.156886291503906250e+01 1.182339906692504883e+00 7.791456580162048340e-01 5.884456634521484375e-01 1.156025290489196777e+00
8.000000000000000000e+01 6.877020263671875000e+01 -2.164792251586914062e+01 -2.783496379852294922e-01 -1.106716096401214600e-01 -1.167063787579536438e-01 2.063325196504592896e-01
8.100000000000000000e+01 6.947910308837890625e+01 -2.199334144592285156e+01 -3.732702434062957764e-01 -1.212952509522438049e-01 -1.483696401119232178e-01 2.204132229089736938e-01
8.200000000000000000e+01 7.059748840332031250e+01 -2.094672584533691406e+01 -1.333316862583160400e-01 6.791668385267257690e-02 -1.962450332939624786e-02 5.809585377573966980e-02
8.300000000000000000e+01 7.012513732910156250e+01 -2.239811325073242188e+01 -3.089103996753692627e-01 -1.214606538414955139e-01 -1.291113197803497314e-01 1.802391707897186279e-01
8.400000000000000000e+01 7.135236358642578125e+01 -2.389889144897460938e+01 -7.446498423814773560e-02 -6.909216940402984619e-02 -4.306714609265327454e-02 6.524314731359481812e-02
8.500000000000000000e+01 7.140988159179687500e+01 -2.307312774658203125e+01 -1.658097356557846069e-01 -3.729078918695449829e-02 -6.093015894293785095e-02 7.308461517095565796e-02
8.600000000000000000e+01 7.221746063232421875e+01 -2.314094352722167969e+01 -1.382394731044769287e-01 4.088810458779335022e-02 -2.920540794730186462e-02 2.810030244290828705e-02
8.700000000000000000e+01 7.434971618652343750e+01 -2.549308204650878906e+01 -3.128096833825111389e-02 7.097512949258089066e-03 -7.255036849528551102e-03 2.321479143574833870e-03
8.800000000000000000e+01 7.733882904052734375e+01 -2.539267349243164062e+01 -1.305616088211536407e-02 -2.509067999199032784e-03 -4.669568967074155807e-03 -1.098578330129384995e-02
8.900000000000000000e+01 7.892813110351562500e+01 -2.217299842834472656e+01 -6.158453878015279770e-03 -4.598854482173919678e-02 -1.564409956336021423e-02 -2.798323333263397217e-02
9.000000000000000000e+01 7.987012481689453125e+01 -2.526534271240234375e+01 3.552102134563028812e-04 6.451440858654677868e-04 3.001063014380633831e-04 -5.000066012144088745e-04
9.100000000000000000e+01 7.222525024414062500e+01 -2.541983032226562500e+01 -1.176237408071756363e-02 -9.397815912961959839e-03 -6.348057184368371964e-03 1.074210368096828461e-02
9.200000000000000000e+01 7.148763275146484375e+01 -2.463155364990234375e+01 -9.937368333339691162e-03 -2.504805289208889008e-02 -1.049562636762857437e-02 1.778547279536724091e-02
9.300000000000000000e+01 7.963874053955078125e+01 -1.728873252868652344e+01 -9.494415135122835636e-04 -3.037821650505065918e-01 -9.141948074102401733e-02 -2.494828402996063232e-02
9.400000000000000000e+01 6.695496368408203125e+01 -8.973826408386230469e+00 3.347423970699310303e-01 1.902320861816406250e+00 6.711189746856689453e-01 7.137495279312133789e-01
9.500000000000000000e+01 6.661664581298828125e+01 -8.055886268615722656e+00 4.614033401012420654e-01 2.182098150253295898e+00 7.930504083633422852e-01 9.689804911613464355e-01
9.600000000000000000e+01 6.519272613525390625e+01 -1.307457542419433594e+01 -9.037795662879943848e-02 1.150975584983825684e+00 3.181792795658111572e-01 3.496321141719818115e-01
9.700000000000000000e+01 6.580557250976562500e+01 -1.376966571807861328e+01 -3.284797370433807373e-01 1.222765088081359863e+00 2.682856023311614990e-01 2.827239930629730225e-01
9.800000000000000000e+01 6.379203033447265625e+01 -1.479839801788330078e+01 -4.700789749622344971e-01 8.599891662597656250e-01 1.169730499386787415e-01 1.540395766496658325e-01
9.900000000000000000e+01 6.336439132690429688e+01 -1.547119235992431641e+01 -6.738258600234985352e-01 8.124085068702697754e-01 4.157480597496032715e-02 -1.374122127890586853e-02
1.000000000000000000e+02 7.947968292236328125e+01 3.876766204833984375e+01 -3.994030877947807312e-03 -5.254368782043457031e-01 -1.588292568922042847e-01 4.540085047483444214e-02
1.010000000000000000e+02 7.957412719726562500e+01 3.638920974731445312e+01 -3.661543829366564751e-03 -8.003212213516235352e-01 -2.411948293447494507e-01 6.112173572182655334e-02
1.020000000000000000e+02 7.962566375732421875e+01 2.921783256530761719e+01 2.873048186302185059e-03 -2.101292848587036133e+00 -6.295259594917297363e-01 6.845242530107498169e-02
1.030000000000000000e+02 7.963201904296875000e+01 2.280554389953613281e+01 1.600699382834136486e-03 -2.818045377731323242e+00 -8.449333906173706055e-01 2.127210050821304321e-02
1.040000000000000000e+02 7.962823486328125000e+01 1.639183044433593750e+01 -1.383776543661952019e-03 -2.868462085723876953e+00 -8.609537482261657715e-01 7.746514398604631424e-03
1.050000000000000000e+02 7.963172149658203125e+01 9.173893928527832031e+00 -6.717019132338464260e-04 -2.972527265548706055e+00 -8.919596672058105469e-01 3.257566317915916443e-02
1.060000000000000000e+02 7.963349914550781250e+01 2.758019924163818359e+00 4.535709973424673080e-03 -3.066747665405273438e+00 -9.186635613441467285e-01 3.058035857975482941e-03
1.070000000000000000e+02 7.963271331787109375e+01 -4.459486007690429688e+00 1.156387734226882458e-03 -2.117792606353759766e+00 -6.349908113479614258e-01 -4.884339496493339539e-02
1.080000000000000000e+02 7.963474273681640625e+01 -1.087384986877441406e+01 -8.644007029943168163e-04 -1.017727136611938477e+00 -3.055774867534637451e-01 -4.380562528967857361e-02
1.090000000000000000e+02 7.821719360351562500e+01 -1.744941711425781250e+01 -1.254515536129474640e-02 -1.984380781650543213e-01 -6.329496949911117554e-02 -1.147148981690406799e-01
1.100000000000000000e+02 7.890250396728515625e+01 -2.145014524459838867e+00 9.858398698270320892e-03 -2.030465126037597656e+00 -6.061820387840270996e-01 -1.473679095506668091e-01
1.110000000000000000e+02 7.891220855712890625e+01 5.074399471282958984e+00 1.303644385188817978e-02 -2.497895956039428711e+00 -7.454578876495361328e-01 2.070948667824268341e-02
1.120000000000000000e+02 7.889459228515625000e+01 1.228742790222167969e+01 -7.223351392894983292e-03 -2.318386554718017578e+00 -6.976829767227172852e-01 2.839512191712856293e-02
1.130000000000000000e+02 7.889260101318359375e+01 1.871238899230957031e+01 2.778456080704927444e-03 -2.316028356552124023e+00 -6.939749717712402344e-01 7.175800390541553497e-03
1.140000000000000000e+02 7.889859008789062500e+01 2.512024879455566406e+01 1.494229119271039963e-02 -2.134670257568359375e+00 -6.359184384346008301e-01 9.741765260696411133e-02
1.150000000000000000e+02 7.735782623291015625e+01 3.281863784790039062e+01 -1.614520139992237091e-02 -5.884026885032653809e-01 -1.813643723726272583e-01 3.717951178550720215e-01
1.160000000000000000e+02 7.537824249267578125e+01 3.986190414428710938e+01 -1.661321669816970825e-01 1.550274193286895752e-01 -3.331422572955489159e-03 1.755770444869995117e-01
1.170000000000000000e+02 6.611270904541015625e+01 3.245880889892578125e+01 7.606583237648010254e-01 1.127267122268676758e+00 5.663776397705078125e-01 -8.981264829635620117e-01
1.180000000000000000e+02 6.779009246826171875e+01 3.174499320983886719e+01 5.214962363243103027e-01 1.912543654441833496e+00 7.302119731903076172e-01 -9.321985840797424316e-01
1.190000000000000000e+02 6.819201660156250000e+01 2.993458938598632812e+01 1.030940055847167969e+00 3.069567680358886719e+00 1.230152249336242676e+00 -1.581725358963012695e+00
1.200000000000000000e+02 6.917297363281250000e+01 2.953465843200683594e+01 6.778090596199035645e-01 3.138497114181518555e+00 1.144891858100891113e+00 -8.947157859802246094e-01
1.210000000000000000e+02 6.887167358398437500e+01 2.842697525024414062e+01 5.271574258804321289e-01 4.178754329681396484e+00 1.411773562431335449e+00 -1.265424728393554688e+00
1.220000000000000000e+02 6.930420684814453125e+01 2.684332084655761719e+01 2.989984750747680664e-01 4.680792808532714844e+00 1.493937373161315918e+00 -9.582189917564392090e-01
1.230000000000000000e+02 7.033196258544921875e+01 2.455378150939941406e+01 2.294884175062179565e-01 4.245497226715087891e+00 1.342495679855346680e+00 -2.720310091972351074e-01
1.240000000000000000e+02 6.957007598876953125e+01 2.522620964050292969e+01 1.174520626664161682e-01 4.975718498229980469e+00 1.527951240539550781e+00 -5.442900061607360840e-01
1.250000000000000000e+02 6.969725799560546875e+01 1.956260299682617188e+01 4.209881008137017488e-04 4.672127246856689453e+00 1.401764512062072754e+00 -1.558246929198503494e-02
1.260000000000000000e+02 6.955726623535156250e+01 1.311940097808837891e+01 5.232898890972137451e-02 4.286664485931396484e+00 1.301698088645935059e+00 4.153831899166107178e-01
1.270000000000000000e+02 6.956948852539062500e+01 9.961473464965820312e+00 -1.574678532779216766e-02 3.860558271408081055e+00 1.153443455696105957e+00 -5.002326369285583496e-01
1.280000000000000000e+02 7.027077484130859375e+01 1.085929203033447266e+01 -2.714914977550506592e-01 3.706078767776489258e+00 1.030376195907592773e+00 -1.466280221939086914e-01
1.290000000000000000e+02 6.993913269042968750e+01 7.570177078247070312e+00 2.132196575403213501e-01 5.541059017181396484e+00 1.726283669471740723e+00 -5.367204546928405762e-01
1.300000000000000000e+02 6.971111297607421875e+01 2.797637879848480225e-01 2.412171214818954468e-01 5.072355747222900391e+00 1.594071865081787109e+00 9.311411976814270020e-01
1.310000000000000000e+02 6.696038818359375000e+01 -7.322548389434814453e+00 4.257343113422393799e-01 2.270335674285888672e+00 8.088209629058837891e-01 9.790126681327819824e-01
1.320000000000000000e+02 6.025867843627929688e+01 3.526324462890625000e+01 -4.472003877162933350e-02 2.135655470192432404e-02 -7.009045220911502838e-03 2.123967045918107033e-03
1.330000000000000000e+02 6.181168365478515625e+01 3.518188858032226562e+01 6.146212667226791382e-02 6.095176562666893005e-02 3.672416880726814270e-02 -7.387293130159378052e-02
1.340000000000000000e+02 6.272553253173828125e+01 3.512515640258789062e+01 1.968603879213333130e-01 2.216071188449859619e-01 1.255402565002441406e-01 -2.057523131370544434e-01
1.350000000000000000e+02 6.434696197509765625e+01 3.421606445312500000e+01 4.848363697528839111e-01 5.373841524124145508e-01 3.066661655902862549e-01 -5.036460161209106445e-01
1.360000000000000000e+02 5.791136932373046875e+01 3.606708908081054688e+01 -8.444362878799438477e-02 -1.666043652221560478e-03 -2.583290264010429382e-02 -1.187211740761995316e-02
1.370000000000000000e+02 5.603552246093750000e+01 3.544687652587890625e+01 -6.872034072875976562e-02 -1.156212296336889267e-02 -2.408473938703536987e-02 -1.391518767923116684e-02
1.380000000000000000e+02 5.444596099853515625e+01 3.599596786499023438e+01 -3.880620002746582031e-02 5.658166483044624329e-03 -9.944409132003784180e-03 3.523748368024826050e-03
1.390000000000000000e+02 5.960663604736328125e+01 3.551606369018554688e+01 -6.450570374727249146e-02 -1.020214334130287170e-02 -2.241235412657260895e-02 1.918643526732921600e-02
1.400000000000000000e+02 5.280012130737304688e+01 3.557435226440429688e+01 -2.616393193602561951e-02 6.856989581137895584e-03 -5.792082753032445908e-03 3.987273667007684708e-03
1.410000000000000000e+02 5.081770324707031250e+01 3.585357284545898438e+01 -7.510048337280750275e-03 4.308963543735444546e-04 -2.123745623975992203e-03 1.033409032970666885e-02
1.420000000000000000e+02 5.203865051269531250e+01 3.267167282104492188e+01 -1.207752060145139694e-02 -4.009952303022146225e-03 -4.826241638511419296e-03 -7.856296375393867493e-03
1.430000000000000000e+02 5.265001678466796875e+01 3.317576980590820312e+01 -2.038798481225967407e-02 -7.091013249009847641e-03 -8.243699558079242706e-03 -1.037980429828166962e-02
1.440000000000000000e+02 5.529296875000000000e+01 3.496788787841796875e+01 -4.827209562063217163e-02 -7.636547554284334183e-03 -1.677259244024753571e-02 -1.763401366770267487e-02
1.450000000000000000e+02 3.833457946777343750e+01 3.753844070434570312e+01 6.006249459460377693e-04 -9.857476688921451569e-04 -1.155368299805559218e-04 1.218300662003457546e-03
1.460000000000000000e+02 4.586348342895507812e+01 3.850958633422851562e+01 2.637919271364808083e-03 -2.749241655692458153e-03 -3.339671457069925964e-05 5.165221635252237320e-03
1.470000000000000000e+02 4.607741928100585938e+01 2.941085624694824219e+01 -1.662083901464939117e-03 4.133331822231411934e-04 -3.746252332348376513e-04 -9.675293113104999065e-04
1.480000000000000000e+02 4.447368240356445312e+01 2.226120376586914062e+01 3.176115569658577442e-04 1.696786493994295597e-04 1.461870706407353282e-04 -1.388850068906322122e-04
1.490000000000000000e+02 4.325945281982421875e+01 1.836827468872070312e+01 -3.147249808534979820e-04 1.199550461024045944e-04 -5.843097824254073203e-05 1.147761431639082730e-04
1.500000000000000000e+02 4.418802642822265625e+01 2.149075508117675781e+01 -3.264857223257422447e-04 6.548198143718764186e-05 -7.830112008377909660e-05 1.774060365278273821e-04
1.510000000000000000e+02 3.753885650634765625e+01 4.077629089355468750e+01 1.047307159751653671e-03 -8.628129726275801659e-04 5.534826050279662013e-05 1.429974599886918440e-05
1.520000000000000000e+02 3.521288299560546875e+01 3.570769500732421875e+01 3.719445376191288233e-04 -4.893955192528665066e-04 -3.523529812810011208e-05 3.439165011513978243e-04
1.530000000000000000e+02 4.051493072509765625e+01 3.029351043701171875e+01 -1.166459172964096069e-03 6.387553876265883446e-04 -1.583111297804862261e-04 3.242998209316283464e-04
1.540000000000000000e+02 4.083128356933593750e+01 2.591431999206542969e+01 -6.386985769495368004e-04 7.785936031723394990e-05 -1.682517613517120481e-04 -4.665403685066848993e-05
1.550000000000000000e+02 4.039590835571289062e+01 1.528626823425292969e+01 1.963927643373608589e-04 3.160549022140912712e-05 6.839948036940768361e-05 3.023463796125724912e-05
1.560000000000000000e+02 4.040761566162109375e+01 1.172996520996093750e+01 1.455727906432002783e-04 3.566053419490344822e-05 5.436999708763323724e-05 4.275126048014499247e-05
1.570000000000000000e+02 4.089407348632812500e+01 4.571340560913085938e+00 5.621672607958316803e-05 1.251178764505311847e-05 2.061855411739088595e-05 4.036852988065220416e-05
1.580000000000000000e+02 4.084970092773437500e+01 -3.355655908584594727e+00 -4.926868314214516431e-06 1.212569259223528206e-05 2.159647237931494601e-06 1.751910349412355572e-05
1.590000000000000000e+02 3.569312667846679688e+01 -1.507587146759033203e+01 6.017314262862782925e-06 7.470926561836677138e-07 2.029322104135644622e-06 3.063124268010142259e-06
1.600000000000000000e+02 3.481859207153320312e+01 -1.814487457275390625e+01 3.519305664667626843e-07 1.723070909065427259e-06 6.225004653970245272e-07 5.160798650649667252e-07
1.610000000000000000e+02 3.709873199462890625e+01 -1.822088432312011719e+01 -5.116003762850596104e-07 -7.591921757921227254e-07 -3.812377542544709286e-07 -2.020457579021694983e-08
1.620000000000000000e+02 3.781106948852539062e+01 -1.829042053222656250e+01 -3.831038952739618253e-07 1.979532271434436552e-07 -5.554519688644177222e-08 4.663498032186907949e-07
1.630000000000000000e+02 4.242663192749023438e+01 -1.912841033935546875e+01 -1.665310037424205802e-06 -9.150730875262524933e-07 -7.741149374851374887e-07 -1.304438228544313461e-07
1.640000000000000000e+02 4.544387817382812500e+01 -1.901112365722656250e+01 7.303863753804762382e-07 8.497079875269264448e-07 4.740283259252464632e-07 7.680409908061847091e-07
1.650000000000000000e+02 4.693000030517578125e+01 -1.866212463378906250e+01 1.021403591039415915e-06 4.647132243462692713e-07 4.458350417735346127e-07 8.995015150503604673e-07
1.660000000000000000e+02 4.988416290283203125e+01 -1.806132316589355469e+01 1.530121494397462811e-06 -1.529786430864987778e-07 4.131428568143746816e-07 1.485429947933880612e-07
1.670000000000000000e+02 5.061265563964843750e+01 -1.792272949218750000e+01 -1.528048869658960029e-06 -9.338855910812071670e-09 -4.612163309047900839e-07 -4.529436026246003166e-08
1.680000000000000000e+02 5.194544219970703125e+01 -1.319636344909667969e+01 -1.256877203559270129e-05 3.540535544743761420e-06 -2.708471129153622314e-06 -6.563396937053767033e-08
1.690000000000000000e+02 4.931349945068359375e+01 -4.137092590332031250e+00 -3.883220779243856668e-05 -2.160875737899914384e-06 -1.229792542289942503e-05 -7.729504432063549757e-06
1.700000000000000000e+02 4.849619293212890625e+01 -1.908554196357727051e+00 5.601269367616623640e-05 4.816478849534178153e-06 1.824875289457850158e-05 1.519545185146853328e-05
1.710000000000000000e+02 4.787675857543945312e+01 -4.604129791259765625e-01 6.793971988372504711e-05 9.370390216645319015e-06 2.319303348485846072e-05 2.250148827442899346e-05
1.720000000000000000e+02 4.643249511718750000e+01 2.376068592071533203e+00 9.362489799968898296e-05 1.575048372615128756e-05 3.281261524534784257e-05 3.387194374226965010e-05
1.730000000000000000e+02 4.735017013549804688e+01 -2.966663122177124023e+00 -3.877857307088561356e-05 -9.929101906891446561e-06 -1.461230203858576715e-05 -2.038125785475131124e-05
1.740000000000000000e+02 4.610165405273437500e+01 -7.783821582794189453e+00 -1.520531804999336600e-05 -8.660448656883090734e-06 -7.159729648265056312e-06 -4.989365152141544968e-06
1.750000000000000000e+02 4.470219421386718750e+01 -1.921661758422851562e+01 -1.010483060781552922e-06 -8.806284768070327118e-07 -5.673334726452594623e-07 -6.790017437197093386e-07
1.760000000000000000e+02 3.249111938476562500e+01 4.071289443969726562e+01 5.240644095465540886e-04 -7.055442547425627708e-04 -5.444394628284499049e-05 3.880866861436516047e-04
1.770000000000000000e+02 2.742426490783691406e+01 3.778155517578125000e+01 2.317948383279144764e-04 -3.941648174077272415e-04 -4.871099008596502244e-05 1.927208359120413661e-04
1.780000000000000000e+02 3.224785614013671875e+01 2.849911880493164062e+01 -3.656156768556684256e-04 1.385395444231107831e-04 -6.812284118495881557e-05 1.812404661905020475e-04
1.790000000000000000e+02 3.257485961914062500e+01 2.421125793457031250e+01 -2.160968579119071364e-04 1.313123939326032996e-04 -2.543533992138691247e-05 -3.123013084405101836e-05
1.800000000000000000e+02 3.373509216308593750e+01 1.599501609802246094e+01 -6.227990525076165795e-05 6.502435280708596110e-05 8.233323569584172219e-07 -3.694408587762154639e-05
1.810000000000000000e+02 3.275544357299804688e+01 1.044162273406982422e+01 -2.624680746521335095e-05 6.006477633491158485e-06 -6.072099040466127917e-06 2.204276370321167633e-06
1.820000000000000000e+02 2.713602066040039062e+01 7.032182812690734863e-01 1.910341416078153998e-05 -2.552536443545250222e-06 4.965263087797211483e-06 4.405113941174931824e-06
1.830000000000000000e+02 2.822294235229492188e+01 -5.727447509765625000e+00 9.158150533039588481e-06 -2.681580781427328475e-06 1.942971039170515724e-06 -6.463671553547101212e-08
1.840000000000000000e+02 2.542055130004882812e+01 -1.156193161010742188e+01 3.661876689875498414e-06 1.745825784382759593e-06 1.622310719540109858e-06 -1.314248976314047468e-07
1.850000000000000000e+02 2.890545845031738281e+01 -1.704401779174804688e+01 6.084766255298745818e-07 2.939550540759228170e-06 1.064408138518047053e-06 1.328964344793348573e-06
1.860000000000000000e+02 3.179883384704589844e+01 -1.797964859008789062e+01 7.640294938937586267e-07 3.736459802894387394e-06 1.350146703771315515e-06 1.348448108728916850e-06
1.870000000000000000e+02 1.798970794677734375e+01 4.091930007934570312e+01 4.140991586609743536e-05 -9.551100083626806736e-05 -1.623032585484907031e-05 -8.515510126017034054e-05
1.880000000000000000e+02 2.269385719299316406e+01 4.098110198974609375e+01 9.427845361642539501e-05 -2.022234839387238026e-04 -3.238351200707256794e-05 1.475961616961285472e-04
1.890000000000000000e+02 2.066501808166503906e+01 2.775464439392089844e+01 1.546467319712974131e-05 -2.796388798742555082e-05 -3.749764346139272675e-06 -4.321990161315625301e-07
1.900000000000000000e+02 2.552705192565917969e+01 2.163016700744628906e+01 -5.656886787619441748e-05 3.723689223988913000e-05 -5.799593054689466953e-06 -5.470988071465399116e-06
1.910000000000000000e+02 2.737549972534179688e+01 1.768995285034179688e+01 1.705728936940431595e-05 1.051447816280415282e-05 8.271530532510951161e-06 -1.554002119519282132e-05
1.920000000000000000e+02 2.339897346496582031e+01 7.342332839965820312e+00 -1.388021973980357870e-05 -3.127898162347264588e-05 -1.354776031803339720e-05 3.831145022559212521e-06
1.930000000000000000e+02 2.064676475524902344e+01 -2.437758725136518478e-03 1.165828507510013878e-05 -9.009052519104443491e-06 7.947698463794949930e-07 1.546407588648435194e-06
1.940000000000000000e+02 1.924093627929687500e+01 -3.300927639007568359e+00 1.727600101730786264e-05 3.726661816472187638e-06 6.300798759184544906e-06 -5.764945399278076366e-06
1.950000000000000000e+02 2.201590347290039062e+01 -6.228199005126953125e+00 8.314199476444628090e-06 5.110739039082545787e-06 4.027481736557092518e-06 -6.151382422103779390e-06
1.960000000000000000e+02 2.300643157958984375e+01 -6.394553661346435547e+00 7.947389349283184856e-06 4.174657533440040424e-06 3.636614110291702673e-06 -5.012595920561579987e-06
1.970000000000000000e+02 2.346303367614746094e+01 -8.158063888549804688e+00 5.881745437363861129e-06 -5.509359652933198959e-07 1.599242864358529914e-06 -4.265998541086446494e-06
1.980000000000000000e+02 1.671515274047851562e+01 2.925959777832031250e+01 3.966788790421560407e-05 -6.855824904050678015e-05 -8.667108886584173888e-06 5.766592948930338025e-05
1.990000000000000000e+02 1.263261127471923828e+01 2.347481536865234375e+01 1.765114802765310742e-06 -1.891900683403946459e-05 -5.146167950442759320e-06 2.625286106194835156e-05
2.000000000000000000e+02 1.371508598327636719e+01 1.733346366882324219e+01 2.865202986868098378e-05 -1.861886812548618764e-05 3.009948613907909021e-06 1.160357169283088297e-05
2.010000000000000000e+02 1.669079780578613281e+01 6.368860721588134766e+00 6.662668056378606707e-06 6.579834007425233722e-06 3.972750619141152129e-06 -1.680892091826535761e-05
2.020000000000000000e+02 1.079208374023437500e+01 1.799680709838867188e+00 1.003337456495501101e-05 1.095454354071989655e-05 6.296375431702472270e-06 -6.697856406390201300e-06
2.030000000000000000e+02 1.391353225708007812e+01 3.153566122055053711e-01 1.990185228351037949e-05 9.250980838260147721e-06 8.745849299884866923e-06 -6.548250894411467016e-06
2.040000000000000000e+02 1.492348861694335938e+01 5.478707551956176758e-01 1.684384005784522742e-05 6.236658464331412688e-06 6.924149602127727121e-06 -5.309118478180607781e-06
2.050000000000000000e+02 1.734250259399414062e+01 -1.798085212707519531e+00 1.906056604639161378e-05 5.881804099772125483e-06 7.482710771000711247e-06 -1.356867505819536746e-05
2.060000000000000000e+02 1.050695705413818359e+01 3.962211608886718750e+01 7.396512228297069669e-05 -5.899124153074808419e-05 4.492165317060425878e-06 -1.837863965192809701e-05
2.070000000000000000e+02 7.616043090820312500e+00 3.060304260253906250e+01 -4.111533780815079808e-05 1.173177588498219848e-05 -8.815068213152699172e-06 -1.174293993244646117e-05
2.080000000000000000e+02 6.446718692779541016e+00 2.419274902343750000e+01 -1.635519038245547563e-05 -2.835406576195964590e-07 -4.991619334759889171e-06 7.460167580575216562e-06
2.090000000000000000e+02 6.291821002960205078e+00 1.683713531494140625e+01 2.789805648717447184e-06 1.564518970553763211e-05 5.530498583539156243e-06 -2.432675501040648669e-06
2.100000000000000000e+02 6.357334136962890625e+00 9.700551986694335938e+00 -8.215924935939256102e-06 1.316766702075256035e-05 1.485522489019786008e-06 -1.947006967384368181e-05
2.110000000000000000e+02 6.665363311767578125e+00 1.863847732543945312e+00 9.797034181246999651e-06 -2.822578380801132880e-06 2.092336671921657398e-06 -3.534617235345649533e-06
2.120000000000000000e+02 1.161654567718505859e+01 1.396852612495422363e+00 2.125315404555294663e-05 4.158407591603463516e-06 7.623468263773247600e-06 -1.344978863926371560e-05
2.130000000000000000e+02 1.306239128112792969e+00 3.699630737304687500e+01 -5.666300421580672264e-05 4.164675556239672005e-05 -4.504874596023000777e-06 7.626798378623789176e-06
2.140000000000000000e+02 1.545759320259094238e+00 3.877563858032226562e+01 -4.761469244840554893e-05 1.741900086926762015e-05 -9.058708201337140054e-06 -1.717448685667477548e-05
2.150000000000000000e+02 2.119245290756225586e+00 3.672178649902343750e+01 4.854982762481085956e-05 5.498057362274266779e-06 1.621436422283295542e-05 -1.830789369705598801e-05
2.160000000000000000e+02 1.194862961769104004e+00 2.922997474670410156e+01 -2.853322803275659680e-05 3.619190829340368509e-05 2.297603941769921221e-06 3.766778533531578432e-08
2.170000000000000000e+02 3.620405197143554688e-01 2.037604713439941406e+01 -1.485432949266396463e-05 3.797159297391772270e-05 6.935179044376127422e-06 3.318873211810569046e-07
2.180000000000000000e+02 1.070064663887023926e+00 1.552475070953369141e+01 8.644058652862440795e-06 2.685125218704342842e-05 1.064859316102229059e-05 -1.736481067382555921e-06
2.190000000000000000e+02 3.875724971294403076e-01 6.692718505859375000e+00 5.417672127805417404e-06 6.871016921650152653e-06 3.686606760311406106e-06 -9.679671393314492889e-07
2.200000000000000000e+02 1.089351296424865723e+00 9.090046882629394531e+00 6.144076451164437458e-06 1.228159362653968856e-05 5.527700977836502716e-06 -1.603004307071387302e-06
2.210000000000000000e+02 4.200345039367675781e+00 2.544887781143188477e+00 5.614624114969046786e-06 -2.930530342837300850e-07 1.596471406628552359e-06 -3.049572342206374742e-06
2.220000000000000000e+02 2.739014244079589844e+01 -1.641485404968261719e+01 6.897449793541454710e-07 4.245649961376329884e-06 1.480618493587826379e-06 2.348949010411160998e-06
2.230000000000000000e+02 4.113983535766601562e+01 -2.024308586120605469e+01 7.183011234701552894e-07 2.432774977023655083e-07 2.884735863517562393e-07 3.656721503375592874e-07
2.240000000000000000e+02 4.168800735473632812e+01 -1.927987861633300781e+01 1.491554371568781789e-06 9.094668484976864420e-07 7.203063887573080137e-07 3.470968579222244443e-08
2.250000000000000000e+02 5.276442718505859375e+01 -1.748778915405273438e+01 1.246212718797323760e-06 1.021596403916191775e-06 6.803427368140546605e-07 -5.778708214165817481e-07
2.260000000000000000e+02 5.274456405639648438e+01 -1.514251708984375000e+01 -3.867346549668582156e-06 -1.614016355233616196e-06 -1.644408939682762139e-06 -7.410479838654282503e-07
2.270000000000000000e+02 5.467501831054687500e+01 -1.574148082733154297e+01 -1.138373932008107658e-06 -2.067621608148328960e-06 -9.617987188903498463e-07 -1.861534201452741399e-06
2.280000000000000000e+02 5.413952255249023438e+01 -1.714219474792480469e+01 2.967866976177901961e-06 1.671389441071369220e-06 1.391776891068730038e-06 -1.149782747233984992e-06
2.290000000000000000e+02 5.538331604003906250e+01 -1.632888984680175781e+01 1.424219362888834439e-06 2.264488102809991688e-06 1.106612216972280294e-06 1.380024173158744816e-06
2.300000000000000000e+02 5.703337097167968750e+01 -1.642688560485839844e+01 7.036783244984690100e-07 4.713222551799844950e-06 1.625070240152126644e-06 1.014443682834098581e-06
2.310000000000000000e+02 5.781586074829101562e+01 -1.617596817016601562e+01 -9.034678782882110681e-07 -6.004440820106538013e-06 -2.072372581096715294e-06 -1.960264171430026181e-06
2.320000000000000000e+02 5.932202911376953125e+01 -1.534700679779052734e+01 -2.734834424700238742e-06 -6.006933290336746722e-06 -2.622530246298993006e-06 -2.481791398167842999e-06
2.330000000000000000e+02 4.605130386352539062e+01 3.076907396316528320e+00 -9.914395195664837956e-05 -1.137887829827377573e-05 -3.315684807603247464e-05 -3.855417526210658252e-05
2.340000000000000000e+02 4.095252990722656250e+01 2.793152570724487305e+00 -4.569533484755083919e-05 -5.614033966594433878e-07 -1.387702104693744332e-05 -2.892849988711532205e-05
2.350000000000000000e+02 4.566261291503906250e+01 3.775681734085083008e+00 1.065825199475511909e-04 1.995576894842088223e-05 3.796148666879162192e-05 3.835185270872898400e-05
2.360000000000000000e+02 4.281365203857421875e+01 9.526307106018066406e+00 1.829554239520803094e-04 4.820537287741899490e-05 6.934824341442435980e-05 2.738515468081459403e-05
2.370000000000000000e+02 4.248670959472656250e+01 1.194441127777099609e+01 -2.063789434032514691e-04 8.317508036270737648e-05 -3.696115891216322780e-05 -4.531946615315973759e-06
2.380000000000000000e+02 4.254613876342773438e+01 1.356736755371093750e+01 -2.331183059141039848e-04 9.116904402617365122e-05 -4.258477929397486150e-05 1.935860927915200591e-05
2.390000000000000000e+02 4.306907653808593750e+01 1.758003044128417969e+01 3.217097546439617872e-04 1.405649963999167085e-04 1.386824296787381172e-04 -2.882045009755529463e-05
2.400000000000000000e+02 3.958932113647460938e+01 1.527783107757568359e+01 -1.483900850871577859e-04 3.487189314910210669e-05 -3.405545794521458447e-05 1.572630139889952261e-06
2.410000000000000000e+02 4.634029388427734375e+01 2.592294692993164062e+01 -5.719373584724962711e-04 -3.931080573238432407e-04 -2.895136422012001276e-04 9.571367991156876087e-05
2.420000000000000000e+02 4.566735458374023438e+01 2.647536659240722656e+01 -5.329900886863470078e-05 3.144991205772385001e-05 -6.554728770424844697e-06 -5.772493896074593067e-04
2.430000000000000000e+02 4.971947097778320312e+01 3.047824096679687500e+01 -2.254422055557370186e-03 -1.159079140052199364e-03 -1.024050405248999596e-03 -2.789677586406469345e-03
2.440000000000000000e+02 4.866331481933593750e+01 2.926069259643554688e+01 -9.891270892694592476e-04 -5.101700662635266781e-04 -4.497891350183635950e-04 -1.707197632640600204e-03
2.450000000000000000e+02 4.671137619018554688e+01 3.018420028686523438e+01 -3.128400538116693497e-03 -3.050233644898980856e-04 -1.030027167871594429e-03 -4.573267651721835136e-04
2.460000000000000000e+02 5.625927352905273438e+01 -2.738282966613769531e+01 2.749886274337768555e+00 5.398832798004150391e+00 2.444615602493286133e+00 2.799962520599365234e+00
2.470000000000000000e+02 5.373065567016601562e+01 -2.172898101806640625e+01 -2.258904933929443359e+00 -3.191246092319488525e-01 -7.734088897705078125e-01 -1.359412312507629395e+00
2.480000000000000000e+02 4.224112319946289062e+01 -2.504131317138671875e+01 7.718726061284542084e-03 -1.047680377960205078e+00 -3.119885027408599854e-01 -2.283811569213867188e-01
2.490000000000000000e+02 4.193664169311523438e+01 -2.396122169494628906e+01 -9.915676899254322052e-03 -5.819399356842041016e-01 -1.775566935539245605e-01 -6.533914804458618164e-02
2.500000000000000000e+02 4.032573318481445312e+01 -3.124408531188964844e+01 -1.313553571701049805e+00 -1.117550492286682129e+00 -7.293312549591064453e-01 -1.132149696350097656e+00
2.510000000000000000e+02 4.055711746215820312e+01 -3.224307250976562500e+01 -5.828297734260559082e-01 -1.446894407272338867e+00 -6.089172363281250000e-01 -8.510217666625976562e-01
2.520000000000000000e+02 3.732075119018554688e+01 -3.254983139038085938e+01 -6.220230460166931152e-01 -1.344659030437469482e-01 -2.269466817378997803e-01 -2.738367915153503418e-01
2.530000000000000000e+02 3.566623687744140625e+01 -3.275596618652343750e+01 -2.250341475009918213e-01 -1.432265620678663254e-02 -7.180704176425933838e-02 -8.291082829236984253e-02
2.540000000000000000e+02 3.403530883789062500e+01 -3.258942031860351562e+01 3.415306564420461655e-03 9.527717716991901398e-03 3.882907098159193993e-03 -3.020215965807437897e-02
2.550000000000000000e+02 3.484621429443359375e+01 -3.271313476562500000e+01 -8.617930859327316284e-02 -1.448079384863376617e-02 -3.019803017377853394e-02 -5.021664127707481384e-02
2.560000000000000000e+02 3.162569046020507812e+01 -3.206748199462890625e+01 6.847661733627319336e-02 -1.540595781989395618e-03 2.008080482482910156e-02 -2.113857306540012360e-02
2.570000000000000000e+02 2.454611968994140625e+01 -3.117292022705078125e+01 5.258494243025779724e-02 2.548437332734465599e-03 1.654001325368881226e-02 7.023525540716946125e-04
2.580000000000000000e+02 1.892985534667968750e+01 -3.115584754943847656e+01 2.598290704190731049e-02 -7.559717632830142975e-04 7.568080443888902664e-03 1.804362167604267597e-03
2.590000000000000000e+02 1.730767631530761719e+01 -3.111704444885253906e+01 1.988531835377216339e-02 -1.043610507622361183e-03 5.652512423694133759e-03 2.117799012921750546e-04
2.600000000000000000e+02 1.566870689392089844e+01 -3.085848045349121094e+01 1.176629960536956787e-02 -1.414565602317452431e-03 3.105520037934184074e-03 -1.200430211611092091e-03
2.610000000000000000e+02 1.256806373596191406e+01 -2.954275321960449219e+01 2.058490412309765816e-03 -3.065569617319852114e-04 5.255800788290798664e-04 -1.223498489707708359e-03
2.620000000000000000e+02 1.189573764801025391e+01 -2.903202247619628906e+01 1.498824800364673138e-03 4.775318084284663200e-04 5.929070175625383854e-04 4.294791142456233501e-05
2.630000000000000000e+02 2.540708780288696289e+00 -2.568632698059082031e+01 -7.051493157632648945e-04 5.245619104243814945e-05 -1.958079374162480235e-04 -4.952418385073542595e-05
2.640000000000000000e+02 3.888596892356872559e-01 -2.999236488342285156e+01 -6.339107640087604523e-04 -2.026725996984168887e-04 -2.509750192984938622e-04 -4.925221946905367076e-05
2.650000000000000000e+02 1.247927904129028320e+00 -3.475949478149414062e+01 8.664475753903388977e-04 5.490405601449310780e-04 4.246464523021131754e-04 2.840757369995117188e-04
2.660000000000000000e+02 1.139274978637695312e+01 -2.963327980041503906e+01 1.417240011505782604e-03 -6.448321510106325150e-04 2.317223552381619811e-04 -7.987509015947580338e-04
2.670000000000000000e+02 9.652551651000976562e+00 -2.660444259643554688e+01 3.056050627492368221e-04 -9.658887574914842844e-05 6.270485755521804094e-05 5.342658841982483864e-04
2.680000000000000000e+02 8.876040458679199219e+00 -2.513723373413085938e+01 3.851902147289365530e-04 -2.404799888608977199e-04 4.341307067079469562e-05 2.028681774390861392e-04
2.690000000000000000e+02 8.727964401245117188e+00 -2.430617141723632812e+01 -3.951404651161283255e-04 -1.441560743842273951e-04 -1.617889647604897618e-04 -1.980348133656661958e-05
2.700000000000000000e+02 8.739108085632324219e+00 -2.260696029663085938e+01 -3.949602541979402304e-04 1.226818221766734496e-05 -1.148076262325048447e-04 1.879252704384271055e-05
2.710000000000000000e+02 8.991499900817871094e+00 -1.787828826904296875e+01 1.108160286094062030e-04 6.517718429677188396e-05 5.279796096147038043e-05 -9.211877477355301380e-05
2.720000000000000000e+02 1.137060832977294922e+01 -1.661084938049316406e+01 -1.337744324700906873e-04 -1.277490373468026519e-04 -7.845704385545104742e-05 1.405109069310128689e-04
2.730000000000000000e+02 1.470995235443115234e+01 -1.416383361816406250e+01 1.332152078248327598e-05 1.519271463621407747e-04 4.957459896104410291e-05 -6.093976116972044110e-05
2.740000000000000000e+02 1.548600482940673828e+01 -1.386138629913330078e+01 -3.095762849625316449e-06 -1.369563688058406115e-04 -4.201563933747820556e-05 3.547979940776713192e-05
2.750000000000000000e+02 1.629023742675781250e+01 -1.361562061309814453e+01 1.182016967504750937e-05 1.185953879030421376e-04 3.912466490874066949e-05 -2.368364584981463850e-05
2.760000000000000000e+02 1.711835289001464844e+01 -1.344850254058837891e+01 9.016206604428589344e-06 -1.127675204770639539e-04 -3.112539343419484794e-05 1.791657268768176436e-05
2.770000000000000000e+02 2.007062339782714844e+01 -9.634682655334472656e+00 -3.708246003952808678e-05 -1.494449861638713628e-05 -1.560808777867350727e-05 -1.488388170400867239e-05
2.780000000000000000e+02 2.038170433044433594e+01 -1.228820800781250000e+01 -4.498551425058394670e-05 -2.172432687075342983e-05 -2.001295251830015332e-05 -4.420725599629804492e-05
2.790000000000000000e+02 2.211537551879882812e+01 -1.298644256591796875e+01 -3.762680353247560561e-05 -6.050000592949800193e-06 -1.310304105572868139e-05 1.278144310390416649e-07
2.800000000000000000e+02 1.783435821533203125e+01 -7.014954566955566406e+00 3.016819209733512253e-05 2.330702955077867955e-05 1.604256613063625991e-05 1.617686029931064695e-05
2.810000000000000000e+02 1.595308113098144531e+01 -6.093856334686279297e+00 3.440463842707686126e-05 2.507988756406120956e-05 1.784535743354354054e-05 1.631950362934730947e-05
2.820000000000000000e+02 1.350404739379882812e+01 -3.646643161773681641e+00 2.283680260006804019e-05 3.324417411931790411e-05 1.682429319771472365e-05 1.561470890010241419e-05
2.830000000000000000e+02 1.108895587921142578e+01 -2.449725151062011719e+00 2.200562630605418235e-05 3.353856664034537971e-05 1.666325806581880897e-05 1.564655212860088795e-05
2.840000000000000000e+02 9.468696594238281250e+00 -3.384046077728271484e+00 3.627153273555450141e-05 2.982014484587125480e-05 1.982750291062984616e-05 1.842650999606121331e-05
2.850000000000000000e+02 1.086309146881103516e+01 -3.088802576065063477e+00 -2.803914139803964645e-05 -3.394369559828191996e-05 -1.859485018940176815e-05 -1.634534419281408191e-05
2.860000000000000000e+02 3.603822469711303711e+00 -1.864499092102050781e+00 2.416205461486242712e-05 7.016400559223257005e-06 9.353536370326764882e-06 1.422854893462499604e-05
2.870000000000000000e+02 3.628727495670318604e-01 -9.087103843688964844e+00 -1.360650785500183702e-04 -3.834852577710989863e-06 -4.196998270344920456e-05 -2.189171937061473727e-05
2.880000000000000000e+02 1.080750703811645508e+00 -1.060758495330810547e+01 1.720051368465647101e-04 9.009520908875856549e-06 5.430439705378375947e-05 3.187649417668581009e-05
2.890000000000000000e+02 3.609640598297119141e-01 -1.631742858886718750e+01 3.377273678779602051e-04 1.092077854991657659e-05 1.045944445650093257e-04 5.561770012718625367e-05
2.900000000000000000e+02 9.677111625671386719e+00 -1.938815307617187500e+01 -3.317149239592254162e-04 -8.460223034489899874e-05 -1.248951448360458016e-04 2.134345122613012791e-04
2.910000000000000000e+02 1.077644944190979004e+00 -1.781115531921386719e+01 -3.844634920824319124e-04 -8.125328349706251174e-06 -1.177766389446333051e-04 -6.358998507494106889e-05
2.920000000000000000e+02 3.643548786640167236e-01 -2.274937438964843750e+01 5.166878690943121910e-04 -2.170818515878636390e-05 1.484939130023121834e-04 6.965167267480865121e-05
2.930000000000000000e+02 8.151153564453125000e+00 -3.826811218261718750e+01 -1.652217586524784565e-03 2.100728452205657959e-03 1.345532800769433379e-04 1.392417820170521736e-03
2.940000000000000000e+02 1.613883781433105469e+01 -3.768487930297851562e+01 -2.793003804981708527e-03 5.064559634774923325e-03 6.814667140133678913e-04 8.074316196143627167e-03
2.950000000000000000e+02 2.494841194152832031e+01 -4.023009872436523438e+01 -3.245513513684272766e-02 -1.319204270839691162e-02 -1.369415409862995148e-02 -8.929048199206590652e-04
2.960000000000000000e+02 2.799880790710449219e+01 -4.126654434204101562e+01 -2.607257664203643799e-02 -5.845808237791061401e-02 -2.535919845104217529e-02 5.654095206409692764e-03
2.970000000000000000e+02 3.587153625488281250e+01 -3.594044876098632812e+01 -7.611138373613357544e-02 -3.031136691570281982e-01 -1.137675195932388306e-01 -2.927866578102111816e-01
2.980000000000000000e+02 4.277059936523437500e+01 -3.931310272216796875e+01 3.899648189544677734e-01 -5.087003707885742188e-01 -3.562066704034805298e-02 2.330856584012508392e-02
2.990000000000000000e+02 4.902717971801757812e+01 -3.716616821289062500e+01 1.727464944124221802e-01 5.986914038658142090e-01 2.314313799142837524e-01 4.711523950099945068e-01
3.000000000000000000e+02 5.717131423950195312e+01 -3.498761367797851562e+01 7.919034361839294434e-02 1.888943552970886230e+00 5.904401540756225586e-01 -7.461512088775634766e-01
3.010000000000000000e+02 6.182275009155273438e+01 -3.544797134399414062e+01 -7.576946169137954712e-02 4.255311191082000732e-02 -9.964905679225921631e-03 -1.052955687046051025e-01
3.020000000000000000e+02 6.841202545166015625e+01 -3.719955444335937500e+01 2.603101078420877457e-03 9.805352427065372467e-03 3.722535911947488785e-03 5.074724182486534119e-02
3.030000000000000000e+02 7.886196136474609375e+01 -3.734810638427734375e+01 3.642510389909148216e-03 -2.162621356546878815e-02 -5.395111162215471268e-03 8.031648583710193634e-03
3.040000000000000000e+02 7.886006927490234375e+01 -3.872659683227539062e+01 2.468913095071911812e-03 -2.622766979038715363e-02 -7.127626799046993256e-03 5.233450327068567276e-03
3.050000000000000000e+02 2.613084030151367188e+01 -3.126097869873046875e+01 6.343238800764083862e-02 1.719788881018757820e-03 1.954565197229385376e-02 -3.102192422375082970e-03
3.060000000000000000e+02 3.131608200073242188e+01 -3.311235427856445312e+01 2.320473082363605499e-02 -3.295416478067636490e-03 5.972794257104396820e-03 -1.775870658457279205e-02
3.070000000000000000e+02 6.813906860351562500e+01 -2.067082786560058594e+01 2.375884354114532471e-01 2.742427289485931396e-01 1.535493582487106323e-01 6.400773525238037109e-01
3.080000000000000000e+02 6.795886993408203125e+01 -2.142902946472167969e+01 3.218165934085845947e-01 1.593636125326156616e-01 1.443540602922439575e-01 3.941788375377655029e-01
3.090000000000000000e+02 6.931728363037109375e+01 -1.298910260200500488e+00 3.713861107826232910e-01 4.367442607879638672e+00 1.421648621559143066e+00 1.113881826400756836e+00
3.100000000000000000e+02 7.001469421386718750e+01 5.144982337951660156e+00 1.588375307619571686e-02 5.178415298461914062e+00 1.558289647102355957e+00 -5.404051765799522400e-02
3.110000000000000000e+02 3.462314605712890625e+01 2.997906684875488281e+01 -5.008880398236215115e-04 1.407215459039434791e-04 -1.080499569070525467e-04 4.082733939867466688e-04
3.120000000000000000e+02 3.008866310119628906e+01 2.887384223937988281e+01 -3.334958455525338650e-05 -1.571902248542755842e-04 -5.716194209526292980e-05 1.733651297399774194e-04
3.130000000000000000e+02 2.363981246948242188e+01 2.756554412841796875e+01 -3.585811646189540625e-05 7.754731996101327240e-06 -8.431015885435044765e-06 2.856102219084277749e-05
3.140000000000000000e+02 1.671439170837402344e+01 3.159725761413574219e+01 -4.879118932876735926e-05 -2.189247788919601589e-05 -2.120509998349007219e-05 3.553980832293746062e-06
3.150000000000000000e+02 6.402998447418212891e+00 3.060778427124023438e+01 1.649936893954873085e-05 1.018691909848712385e-05 8.005886229511816055e-06 2.078064790111966431e-05
3.160000000000000000e+02 7.017475128173828125e+00 2.609730339050292969e+01 1.598429662408307195e-06 2.736600072239525616e-05 8.689328751643188298e-06 -1.241221889358712360e-05
3.170000000000000000e+02 1.368818569183349609e+01 2.525947952270507812e+01 8.362079825019463897e-06 -3.021313204953912646e-05 -6.555315849254839122e-06 3.505580389173701406e-05
3.180000000000000000e+02 2.574224662780761719e+01 2.392160224914550781e+01 -4.874859951087273657e-05 2.315317033207975328e-05 -7.678628207941073924e-06 9.266692359233275056e-06
3.190000000000000000e+02 3.066534423828125000e+01 2.213751602172851562e+01 -1.517951022833585739e-05 -3.278387521277181804e-05 -1.438901563233230263e-05 -5.924934521317481995e-05
3.200000000000000000e+02 3.927156829833984375e+01 2.406823158264160156e+01 -1.377929729642346501e-04 -8.358967534149996936e-06 -4.384558269521221519e-05 -1.831381960073485970e-04
3.210000000000000000e+02 1.254159808158874512e+00 3.089762878417968750e+01 -3.099762761848978698e-05 3.303182893432676792e-05 6.102605425439833198e-07 1.653420099501090590e-06
3.220000000000000000e+02 6.357148647308349609e+00 1.766465759277343750e+01 -9.369390681968070567e-06 1.046218403644161299e-05 3.278381086602166761e-07 -8.766776772972662002e-06
3.230000000000000000e+02 1.386760234832763672e+01 1.957192993164062500e+01 1.943911956914234906e-05 -1.590791180205997080e-05 1.059362489286286291e-06 1.622256786504294723e-05
3.240000000000000000e+02 2.670114326477050781e+01 1.655392456054687500e+01 -9.330688772024586797e-05 -4.724373866338282824e-05 -4.216518937028013170e-05 1.305724526901030913e-05
3.250000000000000000e+02 1.105734348297119141e+00 2.356864356994628906e+01 1.997704202949535102e-05 3.502301842672750354e-05 1.650001831876579672e-05 -1.243085279156730394e-07
3.260000000000000000e+02 6.498225688934326172e+00 8.356314659118652344e+00 -1.217024328070692718e-05 1.422186142008285969e-05 6.154856464490876533e-07 -1.813980634324252605e-05
3.270000000000000000e+02 1.738732910156250000e+01 6.751500606536865234e+00 1.775835698936134577e-06 -1.262938985746586695e-05 -3.256066065659979358e-06 3.205726443411549553e-06
3.280000000000000000e+02 2.269985008239746094e+01 6.738193035125732422e+00 1.627687925065401942e-05 7.225528406706871465e-06 7.050722615531412885e-06 -5.977313776384107769e-06
3.290000000000000000e+02 4.252150726318359375e+01 1.113030529022216797e+01 1.981048553716391325e-04 7.131848542485386133e-05 8.082699787337332964e-05 1.540717312309425324e-05
3.300000000000000000e+02 4.066124343872070312e+01 9.959195137023925781e+00 1.210025293403305113e-04 3.045025368919596076e-05 4.543583418126218021e-05 4.383848499855957925e-05
3.310000000000000000e+02 1.072059273719787598e+00 1.633018112182617188e+01 -9.610500455892179161e-06 2.884121386159677058e-05 5.769213657913496718e-06 -2.306727992618107237e-06
3.320000000000000000e+02 2.225504302978515625e+01 4.762385487556457520e-01 1.690109274932183325e-05 2.942383616755250841e-06 5.953043000772595406e-06 -6.726169431203743443e-06
3.330000000000000000e+02 2.647124099731445312e+01 1.516736030578613281e+00 3.473820015642559156e-06 -1.871738459158223122e-05 -4.573069418256636709e-06 3.575545406420133077e-06
3.340000000000000000e+02 2.666150665283203125e+01 -4.533649921417236328e+00 9.480313565290998667e-06 -8.227154467022046447e-06 3.759476783216086915e-07 -3.597993725179549074e-08
3.350000000000000000e+02 3.795186996459960938e+01 7.620650529861450195e-01 3.024818033736664802e-05 1.238921413460047916e-05 1.279121897823642939e-05 -2.608428076200652868e-05
3.360000000000000000e+02 4.719614791870117188e+01 -4.536725521087646484e+00 2.695008151931688190e-05 1.325848461419809610e-05 1.206257002195343375e-05 1.773252733983099461e-05
3.370000000000000000e+02 2.720698738098144531e+01 -1.222596263885498047e+01 4.318335868447320536e-06 4.922189873468596488e-07 1.443166524950356688e-06 -1.138072107664811483e-07
3.380000000000000000e+02 3.484257888793945312e+01 -1.467898750305175781e+01 -6.606881470361258835e-06 3.070781986025394872e-06 -1.060829845300759189e-06 1.553283709654351696e-06
3.390000000000000000e+02 5.176943206787109375e+01 -1.700060462951660156e+01 2.111768480972386897e-06 5.508819072019832674e-07 7.987950993992853910e-07 -6.376130841090343893e-07
3.400000000000000000e+02 4.438013458251953125e+01 -1.511896133422851562e+01 -7.180643933679675683e-06 1.013220867207564879e-06 -1.850226908572949469e-06 -2.834900897141778842e-06
3.410000000000000000e+02 1.151667118072509766e+01 -1.370287418365478516e+01 2.760911593213677406e-04 7.409336103592067957e-05 1.050553546519950032e-04 -4.714995156973600388e-05
3.420000000000000000e+02 1.147620010375976562e+01 -1.296530151367187500e+01 -2.337905170861631632e-04 5.967708148091332987e-06 -6.834683881606906652e-05 -2.526009848224930465e-05
3.430000000000000000e+02 1.192865848541259766e+01 -1.600372505187988281e+01 8.903955313144251704e-05 1.267106708837673068e-04 6.472506356658414006e-05 -1.118987856898456812e-04
3.440000000000000000e+02 7.890938568115234375e+01 -1.016265296936035156e+01 -4.083536099642515182e-03 -9.299420118331909180e-01 -2.802076637744903564e-01 -1.484459936618804932e-01
3.450000000000000000e+02 7.814872741699218750e+01 -2.914138412475585938e+01 -1.383094349876046181e-03 3.824029408860951662e-05 -4.034562152810394764e-04 4.070237919222563505e-04
3.460000000000000000e+02 7.665632629394531250e+01 -2.920451736450195312e+01 -2.294998383149504662e-03 4.101677332073450089e-04 -5.654491833411157131e-04 9.845471940934658051e-04
3.470000000000000000e+02 7.963536071777343750e+01 -3.149451828002929688e+01 2.170809078961610794e-03 -5.629502702504396439e-04 4.823576309718191624e-04 2.983296872116625309e-04
3.480000000000000000e+02 7.437332153320312500e+01 -2.922860717773437500e+01 -2.803957322612404823e-03 -7.728358614258468151e-04 -1.073037972673773766e-03 2.924226573668420315e-04
3.490000000000000000e+02 7.361327362060546875e+01 -2.923932838439941406e+01 -3.601387375965714455e-03 1.434799632988870144e-03 -6.499763112515211105e-04 -1.149681775132194161e-04
3.500000000000000000e+02 7.288539886474609375e+01 -2.924815177917480469e+01 -4.295824095606803894e-03 -5.320091149769723415e-04 -1.448350027203559875e-03 -1.061838120222091675e-03
3.510000000000000000e+02 7.148506164550781250e+01 -2.923850631713867188e+01 -1.055493950843811035e-03 -1.993743237107992172e-03 -9.147711098194122314e-04 -1.352716004475951195e-03
3.520000000000000000e+02 7.143326568603515625e+01 -3.016941642761230469e+01 -8.024351671338081360e-03 2.117113908752799034e-03 -1.772171352058649063e-03 -2.002222463488578796e-03
3.530000000000000000e+02 6.897555541992187500e+01 -3.195817375183105469e+01 -3.503911569714546204e-02 -1.611365005373954773e-02 -1.534582953900098801e-02 -1.574224419891834259e-02
3.540000000000000000e+02 6.768144226074218750e+01 -3.290963363647460938e+01 -8.307638764381408691e-02 -2.466579712927341461e-02 -3.232265636324882507e-02 -2.987856231629848480e-02
3.550000000000000000e+02 6.629674530029296875e+01 -3.378508758544921875e+01 -1.676053702831268311e-01 -2.665197476744651794e-02 -5.827720463275909424e-02 -3.390605375170707703e-02
3.560000000000000000e+02 6.551264953613281250e+01 -3.413744354248046875e+01 -2.167716473340988159e-01 -8.181609213352203369e-03 -6.748598068952560425e-02 -3.374134376645088196e-02
3.570000000000000000e+02 6.298968124389648438e+01 -3.446328735351562500e+01 -3.771997094154357910e-01 -9.284564293920993805e-03 -1.159452795982360840e-01 -1.727987453341484070e-02
3.580000000000000000e+02 6.220631027221679688e+01 -3.451551818847656250e+01 -3.544140160083770752e-01 1.867184787988662720e-02 -1.007226556539535522e-01 -3.841304779052734375e-02
3.590000000000000000e+02 6.142882537841796875e+01 -3.463460540771484375e+01 -2.556082606315612793e-01 8.122856728732585907e-03 -7.424561679363250732e-02 -6.272053718566894531e-02
3.600000000000000000e+02 6.062166213989257812e+01 -3.487466049194335938e+01 -4.973508417606353760e-02 1.166824251413345337e-01 2.008420228958129883e-02 -1.776750683784484863e-01
3.610000000000000000e+02 5.675465774536132812e+01 -3.259673309326171875e+01 1.112036705017089844e+00 2.656227827072143555e+00 1.130479335784912109e+00 -1.721428632736206055e+00
3.620000000000000000e+02 5.624118423461914062e+01 -3.205605316162109375e+01 1.314440965652465820e+00 5.215685367584228516e+00 1.959037899971008301e+00 -1.502395033836364746e+00
3.630000000000000000e+02 5.521317672729492188e+01 -2.143758964538574219e+01 -2.351200580596923828e+00 -1.762236952781677246e-01 -7.582272291183471680e-01 -1.040371060371398926e+00
3.640000000000000000e+02 5.434917831420898438e+01 -2.093556976318359375e+01 -3.453101158142089844e+00 -4.093219637870788574e-01 -1.158726930618286133e+00 -1.412033081054687500e+00
3.650000000000000000e+02 5.805374526977539062e+01 -2.178355979919433594e+01 -3.997614383697509766e-01 1.113919019699096680e+00 2.142472863197326660e-01 6.320835351943969727e-01
3.660000000000000000e+02 6.107376480102539062e+01 -2.374642372131347656e+01 6.073078632354736328e+00 2.391909360885620117e+00 2.539496421813964844e+00 3.754509210586547852e+00
3.670000000000000000e+02 6.124526214599609375e+01 -1.916489601135253906e+01 -2.283889055252075195e+00 1.419753909111022949e+00 -2.592405378818511963e-01 7.312983274459838867e-01
3.680000000000000000e+02 6.557330322265625000e+01 -2.225126266479492188e+01 1.712652564048767090e+00 6.134799718856811523e-01 6.978397369384765625e-01 1.050256729125976562e+00
3.690000000000000000e+02 6.631276702880859375e+01 -2.188704299926757812e+01 1.364806532859802246e+00 5.399586558341979980e-01 5.714295506477355957e-01 8.907561302185058594e-01
3.700000000000000000e+02 6.710525512695312500e+01 -2.152946472167968750e+01 9.012814164161682129e-01 4.147402346134185791e-01 3.948064744472503662e-01 6.515290141105651855e-01
3.710000000000000000e+02 7.071096801757812500e+01 -2.282400894165039062e+01 -2.094779759645462036e-01 -9.028121083974838257e-02 -8.992775529623031616e-02 1.348283886909484863e-01
3.720000000000000000e+02 7.291046142578125000e+01 -2.545147705078125000e+01 -2.380982786417007446e-02 -5.671688355505466461e-03 -8.844454772770404816e-03 1.651913300156593323e-02
3.730000000000000000e+02 7.508001708984375000e+01 -2.550348281860351562e+01 -3.017598204314708710e-02 8.040880784392356873e-03 -6.640530657023191452e-03 -2.372328890487551689e-03
3.740000000000000000e+02 7.580825805664062500e+01 -2.550565910339355469e+01 -2.400376461446285248e-02 4.828625358641147614e-03 -5.752541590481996536e-03 -7.838518358767032623e-03
3.750000000000000000e+02 7.764924621582031250e+01 -2.151792907714843750e+01 -2.308621257543563843e-02 -3.876568749547004700e-02 -1.855557039380073547e-02 -6.211410090327262878e-02
3.760000000000000000e+02 7.808158874511718750e+01 -2.541607856750488281e+01 -7.403636351227760315e-03 -5.210438743233680725e-03 -3.784222528338432312e-03 -7.380148395895957947e-03
3.770000000000000000e+02 7.956116485595703125e+01 4.205144882202148438e+01 -1.122474297881126404e-02 -3.928764462471008301e-01 -1.212303563952445984e-01 1.279397495090961456e-02
3.780000000000000000e+02 7.828767395019531250e+01 4.014600753784179688e+01 -4.377552121877670288e-02 -2.694813907146453857e-01 -9.397707134485244751e-02 8.300446718931198120e-02
3.790000000000000000e+02 7.826113128662109375e+01 4.101300811767578125e+01 -4.320506379008293152e-02 -2.556074857711791992e-01 -8.964376151561737061e-02 2.903792448341846466e-02
3.800000000000000000e+02 7.945321655273437500e+01 3.956865310668945312e+01 -1.089936215430498123e-02 -4.701283574104309082e-01 -1.443083137273788452e-01 3.269412741065025330e-02
3.810000000000000000e+02 7.842995452880859375e+01 3.849602890014648438e+01 -3.075724281370639801e-02 -4.026483595371246338e-01 -1.300216913223266602e-01 1.281877160072326660e-01
3.820000000000000000e+02 7.959288024902343750e+01 3.559680557250976562e+01 6.864835158921778202e-04 -9.209057092666625977e-01 -2.760657668113708496e-01 6.487116217613220215e-02
3.830000000000000000e+02 7.960571289062500000e+01 3.480372619628906250e+01 -3.673662897199392319e-03 -1.052278399467468262e+00 -3.167856335639953613e-01 6.699609756469726562e-02
3.840000000000000000e+02 7.961373901367187500e+01 3.400877761840820312e+01 5.156930419616401196e-04 -1.192893266677856445e+00 -3.577132523059844971e-01 7.095807790756225586e-02
3.850000000000000000e+02 7.884346008300781250e+01 3.386207962036132812e+01 -8.615530095994472504e-03 -9.851338267326354980e-01 -2.981247901916503906e-01 1.946865320205688477e-01
3.860000000000000000e+02 7.962173461914062500e+01 3.161718177795410156e+01 -1.453045057132840157e-03 -1.649479746818542480e+00 -4.952798187732696533e-01 7.440286874771118164e-02
3.870000000000000000e+02 7.962384796142578125e+01 3.081889533996582031e+01 2.644755411893129349e-03 -1.804498434066772461e+00 -5.405561327934265137e-01 7.362084090709686279e-02
3.880000000000000000e+02 7.962693786621093750e+01 2.841658973693847656e+01 1.082831877283751965e-03 -2.238766670227050781e+00 -6.713051199913024902e-01 6.384143233299255371e-02
3.890000000000000000e+02 7.962870025634765625e+01 2.761569404602050781e+01 4.013018216937780380e-03 -2.365490198135375977e+00 -7.084431648254394531e-01 5.860441923141479492e-02
3.900000000000000000e+02 7.962975311279296875e+01 2.681435012817382812e+01 1.977986190468072891e-03 -2.478571891784667969e+00 -7.429781556129455566e-01 5.170846730470657349e-02
3.910000000000000000e+02 7.963043975830078125e+01 2.601246261596679688e+01 3.747792448848485947e-03 -2.576511383056640625e+00 -7.718290686607360840e-01 4.560532793402671814e-02
3.920000000000000000e+02 7.963132476806640625e+01 2.521088218688964844e+01 2.424914855509996414e-03 -2.659146308898925781e+00 -7.970164418220520020e-01 3.859199583530426025e-02
3.930000000000000000e+02 7.889375305175781250e+01 2.672289085388183594e+01 1.525549683719873428e-02 -1.993370652198791504e+00 -5.934345722198486328e-01 1.353708803653717041e-01
3.940000000000000000e+02 7.963190460205078125e+01 2.440909767150878906e+01 2.949573798105120659e-03 -2.726538419723510742e+00 -8.170766830444335938e-01 3.269851952791213989e-02
3.950000000000000000e+02 7.963153076171875000e+01 2.200386810302734375e+01 2.220229478552937508e-03 -2.845272779464721680e+00 -8.529157042503356934e-01 1.714523322880268097e-02
3.960000000000000000e+02 7.963138580322265625e+01 2.120299911499023438e+01 3.197390833520330489e-05 -2.863541841506958008e+00 -8.590529561042785645e-01 1.436143741011619568e-02
3.970000000000000000e+02 7.963108825683593750e+01 2.040201187133789062e+01 2.063921652734279633e-03 -2.875148534774780273e+00 -8.619254231452941895e-01 1.233540382236242294e-02
3.980000000000000000e+02 7.963065338134765625e+01 1.960072135925292969e+01 -6.170693086460232735e-04 -2.881210565567016602e+00 -8.645482659339904785e-01 1.039656810462474823e-02
3.990000000000000000e+02 7.963011932373046875e+01 1.879891777038574219e+01 1.811641035601496696e-03 -2.882766485214233398e+00 -8.642864227294921875e-01 9.433819912374019623e-03
4.000000000000000000e+02 7.889522552490234375e+01 2.031488990783691406e+01 4.043111577630043030e-03 -2.308763980865478516e+00 -6.914162635803222656e-01 1.831939630210399628e-02
4.010000000000000000e+02 7.962953186035156250e+01 1.799688339233398438e+01 -6.886942428536713123e-04 -2.880518198013305664e+00 -8.643620610237121582e-01 7.889810949563980103e-03
4.020000000000000000e+02 7.962799072265625000e+01 1.558914279937744141e+01 1.463701337343081832e-04 -2.862241983413696289e+00 -8.586286902427673340e-01 9.346659295260906219e-03
4.030000000000000000e+02 7.962835693359375000e+01 1.478752899169921875e+01 -1.726549235172569752e-03 -2.858238458633422852e+00 -8.579894900321960449e-01 1.078567840158939362e-02
4.040000000000000000e+02 7.962882232666015625e+01 1.398570060729980469e+01 -7.621521363034844398e-04 -2.857575654983520508e+00 -8.575013279914855957e-01 1.364387571811676025e-02
4.050000000000000000e+02 7.962940216064453125e+01 1.318335247039794922e+01 -2.091096714138984680e-03 -2.861959695816040039e+00 -8.592151999473571777e-01 1.649240963160991669e-02
4.060000000000000000e+02 7.963011169433593750e+01 1.238101291656494141e+01 -1.112750847823917866e-03 -2.872025012969970703e+00 -8.619413375854492188e-01 2.009043842554092407e-02
4.070000000000000000e+02 7.963079071044921875e+01 1.157893085479736328e+01 -2.119573066011071205e-03 -2.888346433639526367e+00 -8.671397566795349121e-01 2.333876304328441620e-02
4.080000000000000000e+02 7.963138580322265625e+01 1.077700042724609375e+01 -1.302335062064230442e-03 -2.910874366760253906e+00 -8.736530542373657227e-01 2.710136957466602325e-02
4.090000000000000000e+02 7.889794158935546875e+01 1.068284225463867188e+01 -7.280358579009771347e-03 -2.351482391357421875e+00 -7.076288461685180664e-01 4.532960429787635803e-02
4.100000000000000000e+02 7.963176727294921875e+01 8.372053146362304688e+00 -8.119553094729781151e-04 -3.008308410644531250e+00 -9.027361273765563965e-01 3.392342850565910339e-02
4.110000000000000000e+02 7.963256835937500000e+01 7.570743560791015625e+00 4.840565670747309923e-04 -3.044428348541259766e+00 -9.131832718849182129e-01 3.429949283599853516e-02
4.120000000000000000e+02 7.963335418701171875e+01 6.768882751464843750e+00 1.439712825231254101e-03 -3.077275753021240234e+00 -9.227508306503295898e-01 3.208633512258529663e-02
4.130000000000000000e+02 7.963419342041015625e+01 5.966875553131103516e+00 2.125369617715477943e-03 -3.101934432983398438e+00 -9.299427270889282227e-01 2.817581966519355774e-02
4.140000000000000000e+02 7.963486480712890625e+01 5.164830207824707031e+00 2.395281102508306503e-03 -3.115360975265502930e+00 -9.338897466659545898e-01 2.311985939741134644e-02
4.150000000000000000e+02 7.819585418701171875e+01 6.603683948516845703e+00 1.906633749604225159e-02 -1.890649557113647461e+00 -5.614749789237976074e-01 5.832391604781150818e-02
4.160000000000000000e+02 7.963510131835937500e+01 4.362903594970703125e+00 3.601666772738099098e-03 -3.114884853363037109e+00 -9.333849549293518066e-01 1.675443910062313080e-02
4.170000000000000000e+02 7.963283538818359375e+01 1.955729007720947266e+00 2.753239125013351440e-03 -3.017935991287231445e+00 -9.045547842979431152e-01 -4.870434291660785675e-03
4.180000000000000000e+02 7.963304901123046875e+01 1.154585242271423340e+00 5.014600697904825211e-03 -2.951631069183349609e+00 -8.839849233627319336e-01 -1.247709151357412338e-02
4.190000000000000000e+02 7.963304901123046875e+01 3.532518744468688965e-01 2.708632033318281174e-03 -2.868037700653076172e+00 -8.595987558364868164e-01 -2.068545855581760406e-02
4.200000000000000000e+02 7.963279724121093750e+01 -4.485773444175720215e-01 4.050123970955610275e-03 -2.768643379211425781e+00 -8.293779492378234863e-01 -2.704005315899848938e-02
4.210000000000000000e+02 7.963268280029296875e+01 -1.250497341156005859e+00 2.042838139459490776e-03 -2.656409740447998047e+00 -7.963100671768188477e-01 -3.316824883222579956e-02
4.220000000000000000e+02 7.963276672363281250e+01 -2.052506923675537109e+00 3.261576639488339424e-03 -2.533326387405395508e+00 -7.590194344520568848e-01 -3.771793842315673828e-02
4.230000000000000000e+02 7.817944335937500000e+01 -6.132925748825073242e-01 3.360382840037345886e-02 -1.688488125801086426e+00 -4.964652955532073975e-01 -1.896612048149108887e-01
4.240000000000000000e+02 7.963291931152343750e+01 -2.854570388793945312e+00 1.829476561397314072e-03 -2.401480674743652344e+00 -7.198953628540039062e-01 -4.248466342687606812e-02
4.250000000000000000e+02 7.963288116455078125e+01 -5.261423110961914062e+00 1.234812429174780846e-03 -1.970907449722290039e+00 -5.909017920494079590e-01 -5.009496212005615234e-02
4.260000000000000000e+02 7.963367462158203125e+01 -6.062358856201171875e+00 4.641207342501729727e-04 -1.823705077171325684e+00 -5.469722747802734375e-01 -5.087259411811828613e-02
4.270000000000000000e+02 7.963412475585937500e+01 -6.863829612731933594e+00 3.822329163085669279e-04 -1.678083181381225586e+00 -5.033102631568908691e-01 -5.044795200228691101e-02
4.280000000000000000e+02 7.963442993164062500e+01 -7.665465354919433594e+00 1.387577212881296873e-04 -1.535947084426879883e+00 -4.607425034046173096e-01 -4.988346993923187256e-02
4.290000000000000000e+02 7.963468170166015625e+01 -8.467353820800781250e+00 3.250966983614489436e-05 -1.397926211357116699e+00 -4.193681180477142334e-01 -4.876869916915893555e-02
4.300000000000000000e+02 7.890879821777343750e+01 -7.756630897521972656e+00 -8.617256535217165947e-04 -1.248310208320617676e+00 -3.747515678405761719e-01 -1.663113087415695190e-01
4.310000000000000000e+02 7.963482666015625000e+01 -9.269282341003417969e+00 -4.595122300088405609e-04 -1.265184998512268066e+00 -3.796933591365814209e-01 -4.727000370621681213e-02
4.320000000000000000e+02 7.963500213623046875e+01 -1.167579746246337891e+01 -2.416698844172060490e-04 -9.039611816406250000e-01 -2.712608575820922852e-01 -4.137508198618888855e-02
4.330000000000000000e+02 7.963572692871093750e+01 -1.247694110870361328e+01 -9.597862372174859047e-04 -7.971679568290710449e-01 -2.394383251667022705e-01 -3.928696736693382263e-02
4.340000000000000000e+02 7.963616943359375000e+01 -1.327856540679931641e+01 -5.033344496041536331e-04 -6.974656581878662109e-01 -2.093906998634338379e-01 -3.660859912633895874e-02
4.350000000000000000e+02 7.963657379150390625e+01 -1.408034229278564453e+01 -8.398579084314405918e-04 -6.050662398338317871e-01 -1.817718297243118286e-01 -3.444056585431098938e-02
4.360000000000000000e+02 7.963714599609375000e+01 -1.488229179382324219e+01 -7.270806818269193172e-04 -5.196027755737304688e-01 -1.560989618301391602e-01 -3.182476758956909180e-02
4.370000000000000000e+02 7.891530609130859375e+01 -1.417063617706298828e+01 -4.720278084278106689e-03 -4.982294738292694092e-01 -1.508849263191223145e-01 -1.070503443479537964e-01
4.380000000000000000e+02 7.963793945312500000e+01 -1.568409633636474609e+01 -7.928308914415538311e-04 -4.411499202251434326e-01 -1.325828284025192261e-01 -2.955064177513122559e-02
4.390000000000000000e+02 7.963887023925781250e+01 -1.809114074707031250e+01 -7.030298584140837193e-04 -2.449306696653366089e-01 -7.369010895490646362e-02 -2.245924435555934906e-02
4.400000000000000000e+02 7.964009857177734375e+01 -1.889241790771484375e+01 -1.159100444056093693e-03 -1.925323903560638428e-01 -5.810744687914848328e-02 -2.010923624038696289e-02
4.410000000000000000e+02 7.892010498046875000e+01 -1.818470191955566406e+01 -4.929907154291868210e-03 -2.048253864049911499e-01 -6.292659044265747070e-02 -6.769619137048721313e-02
4.420000000000000000e+02 7.964282226562500000e+01 -1.969204521179199219e+01 -8.766388637013733387e-04 -1.466659903526306152e-01 -4.426278546452522278e-02 -1.729774288833141327e-02
4.430000000000000000e+02 7.578870391845703125e+01 -2.476768112182617188e+01 -3.543776646256446838e-02 8.544260635972023010e-03 -8.068052120506763458e-03 -1.345918420702219009e-02
4.440000000000000000e+02 7.963761138916015625e+01 -2.209960937500000000e+01 -1.320624840445816517e-03 -4.691765084862709045e-02 -1.447148341685533524e-02 -9.848109446465969086e-03
4.450000000000000000e+02 7.962830352783203125e+01 -2.290801811218261719e+01 -1.242156024090945721e-03 -2.757502160966396332e-02 -8.645153604447841644e-03 -6.813857704401016235e-03
4.460000000000000000e+02 4.763166606426239014e-01 4.198288345336914062e+01 -2.718434188864193857e-06 4.663086656364612281e-05 1.317373062192928046e-05 1.405490138495224528e-06
4.470000000000000000e+02 5.610494613647460938e-01 4.106307601928710938e+01 -2.376816519245039672e-05 4.496618566918186843e-05 6.359406143019441515e-06 -1.184265056508593261e-05
4.480000000000000000e+02 6.068664073944091797e+00 3.770061111450195312e+01 -3.532102709868922830e-05 1.709541538730263710e-05 -5.467682967719156295e-06 1.481245089962612838e-05
4.490000000000000000e+02 2.751632499694824219e+01 4.094103240966796875e+01 1.270256907446309924e-04 -2.243937051389366388e-04 -2.921040322689805180e-05 -1.403018104610964656e-04
4.500000000000000000e+02 4.963965225219726562e+01 3.700445556640625000e+01 -1.011475338600575924e-03 -2.308257389813661575e-04 -3.726903232745826244e-04 6.599209271371364594e-03
4.510000000000000000e+02 6.466007232666015625e+01 3.945434951782226562e+01 -1.882600933313369751e-01 7.203647494316101074e-01 1.596313863992691040e-01 -1.971002221107482910e-01
4.520000000000000000e+02 7.660260772705078125e+01 4.184293365478515625e+01 -1.092353314161300659e-01 -2.230964787304401398e-02 -3.946349397301673889e-02 3.992045298218727112e-02
4.530000000000000000e+02 7.849277496337890625e+01 4.197762680053710938e+01 -2.119852602481842041e-02 -3.119189739227294922e-01 -9.993525594472885132e-02 -4.338361788541078568e-03
4.540000000000000000e+02 3.880156874656677246e-01 1.893187761306762695e+00 2.484466449459432624e-06 -1.642496982867669431e-07 6.960650011933466885e-07 -2.788439985579316271e-07
4.550000000000000000e+02 1.166898131370544434e+00 1.877953648567199707e+00 -1.772824816725915298e-06 9.147690889221848920e-07 -2.574167012880934635e-07 -6.414570918877871009e-08
4.560000000000000000e+02 1.896099448204040527e+00 2.606411457061767578e+00 -1.694885440883808769e-06 2.182254320359788835e-06 1.462106666849649628e-07 -1.240760411747032776e-06
4.570000000000000000e+02 3.724942505359649658e-01 4.280566692352294922e+00 -4.683758106693858281e-06 2.295709691679803655e-06 -7.164145472415839322e-07 -3.258761864799453178e-07
4.580000000000000000e+02 1.144590973854064941e+00 5.011940956115722656e+00 -4.836782409256557003e-06 4.978424385626567528e-06 4.249269380807163543e-08 -2.252746071462752298e-06
4.590000000000000000e+02 3.856422901153564453e-01 5.888308525085449219e+00 -5.287256954034091905e-06 5.347063051885925233e-06 1.794187376447098359e-08 -7.560535664197232109e-07
4.600000000000000000e+02 3.701984584331512451e-01 8.308424949645996094e+00 5.569283530348911881e-06 1.092169350158656016e-05 4.947292836732231081e-06 -9.563809726387262344e-07
4.610000000000000000e+02 3.633736968040466309e-01 9.116312026977539062e+00 -5.720219178328989074e-06 1.347379293292760849e-05 2.326072262803791091e-06 -1.104424427467165515e-06
4.620000000000000000e+02 3.587537705898284912e-01 9.922108650207519531e+00 5.847361990163335577e-06 1.536049785499926656e-05 6.362357908074045554e-06 -8.540162639292248059e-07
4.630000000000000000e+02 3.561493456363677979e-01 1.072727775573730469e+01 -6.021876743034226820e-06 1.786677603377029300e-05 3.553469923645025119e-06 -1.108478500100318342e-06
4.640000000000000000e+02 3.549134731292724609e-01 1.153139877319335938e+01 6.193838544277241454e-06 1.974318183783907443e-05 7.781106432958040386e-06 -8.145943297677149531e-07
4.650000000000000000e+02 1.064415812492370605e+00 1.150647830963134766e+01 -6.700410267512779683e-06 1.893116314022336155e-05 3.669225861813174561e-06 -3.907193331542657688e-06
4.660000000000000000e+02 3.551912307739257812e-01 1.313974761962890625e+01 6.679508715023985133e-06 2.392796341155190021e-05 9.182241228700149804e-06 -8.241115665441611782e-07
4.670000000000000000e+02 3.566907346248626709e-01 1.555081939697265625e+01 -8.211413842218462378e-06 2.977610347443260252e-05 6.469406798714771867e-06 -5.895544745726510882e-07
4.680000000000000000e+02 3.574811220169067383e-01 1.635524559020996094e+01 8.908260497264564037e-06 3.125186776742339134e-05 1.204803811560850590e-05 -9.971801091523957439e-07
4.690000000000000000e+02 3.578949868679046631e-01 1.715945243835449219e+01 -9.885958206723444164e-06 3.298219962744042277e-05 6.928872153366683051e-06 -2.639302465468063019e-07
4.700000000000000000e+02 3.584729433059692383e-01 1.796304893493652344e+01 1.091745434678159654e-05 3.421939618419855833e-05 1.354105552309192717e-05 -1.131240196627913974e-06
4.710000000000000000e+02 3.595486283302307129e-01 1.876683807373046875e+01 -1.216310374729800969e-05 3.574252332327887416e-05 7.073826054693199694e-06 7.228445753071355284e-08
4.720000000000000000e+02 3.640353083610534668e-01 2.198327255249023438e+01 -1.788930239854380488e-05 3.965855648857541382e-05 6.530776772706303746e-06 5.372367581912840251e-07
4.730000000000000000e+02 3.657774925231933594e-01 2.278683090209960938e+01 1.907263867906294763e-05 3.967784869018942118e-05 1.762514693837147206e-05 -9.960070883607841097e-07
4.740000000000000000e+02 3.678773343563079834e-01 2.359155654907226562e+01 -2.025946014327928424e-05 4.077846824657171965e-05 6.155702976684551686e-06 4.733825278435688233e-07
4.750000000000000000e+02 3.701266646385192871e-01 2.439641761779785156e+01 2.112995207426138222e-05 4.033001823700033128e-05 1.843799145717639476e-05 -5.957773510090191849e-07
4.760000000000000000e+02 3.729802072048187256e-01 2.520118331909179688e+01 -2.200253766204696149e-05 4.124598854104988277e-05 5.773034899902995676e-06 3.258137439843267202e-07
4.770000000000000000e+02 1.112918615341186523e+00 2.437586212158203125e+01 -2.132678673660848290e-05 3.788170579355210066e-05 4.966475444234674796e-06 -1.024767584567598533e-06
4.780000000000000000e+02 3.807766437530517578e-01 2.681286048889160156e+01 -2.332741678401362151e-05 4.102973980479873717e-05 5.310696451488183811e-06 2.115627211196624557e-07
4.790000000000000000e+02 3.973599374294281006e-01 2.923122978210449219e+01 2.649930502229835838e-05 3.875634865835309029e-05 1.957669701369013637e-05 3.673679884741432033e-07
4.800000000000000000e+02 4.087952375411987305e-01 3.004312705993652344e+01 -2.829721233865711838e-05 3.899727380485273898e-05 3.210017894161865115e-06 2.837692534285451984e-07
4.810000000000000000e+02 4.160365462303161621e-01 3.085655021667480469e+01 3.218448182451538742e-05 3.777525489567779005e-05 2.098792174365371466e-05 7.794230150182102079e-09
4.820000000000000000e+02 4.091566205024719238e-01 3.166171646118164062e+01 -3.921276220353320241e-05 3.729213858605362475e-05 -5.761874604104377795e-07 1.601077315172005910e-06
4.830000000000000000e+02 1.240012168884277344e+00 3.171997261047363281e+01 3.516083961585536599e-05 3.207366535207256675e-05 2.017035149037837982e-05 -7.056669346638955176e-07
4.840000000000000000e+02 3.734802901744842529e-01 3.324022293090820312e+01 -5.144385067978873849e-05 3.625310273491777480e-05 -4.557224201562348753e-06 2.411460172879742458e-06
4.850000000000000000e+02 3.987169563770294189e-01 3.559351348876953125e+01 5.789209535578265786e-05 3.632950756582431495e-05 2.826648051268421113e-05 -1.053569940268062055e-05
4.860000000000000000e+02 4.140017628669738770e-01 3.638670730590820312e+01 -5.942140342085622251e-05 3.231371374567970634e-05 -8.132306902552954853e-06 1.140719086833996698e-05
4.870000000000000000e+02 4.402768313884735107e-01 3.718984603881835938e+01 5.651975516229867935e-05 2.923600186477415264e-05 2.572672747191973031e-05 -5.800352028018096462e-06
4.880000000000000000e+02 4.771536886692047119e-01 3.800100708007812500e+01 -4.168178929830901325e-05 3.886195554514415562e-05 -8.459499554192007054e-07 -4.327859642216935754e-06
4.890000000000000000e+02 4.884590208530426025e-01 3.882410049438476562e+01 2.740539821388665587e-05 4.027965769637376070e-05 2.030551695497706532e-05 6.693907721455616411e-07
4.900000000000000000e+02 4.347733259201049805e-01 4.033619308471679688e+01 6.269566802075132728e-05 2.454386776662431657e-05 2.617186146380845457e-05 -1.677224281593225896e-05
4.910000000000000000e+02 9.914361953735351562e+00 1.984290242195129395e+00 1.802767474146094173e-05 1.482907237004837953e-07 5.452789991977624595e-06 -7.721110705460887402e-06
4.920000000000000000e+02 9.059759140014648438e+00 1.934258341789245605e+00 1.094271374313393608e-05 1.007557875709608197e-05 6.305487659119535238e-06 -1.182246705866418779e-05
4.930000000000000000e+02 8.090063095092773438e+00 2.695170164108276367e+00 7.631977496203035116e-06 8.803739547147415578e-06 4.930715476803015918e-06 -1.239732682734029368e-05
4.940000000000000000e+02 7.456187725067138672e+00 1.879088521003723145e+00 8.709653229743707925e-06 6.423383183573605493e-06 4.539911060419399291e-06 -8.813180102151818573e-06
4.950000000000000000e+02 5.090696811676025391e+00 1.850216031074523926e+00 6.602822850254597142e-06 -1.767079311321140267e-06 1.450722947993199341e-06 -2.718335053941700608e-06
4.960000000000000000e+02 4.304620265960693359e+00 1.848886370658874512e+00 1.922102910612011328e-06 3.121785084658768028e-06 1.513166353106498718e-06 -3.603678123909048736e-06
4.970000000000000000e+02 3.518626689910888672e+00 1.851230978965759277e+00 4.273469585314160213e-06 -6.059148063286556862e-07 1.100266445064335130e-06 -2.038667162196361460e-06
4.980000000000000000e+02 1.949413537979125977e+00 1.866378426551818848e+00 2.864184125428437255e-06 1.359937584766157670e-07 9.000533509606611915e-07 -1.172788415715331212e-06
4.990000000000000000e+02 1.317136287689208984e+01 6.830604076385498047e-01 2.171154847019352019e-05 4.448549134394852445e-06 7.848029781598597765e-06 -1.476419765822356567e-05
5.000000000000000000e+02 1.524025726318359375e+01 1.163455724716186523e+00 1.913079177029430866e-05 6.394816409738268703e-06 7.657682544959243387e-06 -1.272292320209089667e-05
5.010000000000000000e+02 1.531972026824951172e+01 -4.701985716819763184e-01 2.043376116489525884e-05 8.471854926028754562e-06 8.671685463923495263e-06 -6.652837782894494012e-06
5.020000000000000000e+02 1.669233703613281250e+01 -1.321303606033325195e+00 2.025805406447034329e-05 7.230652954604011029e-06 8.246612196671776474e-06 -6.392307113856077194e-06
5.030000000000000000e+02 1.798624610900878906e+01 -2.281477689743041992e+00 1.895287459774408489e-05 5.418012278823880479e-06 7.311266017495654523e-06 -5.971670361759606749e-06
5.040000000000000000e+02 1.862713813781738281e+01 -2.774262905120849609e+00 1.700940265436656773e-05 6.100886366766644642e-06 6.933086751814698800e-06 -1.241659902007086203e-05
5.050000000000000000e+02 1.982449531555175781e+01 -3.859022617340087891e+00 1.378463002765784040e-05 5.976393822493264452e-06 5.928307018621126190e-06 -1.035161949403118342e-05
5.060000000000000000e+02 2.097115707397460938e+01 -5.000191211700439453e+00 1.124535810959059745e-05 5.755907750426558778e-06 5.100379894429352134e-06 -8.586339390603825450e-06
5.070000000000000000e+02 2.251297950744628906e+01 -6.858951091766357422e+00 8.735581104701850563e-06 -3.486239847916294821e-07 2.516087079129647464e-06 -4.591299784806324169e-06
5.080000000000000000e+02 2.300390052795410156e+01 -7.498034000396728516e+00 6.509972990897949785e-06 4.556905878416728228e-06 3.320063569844933227e-06 -4.382481165521312505e-06
5.090000000000000000e+02 2.388834762573242188e+01 -8.834733009338378906e+00 4.834851097257342190e-06 3.544986611814238131e-06 2.513951358196209185e-06 -2.353452373426989652e-06
5.100000000000000000e+02 2.430556869506835938e+01 -9.514426231384277344e+00 3.226899480068823323e-06 -9.768228892426122911e-07 6.750229886165470816e-07 -3.574071342882234603e-06
5.110000000000000000e+02 2.471641731262207031e+01 -1.019879055023193359e+01 4.150384029344422743e-06 2.787438461382407695e-06 2.081346792692784220e-06 -1.194764763567945920e-06
5.120000000000000000e+02 2.574482917785644531e+01 -1.224048519134521484e+01 -6.908016985107678920e-07 -4.952555059389851522e-07 -3.558171783879515715e-07 -2.275414772157091647e-06
5.130000000000000000e+02 2.631600761413574219e+01 -1.188187599182128906e+01 3.986840511061018333e-06 1.060770500771468505e-06 1.514283326287113596e-06 -9.669612666129978606e-08
5.140000000000000000e+02 2.638859176635742188e+01 -1.359852886199951172e+01 -1.778872501745354384e-06 -6.625530204473761842e-07 -7.324276793951867148e-07 -1.505720774730434641e-06
5.150000000000000000e+02 2.671517944335937500e+01 -1.427936649322509766e+01 3.224764213882735930e-06 1.429418261977843940e-06 1.396254788232909050e-06 1.648349581273578224e-07
5.160000000000000000e+02 2.705187988281250000e+01 -1.496999168395996094e+01 -1.885555775515967980e-06 -1.444062490918440744e-06 -9.988855254050577059e-07 1.961881963552514208e-07
5.170000000000000000e+02 2.863099861145019531e+01 -1.593062496185302734e+01 5.122220954945078120e-06 2.427481149425148033e-06 2.264910563098965213e-06 1.643029122533334885e-06
5.180000000000000000e+02 3.064019012451171875e+01 -1.696807479858398438e+01 -1.179401124318246730e-06 -3.386060370758059435e-06 -1.369638425785524305e-06 -1.580836965331400279e-06
5.190000000000000000e+02 2.961783218383789062e+01 -1.735222625732421875e+01 -8.589922231294622179e-07 -3.212686124243191443e-06 -1.221503566739556845e-06 -1.527792960587248672e-06
5.200000000000000000e+02 3.106169509887695312e+01 -1.783162879943847656e+01 -7.576962275379628409e-07 -3.711758836288936436e-06 -1.340836547569779214e-06 -1.471598466196155641e-06
5.210000000000000000e+02 3.254489898681640625e+01 -1.806566810607910156e+01 -5.533630087484198157e-07 -3.435738335610949434e-06 -1.196730408992152661e-06 -1.148243768511747476e-06
5.220000000000000000e+02 3.157050132751464844e+01 -1.657127189636230469e+01 -1.253199002348992508e-06 -3.187099991919239983e-06 -1.332089709649153519e-06 -1.725056904433586169e-06
5.230000000000000000e+02 3.340720748901367188e+01 -1.746788215637207031e+01 -1.083303004634217359e-06 -2.350960130570456386e-06 -1.030278895086667035e-06 -1.530266217741882429e-06
5.240000000000000000e+02 3.634385299682617188e+01 -1.819058990478515625e+01 1.936670770419368637e-07 9.343613101009395905e-07 3.384085118796065217e-07 2.415262372323923046e-07
5.250000000000000000e+02 3.700347137451171875e+01 -1.759056282043457031e+01 8.039822319005907048e-07 6.543202744069276378e-07 4.374907689452811610e-07 6.041600499884225428e-07
5.260000000000000000e+02 3.846910476684570312e+01 -1.811328697204589844e+01 1.172834004137257580e-06 -1.527375559362553759e-07 3.060289373024716042e-07 -2.051035608019446954e-08
5.270000000000000000e+02 3.954267501831054688e+01 -1.920096969604492188e+01 -2.413212598639802309e-07 -3.314576417778880568e-07 -1.718336761769023724e-07 -2.673598942237731535e-07
5.280000000000000000e+02 4.054563903808593750e+01 -2.049425125122070312e+01 -4.549341880988322373e-08 -2.985377989261905896e-07 -1.032093663866362476e-07 -1.289308215746132191e-07
5.290000000000000000e+02 4.250816726684570312e+01 -1.981520652770996094e+01 1.153957327915122733e-06 5.014051680518605281e-07 4.966087203683855478e-07 2.189327688029152341e-07
5.300000000000000000e+02 4.603385543823242188e+01 -1.822702980041503906e+01 1.221818820340558887e-06 1.322086404798028525e-06 7.631715561728924513e-07 1.067087055162119213e-06
5.310000000000000000e+02 4.618765640258789062e+01 -1.882523727416992188e+01 -1.128126314142718911e-06 -6.647091481681854930e-07 -5.378506102715618908e-07 -9.757807220012182370e-07
5.320000000000000000e+02 4.767211532592773438e+01 -1.850352096557617188e+01 -1.367372760796570219e-06 -2.507215413061203435e-07 -4.854283019994909409e-07 -9.543063015371444635e-07
5.330000000000000000e+02 4.841556549072265625e+01 -1.834895324707031250e+01 1.361684894618520048e-06 3.035072193569021692e-10 4.085965201738872565e-07 6.384457265085075051e-07
5.340000000000000000e+02 4.915330123901367188e+01 -1.820173072814941406e+01 -1.607848162166192196e-06 8.375923243875149637e-08 -4.572266902869159821e-07 -5.480786171574436594e-07
5.350000000000000000e+02 5.133934402465820312e+01 -1.778405380249023438e+01 1.351535729554598220e-06 1.901930630765491514e-07 4.625186420526006259e-07 -2.597951151983579621e-07
5.360000000000000000e+02 5.205773925781250000e+01 -1.764048194885253906e+01 -1.263087938241369557e-06 -5.772524218627950177e-07 -5.521021080312493723e-07 2.739332956025464227e-07
5.370000000000000000e+02 5.354586791992187500e+01 -1.455868625640869141e+01 -3.031096639460884035e-06 -2.342089373996714130e-06 -1.611955781299911905e-06 -2.753938815658329986e-06
5.380000000000000000e+02 5.408498382568359375e+01 -1.515317916870117188e+01 2.249387307529104874e-06 2.237208491351339035e-06 1.345978716926765628e-06 2.306346004843362607e-06
5.390000000000000000e+02 5.421556091308593750e+01 -1.612420654296875000e+01 5.179400886845542118e-06 1.367042273159313481e-06 1.963932845683302730e-06 2.066891738650156185e-06
5.400000000000000000e+02 5.619552230834960938e+01 -1.657217407226562500e+01 3.531397965161886532e-07 -4.303993591747712344e-06 -1.185256223834585398e-06 -1.738179321364441421e-06
5.410000000000000000e+02 5.877288436889648438e+01 -1.558143806457519531e+01 -2.868133833544561639e-06 3.797870704147499055e-06 2.789210782339068828e-07 1.039068493469130772e-07
5.420000000000000000e+02 5.302394104003906250e+01 -1.397430992126464844e+01 3.575498567442991771e-06 2.265410103063913994e-06 1.752272623889439274e-06 2.891622443712549284e-06
5.430000000000000000e+02 5.256458663940429688e+01 -1.341151905059814453e+01 -3.462675522314384580e-06 -4.553786766336997971e-06 -2.404938641120679677e-06 -2.285699792992090806e-06
5.440000000000000000e+02 5.145833587646484375e+01 -1.096385765075683594e+01 1.603631426405627280e-05 -3.351007649143866729e-07 4.710364464699523523e-06 1.155818381448625587e-06
5.450000000000000000e+02 5.187672424316406250e+01 -1.247942638397216797e+01 1.402104680892080069e-05 -2.938930379059456754e-07 4.118146080145379528e-06 9.813606993702705950e-07
5.460000000000000000e+02 5.024417495727539062e+01 -9.472405433654785156e+00 -1.929154313984327018e-05 -2.096330291578851757e-07 -5.850352408742764965e-06 -2.097100605169543996e-06
5.470000000000000000e+02 5.082627868652343750e+01 -1.176148796081542969e+01 1.481088202126557007e-05 -3.078443171489197994e-07 4.350911240180721506e-06 1.460148951082373969e-06
5.480000000000000000e+02 5.076077651977539062e+01 -8.673211097717285156e+00 -2.057495476037729532e-05 -4.167809208865946857e-07 -6.297520485532004386e-06 -1.235757281392579898e-06
5.490000000000000000e+02 5.053752517700195312e+01 -7.907552242279052734e+00 2.250194302177987993e-05 -1.378944602947740350e-07 6.709214630973292515e-06 1.866943080131022725e-06
5.500000000000000000e+02 5.030088806152343750e+01 -7.151261329650878906e+00 -2.499561378499493003e-05 -8.634464165879762731e-07 -7.757717867207247764e-06 -2.393979002590640448e-06
5.510000000000000000e+02 4.980319595336914062e+01 -5.645953178405761719e+00 -3.031227424798998982e-05 -1.258700535800016951e-06 -9.471292287344112992e-06 -4.473506578506203368e-06
5.520000000000000000e+02 4.905722808837890625e+01 -3.387471199035644531e+00 4.419518518261611462e-05 2.693361011552042328e-06 1.406656429026043043e-05 1.009190600598230958e-05
5.530000000000000000e+02 4.859167480468750000e+01 -4.252746582031250000e+00 3.574544825823977590e-05 5.001615591027075425e-06 1.222411992785055190e-05 1.208406865771394223e-05
5.540000000000000000e+02 4.806244277954101562e+01 -2.796742439270019531e+00 4.452401844901032746e-05 7.520017334172734991e-06 1.561321005283389241e-05 1.688695920165628195e-05
5.550000000000000000e+02 4.820145416259765625e+01 -1.176644206047058105e+00 -6.218718044692650437e-05 -6.487244263553293422e-06 -2.060232691292185336e-05 -1.846961276896763593e-05
5.560000000000000000e+02 4.751926422119140625e+01 2.445103526115417480e-01 -7.327372441068291664e-05 -9.221975233231205493e-06 -2.474870962032582611e-05 -2.662121369212400168e-05
5.570000000000000000e+02 4.715472412109375000e+01 9.526607394218444824e-01 7.974731124704703689e-05 1.204247928399126977e-05 2.753693661361467093e-05 2.888795279432088137e-05
5.580000000000000000e+02 4.679691314697265625e+01 1.666643142700195312e+00 -8.635727863293141127e-05 -1.031684860208770260e-05 -2.900223807955626398e-05 -3.230707079637795687e-05
5.590000000000000000e+02 4.494032669067382812e+01 3.510671854019165039e+00 -9.385393786942586303e-05 -1.237094602402066812e-05 -3.186746471328660846e-05 -4.026060560136102140e-05
5.600000000000000000e+02 4.486178970336914062e+01 5.159334659576416016e+00 1.237108954228460789e-04 2.456804941175505519e-05 4.448368053999729455e-05 4.332284879637882113e-05
5.610000000000000000e+02 4.446131515502929688e+01 5.854366302490234375e+00 -1.300086005358025432e-04 -6.739613581885350868e-06 -4.102446109754964709e-05 -5.179192885407246649e-05
5.620000000000000000e+02 4.407950210571289062e+01 6.563246726989746094e+00 1.436535821994766593e-04 2.888942253775894642e-05 5.176290142117068172e-05 4.295883991289883852e-05
5.630000000000000000e+02 4.372681808471679688e+01 7.287606239318847656e+00 -1.497912599006667733e-04 3.606170594139257446e-06 -4.385552529129199684e-05 -5.387100463849492371e-05
5.640000000000000000e+02 4.309184646606445312e+01 8.765397071838378906e+00 -1.689524360699579120e-04 2.388779648754280061e-05 -4.351939060143195093e-05 -5.531611532205715775e-05
5.650000000000000000e+02 4.261773300170898438e+01 1.031908893585205078e+01 -1.827158412197604775e-04 6.553353887284174562e-05 -3.515469143167138100e-05 -3.073895641136914492e-05
5.660000000000000000e+02 4.249309921264648438e+01 1.275759983062744141e+01 2.232288679806515574e-04 8.547401375835761428e-05 9.261086961487308145e-05 7.149126304284436628e-06
5.670000000000000000e+02 4.261386489868164062e+01 1.437257575988769531e+01 2.544530725572258234e-04 9.695217158878222108e-05 1.054215754265896976e-04 -8.418027164225350134e-07
5.680000000000000000e+02 4.274308395385742188e+01 1.598714447021484375e+01 2.888205635827034712e-04 1.296819682465866208e-04 1.255507668247446418e-04 -1.402472571498947218e-05
5.690000000000000000e+02 4.288688659667968750e+01 1.678904151916503906e+01 -2.855415514204651117e-04 1.252141664735972881e-04 -4.809821621165610850e-05 8.111829083645716310e-05
5.700000000000000000e+02 4.346704483032226562e+01 1.915331840515136719e+01 3.477410646155476570e-04 1.590673637110739946e-04 1.520425284979864955e-04 -5.424175105872564018e-05
5.710000000000000000e+02 4.393563079833984375e+01 2.071257972717285156e+01 3.512493858579546213e-04 1.681121357250958681e-04 1.558084477437660098e-04 -8.896547660697251558e-05
5.720000000000000000e+02 4.479608154296875000e+01 2.301956176757812500e+01 -3.204158565495163202e-04 -2.844729897333309054e-05 -1.046589459292590618e-04 1.786213979357853532e-04
5.730000000000000000e+02 4.553958511352539062e+01 2.449066543579101562e+01 -3.852634399663656950e-04 -1.642201677896082401e-04 -1.648450852371752262e-04 1.574943744344636798e-04
5.740000000000000000e+02 4.515591812133789062e+01 2.376128959655761719e+01 2.729317639023065567e-04 1.346564822597429156e-04 1.222764694830402732e-04 -2.101226127706468105e-04
5.750000000000000000e+02 4.676474380493164062e+01 2.662427711486816406e+01 1.120787128456868231e-04 -2.030659925367217511e-05 2.753163425950333476e-05 -6.486352649517357349e-04
5.760000000000000000e+02 4.718688964843750000e+01 2.732563781738281250e+01 -9.225176763720810413e-04 -8.225468918681144714e-04 -5.235193530097603798e-04 -4.850347249885089695e-05
5.770000000000000000e+02 4.763793182373046875e+01 2.800413322448730469e+01 -4.092528834007680416e-04 -1.825014187488704920e-04 -1.775262935552746058e-04 -1.110930577851831913e-03
5.780000000000000000e+02 4.813922500610351562e+01 2.864187049865722656e+01 -1.523527665995061398e-03 -1.266848645173013210e-03 -8.371128933504223824e-04 -4.843481583520770073e-04
5.790000000000000000e+02 4.856771087646484375e+01 3.062136840820312500e+01 -3.266250481829047203e-03 2.094192896038293839e-04 -9.170493576675653458e-04 -2.269656164571642876e-03
5.800000000000000000e+02 5.027174377441406250e+01 3.105113220214843750e+01 -5.015725269913673401e-03 -3.121947403997182846e-03 -2.441301709040999413e-03 -2.279810374602675438e-03
5.810000000000000000e+02 5.141660308837890625e+01 3.216680526733398438e+01 -9.016049094498157501e-03 -4.552172962576150894e-03 -4.070466849952936172e-03 -4.927784670144319534e-03
5.820000000000000000e+02 5.329038619995117188e+01 3.362649917602539062e+01 -2.788541093468666077e-02 -6.014899816364049911e-03 -1.017009373754262924e-02 -1.063268259167671204e-02
5.830000000000000000e+02 6.098826980590820312e+01 3.521689224243164062e+01 -1.031093206256628036e-02 1.268578134477138519e-02 7.124546682462096214e-04 -2.546719461679458618e-02
5.840000000000000000e+02 6.361751937866210938e+01 3.480996704101562500e+01 3.316003382205963135e-01 3.613044619560241699e-01 2.078714370727539062e-01 -3.504411578178405762e-01
5.850000000000000000e+02 6.496585083007812500e+01 3.362543869018554688e+01 6.007673144340515137e-01 7.033771276473999023e-01 3.912433385848999023e-01 -6.381754279136657715e-01
5.860000000000000000e+02 6.665760803222656250e+01 3.185677909851074219e+01 8.135984539985656738e-01 1.316853046417236328e+00 6.391354203224182129e-01 -1.022448897361755371e+00
5.870000000000000000e+02 6.719768524169921875e+01 3.124730491638183594e+01 9.350709915161132812e-01 1.636587738990783691e+00 7.714976072311401367e-01 -1.203249931335449219e+00
5.880000000000000000e+02 6.772118377685546875e+01 3.061525154113769531e+01 1.059247970581054688e+00 2.234053134918212891e+00 9.879903197288513184e-01 -1.433429121971130371e+00
5.890000000000000000e+02 6.857696533203125000e+01 2.919939041137695312e+01 8.069163560867309570e-01 3.817570924758911133e+00 1.387346148490905762e+00 -1.497247338294982910e+00
5.900000000000000000e+02 6.946041870117187500e+01 2.603794670104980469e+01 2.328622192144393921e-01 4.946800708770751953e+00 1.553898930549621582e+00 -7.374472618103027344e-01
5.910000000000000000e+02 6.965065002441406250e+01 2.441166305541992188e+01 1.226053237915039062e-01 5.122579097747802734e+00 1.573555350303649902e+00 -3.647544682025909424e-01
5.920000000000000000e+02 6.969022369384765625e+01 2.359710121154785156e+01 8.842335641384124756e-02 5.063660144805908203e+00 1.545624971389770508e+00 -1.539448499679565430e-01
5.930000000000000000e+02 6.969705963134765625e+01 2.278668975830078125e+01 5.763191264122724533e-03 4.821934700012207031e+00 1.448309421539306641e+00 -5.771807953715324402e-02
5.940000000000000000e+02 6.969872283935546875e+01 2.197859191894531250e+01 9.990006685256958008e-03 4.736154079437255859e+00 1.423843264579772949e+00 -3.904336690902709961e-02
5.950000000000000000e+02 6.969835662841796875e+01 1.795499992370605469e+01 -9.548032539896667004e-05 4.686264038085937500e+00 1.405850648880004883e+00 -1.036087423563003540e-02
5.960000000000000000e+02 6.969856262207031250e+01 1.715069961547851562e+01 2.561899367719888687e-03 4.705842971801757812e+00 1.412521481513977051e+00 -7.021571975201368332e-03
5.970000000000000000e+02 7.039578247070312500e+01 1.643763351440429688e+01 1.731237955391407013e-02 4.183749675750732422e+00 1.260318636894226074e+00 2.521930076181888580e-02
5.980000000000000000e+02 6.969719696044921875e+01 1.634442138671875000e+01 3.362660063430666924e-03 4.741969585418701172e+00 1.423599600791931152e+00 1.970578750842832960e-06
5.990000000000000000e+02 6.969255065917968750e+01 1.553697013854980469e+01 8.070078678429126740e-03 4.795556545257568359e+00 1.441088080406188965e+00 1.417137123644351959e-02
6.000000000000000000e+02 6.968414306640625000e+01 1.472678184509277344e+01 4.162597283720970154e-02 4.968130111694335938e+00 1.502926945686340332e+00 7.824164628982543945e-02
6.010000000000000000e+02 6.946965026855468750e+01 1.233326625823974609e+01 -1.250802576541900635e-01 3.657784461975097656e+00 1.059811234474182129e+00 2.155023068189620972e-01
6.020000000000000000e+02 7.029118347167968750e+01 1.319196128845214844e+01 -1.282479614019393921e-02 3.954970121383666992e+00 1.182643532752990723e+00 -7.542625069618225098e-02
6.030000000000000000e+02 6.944616699218750000e+01 1.154192256927490234e+01 -1.112742051482200623e-01 3.561383724212646484e+00 1.035032868385314941e+00 -3.098334744572639465e-02
6.040000000000000000e+02 6.947668457031250000e+01 1.075057411193847656e+01 -1.086628213524818420e-01 3.562600135803222656e+00 1.036181211471557617e+00 -2.679322361946105957e-01
6.050000000000000000e+02 6.982523345947265625e+01 8.374422073364257812e+00 1.183018013834953308e-01 4.866618156433105469e+00 1.495476007461547852e+00 -6.942584514617919922e-01
6.060000000000000000e+02 6.999427795410156250e+01 6.760216236114501953e+00 1.252739578485488892e-01 5.584433555603027344e+00 1.712912321090698242e+00 -2.141503840684890747e-01
6.070000000000000000e+02 7.071565246582031250e+01 3.564431667327880859e+00 7.559116184711456299e-02 4.616590499877929688e+00 1.407654404640197754e+00 9.093920141458511353e-02
6.080000000000000000e+02 7.061856079101562500e+01 1.887872815132141113e+00 3.399499654769897461e-01 4.627585411071777344e+00 1.490260601043701172e+00 3.147180080413818359e-01
6.090000000000000000e+02 7.000087738037109375e+01 2.711953163146972656e+00 6.456579267978668213e-02 5.508047580718994141e+00 1.671784043312072754e+00 1.002241745591163635e-01
6.100000000000000000e+02 6.996157073974609375e+01 1.894067406654357910e+00 1.782739609479904175e-01 5.780364513397216797e+00 1.787591576576232910e+00 3.784502148628234863e-01
6.110000000000000000e+02 6.986377716064453125e+01 1.080668568611145020e+00 2.499695718288421631e-01 5.593172550201416016e+00 1.752942562103271484e+00 7.377904653549194336e-01
6.120000000000000000e+02 6.882521057128906250e+01 -2.843550920486450195e+00 3.391854465007781982e-01 3.689125061035156250e+00 1.208493113517761230e+00 1.076884150505065918e+00
6.130000000000000000e+02 6.907438659667968750e+01 -2.072371006011962891e+00 3.207477629184722900e-01 3.901893854141235352e+00 1.266792535781860352e+00 1.104613065719604492e+00
6.140000000000000000e+02 6.856360626220703125e+01 -3.612109184265136719e+00 4.065796136856079102e-01 3.528189182281494141e+00 1.180430650711059570e+00 1.110405921936035156e+00
6.150000000000000000e+02 6.796646881103515625e+01 -5.119608402252197266e+00 4.488142430782318115e-01 2.957522153854370117e+00 1.021900892257690430e+00 1.113006234169006348e+00
6.160000000000000000e+02 6.730421447753906250e+01 -6.592862606048583984e+00 4.532662332057952881e-01 2.458957433700561523e+00 8.736671209335327148e-01 1.037708997726440430e+00
6.170000000000000000e+02 6.625291442871093750e+01 -8.782258987426757812e+00 5.104756355285644531e-01 1.980354785919189453e+00 7.472491264343261719e-01 9.496065974235534668e-01
6.180000000000000000e+02 6.586817169189453125e+01 -9.501273155212402344e+00 4.492934346199035645e-01 1.718485236167907715e+00 6.503335833549499512e-01 8.816462159156799316e-01
6.190000000000000000e+02 6.547904968261718750e+01 -1.022829055786132812e+01 4.460076689720153809e-01 1.575238227844238281e+00 6.063737869262695312e-01 8.157683014869689941e-01
6.200000000000000000e+02 6.504815673828125000e+01 -1.098461055755615234e+01 4.548720717430114746e-01 1.408304333686828613e+00 5.589529275894165039e-01 7.657819986343383789e-01
6.210000000000000000e+02 6.479468536376953125e+01 -1.233450126647949219e+01 1.549966037273406982e-01 1.137864947319030762e+00 3.878584802150726318e-01 4.716861248016357422e-01
6.220000000000000000e+02 6.446571350097656250e+01 -1.168506908416748047e+01 4.842730164527893066e-01 1.158347129821777344e+00 4.927860498428344727e-01 6.761290431022644043e-01
6.230000000000000000e+02 6.302455902099609375e+01 -1.724367141723632812e+01 -1.588730692863464355e+00 1.267437100410461426e+00 -9.638807177543640137e-02 2.478009313344955444e-01
6.240000000000000000e+02 6.294088363647460938e+01 -1.615242958068847656e+01 -1.204537391662597656e+00 8.741342425346374512e-01 -9.912093728780746460e-02 -1.712240278720855713e-01
6.250000000000000000e+02 6.251060104370117188e+01 -1.683902549743652344e+01 -1.704868674278259277e+00 1.061273455619812012e+00 -1.930785775184631348e-01 -7.030048966407775879e-02
6.260000000000000000e+02 6.205326461791992188e+01 -1.752748298645019531e+01 -2.091491460800170898e+00 1.045504689216613770e+00 -3.137960135936737061e-01 7.878043502569198608e-02
6.270000000000000000e+02 5.895075225830078125e+01 -2.027854919433593750e+01 -2.505073785781860352e+00 6.663259863853454590e-01 -5.516243577003479004e-01 1.941299885511398315e-01
6.280000000000000000e+02 5.932682418823242188e+01 -1.958393859863281250e+01 -3.163257360458374023e+00 4.420310854911804199e-01 -8.163678646087646484e-01 -6.452039815485477448e-03
6.290000000000000000e+02 5.999948501586914062e+01 -1.911467742919921875e+01 -3.230424642562866211e+00 5.734784007072448730e-01 -7.970839142799377441e-01 4.754812642931938171e-02
6.300000000000000000e+02 5.740177917480468750e+01 -2.025933837890625000e+01 -3.413448572158813477e+00 -1.895222365856170654e-01 -1.080891251564025879e+00 -7.027145624160766602e-01
6.310000000000000000e+02 5.786771774291992188e+01 -2.638381767272949219e+01 4.541700839996337891e+00 5.348279476165771484e+00 2.966994047164916992e+00 4.550496578216552734e+00
6.320000000000000000e+02 5.285136032104492188e+01 -2.123017120361328125e+01 -3.145402908325195312e+00 -4.132303595542907715e-01 -1.067589998245239258e+00 -1.507709741592407227e+00
6.330000000000000000e+02 5.360072326660156250e+01 -2.108320426940917969e+01 -3.349001884460449219e+00 -4.411506652832031250e-01 -1.137045741081237793e+00 -1.496847748756408691e+00
6.340000000000000000e+02 5.064180755615234375e+01 -2.165754318237304688e+01 -2.445533514022827148e+00 -4.769382476806640625e-01 -8.767415285110473633e-01 -1.461512088775634766e+00
6.350000000000000000e+02 4.990970993041992188e+01 -2.180146980285644531e+01 -2.186694622039794922e+00 -4.537862241268157959e-01 -7.921442389488220215e-01 -1.417249798774719238e+00
6.360000000000000000e+02 4.918463516235351562e+01 -2.194601631164550781e+01 -1.925114870071411133e+00 -4.744056463241577148e-01 -7.198561429977416992e-01 -1.363972425460815430e+00
6.370000000000000000e+02 4.703513336181640625e+01 -2.239069557189941406e+01 -1.180958032608032227e+00 -4.476899802684783936e-01 -4.885943830013275146e-01 -1.155979990959167480e+00
6.380000000000000000e+02 4.775018310546875000e+01 -2.223950767517089844e+01 -1.422133564949035645e+00 -4.619153141975402832e-01 -5.652146339416503906e-01 -1.240520477294921875e+00
6.390000000000000000e+02 4.563472366333007812e+01 -2.275877380371093750e+01 -7.256824374198913574e-01 -4.822250306606292725e-01 -3.623722493648529053e-01 -9.841469526290893555e-01
6.400000000000000000e+02 4.422395324707031250e+01 -2.316509246826171875e+01 -3.415617346763610840e-01 -5.247144103050231934e-01 -2.598828375339508057e-01 -7.304235696792602539e-01
6.410000000000000000e+02 4.272789001464843750e+01 -2.400274085998535156e+01 -6.754993647336959839e-02 -6.914663910865783691e-01 -2.277048975229263306e-01 -4.303641319274902344e-01
6.420000000000000000e+02 4.493508911132812500e+01 -2.296341705322265625e+01 -5.081987380981445312e-01 -5.292442440986633301e-01 -3.112328946590423584e-01 -8.789635300636291504e-01
6.430000000000000000e+02 4.605092620849609375e+01 -2.413294601440429688e+01 -3.909533619880676270e-01 -7.143365144729614258e-01 -3.315869569778442383e-01 -1.249896407127380371e+00
6.440000000000000000e+02 4.207054901123046875e+01 -2.896263885498046875e+01 -6.803439259529113770e-01 -3.741448879241943359e+00 -1.326537847518920898e+00 -1.164623141288757324e+00
6.450000000000000000e+02 3.961685943603515625e+01 -3.165252304077148438e+01 -1.204352855682373047e+00 -7.887817621231079102e-01 -5.979403853416442871e-01 -8.751921057701110840e-01
6.460000000000000000e+02 3.887383651733398438e+01 -3.203052902221679688e+01 -1.022158861160278320e+00 -4.416902363300323486e-01 -4.391547441482543945e-01 -6.452428102493286133e-01
6.470000000000000000e+02 3.811260223388671875e+01 -3.233763122558593750e+01 -8.409165740013122559e-01 -3.174927234649658203e-01 -3.475227952003479004e-01 -4.518688619136810303e-01
6.480000000000000000e+02 3.649675369262695312e+01 -3.268745803833007812e+01 -3.951914310455322266e-01 -7.374273985624313354e-02 -1.406802535057067871e-01 -1.498742848634719849e-01
6.490000000000000000e+02 3.242142486572265625e+01 -3.225683593750000000e+01 6.513581424951553345e-02 9.593999013304710388e-03 2.241894416511058807e-02 -2.119445241987705231e-02
6.500000000000000000e+02 3.084839248657226562e+01 -3.187240791320800781e+01 7.359849661588668823e-02 3.579443553462624550e-03 2.315338142216205597e-02 -1.487556938081979752e-02
6.510000000000000000e+02 2.930373382568359375e+01 -3.308858489990234375e+01 3.134899213910102844e-02 -6.696398369967937469e-03 7.395777385681867599e-03 -6.797212176024913788e-03
6.520000000000000000e+02 2.771934890747070312e+01 -3.144589042663574219e+01 7.412842661142349243e-02 1.251066802069544792e-03 2.261384762823581696e-02 -4.407149739563465118e-03
6.530000000000000000e+02 2.852539443969726562e+01 -3.149802970886230469e+01 7.552897185087203979e-02 -2.307234564796090126e-03 2.196652069687843323e-02 -6.674921140074729919e-03
6.540000000000000000e+02 2.692018508911132812e+01 -3.136437988281250000e+01 7.037042081356048584e-02 -1.447308924980461597e-03 2.067693322896957397e-02 -3.990380093455314636e-03
6.550000000000000000e+02 2.373799514770507812e+01 -3.113113594055175781e+01 4.710206389427185059e-02 -3.386599943041801453e-03 1.311463955789804459e-02 7.929872372187674046e-04
6.560000000000000000e+02 2.213622093200683594e+01 -3.111410331726074219e+01 3.818780556321144104e-02 -2.764846431091427803e-03 1.062688790261745453e-02 2.493899781256914139e-03
6.570000000000000000e+02 2.133827018737792969e+01 -3.114314842224121094e+01 3.648266568779945374e-02 2.437875373288989067e-03 1.167616154998540878e-02 3.507435321807861328e-03
6.580000000000000000e+02 2.045292663574218750e+01 -3.209803009033203125e+01 2.609335631132125854e-02 1.870187232270836830e-03 8.389063179492950439e-03 6.806029006838798523e-03
6.590000000000000000e+02 1.973643875122070312e+01 -3.114913558959960938e+01 2.899619191884994507e-02 1.025661476887762547e-03 9.006556123495101929e-03 2.132638823240995407e-03
6.600000000000000000e+02 1.812165260314941406e+01 -3.115464591979980469e+01 2.311399951577186584e-02 1.748832291923463345e-03 7.458849810063838959e-03 1.106298761442303658e-03
6.610000000000000000e+02 1.722334480285644531e+01 -3.208835601806640625e+01 1.485850661993026733e-02 2.035968471318483353e-03 5.068342667073011398e-03 3.906802274286746979e-03
6.620000000000000000e+02 1.485399723052978516e+01 -3.063273048400878906e+01 9.163447655737400055e-03 1.674207276664674282e-03 3.251296468079090118e-03 -3.424525493755936623e-04
6.630000000000000000e+02 1.330205821990966797e+01 -2.995994377136230469e+01 4.181371070444583893e-03 1.174243399873375893e-03 1.606684410944581032e-03 -2.968025801237672567e-04
6.640000000000000000e+02 1.074030876159667969e+01 -2.782883834838867188e+01 4.210569022689014673e-04 1.974206825252622366e-04 1.855432783486321568e-04 4.338796425145119429e-04
6.650000000000000000e+02 1.018742847442626953e+01 -2.722498130798339844e+01 -4.821376351173967123e-04 -4.457428294699639082e-04 -2.783641393762081861e-04 -2.464651188347488642e-04
6.660000000000000000e+02 9.191531181335449219e+00 -2.591518592834472656e+01 -5.943541182205080986e-04 -2.910327166318893433e-04 -2.656160504557192326e-04 -8.280557813122868538e-05
6.670000000000000000e+02 8.836871147155761719e+00 -2.176323509216308594e+01 3.665746771730482578e-04 -2.510010745027102530e-05 1.024423690978437662e-04 -7.665678276680409908e-05
6.680000000000000000e+02 9.311164855957031250e+00 -2.013823699951171875e+01 3.702149260789155960e-04 1.850020998972468078e-05 1.166145448223687708e-04 -1.520653313491493464e-04
6.690000000000000000e+02 1.048968601226806641e+01 -1.797619438171386719e+01 -2.402220998192206025e-04 -1.504607644164934754e-04 -1.172048578155227005e-04 1.936490443767979741e-04
6.700000000000000000e+02 1.090556621551513672e+01 -1.728275108337402344e+01 1.901050563901662827e-04 1.428312243660911918e-04 9.988088277168571949e-05 -1.654499646974727511e-04
6.710000000000000000e+02 1.256280994415283203e+01 -1.546496868133544922e+01 -9.206856339005753398e-05 -1.186232620966620743e-04 -6.320754619082435966e-05 8.791263826424255967e-05
6.720000000000000000e+02 1.324849605560302734e+01 -1.497786712646484375e+01 6.080926686991006136e-05 1.145218120655044913e-04 5.259932368062436581e-05 -1.006512466119602323e-04
6.730000000000000000e+02 1.396786308288574219e+01 -1.454030323028564453e+01 -3.397891123313456774e-05 -1.461013307562097907e-04 -5.402407259680330753e-05 8.573557715862989426e-05
6.740000000000000000e+02 1.361276245117187500e+01 -1.386486053466796875e+01 -1.829912889661500230e-06 1.014669687720015645e-04 2.989111635542940348e-05 -3.804962398135103285e-05
6.750000000000000000e+02 1.878012657165527344e+01 -8.019041061401367188e+00 3.240804289816878736e-05 1.991441240534186363e-05 1.569673622725531459e-05 1.456890458939597011e-05
6.760000000000000000e+02 2.028224563598632812e+01 -1.103731250762939453e+01 4.135289054829627275e-05 1.303556382481474429e-05 1.631653685763012618e-05 9.760952707438264042e-06
6.770000000000000000e+02 2.125194549560546875e+01 -1.260505485534667969e+01 -2.844840309990104288e-05 -3.144009679090231657e-05 -1.796654942154418677e-05 3.034713017768808641e-06
6.780000000000000000e+02 2.258229637145996094e+01 -1.396942424774169922e+01 -3.280464443378150463e-05 -1.007416813081363216e-05 -1.286364386032801121e-05 -9.020183824759442359e-06
6.790000000000000000e+02 2.278773498535156250e+01 -1.443043327331542969e+01 1.425652044417802244e-05 1.983272522920742631e-05 1.022677315631881356e-05 1.994514377656741999e-06
6.800000000000000000e+02 2.190703773498535156e+01 -1.390164470672607422e+01 3.825236854027025402e-05 9.463445849178242497e-07 1.175961369881406426e-05 1.006802449410315603e-05
6.810000000000000000e+02 2.235486984252929688e+01 -1.348338222503662109e+01 4.084917236468754709e-05 1.918987663884763606e-06 1.283044730371329933e-05 6.933144959475612268e-06
6.820000000000000000e+02 2.154193496704101562e+01 -1.307117843627929688e+01 3.360182745382189751e-05 -7.305802114387915935e-07 9.861373655439820141e-06 -5.370823146222392097e-06
6.830000000000000000e+02 2.155123329162597656e+01 -1.193358325958251953e+01 -3.078242662013508379e-05 -1.780118509486783296e-05 -1.457508278690511361e-05 -2.611715672173886560e-06
6.840000000000000000e+02 2.046370124816894531e+01 -1.019664001464843750e+01 3.717101571965031326e-05 1.351115224679233506e-05 1.520465048088226467e-05 1.407997206115396693e-05
6.850000000000000000e+02 2.083160591125488281e+01 -1.077652263641357422e+01 -3.892729364451952279e-05 -1.361599606752861291e-05 -1.576298745931126177e-05 -1.502251870988402516e-05
6.860000000000000000e+02 2.119582748413085938e+01 -1.135632801055908203e+01 3.436505721765570343e-05 1.979001535801216960e-05 1.624652213649824262e-05 1.210018399433465675e-05
6.870000000000000000e+02 1.696758079528808594e+01 -7.871653079986572266e+00 3.987889795098453760e-05 2.310530362592544407e-05 1.889525992737617344e-05 1.109557888412382454e-05
6.880000000000000000e+02 1.684979438781738281e+01 -6.051215648651123047e+00 2.824234252329915762e-05 2.608853901620022953e-05 1.629926373425405473e-05 1.748148861224763095e-05
6.890000000000000000e+02 1.734434700012207031e+01 -6.529129505157470703e+00 -2.885394314944278449e-05 -2.489999496901873499e-05 -1.612618143553845584e-05 -1.711339245957788080e-05
6.900000000000000000e+02 1.435554599761962891e+01 -4.910483837127685547e+00 -3.145421578665263951e-05 -2.865800706786103547e-05 -1.803366649255622178e-05 -1.384315055474871770e-05
6.910000000000000000e+02 1.523421287536621094e+01 -4.771539688110351562e+00 -2.662780934770125896e-05 -2.944703192042652518e-05 -1.682245238043833524e-05 -1.702480039966758341e-05
6.920000000000000000e+02 1.467826557159423828e+01 -4.366862773895263672e+00 2.553011472627986223e-05 3.113106868113391101e-05 1.699835593171883374e-05 1.604089447937440127e-05
6.930000000000000000e+02 1.169080638885498047e+01 -2.696263790130615234e+00 -2.210730417573358864e-05 -3.367873432580381632e-05 -1.673581209615804255e-05 -1.558383519295603037e-05
6.940000000000000000e+02 1.229376792907714844e+01 -2.982243299484252930e+00 2.222695547970943153e-05 3.351114355609752238e-05 1.672142934694420546e-05 1.406933188263792545e-05
6.950000000000000000e+02 1.048300361633300781e+01 -2.215528249740600586e+00 -2.215386848547495902e-05 -3.367704630363732576e-05 -1.674927443673368543e-05 -1.499255267845001072e-05
6.960000000000000000e+02 9.873929023742675781e+00 -2.000132083892822266e+00 2.584167123131919652e-05 3.250605368521064520e-05 1.750431692926213145e-05 1.454294124414445832e-05
6.970000000000000000e+02 7.624064922332763672e+00 -1.842509865760803223e+00 -1.721621811157092452e-05 -2.389822475379332900e-05 -1.233433249581139535e-05 -1.793630508473142982e-05
6.980000000000000000e+02 8.992309570312500000e+00 -2.604085445404052734e+00 2.481887349858880043e-05 2.756516732915770262e-05 1.571521170262712985e-05 1.892849286377895623e-05
6.990000000000000000e+02 8.415693283081054688e+00 -1.850427389144897461e+00 1.660843008721712977e-05 2.641820174176245928e-05 1.290798900299705565e-05 1.623003299755509943e-05
7.000000000000000000e+02 5.217047214508056641e+00 -1.854925155639648438e+00 2.125394894392229617e-05 1.341210554528515786e-05 1.039981634676223621e-05 1.885951496660709381e-05
7.010000000000000000e+02 4.410222053527832031e+00 -1.860116958618164062e+00 -2.296545426361262798e-05 -9.852701623458415270e-06 -9.845446584222372621e-06 -1.695092942100018263e-05
7.020000000000000000e+02 1.091249585151672363e+00 -6.594119071960449219e+00 -9.417349065188318491e-05 -5.868649623153032735e-06 -3.001264303748030216e-05 -1.846867598942480981e-05
7.030000000000000000e+02 1.096634507179260254e+00 -5.802910327911376953e+00 8.006724237930029631e-05 5.355489975045202300e-06 2.562681947892997414e-05 1.535112824058160186e-05
7.040000000000000000e+02 3.842050433158874512e-01 -2.686912536621093750e+00 -3.224315878469496965e-05 -5.675038892150041647e-07 -9.843199222814291716e-06 -3.731912556759198196e-06
7.050000000000000000e+02 3.967209756374359131e-01 -1.894625544548034668e+00 2.143303390766959637e-05 4.290642721116455505e-07 6.558629138453397900e-06 1.987758196264621802e-06
7.060000000000000000e+02 4.583814144134521484e-01 -4.201360321044921875e+01 -1.492925184720661491e-05 2.125870902091264725e-03 6.332824705168604851e-04 -5.373163367039524019e-05
7.070000000000000000e+02 5.393776893615722656e-01 -4.113958740234375000e+01 -4.574534541461616755e-04 2.094348426908254623e-03 4.910685238428413868e-04 2.112646616296842694e-04
7.080000000000000000e+02 4.722133278846740723e-01 -4.036701202392578125e+01 8.232766995206475258e-04 1.761152409017086029e-03 7.753287209197878838e-04 2.085425803670659661e-04
7.090000000000000000e+02 4.143589138984680176e-01 -3.881037139892578125e+01 6.250208825804293156e-04 1.654139370657503605e-03 6.837480468675494194e-04 1.929957215907052159e-04
7.100000000000000000e+02 4.220771193504333496e-01 -3.959215927124023438e+01 -7.732413941994309425e-04 1.629004837013781071e-03 2.567290503066033125e-04 -1.553752954350784421e-04
7.110000000000000000e+02 4.185025095939636230e-01 -3.722453308105468750e+01 6.726972060278058052e-04 1.210747053846716881e-03 5.650332896038889885e-04 1.155520658358000219e-04
7.120000000000000000e+02 4.166412949562072754e-01 -3.562789154052734375e+01 8.418374345637857914e-04 7.287907646968960762e-04 4.711884539574384689e-04 1.464597880840301514e-04
7.130000000000000000e+02 4.158656597137451172e-01 -3.482549667358398438e+01 -8.448787848465144634e-04 5.332198343239724636e-04 -9.349768515676259995e-05 5.554765812121331692e-05
7.140000000000000000e+02 4.157713055610656738e-01 -3.402195739746093750e+01 8.327869581989943981e-04 3.281164099462330341e-04 3.482710162643343210e-04 1.578481314936652780e-04
7.150000000000000000e+02 4.143331646919250488e-01 -3.321708297729492188e+01 -7.721982547082006931e-04 1.601436088094487786e-04 -1.836163864936679602e-04 9.892236448649782687e-06
7.160000000000000000e+02 4.101460278034210205e-01 -3.241096115112304688e+01 7.412966806441545486e-04 2.893812961701769382e-05 2.310704439878463745e-04 1.292244705837219954e-04
7.170000000000000000e+02 1.242254972457885742e+00 -3.314849853515625000e+01 8.062037522904574871e-04 2.838482905644923449e-04 3.270156157668679953e-04 2.681493351701647043e-04
7.180000000000000000e+02 4.037707448005676270e-01 -3.160492324829101562e+01 -6.860201829113066196e-04 -8.681257895659655333e-05 -2.318498300155624747e-04 -2.097600372508168221e-05
7.190000000000000000e+02 3.815301656723022461e-01 -2.918580245971679688e+01 6.342662964016199112e-04 -2.108452317770570517e-04 1.270263164769858122e-04 6.618755287490785122e-05
7.200000000000000000e+02 3.760465085506439209e-01 -2.838120651245117188e+01 -6.153753492981195450e-04 -2.157680282834917307e-04 -2.493430220056325197e-04 -7.441799971275031567e-05
7.210000000000000000e+02 3.722258508205413818e-01 -2.757661819458007812e+01 6.074910634197294712e-04 -1.832512498367577791e-04 1.272719382541254163e-04 5.626531492453068495e-05
7.220000000000000000e+02 3.694922626018524170e-01 -2.677204513549804688e+01 -5.939556285738945007e-04 -1.685777388047426939e-04 -2.287600073032081127e-04 -8.363334200112149119e-05
7.230000000000000000e+02 3.674603104591369629e-01 -2.596749687194824219e+01 5.822451785206794739e-04 -1.221903949044644833e-04 1.380164321744814515e-04 5.523010986507870257e-05
7.240000000000000000e+02 3.658465147018432617e-01 -2.516267585754394531e+01 -5.716235027648508549e-04 -1.062480296241119504e-04 -2.033614582614973187e-04 -8.451836765743792057e-05
7.250000000000000000e+02 1.105898022651672363e+00 -2.667254066467285156e+01 6.248064455576241016e-04 -9.577839955454692245e-05 1.587084116181358695e-04 6.696727723465301096e-06
7.260000000000000000e+02 3.646424710750579834e-01 -2.435779190063476562e+01 5.561988218687474728e-04 -6.405411841114982963e-05 1.476434117648750544e-04 6.248578574741259217e-05
7.270000000000000000e+02 3.647551536560058594e-01 -2.194556999206542969e+01 -4.921294748783111572e-04 -3.101482434431090951e-05 -1.569432934047654271e-04 -7.896856550360098481e-05
7.280000000000000000e+02 3.647307455539703369e-01 -2.114184761047363281e+01 4.632692143786698580e-04 1.227159941663558129e-06 1.393489073961973190e-04 6.731956818839535117e-05
7.290000000000000000e+02 3.645310997962951660e-01 -2.033781242370605469e+01 -4.386537184473127127e-04 -1.620911098143551499e-05 -1.364588388241827488e-04 -6.783365097362548113e-05
7.300000000000000000e+02 3.638856410980224609e-01 -1.953331565856933594e+01 4.154409980401396751e-04 8.668737791595049202e-06 1.272329245693981647e-04 6.108255183789879084e-05
7.310000000000000000e+02 3.628078401088714600e-01 -1.872876548767089844e+01 -3.968480159528553486e-04 -9.125964425038546324e-06 -1.217921962961554527e-04 -6.018068233970552683e-05
7.320000000000000000e+02 1.088346004486083984e+00 -1.942197227478027344e+01 -4.235739179421216249e-04 -1.507854904048144817e-05 -1.315957342740148306e-04 -6.710128218401223421e-05
7.330000000000000000e+02 3.614839613437652588e-01 -1.792445182800292969e+01 3.784467116929590702e-04 1.001960208668606356e-05 1.165398934972472489e-04 5.794806565972976387e-05
7.340000000000000000e+02 3.615671396255493164e-01 -1.551450729370117188e+01 -3.130555269308388233e-04 -7.703491064603440464e-06 -9.622771176509559155e-05 -5.268683162285014987e-05
7.350000000000000000e+02 3.611476719379425049e-01 -1.471202659606933594e+01 2.865873975679278374e-04 1.066838831320637837e-05 8.917673403630033135e-05 4.890123091172426939e-05
7.360000000000000000e+02 3.609468936920166016e-01 -1.390951442718505859e+01 -2.598014543764293194e-04 -7.460342658305307850e-06 -8.017853542696684599e-05 -4.398084274725988507e-05
7.370000000000000000e+02 3.610835075378417969e-01 -1.310653209686279297e+01 2.340632199775427580e-04 8.791626896709203720e-06 7.285645551746711135e-05 3.937531073461286724e-05
7.380000000000000000e+02 3.612865507602691650e-01 -1.230332088470458984e+01 -2.105732128256931901e-04 -6.276379281189292669e-06 -6.505487544927746058e-05 -3.463372559053823352e-05
7.390000000000000000e+02 3.613744080066680908e-01 -1.149974727630615234e+01 1.891279098344966769e-04 6.606118404306471348e-06 5.872020847164094448e-05 3.071236642426811159e-05
7.400000000000000000e+02 1.783362388610839844e+00 -1.293911075592041016e+01 2.336560282856225967e-04 2.098897493851836771e-05 7.639350224053487182e-05 5.415177292888984084e-05
7.410000000000000000e+02 3.615618646144866943e-01 -1.069608020782470703e+01 -1.701603468973189592e-04 -4.895985057373763993e-06 -5.251690163277089596e-05 -2.717977804422844201e-05
7.420000000000000000e+02 3.629108071327209473e-01 -8.282785415649414062e+00 1.216326127178035676e-04 3.999126874987268820e-06 3.768952228710986674e-05 1.983462971111293882e-05
7.430000000000000000e+02 3.619803488254547119e-01 -7.480166912078857422e+00 -1.074198444257490337e-04 -3.427149977142107673e-06 -3.325409852550365031e-05 -1.747060559864621609e-05
7.440000000000000000e+02 3.613399565219879150e-01 -6.678999900817871094e+00 9.397819667356088758e-05 3.442390834607067518e-06 2.922617568401619792e-05 1.484608856117120013e-05
7.450000000000000000e+02 3.620117306709289551e-01 -5.879233837127685547e+00 -8.078481914708390832e-05 -2.507013959984760731e-06 -2.498755020496901125e-05 -1.207388231705408543e-05
7.460000000000000000e+02 3.645673990249633789e-01 -5.080173015594482422e+00 6.805120938224717975e-05 2.095828449455439113e-06 2.104411032632924616e-05 9.603429134585894644e-06
7.470000000000000000e+02 3.688312470912933350e-01 -4.281147480010986328e+00 -5.558083284995518625e-05 -1.435806439076259267e-06 -1.710499236651230603e-05 -7.260666279762517661e-06
7.480000000000000000e+02 3.752337396144866943e-01 -3.482975244522094727e+00 4.382834958960302174e-05 8.663737389724701643e-07 1.340841663477476686e-05 5.390229944168822840e-06
7.490000000000000000e+02 7.955671691894531250e+01 -4.202619934082031250e+01 -3.448531497269868851e-04 -4.309825226664543152e-02 -1.303293183445930481e-02 -7.997703505679965019e-04
7.500000000000000000e+02 7.949350738525390625e+01 -4.115602874755859375e+01 5.341283977031707764e-03 -4.294930770993232727e-02 -1.128240767866373062e-02 1.950523816049098969e-03
7.510000000000000000e+02 7.453938293457031250e+01 -3.836493682861328125e+01 7.372871041297912598e-03 -1.422225683927536011e-02 -2.054815646260976791e-03 2.066944353282451630e-02
7.520000000000000000e+02 5.335024261474609375e+01 -4.121108245849609375e+01 -3.209662437438964844e-01 1.359071969985961914e+00 3.114317059516906738e-01 5.780204758048057556e-02
7.530000000000000000e+02 3.341899490356445312e+01 -3.783864974975585938e+01 -2.033849246799945831e-03 -2.118475288152694702e-01 -6.416441500186920166e-02 -1.362813413143157959e-01
7.540000000000000000e+02 1.824540138244628906e+01 -3.897566604614257812e+01 -1.156999729573726654e-02 4.549638368189334869e-03 -2.106107771396636963e-03 5.548478104174137115e-03
7.550000000000000000e+02 1.364615678787231445e+00 -4.006212615966796875e+01 -6.102930638007819653e-04 1.915593864396214485e-03 3.915902634616941214e-04 -6.694916373817250133e-05
7.560000000000000000e+02 1.619858026504516602e+00 -4.180963134765625000e+01 -2.181226300308480859e-04 1.819259487092494965e-03 4.803410556633025408e-04 5.184291512705385685e-04
7.570000000000000000e+02 7.963146209716796875e+01 -2.908152389526367188e+01 -1.015902264043688774e-03 4.516143235377967358e-04 -1.692863734206184745e-04 -1.459785562474280596e-05
7.580000000000000000e+02 7.889184570312500000e+01 -2.911065483093261719e+01 8.163112797774374485e-04 -2.689279499463737011e-04 1.642150018597021699e-04 -3.461161686573177576e-04
7.590000000000000000e+02 7.744514465332031250e+01 -2.988848304748535156e+01 -2.654885407537221909e-03 -3.178673796355724335e-05 -8.060016552917659283e-04 1.287297927774488926e-03
7.600000000000000000e+02 7.964039611816406250e+01 -3.068645286560058594e+01 -1.990595133975148201e-03 3.058642323594540358e-04 -5.054192733950912952e-04 3.163753135595470667e-04
7.610000000000000000e+02 7.818878936767578125e+01 -3.064353752136230469e+01 -2.706685801967978477e-03 -6.563302595168352127e-04 -1.008904888294637203e-03 1.518045435659587383e-03
7.620000000000000000e+02 7.890360260009765625e+01 -3.145945167541503906e+01 -2.643619896844029427e-03 -1.297301845625042915e-03 -1.182276522740721703e-03 1.538553391583263874e-03
7.630000000000000000e+02 7.960708618164062500e+01 -3.311734390258789062e+01 2.705829683691263199e-03 -3.977096173912286758e-03 -3.813799703493714333e-04 1.030374085530638695e-03
7.640000000000000000e+02 7.952519226074218750e+01 -3.560866165161132812e+01 -3.216134384274482727e-03 -1.435160730034112930e-02 -5.270322784781455994e-03 2.177627058699727058e-03
7.650000000000000000e+02 7.955156707763671875e+01 -3.643658065795898438e+01 3.687374759465456009e-03 -1.857904531061649323e-02 -4.467500839382410049e-03 2.726260107010602951e-03
7.660000000000000000e+02 7.961428070068359375e+01 -3.723163223266601562e+01 -3.946339711546897888e-03 -2.304193750023841858e-02 -8.096483536064624786e-03 1.905256882309913635e-03
7.670000000000000000e+02 7.963938903808593750e+01 -3.801528930664062500e+01 4.166742321103811264e-03 -2.798442170023918152e-02 -7.145304232835769653e-03 2.263898262754082680e-03
7.680000000000000000e+02 7.962898254394531250e+01 -3.880145645141601562e+01 -3.728381823748350143e-03 -3.233985975384712219e-02 -1.082047261297702789e-02 1.816281001083552837e-03
7.690000000000000000e+02 7.956542205810546875e+01 -4.037233352661132812e+01 -6.332571618258953094e-03 -3.860526159405708313e-02 -1.348134968429803848e-02 3.457218408584594727e-03
7.700000000000000000e+02 7.155117797851562500e+01 -2.539427185058593750e+01 -4.556576721370220184e-03 -4.043917637318372726e-03 -2.580148400738835335e-03 5.302282981574535370e-03
7.710000000000000000e+02 2.185471153259277344e+01 -1.247636795043945312e+01 3.660705988295376301e-05 1.039554535964271054e-05 1.410078220942523330e-05 -2.293846137035870925e-06
7.720000000000000000e+02 2.208148574829101562e+01 -1.423614120483398438e+01 -3.641196599346585572e-05 -3.035379086213652045e-05 -2.002972723857965320e-05 -1.712215271254535764e-05
7.730000000000000000e+02 1.973497200012207031e+01 -1.350213813781738281e+01 1.090347268473124132e-05 4.602797343977726996e-05 1.707943374640308321e-05 2.712779678404331207e-05
7.740000000000000000e+02 2.735616302490234375e+01 -1.567661952972412109e+01 1.762429747032001615e-06 3.824503380656096851e-07 6.434640340557962190e-07 -1.954648496393929236e-06
7.750000000000000000e+02 6.461199188232421875e+01 -1.355195808410644531e+01 -1.831158399581909180e-01 1.036936402320861816e+00 2.561461627483367920e-01 3.146866261959075928e-01
7.760000000000000000e+02 6.423003387451171875e+01 -1.414240741729736328e+01 -2.923681139945983887e-01 9.505414962768554688e-01 1.974520236253738403e-01 2.446918189525604248e-01
7.770000000000000000e+02 6.661542510986328125e+01 -9.728925704956054688e+00 3.072200715541839600e-01 1.762372612953186035e+00 6.208778023719787598e-01 6.883832216262817383e-01
7.780000000000000000e+02 9.646620750427246094e+00 -2.716100215911865234e+00 -3.127731542917899787e-05 -3.244132676627486944e-05 -1.911559229483827949e-05 -1.686958603386301547e-05
7.790000000000000000e+02 1.025933933258056641e+01 -2.882737874984741211e+00 2.930399386968929321e-05 3.385073432582430542e-05 1.894641900435090065e-05 1.536998388473875821e-05
7.800000000000000000e+02 1.145853614807128906e+01 -3.324446439743041992e+00 2.883521483454387635e-05 3.361640847288072109e-05 1.873548717412631959e-05 1.627656456548720598e-05
7.810000000000000000e+02 7.589945983886718750e+01 -2.922027969360351562e+01 -1.239360310137271881e-03 -7.927633705548942089e-04 -6.096371216699481010e-04 2.900954859796911478e-04
7.820000000000000000e+02 7.066888427734375000e+01 -3.000794982910156250e+01 -1.831779489293694496e-03 -1.327595557086169720e-03 -9.478125139139592648e-04 -4.968836903572082520e-03
7.830000000000000000e+02 7.361948394775390625e+01 -2.547706604003906250e+01 -3.350079059600830078e-02 6.494539324194192886e-03 -8.101874962449073792e-03 1.021408475935459137e-02
7.840000000000000000e+02 4.321915054321289062e+01 -1.961565208435058594e+01 -1.262082832909072749e-06 -6.589231134057627060e-07 -5.763017725257668644e-07 -3.776279982048436068e-07
7.850000000000000000e+02 3.946818542480468750e+01 -1.807584190368652344e+01 1.860103793660528027e-06 -2.876880600410913758e-08 5.494005108630517498e-07 1.764952486382753705e-07
7.860000000000000000e+02 4.182734298706054688e+01 -2.002239227294921875e+01 -1.449170440537272952e-06 -1.377297564886248438e-07 -4.760700562655983958e-07 6.132552954341008444e-08
7.870000000000000000e+02 4.238977050781250000e+01 -1.843933105468750000e+01 1.708925992716103792e-06 1.434729369975684676e-06 9.430966088075365406e-07 2.790297912724781781e-07
7.880000000000000000e+02 3.891334152221679688e+01 -1.873391342163085938e+01 -1.189663862533052452e-06 3.678138682516873814e-07 -2.465550039687514072e-07 2.785044728170760209e-07
7.890000000000000000e+02 1.633102607727050781e+01 -5.603213787078857422e+00 -2.834359293046873063e-05 -2.678494638530537486e-05 -1.653856270422693342e-05 -1.762750252964906394e-05
7.900000000000000000e+02 1.578608608245849609e+01 -5.183922290802001953e+00 2.762387703114654869e-05 2.805685471685137600e-05 1.670421988819725811e-05 1.766666537150740623e-05
7.910000000000000000e+02 1.410242080688476562e+01 -3.992274522781372070e+00 -2.441195465507917106e-05 -3.184530578437261283e-05 -1.687717849563341588e-05 -1.609233913768548518e-05
7.920000000000000000e+02 1.543355178833007812e+01 -5.684020519256591797e+00 -3.353486681589856744e-05 -2.523867806303314865e-05 -1.763206273608375341e-05 -1.553191759740002453e-05
7.930000000000000000e+02 1.916832351684570312e+01 -9.440682411193847656e+00 -3.886727427016012371e-05 -1.432609587936894968e-05 -1.595801040821243078e-05 -9.615216185920871794e-06
7.940000000000000000e+02 1.831929779052734375e+01 -7.506557941436767578e+00 -3.146163362544029951e-05 -2.172001222788821906e-05 -1.595449430169537663e-05 -1.517555483587784693e-05
7.950000000000000000e+02 1.322523784637451172e+01 -4.211540222167968750e+00 -2.827216849254909903e-05 -3.062294126721099019e-05 -1.766853347362484783e-05 -1.421540309820557013e-05
7.960000000000000000e+02 1.289980697631835938e+01 -3.308916330337524414e+00 -2.223085175501182675e-05 -3.377856410224922001e-05 -1.680282366578467190e-05 -1.501571023254655302e-05
7.970000000000000000e+02 1.264013576507568359e+01 -3.889608621597290039e+00 2.772218249447178096e-05 3.169235787936486304e-05 1.782436265784781426e-05 1.443535438738763332e-05
7.980000000000000000e+02 1.204997158050537109e+01 -3.591495990753173828e+00 -2.859072264982387424e-05 -3.256280615460127592e-05 -1.834605791373178363e-05 -1.516199426987441257e-05
7.990000000000000000e+02 1.350055408477783203e+01 -5.105129241943359375e+00 -3.453976751188747585e-05 -2.811419653880875558e-05 -1.879618866951204836e-05 -1.149992567661684006e-05
8.000000000000000000e+02 1.797520256042480469e+01 -1.271602916717529297e+01 2.709458021854516119e-05 -3.761660991585813463e-05 -3.156608954668627121e-06 -2.249007593491114676e-05
8.010000000000000000e+02 1.921755599975585938e+01 -8.552460670471191406e+00 -3.499798913253471255e-05 -1.715277176117524505e-05 -1.564522790431510657e-05 -1.432543558621546254e-05
8.020000000000000000e+02 1.883791351318359375e+01 -1.342869567871093750e+01 4.649587026506196707e-06 -7.715199171798303723e-05 -2.175072040699888021e-05 -2.525989839341491461e-05
8.030000000000000000e+02 1.964879798889160156e+01 -9.091507911682128906e+00 3.673136598081327975e-05 1.523518585599958897e-05 1.558996518724597991e-05 1.493440777267096564e-05
8.040000000000000000e+02 1.831343650817871094e+01 -8.434216499328613281e+00 -3.715174170793034136e-05 -1.983287620532792062e-05 -1.709538446448277682e-05 -1.115339819079963490e-05
8.050000000000000000e+02 1.797196388244628906e+01 -1.339736270904541016e+01 -1.329913902736734599e-05 1.033726366586051881e-04 2.702204983506817371e-05 7.228828508232254535e-06
8.060000000000000000e+02 2.063740348815917969e+01 -1.157044601440429688e+01 -4.429553155205212533e-05 -1.294854337174911052e-05 -1.717322265903931111e-05 -1.698358391877263784e-05
8.070000000000000000e+02 1.937033653259277344e+01 -1.079277896881103516e+01 4.550429730443283916e-05 3.015070888068294153e-06 1.455581059417454526e-05 1.799612732611421961e-06
8.080000000000000000e+02 2.064855384826660156e+01 -1.370385456085205078e+01 -1.551499917695764452e-05 -2.673718336154706776e-05 -1.267565494345035404e-05 -2.602868698886595666e-05
8.090000000000000000e+02 1.956171226501464844e+01 -9.960072517395019531e+00 4.105548578081652522e-05 1.174557291960809380e-05 1.584031815582420677e-05 1.082864491763757542e-05
8.100000000000000000e+02 4.582437515258789062e+01 -2.345539283752441406e+01 -5.434633493423461914e-01 -6.295332312583923340e-01 -3.518989682197570801e-01 -1.144125223159790039e+00
8.110000000000000000e+02 4.343198394775390625e+01 -2.337609291076660156e+01 -1.984652578830718994e-01 -5.308573246002197266e-01 -2.187967747449874878e-01 -5.756724476814270020e-01
8.120000000000000000e+02 4.435575103759765625e+01 -2.392045211791992188e+01 -2.423081845045089722e-01 -7.525293827056884766e-01 -2.984512746334075928e-01 -8.976162672042846680e-01
8.130000000000000000e+02 4.722471237182617188e+01 -2.308736228942871094e+01 -8.699999451637268066e-01 -5.711247324943542480e-01 -4.323374032974243164e-01 -1.311130762100219727e+00
8.140000000000000000e+02 4.248801803588867188e+01 -2.444944572448730469e+01 -5.502323061227798462e-02 -7.886489033699035645e-01 -2.531016469001770020e-01 -3.174623847007751465e-01
8.150000000000000000e+02 4.212782287597656250e+01 -2.654059791564941406e+01 -2.437903359532356262e-02 -1.934137105941772461e+00 -5.875548720359802246e-01 -2.072829306125640869e-01
8.160000000000000000e+02 7.654946899414062500e+01 -2.547513008117675781e+01 -1.955090463161468506e-02 1.247412990778684616e-03 -5.491047631949186325e-03 -9.722971357405185699e-03
8.170000000000000000e+02 7.362940216064453125e+01 -2.400951004028320312e+01 -8.111213892698287964e-02 2.889659814536571503e-02 -1.566466130316257477e-02 6.743915379047393799e-03
8.180000000000000000e+02 7.579393005371093750e+01 -2.402143096923828125e+01 -4.412356019020080566e-02 1.248621288686990738e-02 -9.491204284131526947e-03 -2.558569051325321198e-02
8.190000000000000000e+02 7.507174682617187500e+01 -2.477111434936523438e+01 -4.197892174124717712e-02 1.339025609195232391e-02 -8.576599881052970886e-03 -9.970251470804214478e-03
8.200000000000000000e+02 4.793428039550781250e+01 -2.292645072937011719e+01 -1.044294714927673340e+00 -5.396534204483032227e-01 -4.751844406127929688e-01 -1.372653484344482422e+00
8.210000000000000000e+02 4.956806564331054688e+01 -2.329861450195312500e+01 -8.878951668739318848e-01 -5.651223063468933105e-01 -4.359052479267120361e-01 -1.504031300544738770e+00
8.220000000000000000e+02 4.935805892944335938e+01 -2.261864471435546875e+01 -1.394730210304260254e+00 -5.175739526748657227e-01 -5.736912488937377930e-01 -1.470265984535217285e+00
8.230000000000000000e+02 5.137413787841796875e+01 -2.151515769958496094e+01 -2.693096876144409180e+00 -4.458192288875579834e-01 -9.416748285293579102e-01 -1.497542381286621094e+00
8.240000000000000000e+02 5.483484268188476562e+01 -1.690641021728515625e+01 -6.110125013947254047e-06 -8.404355185120948590e-07 -2.085168262055958621e-06 -3.053059742796904175e-07
8.250000000000000000e+02 5.346001052856445312e+01 -1.732328987121582031e+01 -1.871125959951314144e-06 -1.331512294200365432e-06 -9.607914535081363283e-07 8.206128541132784449e-07
8.260000000000000000e+02 5.367206954956054688e+01 -1.640378189086914062e+01 -4.262847596692154184e-06 -7.469529350601078477e-07 -1.502940222053439356e-06 5.075305011814634781e-07
8.270000000000000000e+02 2.606658554077148438e+01 -1.291947746276855469e+01 3.567999556253198534e-06 1.218971419802983291e-06 1.436091338291589636e-06 2.343573157759237802e-07
8.280000000000000000e+02 2.664235305786132812e+01 -1.256727504730224609e+01 -8.622560585536120925e-07 -5.128601401338528376e-07 -4.125348596062394790e-07 -1.904826376630808227e-06
8.290000000000000000e+02 2.598202514648437500e+01 -1.119599056243896484e+01 9.104126661441114265e-07 -7.462980988748313393e-07 4.923438012838232680e-08 -2.710843318709521554e-06
8.300000000000000000e+02 2.508877182006835938e+01 -1.088251113891601562e+01 9.931294471243745647e-07 -5.896353059142711572e-07 1.210482452052019653e-07 -3.114791070402134210e-06
8.310000000000000000e+02 2.776083374023437500e+01 -1.189158725738525391e+01 5.735824260000299546e-09 -3.064337192881794181e-07 -9.020936886372510344e-08 -1.711606842036417220e-06
8.320000000000000000e+02 2.696922302246093750e+01 -1.325112533569335938e+01 3.962423761549871415e-06 9.614853979655890726e-07 1.477172759223321918e-06 5.066155850386167003e-08
8.330000000000000000e+02 2.563085556030273438e+01 -1.050690555572509766e+01 4.196215741103515029e-06 1.611930429135099985e-06 1.742443828334216960e-06 -6.954941795811464544e-07
8.340000000000000000e+02 2.930432701110839844e+01 -1.635749053955078125e+01 -1.940227775776293129e-06 -2.985845640068873763e-06 -1.477822024753550068e-06 -2.296927732459153049e-06
8.350000000000000000e+02 7.707411956787109375e+01 -2.398010444641113281e+01 -2.355355024337768555e-02 -5.396290682256221771e-03 -8.684952743351459503e-03 -2.633929811418056488e-02
8.360000000000000000e+02 7.873674774169921875e+01 -2.543029975891113281e+01 -2.461137715727090836e-03 -4.486222751438617706e-03 -2.084208186715841293e-03 -3.511362709105014801e-03
8.370000000000000000e+02 7.965596008300781250e+01 -2.370332908630371094e+01 -5.681086913682520390e-04 -1.436254382133483887e-02 -4.479195922613143921e-03 -4.777003545314073563e-03
8.380000000000000000e+02 7.940061950683593750e+01 -2.532074737548828125e+01 -8.614939870312809944e-04 -2.307890448719263077e-03 -9.508153307251632214e-04 -1.431041397154331207e-03
8.390000000000000000e+02 7.973522186279296875e+01 -2.448309326171875000e+01 -1.345665892586112022e-03 -4.756207577884197235e-03 -1.830562017858028412e-03 -2.295199548825621605e-03
8.400000000000000000e+02 5.210821914672851562e+01 -2.137447929382324219e+01 -2.928870677947998047e+00 -4.636211693286895752e-01 -1.017747521400451660e+00 -1.509986877441406250e+00
8.410000000000000000e+02 5.224550628662109375e+01 -2.201788902282714844e+01 -2.055440425872802734e+00 -4.136934876441955566e-01 -7.407401800155639648e-01 -1.500269651412963867e+00
8.420000000000000000e+02 5.007619094848632812e+01 -2.246652221679687500e+01 -1.571384787559509277e+00 -5.268949270248413086e-01 -6.294838786125183105e-01 -1.501549959182739258e+00
8.430000000000000000e+02 5.079797363281250000e+01 -2.231303024291992188e+01 -1.750211238861083984e+00 -4.816694259643554688e-01 -6.695641875267028809e-01 -1.518529176712036133e+00
8.440000000000000000e+02 5.107624053955078125e+01 -1.714524459838867188e+01 -2.172568883906933479e-06 -3.457364528003381565e-07 -7.554916123808652628e-07 3.375023709395463811e-07
8.450000000000000000e+02 5.037066268920898438e+01 -1.727846717834472656e+01 2.326551111764274538e-06 9.634044317863299511e-08 7.268674835358979180e-07 -1.991033826698185294e-07
8.460000000000000000e+02 5.307513809204101562e+01 -1.663520240783691406e+01 2.826617674145381898e-06 9.947769967766362242e-07 1.146418412645289209e-06 -7.565143391730089206e-07
8.470000000000000000e+02 5.243866729736328125e+01 -1.683247375488281250e+01 -2.296679667779244483e-06 -8.484395266350475140e-07 -9.435357810616551433e-07 7.133834856176690664e-07
8.480000000000000000e+02 4.965836334228515625e+01 -1.741220474243164062e+01 -2.439131321807508357e-06 -1.047330471237728489e-07 -7.631593348378373776e-07 -3.106215729076211574e-07
8.490000000000000000e+02 7.778948211669921875e+01 -3.462825012207031250e+01 7.068631239235401154e-04 -8.909393101930618286e-03 -2.460758900269865990e-03 7.897863164544105530e-03
8.500000000000000000e+02 7.818063354492187500e+01 -2.988495254516601562e+01 5.414459155872464180e-04 -1.020977739244699478e-03 -1.438595354557037354e-04 1.769991358742117882e-04
8.510000000000000000e+02 7.740383911132812500e+01 -2.917293357849121094e+01 5.828249413752928376e-05 -8.303447975777089596e-04 -2.316186873940750957e-04 -5.802996020065620542e-05
8.520000000000000000e+02 7.738108825683593750e+01 -3.211556625366210938e+01 -8.210774394683539867e-04 -3.106322837993502617e-03 -1.178220147266983986e-03 3.939395304769277573e-03
8.530000000000000000e+02 6.895735168457031250e+01 -2.100474166870117188e+01 7.195844501256942749e-02 -4.517631232738494873e-02 8.034639991819858551e-03 2.914783358573913574e-01
8.540000000000000000e+02 7.289693450927734375e+01 -2.469620323181152344e+01 -5.785254389047622681e-02 9.757762774825096130e-03 -1.442843396216630936e-02 2.525569126009941101e-02
8.550000000000000000e+02 7.218811035156250000e+01 -2.465275192260742188e+01 -3.906067460775375366e-02 -1.984978839755058289e-02 -1.767313852906227112e-02 3.843113034963607788e-02
8.560000000000000000e+02 7.037963104248046875e+01 -2.167709732055664062e+01 -2.155115455389022827e-01 -9.632706642150878906e-03 -6.754327565431594849e-02 8.055107295513153076e-02
8.570000000000000000e+02 7.102183532714843750e+01 -2.196469306945800781e+01 -2.222837507724761963e-01 2.978816814720630646e-02 -5.774867534637451172e-02 4.046932235360145569e-02
8.580000000000000000e+02 5.905176162719726562e+01 -2.523871994018554688e+01 5.151806831359863281e+00 3.980553150177001953e+00 2.739707946777343750e+00 4.416949748992919922e+00
8.590000000000000000e+02 5.509809875488281250e+01 -2.078442382812500000e+01 -3.566298723220825195e+00 -4.217545390129089355e-01 -1.196416020393371582e+00 -1.305174469947814941e+00
8.600000000000000000e+02 5.686246109008789062e+01 -2.770135879516601562e+01 3.057413578033447266e+00 6.665865421295166016e+00 2.916983842849731445e+00 4.030783653259277344e+00
8.610000000000000000e+02 5.298541641235351562e+01 -2.187229347229003906e+01 -2.192342519760131836e+00 -3.968966901302337646e-01 -7.767717242240905762e-01 -1.453368425369262695e+00
8.620000000000000000e+02 4.748048019409179688e+01 -1.786573982238769531e+01 1.819791464185982477e-06 7.431008839375863317e-07 7.688677214900963008e-07 1.071448991751822177e-06
8.630000000000000000e+02 4.893900299072265625e+01 -1.755179214477539062e+01 2.331672476429957896e-06 1.672151768161711516e-07 7.496662988160096575e-07 5.506271349986491259e-07
8.640000000000000000e+02 4.821121215820312500e+01 -1.770206832885742188e+01 -2.165891601180192083e-06 -4.633652395114040701e-07 -7.887770721026754472e-07 -1.010131086331966799e-06
8.650000000000000000e+02 4.675632476806640625e+01 -1.804155158996582031e+01 -1.642306528992776293e-06 -1.075620502888341434e-06 -8.153780868269677740e-07 -1.294379558203218039e-06
8.660000000000000000e+02 7.521244812011718750e+01 -2.992402458190917969e+01 -3.294793888926506042e-03 -8.911690092645585537e-04 -1.255788840353488922e-03 1.189014641568064690e-03
8.670000000000000000e+02 7.372453308105468750e+01 -3.000914001464843750e+01 -5.866146646440029144e-03 -5.678782472386956215e-04 -1.930207479745149612e-03 4.473410954233258963e-04
8.680000000000000000e+02 7.298838806152343750e+01 -3.006289100646972656e+01 -7.479772903025150299e-03 3.094797721132636070e-03 -1.315492554567754269e-03 9.675277397036552429e-05
8.690000000000000000e+02 7.875089263916015625e+01 -3.388296127319335938e+01 2.004527952522039413e-03 -7.272657472640275955e-03 -1.580438809469342232e-03 4.293371923267841339e-03
8.700000000000000000e+02 4.088370132446289062e+01 -1.944219970703125000e+01 -1.964286866495967843e-06 -4.461409730538434815e-07 -7.231283802866528276e-07 -6.047790268581820783e-09
8.710000000000000000e+02 3.558255004882812500e+01 -1.816515922546386719e+01 -3.886158026489283657e-07 -1.271803057534270920e-06 -4.981256438441050705e-07 -3.196038278474588878e-07
8.720000000000000000e+02 2.996995544433593750e+01 -1.669537734985351562e+01 1.918306224979460239e-06 3.227813976991456002e-06 1.543835992379172239e-06 1.510327251708076801e-06
8.730000000000000000e+02 4.010236740112304688e+01 -1.980337524414062500e+01 9.053184868434982491e-08 1.462807688312750543e-07 7.104378596523019951e-08 2.809163675010495353e-07
8.740000000000000000e+02 4.084717178344726562e+01 -1.859958076477050781e+01 1.936586158990394324e-06 1.031275928653485607e-06 8.903586490305315237e-07 2.448719271797017427e-07
8.750000000000000000e+02 3.329727935791015625e+01 -1.811351776123046875e+01 5.320392801877460442e-07 2.902302412621793337e-06 1.030302541948913131e-06 9.019020694722712506e-07
8.760000000000000000e+02 3.270113372802734375e+01 -1.741043281555175781e+01 1.531606130811269395e-06 2.780044269456993788e-06 1.293495188292581588e-06 1.687470330580254085e-06
8.770000000000000000e+02 3.405559539794921875e+01 -1.813387298583984375e+01 -3.669003376671753358e-07 -2.298097342645633034e-06 -7.994993325155519415e-07 -6.672169661214866210e-07
8.780000000000000000e+02 3.033594512939453125e+01 -1.761361312866210938e+01 9.408927326148841530e-07 3.498344995023217052e-06 1.331771272816695273e-06 1.488043949393613730e-06
8.790000000000000000e+02 3.095292282104492188e+01 -1.635852050781250000e+01 2.607902388263028115e-06 2.946776703538489528e-06 1.666403704803087749e-06 1.246636543328349944e-06
8.800000000000000000e+02 2.817508697509765625e+01 -1.667533493041992188e+01 -1.249988258678058628e-06 -2.774611630229628645e-06 -1.207379909828887321e-06 -1.341614733973983675e-06
8.810000000000000000e+02 3.485585021972656250e+01 -1.754540061950683594e+01 -9.014617603497754317e-07 -1.672936491559084971e-06 -7.723194812570000067e-07 -1.171784674625087064e-06
8.820000000000000000e+02 3.558416366577148438e+01 -1.757341957092285156e+01 1.188837700283329468e-06 1.263185481548134703e-06 7.356069318120717071e-07 1.048675471793103497e-06
8.830000000000000000e+02 3.630305862426757812e+01 -1.759423637390136719e+01 -1.012308189274335746e-06 -9.949325203706393950e-07 -6.021721787874412257e-07 -5.695857794307812583e-07
8.840000000000000000e+02 3.132077217102050781e+01 -1.717923927307128906e+01 1.573159465806384105e-06 3.360828941367799416e-06 1.480196488046203740e-06 1.484788299421779811e-06
8.850000000000000000e+02 4.447782516479492188e+01 -1.798892974853515625e+01 -1.498737333349708933e-06 -1.777451416273834184e-06 -9.828565907810116187e-07 -8.433207767666317523e-07
8.860000000000000000e+02 4.458987426757812500e+01 -1.861645126342773438e+01 1.050692162607447244e-06 1.436820866729249246e-06 7.462539315383764915e-07 7.612507602061668877e-07
8.870000000000000000e+02 4.396203613281250000e+01 -1.941894912719726562e+01 8.011777481442550197e-07 9.440677217753545847e-07 5.235736466602247674e-07 4.959711077390238643e-07
8.880000000000000000e+02 4.387562942504882812e+01 -1.880146026611328125e+01 -1.336220975645119324e-06 -1.236095954482152592e-06 -7.716951131442328915e-07 -6.033632757862505969e-07
8.890000000000000000e+02 8.622654914855957031e+00 3.622262239456176758e+00 6.021008175594033673e-06 1.048845933837583289e-05 4.952840299665695056e-06 -1.527522363176103681e-05
8.900000000000000000e+02 8.892127990722656250e+00 2.791484117507934570e+00 1.254596008948283270e-05 -9.157944873550150078e-07 3.489049731797422282e-06 -6.109219611971639097e-06
8.910000000000000000e+02 5.742539882659912109e+00 2.560844659805297852e+00 7.891827408457174897e-06 -1.327173890786070842e-06 1.969395952983177267e-06 -3.885078058374347165e-06
8.920000000000000000e+02 5.877230644226074219e+00 1.854725241661071777e+00 4.935232936986722052e-06 4.552392056211829185e-06 2.846287543434300460e-06 -6.039864729245891795e-06
8.930000000000000000e+02 8.251900672912597656e+00 1.901591897010803223e+00 1.391290152241708711e-05 -2.683746060938574374e-06 3.368746547494083643e-06 -5.465232788992580026e-06
8.940000000000000000e+02 4.970532894134521484e+00 2.547957897186279297e+00 2.709391537791816518e-06 4.328219347371486947e-06 2.111283265548991039e-06 -6.201520591275766492e-06
8.950000000000000000e+02 7.300943374633789062e+00 2.630894899368286133e+00 1.053413780027767643e-05 -1.846041868702741340e-06 2.606428779472480528e-06 -5.096280801808461547e-06
8.960000000000000000e+02 1.145212531089782715e+00 7.458595752716064453e+00 5.950337708782171831e-06 8.330571290571242571e-06 4.284273018129169941e-06 -1.809088189475005493e-06
8.970000000000000000e+02 1.121094465255737305e+00 4.209064960479736328e+00 4.805580374522833154e-06 2.217119572378578596e-06 2.106810143231996335e-06 -1.847483417805051431e-06
8.980000000000000000e+02 4.101084709167480469e+00 3.231581687927246094e+00 7.948649454192491248e-07 4.351773441158002242e-06 1.543991402286337689e-06 -5.824630534334573895e-06
8.990000000000000000e+02 2.733389616012573242e+00 1.857340097427368164e+00 -2.676099200016324176e-07 2.033283180935541168e-06 5.297019924910273403e-07 -1.477334080846048892e-06
9.000000000000000000e+02 3.759746551513671875e-01 2.683462858200073242e+00 -3.280846613051835448e-06 3.797913450398482382e-07 -8.703165690349123906e-07 3.309974161425088823e-08
9.010000000000000000e+02 2.524934196472167969e+01 -9.808507919311523438e+00 3.165166617691284046e-06 -1.412938445355393924e-06 5.256684403320832644e-07 -3.129453943984117359e-06
9.020000000000000000e+02 2.441558074951171875e+01 -8.416529655456542969e+00 5.837632670591119677e-06 -1.990186774492030963e-06 1.154233814304461703e-06 -3.673249921121168882e-06
9.030000000000000000e+02 2.397211456298828125e+01 -7.733721733093261719e+00 6.096303422964410856e-06 3.284656258983886801e-06 2.814287881847121753e-06 -3.173347749907406978e-06
9.040000000000000000e+02 2.249633026123046875e+01 -5.749547004699707031e+00 1.145188889495329931e-05 -2.200528797402512282e-06 2.775408120214706287e-06 -3.998711690655909479e-06
9.050000000000000000e+02 2.083261489868164062e+01 -3.901886463165283203e+00 1.291935677727451548e-05 5.132973001309437677e-06 5.415698979049921036e-06 -8.770316526351962239e-06
9.060000000000000000e+02 2.151030921936035156e+01 -5.602482795715332031e+00 1.182507003250066191e-05 8.126159514176833909e-07 3.791305744016426615e-06 -5.158535714144818485e-06
9.070000000000000000e+02 2.350821876525878906e+01 -5.941854000091552734e+00 1.087555301637621596e-05 -4.153213012614287436e-06 2.016701955653843470e-06 -3.166226633766200393e-06
9.080000000000000000e+02 6.145149612426757812e+01 -1.813382148742675781e+01 -2.527084827423095703e+00 1.012183785438537598e+00 -4.544703066349029541e-01 1.242058724164962769e-01
9.090000000000000000e+02 5.398256301879882812e+01 3.400481414794921875e+01 -2.774470113217830658e-02 -3.948576282709836960e-03 -9.507982991635799408e-03 -1.079338695853948593e-02
9.100000000000000000e+02 5.210276794433593750e+01 3.373985290527343750e+01 -2.133230306208133698e-02 2.121884375810623169e-03 -5.763125605881214142e-03 -3.919651266187429428e-03
9.110000000000000000e+02 6.237310409545898438e+01 -2.256937789916992188e+01 2.937229394912719727e+00 2.016693115234375000e+00 1.486176729202270508e+00 2.472819328308105469e+00
9.120000000000000000e+02 6.262345886230468750e+01 -2.319943618774414062e+01 5.452141761779785156e+00 9.753822088241577148e-01 1.928257107734680176e+00 1.586658000946044922e+00
9.130000000000000000e+02 1.601675796508789062e+01 -8.774042129516601562e-01 2.099145967804361135e-05 5.458666237245779485e-06 7.935037501738406718e-06 -1.449248338758479804e-05
9.140000000000000000e+02 1.668400955200195312e+01 3.039087355136871338e-01 1.925602555274963379e-05 5.703526767319999635e-06 7.487865332223009318e-06 -1.211272137879859656e-05
9.150000000000000000e+02 1.239717388153076172e+01 1.033203482627868652e+00 1.785986023605801165e-05 9.324220627604518086e-06 8.155224350048229098e-06 -6.304612725216429681e-06
9.160000000000000000e+02 1.461992073059082031e+01 -7.421996444463729858e-02 2.158057577617000788e-05 4.978728611604310572e-06 7.967791134433355182e-06 -1.484047697886126116e-05
9.170000000000000000e+02 1.563649749755859375e+01 1.418189704418182373e-01 2.013165976677555591e-05 5.819679699925472960e-06 7.785401976434513927e-06 -1.346778572042239830e-05
9.180000000000000000e+02 5.263533020019531250e+01 3.429086303710937500e+01 -2.356856316328048706e-02 -1.098135020583868027e-03 -7.400009315460920334e-03 -4.338174127042293549e-03
9.190000000000000000e+02 5.728824615478515625e+01 -3.315194320678710938e+01 1.054501414299011230e+00 1.805000185966491699e+00 8.578504323959350586e-01 -1.183336138725280762e+00
9.200000000000000000e+02 5.567401885986328125e+01 -3.161029434204101562e+01 1.248868703842163086e+00 5.887812614440917969e+00 2.141004562377929688e+00 -4.192325174808502197e-01
9.210000000000000000e+02 5.690198516845703125e+01 3.581704711914062500e+01 -8.052877336740493774e-02 -5.257949698716402054e-03 -2.573601715266704559e-02 -1.236738823354244232e-02
9.220000000000000000e+02 5.180238723754882812e+01 3.495942687988281250e+01 -1.993726566433906555e-02 7.806885521858930588e-03 -3.639114089310169220e-03 4.115743096917867661e-03
9.230000000000000000e+02 5.392222976684570312e+01 3.722768402099609375e+01 -1.526892371475696564e-02 9.056864306330680847e-03 -1.863617915660142899e-03 1.421388518065214157e-02
9.240000000000000000e+02 2.040076637268066406e+01 -4.424843788146972656e+00 1.462028376408852637e-05 1.873867972790321801e-06 4.948245532432338223e-06 -5.362814135878579691e-06
9.250000000000000000e+02 1.963166236877441406e+01 -2.766277313232421875e+00 1.545761188026517630e-05 5.345498720998875797e-06 6.240933089429745451e-06 -1.031197098200209439e-05
9.260000000000000000e+02 2.066541481018066406e+01 -2.793360710144042969e+00 1.447271279175765812e-05 4.648185949918115512e-06 5.736269486078526825e-06 -8.772844012128189206e-06
9.270000000000000000e+02 2.196754264831542969e+01 -5.117899894714355469e+00 1.027651615004288033e-05 4.531369995675049722e-06 4.442365934664849192e-06 -6.752577064617071301e-06
9.280000000000000000e+02 2.141175651550292969e+01 -4.500210285186767578e+00 1.381659603794105351e-05 -1.511880441285029519e-06 3.691414576678653248e-06 -3.875747552228858694e-06
9.290000000000000000e+02 4.188336944580078125e+01 1.106225585937500000e+01 -1.730232906993478537e-04 6.359392864396795630e-05 -3.282880788901820779e-05 -1.624044489290099591e-05
9.300000000000000000e+02 4.200951766967773438e+01 1.022110748291015625e+01 1.678271655691787601e-04 4.532941966317594051e-05 6.394697265932336450e-05 3.011069384228903800e-05
9.310000000000000000e+02 5.166481399536132812e+01 -1.173170566558837891e+01 -1.493176205258350819e-05 -3.048551491247053491e-07 -4.570984856400173157e-06 -8.759317893236584496e-07
9.320000000000000000e+02 5.109674453735351562e+01 -1.400443649291992188e+01 -7.523467502323910594e-06 3.313312618047348224e-06 -1.263046442545601167e-06 2.812665570672834292e-06
9.330000000000000000e+02 4.340215301513671875e+01 8.023293495178222656e+00 1.648330799071118236e-04 3.766368899960070848e-05 6.074903285480104387e-05 4.030349373351782560e-05
9.340000000000000000e+02 6.171104431152343750e+01 3.623202133178710938e+01 1.014433130621910095e-01 1.209852397441864014e-01 6.672856211662292480e-02 -1.635562330484390259e-01
9.350000000000000000e+02 1.835531234741210938e+01 -1.715143680572509766e+00 1.783655352483037859e-05 5.665285698341904208e-06 7.050552085274830461e-06 -1.192472063848981634e-05
9.360000000000000000e+02 1.770215034484863281e+01 -1.222831845283508301e+00 1.790372698451392353e-05 3.182036834914470091e-06 6.325729373202193528e-06 -4.266572886990616098e-06
9.370000000000000000e+02 1.900148582458496094e+01 -2.228413820266723633e+00 1.715454345685429871e-05 1.368544531032966916e-06 5.556926225835923105e-06 -3.944945547118550166e-06
9.380000000000000000e+02 1.703384780883789062e+01 -7.459476590156555176e-01 1.932052146003115922e-05 5.688416422344744205e-06 7.502681455662241206e-06 -1.270253414986655116e-05
9.390000000000000000e+02 5.886680221557617188e+01 3.594734954833984375e+01 -8.261172473430633545e-02 -1.949111931025981903e-02 -3.063085302710533142e-02 -6.396710406988859177e-03
9.400000000000000000e+02 5.629527282714843750e+01 3.733139419555664062e+01 -2.252145111560821533e-02 -6.176487077027559280e-04 -6.941729690879583359e-03 1.331532560288906097e-02
9.410000000000000000e+02 5.957337570190429688e+01 3.678407287597656250e+01 -2.530026482418179512e-03 9.681365452706813812e-03 2.145401667803525925e-03 -4.948678240180015564e-02
9.420000000000000000e+02 5.366766357421875000e+01 -1.546751117706298828e+01 -3.849318090942688286e-06 -1.891985903057502583e-06 -1.722391175462689716e-06 -2.178832573918043636e-06
9.430000000000000000e+02 4.788231658935546875e+01 -4.385773658752441406e+00 -3.205819302820600569e-05 -7.876516065152827650e-06 -1.198041354655288160e-05 -1.506376702309353277e-05
9.440000000000000000e+02 4.908058929443359375e+01 -5.731125354766845703e+00 2.919861799455247819e-05 2.766798388620372862e-06 9.589624824002385139e-06 7.736812221992295235e-06
9.450000000000000000e+02 4.266638946533203125e+01 1.517809486389160156e+01 -2.674416464287787676e-04 1.143567933468148112e-04 -4.592545519699342549e-05 3.553352871676906943e-05
9.460000000000000000e+02 4.185994338989257812e+01 1.440978527069091797e+01 -2.257633750559762120e-04 8.416076161665841937e-05 -4.248078403179533780e-05 2.004924499487970024e-05
9.470000000000000000e+02 5.004867935180664062e+01 -6.401542186737060547e+00 2.733736255322583020e-05 3.160113806188746821e-07 8.296012310893274844e-06 3.642435331130400300e-06
9.480000000000000000e+02 5.099221420288085938e+01 -9.437847137451171875e+00 1.894159504445269704e-05 -4.268066788881696993e-07 5.554436484089819714e-06 1.304121155953907873e-06
9.490000000000000000e+02 4.715093612670898438e+01 -6.815604567527770996e-01 -6.048217983334325254e-05 -1.250581408385187387e-05 -2.189639781136065722e-05 -2.559994027251377702e-05
9.500000000000000000e+02 5.083084106445312500e+01 3.162010765075683594e+01 -5.947888363152742386e-03 -1.987737137824296951e-03 -2.380687743425369263e-03 -4.994427319616079330e-03
9.510000000000000000e+02 4.801335525512695312e+01 2.999079704284667969e+01 -3.059481969103217125e-03 -8.040402317419648170e-04 -1.159056671895086765e-03 -6.695720949210226536e-04
9.520000000000000000e+02 4.413360214233398438e+01 2.542409706115722656e+01 -7.444957154802978039e-04 -1.381465845042839646e-04 -2.647927030920982361e-04 6.574006692972034216e-05
9.530000000000000000e+02 4.369689559936523438e+01 1.993321800231933594e+01 -3.299697709735482931e-04 1.009333500405773520e-04 -6.871092045912519097e-05 1.482785010011866689e-04
9.540000000000000000e+02 4.231844329833984375e+01 1.771961402893066406e+01 -2.805387484841048717e-04 9.655531903263181448e-05 -5.519502883544191718e-05 7.213224307633936405e-05
9.550000000000000000e+02 4.571156692504882812e+01 2.116351366043090820e+00 -8.278364839497953653e-05 -1.235140643984777853e-05 -2.854051672329660505e-05 -3.624914825195446610e-05
9.560000000000000000e+02 4.645091247558593750e+01 7.135546207427978516e-01 -6.922629836481064558e-05 -1.191668889077845961e-05 -2.434289672237355262e-05 -3.185447349096648395e-05
9.570000000000000000e+02 5.154536437988281250e+01 3.331433486938476562e+01 -1.596955209970474243e-02 -1.134137506596744061e-03 -5.131106823682785034e-03 -3.403375623747706413e-03
9.580000000000000000e+02 5.021908569335937500e+01 3.227374267578125000e+01 -8.713842369616031647e-03 -6.474907277151942253e-04 -2.808399964123964310e-03 -1.373804989270865917e-03
9.590000000000000000e+02 4.932260894775390625e+01 -6.474966526031494141e+00 -2.676970507309306413e-05 -2.153097511836676858e-06 -8.676840479893144220e-06 -5.743694600823801011e-06
9.600000000000000000e+02 4.593021011352539062e+01 2.521361160278320312e+01 2.202767936978489161e-04 8.129999332595616579e-05 9.047303319675847888e-05 -3.597984323278069496e-04
9.610000000000000000e+02 4.340376281738281250e+01 6.345609664916992188e+00 -1.189579779747873545e-04 4.110201643925393000e-06 -3.445433321758173406e-05 -4.557990178000181913e-05
9.620000000000000000e+02 5.123239135742187500e+01 -1.019902992248535156e+01 -1.750180672388523817e-05 -2.616717438286286779e-07 -5.329043688107049093e-06 -1.052302536663773935e-06
9.630000000000000000e+02 4.384037399291992188e+01 3.946448087692260742e+00 -8.478357631247490644e-05 -8.963296750152949244e-06 -2.812406091834418476e-05 -3.878952338709495962e-05
9.640000000000000000e+02 4.482759475708007812e+01 2.496957778930664062e+01 1.350766397081315517e-04 6.450849468819797039e-05 5.987553959130309522e-05 -3.880367730744183064e-04
9.650000000000000000e+02 4.680862808227539062e+01 1.220927387475967407e-02 6.417613622033968568e-05 1.547473038954194635e-05 2.389525980106554925e-05 2.851345379895064980e-05
9.660000000000000000e+02 4.956311416625976562e+01 -4.889396190643310547e+00 3.433839083299972117e-05 1.199641701532527804e-06 1.066140976035967469e-05 6.160007160360692069e-06
9.670000000000000000e+02 4.442897033691406250e+01 2.419374656677246094e+01 -4.727497580461204052e-04 -1.309357321588322520e-04 -1.811056426959112287e-04 1.003249708446674049e-04
9.680000000000000000e+02 4.610326766967773438e+01 2.720549011230468750e+01 -1.136773265898227692e-03 -3.653618623502552509e-04 -4.506405384745448828e-04 -1.400002947775647044e-04
9.690000000000000000e+02 4.878395843505859375e+01 -2.645589590072631836e+00 -5.011292887502349913e-05 -3.618597702370607294e-06 -1.611945845070295036e-05 -1.246249121322762221e-05
9.700000000000000000e+02 4.833397293090820312e+01 -3.520405292510986328e+00 -4.032759170513600111e-05 -5.742719622503500432e-06 -1.382109257974661887e-05 -1.444290865038055927e-05
9.710000000000000000e+02 4.705367279052734375e+01 -2.272167682647705078e+00 4.267621625331230462e-05 1.378045089950319380e-05 1.693699960014782846e-05 2.253179627587087452e-05
9.720000000000000000e+02 4.918839645385742188e+01 2.987868881225585938e+01 -2.414463786408305168e-03 -1.997743733227252960e-03 -1.323662232607603073e-03 -1.092515885829925537e-03
9.730000000000000000e+02 5.065277099609375000e+01 -1.099913597106933594e+01 -1.633991450944449753e-05 -1.961058337940357887e-08 -4.907857601210707799e-06 -1.493843797106819693e-06
9.740000000000000000e+02 4.215558624267578125e+01 1.689968872070312500e+01 2.851147146429866552e-04 9.202435467159375548e-05 1.131417229771614075e-04 -7.975495464052073658e-06
9.750000000000000000e+02 4.202232742309570312e+01 1.606728553771972656e+01 -2.403758553555235267e-04 9.777281957212835550e-05 -4.278091000742278993e-05 4.596917278831824660e-05
9.760000000000000000e+02 4.532949829101562500e+01 2.812844753265380859e+00 8.805810648482292891e-05 2.145683902199380100e-05 3.285448474343866110e-05 3.639478018158115447e-05
9.770000000000000000e+02 4.526656723022460938e+01 4.469892978668212891e+00 -1.129585580201819539e-04 -1.208898902405053377e-05 -3.751426629605703056e-05 -4.562564572552219033e-05
9.780000000000000000e+02 4.523700332641601562e+01 2.573416137695312500e+01 -6.752330809831619263e-04 -2.646531502250581980e-04 -2.819658548105508089e-04 2.293310353707056493e-05
9.790000000000000000e+02 4.454857254028320312e+01 4.208922863006591797e+00 9.945243800757452846e-05 2.598627725092228502e-05 3.763161657843738794e-05 3.942393595934845507e-05
9.800000000000000000e+02 4.405046463012695312e+01 2.340644264221191406e+01 2.385790430707857013e-04 1.045927710947580636e-04 1.029515406116843224e-04 -2.484869910404086113e-04
9.810000000000000000e+02 4.371212768554687500e+01 2.260036849975585938e+01 -3.606335667427629232e-04 -2.245652467536274344e-05 -1.149270319729112089e-04 1.324975019088014960e-04
9.820000000000000000e+02 4.192722320556640625e+01 1.523534297943115234e+01 2.480021212249994278e-04 7.635287329321727157e-05 9.730649617267772555e-05 1.078288732969667763e-05
9.830000000000000000e+02 4.979588317871093750e+01 -7.956487655639648438e+00 -2.287842289661057293e-05 -1.158560621661308687e-06 -7.211095180537085980e-06 -3.378228257133741863e-06
9.840000000000000000e+02 5.002259063720703125e+01 -8.710542678833007812e+00 2.084237166855018586e-05 6.991481171780833392e-08 6.273685812629992142e-06 2.746927066255011596e-06
9.850000000000000000e+02 4.956295394897460938e+01 -7.214832305908203125e+00 2.490248516551218927e-05 1.350990601167723071e-06 7.876042218413203955e-06 4.617360445990925655e-06
9.860000000000000000e+02 5.319779968261718750e+01 -1.574675941467285156e+01 4.417232958076056093e-06 8.388709602513699792e-07 1.576831209604279138e-06 4.761431284805439645e-07
9.870000000000000000e+02 5.316101455688476562e+01 -1.485939788818359375e+01 3.394318355276482180e-06 2.238250999653246254e-06 1.689770783741550986e-06 2.460053792674443685e-06
9.880000000000000000e+02 4.273999023437500000e+01 7.836731433868408203e+00 -1.365141069982200861e-04 1.871408676379360259e-05 -3.534000643412582576e-05 -4.175111826043576002e-05
9.890000000000000000e+02 4.292315673828125000e+01 2.015451240539550781e+01 3.208777634426951408e-04 9.908435458783060312e-05 1.259886339539662004e-04 -7.914823072496801615e-05
9.900000000000000000e+02 4.270131683349609375e+01 1.934251022338867188e+01 -3.057452267967164516e-04 8.143924787873402238e-05 -6.729179585818201303e-05 1.002042045001871884e-04
9.910000000000000000e+02 4.745074844360351562e+01 2.936915969848632812e+01 -1.344372518360614777e-03 4.772815736941993237e-05 -3.889932995662093163e-04 -1.320853480137884617e-03
9.920000000000000000e+02 4.423188400268554688e+01 3.241077899932861328e+00 7.869713590480387211e-05 2.689193206606432796e-05 3.167672184645198286e-05 3.639540227595716715e-05
9.930000000000000000e+02 4.181261062622070312e+01 1.358031463623046875e+01 2.203472977271303535e-04 7.323213503696024418e-05 8.807382982922717929e-05 2.020564170379657298e-05
9.940000000000000000e+02 4.608475875854492188e+01 1.417120575904846191e+00 7.562595419585704803e-05 1.800912104954477400e-05 2.809052421071100980e-05 3.337052112328819931e-05
9.950000000000000000e+02 4.179425811767578125e+01 1.274294281005859375e+01 -1.955305342562496662e-04 7.505194662371650338e-05 -3.614357410697266459e-05 2.392895623870572308e-07
9.960000000000000000e+02 4.181560134887695312e+01 1.190309429168701172e+01 1.934018946485593915e-04 5.922157288296148181e-05 7.578703662147745490e-05 2.628422953421249986e-05
9.970000000000000000e+02 4.316089630126953125e+01 2.096696853637695312e+01 -3.285408602096140385e-04 5.023911216994747519e-05 -8.349052222911268473e-05 1.314041874138638377e-04
9.980000000000000000e+02 4.693855667114257812e+01 2.869106674194335938e+01 -1.751156640239059925e-03 -7.134694023989140987e-04 -7.393878186121582985e-04 -3.922712930943816900e-04
9.990000000000000000e+02 5.079850387573242188e+01 3.290234756469726562e+01 -1.185235474258661270e-02 1.331594190560281277e-03 -3.156228223815560341e-03 -3.301275894045829773e-03
1.000000000000000000e+03 4.415784454345703125e+01 4.910045623779296875e+00 -1.053147789207287133e-04 -6.575776751560624689e-06 -3.356716842972673476e-05 -4.462159267859533429e-05
1.001000000000000000e+03 4.305651473999023438e+01 7.085947990417480469e+00 1.278726267628371716e-04 3.259280128986574709e-05 4.813963096239604056e-05 3.883730460074730217e-05
1.002000000000000000e+03 1.099469423294067383e+00 -2.586590194702148438e+01 -6.073714466765522957e-04 -7.366984209511429071e-05 -2.043123822659254074e-04 -8.268727106042206287e-05
1.003000000000000000e+03 8.295670509338378906e+00 -2.538625526428222656e+01 -7.546945707872509956e-04 -7.630865729879587889e-05 -2.493009669706225395e-04 -2.283647627336904407e-04
1.004000000000000000e+03 4.291892242431640625e+01 -2.808980751037597656e+01 -5.216935276985168457e-01 -2.285618543624877930e+00 -8.421936035156250000e-01 -9.375830888748168945e-01
1.005000000000000000e+03 7.945569610595703125e+01 4.119530105590820312e+01 9.712469764053821564e-03 -4.153114855289459229e-01 -1.216797009110450745e-01 1.776826567947864532e-02
1.006000000000000000e+03 7.835146331787109375e+01 3.930372238159179688e+01 -3.703301027417182922e-02 -3.400063812732696533e-01 -1.131118237972259521e-01 1.063723713159561157e-01
1.007000000000000000e+03 7.854264831542968750e+01 3.771743774414062500e+01 -2.328280173242092133e-02 -4.745937287807464600e-01 -1.493629515171051025e-01 1.473170965909957886e-01
1.008000000000000000e+03 7.954691314697265625e+01 3.718181991577148438e+01 -1.206375891342759132e-03 -6.929489970207214355e-01 -2.082466185092926025e-01 5.716750025749206543e-02
1.009000000000000000e+03 7.734036254882812500e+01 3.817545700073242188e+01 -7.135247439146041870e-02 -2.298069894313812256e-01 -9.034784138202667236e-02 2.084884345531463623e-01
1.010000000000000000e+03 7.964640045166015625e+01 -2.129298019409179688e+01 -8.832119638100266457e-04 -7.367345690727233887e-02 -2.236699871718883514e-02 -1.236842200160026550e-02
1.011000000000000000e+03 7.646485900878906250e+01 -2.406419372558593750e+01 -3.433813899755477905e-02 3.311848267912864685e-03 -9.307887405157089233e-03 -2.622318826615810394e-02
1.012000000000000000e+03 7.809318542480468750e+01 -2.422337532043457031e+01 -1.073251478374004364e-02 -1.236952468752861023e-02 -6.930612027645111084e-03 -1.785743236541748047e-02
1.013000000000000000e+03 7.890370941162109375e+01 -2.385058975219726562e+01 -5.101344082504510880e-03 -1.689884625375270844e-02 -6.600057240575551987e-03 -1.315772719681262970e-02
1.014000000000000000e+03 7.913520050048828125e+01 -2.460233497619628906e+01 -2.797095337882637978e-03 -8.479395881295204163e-03 -3.382947295904159546e-03 -6.077561527490615845e-03
1.015000000000000000e+03 7.889816284179687500e+01 2.191388893127441406e+01 7.735087070614099503e-03 -2.283340930938720703e+00 -6.826817393302917480e-01 3.447314724326133728e-02
1.016000000000000000e+03 7.888782501220703125e+01 1.630178260803222656e+01 -9.303026017732918262e-04 -2.306295156478881836e+00 -6.921676397323608398e-01 1.604814897291362286e-03
1.017000000000000000e+03 7.962049865722656250e+01 3.241521072387695312e+01 8.737320313230156898e-04 -1.494393587112426758e+00 -4.480559527873992920e-01 7.420355081558227539e-02
1.018000000000000000e+03 7.886532592773437500e+01 3.229401016235351562e+01 -3.579549491405487061e-03 -1.223054170608520508e+00 -3.679901063442230225e-01 2.049817293882369995e-01
1.019000000000000000e+03 7.888021850585937500e+01 2.991975975036621094e+01 7.005441468209028244e-03 -1.584899663925170898e+00 -4.733682572841644287e-01 1.938121914863586426e-01
1.020000000000000000e+03 7.888291168212890625e+01 2.912182617187500000e+01 7.365287747234106064e-03 -1.698331832885742188e+00 -5.072899460792541504e-01 1.831948012113571167e-01
1.021000000000000000e+03 7.889631652832031250e+01 2.592173576354980469e+01 1.370415650308132172e-02 -2.069244623184204102e+00 -6.166621446609497070e-01 1.155821308493614197e-01
1.022000000000000000e+03 7.963230895996093750e+01 2.360750389099121094e+01 2.802149625495076180e-03 -2.779223680496215820e+00 -8.329264521598815918e-01 2.631290815770626068e-02
1.023000000000000000e+03 7.890107727050781250e+01 2.351665687561035156e+01 1.312423963099718094e-02 -2.230271100997924805e+00 -6.651440858840942383e-01 6.183394044637680054e-02
1.024000000000000000e+03 7.817784118652343750e+01 2.504996109008789062e+01 3.427155688405036926e-02 -1.632101774215698242e+00 -4.793490469455718994e-01 1.384203284978866577e-01
1.025000000000000000e+03 7.889668273925781250e+01 2.111445236206054688e+01 5.640692543238401413e-03 -2.299232959747314453e+00 -6.880776882171630859e-01 2.452868223190307617e-02
1.026000000000000000e+03 7.889112854003906250e+01 1.790972518920898438e+01 2.704242011532187462e-03 -2.314228534698486328e+00 -6.934572458267211914e-01 3.698594402521848679e-03
1.027000000000000000e+03 7.889392089843750000e+01 1.951454925537109375e+01 4.264056216925382614e-03 -2.314719438552856445e+00 -6.931366324424743652e-01 1.247601676732301712e-02
1.028000000000000000e+03 7.962891387939453125e+01 1.719470977783203125e+01 1.084767631255090237e-03 -2.875124454498291016e+00 -8.622118830680847168e-01 7.743362803012132645e-03
1.029000000000000000e+03 7.888947296142578125e+01 1.710650253295898438e+01 -2.795953332679346204e-05 -2.310838222503662109e+00 -6.932598352432250977e-01 1.240763929672539234e-03
1.030000000000000000e+03 7.888713073730468750e+01 1.549730682373046875e+01 -3.286287887021899223e-03 -2.302797555923461914e+00 -6.918251514434814453e-01 3.118930384516716003e-03
1.031000000000000000e+03 7.815322113037109375e+01 1.541759300231933594e+01 -6.226726807653903961e-03 -1.747512102127075195e+00 -5.261216759681701660e-01 -5.907678278163075447e-04
1.032000000000000000e+03 7.888830566406250000e+01 1.469570064544677734e+01 -3.988997079432010651e-03 -2.302010059356689453e+00 -6.917997002601623535e-01 7.619207259267568588e-03
1.033000000000000000e+03 7.816529083251953125e+01 1.300981426239013672e+01 -1.538556069135665894e-02 -1.757023811340332031e+00 -5.317227840423583984e-01 2.281364426016807556e-02
1.034000000000000000e+03 7.889903259277343750e+01 9.882498741149902344e+00 -4.938669968396425247e-03 -2.373871803283691406e+00 -7.136431932449340820e-01 5.255261063575744629e-02
1.035000000000000000e+03 7.821070098876953125e+01 -1.825302124023437500e+01 -1.372158154845237732e-02 -1.606478542089462280e-01 -5.231083184480667114e-02 -1.025780215859413147e-01
1.036000000000000000e+03 7.864851379394531250e+01 3.694599533081054688e+01 -1.966319419443607330e-02 -5.640131831169128418e-01 -1.751029044389724731e-01 1.612352728843688965e-01
1.037000000000000000e+03 7.962511444091796875e+01 3.001907730102539062e+01 -4.374556592665612698e-04 -1.955962061882019043e+00 -5.869198441505432129e-01 7.073960453271865845e-02
1.038000000000000000e+03 7.813867187500000000e+01 3.061920547485351562e+01 1.193161588162183762e-02 -1.130170822143554688e+00 -3.354717791080474854e-01 2.963604927062988281e-01
1.039000000000000000e+03 7.889920806884765625e+01 9.081758499145507812e+00 -4.099641460925340652e-03 -2.397737503051757812e+00 -7.205511927604675293e-01 5.727729573845863342e-02
1.040000000000000000e+03 7.890409851074218750e+01 1.861854672431945801e+00 1.916140876710414886e-02 -2.408612012863159180e+00 -7.168352007865905762e-01 -5.756032094359397888e-02
1.041000000000000000e+03 7.890435791015625000e+01 -5.357097625732421875e+00 2.458151895552873611e-03 -1.589299559593200684e+00 -4.760524332523345947e-01 -1.738858520984649658e-01
1.042000000000000000e+03 7.890899658203125000e+01 -1.096706390380859375e+01 -3.521893639117479324e-03 -8.323496580123901367e-01 -2.507614791393280029e-01 -1.405083239078521729e-01
1.043000000000000000e+03 7.944007110595703125e+01 4.038053512573242188e+01 -1.252177264541387558e-02 -4.393016695976257324e-01 -1.355470418930053711e-01 1.540099270641803741e-02
1.044000000000000000e+03 7.712624359130859375e+01 3.982886505126953125e+01 -9.022942185401916504e-02 -1.145138517022132874e-01 -6.142298132181167603e-02 1.388078778982162476e-01
1.045000000000000000e+03 7.951306915283203125e+01 3.797479248046875000e+01 -4.199241288006305695e-03 -6.011226773262023926e-01 -1.815965622663497925e-01 5.193355306982994080e-02
1.046000000000000000e+03 7.872683715820312500e+01 3.617822647094726562e+01 -1.284913346171379089e-02 -6.624543070793151855e-01 -2.025910317897796631e-01 1.701365560293197632e-01
1.047000000000000000e+03 7.961853790283203125e+01 3.321247482299804688e+01 -2.281919820234179497e-03 -1.341404199600219727e+00 -4.031058251857757568e-01 7.229541242122650146e-02
1.048000000000000000e+03 7.885797882080078125e+01 3.308006668090820312e+01 -3.806844586506485939e-03 -1.102698326110839844e+00 -3.319515585899353027e-01 2.014343589544296265e-01
1.049000000000000000e+03 7.887004089355468750e+01 3.150467872619628906e+01 2.878546714782714844e-03 -1.345310688018798828e+00 -4.027296602725982666e-01 2.044394165277481079e-01
1.050000000000000000e+03 7.889018249511718750e+01 2.752223205566406250e+01 1.321963686496019363e-02 -1.905214428901672363e+00 -5.675984025001525879e-01 1.537601351737976074e-01
1.051000000000000000e+03 7.963186645507812500e+01 9.975647926330566406e+00 -1.636137138120830059e-03 -2.939457654953002930e+00 -8.823280930519104004e-01 3.006167896091938019e-02
1.052000000000000000e+03 7.889654541015625000e+01 1.148500728607177734e+01 -7.224635221064090729e-03 -2.332597017288208008e+00 -7.019464969635009766e-01 3.718604147434234619e-02
1.053000000000000000e+03 7.890021514892578125e+01 8.280349731445312500e+00 -6.873503443785011768e-04 -2.423854827880859375e+00 -7.273626327514648438e-01 5.970072746276855469e-02
1.054000000000000000e+03 7.891278839111328125e+01 4.272776126861572266e+00 1.393293309956789017e-02 -2.494387149810791016e+00 -7.441362738609313965e-01 3.963740076869726181e-03
1.055000000000000000e+03 7.890997314453125000e+01 5.876588344573974609e+00 1.108718197792768478e-02 -2.490301609039306641e+00 -7.437643408775329590e-01 3.728950768709182739e-02
1.056000000000000000e+03 7.963471221923828125e+01 3.560944080352783203e+00 2.384354360401630402e-03 -3.098818540573120117e+00 -9.289302825927734375e-01 1.006262004375457764e-02
1.057000000000000000e+03 7.891127777099609375e+01 3.470917463302612305e+00 1.578523032367229462e-02 -2.479081392288208008e+00 -7.389888763427734375e-01 -1.551965903490781784e-02
1.058000000000000000e+03 7.890412902832031250e+01 1.061719536781311035e+00 1.703300513327121735e-02 -2.357187509536743164e+00 -7.020463347434997559e-01 -8.035143464803695679e-02
1.059000000000000000e+03 7.890381622314453125e+01 -2.947764396667480469e+00 1.042940281331539154e-02 -1.927229523658752441e+00 -5.750400424003601074e-01 -1.572075039148330688e-01
1.060000000000000000e+03 7.890186309814453125e+01 -1.342262506484985352e+00 1.316811330616474152e-02 -2.126398324966430664e+00 -6.339690685272216797e-01 -1.338959634304046631e-01
1.061000000000000000e+03 7.963301849365234375e+01 -3.656708478927612305e+00 2.460723975673317909e-03 -2.262147903442382812e+00 -6.779062151908874512e-01 -4.583745077252388000e-02
1.062000000000000000e+03 7.890385437011718750e+01 -4.555254936218261719e+00 5.578916985541582108e-03 -1.703822612762451172e+00 -5.094730854034423828e-01 -1.707700043916702271e-01
1.063000000000000000e+03 7.890695953369140625e+01 -6.155670166015625000e+00 1.376216416247189045e-03 -1.475416898727416992e+00 -4.422122240066528320e-01 -1.726229190826416016e-01
1.064000000000000000e+03 7.890928649902343750e+01 -8.558414459228515625e+00 -2.868976909667253494e-03 -1.138613581657409668e+00 -3.424447476863861084e-01 -1.610593348741531372e-01
1.065000000000000000e+03 7.963490295410156250e+01 -1.007123184204101562e+01 7.290219946298748255e-05 -1.138354182243347168e+00 -3.414843976497650146e-01 -4.553538560867309570e-02
1.066000000000000000e+03 7.819773101806640625e+01 -1.184094333648681641e+01 -1.264067366719245911e-02 -5.766153335571289062e-01 -1.767767965793609619e-01 -2.038318514823913574e-01
1.067000000000000000e+03 7.890946197509765625e+01 -9.360215187072753906e+00 -2.088466659188270569e-03 -1.032508492469787598e+00 -3.103790879249572754e-01 -1.549981683492660522e-01
1.068000000000000000e+03 7.891038513183593750e+01 -1.176879882812500000e+01 -4.809848964214324951e-03 -7.403240799903869629e-01 -2.235401719808578491e-01 -1.330986171960830688e-01
1.069000000000000000e+03 7.891282653808593750e+01 -1.256827831268310547e+01 -4.340384621173143387e-03 -6.543907523155212402e-01 -1.976193487644195557e-01 -1.240014880895614624e-01
1.070000000000000000e+03 7.891705322265625000e+01 -1.497310352325439453e+01 -4.884892608970403671e-03 -4.289283156394958496e-01 -1.301439702510833740e-01 -9.917163103818893433e-02
1.071000000000000000e+03 7.963868713378906250e+01 -1.648586273193359375e+01 -6.640318897552788258e-04 -3.692356050014495850e-01 -1.109698936343193054e-01 -2.717407792806625366e-02
1.072000000000000000e+03 7.891950988769531250e+01 -1.577503776550292969e+01 -4.573788493871688843e-03 -3.650040328502655029e-01 -1.108733490109443665e-01 -9.067181497812271118e-02
1.073000000000000000e+03 7.964646148681640625e+01 -2.049083709716796875e+01 -1.029117265716195107e-03 -1.071510538458824158e-01 -3.245405107736587524e-02 -1.494697015732526779e-02
1.074000000000000000e+03 7.743483734130859375e+01 -1.996312713623046875e+01 -2.735477872192859650e-02 -6.246530637145042419e-02 -2.694602496922016144e-02 -9.914574027061462402e-02
1.075000000000000000e+03 7.895159149169921875e+01 -2.137052726745605469e+01 -4.784545861184597015e-03 -6.827250123023986816e-02 -2.191711403429508209e-02 -3.536326438188552856e-02
1.076000000000000000e+03 4.099248504638671875e+01 -3.084171867370605469e+01 -1.332345366477966309e+00 -1.932431936264038086e+00 -9.794331789016723633e-01 -1.335848927497863770e+00
1.077000000000000000e+03 4.224691390991210938e+01 -3.305556106567382812e+01 -3.089398518204689026e-02 -1.439569830894470215e+00 -4.411391317844390869e-01 -3.074586093425750732e-01
1.078000000000000000e+03 9.161939620971679688e+00 -2.694823074340820312e+01 -5.866379942744970322e-04 -1.734591205604374409e-04 -2.280291373608633876e-04 -4.746147897094488144e-04
1.079000000000000000e+03 7.036772918701171875e+01 1.480928707122802734e+01 1.218941956758499146e-01 4.197166919708251953e+00 1.295718431472778320e+00 1.247815787792205811e-01
1.080000000000000000e+03 6.964931488037109375e+01 1.391541767120361328e+01 1.618833690881729126e-01 5.016405582427978516e+00 1.553486704826354980e+00 3.106014132499694824e-01
1.081000000000000000e+03 1.247949409484863281e+01 -3.147089004516601562e+01 5.473071243613958359e-03 2.258697350043803453e-04 1.709682284854352474e-03 2.416121307760477066e-03
1.082000000000000000e+03 3.557495498657226562e+01 -3.366419601440429688e+01 -2.177996337413787842e-01 -9.247861057519912720e-02 -9.308347105979919434e-02 -2.001128792762756348e-01
1.083000000000000000e+03 3.814052045345306396e-01 3.481279754638671875e+01 -5.576343392021954060e-05 3.123503120150417089e-05 -7.358520178968319669e-06 7.107855253707384691e-06
1.084000000000000000e+03 3.700668513774871826e-01 3.403050994873046875e+01 5.348760896595194936e-05 3.551612826413474977e-05 2.670112189662177116e-05 -2.741141315709683113e-06
1.085000000000000000e+03 3.901874423027038574e-01 2.842522430419921875e+01 -2.542161200835835189e-05 4.028461626148782670e-05 4.458901003090431914e-06 2.965195164961187402e-07
1.086000000000000000e+03 3.855867087841033936e-01 2.761958503723144531e+01 2.405966006335802376e-05 3.992523124907165766e-05 1.919546775752678514e-05 1.201585178023378830e-07
1.087000000000000000e+03 3.629804849624633789e-01 2.118044090270996094e+01 1.633107422094326466e-05 3.849282802548259497e-05 1.644716940063517541e-05 -1.185260202873905655e-06
1.088000000000000000e+03 1.093373060226440430e+00 2.195992088317871094e+01 1.766017521731555462e-05 3.453563476796261966e-05 1.565874299558345228e-05 -1.123870902119961102e-06
1.089000000000000000e+03 1.121735692024230957e+00 2.518181228637695312e+01 2.208616933785378933e-05 3.512670809868723154e-05 1.716386213956866413e-05 1.101451175600232091e-06
1.090000000000000000e+03 1.146186470985412598e+00 2.680123710632324219e+01 2.390739427937660366e-05 3.501291212160140276e-05 1.767609137459658086e-05 1.755495190991496202e-06
1.091000000000000000e+03 1.133399367332458496e+00 2.599082374572753906e+01 -2.296661659784149379e-05 3.770432158489711583e-05 4.421310677571455017e-06 -1.236078105648630299e-06
1.092000000000000000e+03 3.766582906246185303e-01 2.600679588317871094e+01 2.253568709420505911e-05 4.038320548716001213e-05 1.887566759251058102e-05 -1.497762127655732911e-07
1.093000000000000000e+03 1.160608053207397461e+00 2.761269378662109375e+01 -2.502562165318522602e-05 3.685327828861773014e-05 3.548297172528691590e-06 -7.513580726481450256e-07
1.094000000000000000e+03 1.226719856262207031e+00 3.005643844604492188e+01 2.923891770478803664e-05 3.295816713944077492e-05 1.865912599896546453e-05 1.517684950158582069e-06
1.095000000000000000e+03 2.842574357986450195e+00 3.011159896850585938e+01 3.258634387748315930e-05 2.311721982550807297e-05 1.671106838330160826e-05 -5.820716069138143212e-07
1.096000000000000000e+03 1.107954025268554688e+00 3.322248458862304688e+01 3.807683970080688596e-05 3.175453093717806041e-05 2.094941010000184178e-05 1.995364982576575130e-06
1.097000000000000000e+03 3.896790742874145508e-01 3.245264434814453125e+01 4.727173291030339897e-05 3.599579213187098503e-05 2.498025787645019591e-05 -1.520487899142608512e-06
1.098000000000000000e+03 1.103121519088745117e+00 3.397152328491210938e+01 -4.140598321100696921e-05 2.918196150858420879e-05 -3.667206328827887774e-06 3.763509312193491496e-06
1.099000000000000000e+03 1.216326713562011719e+00 3.543110275268554688e+01 -4.445706872502341866e-05 2.388794382568448782e-05 -6.170737833599559963e-06 1.044329746946459636e-05
1.100000000000000000e+03 3.194679498672485352e+00 3.946317291259765625e+01 -3.702933827298693359e-05 5.029195745009928942e-05 3.978785571234766394e-06 3.855167506117140874e-06
1.101000000000000000e+03 1.442308783531188965e+00 3.781704711914062500e+01 6.435348768718540668e-05 8.111803253996185958e-06 2.173958819184917957e-05 4.812184670299757272e-06
1.102000000000000000e+03 4.148335158824920654e-01 3.962543106079101562e+01 -4.631501724361442029e-05 2.180068804591428488e-05 -7.354299214057391509e-06 2.018813574977684766e-05
1.103000000000000000e+03 1.857877254486083984e+00 4.045017623901367188e+01 4.001495108241215348e-05 -2.163576255043153651e-06 1.135541242547333241e-05 1.090133628167677671e-05
1.104000000000000000e+03 1.695828318595886230e+00 4.173807907104492188e+01 -5.066818630439229310e-06 8.964614607975818217e-06 1.169338929685181938e-06 -1.524734216218348593e-05
1.105000000000000000e+03 4.167105853557586670e-01 -3.802013778686523438e+01 -6.158453179523348808e-04 1.389033161103725433e-03 2.319563354831188917e-04 6.907825445523485541e-05
1.106000000000000000e+03 1.274721741676330566e+00 -3.713735961914062500e+01 -7.603056728839874268e-04 1.213066047057509422e-03 1.358280860586091876e-04 5.319449119269847870e-04
1.107000000000000000e+03 1.269802212715148926e+00 -3.635298156738281250e+01 8.248322992585599422e-04 9.184012887999415398e-04 5.229700473137199879e-04 2.214349951827898622e-04
1.108000000000000000e+03 3.608324229717254639e-01 1.957113075256347656e+01 1.340681137662613764e-05 3.662933886516839266e-05 1.501084534538676962e-05 -1.192749436995654833e-06
1.109000000000000000e+03 3.559387326240539551e-01 1.474786281585693359e+01 7.583131264254916459e-06 2.780145041469950229e-05 1.061537477653473616e-05 -8.945643230617861263e-07
1.110000000000000000e+03 3.555641770362854004e-01 1.394436454772949219e+01 -7.085417564667295665e-06 2.612548814795445651e-05 5.712021447834558785e-06 -8.561013942198769655e-07
1.111000000000000000e+03 3.799536526203155518e-01 7.499859333038330078e+00 -5.442182100523496047e-06 9.147244782070629299e-06 1.111518713514669798e-06 -9.558125384501181543e-07
1.112000000000000000e+03 1.142426013946533203e+00 -2.909114837646484375e+01 -6.405104650184512138e-04 -8.640014857519418001e-05 -2.180731826229020953e-04 -2.254262835776899010e-05
1.113000000000000000e+03 1.813217043876647949e+00 -8.125876426696777344e+00 1.235884701600298285e-04 6.158888027130160481e-06 3.892420863849110901e-05 2.477033376635517925e-05
1.114000000000000000e+03 1.077755808830261230e+00 -1.540951442718505859e+01 3.126265364699065685e-04 1.381385845888871700e-05 9.793211938813328743e-05 6.390148337231948972e-05
1.115000000000000000e+03 1.093118309974670410e+00 -2.183795356750488281e+01 4.958700737915933132e-04 -3.295413762316456996e-06 1.477723999414592981e-04 6.456747360061854124e-05
1.116000000000000000e+03 3.782937228679656982e-01 5.084609508514404297e+00 5.183740086067700759e-06 3.344073320477036759e-06 2.558344021963421255e-06 -8.842261536301521119e-07
1.117000000000000000e+03 3.357479333877563477e+00 3.251914024353027344e+00 4.996909410692751408e-06 1.177149897557683289e-06 1.852217678788292687e-06 -3.355294666107511148e-06
1.118000000000000000e+03 1.180508136749267578e+00 6.635859966278076172e+00 -5.436665105662541464e-06 7.752517376502510160e-06 6.947556130398879759e-07 -3.428560148677206598e-06
1.119000000000000000e+03 1.068066000938415527e+00 1.070333290100097656e+01 6.391068836819613352e-06 1.617932321096304804e-05 6.771117568860063329e-06 -1.562620354889077134e-06
1.120000000000000000e+03 1.075469970703125000e+00 9.896938323974609375e+00 -6.269347068155184388e-06 1.516133306722622365e-05 2.667595708771841601e-06 -4.047361017001094297e-06
1.121000000000000000e+03 1.065146327018737793e+00 1.311477756500244141e+01 -7.286221261892933398e-06 2.251220757898408920e-05 4.567795713228406385e-06 -3.541156274877721444e-06
1.122000000000000000e+03 1.063866496086120605e+00 1.230984878540039062e+01 6.789583039790159091e-06 2.001100256165955216e-05 8.040175998758058995e-06 -1.554792106617242098e-06
1.123000000000000000e+03 3.547869324684143066e-01 1.233541297912597656e+01 -6.421535999834304675e-06 2.213031075370963663e-05 4.712632744485745206e-06 -1.028597694130439777e-06
1.124000000000000000e+03 1.066420316696166992e+00 1.392037391662597656e+01 7.499128514609765261e-06 2.361164479225408286e-05 9.333231901109684259e-06 -1.625479967515275348e-06
1.125000000000000000e+03 1.067832350730895996e+00 1.472361469268798828e+01 -8.265728865808341652e-06 2.584502726676873863e-05 5.273789611237589270e-06 -3.020561962330248207e-06
1.126000000000000000e+03 2.497690677642822266e+00 1.554741668701171875e+01 8.271289516414981335e-06 2.238814522570464760e-05 9.197829967888537794e-06 -2.454742343616089784e-06
1.127000000000000000e+03 1.073171854019165039e+00 1.713505363464355469e+01 1.036150661093415692e-05 2.965872772620059550e-05 1.200607039208989590e-05 -1.897386027849279344e-06
1.128000000000000000e+03 1.074975609779357910e+00 1.793712806701660156e+01 -1.163088745670393109e-05 3.153461148031055927e-05 5.971116934233577922e-06 -1.570912900206167251e-06
1.129000000000000000e+03 1.078255534172058105e+00 1.874013519287109375e+01 1.244134000444319099e-05 3.188497794326394796e-05 1.329789483861532062e-05 -1.947847067640395835e-06
1.130000000000000000e+03 1.082218050956726074e+00 1.954530715942382812e+01 -1.391756995872128755e-05 3.384189767530187964e-05 5.977298769721528515e-06 -9.271826115764270071e-07
1.131000000000000000e+03 1.099158525466918945e+00 2.276262283325195312e+01 -1.905590215756092221e-05 3.715601997100748122e-05 5.430035798781318590e-06 -6.734384783158020582e-07
1.132000000000000000e+03 1.227159857749938965e+00 -3.941868972778320312e+01 4.001412598881870508e-04 1.811276655644178391e-03 6.634253659285604954e-04 3.016784030478447676e-04
1.133000000000000000e+03 2.126265287399291992e+00 -3.868993759155273438e+01 1.136819410021416843e-04 1.933051506057381630e-03 6.140200421214103699e-04 3.484960689092986286e-05
1.134000000000000000e+03 1.258358716964721680e+00 -3.869337081909179688e+01 -5.646732752211391926e-04 1.380929839797317982e-03 2.448769810143858194e-04 2.642871986608952284e-04
1.135000000000000000e+03 1.256094098091125488e+00 -3.555913162231445312e+01 -8.005511481314897537e-04 8.646631613373756409e-04 1.923360287037212402e-05 4.121443780604749918e-04
1.136000000000000000e+03 1.975942492485046387e+00 -3.064149475097656250e+01 7.998937508091330528e-04 7.846571679692715406e-05 2.635078271850943565e-04 1.276080874959006906e-04
1.137000000000000000e+03 1.228806853294372559e+00 -3.233582687377929688e+01 -6.878709536977112293e-04 1.700846769381314516e-04 -1.553358742967247963e-04 1.344591291854158044e-04
1.138000000000000000e+03 3.965646624565124512e-01 -3.079946136474609375e+01 6.713308393955230713e-04 -1.504100800957530737e-04 1.562762336106970906e-04 9.022764425026252866e-05
1.139000000000000000e+03 1.209852337837219238e+00 -3.152463340759277344e+01 7.543171523138880730e-04 6.443655001930892467e-05 2.456261136103421450e-04 1.659420668147504330e-04
1.140000000000000000e+03 1.187940835952758789e+00 -3.071583557128906250e+01 -6.570844561792910099e-04 -9.488106115895789117e-06 -1.999717642320320010e-04 4.770803934661671519e-05
1.141000000000000000e+03 1.125988841056823730e+00 -2.828509521484375000e+01 6.650775903835892677e-04 -1.138924562837928534e-04 1.653555373195558786e-04 1.867020364443305880e-05
1.142000000000000000e+03 3.234543561935424805e+00 -2.317549896240234375e+01 -7.146998541429638863e-04 1.184542998089455068e-04 -1.788736699381843209e-04 -1.242911093868315220e-04
1.143000000000000000e+03 1.094132304191589355e+00 -2.505821990966796875e+01 5.856460193172097206e-04 -6.595073500648140907e-05 1.559085794724524021e-04 1.801975122361909598e-05
1.144000000000000000e+03 7.989109516143798828e+00 -2.447189140319824219e+01 6.354103679768741131e-04 -3.796238161157816648e-05 1.792343973647803068e-04 2.759430499281734228e-04
1.145000000000000000e+03 3.640656769275665283e-01 -2.355337524414062500e+01 -5.413434118963778019e-04 -5.830862573930062354e-05 -1.798956072889268398e-04 -8.460402750642970204e-05
1.146000000000000000e+03 1.090031027793884277e+00 -2.344520759582519531e+01 5.485595902428030968e-04 -3.405808456591330469e-05 1.543504477012902498e-04 4.660471313400194049e-05
1.147000000000000000e+03 1.090669512748718262e+00 -2.425069427490234375e+01 -5.769730196334421635e-04 -4.053330121678300202e-05 -1.852519053500145674e-04 -8.821371011435985565e-05
1.148000000000000000e+03 1.093521356582641602e+00 -2.103371810913085938e+01 -4.738634743262082338e-04 -2.308218063262756914e-05 -1.490837021265178919e-04 -8.225778583437204361e-05
1.149000000000000000e+03 1.083302617073059082e+00 -1.861573600769042969e+01 4.030476557090878487e-04 8.752016583457589149e-06 1.235398958669975400e-04 6.088242298574186862e-05
1.150000000000000000e+03 3.604401350021362305e-01 -1.712068176269531250e+01 -3.597980830818414688e-04 -7.206670488812960684e-06 -1.101014277082867920e-04 -5.736013918067328632e-05
1.151000000000000000e+03 1.075942277908325195e+00 -1.620902442932128906e+01 -3.395026142243295908e-04 -9.380315532325766981e-06 -1.046648831106722355e-04 -6.496654532384127378e-05
1.152000000000000000e+03 1.077188730239868164e+00 -1.461113929748535156e+01 -2.860820677597075701e-04 -1.358272766083246097e-05 -8.989944035420194268e-05 -5.986247560940682888e-05
1.153000000000000000e+03 1.079933166503906250e+00 -1.140992450714111328e+01 -1.896986650535836816e-04 -1.007193168334197253e-05 -5.993117883917875588e-05 -3.591216227505356073e-05
1.154000000000000000e+03 1.079425096511840820e+00 -1.221223926544189453e+01 2.115319075528532267e-04 1.290527688979636878e-05 6.733115878887474537e-05 4.212023486616089940e-05
1.155000000000000000e+03 3.620875477790832520e-01 -9.892225265502929688e+00 1.524142862763255835e-04 4.875521426583873108e-06 4.718694253824651241e-05 2.435604255879297853e-05
1.156000000000000000e+03 1.086005806922912598e+00 -8.996388435363769531e+00 1.366754295304417610e-04 6.230638973647728562e-06 4.287181945983320475e-05 2.521452734072227031e-05
1.157000000000000000e+03 1.088163495063781738e+00 -8.191151618957519531e+00 -1.222585415234789252e-04 -5.440570021164603531e-06 -3.830973582807928324e-05 -2.306942769791930914e-05
1.158000000000000000e+03 3.544034719467163086e+00 -2.600169181823730469e+00 -3.449829091550782323e-05 -5.919855993852252141e-06 -1.212544430018169805e-05 -1.764705666573718190e-05
1.159000000000000000e+03 2.742187976837158203e+00 -2.613460063934326172e+00 3.511411705403588712e-05 3.960237336286809295e-06 1.172230622614733875e-05 1.361564318358432502e-05
1.160000000000000000e+03 2.797949075698852539e+00 -1.868773221969604492e+00 -2.448455779813230038e-05 -4.775761681230505928e-06 -8.778095434536226094e-06 -1.097223503165878356e-05
1.161000000000000000e+03 2.679560661315917969e+00 -4.148334026336669922e+00 5.655497079715132713e-05 3.116381776635535061e-06 1.790140595403499901e-05 1.611118750588502735e-05
1.162000000000000000e+03 1.192931890487670898e+00 -1.882408261299133301e+00 -2.334623604838270694e-05 -1.597423533894470893e-06 -7.483097760996315628e-06 -4.851349331147503108e-06
1.163000000000000000e+03 7.100062561035156250e+01 1.249153137207031250e+01 -1.842505037784576416e-01 3.450082063674926758e+00 9.797495007514953613e-01 -1.472438722848892212e-01
1.164000000000000000e+03 6.332058715820312500e+01 4.143038177490234375e+01 -1.337377279996871948e-01 5.358858704566955566e-01 1.206444501876831055e-01 -4.750481992959976196e-02
1.165000000000000000e+03 6.969632720947265625e+01 9.170548439025878906e+00 9.001377224922180176e-02 4.351524353027343750e+00 1.332461476325988770e+00 -6.407554149627685547e-01
1.166000000000000000e+03 7.102381134033203125e+01 1.094176197052001953e+01 -3.083169758319854736e-01 3.452076673507690430e+00 9.431279301643371582e-01 -5.884463712573051453e-02
1.167000000000000000e+03 9.023696899414062500e+00 -2.093342018127441406e+01 -3.595523303374648094e-04 -4.345606430433690548e-05 -1.209025213029235601e-04 9.571356349624693394e-05
1.168000000000000000e+03 2.293305778503417969e+01 -3.109729003906250000e+01 4.004625231027603149e-02 2.142652636393904686e-03 1.265667099505662918e-02 2.343528904020786285e-03
1.169000000000000000e+03 2.356811904907226562e+01 -3.291739654541015625e+01 3.027405217289924622e-02 -3.849504282698035240e-03 7.927364669740200043e-03 8.968827314674854279e-03
1.170000000000000000e+03 6.447312927246093750e+01 3.581870269775390625e+01 8.613790571689605713e-02 6.729958653450012207e-01 2.277401387691497803e-01 -3.911909759044647217e-01
1.171000000000000000e+03 6.877759552001953125e+01 3.032323837280273438e+01 6.428386569023132324e-01 2.770715713500976562e+00 1.024066329002380371e+00 -9.030077457427978516e-01
1.172000000000000000e+03 6.724884033203125000e+01 3.238251495361328125e+01 5.170083045959472656e-01 1.543475031852722168e+00 6.181449890136718750e-01 -8.622742295265197754e-01
1.173000000000000000e+03 1.440903091430664062e+01 -1.349800968170166016e+01 2.283380854350980371e-05 -9.527397196507081389e-05 -2.173205029976088554e-05 3.433088568272069097e-05
1.174000000000000000e+03 1.202682971954345703e+01 -1.489840984344482422e+01 1.050311329890973866e-04 1.371133403154090047e-04 7.264334271894767880e-05 -8.793437154963612556e-05
1.175000000000000000e+03 1.143259525299072266e+01 -1.558479690551757812e+01 -1.170594696304760873e-04 -1.345565251540392637e-04 -7.548480061814188957e-05 1.364151539746671915e-04
1.176000000000000000e+03 7.051625823974609375e+01 1.050087332725524902e+00 3.531237542629241943e-01 4.572613239288330078e+00 1.477720975875854492e+00 3.749614655971527100e-01
1.177000000000000000e+03 1.129947185516357422e+01 -2.844042205810546875e+01 2.478018177498597652e-05 -3.981441259384155273e-04 -1.120091837947256863e-04 -4.506925761234015226e-04
1.178000000000000000e+03 1.213378620147705078e+01 -3.020121192932128906e+01 3.646187251433730125e-03 2.664845669642090797e-04 1.173801487311720848e-03 7.989611476659774780e-04
1.179000000000000000e+03 7.215758514404296875e+01 4.412558078765869141e+00 1.732520908117294312e-01 3.175972461700439453e+00 1.004767417907714844e+00 1.683030836284160614e-02
1.180000000000000000e+03 6.910482788085937500e+01 2.763906288146972656e+01 3.497044742107391357e-01 4.340291023254394531e+00 1.406998634338378906e+00 -1.094406247138977051e+00
1.181000000000000000e+03 6.555068206787109375e+01 3.304555130004882812e+01 7.018042206764221191e-01 9.120283722877502441e-01 4.841497838497161865e-01 -7.713094353675842285e-01
1.182000000000000000e+03 3.734106445312500000e+01 -3.342105484008789062e+01 -3.959792256355285645e-01 -3.361364901065826416e-01 -2.196347117424011230e-01 -4.004621803760528564e-01
1.183000000000000000e+03 6.948979187011718750e+01 2.872122573852539062e+01 5.797997117042541504e-01 3.455633163452148438e+00 1.210629820823669434e+00 -8.896573781967163086e-01
1.184000000000000000e+03 6.832275390625000000e+01 -7.651787281036376953e+00 2.389107346534729004e-01 2.116942882537841797e+00 7.067561149597167969e-01 6.036182045936584473e-01
1.185000000000000000e+03 6.763756561279296875e+01 -7.492717742919921875e+00 3.275633156299591064e-01 2.231752395629882812e+00 7.677947282791137695e-01 8.170649409294128418e-01
1.186000000000000000e+03 7.000643920898437500e+01 5.952445030212402344e+00 2.339954720810055733e-03 5.243942737579345703e+00 1.573884725570678711e+00 -7.594875246286392212e-02
1.187000000000000000e+03 7.066802215576171875e+01 6.841332912445068359e+00 2.553526759147644043e-01 4.523708343505859375e+00 1.433718323707580566e+00 -2.642933726310729980e-01
1.188000000000000000e+03 6.561517333984375000e+01 3.422768783569335938e+01 3.378039896488189697e-01 9.416660666465759277e-01 3.838410377502441406e-01 -5.672187209129333496e-01
1.189000000000000000e+03 7.011408233642578125e+01 2.623730468750000000e+01 3.305630385875701904e-01 4.078269481658935547e+00 1.322649717330932617e+00 -5.352644920349121094e-01
1.190000000000000000e+03 6.974187469482421875e+01 2.790053749084472656e+01 4.157030284404754639e-01 3.764384031295776367e+00 1.254026174545288086e+00 -7.878115773200988770e-01
1.191000000000000000e+03 6.729686737060546875e+01 -8.230575561523437500e+00 3.652291893959045410e-01 2.037062883377075195e+00 7.206876277923583984e-01 7.750533223152160645e-01
1.192000000000000000e+03 6.670063018798828125e+01 3.299641799926757812e+01 4.819911122322082520e-01 1.277986526489257812e+00 5.279932618141174316e-01 -7.542288899421691895e-01
1.193000000000000000e+03 6.261313629150390625e+01 3.638586044311523438e+01 7.538150250911712646e-02 3.404549062252044678e-01 1.247509196400642395e-01 -2.530968189239501953e-01
1.194000000000000000e+03 6.827538299560546875e+01 -4.370748043060302734e+00 4.419263303279876709e-01 3.242500305175781250e+00 1.105327963829040527e+00 1.129738926887512207e+00
1.195000000000000000e+03 6.976522827148437500e+01 -2.183501005172729492e+00 2.421831190586090088e-01 3.682456731796264648e+00 1.177391886711120605e+00 7.596682906150817871e-01
1.196000000000000000e+03 7.038275146484375000e+01 2.371496009826660156e+01 1.906715929508209229e-01 4.245428085327148438e+00 1.330829858779907227e+00 -2.329325079917907715e-01
1.197000000000000000e+03 7.020338439941406250e+01 -5.858181118965148926e-01 2.889629900455474854e-01 4.149304389953613281e+00 1.331480145454406738e+00 6.604490876197814941e-01
1.198000000000000000e+03 6.628633880615234375e+01 -1.052030944824218750e+01 2.745865583419799805e-01 1.561674833297729492e+00 5.508784055709838867e-01 6.327257156372070312e-01
1.199000000000000000e+03 7.051558685302734375e+01 8.482404708862304688e+00 9.116090834140777588e-02 4.298330783843994141e+00 1.316847562789916992e+00 -2.264756113290786743e-01
1.200000000000000000e+03 7.107151031494140625e+01 1.016301536560058594e+01 -2.294817417860031128e-01 3.506510019302368164e+00 9.831085205078125000e-01 -6.899602711200714111e-02
1.201000000000000000e+03 3.322533798217773438e+01 -3.243689727783203125e+01 4.825343936681747437e-02 -1.208788715302944183e-03 1.411339547485113144e-02 -2.888609841465950012e-02
1.202000000000000000e+03 7.037688446044921875e+01 2.276676744222640991e-01 2.794085144996643066e-01 4.446088790893554688e+00 1.417649149894714355e+00 5.253554582595825195e-01
1.203000000000000000e+03 6.952957153320312500e+01 -5.136584639549255371e-01 2.917102277278900146e-01 4.730546474456787109e+00 1.506676912307739258e+00 1.027336120605468750e+00
1.204000000000000000e+03 7.041992950439453125e+01 9.285954475402832031e+00 -5.772742629051208496e-02 3.988960266113281250e+00 1.179369807243347168e+00 -2.460085898637771606e-01
1.205000000000000000e+03 7.001661682128906250e+01 4.336287021636962891e+00 1.401150226593017578e-02 5.180833339691162109e+00 1.558453440666198730e+00 -2.048471942543983459e-02
1.206000000000000000e+03 7.070615386962890625e+01 6.027036666870117188e+00 9.904456138610839844e-02 4.618270874023437500e+00 1.415194749832153320e+00 -1.748548895120620728e-01
1.207000000000000000e+03 6.644470214843750000e+01 -1.336770725250244141e+01 -2.395086139440536499e-01 1.273126363754272461e+00 3.100853264331817627e-01 2.680084705352783203e-01
1.208000000000000000e+03 7.001165771484375000e+01 3.526360273361206055e+00 1.018241513520479202e-02 5.241768360137939453e+00 1.575585246086120605e+00 7.087825331836938858e-03
1.209000000000000000e+03 6.764247131347656250e+01 -5.860354900360107422e+00 4.696436524391174316e-01 2.710191011428833008e+00 9.539504051208496094e-01 1.083995699882507324e+00
1.210000000000000000e+03 6.894706726074218750e+01 -4.514514446258544922e+00 3.250179588794708252e-01 3.007157087326049805e+00 9.996525049209594727e-01 8.167530298233032227e-01
1.211000000000000000e+03 6.831099700927734375e+01 -6.020078659057617188e+00 3.292268812656402588e-01 2.587093830108642578e+00 8.748961687088012695e-01 8.262627720832824707e-01
1.212000000000000000e+03 7.024143218994140625e+01 2.539703559875488281e+01 2.593343853950500488e-01 4.245189666748046875e+00 1.351357221603393555e+00 -4.194339513778686523e-01
1.213000000000000000e+03 7.039988708496093750e+01 2.288939476013183594e+01 8.267747610807418823e-02 4.268280982971191406e+00 1.305287599563598633e+00 -1.539224833250045776e-01
1.214000000000000000e+03 6.951321411132812500e+01 -2.966784477233886719e+00 2.717673480510711670e-01 3.400328397750854492e+00 1.101628780364990234e+00 8.253880739212036133e-01
1.215000000000000000e+03 6.797659301757812500e+01 -6.758314609527587891e+00 3.210598230361938477e-01 2.404872894287109375e+00 8.177798390388488770e-01 8.127400279045104980e-01
1.216000000000000000e+03 6.830867004394531250e+01 3.106303787231445312e+01 5.613100528717041016e-01 2.346199274063110352e+00 8.722527623176574707e-01 -9.355496764183044434e-01
1.217000000000000000e+03 6.863594055175781250e+01 -5.272759437561035156e+00 3.323826193809509277e-01 2.799275159835815430e+00 9.394972920417785645e-01 8.333907723426818848e-01
1.218000000000000000e+03 7.038568115234375000e+01 1.562569808959960938e+01 2.952996268868446350e-02 4.220354557037353516e+00 1.274965405464172363e+00 5.387379229068756104e-02
1.219000000000000000e+03 6.969844818115234375e+01 2.117164421081542969e+01 2.465005265548825264e-03 4.701831340789794922e+00 1.411288857460021973e+00 -2.609180472791194916e-02
1.220000000000000000e+03 7.040165710449218750e+01 2.207162475585937500e+01 2.495532855391502380e-02 4.205776214599609375e+00 1.269219517707824707e+00 -7.510078698396682739e-02
1.221000000000000000e+03 7.073034667968750000e+01 4.388836383819580078e+00 5.641777068376541138e-02 4.548599243164062500e+00 1.381505131721496582e+00 -4.913788288831710815e-03
1.222000000000000000e+03 6.969740295410156250e+01 2.036678123474121094e+01 3.272783011198043823e-03 4.677692890167236328e+00 1.404289603233337402e+00 -1.935859024524688721e-02
1.223000000000000000e+03 7.108731842041015625e+01 2.052404785156250000e+01 2.871065028011798859e-02 3.634155750274658203e+00 1.098859906196594238e+00 -3.669663891196250916e-02
1.224000000000000000e+03 7.039941406250000000e+01 1.805084609985351562e+01 6.261053495109081268e-03 4.157443523406982422e+00 1.249111413955688477e+00 1.592651940882205963e-03
1.225000000000000000e+03 7.039990997314453125e+01 1.724757766723632812e+01 6.256619002670049667e-03 4.168060779571533203e+00 1.252295136451721191e+00 1.023843605071306229e-02
1.226000000000000000e+03 7.039568328857421875e+01 2.045514106750488281e+01 9.766304865479469299e-03 4.161903858184814453e+00 1.251501083374023438e+00 -2.876965142786502838e-02
1.227000000000000000e+03 6.969767761230468750e+01 1.875850677490234375e+01 2.119268057867884636e-03 4.675563812255859375e+00 1.403304934501647949e+00 -1.236044336110353470e-02
1.228000000000000000e+03 7.039567565917968750e+01 1.965332984924316406e+01 8.471454493701457977e-03 4.154742240905761719e+00 1.248964190483093262e+00 -1.623504236340522766e-02
1.229000000000000000e+03 7.039736175537109375e+01 1.885185050964355469e+01 5.048363935202360153e-03 4.153167247772216797e+00 1.247464656829833984e+00 -7.062250282615423203e-03
1.230000000000000000e+03 4.465248870849609375e+01 -2.462404823303222656e+01 -1.966615617275238037e-01 -8.821362853050231934e-01 -3.236393332481384277e-01 -1.036215543746948242e+00
1.231000000000000000e+03 4.217166900634765625e+01 -2.814213562011718750e+01 -3.690728247165679932e-01 -3.291182041168212891e+00 -1.098076462745666504e+00 -5.970485806465148926e-01
1.232000000000000000e+03 1.786413955688476562e+01 -7.939980506896972656e+00 3.508629743009805679e-05 2.170108200516551733e-05 1.703621455817483366e-05 1.159524435934145004e-05
1.233000000000000000e+03 4.129906082153320312e+01 -3.202866744995117188e+01 -3.029344975948333740e-01 -1.723777770996093750e+00 -6.080136895179748535e-01 -6.408750414848327637e-01
1.234000000000000000e+03 5.646138381958007812e+01 -2.843111610412597656e+01 2.142936229705810547e+00 7.975014686584472656e+00 3.035385370254516602e+00 3.507076025009155273e+00
1.235000000000000000e+03 1.406369972229003906e+01 -3.032328414916992188e+01 6.188251543790102005e-03 -7.363596232607960701e-04 1.635567517951130867e-03 -1.472282921895384789e-03
1.236000000000000000e+03 1.369716835021972656e+01 -3.113782691955566406e+01 6.402478087693452835e-03 1.037847832776606083e-03 2.232097787782549858e-03 1.875912537798285484e-03
1.237000000000000000e+03 1.648922157287597656e+01 -3.101668357849121094e+01 1.535718422383069992e-02 2.138055860996246338e-03 5.248572211712598801e-03 -2.729349071159958839e-04
1.238000000000000000e+03 1.805271339416503906e+01 -3.210169601440429688e+01 1.799785904586315155e-02 1.133747718995437026e-05 5.402758717536926270e-03 4.608835093677043915e-03
1.239000000000000000e+03 2.598768043518066406e+01 -3.211515045166015625e+01 4.900662973523139954e-02 -5.548614077270030975e-03 1.303740497678518295e-02 4.979364108294248581e-03
1.240000000000000000e+03 2.534205627441406250e+01 -3.119638633728027344e+01 5.655317753553390503e-02 -4.065601620823144913e-03 1.574627310037612915e-02 -1.257919007912278175e-03
1.241000000000000000e+03 4.212603378295898438e+01 -3.190743255615234375e+01 -2.806658744812011719e-01 -1.628808856010437012e+00 -5.728424191474914551e-01 -3.978517353534698486e-01
1.242000000000000000e+03 4.183707046508789062e+01 -3.070008087158203125e+01 -9.728985428810119629e-01 -2.331671476364135742e+00 -9.913710355758666992e-01 -1.013388991355895996e+00
1.243000000000000000e+03 1.007982254028320312e+01 -1.867341804504394531e+01 2.869039017241448164e-04 1.515204930910840631e-04 1.315273111686110497e-04 -2.111193607561290264e-04
1.244000000000000000e+03 1.636583900451660156e+01 -3.202527618408203125e+01 1.323229447007179260e-02 -8.432707982137799263e-04 3.716707229614257812e-03 3.888902254402637482e-03
1.245000000000000000e+03 2.364169883728027344e+01 -3.206106185913085938e+01 3.564700484275817871e-02 1.577056478708982468e-03 1.116721890866756439e-02 6.973067298531532288e-03
1.246000000000000000e+03 2.447864532470703125e+01 -3.214833831787109375e+01 3.981842100620269775e-02 -4.332996439188718796e-03 1.064562704414129257e-02 6.229396443814039230e-03
1.247000000000000000e+03 8.295998573303222656e+00 -2.068797492980957031e+01 4.457166360225528479e-04 4.204931610729545355e-05 1.463297812733799219e-04 -1.198446188936941326e-04
1.248000000000000000e+03 3.470130920410156250e+01 -3.361792373657226562e+01 -1.473610997200012207e-01 -3.264876082539558411e-02 -5.400295928120613098e-02 -1.335304826498031616e-01
1.249000000000000000e+03 8.701252937316894531e+00 -2.345747566223144531e+01 3.693516773637384176e-04 -7.054950401652604342e-05 8.964064909378066659e-05 6.918654253240674734e-05
1.250000000000000000e+03 1.522751426696777344e+01 -1.318914127349853516e+01 -1.951208105310797691e-05 1.043615266098640859e-04 2.545483403082471341e-05 -1.227207121701212600e-05
1.251000000000000000e+03 3.008756256103515625e+01 -3.168246650695800781e+01 7.626394927501678467e-02 -2.674066694453358650e-03 2.207696437835693359e-02 -1.313735824078321457e-02
1.252000000000000000e+03 9.088105201721191406e+00 -1.900738334655761719e+01 1.713334640953689814e-04 6.877378473291173577e-05 7.203216955531388521e-05 -1.816391886677592993e-04
1.253000000000000000e+03 2.053921890258789062e+01 -3.114932441711425781e+01 3.259472176432609558e-02 -9.702583774924278259e-04 9.487339295446872711e-03 2.042904263362288475e-03
1.254000000000000000e+03 2.931761932373046875e+01 -3.155690002441406250e+01 7.672259211540222168e-02 1.668851473368704319e-03 2.351743355393409729e-02 -8.194753900170326233e-03
1.255000000000000000e+03 3.048908615112304688e+01 -3.285229492187500000e+01 3.504114225506782532e-02 -7.853790186345577240e-03 8.156205527484416962e-03 -1.516391336917877197e-02
1.256000000000000000e+03 1.089750766754150391e+01 -1.625563049316406250e+01 1.343378098681569099e-04 1.418100000591948628e-04 8.284434443339705467e-05 -1.483062806073576212e-04
1.257000000000000000e+03 1.868192863464355469e+01 -9.784796714782714844e+00 3.855350587400607765e-05 1.859726216935086995e-05 1.714523023110814393e-05 1.128432904806686565e-05
1.258000000000000000e+03 1.609028053283691406e+01 -1.286827945709228516e+01 -1.637383866182062775e-05 -8.505921141477301717e-05 -3.042991374968551099e-05 -4.257984983269125223e-06
1.259000000000000000e+03 2.204372978210449219e+01 -3.209415817260742188e+01 3.069801069796085358e-02 1.810438814572989941e-03 9.752534329891204834e-03 6.626018788665533066e-03
1.260000000000000000e+03 2.917545700073242188e+01 -3.236245727539062500e+01 5.519240722060203552e-02 -5.842973012477159500e-03 1.480482984334230423e-02 -6.380310747772455215e-03
1.261000000000000000e+03 3.900951766967773438e+01 -3.299400329589843750e+01 -5.548991560935974121e-01 -7.307771444320678711e-01 -3.857028782367706299e-01 -6.386577486991882324e-01
1.262000000000000000e+03 3.980521392822265625e+01 -3.258194732666015625e+01 -6.172993183135986328e-01 -9.420181512832641602e-01 -4.677952229976654053e-01 -7.383797764778137207e-01
1.263000000000000000e+03 1.544601058959960938e+01 -3.191763114929199219e+01 9.737407788634300232e-03 1.564697362482547760e-03 3.390631405636668205e-03 3.231312381103634834e-03
1.264000000000000000e+03 2.527362823486328125e+01 -3.211580657958984375e+01 4.389328137040138245e-02 -4.791198589373379946e-04 1.302424818277359009e-02 4.767791833728551865e-03
1.265000000000000000e+03 1.019540596008300781e+01 -2.828282165527343750e+01 -4.813079794985242188e-05 -5.100005073472857475e-04 -1.674393861321732402e-04 -5.946153542026877403e-04
1.266000000000000000e+03 1.074538040161132812e+01 -2.897741699218750000e+01 1.724202535115182400e-03 3.044614568352699280e-04 6.085992208682000637e-04 3.312418994028121233e-04
1.267000000000000000e+03 8.039740562438964844e+00 -2.253833007812500000e+01 6.329159950837492943e-04 -1.569168234709650278e-04 1.427997485734522343e-04 -5.707558375434018672e-05
1.268000000000000000e+03 7.915872097015380859e+00 -2.349228096008300781e+01 -7.102719973772764206e-04 7.586838910356163979e-05 -1.903210941236466169e-04 -4.541333510132972151e-06
1.269000000000000000e+03 3.304541397094726562e+01 -3.330147933959960938e+01 -2.578446269035339355e-02 4.064830485731363297e-03 -6.515889894217252731e-03 -3.970263153314590454e-02
1.270000000000000000e+03 3.387145233154296875e+01 -3.344675445556640625e+01 -7.611742615699768066e-02 -2.515354380011558533e-02 -3.038129210472106934e-02 -8.101864904165267944e-02
1.271000000000000000e+03 2.840613365173339844e+01 -3.241518783569335938e+01 5.256177484989166260e-02 -2.030624076724052429e-03 1.515934523195028305e-02 -2.544242888689041138e-03
1.272000000000000000e+03 3.219888687133789062e+01 -3.320944976806640625e+01 2.201082883402705193e-03 -7.933997549116611481e-03 -1.719874329864978790e-03 -3.156487643718719482e-02
1.273000000000000000e+03 1.290553951263427734e+01 -3.069917488098144531e+01 4.471375606954097748e-03 -1.040493720211088657e-03 1.029264531098306179e-03 -6.373229552991688251e-04
1.274000000000000000e+03 9.676359176635742188e+00 -2.761506843566894531e+01 6.460391450673341751e-04 1.401783083565533161e-04 2.358652418479323387e-04 6.125809741206467152e-04
1.275000000000000000e+03 4.216606521606445312e+01 -2.577616882324218750e+01 1.687029190361499786e-02 -1.471525907516479492e+00 -4.363966584205627441e-01 -2.070477455854415894e-01
1.276000000000000000e+03 9.534523010253906250e+00 -1.829290962219238281e+01 -1.570516033098101616e-04 -1.179806713480502367e-04 -8.250968676293268800e-05 1.545957347843796015e-04
1.277000000000000000e+03 9.969668388366699219e+00 -1.760945129394531250e+01 1.558559160912409425e-04 1.487438566982746124e-04 9.137993038166314363e-05 -1.536092167953029275e-04
1.278000000000000000e+03 4.291816711425781250e+01 -2.599333572387695312e+01 -4.575262963771820068e-02 -1.512590289115905762e+00 -4.675028920173645020e-01 -6.199150681495666504e-01
1.279000000000000000e+03 2.672641754150390625e+01 -3.230505752563476562e+01 4.888831079006195068e-02 -8.307111565954983234e-04 1.441728044301271439e-02 2.593307755887508392e-03
1.280000000000000000e+03 1.277935886383056641e+01 -1.430823516845703125e+01 1.228117798746097833e-05 -8.982010331237688661e-05 -2.326167850696947426e-05 8.753643487580120564e-05
1.281000000000000000e+03 4.282349777221679688e+01 -2.666702079772949219e+01 -3.147349134087562561e-02 -1.863571166992187500e+00 -5.685133934020996094e-01 -5.992305874824523926e-01
1.282000000000000000e+03 4.565147399902343750e+01 -2.499941253662109375e+01 -1.999892741441726685e-01 -8.606188297271728516e-01 -3.181824386119842529e-01 -1.228676557540893555e+00
1.283000000000000000e+03 1.966083717346191406e+01 -3.207232666015625000e+01 2.305069565773010254e-02 -2.243904891656711698e-04 6.847891490906476974e-03 5.383130162954330444e-03
1.284000000000000000e+03 1.886073684692382812e+01 -3.208643722534179688e+01 2.028612419962882996e-02 1.836935989558696747e-03 6.636918056756258011e-03 4.541014321148395538e-03
1.285000000000000000e+03 5.777681732177734375e+01 -3.373331069946289062e+01 7.468300461769104004e-01 1.199758291244506836e+00 5.839765071868896484e-01 -1.013481974601745605e+00
1.286000000000000000e+03 5.625702667236328125e+01 -3.515425872802734375e+01 -1.068418398499488831e-01 2.147415399551391602e+00 6.121720671653747559e-01 -4.376165568828582764e-01
1.287000000000000000e+03 5.512921905517578125e+01 -3.064859390258789062e+01 1.281016945838928223e+00 4.991627693176269531e+00 1.881793379783630371e+00 5.001869201660156250e-01
1.288000000000000000e+03 6.184139251708984375e+01 -2.339668083190917969e+01 6.573391437530517578e+00 2.103875398635864258e+00 2.603179931640625000e+00 3.095694541931152344e+00
1.289000000000000000e+03 5.693890762329101562e+01 -3.421399688720703125e+01 2.495261877775192261e-01 2.236328601837158203e+00 7.457564473152160645e-01 -8.188261985778808594e-01
1.290000000000000000e+03 5.585762786865234375e+01 -2.817313766479492188e+01 2.480100393295288086e+00 5.879198074340820312e+00 2.507789611816406250e+00 2.132650136947631836e+00
1.291000000000000000e+03 7.074083709716796875e+01 -3.143509292602539062e+01 -1.799270883202552795e-02 6.957380566745996475e-03 -3.310598433017730713e-03 -7.616249378770589828e-03
1.292000000000000000e+03 6.466645812988281250e+01 -3.435326385498046875e+01 -2.664672136306762695e-01 -1.827267929911613464e-02 -8.542196452617645264e-02 -2.089233137667179108e-02
1.293000000000000000e+03 6.810079193115234375e+01 -3.340172195434570312e+01 -7.948776334524154663e-02 2.182020805776119232e-03 -2.319172210991382599e-02 -2.178022824227809906e-02
1.294000000000000000e+03 5.844355773925781250e+01 -2.579324531555175781e+01 5.058374881744384766e+00 4.547674179077148438e+00 2.881814718246459961e+00 4.599962711334228516e+00
1.295000000000000000e+03 6.825030326843261719e+00 -1.843836784362792969e+00 1.797963886929210275e-05 2.096201387757901102e-05 1.168249582406133413e-05 1.916182191052939743e-05
1.296000000000000000e+03 1.007029724121093750e+01 -3.526258945465087891e+00 -3.693340113386511803e-05 -3.209053465980105102e-05 -2.070718073809985071e-05 -1.662055365159176290e-05
1.297000000000000000e+03 6.022390365600585938e+00 -1.848975539207458496e+00 -1.931196493387687951e-05 -1.729464929667301476e-05 -1.098198390536708757e-05 -1.949142642843071371e-05
1.298000000000000000e+03 7.517274379730224609e+00 -2.530187606811523438e+00 2.138209856639150530e-05 2.257522646686993539e-05 1.318719750997843221e-05 2.138811760232783854e-05
1.299000000000000000e+03 6.739310741424560547e+00 -2.536051273345947266e+00 -2.246740950795356184e-05 -2.000417225644923747e-05 -1.274147416552295908e-05 -2.318085535080172122e-05
1.300000000000000000e+03 5.151241779327392578e+00 -2.570170164108276367e+00 -2.879690873669460416e-05 -1.279415755561785772e-05 -1.247731961484532803e-05 -2.377558121224865317e-05
1.301000000000000000e+03 1.824748516082763672e+00 -7.324641704559326172e+00 -1.091096783056855202e-04 -6.655873676209012046e-06 -3.472966636763885617e-05 -2.313479308213572949e-05
1.302000000000000000e+03 1.993769645690917969e+00 -1.874246358871459961e+00 2.415743438177742064e-05 3.104873940174002200e-06 8.178692951332777739e-06 7.777470273140352219e-06
1.303000000000000000e+03 1.105858564376831055e+00 -5.013328075408935547e+00 -6.773183849873021245e-05 -3.935461336368462071e-06 -2.150018917745910585e-05 -1.231326768902363256e-05
1.304000000000000000e+03 1.134443402290344238e+00 -3.435323715209960938e+00 -4.449376501725055277e-05 -1.945172016348806210e-06 -1.393168076901929453e-05 -8.875318599166348577e-06
1.305000000000000000e+03 6.066285324096679688e+01 -2.304692459106445312e+01 3.859115123748779297e+00 2.627761840820312500e+00 1.946063041687011719e+00 2.767370700836181641e+00
1.306000000000000000e+03 5.459755325317382812e+01 -2.224288558959960938e+01 -1.277172088623046875e+00 -3.617327660322189331e-02 -3.940036296844482422e-01 -9.945513606071472168e-01
1.307000000000000000e+03 6.755799865722656250e+01 -3.396456527709960938e+01 -1.095952242612838745e-01 -2.683413447812199593e-03 -3.368359059095382690e-02 -4.335513338446617126e-03
1.308000000000000000e+03 6.687764739990234375e+01 -3.455485916137695312e+01 -1.177774518728256226e-01 4.411786794662475586e-03 -3.400969877839088440e-02 6.073300726711750031e-03
1.309000000000000000e+03 6.354597473144531250e+01 -3.630561447143554688e+01 -2.316020056605339050e-02 4.083073884248733521e-02 5.301162134855985641e-03 2.256364561617374420e-02
1.310000000000000000e+03 5.983523941040039062e+01 -2.352699089050292969e+01 3.778326749801635742e+00 2.857880115509033203e+00 1.990862131118774414e+00 2.789863109588623047e+00
1.311000000000000000e+03 5.812701797485351562e+01 -2.103698539733886719e+01 -1.467128157615661621e+00 6.726476550102233887e-01 -2.383441627025604248e-01 2.268418669700622559e-01
1.312000000000000000e+03 5.619014358520507812e+01 -3.319054031372070312e+01 3.283748626708984375e-01 3.577372312545776367e+00 1.171724081039428711e+00 -8.960942625999450684e-01
1.313000000000000000e+03 5.664448165893554688e+01 -3.361855316162109375e+01 4.521555900573730469e-01 2.468675851821899414e+00 8.762494325637817383e-01 -1.105224490165710449e+00
1.314000000000000000e+03 5.459199142456054688e+01 -2.961390495300292969e+01 1.969269156455993652e+00 4.050696372985839844e+00 1.805989623069763184e+00 1.014738917350769043e+00
1.315000000000000000e+03 5.532276153564453125e+01 -2.984213829040527344e+01 1.432251334190368652e+00 5.965769290924072266e+00 2.219406127929687500e+00 1.025758624076843262e+00
1.316000000000000000e+03 5.741930007934570312e+01 -2.104756927490234375e+01 -1.955998063087463379e+00 2.896160185337066650e-01 -4.999145865440368652e-01 -2.160161286592483521e-01
1.317000000000000000e+03 5.447301483154296875e+01 -2.158680725097656250e+01 -2.346045255661010742e+00 -2.780897915363311768e-01 -7.872405052185058594e-01 -1.238269805908203125e+00
1.318000000000000000e+03 5.239720535278320312e+01 -2.264541244506835938e+01 -1.283494710922241211e+00 -3.765936195850372314e-01 -4.980264902114868164e-01 -1.414400696754455566e+00
1.319000000000000000e+03 7.005312347412109375e+01 -3.200547027587890625e+01 -3.228202834725379944e-02 -2.196524990722537041e-03 -1.034356653690338135e-02 -4.804076161235570908e-03
1.320000000000000000e+03 7.018712615966796875e+01 -3.075079536437988281e+01 -1.233802456408739090e-02 -5.234024021774530411e-03 -5.271614529192447662e-03 -3.595029469579458237e-03
1.321000000000000000e+03 6.128097915649414062e+01 -3.593297195434570312e+01 5.683611333370208740e-02 1.516639590263366699e-01 6.255002319812774658e-02 -2.281422764062881470e-01
1.322000000000000000e+03 6.095417785644531250e+01 -3.721014404296875000e+01 5.692842975258827209e-02 3.607820570468902588e-01 1.253131479024887085e-01 -2.971474230289459229e-01
1.323000000000000000e+03 6.191834640502929688e+01 -1.858409881591796875e+01 -2.145706176757812500e+00 1.390225768089294434e+00 -2.266441434621810913e-01 6.176332235336303711e-01
1.324000000000000000e+03 7.148573303222656250e+01 -3.354453277587890625e+01 -3.335881233215332031e-02 9.240667335689067841e-03 -7.235443219542503357e-03 1.204349286854267120e-02
1.325000000000000000e+03 6.597111511230468750e+01 -2.119076347351074219e+01 8.201540708541870117e-01 7.904703021049499512e-01 4.831873178482055664e-01 1.014202952384948730e+00
1.326000000000000000e+03 6.388399505615234375e+01 -3.536933898925781250e+01 -1.446475684642791748e-01 -1.655832119286060333e-02 -4.836176708340644836e-02 2.531339600682258606e-02
1.327000000000000000e+03 6.072280120849609375e+01 -1.863894462585449219e+01 -2.927516698837280273e+00 7.930257916450500488e-01 -6.403472423553466797e-01 7.355839759111404419e-02
1.328000000000000000e+03 6.541976165771484375e+01 -1.629984092712402344e+01 -7.977857589721679688e-01 1.315553545951843262e+00 1.553303450345993042e-01 4.115393459796905518e-01
1.329000000000000000e+03 6.459609222412109375e+01 -1.745796585083007812e+01 -1.056827187538146973e+00 1.437433242797851562e+00 1.141818165779113770e-01 6.061169505119323730e-01
1.330000000000000000e+03 6.390817260742187500e+01 -1.592675590515136719e+01 -9.556019902229309082e-01 1.105524301528930664e+00 4.497667402029037476e-02 1.161624044179916382e-01
1.331000000000000000e+03 6.480494689941406250e+01 -1.472081756591796875e+01 -5.100287199020385742e-01 1.108764648437500000e+00 1.796207576990127563e-01 2.465242892503738403e-01
1.332000000000000000e+03 6.356542205810546875e+01 -1.766677665710449219e+01 -1.404878973960876465e+00 1.461839675903320312e+00 1.708820648491382599e-02 5.419545173645019531e-01
1.333000000000000000e+03 6.527307891845703125e+01 -1.421349906921386719e+01 -3.811416327953338623e-01 1.180552363395690918e+00 2.398232370615005493e-01 2.724752128124237061e-01
1.334000000000000000e+03 7.793498992919921875e+01 -3.378665924072265625e+01 -5.032480694353580475e-03 -5.495306104421615601e-03 -3.158336039632558823e-03 6.764329969882965088e-03
1.335000000000000000e+03 7.954796600341796875e+01 -3.476599121093750000e+01 2.878300147131085396e-03 -1.056224387139081955e-02 -2.305183093994855881e-03 2.340743318200111389e-03
1.336000000000000000e+03 7.963954925537109375e+01 -2.988142395019531250e+01 1.394356018863618374e-03 3.974278806708753109e-04 5.375351756811141968e-04 -8.821539813652634621e-05
1.337000000000000000e+03 7.962486267089843750e+01 -3.230446243286132812e+01 -2.800568472594022751e-03 -1.741813495755195618e-03 -1.362714567221701145e-03 9.002864244394004345e-04
1.338000000000000000e+03 7.882337188720703125e+01 -3.306426620483398438e+01 -3.574183909222483635e-03 -4.326478578150272369e-03 -2.370198722928762436e-03 3.388186451047658920e-03
1.339000000000000000e+03 7.865377807617187500e+01 -3.473809814453125000e+01 -4.207395017147064209e-03 -9.019352495670318604e-03 -3.968024160712957382e-03 5.774259567260742188e-03
1.340000000000000000e+03 7.767469024658203125e+01 -3.716593170166015625e+01 6.406778702512383461e-04 -1.575667038559913635e-02 -4.534797742962837219e-03 1.314225513488054276e-02
1.341000000000000000e+03 7.892658233642578125e+01 -3.800287246704101562e+01 -2.441224642097949982e-03 -2.540645748376846313e-02 -8.354304358363151550e-03 3.689226927235722542e-03
1.342000000000000000e+03 7.873446655273437500e+01 -4.010957336425781250e+01 1.781674916855990887e-03 -3.133114054799079895e-02 -8.864839561283588409e-03 2.739080460742115974e-03
1.343000000000000000e+03 7.887355041503906250e+01 -3.946508026123046875e+01 -1.648005796596407890e-03 -3.235023468732833862e-02 -1.019947137683629990e-02 5.803070031106472015e-03
1.344000000000000000e+03 7.961634063720703125e+01 -3.959001922607421875e+01 4.674124065786600113e-03 -3.439380973577499390e-02 -8.915905840694904327e-03 1.416556624462828040e-04
1.345000000000000000e+03 7.835289001464843750e+01 -4.080480575561523438e+01 -3.040163777768611908e-03 -2.430340647697448730e-02 -8.203071542084217072e-03 3.831773065030574799e-03
1.346000000000000000e+03 7.842164611816406250e+01 -4.185438919067382812e+01 2.858053427189588547e-03 -3.129144012928009033e-02 -8.530016057193279266e-03 6.014439277350902557e-03
1.347000000000000000e+03 5.663160324096679688e+01 -2.042434692382812500e+01 -3.629775524139404297e+00 -2.883220314979553223e-01 -1.175429224967956543e+00 -1.015394449234008789e+00
1.348000000000000000e+03 5.917601394653320312e+01 -2.299636459350585938e+01 2.358852386474609375e+00 2.300960540771484375e+00 1.397943854331970215e+00 2.001117706298828125e+00
1.349000000000000000e+03 5.595356750488281250e+01 -2.128111648559570312e+01 -2.356113195419311523e+00 -9.627997875213623047e-02 -7.357179522514343262e-01 -8.478003144264221191e-01
1.350000000000000000e+03 5.856614685058593750e+01 -2.369001960754394531e+01 2.961022853851318359e+00 2.541635751724243164e+00 1.650797486305236816e+00 2.257272958755493164e+00
1.351000000000000000e+03 1.887858772277832031e+01 -1.279974746704101562e+01 -6.385281267284881324e-06 5.028040322940796614e-05 1.316853649768745527e-05 2.300779306096956134e-05
1.352000000000000000e+03 1.993042373657226562e+01 -1.049456119537353516e+01 -3.909209044650197029e-05 -1.339227037533419207e-05 -1.574530870129819959e-05 -1.225286359840538353e-05
1.353000000000000000e+03 2.058254051208496094e+01 -1.280592250823974609e+01 2.838385989889502525e-05 7.367296348093077540e-05 3.061704774154350162e-05 9.013157978188246489e-06
1.354000000000000000e+03 2.141168403625488281e+01 -1.400419330596923828e+01 3.935683344025164843e-05 3.431443474255502224e-05 2.210137972724623978e-05 2.768802005448378623e-05
1.355000000000000000e+03 1.195566844940185547e+01 2.122069358825683594e+00 1.034934302879264578e-05 7.645437108294572681e-06 5.398434041126165539e-06 -5.045800207881256938e-06
1.356000000000000000e+03 1.420075893402099609e+01 9.381356239318847656e-01 1.993046680581755936e-05 6.106362434366019443e-06 7.811048817529808730e-06 -1.382643404213013127e-05
1.357000000000000000e+03 1.345901203155517578e+01 1.321314930915832520e+00 1.498813890066230670e-05 6.906353519298136234e-06 6.568347998836543411e-06 -5.659162070514867082e-06
1.358000000000000000e+03 6.133932113647460938e+01 -2.209845352172851562e+01 1.843047976493835449e+00 2.451491117477416992e+00 1.288361787796020508e+00 2.339466571807861328e+00
1.359000000000000000e+03 5.971016693115234375e+01 -2.060236167907714844e+01 -1.351447939872741699e+00 1.363132953643798828e+00 3.505516564473509789e-03 9.280181527137756348e-01
1.360000000000000000e+03 6.316156768798828125e+01 -1.945610427856445312e+01 -9.688054323196411133e-01 1.693423986434936523e+00 2.173855602741241455e-01 1.363606214523315430e+00
1.361000000000000000e+03 4.261213302612304688e+01 -2.359720039367675781e+01 -6.358172744512557983e-02 -5.311682224273681641e-01 -1.784249842166900635e-01 -3.298405110836029053e-01
1.362000000000000000e+03 4.336064147949218750e+01 -2.472158432006835938e+01 -6.291018426418304443e-02 -1.015469551086425781e+00 -3.235139250755310059e-01 -7.063657045364379883e-01
1.363000000000000000e+03 6.428752136230468750e+01 -1.906843948364257812e+01 -7.569991350173950195e-01 1.531856536865234375e+00 2.324572354555130005e-01 1.193699240684509277e+00
1.364000000000000000e+03 3.734184980392456055e+00 -4.167573928833007812e+01 -2.037524536717683077e-04 1.931138918735086918e-03 5.182159366086125374e-04 -5.281902849674224854e-04
1.365000000000000000e+03 4.216376495361328125e+01 -2.378115463256835938e+01 -1.107780542224645615e-02 -5.054672956466674805e-01 -1.549635380506515503e-01 -1.797003895044326782e-01
1.366000000000000000e+03 2.097061538696289062e+01 -1.209917926788330078e+01 3.261075471527874470e-05 3.254792318330146372e-05 1.954760409716982394e-05 1.832385351008269936e-05
1.367000000000000000e+03 1.243241119384765625e+01 -1.356257152557373047e+01 -1.161615873570553958e-04 -1.749078546708915383e-05 -4.009571421192958951e-05 -3.369706610101275146e-05
1.368000000000000000e+03 1.065900516510009766e+01 -3.710337162017822266e+00 3.575996379368007183e-05 3.273293259553611279e-05 2.054786818916909397e-05 1.694754610070958734e-05
1.369000000000000000e+03 1.238493347167968750e+01 -4.468751430511474609e+00 -3.308923623990267515e-05 -3.096840009675361216e-05 -1.921729199239052832e-05 -1.395784511259989813e-05
1.370000000000000000e+03 1.653547668457031250e+01 -8.264863967895507812e+00 -4.879506377619691193e-05 -1.985039307328406721e-05 -2.059363760054111481e-05 -4.600889951689168811e-06
1.371000000000000000e+03 1.740178871154785156e+01 -7.453144550323486328e+00 -3.364453368703834713e-05 -2.333861266379244626e-05 -1.709494426904711872e-05 -1.349057129118591547e-05
1.372000000000000000e+03 1.396688652038574219e+01 -6.866178035736083984e+00 -4.493611413636244833e-05 -2.358997335250023752e-05 -2.055782533716410398e-05 1.328230183617051807e-07
1.373000000000000000e+03 1.379874229431152344e+01 -4.551501274108886719e+00 2.990732173202559352e-05 2.988673440995626152e-05 1.793821684259455651e-05 1.390619127050740644e-05
1.374000000000000000e+03 1.693144989013671875e+01 -6.979727268218994141e+00 3.350627594045363367e-05 2.452045555401127785e-05 1.740801963023841381e-05 1.508873265265719965e-05
1.375000000000000000e+03 1.903602981567382812e+01 -1.027960395812988281e+01 -3.678242501337081194e-05 -1.636348861211445183e-05 -1.594377317815087736e-05 -1.067411631083814427e-06
1.376000000000000000e+03 6.568721008300781250e+01 -1.202103042602539062e+01 1.136889308691024780e-01 1.308017611503601074e+00 4.265119433403015137e-01 4.330388605594635010e-01
1.377000000000000000e+03 7.236106872558593750e+01 -3.094857215881347656e+01 -1.288485247641801834e-02 6.061277352273464203e-03 -2.047072397544980049e-03 -9.051074157468974590e-04
1.378000000000000000e+03 4.652311325073242188e+01 -2.326147651672363281e+01 -7.118533849716186523e-01 -5.776975154876708984e-01 -3.868652582168579102e-01 -1.232553005218505859e+00
1.379000000000000000e+03 4.814964675903320312e+01 -2.361782646179199219e+01 -6.779772639274597168e-01 -6.168769001960754395e-01 -3.884562551975250244e-01 -1.442223548889160156e+00
1.380000000000000000e+03 7.361553192138671875e+01 -2.473499107360839844e+01 -5.281895026564598083e-02 1.383114419877529144e-02 -1.169634144753217697e-02 9.242293424904346466e-03
1.381000000000000000e+03 7.290529632568359375e+01 -2.396059989929199219e+01 -8.653807640075683594e-02 2.450421638786792755e-02 -1.861015707254409790e-02 1.970145851373672485e-02
1.382000000000000000e+03 3.034842300415039062e+01 -1.607984733581542969e+01 -2.209382955697947182e-06 -2.611102217997540720e-06 -1.446145574846013915e-06 -1.634528757676889654e-06
1.383000000000000000e+03 3.200827789306640625e+01 -1.732240867614746094e+01 -1.074863234862277750e-06 -3.213997160855797119e-06 -1.286658175558841322e-06 -1.696605181678023655e-06
1.384000000000000000e+03 4.315256118774414062e+01 -1.897118568420410156e+01 1.209921606459829491e-06 1.182312075798108708e-06 7.176701046773814596e-07 3.342481988966028439e-07
1.385000000000000000e+03 4.170542907714843750e+01 -1.777832031250000000e+01 2.576743781901313923e-06 1.077068077393050771e-06 1.096143591894360725e-06 4.340570285421563312e-07
1.386000000000000000e+03 7.650764465332031250e+01 -2.473954963684082031e+01 -2.670550905168056488e-02 3.012212691828608513e-03 -7.107988931238651276e-03 -1.763752102851867676e-02
1.387000000000000000e+03 1.489964389801025391e+01 -5.289319515228271484e+00 3.228776768082752824e-05 2.669744571903720498e-05 1.769556365616153926e-05 1.454425091651501134e-05
1.388000000000000000e+03 1.457218360900878906e+01 -5.808660984039306641e+00 -3.865577673423103988e-05 -2.365312684560194612e-05 -1.869267180154565722e-05 -1.137320850830292329e-05
1.389000000000000000e+03 1.404125404357910156e+01 -5.450420379638671875e+00 3.600816125981509686e-05 2.621844578243326396e-05 1.866798265837132931e-05 1.060992690327111632e-05
1.390000000000000000e+03 1.645169448852539062e+01 -6.524912357330322266e+00 -3.368380566826090217e-05 -2.537249929446261376e-05 -1.771689130691811442e-05 -1.613624408491887152e-05
1.391000000000000000e+03 1.123957824707031250e+01 -3.932108163833618164e+00 -3.502652907627634704e-05 -3.248493885621428490e-05 -2.025343928835354745e-05 -1.648755642236210406e-05
1.392000000000000000e+03 7.033649444580078125e+01 1.398996734619140625e+01 1.749499142169952393e-01 4.006530761718750000e+00 1.254444241523742676e+00 5.044583603739738464e-02
1.393000000000000000e+03 7.025362396240234375e+01 1.241370391845703125e+01 -2.282426059246063232e-01 3.858515977859497070e+00 1.089082002639770508e+00 -2.888585999608039856e-02
1.394000000000000000e+03 1.874947929382324219e+01 -8.932903289794921875e+00 3.788455433095805347e-05 1.759771839715540409e-05 1.664468254602979869e-05 1.071098813554272056e-05
1.395000000000000000e+03 1.741195106506347656e+01 -8.353628158569335938e+00 -3.735392601811327040e-05 -2.244246024929452688e-05 -1.793891533452551812e-05 -8.898858141037635505e-06
1.396000000000000000e+03 1.737619972229003906e+01 -9.272821426391601562e+00 -4.413072019815444946e-05 -2.456856964272446930e-05 -2.060978658846579492e-05 -3.114445462415460497e-06
1.397000000000000000e+03 1.710516738891601562e+01 -1.186431312561035156e+01 4.616277510649524629e-05 3.749771713046357036e-05 2.509814657969400287e-05 5.656726898450870067e-06
1.398000000000000000e+03 7.033292388916015625e+01 1.007779026031494141e+01 -1.965162903070449829e-01 3.806763887405395508e+00 1.083074331283569336e+00 -1.759358346462249756e-01
1.399000000000000000e+03 7.174080657958984375e+01 1.100204944610595703e+01 -2.835116088390350342e-01 3.095589399337768555e+00 8.436233401298522949e-01 -5.014523491263389587e-02
1.400000000000000000e+03 6.673409271240234375e+01 -2.076170921325683594e+01 4.321311712265014648e-01 7.279481887817382812e-01 3.480238020420074463e-01 8.850659132003784180e-01
1.401000000000000000e+03 4.511529159545898438e+01 -2.367329025268554688e+01 -4.008402824401855469e-01 -6.627452373504638672e-01 -3.190756440162658691e-01 -1.044417142868041992e+00
1.402000000000000000e+03 4.458387756347656250e+01 -2.551579093933105469e+01 -1.399288773536682129e-01 -1.068407177925109863e+00 -3.625007867813110352e-01 -1.091179490089416504e+00
1.403000000000000000e+03 2.975250434875488281e+01 -1.573763561248779297e+01 4.486029865802265704e-06 1.923390072988695465e-06 1.922825958899920806e-06 1.253833829650830012e-06
1.404000000000000000e+03 7.434443664550781250e+01 -2.476067161560058594e+01 -5.120277404785156250e-02 1.670338213443756104e-02 -1.034981850534677505e-02 3.144089132547378540e-04
1.405000000000000000e+03 2.283637237548828125e+01 -3.206072616577148438e+01 3.545939177274703979e-02 -3.613251028582453728e-03 9.553842246532440186e-03 5.931138526648283005e-03
1.406000000000000000e+03 3.220525741577148438e+01 -1.669296646118164062e+01 2.024280775003717281e-06 2.954794581455644220e-06 1.493722606937808450e-06 2.257062078570015728e-06
1.407000000000000000e+03 4.910636138916015625e+01 -2.416703414916992188e+01 -3.540582954883575439e-01 -5.930773019790649414e-01 -2.841406762599945068e-01 -1.457075476646423340e+00
1.408000000000000000e+03 4.743852615356445312e+01 -2.377700996398925781e+01 -5.825034976005554199e-01 -6.277691125869750977e-01 -3.630817830562591553e-01 -1.388990759849548340e+00
1.409000000000000000e+03 5.027560806274414062e+01 -2.313476753234863281e+01 -9.983199834823608398e-01 -5.067202448844909668e-01 -4.515120685100555420e-01 -1.510087490081787109e+00
1.410000000000000000e+03 5.266473770141601562e+01 -1.429229640960693359e+01 -3.907195605279412121e-06 -2.565249815233983099e-06 -1.941733671628753655e-06 -3.280475084466161206e-06
1.411000000000000000e+03 5.151903915405273438e+01 -2.216325187683105469e+01 -1.912169694900512695e+00 -4.828295707702636719e-01 -7.184997797012329102e-01 -1.516953468322753906e+00
1.412000000000000000e+03 5.108470916748046875e+01 -1.324200057983398438e+01 1.187575253425166011e-05 -2.127650532202096656e-06 2.924430646089604124e-06 -2.002174781523535785e-08
1.413000000000000000e+03 7.446623992919921875e+01 -2.996055412292480469e+01 -5.829058587551116943e-03 2.151783788576722145e-03 -1.103182439692318439e-03 1.166180474683642387e-03
1.414000000000000000e+03 7.024507904052734375e+01 1.163594055175781250e+01 -2.984946966171264648e-01 3.648236751556396484e+00 1.004922628402709961e+00 -5.769334360957145691e-02
1.415000000000000000e+03 3.412725448608398438e+01 -1.751101303100585938e+01 1.282108428313222248e-06 1.980524984901421703e-06 9.787900125957094133e-07 1.382029950036667287e-06
1.416000000000000000e+03 3.285439682006835938e+01 -1.675891304016113281e+01 -1.649743921916524414e-06 -2.381232206971617416e-06 -1.209292804560391232e-06 -2.169825847886386327e-06
1.417000000000000000e+03 2.618204879760742188e+01 -1.014222812652587891e+01 2.833349753927905113e-06 -1.399286588821269106e-06 4.302189609006745741e-07 -2.891263420679024421e-06
1.418000000000000000e+03 2.730805587768554688e+01 -1.393378639221191406e+01 -2.081957973132375628e-06 -9.545490229356801137e-07 -9.109521101891004946e-07 -9.800885436561657116e-07
1.419000000000000000e+03 2.688031768798828125e+01 -1.153728389739990234e+01 5.653643029290833510e-07 -6.073728400224354118e-07 -1.260256343726950945e-08 -2.290871179866371676e-06
1.420000000000000000e+03 2.654178428649902344e+01 -1.084286689758300781e+01 4.356968020147178322e-06 8.252808356701279990e-07 1.554674554427037947e-06 -3.227174261155596469e-07
1.421000000000000000e+03 2.753574943542480469e+01 -1.290604496002197266e+01 -1.153213815996423364e-06 -6.590274210793722887e-07 -5.436723995444481261e-07 -1.381139099976280704e-06
1.422000000000000000e+03 2.484046936035156250e+01 -9.107515335083007812e+00 4.811626240552868694e-06 2.654124273249180987e-06 2.239725063191144727e-06 -1.819804310798645020e-06
1.423000000000000000e+03 7.845787811279296875e+01 -2.487621688842773438e+01 -6.426663137972354889e-03 -7.168655749410390854e-03 -4.078595899045467377e-03 -8.992998860776424408e-03
1.424000000000000000e+03 7.769052886962890625e+01 -2.357720184326171875e+01 -1.824246719479560852e-02 -1.343215536326169968e-02 -9.502386674284934998e-03 -2.799121849238872528e-02
1.425000000000000000e+03 7.728157806396484375e+01 -2.460759925842285156e+01 -1.874253526329994202e-02 -3.917658701539039612e-03 -6.798058282583951950e-03 -1.776698790490627289e-02
1.426000000000000000e+03 2.767358970642089844e+01 -1.462185192108154297e+01 4.284680017008213326e-06 1.006531419989187270e-06 1.587363499311322812e-06 -1.609420650083848159e-07
1.427000000000000000e+03 3.129601860046386719e+01 -1.578618907928466797e+01 -2.479909881003550254e-06 -1.959834662557113916e-06 -1.331923385805566795e-06 -9.529750286674243398e-07
1.428000000000000000e+03 5.168642425537109375e+01 -2.280209541320800781e+01 -1.206724882125854492e+00 -4.072272181510925293e-01 -4.841856360435485840e-01 -1.471949696540832520e+00
1.429000000000000000e+03 5.098304367065429688e+01 -2.296676063537597656e+01 -1.102957487106323242e+00 -4.920977950096130371e-01 -4.785165786743164062e-01 -1.500701189041137695e+00
1.430000000000000000e+03 5.386356353759765625e+01 -2.236685180664062500e+01 -1.353973031044006348e+00 -1.761076599359512329e-01 -4.590242207050323486e-01 -1.182888150215148926e+00
1.431000000000000000e+03 5.029804611206054688e+01 -1.394167327880859375e+01 1.068964320438681170e-05 -3.079519274251651950e-06 2.283037247252650559e-06 1.150107891589868814e-06
1.432000000000000000e+03 5.145740890502929688e+01 -1.499532985687255859e+01 4.501463536144001409e-06 1.072051077244395856e-06 1.672054281698365230e-06 9.665111520007485524e-07
1.433000000000000000e+03 4.944509124755859375e+01 -1.675372314453125000e+01 3.385604259165120311e-06 1.309069830313092098e-07 1.054953372658928856e-06 3.419544896132720169e-07
1.434000000000000000e+03 7.670603179931640625e+01 -2.989383888244628906e+01 -1.014014007523655891e-03 -1.246694009751081467e-03 -6.782123818993568420e-04 8.130502537824213505e-04
1.435000000000000000e+03 7.596063995361328125e+01 -2.990302658081054688e+01 -4.180180374532938004e-03 9.151909034699201584e-04 -9.794968646019697189e-04 1.743863453157246113e-03
1.436000000000000000e+03 7.529944610595703125e+01 -3.061880302429199219e+01 -6.535879336297512054e-03 1.823348691686987877e-03 -1.413759309798479080e-03 2.628902206197381020e-03
1.437000000000000000e+03 2.561759567260742188e+01 -3.284013748168945312e+01 3.463086858391761780e-02 -2.017311286181211472e-03 9.784067049622535706e-03 8.522918447852134705e-03
1.438000000000000000e+03 2.986893272399902344e+01 -3.365063858032226562e+01 1.614824868738651276e-02 -1.219275686889886856e-02 1.186647335998713970e-03 -1.238016225397586823e-02
1.439000000000000000e+03 3.119450187683105469e+01 -3.424599838256835938e+01 -2.046297676861286163e-02 -2.149629220366477966e-02 -1.258778106421232224e-02 -3.776640072464942932e-02
1.440000000000000000e+03 4.110844802856445312e+01 1.442066669464111328e+01 2.079830737784504890e-04 5.445040733320638537e-05 7.873004506109282374e-05 2.773613778117578477e-05
1.441000000000000000e+03 5.730906295776367188e+01 -2.598377227783203125e+01 3.763016939163208008e+00 4.184168815612792969e+00 2.384155750274658203e+00 3.274772167205810547e+00
1.442000000000000000e+03 5.045669555664062500e+01 -1.023488426208496094e+01 1.787584369594696909e-05 -4.000025910499971360e-07 5.242752195044886321e-06 1.802250608307076618e-06
1.443000000000000000e+03 4.777431106567382812e+01 -2.080565690994262695e+00 -4.958347199135459960e-05 -8.296302439703140408e-06 -1.736393278406467289e-05 -1.955403422471135855e-05
1.444000000000000000e+03 4.836721038818359375e+01 -5.836317062377929688e+00 -2.720596057770308107e-05 -5.420297384262084961e-06 -9.787877388589549810e-06 -1.007588070933707058e-05
1.445000000000000000e+03 5.789257812500000000e+01 -2.535506248474121094e+01 3.964969635009765625e+00 3.902804613113403320e+00 2.360332250595092773e+00 3.302630901336669922e+00
1.446000000000000000e+03 5.256885147094726562e+01 -2.325218582153320312e+01 -6.020150184631347656e-01 -2.191962301731109619e-01 -2.463633716106414795e-01 -1.276280760765075684e+00
1.447000000000000000e+03 5.312639617919921875e+01 -2.249824905395507812e+01 -1.319566488265991211e+00 -2.517451345920562744e-01 -4.713934957981109619e-01 -1.329804658889770508e+00
1.448000000000000000e+03 5.850179290771484375e+01 -2.476140022277832031e+01 4.237920761108398438e+00 3.422792911529541016e+00 2.298213958740234375e+00 3.480851173400878906e+00
1.449000000000000000e+03 4.727973556518554688e+01 -1.720735549926757812e+01 -2.413240963505813852e-06 -1.226778863383515272e-06 -1.092005959435482509e-06 -1.561566591590235475e-06
1.450000000000000000e+03 4.873246765136718750e+01 -1.688765716552734375e+01 -3.170413947373162955e-06 -4.799767339136451483e-07 -1.095117227123409975e-06 -9.956121402865392156e-07
1.451000000000000000e+03 4.107526397705078125e+01 1.356140613555908203e+01 -1.797354343580082059e-04 6.308227602858096361e-05 -3.499594822642393410e-05 3.546316975189256482e-06
1.452000000000000000e+03 3.211908721923828125e+01 -3.421286010742187500e+01 -3.798769414424896240e-02 -1.310205087065696716e-02 -1.532692275941371918e-02 -4.804613441228866577e-02
1.453000000000000000e+03 4.538561248779296875e+01 1.161366581916809082e+00 -6.554451829288154840e-05 -1.277659703191602603e-05 -2.349633541598450392e-05 -3.473574906820431352e-05
1.454000000000000000e+03 7.602011108398437500e+01 -3.058794021606445312e+01 -2.754851942881941795e-03 -1.407240633852779865e-03 -1.248627784661948681e-03 2.117907628417015076e-03
1.455000000000000000e+03 7.312812042236328125e+01 -3.085774230957031250e+01 -9.835733100771903992e-03 -4.477068141568452120e-04 -3.085032105445861816e-03 1.255836570635437965e-03
1.456000000000000000e+03 7.385990905761718750e+01 -3.077376174926757812e+01 -9.486823342740535736e-03 3.954153042286634445e-03 -1.659800880588591099e-03 1.636059256270527840e-03
1.457000000000000000e+03 4.999703216552734375e+01 -1.178138923645019531e+01 -1.511307891632895917e-05 3.402593051760050002e-07 -4.431845809449441731e-06 -2.372706376263522543e-06
1.458000000000000000e+03 3.558847045898437500e+01 -1.697211265563964844e+01 -1.735007572278846055e-06 -1.199287908093538135e-06 -8.802886100056639407e-07 -1.524292656540637836e-06
1.459000000000000000e+03 4.500757217407226562e+01 1.851471662521362305e+00 7.010860281297937036e-05 2.203158328484278172e-05 2.764205601124558598e-05 3.528774323058314621e-05
1.460000000000000000e+03 2.807748603820800781e+01 -1.532987308502197266e+01 -3.806700533459661528e-06 -1.369199253531405702e-06 -1.552769958834687714e-06 -1.035021455209061969e-06
1.461000000000000000e+03 2.755435562133789062e+01 -3.241292572021484375e+01 4.971239343285560608e-02 -4.327541217207908630e-03 1.361545640975236893e-02 -7.165961869759485126e-05
1.462000000000000000e+03 1.014466762542724609e+01 -2.950322532653808594e+01 5.505812587216496468e-04 -7.150041055865585804e-04 -4.932684896630235016e-05 -4.350738599896430969e-04
1.463000000000000000e+03 4.530898284912109375e+01 -1.842131042480468750e+01 -1.228008613907149993e-06 -1.371278017359145451e-06 -7.797859780112048611e-07 -9.718918363432749175e-07
1.464000000000000000e+03 4.379853439331054688e+01 -1.816246032714843750e+01 1.386180201734532602e-06 1.772034352143236902e-06 9.474643434259633068e-07 6.154150469228625298e-07
1.465000000000000000e+03 4.516800308227539062e+01 -1.780123710632324219e+01 1.340713879471877590e-06 1.907638761622365564e-06 9.745058378030080348e-07 9.561747447150992230e-07
1.466000000000000000e+03 4.883964538574218750e+01 -4.990437984466552734e+00 -3.254331750213168561e-05 -3.846170329779852182e-06 -1.091684589482611045e-05 -9.659733223088551313e-06
1.467000000000000000e+03 4.973964309692382812e+01 3.170320129394531250e+01 -5.074910819530487061e-03 -3.616636095102876425e-04 -1.630972372367978096e-03 -2.800798043608665466e-03
1.468000000000000000e+03 2.982134437561035156e+01 -3.248824310302734375e+01 5.052048712968826294e-02 -2.705920487642288208e-03 1.434436999261379242e-02 -7.974490523338317871e-03
1.469000000000000000e+03 6.155380630493164062e+01 -2.277731704711914062e+01 3.608167886734008789e+00 2.291307449340820312e+00 1.769842624664306641e+00 2.347168445587158203e+00
1.470000000000000000e+03 6.045090103149414062e+01 -2.223250579833984375e+01 1.648617744445800781e+00 2.408310651779174805e+00 1.217078566551208496e+00 1.985753536224365234e+00
1.471000000000000000e+03 4.101855850219726562e+01 -1.775969886779785156e+01 -2.778839416350820102e-06 -8.567964755457069259e-07 -1.090690716409881134e-06 -2.252854045536878402e-07
1.472000000000000000e+03 7.020574188232421875e+01 -3.095445871353149414e+00 2.133613228797912598e-01 3.080952405929565430e+00 9.882941246032714844e-01 5.171733498573303223e-01
1.473000000000000000e+03 6.999712371826171875e+01 -1.391796469688415527e+00 2.726835310459136963e-01 3.877708196640014648e+00 1.245117545127868652e+00 6.877629756927490234e-01
1.474000000000000000e+03 3.352502822875976562e+01 -1.682408523559570312e+01 2.258460881421342492e-06 2.038225147771299817e-06 1.289005808757792693e-06 1.874704253168602008e-06
1.475000000000000000e+03 4.738118743896484375e+01 3.072972679138183594e+01 -2.605392131954431534e-03 4.786087956745177507e-04 -6.380350096151232719e-04 -1.365271746180951595e-03
1.476000000000000000e+03 4.747201538085937500e+01 -1.375621676445007324e+00 5.503929787664674222e-05 1.277403407584642991e-05 2.034399949479848146e-05 2.233896520920097828e-05
1.477000000000000000e+03 4.245394897460937500e+01 8.600904464721679688e+00 1.437790197087451816e-04 3.412027217564173043e-05 5.336978574632667005e-05 3.438743442529812455e-05
1.478000000000000000e+03 4.236935806274414062e+01 6.878271579742431641e+00 -1.087326745619066060e-04 1.509921366960043088e-05 -2.809003854054026306e-05 -3.574497895897366107e-05
1.479000000000000000e+03 4.575155258178710938e+01 4.679799377918243408e-01 5.934820364927873015e-05 1.957522181328386068e-05 2.367702836636453867e-05 3.334487337269820273e-05
1.480000000000000000e+03 4.884531021118164062e+01 -7.298291206359863281e+00 -2.395787669229321182e-05 -3.078493364228052087e-06 -8.110911039693746716e-06 -6.215881512616761029e-06
1.481000000000000000e+03 4.408973312377929688e+01 -2.506940841674804688e+01 -1.230638027191162109e-01 -1.033889412879943848e+00 -3.470859825611114502e-01 -9.378378391265869141e-01
1.482000000000000000e+03 6.840895843505859375e+01 3.224412155151367188e+01 2.661915421485900879e-01 1.918282508850097656e+00 6.553422212600708008e-01 -6.223944425582885742e-01
1.483000000000000000e+03 6.785427093505859375e+01 3.289979553222656250e+01 2.412555366754531860e-01 1.652934551239013672e+00 5.682570338249206543e-01 -6.320686936378479004e-01
1.484000000000000000e+03 4.377404785156250000e+01 5.620400428771972656e+00 1.123002803069539368e-04 2.745698293438181281e-05 4.192717824480496347e-05 4.127606371184810996e-05
1.485000000000000000e+03 4.345295333862304688e+01 4.660373687744140625e+00 8.815843466436490417e-05 2.729762309172656387e-05 3.463681787252426147e-05 3.961297989008016884e-05
1.486000000000000000e+03 5.436734199523925781e+00 3.946086406707763672e+00 6.778133410989539698e-06 9.734922059578821063e-07 2.325487685084226541e-06 -4.796720986632863060e-06
1.487000000000000000e+03 2.027266263961791992e+00 5.739091396331787109e+00 -5.889749900234164670e-06 7.551693670393433422e-06 4.985832333659345750e-07 -4.301508852222468704e-06
1.488000000000000000e+03 2.662020206451416016e+00 2.576080083847045898e+00 4.058597824041498825e-06 5.534153046937717590e-07 1.383603944304923061e-06 -2.232829501735977829e-06
1.489000000000000000e+03 3.430536031723022461e+00 2.553820848464965820e+00 2.966539796034339815e-07 3.179953637300059199e-06 1.042982262333680410e-06 -3.430407332416507415e-06
1.490000000000000000e+03 4.844661712646484375e+00 3.237660408020019531e+00 6.568091066583292559e-06 1.975542858190237894e-07 2.029693632721318863e-06 -3.990006916865240782e-06
1.491000000000000000e+03 6.354853153228759766e+00 3.301468849182128906e+00 8.290514415421057492e-06 -5.494921424542553723e-07 2.322306727364775725e-06 -4.835269010072806850e-06
1.492000000000000000e+03 5.595698356628417969e+00 3.259774684906005859e+00 3.051870180570404045e-06 5.628354756481712684e-06 2.604067503853002563e-06 -8.908550626074429601e-06
1.493000000000000000e+03 6.518994808197021484e+00 2.587226867675781250e+00 5.512543793884105980e-06 5.946577402937691659e-06 3.437736268097069114e-06 -9.152619895758107305e-06
1.494000000000000000e+03 7.872034549713134766e+00 3.475323677062988281e+00 9.839362974162213504e-06 -7.220324960144353099e-07 2.735199359449325129e-06 -5.600793429039185867e-06
1.495000000000000000e+03 2.494989967346191406e+01 -8.009218215942382812e+00 5.809321010019630194e-06 2.444093524900381453e-06 2.476024292263900861e-06 -2.252796093671349809e-06
1.496000000000000000e+03 9.731309890747070312e+00 2.944210767745971680e+00 8.504674042342230678e-06 1.175368561234790832e-05 6.077507805457571521e-06 -1.567179242556449026e-05
1.497000000000000000e+03 2.538335800170898438e+01 -8.715376853942871094e+00 5.474116733239497989e-06 -2.513504796297638677e-06 8.881835924512415659e-07 -3.196463694621343166e-06
1.498000000000000000e+03 4.913638687133789062e+01 3.122029876708984375e+01 -5.225446075201034546e-03 -1.381983282044529915e-03 -1.982228830456733704e-03 -1.695191953331232071e-03
1.499000000000000000e+03 4.573425674438476562e+01 2.849944305419921875e+01 -1.876293099485337734e-03 2.561837900429964066e-04 -4.860328044742345810e-04 -1.984838745556771755e-04
1.500000000000000000e+03 6.978168487548828125e+01 -1.011224174499511719e+01 -3.502887487411499023e-02 1.433891773223876953e+00 4.196588695049285889e-01 9.156775474548339844e-02
1.501000000000000000e+03 7.171827697753906250e+01 1.177552509307861328e+01 -2.509387135505676270e-01 3.046023845672607422e+00 8.385255336761474609e-01 -9.452647715806961060e-02
1.502000000000000000e+03 1.811026692390441895e+00 -2.334083938598632812e+01 -5.926082376390695572e-04 5.793502168671693653e-06 -1.760444283718243241e-04 -9.672419400885701180e-05
1.503000000000000000e+03 2.526396751403808594e+00 -2.324644279479980469e+01 6.150089320726692677e-04 -4.935961987939663231e-05 1.696948020253330469e-04 4.674237789004109800e-05
1.504000000000000000e+03 5.597453689575195312e+01 -3.384337234497070312e+01 -7.744989544153213501e-02 3.278339147567749023e+00 9.602667689323425293e-01 -3.316752612590789795e-01
1.505000000000000000e+03 4.812852478027343750e+01 -5.109556198120117188e+00 2.921203667938243598e-05 7.278822067746659741e-06 1.094725757866399363e-05 1.266921117348829284e-05
1.506000000000000000e+03 4.360967636108398438e+01 -2.623093795776367188e+01 -8.240489661693572998e-02 -1.462888836860656738e+00 -4.635881185531616211e-01 -8.966613411903381348e-01
1.507000000000000000e+03 5.914226531982421875e+01 -2.416343498229980469e+01 4.399879455566406250e+00 2.970031976699829102e+00 2.210973501205444336e+00 3.112323760986328125e+00
1.508000000000000000e+03 2.023960494995117188e+01 -3.324670553207397461e+00 1.611297011550050229e-05 -3.981087388638115954e-07 4.714458100352203473e-06 -3.915005436283536255e-06
1.509000000000000000e+03 2.350122642517089844e+01 -7.057078361511230469e+00 8.500626790919341147e-06 -2.276828581670997664e-06 1.867139530986605678e-06 -3.785092303587589413e-06
1.510000000000000000e+03 2.453247451782226562e+01 -6.194548130035400391e+00 1.012043230730341747e-05 -5.216080808168044314e-06 1.471305495215347037e-06 -2.679058752619312145e-06
1.511000000000000000e+03 5.010564804077148438e+01 -1.251907157897949219e+01 1.378296292386949062e-05 -3.172719686972413911e-07 4.039707164338324219e-06 2.376932343395310454e-06
1.512000000000000000e+03 5.097074127197265625e+01 -1.250061607360839844e+01 -1.422644254489568993e-05 3.304811713178423815e-08 -4.258018179825739935e-06 -1.464902425141190179e-06
1.513000000000000000e+03 1.451487445831298828e+01 1.560674071311950684e+00 1.265788341697771102e-05 4.389603873278247193e-06 5.114246050652582198e-06 -4.745022124552633613e-06
1.514000000000000000e+03 1.634303665161132812e+01 -2.890321910381317139e-01 1.751182207954116166e-05 5.028801751905120909e-06 6.762187240383354947e-06 -4.846895535592921078e-06
1.515000000000000000e+03 1.703479576110839844e+01 8.979272842407226562e-01 1.204294221679447219e-05 2.107335745904492796e-07 3.676102778626955114e-06 -2.339109187232679687e-06
1.516000000000000000e+03 1.270693778991699219e+01 1.707029819488525391e+00 1.950670775840990245e-05 6.213361302798148245e-06 7.716021173109766096e-06 -1.397673167957691476e-05
1.517000000000000000e+03 9.176983833312988281e+00 -2.798885154724121094e+01 -4.016315506305545568e-04 -1.786252250894904137e-04 -1.740770385367795825e-04 -8.724672370590269566e-04
1.518000000000000000e+03 4.154683685302734375e+01 1.783053970336914062e+01 2.696479496080428362e-04 5.284051439957693219e-05 9.674653847469016910e-05 -8.500392141286283731e-06
1.519000000000000000e+03 4.139442062377929688e+01 1.698434638977050781e+01 -2.302147622685879469e-04 7.272475340869277716e-05 -4.724700193037278950e-05 3.599326373660005629e-05
1.520000000000000000e+03 5.329479980468750000e+01 3.477278137207031250e+01 -2.758471481502056122e-02 -6.478652358055114746e-04 -8.469774387776851654e-03 -6.638197693973779678e-03
1.521000000000000000e+03 5.380383682250976562e+01 3.536254501342773438e+01 -3.326415643095970154e-02 2.434505848214030266e-03 -9.248894639313220978e-03 -2.555733080953359604e-03
1.522000000000000000e+03 2.843784332275390625e+01 -3.337664031982421875e+01 2.653102204203605652e-02 -8.875570259988307953e-03 5.296635441482067108e-03 -2.583371941000223160e-03
1.523000000000000000e+03 2.127486419677734375e+01 -3.385921001434326172e+00 1.508374680270208046e-05 -3.696482963277958333e-06 3.416179197301971726e-06 -2.540809191486914642e-06
1.524000000000000000e+03 2.186795043945312500e+01 -4.002120018005371094e+00 1.206158231070730835e-05 4.146255378145724535e-06 4.862351488554850221e-06 -7.123632258299039677e-06
1.525000000000000000e+03 7.141754150390625000e+01 6.093714237213134766e+00 1.911802589893341064e-01 3.805462121963500977e+00 1.198992729187011719e+00 -1.279695779085159302e-01
1.526000000000000000e+03 7.072713470458984375e+01 5.210214614868164062e+00 4.861975461244583130e-02 4.544893264770507812e+00 1.378053903579711914e+00 -5.701041594147682190e-02
1.527000000000000000e+03 4.249995422363281250e+01 1.853100585937500000e+01 3.117951273452490568e-04 9.314454655395820737e-05 1.214819058077409863e-04 -3.282619218225590885e-05
1.528000000000000000e+03 4.171815872192382812e+01 1.866658592224121094e+01 -2.752884465735405684e-04 7.054717571008950472e-05 -6.142237543826922774e-05 5.651037281495518982e-05
1.529000000000000000e+03 4.301402664184570312e+01 2.507572746276855469e+01 -8.183688041754066944e-04 -1.139283194788731635e-04 -2.796891494654119015e-04 6.548233795911073685e-05
1.530000000000000000e+03 7.060436248779296875e+01 7.663447856903076172e+00 2.551984786987304688e-01 4.398654460906982422e+00 1.396155953407287598e+00 -2.003612518310546875e-01
1.531000000000000000e+03 2.541769504547119141e+00 -1.999412155151367188e+01 4.501393414102494717e-04 2.737031172728165984e-05 1.432528952136635780e-04 7.747999188723042607e-05
1.532000000000000000e+03 1.873957443237304688e+01 -1.147526502609252930e+00 1.607076046639122069e-05 -6.012493827256548684e-07 4.640853148885071278e-06 -2.393442400716594420e-06
1.533000000000000000e+03 1.807269477844238281e+01 -6.454784870147705078e-01 1.841277662606444210e-05 5.346805664885323495e-06 7.127874596335459501e-06 -1.141804750659503043e-05
1.534000000000000000e+03 4.651045608520507812e+01 2.795002174377441406e+01 -6.526106153614819050e-04 -4.959565194440074265e-05 -2.106618776451796293e-04 -1.030348590575158596e-03
1.535000000000000000e+03 7.110121154785156250e+01 2.214348411560058594e+01 7.219299674034118652e-02 3.637326717376708984e+00 1.112855911254882812e+00 -1.081559211015701294e-01
1.536000000000000000e+03 7.280130767822265625e+01 3.475379467010498047e+00 2.351729571819305420e-01 2.528874397277832031e+00 8.292142152786254883e-01 3.299042582511901855e-02
1.537000000000000000e+03 4.929851150512695312e+01 -8.763667106628417969e+00 -2.071298149530775845e-05 -1.204792624776018783e-06 -6.575332463398808613e-06 -3.944817763112951070e-06
1.538000000000000000e+03 4.951051330566406250e+01 -9.513505935668945312e+00 1.937009983521420509e-05 2.534050622671202291e-07 5.887051429454004392e-06 3.205868779332377017e-06
1.539000000000000000e+03 4.363155364990234375e+01 1.266409754753112793e+00 3.722665132954716682e-05 2.500612390576861799e-05 1.866983257059473544e-05 3.122114503639750183e-05
1.540000000000000000e+03 7.881785583496093750e+01 3.463864517211914062e+01 -8.762728422880172729e-03 -8.715663552284240723e-01 -2.640987336635589600e-01 1.884059160947799683e-01
1.541000000000000000e+03 7.740297698974609375e+01 3.130778694152832031e+01 1.222405117005109787e-02 -7.294532656669616699e-01 -2.151687592267990112e-01 3.738427162170410156e-01
1.542000000000000000e+03 7.894175720214843750e+01 -2.057736778259277344e+01 -5.559460725635290146e-03 -9.466067701578140259e-02 -3.006604313850402832e-02 -4.306408762931823730e-02
1.543000000000000000e+03 7.885223388671875000e+01 -2.301639747619628906e+01 -5.862710997462272644e-03 -2.801823057234287262e-02 -1.016428228467702866e-02 -2.102575637400150299e-02
1.544000000000000000e+03 7.789774322509765625e+01 3.594071578979492188e+01 -3.509904071688652039e-02 -4.957366287708282471e-01 -1.592506915330886841e-01 2.572653889656066895e-01
1.545000000000000000e+03 7.890016174316406250e+01 2.271502304077148438e+01 9.920089505612850189e-03 -2.261445045471191406e+00 -6.754575371742248535e-01 4.573534056544303894e-02
1.546000000000000000e+03 7.817132568359375000e+01 2.184393310546875000e+01 1.901022717356681824e-02 -1.737158417701721191e+00 -5.154444575309753418e-01 4.586495831608772278e-02
1.547000000000000000e+03 7.744995117187500000e+01 2.739799118041992188e+01 6.345605850219726562e-02 -1.034342050552368164e+00 -2.912657856941223145e-01 2.720434963703155518e-01
1.548000000000000000e+03 7.816559600830078125e+01 2.104418373107910156e+01 1.357143651694059372e-02 -1.745516180992126465e+00 -5.195834040641784668e-01 3.409013524651527405e-02
1.549000000000000000e+03 7.890019989013671875e+01 2.431811141967773438e+01 1.296292431652545929e-02 -2.187930583953857422e+00 -6.524903178215026855e-01 7.803203910589218140e-02
1.550000000000000000e+03 7.742677307128906250e+01 1.696501159667968750e+01 2.984814113005995750e-03 -1.200898528099060059e+00 -3.593741357326507568e-01 -5.225848406553268433e-03
1.551000000000000000e+03 7.815591430664062500e+01 1.703048515319824219e+01 1.378859742544591427e-03 -1.753120541572570801e+00 -5.255224704742431641e-01 -2.250485587865114212e-03
1.552000000000000000e+03 7.877979278564453125e+01 3.540952682495117188e+01 -1.339727174490690231e-02 -7.630153894424438477e-01 -2.329238057136535645e-01 1.792420148849487305e-01
1.553000000000000000e+03 7.668846893310546875e+01 3.122973632812500000e+01 1.623030193150043488e-02 -4.142005741596221924e-01 -1.193910837173461914e-01 4.188232421875000000e-01
1.554000000000000000e+03 7.889251708984375000e+01 1.309081172943115234e+01 -6.642544176429510117e-03 -2.308764457702636719e+00 -6.946220993995666504e-01 2.047156728804111481e-02
1.555000000000000000e+03 7.184733581542968750e+01 9.440915107727050781e+00 -9.585980325937271118e-02 3.085286617279052734e+00 8.968280553817749023e-01 3.789583221077919006e-02
1.556000000000000000e+03 7.816003417968750000e+01 1.381317329406738281e+01 -1.332813873887062073e-02 -1.750641584396362305e+00 -5.291908979415893555e-01 1.324615534394979477e-02
1.557000000000000000e+03 7.816271972656250000e+01 2.744762802124023438e+01 3.448305651545524597e-02 -1.461141824722290039e+00 -4.279976189136505127e-01 2.240719795227050781e-01
1.558000000000000000e+03 7.815529632568359375e+01 1.461486053466796875e+01 -1.010403409600257874e-02 -1.747007608413696289e+00 -5.271334648132324219e-01 4.260795656591653824e-03
1.559000000000000000e+03 7.889042663574218750e+01 1.389412593841552734e+01 -6.060563027858734131e-03 -2.303912639617919922e+00 -6.929919123649597168e-01 1.278461236506700516e-02
1.560000000000000000e+03 7.247957611083984375e+01 1.028233146667480469e+01 -1.861556470394134521e-01 2.622575759887695312e+00 7.309260368347167969e-01 3.478311374783515930e-02
1.561000000000000000e+03 7.887570190429687500e+01 3.071393203735351562e+01 2.529321005567908287e-03 -1.465765953063964844e+00 -4.389709830284118652e-01 1.997603178024291992e-01
1.562000000000000000e+03 7.812003326416015625e+01 3.217865753173828125e+01 -1.557426061481237411e-03 -9.443874359130859375e-01 -2.837834656238555908e-01 3.038253784179687500e-01
1.563000000000000000e+03 7.888658142089843750e+01 2.832248687744140625e+01 1.171482447534799576e-02 -1.805889010429382324e+00 -5.382522344589233398e-01 1.706533879041671753e-01
1.564000000000000000e+03 7.815229797363281250e+01 2.904360008239746094e+01 2.160510979592800140e-02 -1.305562734603881836e+00 -3.851872682571411133e-01 2.700721919536590576e-01
1.565000000000000000e+03 7.892591094970703125e+01 -1.978609466552734375e+01 -5.067076999694108963e-03 -1.259812116622924805e-01 -3.931448981165885925e-02 -5.187584459781646729e-02
1.566000000000000000e+03 7.678897857666015625e+01 -2.268232154846191406e+01 -3.715069219470024109e-02 -7.186223752796649933e-03 -1.330107450485229492e-02 -5.269913375377655029e-02
1.567000000000000000e+03 7.817418670654296875e+01 9.802679061889648438e+00 -1.209724508225917816e-02 -1.807540535926818848e+00 -5.458913445472717285e-01 6.881961226463317871e-02
1.568000000000000000e+03 7.745937347412109375e+01 -1.476577997207641602e+00 4.906846955418586731e-02 -1.137215256690979004e+00 -3.264440298080444336e-01 -2.699214518070220947e-01
1.569000000000000000e+03 7.819052886962890625e+01 -3.830925226211547852e+00 1.517632789909839630e-02 -1.396600961685180664e+00 -4.144273996353149414e-01 -2.563127279281616211e-01
1.570000000000000000e+03 7.216399383544921875e+01 5.288019657135009766e+00 1.745212078094482422e-01 3.144925594329833984e+00 9.958339929580688477e-01 -3.391997888684272766e-02
1.571000000000000000e+03 7.890668487548828125e+01 2.665458679199218750e+00 1.587609574198722839e-02 -2.448894023895263672e+00 -7.299053668975830078e-01 -3.563209250569343567e-02
1.572000000000000000e+03 7.815998840332031250e+01 1.944351196289062500e+01 1.014480553567409515e-02 -1.755486726760864258e+00 -5.236025452613830566e-01 1.352773420512676239e-02
1.573000000000000000e+03 7.742793273925781250e+01 1.777179145812988281e+01 8.183216676115989685e-03 -1.201191067695617676e+00 -3.579023480415344238e-01 -1.571646193042397499e-03
1.574000000000000000e+03 7.817396545410156250e+01 2.585087585449218750e+01 3.550881519913673401e-02 -1.585637450218200684e+00 -4.650385975837707520e-01 1.665038913488388062e-01
1.575000000000000000e+03 7.816892242431640625e+01 2.665056037902832031e+01 3.631125763058662415e-02 -1.527826309204101562e+00 -4.474545121192932129e-01 1.952248364686965942e-01
1.576000000000000000e+03 7.816178894042968750e+01 2.024438285827636719e+01 1.189522538334131241e-02 -1.752889037132263184e+00 -5.222981572151184082e-01 2.281140908598899841e-02
1.577000000000000000e+03 7.817870330810546875e+01 8.202519416809082031e+00 -8.052439079619944096e-05 -1.846432566642761230e+00 -5.539538860321044922e-01 7.419764995574951172e-02
1.578000000000000000e+03 7.890670013427734375e+01 6.678665637969970703e+00 7.174515631049871445e-03 -2.472519397735595703e+00 -7.396034598350524902e-01 4.948434978723526001e-02
1.579000000000000000e+03 7.820470428466796875e+01 5.802747726440429688e+00 2.740766108036041260e-02 -1.905086398124694824e+00 -5.633035898208618164e-01 3.968189284205436707e-02
1.580000000000000000e+03 7.890246582031250000e+01 -5.398736596107482910e-01 1.288264896720647812e-02 -2.214161157608032227e+00 -6.603835821151733398e-01 -1.195755824446678162e-01
1.581000000000000000e+03 7.817816925048828125e+01 -1.417781829833984375e+00 2.680554427206516266e-02 -1.622605204582214355e+00 -4.787399172782897949e-01 -2.131557464599609375e-01
1.582000000000000000e+03 7.890811920166015625e+01 -6.955903053283691406e+00 -6.503035547211766243e-04 -1.361291050910949707e+00 -4.085823893547058105e-01 -1.706739366054534912e-01
1.583000000000000000e+03 7.819708251953125000e+01 -7.827404975891113281e+00 -6.611026823520660400e-03 -9.698774218559265137e-01 -2.929465472698211670e-01 -2.559011578559875488e-01
1.584000000000000000e+03 7.891408538818359375e+01 -1.336918640136718750e+01 -4.989640321582555771e-03 -5.735350847244262695e-01 -1.735574156045913696e-01 -1.161848381161689758e-01
1.585000000000000000e+03 7.892182922363281250e+01 -1.657655906677246094e+01 -4.648672882467508316e-03 -3.066223561763763428e-01 -9.338131546974182129e-02 -8.301621675491333008e-02
1.586000000000000000e+03 7.892144775390625000e+01 -1.738133811950683594e+01 -4.777773283421993256e-03 -2.531010508537292480e-01 -7.736364752054214478e-02 -7.511770725250244141e-02
1.587000000000000000e+03 7.823483276367187500e+01 -2.066665649414062500e+01 -1.321716699749231339e-02 -7.556758075952529907e-02 -2.663542516529560089e-02 -6.586340069770812988e-02
1.588000000000000000e+03 7.810469818115234375e+01 3.294888687133789062e+01 -1.300981920212507248e-02 -8.514746427536010742e-01 -2.593453526496887207e-01 3.010962605476379395e-01
1.589000000000000000e+03 7.815736389160156250e+01 2.824649238586425781e+01 2.817633375525474548e-02 -1.387646079063415527e+00 -4.078409373760223389e-01 2.488542199134826660e-01
1.590000000000000000e+03 7.817771911621093750e+01 2.264520645141601562e+01 2.514648251235485077e-02 -1.724356651306152344e+00 -5.097630620002746582e-01 6.463193148374557495e-02
1.591000000000000000e+03 7.819652557373046875e+01 -1.987620162963867188e+01 -1.475784368813037872e-02 -9.797599166631698608e-02 -3.382015228271484375e-02 -7.776572555303573608e-02
1.592000000000000000e+03 7.891986083984375000e+01 -1.898784255981445312e+01 -5.283753853291273117e-03 -1.626440882682800293e-01 -5.037835240364074707e-02 -5.944919586181640625e-02
1.593000000000000000e+03 7.818627929687500000e+01 7.403329372406005859e+00 9.547547437250614166e-03 -1.868560671806335449e+00 -5.577039122581481934e-01 7.104330509901046753e-02
1.594000000000000000e+03 7.819155120849609375e+01 1.787742137908935547e+00 4.214482754468917847e-02 -1.837124347686767578e+00 -5.384938716888427734e-01 -1.002294793725013733e-01
1.595000000000000000e+03 7.819075012207031250e+01 -5.436481952667236328e+00 4.483390133827924728e-03 -1.224591732025146484e+00 -3.660325109958648682e-01 -2.667840123176574707e-01
1.596000000000000000e+03 7.819632720947265625e+01 -1.023165512084960938e+01 -1.029151212424039841e-02 -7.248542904853820801e-01 -2.205437421798706055e-01 -2.278736233711242676e-01
1.597000000000000000e+03 7.796846771240234375e+01 3.520109939575195312e+01 -2.929414249956607819e-02 -5.808467864990234375e-01 -1.830422729253768921e-01 2.697418034076690674e-01
1.598000000000000000e+03 7.890355682373046875e+01 7.480318069458007812e+00 3.198928199708461761e-03 -2.450478315353393555e+00 -7.341837882995605469e-01 5.630951002240180969e-02
1.599000000000000000e+03 7.820809173583984375e+01 3.401217222213745117e+00 3.474988415837287903e-02 -1.896802663803100586e+00 -5.586158633232116699e-01 -3.591912984848022461e-02
1.600000000000000000e+03 7.205888366699218750e+01 2.667359352111816406e+00 2.902514040470123291e-01 3.162287712097167969e+00 1.035761713981628418e+00 9.690074622631072998e-02
1.601000000000000000e+03 7.818724822998046875e+01 9.868283271789550781e-01 4.412107169628143311e-02 -1.797433137893676758e+00 -5.259935855865478516e-01 -1.327643394470214844e-01
1.602000000000000000e+03 7.890386962890625000e+01 2.619730532169342041e-01 1.752084121108055115e-02 -2.292042493820190430e+00 -6.823564767837524414e-01 -1.006556972861289978e-01
1.603000000000000000e+03 7.818381500244140625e+01 1.885265558958053589e-01 3.680423647165298462e-02 -1.748120903968811035e+00 -5.133950114250183105e-01 -1.640543192625045776e-01
1.604000000000000000e+03 7.890475463867187500e+01 -3.750602960586547852e+00 6.567994132637977600e-03 -1.818190097808837891e+00 -5.434865951538085938e-01 -1.662529110908508301e-01
1.605000000000000000e+03 7.818122863769531250e+01 -2.223195791244506836e+00 2.538681775331497192e-02 -1.551914691925048828e+00 -4.579583406448364258e-01 -2.308343499898910522e-01
1.606000000000000000e+03 7.819338989257812500e+01 -6.233002185821533203e+00 -3.622634103521704674e-04 -1.140699028968811035e+00 -3.423183858394622803e-01 -2.664692103862762451e-01
1.607000000000000000e+03 7.749713897705078125e+01 -1.107956790924072266e+01 -2.296420931816101074e-02 -4.674109816551208496e-01 -1.471125632524490356e-01 -2.729049324989318848e-01
1.608000000000000000e+03 7.819601440429687500e+01 -1.103811740875244141e+01 -1.249338313937187195e-02 -6.479621529579162598e-01 -1.981366723775863647e-01 -2.174361646175384521e-01
1.609000000000000000e+03 7.819576263427734375e+01 -7.029704570770263672e+00 -2.923481399193406105e-03 -1.054466962814331055e+00 -3.172171413898468018e-01 -2.620147168636322021e-01
1.610000000000000000e+03 7.820111083984375000e+01 -1.263907909393310547e+01 -1.382345706224441528e-02 -5.100063681602478027e-01 -1.571489423513412476e-01 -1.916415542364120483e-01
1.611000000000000000e+03 7.820649719238281250e+01 -1.423743534088134766e+01 -1.374448090791702271e-02 -3.894212245941162109e-01 -1.209497079253196716e-01 -1.649937778711318970e-01
1.612000000000000000e+03 7.821810150146484375e+01 -1.664557456970214844e+01 -1.301492564380168915e-02 -2.402185052633285522e-01 -7.597002387046813965e-02 -1.259573251008987427e-01
1.613000000000000000e+03 7.820387268066406250e+01 -1.343709564208984375e+01 -1.361773442476987839e-02 -4.474171698093414307e-01 -1.383104622364044189e-01 -1.771669238805770874e-01
1.614000000000000000e+03 7.752071380615234375e+01 -1.588415622711181641e+01 -2.516152150928974152e-02 -2.035905122756958008e-01 -6.862560659646987915e-02 -1.738841682672500610e-01
1.615000000000000000e+03 7.821401214599609375e+01 -1.584415435791015625e+01 -1.295437663793563843e-02 -2.855030000209808350e-01 -8.953721076250076294e-02 -1.390588134527206421e-01
1.616000000000000000e+03 7.778163146972656250e+01 3.666761016845703125e+01 -4.178813099861145020e-02 -4.118244051933288574e-01 -1.360837668180465698e-01 2.422052472829818726e-01
1.617000000000000000e+03 7.803104400634765625e+01 3.445810317993164062e+01 -2.526923269033432007e-02 -6.657294631004333496e-01 -2.072996199131011963e-01 2.818684875965118408e-01
1.618000000000000000e+03 7.068190002441406250e+01 2.730119466781616211e+00 1.899835765361785889e-01 4.652749538421630859e+00 1.452819824218750000e+00 2.250599712133407593e-01
1.619000000000000000e+03 7.137076568603515625e+01 2.716109514236450195e+00 2.628688812255859375e-01 3.866694211959838867e+00 1.238868951797485352e+00 1.691801249980926514e-01
1.620000000000000000e+03 1.956353569030761719e+01 -3.300129318237304688e+01 1.818345487117767334e-02 2.021061023697257042e-03 6.061354652047157288e-03 8.028467185795307159e-03
1.621000000000000000e+03 3.490427017211914062e+01 -1.693694114685058594e+01 2.039358832917059772e-06 1.517461100775108207e-06 1.067046014213701710e-06 1.935307864187052473e-06
1.622000000000000000e+03 4.970027542114257812e+01 -1.026806068420410156e+01 -1.785638414730783552e-05 -1.326172878179932013e-07 -5.396700544224586338e-06 -2.546371206335606985e-06
1.623000000000000000e+03 6.740821075439453125e+01 -9.875740051269531250e+00 1.908487230539321899e-01 1.695606112480163574e+00 5.659364461898803711e-01 5.075688958168029785e-01
1.624000000000000000e+03 3.712062239646911621e-01 3.479881048202514648e+00 4.245623131282627583e-06 8.798713224678067490e-07 1.537648245175660122e-06 -7.279845135599316563e-07
1.625000000000000000e+03 1.238361597061157227e+00 3.620808029174804688e+01 4.875119702774100006e-05 2.699983269849326462e-05 2.272530946356710047e-05 -1.098462507798103616e-05
1.626000000000000000e+03 2.742748498916625977e+00 3.838872528076171875e+01 3.978776658186689019e-05 1.283090841752709821e-05 1.578560295456554741e-05 3.847873813356272876e-06
1.627000000000000000e+03 1.221413731575012207e+00 3.974439239501953125e+01 8.076771337073296309e-06 4.748164792545139790e-05 1.666752541495952755e-05 1.084044015442486852e-05
1.628000000000000000e+03 1.156374216079711914e+00 3.469670867919921875e+01 4.649319453164935112e-05 3.565438237274065614e-05 2.464427416271064430e-05 -4.422949587024049833e-06
1.629000000000000000e+03 2.430142402648925781e+00 3.743425369262695312e+01 -4.629966861102730036e-05 3.920475137419998646e-05 -2.128475671270280145e-06 1.415062524756649509e-05
1.630000000000000000e+03 1.175548195838928223e+00 2.842241096496582031e+01 2.666165528353303671e-05 3.423770976951345801e-05 1.826980951591394842e-05 1.734543047859915532e-06
1.631000000000000000e+03 2.040893793106079102e+00 3.008010101318359375e+01 -3.150625343550927937e-05 3.186632238794118166e-05 1.080204796721773164e-07 9.453648317503393628e-07
1.632000000000000000e+03 1.945921897888183594e+00 3.262807464599609375e+01 1.859143776528071612e-05 1.891534702735953033e-05 1.125203561969101429e-05 2.121901343343779445e-05
1.633000000000000000e+03 1.876513481140136719e+00 2.518553161621093750e+01 -2.278325700899586082e-05 3.493628537398763001e-05 3.645908236649120227e-06 -2.828894821504945867e-06
1.634000000000000000e+03 1.896979808807373047e+00 2.599748229980468750e+01 2.248427153972443193e-05 3.018318784597795457e-05 1.580023854330647737e-05 3.258496690250467509e-06
1.635000000000000000e+03 1.787586569786071777e+00 3.324332809448242188e+01 -1.092714501282898709e-05 1.239639823324978352e-05 4.407759774949226994e-07 -4.370174337964272127e-06
1.636000000000000000e+03 1.168869256973266602e+00 3.248369216918945312e+01 -3.984531213063746691e-05 3.628207559813745320e-05 -1.068971073436841834e-06 3.314201251214399235e-07
1.637000000000000000e+03 1.247578382492065430e+00 -3.395721054077148438e+01 -7.702024304307997227e-04 4.759387520607560873e-04 -8.827909914543852210e-05 2.418333897367119789e-04
1.638000000000000000e+03 2.043437242507934570e+00 -3.227207565307617188e+01 8.414899930357933044e-04 2.448945888318121433e-04 3.259153745602816343e-04 2.841967507265508175e-04
1.639000000000000000e+03 1.089435338973999023e+00 2.115821456909179688e+01 -1.657964821788482368e-05 3.571727575035765767e-05 5.741288077842909843e-06 -5.722223477278021164e-07
1.640000000000000000e+03 1.835855841636657715e+00 2.276019668579101562e+01 1.863527177192736417e-05 2.995549584738910198e-05 1.457723010389599949e-05 -5.204472941500171146e-08
1.641000000000000000e+03 2.577224016189575195e+00 2.278286933898925781e+01 -2.009661875490564853e-05 3.227595880161970854e-05 3.653801286418456584e-06 -3.332012511236825958e-06
1.642000000000000000e+03 1.971227645874023438e+00 2.844045066833496094e+01 -2.748798760876525193e-05 3.232341259717941284e-05 1.450627223675837740e-06 -7.920653501969354693e-07
1.643000000000000000e+03 1.920061469078063965e+00 2.681192398071289062e+01 -2.454050991218537092e-05 3.375093729118816555e-05 2.763128577498719096e-06 -2.572678567958064377e-06
1.644000000000000000e+03 1.997965216636657715e+00 2.924615287780761719e+01 2.951025453512556851e-05 2.870234675356186926e-05 1.746378075040411204e-05 2.231544613096048124e-06
1.645000000000000000e+03 2.096772193908691406e+00 3.096311187744140625e+01 3.048974940611515194e-05 2.758638765953946859e-05 1.742284075589850545e-05 4.100618298252811655e-06
1.646000000000000000e+03 1.951677441596984863e+00 3.450186920166015625e+01 -4.263797382009215653e-05 2.453098932164721191e-05 -5.432095349533483386e-06 1.595837238710373640e-05
1.647000000000000000e+03 1.787888169288635254e+00 3.389894104003906250e+01 2.347956615267321467e-05 3.845394530799239874e-05 1.858005271060392261e-05 -1.353539391857339069e-05
1.648000000000000000e+03 2.743743181228637695e+00 3.615779495239257812e+01 3.966809345001820475e-06 2.724056503211613744e-05 9.362212949781678617e-06 2.634456359373871237e-05
1.649000000000000000e+03 3.094914674758911133e+00 -3.709287261962890625e+01 -7.161074317991733551e-04 1.385995885357260704e-03 2.009665477089583874e-04 1.372032798826694489e-03
1.650000000000000000e+03 2.153738737106323242e+00 -3.787809371948242188e+01 -7.777118007652461529e-04 1.357312896288931370e-03 1.738803402986377478e-04 9.775639045983552933e-04
1.651000000000000000e+03 2.096688985824584961e+00 -3.550336837768554688e+01 9.420824935659766197e-04 6.666296976618468761e-04 4.826136573683470488e-04 3.453591780271381140e-04
1.652000000000000000e+03 1.086028575897216797e+00 2.035219001770019531e+01 1.492592946306103840e-05 3.354487125761806965e-05 1.454123957955744117e-05 -1.776385261109680869e-06
1.653000000000000000e+03 1.825306653976440430e+00 2.195737075805664062e+01 -1.850286571425385773e-05 3.385010859346948564e-05 4.604172772815218195e-06 -1.776685849108616821e-06
1.654000000000000000e+03 1.783188343048095703e+00 1.552194213867187500e+01 -9.204709385812748224e-06 2.505742486391682178e-05 4.755814643431222066e-06 -4.730979526357259601e-06
1.655000000000000000e+03 1.110673785209655762e+00 8.277420043945312500e+00 -5.918886927247513086e-06 1.145111309597268701e-05 1.659667987041757442e-06 -4.026640453957952559e-06
1.656000000000000000e+03 1.773447275161743164e+00 1.230681610107421875e+01 -7.174535767262568697e-06 1.937939669005572796e-05 3.661458549686358310e-06 -6.314603979262756184e-06
1.657000000000000000e+03 2.475882768630981445e+00 -1.289212512969970703e+01 -2.319260674994438887e-04 -2.874853089451789856e-05 -7.820237806299701333e-05 -5.544107261812314391e-05
1.658000000000000000e+03 1.794574975967407227e+00 -9.742866516113281250e+00 1.559246593387797475e-04 8.748835170990787446e-06 4.940204962622374296e-05 2.886412585212383419e-05
1.659000000000000000e+03 2.450037002563476562e+00 -1.678314781188964844e+01 3.835902316495776176e-04 2.792918849081615917e-06 1.159149469458498061e-04 9.774003410711884499e-05
1.660000000000000000e+03 1.771241664886474609e+00 -1.689697074890136719e+01 -3.760619147215038538e-04 -5.735885679314378649e-06 -1.145393398473970592e-04 -7.856127194827422500e-05
1.661000000000000000e+03 1.791881442070007324e+00 1.793252754211425781e+01 1.144564612332032993e-05 2.778577618300914764e-05 1.176942714664619416e-05 -2.409780108791892417e-06
1.662000000000000000e+03 2.026742219924926758e+00 6.610717296600341797e+00 6.447504347306676209e-06 6.044656856829533353e-06 3.747648406715597957e-06 -2.352392357352073304e-06
1.663000000000000000e+03 1.177478432655334473e+00 5.819835662841796875e+00 5.794011030957335606e-06 5.022516688768519089e-06 3.244958179493551143e-06 -1.910815171868307516e-06
1.664000000000000000e+03 1.088959455490112305e+00 -7.390013694763183594e+00 1.074352694558911026e-04 5.932700787525391206e-06 3.401039066375233233e-05 2.093999319185968488e-05
1.665000000000000000e+03 2.573923826217651367e+00 -7.301933288574218750e+00 1.125944691011682153e-04 6.219635906745679677e-06 3.564423241186887026e-05 2.386247433605603874e-05
1.666000000000000000e+03 2.663045644760131836e+00 -4.933191299438476562e+00 -6.754321657354012132e-05 -5.318424427969148383e-06 -2.185849371016956866e-05 -1.645287738938350230e-05
1.667000000000000000e+03 1.945943355560302734e+00 -2.630095720291137695e+00 -3.455136902630329132e-05 -2.589336418168386444e-06 -1.114221231546252966e-05 -1.022469132294645533e-05
1.668000000000000000e+03 1.114346623420715332e+00 -2.747898101806640625e+01 -6.290911114774644375e-04 -9.741025860421359539e-05 -2.179504226660355926e-04 -6.796918023610487580e-05
1.669000000000000000e+03 1.837629199028015137e+00 -2.658192825317382812e+01 -6.565025541931390762e-04 -1.550696470076218247e-05 -2.016028593061491847e-04 -6.016215775161981583e-05
1.670000000000000000e+03 1.092192530632019043e+00 -2.022848892211914062e+01 4.430543049238622189e-04 1.041232917486922815e-05 1.360399910481646657e-04 6.425412721000611782e-05
1.671000000000000000e+03 1.818050622940063477e+00 -2.011546707153320312e+01 -4.538524954114109278e-04 -2.267376112286001444e-05 -1.429578842362388968e-04 -8.043977868510410190e-05
1.672000000000000000e+03 1.078080177307128906e+00 -1.301322078704833984e+01 -2.337107871426269412e-04 -1.321755098615540192e-05 -7.407850353047251701e-05 -4.781023380928672850e-05
1.673000000000000000e+03 1.786713838577270508e+00 -1.214244556427001953e+01 -2.112492074957117438e-04 -1.797379081835970283e-05 -6.876690167700871825e-05 -4.514189640758559108e-05
1.674000000000000000e+03 1.849514365196228027e+00 8.288790702819824219e+00 6.167809715407202020e-06 9.960878742276690900e-06 4.838606855628313497e-06 -1.826754669309593737e-06
1.675000000000000000e+03 1.117448091506958008e+00 3.419440746307373047e+00 -3.305243353679543361e-06 2.302610710103181191e-06 -3.007897930729086511e-07 -9.763980415300466120e-07
1.676000000000000000e+03 1.132964611053466797e+00 2.641843557357788086e+00 3.289976575615582988e-06 6.939682748452469241e-07 1.195183472191274632e-06 -1.109976551560976077e-06
1.677000000000000000e+03 1.851674199104309082e+00 -2.739064598083496094e+01 6.941030151210725307e-04 -5.736812090617604554e-05 1.910204737214371562e-04 -2.620921986817847937e-05
1.678000000000000000e+03 1.164373397827148438e+00 -2.990252304077148438e+01 7.009712862782180309e-04 -6.974446296226233244e-05 1.893680455395951867e-04 7.183872367022559047e-05
1.679000000000000000e+03 1.898213982582092285e+00 -2.900744819641113281e+01 7.538493955507874489e-04 -3.194857345079071820e-05 2.165702462662011385e-04 1.333318323304411024e-05
1.680000000000000000e+03 1.777384281158447266e+00 -1.531333827972412109e+01 -3.164249064866453409e-04 -1.558688563818577677e-05 -9.960353781934827566e-05 -7.685372111154720187e-05
1.681000000000000000e+03 1.091534018516540527e+00 -2.264157867431640625e+01 -5.320805939845740795e-04 -2.730524647631682456e-05 -1.678157423157244921e-04 -9.213047451339662075e-05
1.682000000000000000e+03 1.822188138961791992e+00 -2.173214340209960938e+01 -5.181091837584972382e-04 -1.451838488719658926e-05 -1.597882655914872885e-04 -9.997827874030917883e-05
1.683000000000000000e+03 1.911929368972778320e+00 7.470728397369384766e+00 -5.807801244372967631e-06 1.001819691737182438e-05 1.263118747374392115e-06 -7.054230991343501955e-06
1.684000000000000000e+03 2.661430120468139648e+00 7.566751956939697266e+00 5.367267931433161721e-06 8.765939128352329135e-06 4.239961981511441991e-06 -1.430610723218705971e-06
1.685000000000000000e+03 1.775380730628967285e+00 1.150594520568847656e+01 6.659186965407570824e-06 1.672865073487628251e-05 7.016351446509361267e-06 -1.985913286262075417e-06
1.686000000000000000e+03 2.489019632339477539e+00 1.313585853576660156e+01 -7.496740181522909552e-06 1.924753269122447819e-05 3.525237616486265324e-06 -8.280572728835977614e-06
1.687000000000000000e+03 1.775113582611083984e+00 1.311185932159423828e+01 7.152687885536579415e-06 2.005518399528227746e-05 8.162361154973041266e-06 -2.043419044639449567e-06
1.688000000000000000e+03 1.779927730560302734e+00 1.472057628631591797e+01 8.148995220835786313e-06 2.308217335666995496e-05 9.369350664201192558e-06 -2.133954012606409378e-06
1.689000000000000000e+03 1.777569055557250977e+00 1.391851234436035156e+01 -7.973654646775685251e-06 2.233801205875352025e-05 4.309307314542820677e-06 -5.635176876239711419e-06
1.690000000000000000e+03 1.788844704627990723e+00 1.713429260253906250e+01 -1.098542179533978924e-05 2.756655703706201166e-05 4.974340299668256193e-06 -3.652225586847634986e-06
1.691000000000000000e+03 1.796902894973754883e+00 1.873356246948242188e+01 -1.316597263212315738e-05 2.993310772581025958e-05 5.030140528106130660e-06 -2.600609377623186447e-06
1.692000000000000000e+03 1.803578376770019531e+00 1.954001426696777344e+01 1.362679722660686821e-05 2.913985008490271866e-05 1.282999437535181642e-05 -2.200845074185053818e-06
1.693000000000000000e+03 1.817963123321533203e+00 2.115713691711425781e+01 1.627222081879153848e-05 2.986834260809700936e-05 1.384216920996550471e-05 -1.480118953622877598e-06
1.694000000000000000e+03 1.271565794944763184e+00 -3.792322158813476562e+01 5.476279184222221375e-04 1.446074806153774261e-03 5.981108406558632851e-04 1.605025609023869038e-04
1.695000000000000000e+03 2.813169002532958984e+00 -3.139594268798828125e+01 9.058957220986485481e-04 2.239186869701370597e-04 3.389443154446780682e-04 2.416433999314904213e-04
1.696000000000000000e+03 1.870407462120056152e+00 -2.819849205017089844e+01 -6.593546713702380657e-04 5.626119445878430270e-07 -1.976376224774867296e-04 -1.160147621703799814e-05
1.697000000000000000e+03 1.813598752021789551e+00 -2.495851707458496094e+01 -6.314222118817269802e-04 1.491638840889208950e-06 -1.889791601570323110e-04 -7.739468856016173959e-05
1.698000000000000000e+03 3.246617317199707031e+00 -2.560723495483398438e+01 7.623241981491446495e-04 -1.909980892378371209e-05 2.229673118563368917e-04 -8.607916242908686399e-05
1.699000000000000000e+03 1.823173284530639648e+00 -2.092465972900390625e+01 4.700378922279924154e-04 1.443121891497867182e-05 1.453407312510535121e-04 7.052165165077894926e-05
1.700000000000000000e+03 1.806280851364135742e+00 -1.930469512939453125e+01 4.249170888215303421e-04 1.339266418654005975e-05 1.314929249929264188e-04 6.620848580496385694e-05
1.701000000000000000e+03 1.074159264564514160e+00 -1.700914192199707031e+01 3.636683395598083735e-04 9.056155249709263444e-06 1.118173531722277403e-04 6.388665497070178390e-05
1.702000000000000000e+03 1.792025446891784668e+00 -1.849602890014648438e+01 -4.126281710341572762e-04 -1.011653330351691693e-05 -1.268234191229566932e-04 -7.195249781943857670e-05
1.703000000000000000e+03 1.779460549354553223e+00 -1.452221012115478516e+01 2.866381255444139242e-04 2.084125844703521580e-05 9.224381938111037016e-05 7.168223964981734753e-05
1.704000000000000000e+03 1.076753020286560059e+00 -1.381324100494384766e+01 2.597425191197544336e-04 1.555348899273667485e-05 8.258879825007170439e-05 5.496618541656062007e-05
1.705000000000000000e+03 1.780265092849731445e+00 -1.373224258422851562e+01 -2.594291872810572386e-04 -2.150701584469061345e-05 -8.428085857303813100e-05 -6.264133844524621964e-05
1.706000000000000000e+03 1.082649111747741699e+00 -9.804256439208984375e+00 -1.531672314740717411e-04 -6.855540505057433620e-06 -4.800683018402196467e-05 -2.788102756312582642e-05
1.707000000000000000e+03 1.788492441177368164e+00 -1.134288311004638672e+01 1.908741833176463842e-04 1.526160849607549608e-05 6.184073572512716055e-05 3.848680353257805109e-05
1.708000000000000000e+03 1.117513895034790039e+00 -4.223363876342773438e+00 5.560931458603590727e-05 2.592261580502963625e-06 1.746047200867906213e-05 1.041224732034606859e-05
1.709000000000000000e+03 2.082760810852050781e+00 -3.391683959960937500e+01 8.846980636008083820e-04 4.559821973089128733e-04 4.022040811832994223e-04 4.092017770744860172e-04
1.710000000000000000e+03 2.068692922592163086e+00 -3.309643936157226562e+01 -6.586620002053678036e-04 4.106467531528323889e-04 -7.440457557095214725e-05 3.610503626987338066e-04
1.711000000000000000e+03 2.074068546295166016e+00 -3.471498489379882812e+01 -8.166399784386157990e-04 8.247163495980203152e-04 2.422913212285493501e-06 5.549477646127343178e-04
1.712000000000000000e+03 2.164642810821533203e+00 -3.708296203613281250e+01 7.730899960733950138e-04 1.083389972336590290e-03 5.569439963437616825e-04 2.558416454121470451e-04
1.713000000000000000e+03 2.155212163925170898e+00 -3.629891967773437500e+01 -8.083915454335510731e-04 1.107274438254535198e-03 8.966487075667828321e-05 8.062659762799739838e-04
1.714000000000000000e+03 2.031918525695800781e+01 -3.312154006958007812e+01 1.762654632329940796e-02 5.924093420617282391e-04 5.465686786919832230e-03 7.579289842396974564e-03
1.715000000000000000e+03 2.124558830261230469e+01 -3.211318969726562500e+01 2.785223163664340973e-02 -9.001795551739633083e-04 8.085615001618862152e-03 5.141523201018571854e-03
1.716000000000000000e+03 7.039850616455078125e+01 2.126005935668945312e+01 2.150449529290199280e-02 4.173716545104980469e+00 1.258566260337829590e+00 -5.017850920557975769e-02
1.717000000000000000e+03 8.160582542419433594e+00 -2.163077354431152344e+01 -5.658461595885455608e-04 4.154866837779991329e-05 -1.572892506374046206e-04 1.374112907797098160e-04
1.718000000000000000e+03 7.669824981689453125e+01 1.609597778320312500e+01 -3.056443994864821434e-03 -6.494493484497070312e-01 -1.957517415285110474e-01 -9.659323841333389282e-03
1.719000000000000000e+03 7.108885192871093750e+01 1.972678375244140625e+01 1.790517754852771759e-02 3.629610061645507812e+00 1.094254612922668457e+00 -1.758607849478721619e-02
1.720000000000000000e+03 7.108179473876953125e+01 1.569980430603027344e+01 6.272048503160476685e-02 3.613899230957031250e+00 1.102985858917236328e+00 5.360027030110359192e-02
1.721000000000000000e+03 7.109286499023437500e+01 1.651516914367675781e+01 2.574533969163894653e-02 3.626972198486328125e+00 1.095815181732177734e+00 2.834693528711795807e-02
1.722000000000000000e+03 6.599748992919921875e+01 -1.270455074310302734e+01 -8.091056346893310547e-02 1.298429727554321289e+00 3.652557432651519775e-01 3.553133308887481689e-01
1.723000000000000000e+03 7.109706115722656250e+01 1.813097000122070312e+01 1.201274525374174118e-02 3.624297618865966797e+00 1.090893149375915527e+00 5.314451642334461212e-03
1.724000000000000000e+03 7.109809875488281250e+01 1.732818984985351562e+01 1.801553554832935333e-02 3.623600244522094727e+00 1.092484712600708008e+00 1.762205362319946289e-02
1.725000000000000000e+03 7.455331420898437500e+01 1.675805664062500000e+01 1.467978674918413162e-02 9.665892124176025391e-01 2.943806946277618408e-01 -1.465197745710611343e-02
1.726000000000000000e+03 7.109715270996093750e+01 2.382537269592285156e+01 2.252532988786697388e-01 3.566935777664184570e+00 1.137656688690185547e+00 -1.698618382215499878e-01
1.727000000000000000e+03 7.105421447753906250e+01 1.671268492937088013e-01 3.412710726261138916e-01 3.696193695068359375e+00 1.211239457130432129e+00 2.701979279518127441e-01
1.728000000000000000e+03 7.106510162353515625e+01 1.488256549835205078e+01 1.050904914736747742e-01 3.546173810958862305e+00 1.095379233360290527e+00 2.020542137324810028e-02
1.729000000000000000e+03 7.887371063232421875e+01 -3.225843048095703125e+01 1.698172651231288910e-03 -3.089284524321556091e-03 -4.173335328232496977e-04 1.951721147634088993e-03
1.730000000000000000e+03 4.007942199707031250e+01 -1.844057846069335938e+01 -1.556150891701690853e-06 -9.641886435929336585e-07 -7.561018264823360369e-07 4.462344804778695107e-08
1.731000000000000000e+03 6.603676605224609375e+01 -3.520485687255859375e+01 -1.113085150718688965e-01 -9.460395202040672302e-03 -3.623067215085029602e-02 3.474574908614158630e-02
1.732000000000000000e+03 8.834897994995117188e+00 -3.286371946334838867e+00 -3.062481482629664242e-05 -2.755958666966762394e-05 -1.745532063068822026e-05 -2.084328298224136233e-05
1.733000000000000000e+03 8.274460792541503906e+00 -2.547205924987792969e+00 -2.121580837410874665e-05 -2.480467446730472147e-05 -1.380614412482827902e-05 -1.957203858182765543e-05
1.734000000000000000e+03 5.949341297149658203e+00 -2.551959514617919922e+00 2.515363121347036213e-05 1.682220499787945300e-05 1.259275086340494454e-05 2.442688128212466836e-05
1.735000000000000000e+03 7.428904056549072266e+00 -3.218327283859252930e+00 -2.447368024149909616e-05 -2.335991666768677533e-05 -1.435007925465470180e-05 -2.450999272696208209e-05
1.736000000000000000e+03 4.347645282745361328e+00 -2.586227655410766602e+00 3.248460416216403246e-05 8.960272680269554257e-06 1.243346287083113566e-05 2.135651811840943992e-05
1.737000000000000000e+03 6.673999309539794922e+00 -3.234138965606689453e+00 2.575505823187995702e-05 2.072190363833215088e-05 1.394308856106363237e-05 2.678008058865088969e-05
1.738000000000000000e+03 3.503734111785888672e+00 -3.351027727127075195e+00 4.545472620520740747e-05 4.759839157486567274e-06 1.506437001808080822e-05 2.039089667960070074e-05
1.739000000000000000e+03 1.887082815170288086e+00 -4.178898334503173828e+00 -5.580094875767827034e-05 -3.445002903390559368e-06 -1.777378565748222172e-05 -1.342174073215574026e-05
1.740000000000000000e+03 5.107237815856933594e+00 -3.298613309860229492e+00 3.553412534529343247e-05 1.292024626309284940e-05 1.453631193726323545e-05 2.899447099480312318e-05
1.741000000000000000e+03 4.307431221008300781e+00 -3.327657461166381836e+00 -4.204276774544268847e-05 -7.845292202546261251e-06 -1.496641743869986385e-05 -2.559477434260770679e-05
1.742000000000000000e+03 1.869162917137145996e+00 -4.961788654327392578e+00 6.781826232327148318e-05 5.295526989357313141e-06 2.193413820350542665e-05 1.542261998110916466e-05
1.743000000000000000e+03 7.142025756835937500e+01 3.569324970245361328e+00 1.671033352613449097e-01 3.877288579940795898e+00 1.213317513465881348e+00 9.948681294918060303e-02
1.744000000000000000e+03 1.041489028930664062e+01 -1.693325805664062500e+01 -1.487546687712892890e-04 -1.476228499086573720e-04 -8.891325705917552114e-05 1.544149999972432852e-04
1.745000000000000000e+03 9.881694793701171875e+00 -1.656506156921386719e+01 1.368532684864476323e-04 1.000771371764130890e-04 7.107912097126245499e-05 -1.138200968853197992e-04
1.746000000000000000e+03 4.308831405639648438e+01 -2.535062599182128906e+01 -3.319125249981880188e-02 -1.251661658287048340e+00 -3.854558765888214111e-01 -6.754278540611267090e-01
1.747000000000000000e+03 7.216355895996093750e+01 -2.390905952453613281e+01 -1.038093268871307373e-01 1.014154497534036636e-02 -2.810033597052097321e-02 5.179721117019653320e-02
1.748000000000000000e+03 3.646878433227539062e+01 -3.355286407470703125e+01 -3.093205690383911133e-01 -1.570286005735397339e-01 -1.399047523736953735e-01 -2.768179476261138916e-01
1.749000000000000000e+03 7.206153106689453125e+01 -2.055922698974609375e+01 -1.270314157009124756e-01 1.277059167623519897e-01 2.023536217166110873e-04 -2.492824569344520569e-02
1.750000000000000000e+03 6.768830871582031250e+01 -9.125647544860839844e+00 2.294975817203521729e-01 1.829297423362731934e+00 6.176385283470153809e-01 5.567003488540649414e-01
1.751000000000000000e+03 6.347600936889648438e+01 -1.657526397705078125e+01 -1.253895878791809082e+00 1.209490895271301270e+00 -1.332151331007480621e-02 1.586865484714508057e-01
1.752000000000000000e+03 6.446051788330078125e+01 -1.639538574218750000e+01 -9.813328385353088379e-01 1.295975685119628906e+00 9.439283609390258789e-02 3.221128582954406738e-01
1.753000000000000000e+03 6.434531402587890625e+01 -1.530310916900634766e+01 -6.504418849945068359e-01 1.078537940979003906e+00 1.284288465976715088e-01 1.782909333705902100e-01
1.754000000000000000e+03 6.533798217773437500e+01 -1.528010082244873047e+01 -6.204982995986938477e-01 1.226157307624816895e+00 1.816976964473724365e-01 2.785095572471618652e-01
1.755000000000000000e+03 6.251849365234375000e+01 -1.792683792114257812e+01 -1.892003297805786133e+00 1.383080363273620605e+00 -1.526769101619720459e-01 4.201371967792510986e-01
1.756000000000000000e+03 6.621959686279296875e+01 -2.008292388916015625e+01 8.545441180467605591e-02 9.750731587409973145e-01 3.181582689285278320e-01 1.030934333801269531e+00
1.757000000000000000e+03 4.121349334716796875e+01 1.096449089050292969e+01 1.556233910378068686e-04 4.243718649377115071e-05 5.941817289567552507e-05 3.737954102689400315e-05
1.758000000000000000e+03 7.860450744628906250e+01 -3.660557937622070312e+01 -3.291337518021464348e-03 -1.707834936678409576e-02 -6.110906135290861130e-03 6.299533881247043610e-03
1.759000000000000000e+03 7.819244384765625000e+01 -3.954251480102539062e+01 2.146385144442319870e-03 -2.318895235657691956e-02 -6.312769837677478790e-03 7.274173200130462646e-03
1.760000000000000000e+03 7.891693115234375000e+01 -3.066663169860839844e+01 1.280709984712302685e-03 -9.685759432613849640e-04 9.364019206259399652e-05 4.090019792784005404e-04
1.761000000000000000e+03 7.757353973388671875e+01 -3.555923843383789062e+01 -4.282982088625431061e-03 -1.028052344918251038e-02 -4.369051661342382431e-03 1.124922279268503189e-02
1.762000000000000000e+03 7.710384368896484375e+01 -3.645541763305664062e+01 -7.415816799039021134e-05 -1.357804425060749054e-02 -4.095660988241434097e-03 1.125970017164945602e-02
1.763000000000000000e+03 7.853387451171875000e+01 -3.567942810058593750e+01 2.576056635007262230e-03 -1.377678941935300827e-02 -3.360219765454530716e-03 7.624433841556310654e-03
1.764000000000000000e+03 7.725962829589843750e+01 -3.287956619262695312e+01 -5.972121842205524445e-03 -2.847224008291959763e-03 -2.645803615450859070e-03 6.481361575424671173e-03
1.765000000000000000e+03 6.582063293457031250e+01 -1.481134986877441406e+01 -5.288853645324707031e-01 1.224920749664306641e+00 2.088105976581573486e-01 2.805317938327789307e-01
1.766000000000000000e+03 6.615698242187500000e+01 3.360004806518554688e+01 4.117458462715148926e-01 1.106702089309692383e+00 4.555343687534332275e-01 -6.591159701347351074e-01
1.767000000000000000e+03 5.669061660766601562e+01 -2.113979530334472656e+01 -2.198437929153442383e+00 4.190844669938087463e-02 -6.469588875770568848e-01 -5.622770786285400391e-01
1.768000000000000000e+03 5.673120117187500000e+01 -2.183663177490234375e+01 -1.043628811836242676e+00 4.262946546077728271e-01 -1.852002590894699097e-01 -1.726406514644622803e-01
1.769000000000000000e+03 5.757421112060546875e+01 -2.285830879211425781e+01 1.013599395751953125e+00 1.515596866607666016e+00 7.587589025497436523e-01 9.189465045928955078e-01
1.770000000000000000e+03 4.213144302368164062e+01 2.034918975830078125e+01 -3.157492319587618113e-04 5.330183194018900394e-05 -7.873422146076336503e-05 7.886526145739480853e-05
1.771000000000000000e+03 4.191349029541015625e+01 1.950526618957519531e+01 2.844596456270664930e-04 4.520428046816959977e-05 9.889918146654963493e-05 -4.918296690448187292e-05
1.772000000000000000e+03 6.994751739501953125e+01 2.707337760925292969e+01 3.494209945201873779e-01 3.948856830596923828e+00 1.289483308792114258e+00 -6.205840110778808594e-01
1.773000000000000000e+03 7.039855957031250000e+01 2.816514968872070312e+01 4.473994374275207520e-01 3.127483844757080078e+00 1.072465062141418457e+00 -4.670728445053100586e-01
1.774000000000000000e+03 6.931582641601562500e+01 -5.426993370056152344e+00 2.338840812444686890e-01 2.586626052856445312e+00 8.461530208587646484e-01 5.799421072006225586e-01
1.775000000000000000e+03 1.453174686431884766e+01 -3.160517311096191406e+01 8.035739883780479431e-03 -1.442982465960085392e-03 1.977827167138457298e-03 1.219960628077387810e-03
1.776000000000000000e+03 1.541966342926025391e+01 -3.302265167236328125e+01 9.750989265739917755e-03 1.484190870542079210e-04 2.969822613522410393e-03 5.323327612131834030e-03
1.777000000000000000e+03 2.641569137573242188e+01 -3.330547332763671875e+01 2.848890796303749084e-02 -8.753846399486064911e-03 5.920518189668655396e-03 6.036840844899415970e-03
1.778000000000000000e+03 6.924051666259765625e+01 -3.745287418365478516e+00 3.234998285770416260e-01 3.178992271423339844e+00 1.050747632980346680e+00 8.120014071464538574e-01
1.779000000000000000e+03 6.937818145751953125e+01 -3.259812927246093750e+01 -4.442835599184036255e-02 5.908906925469636917e-03 -1.155583560466766357e-02 -1.335490401834249496e-02
1.780000000000000000e+03 7.111206817626953125e+01 -3.219427490234375000e+01 -2.899198979139328003e-02 2.732311375439167023e-03 -7.877903059124946594e-03 1.351707149296998978e-03
1.781000000000000000e+03 1.630317878723144531e+01 -3.311474227905273438e+01 9.501994587481021881e-03 2.202975563704967499e-03 3.511490998789668083e-03 5.816819611936807632e-03
1.782000000000000000e+03 5.215871429443359375e+01 -1.378439044952392578e+01 8.836445886117871851e-06 -4.636148105419124477e-07 2.511849288566736504e-06 3.913494310836540535e-06
1.783000000000000000e+03 5.267457962036132812e+01 -1.599175453186035156e+01 -3.588999561543460004e-06 -8.654937460050859954e-07 -1.336347963842854369e-06 5.929559847572818398e-07
1.784000000000000000e+03 7.093153381347656250e+01 2.557255744934082031e+01 3.355913758277893066e-01 3.476080656051635742e+00 1.143501639366149902e+00 -2.678807675838470459e-01
1.785000000000000000e+03 1.801891517639160156e+01 -3.313450622558593750e+01 1.309632509946823120e-02 2.273614052683115005e-03 4.610981792211532593e-03 6.993868388235569000e-03
1.786000000000000000e+03 5.675785446166992188e+01 -2.665904045104980469e+01 3.347893953323364258e+00 4.751957893371582031e+00 2.429955482482910156e+00 3.120097637176513672e+00
1.787000000000000000e+03 6.865601348876953125e+01 -6.918720722198486328e+00 2.260995805263519287e-01 2.276448249816894531e+00 7.507643699645996094e-01 6.099780797958374023e-01
1.788000000000000000e+03 4.961234664916992188e+01 3.473316955566406250e+01 -9.337587282061576843e-03 3.084972267970442772e-03 -1.875784364528954029e-03 2.965368563309311867e-03
1.789000000000000000e+03 4.656620407104492188e+01 -1.739772796630859375e+01 1.891336296466761269e-06 1.698769779068243224e-06 1.077031811291817576e-06 1.441473500563006382e-06
1.790000000000000000e+03 4.586636352539062500e+01 -1.760060882568359375e+01 -1.537849129817914218e-06 -1.867970240709837526e-06 -1.021745788420957979e-06 -1.320562773798883427e-06
1.791000000000000000e+03 5.383224487304687500e+01 -2.932429504394531250e+01 2.062625646591186523e+00 2.943180561065673828e+00 1.501741886138916016e+00 8.576505780220031738e-01
1.792000000000000000e+03 5.551394653320312500e+01 -3.286237716674804688e+01 3.359273672103881836e-01 3.757255792617797852e+00 1.227954983711242676e+00 7.090347260236740112e-02
1.793000000000000000e+03 4.274588775634765625e+01 4.400074481964111328e+00 -7.445221126545220613e-05 -1.369316009913745802e-06 -2.274645885336212814e-05 -3.621393261710181832e-05
1.794000000000000000e+03 3.764769363403320312e+01 -1.753370475769042969e+01 3.555802408072850085e-08 -1.068086135092016775e-06 -3.097584340139292181e-07 -3.986905028341425350e-07
1.795000000000000000e+03 3.496767044067382812e+01 -1.632784461975097656e+01 -2.015132622545934282e-06 -1.556285383230715524e-06 -1.071425344889576081e-06 -2.493163265171460807e-06
1.796000000000000000e+03 4.341824722290039062e+01 2.178320884704589844e+01 2.874636265914887190e-04 9.614982991479337215e-05 1.150840325863100588e-04 -1.542718382552266121e-04
1.797000000000000000e+03 1.328340435028076172e+01 -3.191587829589843750e+01 6.205660756677389145e-03 -1.260160235688090324e-03 1.483650063164532185e-03 6.607653922401368618e-04
1.798000000000000000e+03 4.328374099731445312e+01 2.380137634277343750e+01 -4.974802141077816486e-04 -8.254497515736147761e-05 -1.740075676934793591e-04 5.716113810194656253e-05
1.799000000000000000e+03 6.963047027587890625e+01 -4.661775112152099609e+00 2.472778558731079102e-01 2.732271909713745117e+00 8.938649296760559082e-01 5.670691728591918945e-01
1.800000000000000000e+03 4.292218017578125000e+01 2.293573760986328125e+01 1.921469811350107193e-04 5.333944136509671807e-05 7.364592602243646979e-05 -2.325119712622836232e-04
1.801000000000000000e+03 4.271277618408203125e+01 6.122408866882324219e+00 9.958359441952779889e-05 2.788770871120505035e-05 3.824138912023045123e-05 3.928737714886665344e-05
1.802000000000000000e+03 6.992858123779296875e+01 -3.883893251419067383e+00 2.288815230131149292e-01 2.894227743148803711e+00 9.369327425956726074e-01 5.609382390975952148e-01
1.803000000000000000e+03 6.632577514648437500e+01 3.471541213989257812e+01 1.497505903244018555e-01 1.111564636230468750e+00 3.783945739269256592e-01 -4.970310032367706299e-01
1.804000000000000000e+03 6.226421356201171875e+01 -2.035145950317382812e+01 -6.326023936271667480e-01 1.916688442230224609e+00 3.852258026599884033e-01 1.705045819282531738e+00
1.805000000000000000e+03 6.452931213378906250e+01 -2.189786911010742188e+01 1.585763454437255859e+00 6.353642344474792480e-01 6.663383245468139648e-01 1.282274246215820312e+00
1.806000000000000000e+03 4.860604476928710938e+01 -6.567155361175537109e+00 2.515948835934977978e-05 4.335819994594203308e-06 8.848593097354751080e-06 8.038982741709332913e-06
1.807000000000000000e+03 4.682552337646484375e+01 3.284929275512695312e+01 -4.606265109032392502e-03 2.288067247718572617e-03 -6.954593700356781483e-04 7.504327804781496525e-04
1.808000000000000000e+03 4.790016555786132812e+01 3.137253570556640625e+01 -4.928025882691144943e-03 3.467435308266431093e-04 -1.374384621158242226e-03 1.660138223087415099e-04
1.809000000000000000e+03 1.572452354431152344e+01 -1.217770767211914062e+01 6.727113213855773211e-05 7.610352622577920556e-05 4.301239459891803563e-05 -1.319333659921539947e-05
1.810000000000000000e+03 8.615893363952636719e+00 -1.978725624084472656e+01 -2.738356706686317921e-04 2.422968645987566561e-05 -7.488179107895120978e-05 2.072760689770802855e-04
1.811000000000000000e+03 6.496408843994140625e+01 -3.552163314819335938e+01 -1.161478385329246521e-01 2.649526577442884445e-03 -3.404949232935905457e-02 3.303100913763046265e-02
1.812000000000000000e+03 6.244427108764648438e+01 -3.520603179931640625e+01 -1.791800856590270996e-01 3.359156847000122070e-02 -4.367655515670776367e-02 -5.788061022758483887e-02
1.813000000000000000e+03 5.473720550537109375e+01 -2.431764602661132812e+01 1.094780206680297852e+00 9.397706985473632812e-01 6.103652715682983398e-01 -1.479953080415725708e-01
1.814000000000000000e+03 5.035058212280273438e+01 3.385272216796875000e+01 -1.147034205496311188e-02 -6.441133155021816492e-05 -3.460426116362214088e-03 1.021661912091076374e-03
1.815000000000000000e+03 4.454812240600585938e+01 2.624565505981445312e+01 -2.062343992292881012e-04 1.232549984706565738e-04 -2.489382313797250390e-05 -5.679907044395804405e-04
1.816000000000000000e+03 4.500242996215820312e+01 2.703072166442871094e+01 -1.049926853738725185e-03 -3.255099290981888771e-04 -4.126310523133724928e-04 -1.665156160015612841e-04
1.817000000000000000e+03 6.894362640380859375e+01 3.152518653869628906e+01 3.085038065910339355e-01 2.208854436874389648e+00 7.552074790000915527e-01 -5.566701889038085938e-01
1.818000000000000000e+03 4.107918548583984375e+01 1.269541549682617188e+01 1.817629672586917877e-04 5.014018461224623024e-05 6.957094592507928610e-05 3.479426231933757663e-05
1.819000000000000000e+03 7.522420883178710938e+00 -2.063633537292480469e+01 -5.525694577954709530e-04 -8.959219121607020497e-05 -1.926484983414411545e-04 -3.962059417972341180e-05
1.820000000000000000e+03 4.419277191162109375e+01 -2.706229972839355469e+01 -2.445196658372879028e-01 -1.333956003189086914e+00 -4.735426902770996094e-01 -1.031894564628601074e+00
1.821000000000000000e+03 4.371192550659179688e+01 2.461776733398437500e+01 1.526254636701196432e-04 7.212087075458839536e-05 6.742390542058274150e-05 -3.601839707698673010e-04
1.822000000000000000e+03 2.198898887634277344e+01 -3.313147735595703125e+01 2.327966503798961639e-02 -1.618805690668523312e-03 6.498257629573345184e-03 8.789097890257835388e-03
1.823000000000000000e+03 7.121772003173828125e+01 8.566947937011718750e+00 7.428381592035293579e-02 3.627862930297851562e+00 1.110643982887268066e+00 -3.467383235692977905e-02
1.824000000000000000e+03 1.306746864318847656e+01 2.357511997222900391e+00 9.496151506027672440e-06 5.288751253829104826e-06 4.435470600583357736e-06 -4.607205482898280025e-06
1.825000000000000000e+03 1.378637981414794922e+01 1.955090403556823730e+00 1.824249557103030384e-05 7.137599823181517422e-06 7.614028618263546377e-06 -1.337692447123117745e-05
1.826000000000000000e+03 1.171910190582275391e+01 3.284934759140014648e+00 4.950896254740655422e-06 4.939032805850729346e-06 2.966978854601620696e-06 -2.719077883739373647e-06
1.827000000000000000e+03 1.117292404174804688e+01 2.614057540893554688e+00 1.800295285647735000e-05 6.550940724991960451e-06 7.366168119915528223e-06 -1.603182681719772518e-05
1.828000000000000000e+03 9.658320426940917969e+00 -2.867309951782226562e+01 1.597363734617829323e-03 2.937577373813837767e-04 5.673364503309130669e-04 6.793537759222090244e-04
1.829000000000000000e+03 6.373529815673828125e+01 3.703981399536132812e+01 -1.580073870718479156e-02 5.766440629959106445e-01 1.682529896497726440e-01 -3.140178322792053223e-01
1.830000000000000000e+03 6.508220672607421875e+01 3.494378662109375000e+01 2.226033210754394531e-01 7.870461344718933105e-01 3.028948307037353516e-01 -4.754198193550109863e-01
1.831000000000000000e+03 5.614282989501953125e+01 -2.626647186279296875e+01 2.879295349121093750e+00 3.601235151290893555e+00 1.944159150123596191e+00 2.051963090896606445e+00
1.832000000000000000e+03 6.730818939208984375e+01 3.352184677124023438e+01 2.232352644205093384e-01 1.416261434555053711e+00 4.918490052223205566e-01 -5.920614004135131836e-01
1.833000000000000000e+03 3.689873123168945312e+01 -3.517908477783203125e+01 -1.313002109527587891e-01 -3.901979029178619385e-01 -1.564494222402572632e-01 -3.684556186199188232e-01
1.834000000000000000e+03 3.822794723510742188e+01 -3.441744995117187500e+01 -1.816493868827819824e-01 -6.271722316741943359e-01 -2.426464855670928955e-01 -4.922710657119750977e-01
1.835000000000000000e+03 3.818288040161132812e+01 -3.328400802612304688e+01 -4.736805558204650879e-01 -4.859892129898071289e-01 -2.879009246826171875e-01 -5.114780068397521973e-01
1.836000000000000000e+03 4.001925659179687500e+01 -3.342816162109375000e+01 -2.256479412317276001e-01 -1.138095378875732422e+00 -4.091230034828186035e-01 -6.057405471801757812e-01
1.837000000000000000e+03 5.625062179565429688e+01 3.899416351318359375e+01 2.506173588335514069e-02 2.327772602438926697e-02 1.450183894485235214e-02 -3.454716177657246590e-03
1.838000000000000000e+03 5.730993652343750000e+01 -2.490683364868164062e+01 3.178637981414794922e+00 2.981703758239746094e+00 1.848102569580078125e+00 2.337735414505004883e+00
1.839000000000000000e+03 6.814403533935546875e+01 -3.601145553588867188e+01 -4.464339464902877808e-02 2.339013665914535522e-02 -6.375977303832769394e-03 4.644802212715148926e-02
1.840000000000000000e+03 6.825465393066406250e+01 -3.447561264038085938e+01 -8.038463443517684937e-02 1.323241833597421646e-02 -2.014566585421562195e-02 1.417346019297838211e-02
1.841000000000000000e+03 1.702690696716308594e+01 -1.268734550476074219e+01 -3.189103881595656276e-05 5.053667337051592767e-05 5.593689820670988411e-06 4.391984475660137832e-06
1.842000000000000000e+03 1.783256721496582031e+01 -9.708989143371582031e+00 6.324354035314172506e-05 1.610791696293745190e-05 2.380543628532905132e-05 1.728439201542641968e-05
1.843000000000000000e+03 4.123977279663085938e+01 -3.411040115356445312e+01 8.132588863372802734e-02 -1.225597739219665527e+00 -3.432815372943878174e-01 -3.666735887527465820e-01
1.844000000000000000e+03 4.220391464233398438e+01 9.394391059875488281e+00 -1.485709799453616142e-04 5.183537359698675573e-05 -2.902068263210821897e-05 -3.088071753154508770e-05
1.845000000000000000e+03 4.205838012695312500e+01 7.647335529327392578e+00 1.148164737969636917e-04 3.022159035026561469e-05 4.351141978986561298e-05 3.665591793833300471e-05
1.846000000000000000e+03 6.168722915649414062e+01 3.729353713989257812e+01 3.246703743934631348e-02 2.637794017791748047e-01 8.887393027544021606e-02 -1.811098009347915649e-01
1.847000000000000000e+03 6.719256591796875000e+01 -1.064316558837890625e+01 1.338653415441513062e-01 1.564994215965270996e+00 5.096578598022460938e-01 4.422034323215484619e-01
1.848000000000000000e+03 2.294796752929687500e+01 -3.401449584960937500e+01 1.744214817881584167e-02 -1.884173718281090260e-03 4.667392000555992126e-03 1.223047263920307159e-02
1.849000000000000000e+03 1.920070457458496094e+01 -3.385143661499023438e+01 9.248442947864532471e-03 1.604749006219208241e-03 3.255957504734396935e-03 8.638055063784122467e-03
1.850000000000000000e+03 7.110898590087890625e+01 2.297506332397460938e+01 1.509761512279510498e-01 3.599364995956420898e+00 1.125102281570434570e+00 -1.504974067211151123e-01
1.851000000000000000e+03 7.996090412139892578e+00 -1.926568984985351562e+01 -5.314312147675082088e-05 -9.509087249170988798e-05 -4.447019819053821266e-05 -1.264230668311938643e-04
1.852000000000000000e+03 6.844120788574218750e+01 -9.247183799743652344e+00 1.204745247960090637e-01 1.747870802879333496e+00 5.605036020278930664e-01 3.878307044506072998e-01
1.853000000000000000e+03 5.953501510620117188e+01 -2.217105102539062500e+01 1.174677968025207520e+00 2.015428066253662109e+00 9.570317864418029785e-01 1.594373941421508789e+00
1.854000000000000000e+03 3.225866699218750000e+01 -3.530216217041015625e+01 -6.246060132980346680e-02 -5.432460457086563110e-02 -3.503556177020072937e-02 -8.647978305816650391e-02
1.855000000000000000e+03 4.328649902343750000e+01 -3.311662673950195312e+01 1.221452355384826660e-01 -1.198212385177612305e+00 -3.228201270103454590e-01 -4.488379880785942078e-02
1.856000000000000000e+03 6.694493103027343750e+01 -3.600257492065429688e+01 -5.908755958080291748e-02 -1.520211226306855679e-03 -1.818233169615268707e-02 4.101697728037834167e-02
1.857000000000000000e+03 7.078588867187500000e+01 2.644407844543457031e+01 3.509907126426696777e-01 3.420896053314208984e+00 1.131566047668457031e+00 -3.249409198760986328e-01
1.858000000000000000e+03 6.983969879150390625e+01 -3.323779296875000000e+01 -5.345561355352401733e-02 8.358156308531761169e-03 -1.352923735976219177e-02 2.250388031825423241e-03
1.859000000000000000e+03 2.449414253234863281e+01 -7.313534736633300781e+00 8.152278496709186584e-06 -3.435535518292454071e-06 1.415022893525019754e-06 -3.315829644634504803e-06
1.860000000000000000e+03 7.153570556640625000e+01 -3.107861328125000000e+01 -1.503393054008483887e-02 -2.532149199396371841e-03 -5.269824061542749405e-03 -1.194069045595824718e-03
1.861000000000000000e+03 7.118763732910156250e+01 1.004047155380249023e+00 3.770205676555633545e-01 3.785100460052490234e+00 1.248636245727539062e+00 2.279356420040130615e-01
1.862000000000000000e+03 4.921176528930664062e+01 -1.255667972564697266e+01 -1.421071738150203601e-05 9.820853392739081755e-07 -3.968589680880540982e-06 -3.509542921165120788e-06
1.863000000000000000e+03 1.168921852111816406e+01 -3.087842369079589844e+01 3.151738550513982773e-03 -1.005397411063313484e-03 6.439023418352007866e-04 -3.362854477018117905e-04
1.864000000000000000e+03 3.551966094970703125e+01 -3.476468276977539062e+01 -1.659629642963409424e-01 -1.673109829425811768e-01 -9.998218715190887451e-02 -2.570711970329284668e-01
1.865000000000000000e+03 6.057341766357421875e+01 -1.966519927978515625e+01 -2.238527774810791016e+00 1.263096690177917480e+00 -2.926292717456817627e-01 7.823725938796997070e-01
1.866000000000000000e+03 3.822359466552734375e+01 -1.736323547363281250e+01 -1.421081265107204672e-06 1.251009280167636462e-06 -5.102160116621234920e-08 -5.108672951337211998e-08
1.867000000000000000e+03 2.298400878906250000e+01 -5.279644489288330078e+00 9.579924153513275087e-06 3.739672820302075706e-06 3.995879069407237694e-06 -5.374589363782433793e-06
1.868000000000000000e+03 2.243849372863769531e+01 -4.634566307067871094e+00 1.323247215623268858e-05 -4.198169335722923279e-06 2.710290800678194501e-06 -2.920680117313168012e-06
1.869000000000000000e+03 7.189797973632812500e+01 -2.134480285644531250e+01 -1.669843047857284546e-01 9.316712617874145508e-02 -2.214515209197998047e-02 -1.383621804416179657e-02
1.870000000000000000e+03 1.977602195739746094e+01 -1.288668823242187500e+01 -1.624689139134716243e-05 -6.831296923337504268e-05 -2.536795909691136330e-05 -1.133181649493053555e-05
1.871000000000000000e+03 1.967590522766113281e+01 -1.134808635711669922e+01 -4.892435390502214432e-05 -9.962848707800731063e-06 -1.766616151144262403e-05 -1.056030123436357826e-05
1.872000000000000000e+03 1.596505737304687500e+01 7.471485733985900879e-01 1.421931028744438663e-05 3.266530029577552341e-06 5.245752163318684325e-06 -3.932469553546980023e-06
1.873000000000000000e+03 5.793060302734375000e+01 -2.429687309265136719e+01 3.191435098648071289e+00 2.757336854934692383e+00 1.784631490707397461e+00 2.293171167373657227e+00
1.874000000000000000e+03 5.532386398315429688e+01 -2.210656738281250000e+01 -1.267122507095336914e+00 9.523725509643554688e-02 -3.515655696392059326e-01 -7.799731492996215820e-01
1.875000000000000000e+03 4.112353897094726562e+01 1.182978153228759766e+01 -1.577551156515255570e-04 5.714626604458317161e-05 -3.018265488208271563e-05 -9.351265362056437880e-06
1.876000000000000000e+03 4.135515594482421875e+01 1.010043525695800781e+01 -1.336811110377311707e-04 4.913045631838031113e-05 -2.536519605200737715e-05 -2.063278043351601809e-05
1.877000000000000000e+03 2.004051589965820312e+01 -2.224009275436401367e+00 1.604268800292629749e-05 -2.385394282100605778e-06 4.097188138985075057e-06 -2.374636324020684697e-06
1.878000000000000000e+03 4.066857147216796875e+01 -3.313024139404296875e+01 -1.515989452600479126e-01 -1.311943173408508301e+00 -4.390626549720764160e-01 -5.417841076850891113e-01
1.879000000000000000e+03 1.408996582031250000e+01 -1.274885654449462891e+01 -4.270149656804278493e-05 2.184900040447246283e-05 -6.255748758121626452e-06 -1.886481550172902644e-05
1.880000000000000000e+03 6.353833389282226562e+01 -2.148130416870117188e+01 1.404091596603393555e+00 1.157348632812500000e+00 7.684320807456970215e-01 2.027348279953002930e+00
1.881000000000000000e+03 6.865476989746093750e+01 -3.368626022338867188e+01 -7.501927018165588379e-02 9.890028275549411774e-03 -1.953877322375774384e-02 -2.166140358895063400e-03
1.882000000000000000e+03 7.101849365234375000e+01 1.326850891113281250e+01 -2.962488494813442230e-02 3.467339277267456055e+00 1.031314373016357422e+00 -8.960309624671936035e-02
1.883000000000000000e+03 5.740441131591796875e+01 -3.603569030761718750e+01 -6.143824756145477295e-02 1.536669373512268066e+00 4.425693154335021973e-01 -5.691438913345336914e-01
1.884000000000000000e+03 5.555853652954101562e+01 -2.901054000854492188e+01 1.938782095909118652e+00 5.791804313659667969e+00 2.319175958633422852e+00 1.796961545944213867e+00
1.885000000000000000e+03 5.148886108398437500e+01 -1.637343788146972656e+01 -2.907511088778846897e-06 -5.871768280485412106e-07 -1.048406375048216432e-06 6.210432843545277137e-07
1.886000000000000000e+03 7.136659240722656250e+01 6.917447566986083984e+00 2.253646254539489746e-01 3.766200780868530273e+00 1.197469592094421387e+00 -1.062788739800453186e-01
1.887000000000000000e+03 7.080910491943359375e+01 -2.023663520812988281e+01 -7.400618493556976318e-02 1.283467411994934082e-01 1.630216464400291443e-02 7.608057558536529541e-02
1.888000000000000000e+03 6.969649505615234375e+01 -2.134553718566894531e+01 -1.718031466007232666e-01 -3.931025788187980652e-02 -6.333401799201965332e-02 1.225545480847358704e-01
1.889000000000000000e+03 9.433085441589355469e+00 -1.721893692016601562e+01 -1.368214871035888791e-04 -8.735018491279333830e-05 -6.725150160491466522e-05 1.017214235616847873e-04
1.890000000000000000e+03 7.295666503906250000e+01 -2.321845245361328125e+01 -1.215236708521842957e-01 4.289317503571510315e-02 -2.358914911746978760e-02 1.184086501598358154e-02
1.891000000000000000e+03 7.014008331298828125e+01 2.902429199218750000e+01 4.973070025444030762e-01 2.919178485870361328e+00 1.024945616722106934e+00 -4.951665103435516357e-01
1.892000000000000000e+03 6.981827545166015625e+01 2.988557434082031250e+01 4.858732223510742188e-01 2.690059423446655273e+00 9.527797698974609375e-01 -4.924134314060211182e-01
1.893000000000000000e+03 4.178414916992187500e+01 8.435350418090820312e+00 -1.235367817571386695e-04 3.672756065498106182e-05 -2.604276596684940159e-05 -2.841218338289763778e-05
1.894000000000000000e+03 4.154752349853515625e+01 9.253022193908691406e+00 1.322856260230764747e-04 3.181755164405331016e-05 4.923095548292621970e-05 3.969522367697209120e-05
1.895000000000000000e+03 5.021461486816406250e+01 -1.323848056793212891e+01 -1.171871099359123036e-05 4.510213784669758752e-07 -3.380306907274643891e-06 -2.097098558806465007e-06
1.896000000000000000e+03 5.014565277099609375e+01 -1.663173103332519531e+01 -3.286260835011489689e-06 -1.391240402881521732e-07 -1.027615439852525014e-06 8.751423763442289783e-08
1.897000000000000000e+03 3.447998046875000000e+01 -3.469971847534179688e+01 -1.280478090047836304e-01 -1.143893525004386902e-01 -7.273115217685699463e-02 -1.877320110797882080e-01
1.898000000000000000e+03 3.731704330444335938e+01 -3.433356475830078125e+01 -2.163017690181732178e-01 -3.969725966453552246e-01 -1.839823126792907715e-01 -4.008411765098571777e-01
1.899000000000000000e+03 1.784865570068359375e+01 -8.844729423522949219e+00 4.095936674275435507e-05 2.033055716310627759e-05 1.838697789935395122e-05 5.611217602563556284e-06
1.900000000000000000e+03 3.625579071044921875e+01 -1.699478530883789062e+01 2.266353021695977077e-06 7.603573521919315681e-07 9.080131349037401378e-07 1.362391117254446726e-06
1.901000000000000000e+03 4.337540817260742188e+01 -2.977786636352539062e+01 -5.909453034400939941e-01 -1.685260653495788574e+00 -6.828618049621582031e-01 -5.153171420097351074e-01
1.902000000000000000e+03 7.167652893066406250e+01 -2.217466926574707031e+01 -1.955977678298950195e-01 5.630688369274139404e-02 -4.178726673126220703e-02 2.764732576906681061e-02
1.903000000000000000e+03 4.038023757934570312e+01 -1.763166427612304688e+01 2.525374384276801720e-06 1.067070570570649579e-06 1.077733486454235390e-06 -1.376217682036440237e-07
1.904000000000000000e+03 3.900532150268554688e+01 -1.766660118103027344e+01 -1.671237100708822254e-06 5.189214107303996570e-07 -3.456947013091848930e-07 8.793924166639044415e-07
1.905000000000000000e+03 2.611724376678466797e+00 3.299691915512084961e+00 -1.395938170389854349e-06 3.458337687334278598e-06 6.187198664520110469e-07 -2.803394863803987391e-06
1.906000000000000000e+03 8.686899185180664062e+00 -2.621370124816894531e+01 5.468316958285868168e-04 -6.984474021010100842e-05 1.430960837751626968e-04 4.690710629802197218e-04
1.907000000000000000e+03 7.268701553344726562e+00 -2.487467193603515625e+01 -4.307611379772424698e-04 -1.497146877227351069e-04 -1.741427404340356588e-04 -2.787235716823488474e-04
1.908000000000000000e+03 4.268270111083984375e+01 -2.989009475708007812e+01 -8.640645146369934082e-01 -2.167819023132324219e+00 -9.095650315284729004e-01 -5.600665211677551270e-01
1.909000000000000000e+03 4.352291488647460938e+01 -2.789164924621582031e+01 -4.534265697002410889e-01 -1.735662579536437988e+00 -6.567267775535583496e-01 -9.236109256744384766e-01
1.910000000000000000e+03 6.582250976562500000e+01 3.638558578491210938e+01 -7.381179928779602051e-02 9.158535599708557129e-01 2.526125311851501465e-01 -3.531632423400878906e-01
1.911000000000000000e+03 1.084583187103271484e+01 -3.028287506103515625e+01 3.037082729861140251e-03 -6.911947275511920452e-05 8.903889684006571770e-04 1.126196817494928837e-03
1.912000000000000000e+03 1.159386515617370605e+00 -2.654085636138916016e+00 3.354192085680551827e-05 1.434300656910636462e-06 1.049286674970062450e-05 7.046050086501054466e-06
1.913000000000000000e+03 1.911415338516235352e+00 -3.399898529052734375e+00 4.497780901147052646e-05 2.552153091528452933e-06 1.425898790330393240e-05 1.190260991279501468e-05
1.914000000000000000e+03 1.128926086425781250e+01 -1.448004722595214844e+01 -2.492659259587526321e-04 -9.207677067024633288e-05 -1.024028097162954509e-04 6.043663961463607848e-05
1.915000000000000000e+03 1.034564304351806641e+01 -1.589607048034667969e+01 -1.494684547651559114e-04 -1.046639445121400058e-04 -7.623972487635910511e-05 1.090768710128031671e-04
1.916000000000000000e+03 4.351347732543945312e+01 -2.404543113708496094e+01 -1.397820562124252319e-01 -7.499682307243347168e-01 -2.669250965118408203e-01 -6.687976717948913574e-01
1.917000000000000000e+03 5.556924057006835938e+01 -2.702327537536621094e+01 2.683929443359375000e+00 3.892790555953979492e+00 1.973016023635864258e+00 1.636236548423767090e+00
1.918000000000000000e+03 5.515722274780273438e+01 -2.788859176635742188e+01 2.487259864807128906e+00 3.994759559631347656e+00 1.944605708122253418e+00 1.468913793563842773e+00
1.919000000000000000e+03 6.312470626831054688e+01 -2.238864326477050781e+01 2.913818597793579102e+00 9.450935125350952148e-01 1.157673597335815430e+00 2.281084775924682617e+00
1.920000000000000000e+03 5.767723464965820312e+01 -4.148400497436523438e+01 -2.767283320426940918e-01 1.230056047439575195e+00 2.859983146190643311e-01 -1.044745966792106628e-01
1.921000000000000000e+03 5.841566848754882812e+01 -3.548640441894531250e+01 4.318766295909881592e-02 1.102445721626281738e+00 3.436900079250335693e-01 -6.053276062011718750e-01
1.922000000000000000e+03 8.648574829101562500e+00 -2.734078025817871094e+01 7.960575749166309834e-04 -1.819501994759775698e-05 2.333587617613375187e-04 6.291897152550518513e-04
1.923000000000000000e+03 4.165024948120117188e+01 -1.853777313232421875e+01 -2.106458168782410212e-06 -1.110506104851083364e-06 -9.650892707213643007e-07 -2.068548781153367599e-07
1.924000000000000000e+03 6.366328811645507812e+01 -1.876961135864257812e+01 -1.151154637336730957e+00 1.596980571746826172e+00 1.337478011846542358e-01 1.032796621322631836e+00
1.925000000000000000e+03 4.309391403198242188e+01 -3.183021163940429688e+01 -2.802889347076416016e-01 -1.558311343193054199e+00 -5.515800714492797852e-01 -2.252086997032165527e-01
1.926000000000000000e+03 4.375463485717773438e+01 -3.057494354248046875e+01 -4.448102414608001709e-01 -1.449458360671997070e+00 -5.682805776596069336e-01 -3.166799247264862061e-01
1.927000000000000000e+03 5.885192108154296875e+01 -2.114852523803710938e+01 -9.825809001922607422e-01 1.207936406135559082e+00 6.760663539171218872e-02 7.229003906250000000e-01
1.928000000000000000e+03 9.345347404479980469e+00 3.844074964523315430e+00 8.571704711357597262e-06 3.560832340099295834e-07 2.678336386452428997e-06 -4.753404027724172920e-06
1.929000000000000000e+03 5.771593856811523438e+01 3.787808227539062500e+01 1.273115351796150208e-02 2.160937339067459106e-02 1.030215807259082794e-02 -1.588882505893707275e-02
1.930000000000000000e+03 6.056221008300781250e+01 3.727845382690429688e+01 3.781789168715476990e-02 1.441549360752105713e-01 5.459184944629669189e-02 -9.733836352825164795e-02
1.931000000000000000e+03 5.433778381347656250e+01 -3.047585868835449219e+01 1.588611841201782227e+00 3.874105691909790039e+00 1.638815283775329590e+00 8.699400424957275391e-01
1.932000000000000000e+03 5.499233627319335938e+01 -3.227629470825195312e+01 9.394450187683105469e-01 3.800763130187988281e+00 1.422062397003173828e+00 3.124395906925201416e-01
1.933000000000000000e+03 6.156399917602539062e+01 -2.079206275939941406e+01 -3.494530618190765381e-01 1.988236069679260254e+00 4.916349053382873535e-01 1.741857290267944336e+00
1.934000000000000000e+03 4.694223785400390625e+01 -3.840366125106811523e+00 -2.954260344267822802e-05 -1.305800469708628953e-05 -1.278018226003041491e-05 -2.048552778433077037e-05
1.935000000000000000e+03 6.557643127441406250e+01 -2.053267097473144531e+01 3.637520670890808105e-01 1.008460998535156250e+00 4.116639196872711182e-01 1.132596015930175781e+00
1.936000000000000000e+03 4.706408500671386719e+00 -3.697376632690429688e+01 7.902946090325713158e-04 1.142015680670738220e-03 5.796931218355894089e-04 1.666540978476405144e-03
1.937000000000000000e+03 5.523658370971679688e+01 3.673294067382812500e+01 -2.869379892945289612e-02 2.154101151973009109e-03 -7.961909286677837372e-03 1.014425605535507202e-02
1.938000000000000000e+03 1.103144264221191406e+01 -4.527879714965820312e+00 4.060974970343522727e-05 3.121112604276277125e-05 2.154626236006151885e-05 1.726222944853361696e-05
1.939000000000000000e+03 1.213519096374511719e+01 -5.039669990539550781e+00 3.798358011408708990e-05 3.121731788269244134e-05 2.076026976283174008e-05 1.292343768000137061e-05
1.940000000000000000e+03 4.653749847412109375e+01 -2.547310066223144531e+01 -9.535141289234161377e-02 -7.961143255233764648e-01 -2.674397230148315430e-01 -1.289327144622802734e+00
1.941000000000000000e+03 6.583292388916015625e+01 -1.579697895050048828e+01 -6.905661821365356445e-01 1.262925148010253906e+00 1.717077046632766724e-01 3.532974720001220703e-01
1.942000000000000000e+03 1.508976459503173828e+01 -6.178598403930664062e+00 4.113565955776721239e-05 2.220486021542456001e-05 1.900215647765435278e-05 1.375882129650563002e-05
1.943000000000000000e+03 1.294803905487060547e+01 -4.776407241821289062e+00 3.320775067550130188e-05 2.970621972053777426e-05 1.887419057311490178e-05 1.270055145141668618e-05
1.944000000000000000e+03 1.373733520507812500e+01 -5.989756584167480469e+00 -3.971436308347620070e-05 -2.556070830905809999e-05 -1.958252141776029021e-05 -7.033760539343347773e-06
1.945000000000000000e+03 1.320982551574707031e+01 -5.653866767883300781e+00 3.842483056359924376e-05 2.809162106132134795e-05 1.995493585127405822e-05 9.084458724828436971e-06
1.946000000000000000e+03 1.828108215332031250e+01 -9.313221931457519531e+00 -4.739137875731103122e-05 -1.556551796966232359e-05 -1.888706901809200644e-05 -9.451366167922969908e-06
1.947000000000000000e+03 1.181470394134521484e+01 -4.186522483825683594e+00 3.378953988431021571e-05 3.198982449248433113e-05 1.973381040443200618e-05 1.513332881586393341e-05
1.948000000000000000e+03 1.047197151184082031e+01 -4.320225715637207031e+00 -4.339287625043652952e-05 -3.003512938448693603e-05 -2.202840187237598002e-05 -1.802405859052669257e-05
1.949000000000000000e+03 1.899517440795898438e+01 -1.155194950103759766e+01 2.807534110615961254e-05 -2.170946754631586373e-05 1.909762204377329908e-06 -1.683515984041150659e-05
1.950000000000000000e+03 2.897399711608886719e+01 -1.279341983795166016e+01 5.067959136795252562e-06 6.373763312694791239e-07 1.711600702947180253e-06 -1.189344857266405597e-06
1.951000000000000000e+03 7.100057983398437500e+01 1.171605968475341797e+01 -3.127751350402832031e-01 3.496577501296997070e+00 9.551407098770141602e-01 -1.069927141070365906e-01
1.952000000000000000e+03 8.152561187744140625e+00 -3.232134819030761719e+00 2.585315269243437797e-05 2.536061219871044159e-05 1.536413037683814764e-05 2.237939406768418849e-05
1.953000000000000000e+03 9.905653953552246094e+00 -4.153800010681152344e+00 4.511004954110831022e-05 2.843000947905238718e-05 2.206201679655350745e-05 1.828394670155830681e-05
1.954000000000000000e+03 3.235046768188476562e+01 -1.607826995849609375e+01 1.138360588015530084e-07 -3.755046691367169842e-06 -1.092363163479603827e-06 -2.645456106620258652e-06
1.955000000000000000e+03 7.113904571533203125e+01 9.372148513793945312e+00 -1.131529584527015686e-01 3.600123167037963867e+00 1.046091079711914062e+00 -2.630565688014030457e-02
1.956000000000000000e+03 4.766508102416992188e+01 -2.447270584106445312e+01 -2.942068278789520264e-01 -6.889487504959106445e-01 -2.949466705322265625e-01 -1.401666045188903809e+00
1.957000000000000000e+03 4.536033630371093750e+01 -2.434800148010253906e+01 -2.901578247547149658e-01 -7.924911379814147949e-01 -3.247946798801422119e-01 -1.152635574340820312e+00
1.958000000000000000e+03 6.585332489013671875e+01 -1.130299663543701172e+01 2.505048513412475586e-01 1.389437794685363770e+00 4.919827878475189209e-01 5.336818099021911621e-01
1.959000000000000000e+03 4.433738708496093750e+01 -2.591002082824707031e+01 -1.241174563765525818e-01 -1.183589577674865723e+00 -3.923121094703674316e-01 -1.047106623649597168e+00
1.960000000000000000e+03 4.505662918090820312e+01 -2.523490142822265625e+01 -1.549693793058395386e-01 -9.866611361503601074e-01 -3.424891531467437744e-01 -1.151859998703002930e+00
1.961000000000000000e+03 4.861124420166015625e+01 -2.504197311401367188e+01 2.373334765434265137e-02 -6.285038590431213379e-01 -1.814311444759368896e-01 -1.359611153602600098e+00
1.962000000000000000e+03 7.440795135498046875e+01 -2.264223098754882812e+01 -9.397405385971069336e-02 5.057396739721298218e-02 -1.302002463489770889e-02 -4.056954383850097656e-02
1.963000000000000000e+03 9.324867248535156250e+00 -4.030117511749267578e+00 -4.225364318699575961e-05 -2.760887764452490956e-05 -2.095875606755726039e-05 -1.907186742755584419e-05
1.964000000000000000e+03 1.652013969421386719e+01 -7.413474082946777344e+00 -3.880633448716253042e-05 -2.464895806042477489e-05 -1.903658812807407230e-05 -1.312463155045406893e-05
1.965000000000000000e+03 7.435301971435546875e+01 -2.403928947448730469e+01 -6.761829555034637451e-02 2.789902314543724060e-02 -1.191578246653079987e-02 -1.066157128661870956e-02
1.966000000000000000e+03 1.559051036834716797e+01 -6.564238071441650391e+00 -4.078512574778869748e-05 -2.213886909885331988e-05 -1.887719918158836663e-05 -1.535028241050895303e-05
1.967000000000000000e+03 1.610382461547851562e+01 -7.831061840057373047e+00 3.940717942896299064e-05 2.606236193969380111e-05 1.964086368388962001e-05 7.691142855037469417e-06
1.968000000000000000e+03 7.828489685058593750e+01 -2.142984199523925781e+01 -1.414333377033472061e-02 -5.522298812866210938e-02 -2.080989629030227661e-02 -5.209837853908538818e-02
1.969000000000000000e+03 1.425992393493652344e+01 -6.333256721496582031e+00 4.364861524663865566e-05 2.141638651664834470e-05 1.951950071088504046e-05 5.984424205962568521e-06
1.970000000000000000e+03 1.627585220336914062e+01 -1.163743782043457031e+01 -7.132186146918684244e-05 -1.160434039775282145e-04 -5.620958108920603991e-05 1.778257683326955885e-05
1.971000000000000000e+03 1.788032913208007812e+01 -1.089084720611572266e+01 -2.616134588606655598e-05 -3.752096381504088640e-05 -1.910469291033223271e-05 1.082775634131394327e-05
1.972000000000000000e+03 4.260226058959960938e+01 2.767675399780273438e+01 -1.162997446954250336e-03 3.328964230604469776e-04 -2.490303013473749161e-04 -2.066171437036246061e-04
1.973000000000000000e+03 4.496354293823242188e+01 2.839613533020019531e+01 -1.446001464501023293e-03 -5.829837173223495483e-04 -6.086955545470118523e-04 -3.142431378364562988e-04
1.974000000000000000e+03 1.974889945983886719e+01 -1.228720378875732422e+01 9.003600098367314786e-06 -2.019842031586449593e-05 -3.358446065249154344e-06 6.328562449198216200e-06
1.975000000000000000e+03 7.507431793212890625e+01 -2.404272842407226562e+01 -5.731200799345970154e-02 2.028530836105346680e-02 -1.110801007598638535e-02 -1.843415200710296631e-02
1.976000000000000000e+03 7.575310516357421875e+01 -2.325657653808593750e+01 -5.438116192817687988e-02 1.485809311270713806e-02 -1.185692101716995239e-02 -3.850231692194938660e-02
1.977000000000000000e+03 1.158623600006103516e+01 -4.769646167755126953e+00 -3.856368493870832026e-05 -3.175365054630674422e-05 -2.109520028170663863e-05 -1.529655855847522616e-05
1.978000000000000000e+03 3.180687522888183594e+01 -1.602473640441894531e+01 2.609211605886230245e-06 2.802972858262364753e-06 1.623655293769843411e-06 9.526585813546262216e-07
1.979000000000000000e+03 4.674090576171875000e+01 -2.394645881652832031e+01 -4.798614978790283203e-01 -6.830332279205322266e-01 -3.488683998584747314e-01 -1.326003193855285645e+00
1.980000000000000000e+03 3.421286773681640625e+01 -1.688723373413085938e+01 -1.354994083158089779e-06 -1.923893250932451338e-06 -9.836661547524272464e-07 -1.826252741921052802e-06
1.981000000000000000e+03 2.882328605651855469e+01 -1.377561664581298828e+01 4.401759269967442378e-06 1.598809831193648279e-06 1.800170821297797374e-06 -6.573447421942546498e-07
1.982000000000000000e+03 2.739880371093750000e+01 -3.347364425659179688e+01 2.557891234755516052e-02 -6.309228483587503433e-03 5.780905485153198242e-03 2.077405573800206184e-03
1.983000000000000000e+03 2.428239631652832031e+01 -3.305784988403320312e+01 2.885505184531211853e-02 4.856156010646373034e-05 8.671083487570285797e-03 1.081213634461164474e-02
1.984000000000000000e+03 2.826208305358886719e+01 -1.421345520019531250e+01 -2.257998403365490958e-06 -1.511763912276364863e-06 -1.130928694692556746e-06 -9.087462444767879788e-07
1.985000000000000000e+03 2.869222068786621094e+01 -1.480777931213378906e+01 4.228386387694627047e-06 2.271546463816775940e-06 1.949979832716053352e-06 -1.242238738541345811e-07
1.986000000000000000e+03 4.117271041870117188e+01 1.527340030670166016e+01 -2.047395100817084312e-04 7.481939974240958691e-05 -3.897603164659813046e-05 2.169390972994733602e-05
1.987000000000000000e+03 4.032438659667968750e+01 1.351699256896972656e+01 1.682302681729197502e-04 3.715033381013199687e-05 6.161417695693671703e-05 3.790092887356877327e-05
1.988000000000000000e+03 2.918983078002929688e+01 -1.531856822967529297e+01 -3.659748927020700648e-06 -1.889640202534792479e-06 -1.664816750235331710e-06 -5.526619020201906096e-07
1.989000000000000000e+03 4.982064437866210938e+01 -2.400069999694824219e+01 -3.900925219058990479e-01 -5.228739380836486816e-01 -2.738899588584899902e-01 -1.456658601760864258e+00
1.990000000000000000e+03 6.192049407958984375e+01 -2.130758476257324219e+01 6.260592937469482422e-01 2.173674583435058594e+00 8.399201631546020508e-01 2.121058702468872070e+00
1.991000000000000000e+03 6.422101593017578125e+01 -2.122066497802734375e+01 1.063059210777282715e+00 9.334562420845031738e-01 5.989546179771423340e-01 1.584277868270874023e+00
1.992000000000000000e+03 1.326802444458007812e+01 -1.311389350891113281e+01 -1.126965344155905768e-05 -3.476172423688694835e-05 -1.380941375828115270e-05 -1.495208198321051896e-05
1.993000000000000000e+03 4.886185073852539062e+01 -2.345989990234375000e+01 -7.808956503868103027e-01 -5.721241831779479980e-01 -4.059059619903564453e-01 -1.478032946586608887e+00
1.994000000000000000e+03 4.838266372680664062e+01 -2.432191848754882812e+01 -3.225140869617462158e-01 -6.205805540084838867e-01 -2.829284071922302246e-01 -1.438795447349548340e+00
1.995000000000000000e+03 5.210626983642578125e+01 -1.620149421691894531e+01 3.230492211514501832e-06 6.354474635372753255e-07 1.159781845672114287e-06 -7.105704753485042602e-07
1.996000000000000000e+03 5.231794357299804688e+01 -1.459923744201660156e+01 2.304829877175507136e-06 2.538006583563401364e-06 1.452850938221672550e-06 1.221616571456252132e-06
1.997000000000000000e+03 7.607176208496093750e+01 1.205070877075195312e+01 -5.757307261228561401e-02 -1.430712640285491943e-01 -6.019330024719238281e-02 3.300309926271438599e-02
1.998000000000000000e+03 2.799727249145507812e+01 -1.088283920288085938e+01 1.494045591243775561e-06 -2.086299843995220726e-07 3.856246735267632175e-07 -2.147048007827834226e-06
1.999000000000000000e+03 5.082915878295898438e+01 -1.651100158691406250e+01 3.056297373404959217e-06 2.710283979467931204e-07 9.981977200368419290e-07 -6.263054501687292941e-07
2.000000000000000000e+03 2.808815765380859375e+01 -1.255722236633300781e+01 4.644300588552141562e-06 2.551957152263639728e-07 1.469848939450457692e-06 -4.307431993311183760e-07
2.001000000000000000e+03 2.788178062438964844e+01 -1.357172298431396484e+01 4.319467279856326059e-06 9.974958175007486716e-07 1.595088974681857508e-06 -1.883575322381147998e-07
2.002000000000000000e+03 2.862150192260742188e+01 -1.220346260070800781e+01 -7.048973884593578987e-07 -2.869766149160568602e-07 -2.975621953282825416e-07 -6.256279334593273234e-07
2.003000000000000000e+03 2.843885040283203125e+01 -1.319113159179687500e+01 -1.415909309798735194e-06 -1.116005137191677932e-06 -7.595743340971239377e-07 -6.618416250603331719e-07
2.004000000000000000e+03 7.746267700195312500e+01 -3.061783027648925781e+01 -3.111649421043694019e-04 -1.749422983266413212e-03 -6.181763601489365101e-04 1.335480483248829842e-03
2.005000000000000000e+03 7.674079132080078125e+01 -3.059463882446289062e+01 -4.390153568238019943e-03 1.448216935386881232e-04 -1.273599569685757160e-03 2.525128889828920364e-03
2.006000000000000000e+03 4.994791030883789062e+01 -1.598083782196044922e+01 4.531249032879713923e-06 -1.807331670988787664e-07 1.305154796682472806e-06 -3.057161990227541537e-08
2.007000000000000000e+03 7.827426147460937500e+01 -2.217358016967773438e+01 -1.248797960579395294e-02 -3.967479616403579712e-02 -1.564883254468441010e-02 -4.131706058979034424e-02
2.008000000000000000e+03 4.310418701171875000e+01 -1.831394195556640625e+01 -1.667106971581233665e-06 -1.393359070789301768e-06 -9.181397899737930857e-07 -4.062854941366822459e-07
2.009000000000000000e+03 4.239307403564453125e+01 -1.773726272583007812e+01 -2.470540039212210104e-06 -1.160851638815074693e-06 -1.089417537514236756e-06 -2.075707072890509153e-07
2.010000000000000000e+03 5.052141952514648438e+01 -2.382005882263183594e+01 -4.358155727386474609e-01 -4.897989928722381592e-01 -2.776843607425689697e-01 -1.449674725532531738e+00
2.011000000000000000e+03 5.010791778564453125e+01 -2.473707389831542969e+01 9.600891172885894775e-02 -4.703716337680816650e-01 -1.123088225722312927e-01 -1.342018246650695801e+00
2.012000000000000000e+03 5.060865020751953125e+01 -1.588032054901123047e+01 -4.030740001326194033e-06 -2.712616620215158036e-08 -1.217359795191441663e-06 7.201662128863972612e-07
2.013000000000000000e+03 4.665930557250976562e+01 -3.160040378570556641e+00 3.164764348184689879e-05 1.650278682063799351e-05 1.444512963644228876e-05 2.367682827753014863e-05
2.014000000000000000e+03 4.907544326782226562e+01 -8.026183128356933594e+00 2.253505408589262515e-05 2.038061666098656133e-06 7.371934316324768588e-06 5.137151674716733396e-06
2.015000000000000000e+03 4.837370300292968750e+01 -8.114861488342285156e+00 -2.124735510733444244e-05 -3.372513901922502555e-06 -7.385960543615510687e-06 -5.922956916037946939e-06
2.016000000000000000e+03 5.610626602172851562e+01 -2.512434577941894531e+01 2.421775817871093750e+00 2.417286634445190430e+00 1.451718688011169434e+00 1.331700801849365234e+00
2.017000000000000000e+03 4.743775939941406250e+01 -5.246050357818603516e+00 -2.520868292776867747e-05 -1.017393060465110466e-05 -1.061478451447328553e-05 -1.418706597178243101e-05
2.018000000000000000e+03 4.762580490112304688e+01 -3.670659303665161133e+00 3.511784962029196322e-05 1.028109727485571057e-05 1.361968406854430214e-05 1.807130138331558555e-05
2.019000000000000000e+03 3.382598876953125000e+01 -1.556332302093505859e+01 4.088210062036523595e-06 1.018774014482914936e-06 1.532095211587147787e-06 2.518585461075417697e-06
2.020000000000000000e+03 4.800757598876953125e+01 -1.703731536865234375e+01 2.820223244270891882e-06 7.739562875030969735e-07 1.078253944797324948e-06 1.170276959783222992e-06
2.021000000000000000e+03 4.896305847167968750e+01 -1.029897212982177734e+01 1.776945828169118613e-05 2.658679534306429559e-07 5.410598078015027568e-06 3.259615141359972768e-06
2.022000000000000000e+03 4.986354064941406250e+01 -1.102589988708496094e+01 1.640456866880413145e-05 -4.827410862162651028e-07 4.776548394147539511e-06 2.251254045404493809e-06
2.023000000000000000e+03 4.917409515380859375e+01 -1.179039096832275391e+01 1.545306076877750456e-05 -1.155775294137129094e-06 4.289186108508147299e-06 2.358412984904134646e-06
2.024000000000000000e+03 5.327016830444335938e+01 -2.310142707824707031e+01 -5.943998098373413086e-01 -1.299415081739425659e-01 -2.173023968935012817e-01 -1.156310319900512695e+00
2.025000000000000000e+03 4.391958999633789062e+01 2.258756160736083984e+00 5.940686605754308403e-05 2.579747706477064639e-05 2.556130311859305948e-05 3.369791011209599674e-05
2.026000000000000000e+03 5.408305740356445312e+01 -2.414106369018554688e+01 6.520457267761230469e-01 5.094574093818664551e-01 3.484509289264678955e-01 -5.723246335983276367e-01
2.027000000000000000e+03 4.781068420410156250e+01 -1.635543823242187500e+01 -3.379101144673768431e-06 -1.307849402110150550e-06 -1.406085175403859466e-06 -1.698140067674103193e-06
2.028000000000000000e+03 2.280674552917480469e+01 -3.302393341064453125e+01 2.405932173132896423e-02 1.626952667720615864e-03 7.705882657319307327e-03 9.852433577179908752e-03
2.029000000000000000e+03 9.379777908325195312e+00 -2.976828575134277344e+01 2.372477902099490166e-03 1.250955101568251848e-04 7.492720615118741989e-04 9.943560871761292219e-05
2.030000000000000000e+03 9.116156578063964844e+00 -2.894149398803710938e+01 -3.193220472894608974e-04 -2.560625725891441107e-04 -1.726153859635815024e-04 -3.464735054876655340e-04
2.031000000000000000e+03 4.925447845458984375e+01 -1.608712577819824219e+01 -4.330046976974699646e-06 -2.907998748469253769e-07 -1.386254098179051653e-06 -9.249282015844073612e-07
2.032000000000000000e+03 4.854074478149414062e+01 -1.621011543273925781e+01 4.024032023153267801e-06 7.668710395591915585e-07 1.437270952919789124e-06 1.288658609155390877e-06
2.033000000000000000e+03 3.169634056091308594e+01 -1.526430225372314453e+01 5.395092557591851801e-06 1.505561897374718683e-07 1.663694661147019360e-06 4.689427157700265525e-07
2.034000000000000000e+03 7.457947540283203125e+01 -3.068781089782714844e+01 -6.307932082563638687e-03 -6.064948393031954765e-04 -2.074328018352389336e-03 2.440303331241011620e-03
2.035000000000000000e+03 7.694811248779296875e+01 -3.444825363159179688e+01 -6.549297831952571869e-03 -5.241992417722940445e-03 -3.537387121468782425e-03 1.051572524011135101e-02
2.036000000000000000e+03 4.767375183105468750e+01 -5.961506366729736328e+00 2.395647425146307796e-05 9.278178367821965367e-06 9.970395694836042821e-06 1.177452304546022788e-05
2.037000000000000000e+03 4.352596282958984375e+01 2.956581115722656250e+00 -6.537711306009441614e-05 -1.166348101833136752e-05 -2.311217940587084740e-05 -3.312789704068563879e-05
2.038000000000000000e+03 4.462199401855468750e+01 2.543149471282958984e+00 -7.605285645695403218e-05 -1.243843962583923712e-05 -2.654738818819168955e-05 -3.645054675871506333e-05
2.039000000000000000e+03 4.430893707275390625e+01 2.927536392211914062e+01 -1.463543041609227657e-03 6.685234839096665382e-04 -2.385058760410174727e-04 -5.313070141710340977e-04
2.040000000000000000e+03 8.964628219604492188e+00 4.672340869903564453e+00 5.363223863241728395e-06 1.119294756790623069e-05 4.966851520293857902e-06 -1.754314507707022130e-05
2.041000000000000000e+03 6.172216415405273438e+00 4.005213260650634766e+00 3.125465809716843069e-06 6.997662239882629365e-06 3.036938551304046996e-06 -1.183714084618259221e-05
2.042000000000000000e+03 7.254634857177734375e+01 -3.175112724304199219e+01 -1.676362752914428711e-02 1.283694757148623466e-03 -4.643979948014020920e-03 3.267650725319981575e-03
2.043000000000000000e+03 7.330254364013671875e+01 -3.165612792968750000e+01 -1.442216522991657257e-02 6.284657865762710571e-03 -2.441252116113901138e-03 2.572661265730857849e-03
2.044000000000000000e+03 4.435804367065429688e+01 -1.733059310913085938e+01 2.071640892609138973e-06 1.856256858445703983e-06 1.178369302579085343e-06 8.266280815405480098e-07
2.045000000000000000e+03 4.371936798095703125e+01 -1.750426673889160156e+01 -1.578233650434412993e-06 -2.064664840872865170e-06 -1.092869524654815905e-06 -9.456983320887957234e-07
2.046000000000000000e+03 7.402944183349609375e+01 -3.154724884033203125e+01 -1.026514917612075806e-02 8.957901445683091879e-05 -3.052670974284410477e-03 4.665883723646402359e-03
2.047000000000000000e+03 1.592920017242431641e+01 2.369267225265502930e+00 1.838344542193226516e-05 6.119311819929862395e-06 7.350827218033373356e-06 -1.137915842264192179e-05
2.048000000000000000e+03 2.593182945251464844e+01 -8.336547851562500000e+00 5.588547082879813388e-06 1.491433522460283712e-06 2.123994136127294041e-06 -1.344123688795662019e-06
2.049000000000000000e+03 2.596105813980102539e+00 8.344967842102050781e+00 -5.302559657138772309e-06 1.076183434634003788e-05 1.637782247598806862e-06 -9.416876309842336923e-06
2.050000000000000000e+03 2.855342388153076172e+00 5.485646724700927734e+00 6.388042038452113047e-06 4.107668246433604509e-06 3.148713176415185444e-06 -7.654377441213000566e-06
2.051000000000000000e+03 3.315444707870483398e+00 3.932874679565429688e+00 -8.860943694344314281e-07 4.485532826947746798e-06 1.079831463357550092e-06 -4.646937668439932168e-06
2.052000000000000000e+03 2.600104331970214844e+00 4.024116039276123047e+00 5.016390787204727530e-06 2.336580791961750947e-06 2.205891632911516353e-06 -4.041458851133938879e-06
2.053000000000000000e+03 7.954484462738037109e+00 5.203674793243408203e+00 2.570981905591906980e-06 1.111455731006572023e-05 4.105661901121493429e-06 -1.723244167806115001e-05
2.054000000000000000e+03 8.301010131835937500e+00 4.425388813018798828e+00 8.016752872208599001e-06 -8.406421159179444658e-08 2.379806574026588351e-06 -5.106275239086244255e-06
2.055000000000000000e+03 7.114675521850585938e+00 3.372288465499877930e+00 5.106216121930629015e-06 7.751455086690839380e-06 3.857301180687500164e-06 -1.231583701155614108e-05
2.056000000000000000e+03 6.901892852783203125e+01 -7.806502819061279297e+00 1.443747133016586304e-01 1.992353796958923340e+00 6.410185694694519043e-01 4.187100231647491455e-01
2.057000000000000000e+03 6.799683380126953125e+01 -8.385592460632324219e+00 2.294274568557739258e-01 1.977029085159301758e+00 6.619369983673095703e-01 5.880661606788635254e-01
2.058000000000000000e+03 7.144545745849609375e+01 5.260218620300292969e+00 1.168439164757728577e-01 3.866202354431152344e+00 1.194913864135742188e+00 -7.013010233640670776e-02
2.059000000000000000e+03 1.866941094398498535e+00 4.124152183532714844e+00 -3.414483217056840658e-06 4.215739409119123593e-06 2.403768348813173361e-07 -2.264690920128487051e-06
2.060000000000000000e+03 1.865447878837585449e+00 3.358749151229858398e+00 4.250890924595296383e-06 1.475191425015509594e-06 1.717824716251925565e-06 -2.339646471227752045e-06
2.061000000000000000e+03 2.401274299621582031e+01 -6.622401714324951172e+00 7.497757906094193459e-06 3.103179778918274678e-06 3.180281282766372897e-06 -3.753545570361893624e-06
2.062000000000000000e+03 2.505684852600097656e+01 -5.771661758422851562e+00 8.509376129950396717e-06 2.055085587926441804e-06 3.169338697261991911e-06 -2.601201913421391509e-06
2.063000000000000000e+03 1.738811874389648438e+01 -1.616870313882827759e-01 1.540311313874553889e-05 1.504171336819126736e-06 5.072185103927040473e-06 -3.061514689761679620e-06
2.064000000000000000e+03 1.775149345397949219e+01 4.252821207046508789e-01 1.876788155641406775e-05 5.172515557205770165e-06 7.182119134085951373e-06 -1.108198102883761749e-05
2.065000000000000000e+03 4.074340820312500000e+01 1.791586494445800781e+01 -2.307231334270909429e-04 5.186255293665453792e-05 -5.365817560232244432e-05 2.114333256031386554e-05
2.066000000000000000e+03 4.306839370727539062e+01 -1.765078544616699219e+01 1.718903263281390537e-06 1.890662588266422972e-06 1.082869744095660280e-06 2.618050132241478423e-07
2.067000000000000000e+03 4.342057418823242188e+01 -2.738253974914550781e+01 -3.189979195594787598e-01 -1.746530413627624512e+00 -6.196585297584533691e-01 -9.676340222358703613e-01
2.068000000000000000e+03 4.425677490234375000e+01 -2.644359397888183594e+01 -1.625252366065979004e-01 -1.299740433692932129e+00 -4.386796951293945312e-01 -1.067598462104797363e+00
2.069000000000000000e+03 6.402757263183593750e+01 -1.701421165466308594e+01 -1.212275624275207520e+00 1.349792122840881348e+00 4.125496372580528259e-02 3.881541192531585693e-01
2.070000000000000000e+03 6.305677413940429688e+01 -1.835442161560058594e+01 -1.570478796958923340e+00 1.540616631507873535e+00 -8.958656340837478638e-03 7.711696028709411621e-01
2.071000000000000000e+03 7.752155303955078125e+01 2.551060676574707031e+00 6.904432922601699829e-02 -1.333016872406005859e+00 -3.791917562484741211e-01 -8.809547126293182373e-02
2.072000000000000000e+03 2.218880462646484375e+01 -2.367119312286376953e+00 1.407978925271891057e-05 -8.309380064019933343e-06 1.731122779347060714e-06 -2.711170736802159809e-07
2.073000000000000000e+03 2.172777557373046875e+01 -2.875411748886108398e+00 1.364800755254691467e-05 3.898454906448023394e-06 5.263938874122686684e-06 -7.229490165627794340e-06
2.074000000000000000e+03 4.247824096679687500e+01 2.425719070434570312e+01 5.657125075231306255e-05 7.046332029858604074e-05 3.811037095147185028e-05 -2.977194089908152819e-04
2.075000000000000000e+03 5.740158462524414062e+01 -2.175698471069335938e+01 -7.623657584190368652e-01 7.067846059799194336e-01 -1.667435280978679657e-02 1.841398179531097412e-01
2.076000000000000000e+03 2.233441543579101562e+01 -3.507733583450317383e+00 1.416715076629770920e-05 -6.271758138609584421e-06 2.368617742831702344e-06 -1.655486130403005518e-06
2.077000000000000000e+03 1.939662551879882812e+01 -1.674154281616210938e+00 1.677272848610300571e-05 4.949735739501193166e-06 6.516739176731789485e-06 -1.025124493025941774e-05
2.078000000000000000e+03 1.980570983886718750e+01 -1.117355346679687500e+00 1.480496484873583540e-05 -4.143576006754301488e-06 3.198416607119725086e-06 -9.331691899205907248e-07
2.079000000000000000e+03 7.104290771484375000e+01 1.406504154205322266e+01 6.624890118837356567e-02 3.522168159484863281e+00 1.076525092124938965e+00 -4.382300376892089844e-02
2.080000000000000000e+03 2.579556465148925781e+01 -9.431114196777343750e+00 4.783610620506806299e-06 1.594415948602545541e-06 1.913407913889386691e-06 -1.140705762736615725e-06
2.081000000000000000e+03 2.634950256347656250e+01 -9.065725326538085938e+00 4.876808361586881801e-06 -2.438342789901071228e-06 7.315397283491620328e-07 -2.881636419260757975e-06
2.082000000000000000e+03 7.747626495361328125e+01 2.420547294616699219e+01 5.984717980027198792e-02 -1.177190661430358887e+00 -3.352030515670776367e-01 1.335564702749252319e-01
2.083000000000000000e+03 1.881962966918945312e+01 -3.308295822143554688e+01 1.543161831796169281e-02 1.085111987777054310e-03 4.955019336193799973e-03 7.981668226420879364e-03
2.084000000000000000e+03 2.103882598876953125e+01 -3.434464645385742188e+01 1.107818074524402618e-02 5.443937843665480614e-04 3.486772300675511360e-03 9.697417728602886200e-03
2.085000000000000000e+03 6.833429718017578125e+01 3.463782882690429688e+01 -6.874212622642517090e-02 1.408842802047729492e+00 4.020301997661590576e-01 -3.096109628677368164e-01
2.086000000000000000e+03 6.899987030029296875e+01 3.397259140014648438e+01 -6.123876199126243591e-02 1.515015840530395508e+00 4.361331164836883545e-01 -2.406968027353286743e-01
2.087000000000000000e+03 4.642813491821289062e+01 -9.130766987800598145e-01 5.176360718905925751e-05 1.987734685826580971e-05 2.149228566850069910e-05 2.763788688753265887e-05
2.088000000000000000e+03 7.815405273437500000e+01 1.622388076782226562e+01 -2.293501980602741241e-03 -1.750296473503112793e+00 -5.257769823074340820e-01 -3.196988720446825027e-03
2.089000000000000000e+03 7.742536926269531250e+01 1.534903430938720703e+01 -1.049974188208580017e-02 -1.196732044219970703e+00 -3.621695339679718018e-01 -5.001834128051996231e-03
2.090000000000000000e+03 7.743354034423828125e+01 2.100106048583984375e+01 2.533274888992309570e-02 -1.199699163436889648e+00 -3.523099124431610107e-01 3.892686963081359863e-02
2.091000000000000000e+03 7.671093750000000000e+01 1.448299789428710938e+01 -2.607506513595581055e-02 -6.514413356781005859e-01 -2.032549083232879639e-01 -5.108028184622526169e-03
2.092000000000000000e+03 7.308738708496093750e+01 1.258243370056152344e+01 -1.368210911750793457e-01 2.109555244445800781e+00 5.918202996253967285e-01 -7.088614255189895630e-02
2.093000000000000000e+03 7.742933654785156250e+01 2.898599243164062500e+01 3.947413340210914612e-02 -9.221704006195068359e-01 -2.648088634014129639e-01 3.293655216693878174e-01
2.094000000000000000e+03 7.812969970703125000e+01 3.140038871765136719e+01 2.565513364970684052e-03 -1.035630702972412109e+00 -3.099195659160614014e-01 3.022455871105194092e-01
2.095000000000000000e+03 7.814692687988281250e+01 2.983479690551757812e+01 1.431721542030572891e-02 -1.219513416290283203e+00 -3.615588843822479248e-01 2.833725810050964355e-01
2.096000000000000000e+03 7.743898010253906250e+01 2.819337081909179688e+01 5.149218812584877014e-02 -9.782453179359436035e-01 -2.780259251594543457e-01 3.054602444171905518e-01
2.097000000000000000e+03 7.818072509765625000e+01 2.344589614868164062e+01 3.074993379414081573e-02 -1.703375220298767090e+00 -5.017876029014587402e-01 8.596470206975936890e-02
2.098000000000000000e+03 7.744824218750000000e+01 2.180359840393066406e+01 3.217695653438568115e-02 -1.201056122779846191e+00 -3.506637513637542725e-01 5.500662699341773987e-02
2.099000000000000000e+03 7.696333312988281250e+01 3.636120986938476562e+01 -7.430418580770492554e-02 -2.332359701395034790e-01 -9.226204454898834229e-02 2.941305041313171387e-01
2.100000000000000000e+03 7.182953643798828125e+01 2.391419601440429688e+01 2.515910565853118896e-01 2.929229497909545898e+00 9.542461633682250977e-01 -1.278544366359710693e-01
2.101000000000000000e+03 7.749877166748046875e+01 -1.188276290893554688e+01 -2.559054084122180939e-02 -4.144363105297088623e-01 -1.320080608129501343e-01 -2.585629224777221680e-01
2.102000000000000000e+03 7.817570495605468750e+01 9.003937721252441406e+00 -5.971461068838834763e-03 -1.827357172966003418e+00 -5.499985814094543457e-01 7.461317628622055054e-02
2.103000000000000000e+03 7.746692657470703125e+01 8.138436317443847656e+00 4.699505865573883057e-03 -1.280104517936706543e+00 -3.826215267181396484e-01 8.617144823074340820e-02
2.104000000000000000e+03 7.819927215576171875e+01 2.594221830368041992e+00 4.191146418452262878e-02 -1.871438860893249512e+00 -5.488582253456115723e-01 -6.687719374895095825e-02
2.105000000000000000e+03 7.748703002929687500e+01 9.400997161865234375e-01 7.316049933433532715e-02 -1.267171859741210938e+00 -3.582034111022949219e-01 -1.718865036964416504e-01
2.106000000000000000e+03 7.819066619873046875e+01 -4.635528564453125000e+00 9.026567451655864716e-03 -1.311489105224609375e+00 -3.907387554645538330e-01 -2.650139629840850830e-01
2.107000000000000000e+03 7.749580383300781250e+01 -5.496577739715576172e+00 5.183808039873838425e-03 -8.802478313446044922e-01 -2.625192105770111084e-01 -3.346869051456451416e-01
2.108000000000000000e+03 7.750625610351562500e+01 6.543089389801025391e+00 3.575947508215904236e-02 -1.327514290809631348e+00 -3.875264525413513184e-01 6.405485421419143677e-02
2.109000000000000000e+03 7.747196960449218750e+01 1.407023519277572632e-01 6.652452051639556885e-02 -1.227297782897949219e+00 -3.482320010662078857e-01 -2.079856395721435547e-01
2.110000000000000000e+03 7.749694824218750000e+01 -6.290330410003662109e+00 -1.842056517489254475e-03 -8.184762597084045410e-01 -2.460954934358596802e-01 -3.333232402801513672e-01
2.111000000000000000e+03 7.750196838378906250e+01 -1.267864513397216797e+01 -2.602851949632167816e-02 -3.660506308078765869e-01 -1.176237463951110840e-01 -2.402802109718322754e-01
2.112000000000000000e+03 7.817314910888671875e+01 1.060169792175292969e+01 -1.524625439196825027e-02 -1.790487766265869141e+00 -5.417202115058898926e-01 5.904154479503631592e-02
2.113000000000000000e+03 7.748336791992187500e+01 7.339552402496337891e+00 1.723789237439632416e-02 -1.302798390388488770e+00 -3.856681585311889648e-01 7.685633003711700439e-02
2.114000000000000000e+03 7.211925506591796875e+01 3.538456916809082031e+00 2.162178307771682739e-01 3.178016662597656250e+00 1.018270373344421387e+00 7.237999141216278076e-02
2.115000000000000000e+03 7.821148681640625000e+01 4.201931476593017578e+00 3.436943143606185913e-02 -1.911265254020690918e+00 -5.630687475204467773e-01 -1.048119366168975830e-02
2.116000000000000000e+03 7.753344726562500000e+01 3.355870723724365234e+00 6.382861733436584473e-02 -1.356031298637390137e+00 -3.876608014106750488e-01 -5.211481824517250061e-02
2.117000000000000000e+03 7.817259216308593750e+01 1.140457153320312500e+01 -1.709485799074172974e-02 -1.776543974876403809e+00 -5.380916595458984375e-01 4.734648391604423523e-02
2.118000000000000000e+03 7.745715332031250000e+01 1.214049243927001953e+01 -2.878696657717227936e-02 -1.217157840728759766e+00 -3.737834393978118896e-01 3.759721666574478149e-02
2.119000000000000000e+03 7.745890808105468750e+01 8.940592765808105469e+00 -9.426554664969444275e-03 -1.259842395782470703e+00 -3.807806968688964844e-01 8.562103658914566040e-02
2.120000000000000000e+03 7.816997528076171875e+01 1.220696735382080078e+01 -1.673078723251819611e-02 -1.764767765998840332e+00 -5.344495773315429688e-01 3.490138798952102661e-02
2.121000000000000000e+03 7.744862365722656250e+01 1.294037628173828125e+01 -2.660434693098068237e-02 -1.206961274147033691e+00 -3.700696825981140137e-01 2.403595857322216034e-02
2.122000000000000000e+03 7.821000671386718750e+01 5.001482963562011719e+00 3.157329559326171875e-02 -1.913962244987487793e+00 -5.647166967391967773e-01 1.687369868159294128e-02
2.123000000000000000e+03 7.753887176513671875e+01 4.152542591094970703e+00 5.554852634668350220e-02 -1.364025473594665527e+00 -3.925430774688720703e-01 -1.836629025638103485e-02
2.124000000000000000e+03 7.684262084960937500e+01 6.488640308380126953e+00 5.172879621386528015e-02 -7.943424582481384277e-01 -2.227841019630432129e-01 6.486353278160095215e-02
2.125000000000000000e+03 7.818666076660156250e+01 -3.027180671691894531e+00 1.933924108743667603e-02 -1.476654648780822754e+00 -4.371946156024932861e-01 -2.469726502895355225e-01
2.126000000000000000e+03 7.749559783935546875e+01 -4.700127601623535156e+00 1.422624848783016205e-02 -9.379748702049255371e-01 -2.771245837211608887e-01 -3.293320238590240479e-01
2.127000000000000000e+03 7.746042633056640625e+01 -6.644111871719360352e-01 5.665232241153717041e-02 -1.183077692985534668e+00 -3.379276096820831299e-01 -2.424417436122894287e-01
2.128000000000000000e+03 7.815783691406250000e+01 1.783512687683105469e+01 5.136058665812015533e-03 -1.755699038505554199e+00 -5.251688957214355469e-01 1.124119153246283531e-04
2.129000000000000000e+03 7.742520904541015625e+01 1.615654754638671875e+01 -2.709870692342519760e-03 -1.199067831039428711e+00 -3.605333268642425537e-01 -6.408103741705417633e-03
2.130000000000000000e+03 7.681056976318359375e+01 -3.961144924163818359e+00 3.104981966316699982e-02 -6.102166175842285156e-01 -1.737500429153442383e-01 -3.631374537944793701e-01
2.131000000000000000e+03 7.748307037353515625e+01 -3.095726966857910156e+00 3.330623358488082886e-02 -1.046603202819824219e+00 -3.039891123771667480e-01 -3.100819587707519531e-01
2.132000000000000000e+03 7.746912384033203125e+01 -2.289317131042480469e+00 4.096086323261260986e-02 -1.092228651046752930e+00 -3.153803348541259766e-01 -2.940386831760406494e-01
2.133000000000000000e+03 7.815913391113281250e+01 1.863927841186523438e+01 8.463189005851745605e-03 -1.756763577461242676e+00 -5.244901180267333984e-01 5.906630773097276688e-03
2.134000000000000000e+03 7.247116088867187500e+01 1.580960464477539062e+01 3.852938115596771240e-02 2.521593093872070312e+00 7.680367231369018555e-01 -7.066417019814252853e-03
2.135000000000000000e+03 7.742636871337890625e+01 2.019531440734863281e+01 2.230451814830303192e-02 -1.197940111160278320e+00 -3.526906967163085938e-01 2.577737532556056976e-02
2.136000000000000000e+03 7.742606353759765625e+01 1.938740539550781250e+01 1.966824382543563843e-02 -1.200585365295410156e+00 -3.542751371860504150e-01 1.309469435364007950e-02
2.137000000000000000e+03 7.819632720947265625e+01 -9.428966522216796875e+00 -1.002800278365612030e-02 -8.033287525177001953e-01 -2.440070360898971558e-01 -2.388606220483779907e-01
2.138000000000000000e+03 7.749696350097656250e+01 -1.027133369445800781e+01 -2.145774289965629578e-02 -5.223343968391418457e-01 -1.631376445293426514e-01 -2.886920571327209473e-01
2.139000000000000000e+03 7.818007659912109375e+01 2.424702644348144531e+01 3.345797210931777954e-02 -1.672494888305664062e+00 -4.917110502719879150e-01 1.126866340637207031e-01
2.140000000000000000e+03 7.746510314941406250e+01 2.260516166687011719e+01 4.517474398016929626e-02 -1.202313661575317383e+00 -3.471416532993316650e-01 7.415325194597244263e-02
2.141000000000000000e+03 7.819680023193359375e+01 -8.628047943115234375e+00 -7.172125391662120819e-03 -8.854711651802062988e-01 -2.677929997444152832e-01 -2.479843646287918091e-01
2.142000000000000000e+03 7.680944824218750000e+01 -1.108762264251708984e+01 -3.818474709987640381e-02 -2.870858907699584961e-01 -9.758119285106658936e-02 -3.147499859333038330e-01
2.143000000000000000e+03 7.749985504150390625e+01 -7.081342220306396484e+00 -8.054216392338275909e-03 -7.609928846359252930e-01 -2.307141274213790894e-01 -3.291847705841064453e-01
2.144000000000000000e+03 7.680998229980468750e+01 -1.027814579010009766e+01 -3.151834011077880859e-02 -3.253739178180694580e-01 -1.070676818490028381e-01 -3.293922245502471924e-01
2.145000000000000000e+03 7.820958709716796875e+01 -1.504150485992431641e+01 -1.337715610861778259e-02 -3.349181413650512695e-01 -1.044885888695716858e-01 -1.511533260345458984e-01
2.146000000000000000e+03 7.747511291503906250e+01 2.340584945678710938e+01 5.431143566966056824e-02 -1.195318102836608887e+00 -3.423020243644714355e-01 1.027816236019134521e-01
2.147000000000000000e+03 7.181664276123046875e+01 2.302548027038574219e+01 1.673064082860946655e-01 2.986885309219360352e+00 9.462575316429138184e-01 -1.086138561367988586e-01
2.148000000000000000e+03 7.745964813232421875e+01 2.660215377807617188e+01 6.531508266925811768e-02 -1.080707073211669922e+00 -3.046176135540008545e-01 2.349961698055267334e-01
2.149000000000000000e+03 7.752680206298828125e+01 -1.748256683349609375e+01 -2.446604520082473755e-02 -1.415060460567474365e-01 -4.979162663221359253e-02 -1.428069621324539185e-01
2.150000000000000000e+03 7.752689361572265625e+01 -1.668543052673339844e+01 -2.397711016237735748e-02 -1.711599975824356079e-01 -5.854113399982452393e-02 -1.590951681137084961e-01
2.151000000000000000e+03 7.750546264648437500e+01 -1.347293472290039062e+01 -2.617674134671688080e-02 -3.213384449481964111e-01 -1.042545586824417114e-01 -2.252217680215835571e-01
2.152000000000000000e+03 7.750887298583984375e+01 -1.427383041381835938e+01 -2.621011435985565186e-02 -2.784305512905120850e-01 -9.139220416545867920e-02 -2.070052474737167358e-01
2.153000000000000000e+03 7.751366424560546875e+01 -1.508011436462402344e+01 -2.532112784683704376e-02 -2.394969612360000610e-01 -7.944542914628982544e-02 -1.914748549461364746e-01
2.154000000000000000e+03 7.819866180419921875e+01 -1.906503868103027344e+01 -1.369733083993196487e-02 -1.260701268911361694e-01 -4.193023592233657837e-02 -9.119833260774612427e-02
2.155000000000000000e+03 7.635561370849609375e+01 -2.307104682922363281e+01 -4.456760361790657043e-02 5.970731377601623535e-03 -1.157906185835599899e-02 -4.423030093312263489e-02
2.156000000000000000e+03 7.748464202880859375e+01 -1.910345268249511719e+01 -2.682702057063579559e-02 -8.692610263824462891e-02 -3.412593901157379150e-02 -1.142262965440750122e-01
2.157000000000000000e+03 7.750905609130859375e+01 -2.079236602783203125e+01 -2.871019393205642700e-02 -4.685407504439353943e-02 -2.266927994787693024e-02 -8.093874901533126831e-02
2.158000000000000000e+03 7.757220458984375000e+01 -2.266276550292968750e+01 -2.342520095407962799e-02 -2.049260772764682770e-02 -1.317534316331148148e-02 -4.382266849279403687e-02
2.159000000000000000e+03 7.738513183593750000e+01 3.207007217407226562e+01 -6.478111259639263153e-03 -6.568325161933898926e-01 -1.989931911230087280e-01 3.768817484378814697e-01
2.160000000000000000e+03 7.807713317871093750e+01 3.370820617675781250e+01 -1.705205254256725311e-02 -7.575635910034179688e-01 -2.323846966028213501e-01 2.932521104812622070e-01
2.161000000000000000e+03 7.725136566162109375e+01 3.426205444335937500e+01 -3.865903243422508240e-02 -4.453096985816955566e-01 -1.451906263828277588e-01 3.560607731342315674e-01
2.162000000000000000e+03 7.665888214111328125e+01 3.196734428405761719e+01 -4.915809840895235538e-04 -3.687172830104827881e-01 -1.107626557350158691e-01 4.248282611370086670e-01
2.163000000000000000e+03 7.674836730957031250e+01 3.701374053955078125e+01 -8.345904946327209473e-02 -1.808587461709976196e-01 -7.929533720016479492e-02 2.737832665443420410e-01
2.164000000000000000e+03 4.236545944213867188e+01 2.119815635681152344e+01 2.701312769204378128e-04 3.313507841085083783e-05 9.097991278395056725e-05 -1.252148504136130214e-04
2.165000000000000000e+03 7.109155273437500000e+01 2.132717514038085938e+01 4.072310402989387512e-02 3.633583545684814453e+00 1.102292060852050781e+00 -5.761108547449111938e-02
2.166000000000000000e+03 7.177030944824218750e+01 2.136807823181152344e+01 6.620241701602935791e-02 3.100327730178833008e+00 9.499590992927551270e-01 -6.097245961427688599e-02
2.167000000000000000e+03 6.736059665679931641e+00 -2.414807891845703125e+01 -9.106553625315427780e-05 2.492838830221444368e-04 4.746550621348433197e-05 4.593461926560848951e-04
2.168000000000000000e+03 2.615794897079467773e+00 2.441130447387695312e+01 -2.215906533820088953e-05 3.257411663071252406e-05 3.124515615127165802e-06 -4.142061243328498676e-06
2.169000000000000000e+03 2.105730533599853516e+00 3.522357177734375000e+01 3.565831502783112228e-05 3.294018824817612767e-05 2.057955134660005569e-05 -3.857653609884437174e-06
2.170000000000000000e+03 3.989513874053955078e+00 3.753758239746093750e+01 -4.130398883717134595e-05 3.060109520447440445e-05 -3.210868271708022803e-06 4.631848241842817515e-06
2.171000000000000000e+03 1.803339242935180664e+00 -8.933846473693847656e+00 -1.390524703310802579e-04 -6.552747890964383259e-06 -4.368156442069448531e-05 -2.623893851705361158e-05
2.172000000000000000e+03 5.906318664550781250e+00 -4.714383602142333984e+00 -2.695147668418940157e-05 -2.330980896658729762e-05 -1.507838533143512905e-05 -3.345596269355155528e-05
2.173000000000000000e+03 3.026450872421264648e+00 -3.786392974853515625e+01 6.394272204488515854e-04 1.334225293248891830e-03 5.920957773923873901e-04 1.564244739711284637e-04
2.174000000000000000e+03 1.935552835464477539e+00 -2.982374954223632812e+01 -6.284721312113106251e-04 4.439665644895285368e-05 -1.752226380631327629e-04 8.699760655872523785e-05
2.175000000000000000e+03 2.641909360885620117e+00 -2.893523597717285156e+01 -6.667114212177693844e-04 1.024179946398362517e-04 -1.692880323389545083e-04 9.854987001745030284e-05
2.176000000000000000e+03 1.773225545883178711e+00 -1.610525703430175781e+01 3.468496433924883604e-04 1.097022686735726893e-05 1.073459570761770010e-04 7.944809476612135768e-05
2.177000000000000000e+03 2.458189487457275391e+00 -1.523034763336181641e+01 3.164163499604910612e-04 2.238224806205835193e-05 1.016395835904404521e-04 9.284912812290713191e-05
2.178000000000000000e+03 1.817395448684692383e+00 -2.253742027282714844e+01 5.382855306379497051e-04 -1.562212128192186356e-05 1.567990257171913981e-04 5.760902422480285168e-05
2.179000000000000000e+03 2.555010080337524414e+00 -2.162870979309082031e+01 5.060793482698500156e-04 1.042520034388871863e-05 1.549513544887304306e-04 8.037013321882113814e-05
2.180000000000000000e+03 2.580714464187622070e+00 -2.731563377380371094e+01 -7.039409829303622246e-04 6.812479114159941673e-05 -1.907448604470118880e-04 -7.080416708049597219e-06
2.181000000000000000e+03 2.556160449981689453e+00 -2.081177711486816406e+01 -4.948083078488707542e-04 -2.132816371158696711e-05 -1.548409491078928113e-04 -1.003439829219132662e-04
2.182000000000000000e+03 2.465690135955810547e+00 -1.445208072662353516e+01 -2.848854055628180504e-04 -2.920380757132079452e-05 -9.422676521353423595e-05 -8.091488416539505124e-05
2.183000000000000000e+03 2.470999240875244141e+00 -1.367349624633789062e+01 2.569532953202724457e-04 3.124883005511946976e-05 8.646063361084088683e-05 6.871042569400742650e-05
2.184000000000000000e+03 2.891716003417968750e+00 -3.543803024291992188e+01 -8.647653739899396896e-04 1.110814278945326805e-03 7.381467003142461181e-05 8.996817632578313351e-04
2.185000000000000000e+03 1.778297305107116699e+00 -1.769298744201660156e+01 3.932941181119531393e-04 4.815546162717510015e-06 1.194328942801803350e-04 7.166336581576615572e-05
2.186000000000000000e+03 2.451511859893798828e+00 -1.600693321228027344e+01 -3.530121757648885250e-04 -1.224552033818326890e-05 -1.095773041015490890e-04 -9.921232413034886122e-05
2.187000000000000000e+03 7.997161865234375000e+00 -1.807253837585449219e+01 9.653191955294460058e-05 -5.243544364930130541e-05 1.322894331678980961e-05 -6.472263339674100280e-05
2.188000000000000000e+03 2.483910322189331055e+00 -1.836606979370117188e+01 4.237322718836367130e-04 3.242190587116056122e-06 1.280923461308702826e-04 7.894261216279119253e-05
2.189000000000000000e+03 2.460292816162109375e+00 -1.756768226623535156e+01 -4.098853096365928650e-04 7.109786110959248617e-07 -1.227523025590926409e-04 -9.290922025684267282e-05
2.190000000000000000e+03 8.858024597167968750e+00 -1.680348014831542969e+01 1.515455369371920824e-04 2.635915188875515014e-05 5.337140828487463295e-05 -5.674723797710612416e-05
2.191000000000000000e+03 2.491686344146728516e+00 1.394306755065917969e+01 7.161263511079596356e-06 1.990480450331233442e-05 8.119820449792314321e-06 -2.367138904446619563e-06
2.192000000000000000e+03 1.782237529754638672e+00 1.070531940460205078e+01 -6.563991973962401971e-06 1.625397817406337708e-05 2.906995632656617090e-06 -6.720774308632826433e-06
2.193000000000000000e+03 2.507064104080200195e+00 1.073807907104492188e+01 6.079946160753024742e-06 1.402885027346201241e-05 6.032638793840305880e-06 -2.309456931470776908e-06
2.194000000000000000e+03 2.489513874053955078e+00 1.233356571197509766e+01 6.511660558317089453e-06 1.707249430182855576e-05 7.075246685417369008e-06 -2.270014192617964000e-06
2.195000000000000000e+03 3.945760011672973633e+00 1.407714939117431641e+01 5.503223746927687898e-06 1.703402085695415735e-05 6.761173153790878132e-06 -2.423308615107089281e-06
2.196000000000000000e+03 1.808303952217102051e+00 -2.414703750610351562e+01 5.942648276686668396e-04 -4.659290789277292788e-05 1.643015857553109527e-04 1.479360162193188444e-05
2.197000000000000000e+03 2.544343471527099609e+00 -2.244088935852050781e+01 -5.896742804907262325e-04 2.156573827960528433e-05 -1.704325550235807896e-04 -1.193400094052776694e-04
2.198000000000000000e+03 2.539602994918823242e+00 2.037167739868164062e+01 1.461768442823085934e-05 2.581413355073891580e-05 1.212954521179199219e-05 -1.894500542221067008e-06
2.199000000000000000e+03 1.790079355239868164e+00 -1.054432487487792969e+01 -1.746366760926321149e-04 -1.165467710961820558e-05 -5.588740532402880490e-05 -3.280308737885206938e-05
2.200000000000000000e+03 2.514203786849975586e+00 -8.913897514343261719e+00 1.427792885806411505e-04 5.770737971033668146e-06 4.456500755622982979e-05 2.467718513798899949e-05
2.201000000000000000e+03 3.264569282531738281e+00 -8.142532348632812500e+00 1.331114617642015219e-04 8.038225018935918342e-07 4.017458559246733785e-05 1.838729622249957174e-05
2.202000000000000000e+03 1.817661046981811523e+00 9.097890853881835938e+00 -6.062076863599941134e-06 1.289978717977646738e-05 2.051313003903487697e-06 -6.873791335237910971e-06
2.203000000000000000e+03 2.557635784149169922e+00 9.138771057128906250e+00 5.923969183641020209e-06 1.101805537473410368e-05 5.082607458462007344e-06 -2.444938900225679390e-06
2.204000000000000000e+03 1.824853539466857910e+00 -2.577163314819335938e+01 6.377506069839000702e-04 -4.940181315760128200e-05 1.765046326909214258e-04 -2.387710264883935452e-05
2.205000000000000000e+03 2.517404556274414062e+00 -2.486736679077148438e+01 6.626254180446267128e-04 -4.910176721750758588e-05 1.840571057982742786e-04 -2.652331022545695305e-05
2.206000000000000000e+03 2.519254922866821289e+00 1.875431251525878906e+01 1.219592195411678404e-05 2.541238245612476021e-05 1.128249095927458256e-05 -2.578724661361775361e-06
2.207000000000000000e+03 2.513478040695190430e+00 1.795663452148437500e+01 -1.225797404913464561e-05 2.608534305181819946e-05 4.148210337007185444e-06 -4.524743417277932167e-06
2.208000000000000000e+03 2.527884960174560547e+00 1.955993843078613281e+01 -1.469285780331119895e-05 2.839855005731806159e-05 4.111707767151528969e-06 -3.405930783628718928e-06
2.209000000000000000e+03 1.810920357704162598e+00 2.034963607788085938e+01 -1.553394940856378525e-05 3.198877675458788872e-05 4.936448476655641571e-06 -1.923993295349646360e-06
2.210000000000000000e+03 3.262689590454101562e+00 1.960837745666503906e+01 1.277359206142136827e-05 2.233509985671844333e-05 1.053260803018929437e-05 -2.373885081397020258e-06
2.211000000000000000e+03 2.603089332580566406e+00 -2.812574195861816406e+01 8.187841158360242844e-04 -2.500943446648307145e-05 2.381324011366814375e-04 -4.748423816636204720e-05
2.212000000000000000e+03 5.608159065246582031e+00 -2.532137489318847656e+01 3.842846490442752838e-04 1.469864364480599761e-04 1.593813212821260095e-04 3.770226903725415468e-04
2.213000000000000000e+03 1.796017289161682129e+00 9.902359008789062500e+00 6.288574695645365864e-06 1.328709186054766178e-05 5.872700057807378471e-06 -2.025492449320154265e-06
2.214000000000000000e+03 2.539268732070922852e+00 -8.104408264160156250e+00 -1.268074702238664031e-04 -4.351879852038109675e-06 -3.934780397685244679e-05 -2.392152600805275142e-05
2.215000000000000000e+03 2.489157676696777344e+00 -1.051440620422363281e+01 1.764296903274953365e-04 1.474845794291468337e-05 5.735344529966823757e-05 3.157555329380556941e-05
2.216000000000000000e+03 2.497247219085693359e+00 -9.718729019165039062e+00 -1.585646095918491483e-04 -9.658951967139728367e-06 -5.046706792199984193e-05 -2.686807602003682405e-05
2.217000000000000000e+03 2.528559446334838867e+00 9.940168380737304688e+00 -6.062408374418737367e-06 1.401400277245556936e-05 2.385478410360519774e-06 -9.347580999019555748e-06
2.218000000000000000e+03 1.945272088050842285e+00 2.762717437744140625e+01 2.444995334371924400e-05 3.029719664482399821e-05 1.642414463276509196e-05 3.517194272717460990e-06
2.219000000000000000e+03 2.740869998931884766e+00 2.766450500488281250e+01 -2.505849079170729965e-05 2.849937482096720487e-05 1.032265004141663667e-06 -3.031609139725333080e-06
2.220000000000000000e+03 3.486712455749511719e+00 -4.123906612396240234e+00 -5.666810102411545813e-05 -3.523703526298049837e-06 -1.805754072847776115e-05 -2.224296804342884570e-05
2.221000000000000000e+03 1.840016365051269531e+00 -6.534266471862792969e+00 9.502421744400635362e-05 8.014057129912544042e-06 3.091148028033785522e-05 2.079941259580664337e-05
2.222000000000000000e+03 7.688339233398437500e+00 -2.576419830322265625e+01 4.137436917517334223e-04 1.509138237452134490e-04 1.693972590146586299e-04 3.953481209464371204e-04
2.223000000000000000e+03 3.918641567230224609e+00 4.554927349090576172e+00 3.585190313515340677e-07 5.306371804181253538e-06 1.699467247817665339e-06 -8.602387424616608769e-06
2.224000000000000000e+03 1.916516065597534180e+00 4.913091659545898438e+00 6.039150321157649159e-06 2.972931952172075398e-06 2.703624659261549823e-06 -3.715840648510493338e-06
2.225000000000000000e+03 2.503213644027709961e+00 1.635711097717285156e+01 -1.000350312096998096e-05 2.383824357821140438e-05 4.150421773374546319e-06 -5.937796686339424923e-06
2.226000000000000000e+03 2.508684873580932617e+00 1.716111946105957031e+01 9.955348104995209724e-06 2.437509101582691073e-05 1.029913164529716596e-05 -2.641903392941458151e-06
2.227000000000000000e+03 1.786434173583984375e+00 1.632977867126464844e+01 9.367067832499742508e-06 2.574516474851407111e-05 1.053367032000096515e-05 -2.282582045154413208e-06
2.228000000000000000e+03 2.703240871429443359e+00 -3.373529911041259766e+00 -4.559023000183515251e-05 -3.221864062652457505e-06 -1.464362776459893212e-05 -1.554420487082097679e-05
2.229000000000000000e+03 1.855152964591979980e+00 -5.748062610626220703e+00 -8.023486589081585407e-05 -7.148903023335151374e-06 -2.621512976475059986e-05 -1.734624856908340007e-05
2.230000000000000000e+03 3.337205886840820312e+00 -7.339745044708251953e+00 -1.202746134367771447e-04 -9.113491614698432386e-07 -3.635578832472674549e-05 -2.238109482277650386e-05
2.231000000000000000e+03 2.702047586441040039e+00 2.684565925598144531e+01 2.320281782886013389e-05 2.563030466262716800e-05 1.464993692934513092e-05 5.602081273536896333e-06
2.232000000000000000e+03 3.634757995605468750e+00 2.935522651672363281e+01 2.325844070583116263e-05 2.410635352134704590e-05 1.420943772245664150e-05 3.139737373203388415e-06
2.233000000000000000e+03 2.637722015380859375e+00 2.521756553649902344e+01 2.168657920265104622e-05 2.499393667676486075e-05 1.400415476382477209e-05 4.484764758672099560e-06
2.234000000000000000e+03 2.666988611221313477e+00 2.602949333190917969e+01 -2.359604332013987005e-05 3.113975253654643893e-05 2.263113401568261907e-06 -4.355657438281923532e-06
2.235000000000000000e+03 1.861728668212890625e+00 2.438018608093261719e+01 2.079212572425603867e-05 2.996911462105344981e-05 1.522837283118860796e-05 1.869768652795755770e-06
2.236000000000000000e+03 2.596070766448974609e+00 2.359792900085449219e+01 1.948693170561455190e-05 2.485177174094133079e-05 1.330161103396676481e-05 2.030474206549115479e-06
2.237000000000000000e+03 1.848692655563354492e+00 2.357040977478027344e+01 -2.047838643193244934e-05 3.491622555884532630e-05 4.331352101871743798e-06 -2.302655047969892621e-06
2.238000000000000000e+03 2.012805938720703125e+00 -3.145416831970214844e+01 -6.351261981762945652e-04 1.665930467424914241e-04 -1.405599468853324652e-04 2.056700031971558928e-04
2.239000000000000000e+03 2.697600364685058594e+00 -2.975303077697753906e+01 8.711675764061510563e-04 5.956250970484688878e-05 2.792190352920442820e-04 4.026492024422623217e-05
2.240000000000000000e+03 3.617679834365844727e+00 -3.134690284729003906e+01 -4.204955475870519876e-04 2.275929291499778628e-04 -5.787078407593071461e-05 4.641410196200013161e-04
2.241000000000000000e+03 2.759469509124755859e+00 -3.057498550415039062e+01 -5.729749682359397411e-04 1.518609060440212488e-04 -1.263342128368094563e-04 2.517055254429578781e-04
2.242000000000000000e+03 2.885240793228149414e+00 -3.305553054809570312e+01 9.865717729553580284e-04 3.662520612124353647e-04 4.058471531607210636e-04 4.436197050381451845e-04
2.243000000000000000e+03 3.085688591003417969e+00 3.200086593627929688e+01 3.882812961819581687e-05 2.250630495836958289e-05 1.840033110056538135e-05 1.899142745287463185e-07
2.244000000000000000e+03 2.392784118652343750e+00 3.315153884887695312e+01 2.994522219523787498e-05 4.263265509507618845e-05 2.177336318709421903e-05 -4.323458597355056554e-06
2.245000000000000000e+03 2.914567947387695312e+00 3.100085449218750000e+01 -3.897935312124900520e-05 2.952766590169630945e-05 -2.835506393239484169e-06 5.653384505421854556e-06
2.246000000000000000e+03 2.402760744094848633e+00 3.396659088134765625e+01 -1.886968675535172224e-05 1.414466441929107532e-05 -1.417506496181886178e-06 -3.286522314738249406e-06
2.247000000000000000e+03 2.881637811660766602e+00 -3.472694015502929688e+01 1.004424528218805790e-03 3.891440283041447401e-04 4.180705582257360220e-04 3.177154576405882835e-04
2.248000000000000000e+03 2.941183805465698242e+00 -3.392478179931640625e+01 -6.494414992630481720e-04 6.668422138318419456e-04 5.220202638156479225e-06 6.346703739836812019e-04
2.249000000000000000e+03 2.118032693862915039e+00 3.187932205200195312e+01 -2.932120332843624055e-05 2.789881546050310135e-05 -4.267160704785055714e-07 -1.203693500428926200e-06
2.250000000000000000e+03 7.177441406250000000e+01 1.978339576721191406e+01 3.410814702510833740e-02 3.106556415557861328e+00 9.421993494033813477e-01 -1.783784851431846619e-02
2.251000000000000000e+03 7.669953918457031250e+01 1.690621185302734375e+01 5.243046674877405167e-03 -6.508156061172485352e-01 -1.936717629432678223e-01 -7.455091923475265503e-03
2.252000000000000000e+03 7.487854957580566406e+00 -2.154825401306152344e+01 5.928483442403376102e-04 -5.360263094189576805e-05 1.617737143533304334e-04 -3.305784775875508785e-05
2.253000000000000000e+03 7.159382820129394531e+00 -2.333259391784667969e+01 4.077654739376157522e-04 -1.342335453955456614e-04 8.205957419704645872e-05 -1.478609920013695955e-04
2.254000000000000000e+03 7.144583129882812500e+01 4.415657997131347656e+00 1.125277057290077209e-01 3.870038747787475586e+00 1.194769978523254395e+00 2.143617346882820129e-02
2.255000000000000000e+03 7.109294128417968750e+01 1.892938232421875000e+01 1.547673903405666351e-02 3.627370834350585938e+00 1.092854261398315430e+00 -4.396204836666584015e-03
2.256000000000000000e+03 7.068408203125000000e+01 -1.488682150840759277e+00 2.375619709491729736e-01 3.420067548751831055e+00 1.097288846969604492e+00 4.179971516132354736e-01
2.257000000000000000e+03 7.178338623046875000e+01 1.899201583862304688e+01 2.339935861527919769e-02 3.098447322845458984e+00 9.365540146827697754e-01 -4.392165224999189377e-03
2.258000000000000000e+03 3.120628118515014648e+00 -1.743622589111328125e+01 4.141979152336716652e-04 -6.525023763970239088e-06 1.223018625751137733e-04 1.175896177301183343e-04
2.259000000000000000e+03 7.176567840576171875e+01 1.494257736206054688e+01 5.337825790047645569e-02 3.030519008636474609e+00 9.251691699028015137e-01 -1.762690581381320953e-02
2.260000000000000000e+03 7.177802276611328125e+01 1.576035690307617188e+01 5.677995830774307251e-02 3.044675350189208984e+00 9.304365515708923340e-01 1.158284861594438553e-02
2.261000000000000000e+03 5.133221817016601562e+01 3.409717941284179688e+01 -1.596582867205142975e-02 3.395058913156390190e-03 -3.771230811253190041e-03 2.774845575913786888e-03
2.262000000000000000e+03 4.942772293090820312e+01 3.248426818847656250e+01 -7.980000227689743042e-03 -4.888801486231386662e-04 -2.540664048865437508e-03 -1.329955412074923515e-03
2.263000000000000000e+03 3.056826353073120117e+00 -3.876781463623046875e+01 -8.735900046303868294e-04 1.339751877821981907e-03 1.398485474055632949e-04 1.251330133527517319e-03
2.264000000000000000e+03 2.614298582077026367e+00 -6.512166023254394531e+00 -9.732195758260786533e-05 -8.702867489773780107e-06 -3.180744533892720938e-05 -2.232121369161177427e-05
2.265000000000000000e+03 5.897149085998535156e+00 -3.264750957489013672e+00 -2.914841934398282319e-05 -1.752084608597215265e-05 -1.400077962898649275e-05 -2.875740756280720234e-05
2.266000000000000000e+03 6.641546249389648438e+00 -3.932450056076049805e+00 -2.741829666774719954e-05 -2.264617796754464507e-05 -1.501934184489073232e-05 -2.936765667982399464e-05
2.267000000000000000e+03 4.294735908508300781e+00 -4.093381404876708984e+00 5.198346116230823100e-05 7.137016382330330089e-06 1.773614349076524377e-05 2.971864887513220310e-05
2.268000000000000000e+03 5.092994689941406250e+00 -4.046655654907226562e+00 -4.023549627163447440e-05 -1.409422930009895936e-05 -1.629891630727797747e-05 -3.470440788078121841e-05
2.269000000000000000e+03 7.372131347656250000e+00 -3.899564504623413086e+00 2.734587906161323190e-05 2.480395960446912795e-05 1.564495141792576760e-05 2.726427010202314705e-05
2.270000000000000000e+03 9.105553627014160156e+00 -5.286718368530273438e+00 -6.588037649635225534e-05 -1.398375297867460176e-05 -2.395923911535646766e-05 -1.425998289050767198e-05
2.271000000000000000e+03 7.045712280273437500e+01 -2.298523664474487305e+00 2.189383506774902344e-01 3.235073566436767578e+00 1.036203622817993164e+00 4.671303927898406982e-01
2.272000000000000000e+03 7.460992431640625000e+01 1.051131629943847656e+01 -9.980245679616928101e-02 1.010584354400634766e+00 2.732345759868621826e-01 6.480919569730758667e-02
2.273000000000000000e+03 5.603762054443359375e+01 -2.196360397338867188e+01 -1.172401905059814453e+00 2.583988904953002930e-01 -2.742009162902832031e-01 -4.789965748786926270e-01
2.274000000000000000e+03 3.431453323364257812e+01 -1.627071380615234375e+01 2.712759851419832557e-06 1.696122808425570838e-06 1.322664843428356107e-06 2.491213081157184206e-06
2.275000000000000000e+03 2.850080490112304688e+01 -3.443920516967773438e+01 5.950217600911855698e-03 -1.350431237369775772e-02 -2.266228199005126953e-03 -7.200969383120536804e-03
2.276000000000000000e+03 6.488732910156250000e+01 -1.581257247924804688e+01 -8.082858920097351074e-01 1.235295057296752930e+00 1.281027495861053467e-01 2.803584039211273193e-01
2.277000000000000000e+03 6.833694458007812500e+01 -1.889187240600585938e+01 -1.507975310087203979e-01 6.334254741668701172e-01 1.447883844375610352e-01 5.891275405883789062e-01
2.278000000000000000e+03 7.804208374023437500e+01 -3.298681640625000000e+01 5.811977316625416279e-04 -4.855237901210784912e-03 -1.282211975194513798e-03 4.569090437144041061e-03
2.279000000000000000e+03 7.493614196777343750e+01 -3.210560607910156250e+01 -8.189555257558822632e-03 -1.086138887330889702e-03 -2.782708266749978065e-03 7.400000467896461487e-03
2.280000000000000000e+03 7.532251739501953125e+01 -3.411854934692382812e+01 -1.128125935792922974e-02 6.589515251107513905e-04 -3.186692250892519951e-03 1.152296923100948334e-02
2.281000000000000000e+03 7.812274169921875000e+01 -3.219717788696289062e+01 -3.945754840970039368e-03 -2.507203258574008942e-03 -1.935887383297085762e-03 3.653176594525575638e-03
2.282000000000000000e+03 7.539617919921875000e+01 -3.128829956054687500e+01 -5.324610508978366852e-03 -1.294169807806611061e-03 -1.985633978620171547e-03 4.104486200958490372e-03
2.283000000000000000e+03 6.898899078369140625e+01 -6.178843975067138672e+00 2.312496751546859741e-01 2.432241678237915039e+00 7.990474104881286621e-01 5.964547395706176758e-01
2.284000000000000000e+03 7.802411651611328125e+01 -3.865494537353515625e+01 -5.346621619537472725e-04 -2.524143457412719727e-02 -7.732829079031944275e-03 6.475338712334632874e-03
2.285000000000000000e+03 7.472309112548828125e+01 -3.140610694885253906e+01 -9.411562234163284302e-03 3.273396287113428116e-03 -1.841449644416570663e-03 3.717441344633698463e-03
2.286000000000000000e+03 4.262318801879882812e+01 2.205987930297851562e+01 -3.760104300454258919e-04 1.634548061701934785e-05 -1.078994901035912335e-04 9.748063894221559167e-05
2.287000000000000000e+03 4.154436111450195312e+01 2.140809631347656250e+01 -3.577717870939522982e-04 4.455872840480878949e-05 -9.396392124472185969e-05 4.927570626023225486e-05
2.288000000000000000e+03 7.547869873046875000e+01 -4.089218139648437500e+00 5.520071089267730713e-02 1.252669245004653931e-01 5.414028838276863098e-02 -3.838871121406555176e-01
2.289000000000000000e+03 7.062973785400390625e+01 -4.034223079681396484e+00 1.720962673425674438e-01 2.575214624404907227e+00 8.241932392120361328e-01 3.130191862583160400e-01
2.290000000000000000e+03 7.744651794433593750e+01 -3.135919380187988281e+01 -4.328939598053693771e-03 -9.637745679356157780e-04 -1.587814302183687687e-03 3.168565919622778893e-03
2.291000000000000000e+03 4.791014862060546875e+01 -6.681148052215576172e+00 -2.271719677082728595e-05 -6.628654773521702737e-06 -8.803755918052047491e-06 -9.027578926179558039e-06
2.292000000000000000e+03 4.707294082641601562e+01 -1.652723884582519531e+01 2.919711960203130729e-06 1.655659161770017818e-06 1.372611336591944564e-06 1.666134721745038405e-06
2.293000000000000000e+03 4.635592651367187500e+01 -1.672689056396484375e+01 -2.217548171756789088e-06 -2.220883743575541303e-06 -1.331529460912861396e-06 -1.979284661501878873e-06
2.294000000000000000e+03 5.671917724609375000e+01 -2.556486129760742188e+01 3.063019514083862305e+00 3.332923173904418945e+00 1.918782830238342285e+00 2.183600902557373047e+00
2.295000000000000000e+03 2.743909835815429688e+01 -1.120562934875488281e+01 4.624983375833835453e-06 -4.062014369310418260e-08 1.375309011564240791e-06 -7.797284951038818690e-08
2.296000000000000000e+03 2.710172653198242188e+01 -1.050367736816406250e+01 2.276816303492523730e-06 -1.073647354132845066e-06 3.609506507018522825e-07 -2.574739937699632719e-06
2.297000000000000000e+03 3.689223480224609375e+01 -1.698766708374023438e+01 -1.515057192591484636e-06 -8.170537171281466726e-07 -6.996332899689150508e-07 -6.985165441619756166e-07
2.298000000000000000e+03 3.504397201538085938e+01 -1.572116470336914062e+01 3.524614385241875425e-06 1.466525873183854856e-06 1.497342054790351540e-06 3.596494707380770706e-06
2.299000000000000000e+03 4.600052261352539062e+01 3.122209739685058594e+01 -2.918220357969403267e-03 1.405249116942286491e-03 -4.538913781289011240e-04 -4.123658582102507353e-04
2.300000000000000000e+03 4.090733337402343750e+01 1.877919387817382812e+01 2.444307610858231783e-04 1.223636536451522261e-05 7.700014248257502913e-05 -1.869563493528403342e-05
2.301000000000000000e+03 4.568209838867187500e+01 -1.695460128784179688e+01 1.255228880836511962e-06 2.945478172478033230e-06 1.260212115994363558e-06 1.326041001448174939e-06
2.302000000000000000e+03 6.942047882080078125e+01 3.073031234741210938e+01 3.952380716800689697e-01 2.475888252258300781e+00 8.613379001617431641e-01 -5.016528964042663574e-01
2.303000000000000000e+03 6.962277984619140625e+01 3.202952957153320312e+01 1.358378827571868896e-01 2.009145498275756836e+00 6.434950232505798340e-01 -2.713554799556732178e-01
2.304000000000000000e+03 4.859315872192382812e+01 -8.833572387695312500e+00 1.996904939005617052e-05 2.167739467040519230e-06 6.641036179644288495e-06 4.919179900753078982e-06
2.305000000000000000e+03 4.879461288452148438e+01 -9.562759399414062500e+00 -1.883850018202792853e-05 -1.108436322283523623e-06 -5.984080871712649241e-06 -3.977822871092939749e-06
2.306000000000000000e+03 6.967349243164062500e+01 -6.346422195434570312e+00 1.523650288581848145e-01 2.230811357498168945e+00 7.149529457092285156e-01 3.892621994018554688e-01
2.307000000000000000e+03 2.658592414855957031e+01 -3.505815887451171875e+01 5.481707863509654999e-03 -1.883066631853580475e-02 -4.004687536507844925e-03 4.243990872055292130e-03
2.308000000000000000e+03 2.581366920471191406e+01 -3.431338882446289062e+01 1.414628047496080399e-02 -6.220252718776464462e-03 2.377808326855301857e-03 1.005847379565238953e-02
2.309000000000000000e+03 8.527394294738769531e+00 -1.855926132202148438e+01 -5.135684114065952599e-05 -2.232036422356031835e-05 -2.210316051787231117e-05 9.002984734252095222e-05
2.310000000000000000e+03 4.534393692016601562e+01 -2.583295249938964844e+01 -1.380459964275360107e-01 -9.880894422531127930e-01 -3.378406167030334473e-01 -1.189976572990417480e+00
2.311000000000000000e+03 7.129739379882812500e+01 7.744436740875244141e+00 1.887424886226654053e-01 3.720851898193359375e+00 1.172878265380859375e+00 -8.527190238237380981e-02
2.312000000000000000e+03 7.178578948974609375e+01 1.022691917419433594e+01 -2.225406020879745483e-01 3.094661235809326172e+00 8.616362214088439941e-01 1.605863496661186218e-02
2.313000000000000000e+03 1.401911258697509766e+01 -3.239794921875000000e+01 8.683484047651290894e-03 8.067163289524614811e-04 2.847060095518827438e-03 4.003298934549093246e-03
2.314000000000000000e+03 1.584427070617675781e+01 -3.399948120117187500e+01 4.143930505961179733e-03 1.583024393767118454e-03 1.718086423352360725e-03 5.995471030473709106e-03
2.315000000000000000e+03 4.546033477783203125e+01 2.772666931152343750e+01 -5.249879905022680759e-04 6.231851148186251521e-05 -1.388008531648665667e-04 -6.161663332022726536e-04
2.316000000000000000e+03 4.345719909667968750e+01 2.583794021606445312e+01 -7.064184319460764527e-05 -2.682723425095900893e-05 -2.924072214227635413e-05 -5.813341704197227955e-04
2.317000000000000000e+03 6.934265899658203125e+01 -7.082950592041015625e+00 1.549735516309738159e-01 2.109648704528808594e+00 6.793866753578186035e-01 4.075863659381866455e-01
2.318000000000000000e+03 4.059896850585937500e+01 1.704459381103515625e+01 2.214966079918667674e-04 2.618463986436836421e-05 7.430437108268961310e-05 1.496743243478704244e-05
2.319000000000000000e+03 4.384439086914062500e+01 2.674443244934082031e+01 -9.911146480590105057e-04 -1.853655994636937976e-04 -3.529440728016197681e-04 4.417706441017799079e-05
2.320000000000000000e+03 7.060943603515625000e+01 2.730815505981445312e+01 3.921351432800292969e-01 3.295753955841064453e+00 1.106366753578186035e+00 -4.100171625614166260e-01
2.321000000000000000e+03 7.103973388671875000e+01 2.469609069824218750e+01 2.900187075138092041e-01 3.538590908050537109e+00 1.148582935333251953e+00 -2.331470996141433716e-01
2.322000000000000000e+03 7.812815856933593750e+01 -2.292971420288085938e+01 -1.430015452206134796e-02 -2.533469349145889282e-02 -1.189045421779155731e-02 -3.218639642000198364e-02
2.323000000000000000e+03 4.307616806030273438e+01 5.383922576904296875e+00 -9.627809777157381177e-05 2.283904223077115603e-06 -2.819825931510422379e-05 -4.028246621601283550e-05
2.324000000000000000e+03 4.280304336547851562e+01 2.643263339996337891e+00 4.682144572143442929e-05 3.144278161926195025e-05 2.347926783841103315e-05 3.138071042485535145e-05
2.325000000000000000e+03 7.128395080566406250e+01 2.754055213928222656e+01 3.907566368579864502e-01 2.720498323440551758e+00 9.333764910697937012e-01 -1.896937936544418335e-01
2.326000000000000000e+03 7.088626098632812500e+01 -6.637415289878845215e-01 2.695682346820831299e-01 3.581500291824340820e+00 1.155320525169372559e+00 3.347551226615905762e-01
2.327000000000000000e+03 7.173365783691406250e+01 8.776491135358810425e-02 3.313690423965454102e-01 3.060291767120361328e+00 1.017498254776000977e+00 1.022628769278526306e-01
2.328000000000000000e+03 7.000388336181640625e+01 -5.592330932617187500e+00 1.661975532770156860e-01 2.341814756393432617e+00 7.524037361145019531e-01 3.662220239639282227e-01
2.329000000000000000e+03 3.021981811523437500e+01 -1.515756225585937500e+01 -3.225226237191236578e-06 -1.641808353269880172e-06 -1.460110411244386341e-06 -6.909048124725813977e-07
2.330000000000000000e+03 4.131131362915039062e+01 2.052061653137207031e+01 2.400398661848157644e-04 -6.093570846132934093e-06 7.018388714641332626e-05 -7.811006071278825402e-05
2.331000000000000000e+03 4.109661865234375000e+01 1.964536666870117188e+01 -2.824604453053325415e-04 4.910363350063562393e-05 -7.000704499660059810e-05 3.393416045582853258e-05
2.332000000000000000e+03 7.129327392578125000e+01 1.855965137481689453e+00 3.548141419887542725e-01 3.831429243087768555e+00 1.255873084068298340e+00 2.019732594490051270e-01
2.333000000000000000e+03 7.690560913085937500e+01 4.912115097045898438e+00 7.910328358411788940e-02 -8.544253706932067871e-01 -2.325966209173202515e-01 9.251872077584266663e-03
2.334000000000000000e+03 4.166362762451171875e+01 6.655959129333496094e+00 8.911589247873052955e-05 2.574419886514078826e-05 3.445802940404973924e-05 3.767125963349826634e-05
2.335000000000000000e+03 4.135439682006835938e+01 7.443507671356201172e+00 -9.802071872400119901e-05 2.414433220110367984e-05 -2.216291613876819611e-05 -2.558700725785456598e-05
2.336000000000000000e+03 4.200561523437500000e+01 5.886023044586181641e+00 -8.716635056771337986e-05 1.193323532788781449e-05 -2.256993502669502050e-05 -3.165141970384865999e-05
2.337000000000000000e+03 4.852849197387695312e+01 3.207929992675781250e+01 -5.998333450406789780e-03 2.047325251623988152e-03 -1.185302389785647392e-03 -1.126902527175843716e-03
2.338000000000000000e+03 4.702134323120117188e+01 3.163237190246582031e+01 -4.030469805002212524e-03 -1.297548442380502820e-04 -1.248067361302673817e-03 -2.758689333859365433e-05
2.339000000000000000e+03 1.346926975250244141e+01 2.995978593826293945e+00 1.621373485249932855e-05 8.241672730946447700e-06 7.336621820286381990e-06 -1.445623274776153266e-05
2.340000000000000000e+03 1.050036430358886719e+01 3.323692321777343750e+00 7.838286364858504385e-06 2.787861149045056663e-06 3.187844185958965681e-06 -3.709548309416277334e-06
2.341000000000000000e+03 1.237588977813720703e+01 2.789290666580200195e+00 1.706847251625731587e-05 7.567750344605883583e-06 7.390867267531575635e-06 -1.534468538011424243e-05
2.342000000000000000e+03 2.673949050903320312e+01 -9.790336608886718750e+00 4.781005827680928633e-06 6.795242484258778859e-07 1.638159005779016297e-06 -4.587910780173842795e-07
2.343000000000000000e+03 5.543694686889648438e+01 -2.278767776489257812e+01 -2.142965048551559448e-01 4.737519621849060059e-01 7.783664017915725708e-02 -4.477143883705139160e-01
2.344000000000000000e+03 5.613373947143554688e+01 -2.265374374389648438e+01 -1.155270338058471680e-01 7.121018767356872559e-01 1.789724528789520264e-01 -9.911181032657623291e-02
2.345000000000000000e+03 7.032529449462890625e+01 -4.820873737335205078e+00 1.672900170087814331e-01 2.453122377395629883e+00 7.861236929893493652e-01 3.469747900962829590e-01
2.346000000000000000e+03 4.034562683105468750e+01 1.262135696411132812e+01 -1.403774513164535165e-04 4.649485344998538494e-05 -2.816478081513196230e-05 -4.786052613781066611e-06
2.347000000000000000e+03 3.958781433105468750e+01 1.252679538726806641e+01 1.339047594228759408e-04 2.530440906411968172e-05 4.776275090989656746e-05 4.330736555857583880e-05
2.348000000000000000e+03 4.313381958007812500e+01 3.671427249908447266e+00 6.600242340937256813e-05 2.890485484385862947e-05 2.847218274837359786e-05 3.661720620584674180e-05
2.349000000000000000e+03 6.919302368164062500e+01 -9.359945297241210938e+00 4.967379942536354065e-02 1.637320756912231445e+00 5.060983300209045410e-01 2.346623092889785767e-01
2.350000000000000000e+03 7.178823089599609375e+01 2.218194961547851562e+01 1.157079264521598816e-01 3.051007747650146484e+00 9.500147104263305664e-01 -8.883555233478546143e-02
2.351000000000000000e+03 7.676190948486328125e+01 2.260648536682128906e+01 6.551803648471832275e-02 -6.905408501625061035e-01 -1.875068396329879761e-01 7.875383645296096802e-02
2.352000000000000000e+03 9.130916595458984375e+00 -1.348205089569091797e+01 -1.230202815349912271e-05 -1.937618217198178172e-04 -6.181915523484349251e-05 -2.004796442633960396e-05
2.353000000000000000e+03 6.000019836425781250e+01 -2.008931159973144531e+01 -2.033358573913574219e+00 1.262166738510131836e+00 -2.313575446605682373e-01 8.302372097969055176e-01
2.354000000000000000e+03 6.845647430419921875e+01 3.342540740966796875e+01 5.502910166978836060e-02 1.615674138069152832e+00 5.012109279632568359e-01 -4.243465363979339600e-01
2.355000000000000000e+03 4.921805191040039062e+01 3.355833816528320312e+01 -8.968894369900226593e-03 3.807343542575836182e-03 -1.548465341329574585e-03 1.262232079170644283e-03
2.356000000000000000e+03 2.548985481262207031e+01 -7.614641189575195312e+00 7.521885436290176585e-06 -3.960306457884144038e-06 1.068473693521809764e-06 -2.900652361859101802e-06
2.357000000000000000e+03 6.738864898681640625e+01 -2.018572044372558594e+01 1.245761811733245850e-01 6.240933537483215332e-01 2.246008664369583130e-01 8.277997374534606934e-01
2.358000000000000000e+03 6.922283172607421875e+01 -2.033497238159179688e+01 7.143951207399368286e-02 1.440281271934509277e-01 6.464029103517532349e-02 3.799976706504821777e-01
2.359000000000000000e+03 6.822418975830078125e+01 -9.955993652343750000e+00 9.328984469175338745e-02 1.629344344139099121e+00 5.167902708053588867e-01 3.495379686355590820e-01
2.360000000000000000e+03 6.871254730224609375e+01 -8.527119636535644531e+00 1.473079919815063477e-01 1.864665985107421875e+00 6.035921573638916016e-01 4.108443856239318848e-01
2.361000000000000000e+03 2.502391242980957031e+01 -6.901708602905273438e+00 7.062803888402413577e-06 2.251334535685600713e-06 2.794241481751669198e-06 -2.542629090385162272e-06
2.362000000000000000e+03 4.897372055053710938e+01 -1.475455951690673828e+01 -5.922965101490262896e-06 -1.402650696036289446e-06 -2.197684807470068336e-06 -3.550316932887653820e-06
2.363000000000000000e+03 4.210046768188476562e+01 2.326504898071289062e+01 -4.897117032669484615e-04 1.020278705254895613e-05 -1.438526669517159462e-04 4.679637640947476029e-05
2.364000000000000000e+03 6.046860122680664062e+01 -2.136970520019531250e+01 1.556543074548244476e-02 2.052138566970825195e+00 6.203112006187438965e-01 1.647381305694580078e+00
2.365000000000000000e+03 3.294213867187500000e+01 -3.415337371826171875e+01 -5.937254056334495544e-02 -2.806001715362071991e-02 -2.622976712882518768e-02 -7.325867563486099243e-02
2.366000000000000000e+03 2.401711845397949219e+01 -5.498432159423828125e+00 9.001585567602887750e-06 2.905494056903989986e-06 3.572123887352063321e-06 -3.986915999121265486e-06
2.367000000000000000e+03 2.347949981689453125e+01 -4.819681644439697266e+00 1.243935275851981714e-05 -6.145020051917526871e-06 1.888299948404892348e-06 -2.197048388552502729e-06
2.368000000000000000e+03 7.146382141113281250e+01 2.665276718139648438e+01 3.702014088630676270e-01 2.799831867218017578e+00 9.510099887847900391e-01 -1.684094667434692383e-01
2.369000000000000000e+03 4.804796600341796875e+01 3.320280456542968750e+01 -5.988740362226963043e-03 -7.649643521290272474e-05 -1.819571014493703842e-03 1.755235367454588413e-03
2.370000000000000000e+03 1.739270210266113281e+01 1.492961883544921875e+00 1.902903932204935700e-05 5.033406068832846358e-06 7.218734026537276804e-06 -1.091644207917852327e-05
2.371000000000000000e+03 7.091236877441406250e+01 -3.328644943237304688e+01 -3.843512758612632751e-02 8.968434296548366547e-03 -8.840008638799190521e-03 1.087707374244928360e-02
2.372000000000000000e+03 7.047621154785156250e+01 -3.266060256958007812e+01 -3.568344563245773315e-02 1.265490334481000900e-02 -6.908562500029802322e-03 -3.230611328035593033e-03
2.373000000000000000e+03 1.557604122161865234e+01 1.771403312683105469e+00 1.029456325341016054e-05 1.871510562523326371e-06 3.649822247098200023e-06 -3.641976718427031301e-06
2.374000000000000000e+03 1.913510513305664062e+01 -5.782859921455383301e-01 1.771909956005401909e-05 4.737788913189433515e-06 6.737066541973035783e-06 -1.021042135107563809e-05
2.375000000000000000e+03 1.845185852050781250e+01 -6.642511487007141113e-02 1.362882812827592716e-05 -2.045264409389346838e-06 3.475069206615444273e-06 -1.271117639589647297e-06
2.376000000000000000e+03 1.851128196716308594e+01 -3.486564636230468750e+01 6.811515893787145615e-03 3.435014514252543449e-03 3.073959145694971085e-03 1.046516653150320053e-02
2.377000000000000000e+03 1.716978454589843750e+01 -3.315885543823242188e+01 1.152626704424619675e-02 6.755014765076339245e-04 3.660530550405383110e-03 7.198166567832231522e-03
2.378000000000000000e+03 7.180573272705078125e+01 -3.190370941162109375e+01 -1.981912925839424133e-02 8.589775301516056061e-03 -3.368805861100554466e-03 -1.302540069445967674e-03
2.379000000000000000e+03 2.110370635986328125e+01 -2.266732454299926758e+00 1.500975758972344920e-05 -5.673633495462127030e-06 2.800837364702601917e-06 -1.106397235162148718e-06
2.380000000000000000e+03 2.046333122253417969e+01 -1.681553244590759277e+00 1.586986036272719502e-05 4.332954176788916811e-06 6.060844043531687930e-06 -8.810837243800051510e-06
2.381000000000000000e+03 7.176908874511718750e+01 2.483474731445312500e+01 3.129259943962097168e-01 2.873218774795532227e+00 9.558433890342712402e-01 -1.212671548128128052e-01
2.382000000000000000e+03 7.163062286376953125e+01 2.575116920471191406e+01 3.393742144107818604e-01 2.844269752502441406e+00 9.550931453704833984e-01 -1.439003497362136841e-01
2.383000000000000000e+03 6.490250396728515625e+01 -2.090996170043945312e+01 6.838493347167968750e-01 9.792632460594177246e-01 4.989337921142578125e-01 1.308246850967407227e+00
2.384000000000000000e+03 5.615455245971679688e+01 -3.448438262939453125e+01 7.820875942707061768e-02 2.557533979415893555e+00 7.907227873802185059e-01 -4.411331713199615479e-01
2.385000000000000000e+03 7.207594299316406250e+01 6.984627246856689453e+00 1.901792287826538086e-01 3.100088357925415039e+00 9.870802760124206543e-01 -3.222746029496192932e-02
2.386000000000000000e+03 1.450859642028808594e+01 -3.333768844604492188e+01 4.634696524590253830e-03 7.985800621099770069e-04 1.629983074963092804e-03 4.474090412259101868e-03
2.387000000000000000e+03 5.696048736572265625e+01 -2.320538330078125000e+01 1.101563811302185059e+00 1.384697556495666504e+00 7.458783984184265137e-01 6.963381171226501465e-01
2.388000000000000000e+03 2.005639076232910156e+01 -1.184188270568847656e+01 5.845980194862931967e-05 9.281774509872775525e-06 2.032247357419691980e-05 2.117451549565885216e-05
2.389000000000000000e+03 4.470140075683593750e+01 8.972201347351074219e-01 5.356414476409554482e-05 2.170441257476340979e-05 2.258056701975874603e-05 3.438616113271564245e-05
2.390000000000000000e+03 4.600968933105468750e+01 -3.386341333389282227e+00 -2.178530485252849758e-05 -2.088948349410202354e-05 -1.280243577639339492e-05 -2.476627014402765781e-05
2.391000000000000000e+03 5.567790508270263672e+00 -1.738897705078125000e+01 -4.081298538949340582e-05 -2.162151067750528455e-04 -7.710843055974692106e-05 -2.023544657276943326e-04
2.392000000000000000e+03 6.656375885009765625e+01 -3.730679321289062500e+01 -2.056068507954478264e-03 1.731713674962520599e-02 4.578320775181055069e-03 4.452691972255706787e-02
2.393000000000000000e+03 4.117111587524414062e+01 -1.698376464843750000e+01 3.336149347887840122e-06 1.282442212868772913e-06 1.385577547807770316e-06 4.439988572357833618e-07
2.394000000000000000e+03 7.050642395019531250e+01 3.023415756225585938e+01 3.272832930088043213e-01 2.308292865753173828e+00 7.906728386878967285e-01 -1.858209669589996338e-01
2.395000000000000000e+03 1.128887844085693359e+01 -3.157876396179199219e+01 3.623336087912321091e-03 -1.204482250614091754e-04 1.050866325385868549e-03 2.500900998711585999e-03
2.396000000000000000e+03 8.436551094055175781e+00 -1.743788528442382812e+01 -1.219944606418721378e-04 -1.896917456178925931e-05 -4.228908801451325417e-05 4.344532862887717783e-05
2.397000000000000000e+03 3.378648376464843750e+01 -3.572878265380859375e+01 -7.661917060613632202e-02 -1.406903564929962158e-01 -6.519285589456558228e-02 -1.693134456872940063e-01
2.398000000000000000e+03 3.314649200439453125e+01 -3.493924713134765625e+01 -8.388280868530273438e-02 -5.534508079290390015e-02 -4.176836833357810974e-02 -1.060920134186744690e-01
2.399000000000000000e+03 1.485116958618164062e+01 -3.453050994873046875e+01 6.659395527094602585e-03 1.053120475262403488e-03 2.313754754140973091e-03 6.852659396827220917e-03
2.400000000000000000e+03 6.634465026855468750e+01 -1.438936424255371094e+01 -4.151423275470733643e-01 1.243426918983459473e+00 2.484853565692901611e-01 2.687874734401702881e-01
2.401000000000000000e+03 3.922041702270507812e+01 -3.407107162475585938e+01 -1.764794886112213135e-01 -8.059527873992919922e-01 -2.947296798229217529e-01 -5.253494977951049805e-01
2.402000000000000000e+03 4.097457885742187500e+01 -3.526995849609375000e+01 1.989445835351943970e-01 -1.010148406028747559e+00 -2.433611452579498291e-01 -2.434035688638687134e-01
2.403000000000000000e+03 5.228049468994140625e+01 -1.538501358032226562e+01 4.470158728508977219e-06 4.732007994334708201e-07 1.483007849856221583e-06 -4.897484018329123501e-07
2.404000000000000000e+03 5.181081008911132812e+01 -1.420826148986816406e+01 2.101623749695136212e-06 -2.929481297542224638e-06 -2.483572814071521861e-07 -4.576274932333035395e-06
2.405000000000000000e+03 1.485726737976074219e+01 2.177028417587280273e+00 1.776102180883754045e-05 7.095508408383466303e-06 7.456959338014712557e-06 -1.241987229150254279e-05
2.406000000000000000e+03 7.197448730468750000e+01 1.795467019081115723e+00 3.526090681552886963e-01 3.136421680450439453e+00 1.046709299087524414e+00 1.048760339617729187e-01
2.407000000000000000e+03 1.315070629119873047e+01 -1.174147796630859375e+01 -1.082412127288989723e-04 -1.062214141711592674e-04 -6.433879025280475616e-05 3.763472022910718806e-06
2.408000000000000000e+03 1.493313026428222656e+01 -1.250967979431152344e+01 1.675902694842079654e-06 -5.233530828263610601e-05 -1.519782108516665176e-05 1.409226933901663870e-05
2.409000000000000000e+03 1.325586986541748047e+01 -3.274779510498046875e+01 4.135779105126857758e-03 -1.949170691659674048e-04 1.182258594781160355e-03 4.359319340437650681e-03
2.410000000000000000e+03 1.362348461151123047e+01 -3.368368530273437500e+01 6.080559920519590378e-03 7.750745862722396851e-04 2.056690398603677750e-03 3.991052508354187012e-03
2.411000000000000000e+03 1.832116699218750000e+01 -1.140646362304687500e+01 6.592821591766551137e-05 3.179499253747053444e-05 2.931696144514717162e-05 -3.382374416105449200e-06
2.412000000000000000e+03 1.895975875854492188e+01 -1.215537071228027344e+01 -1.042616258928319439e-05 1.711894219624809921e-05 2.007833927564206533e-06 1.554404207126935944e-06
2.413000000000000000e+03 7.011760711669921875e+01 3.115412902832031250e+01 2.272701263427734375e-01 2.149162530899047852e+00 7.129297852516174316e-01 -2.102166563272476196e-01
2.414000000000000000e+03 5.408460617065429688e+01 -2.360017204284667969e+01 1.744128018617630005e-01 3.141694366931915283e-01 1.465746760368347168e-01 -7.381861209869384766e-01
2.415000000000000000e+03 5.471949768066406250e+01 -2.291084289550781250e+01 -3.932758867740631104e-01 2.189336866140365601e-01 -5.230265855789184570e-02 -7.026885747909545898e-01
2.416000000000000000e+03 7.124683380126953125e+01 -2.117451286315917969e+01 -1.569652855396270752e-01 7.932268828153610229e-02 -2.329277992248535156e-02 1.710546948015689850e-02
2.417000000000000000e+03 3.668676376342773438e+01 -3.705262374877929688e+01 6.179053336381912231e-02 -4.596597254276275635e-01 -1.193607598543167114e-01 -2.616553008556365967e-01
2.418000000000000000e+03 3.781082153320312500e+01 -3.573406219482421875e+01 1.567424647510051727e-02 -5.937258601188659668e-01 -1.734154820442199707e-01 -3.832564949989318848e-01
2.419000000000000000e+03 7.192015075683593750e+01 8.638302803039550781e+00 1.554558891803026199e-02 3.108553886413574219e+00 9.372298717498779297e-01 4.610889777541160583e-02
2.420000000000000000e+03 6.776607990264892578e+00 -2.077823829650878906e+01 3.650134021881967783e-04 1.534462644485756755e-04 1.555378985358402133e-04 2.298351137142162770e-05
2.421000000000000000e+03 7.324232101440429688e+00 -1.978981208801269531e+01 4.772401298396289349e-04 6.002806549076922238e-05 1.611804618733003736e-04 1.363289193250238895e-04
2.422000000000000000e+03 1.757843971252441406e+01 -3.409174728393554688e+01 6.231836974620819092e-03 1.278160256333649158e-03 2.252999227494001389e-03 7.838004268705844879e-03
2.423000000000000000e+03 5.491247558593750000e+01 -2.650824737548828125e+01 2.424561262130737305e+00 2.601969957351684570e+00 1.507959365844726562e+00 9.058697223663330078e-01
2.424000000000000000e+03 6.673459625244140625e+01 -1.589940071105957031e+01 -6.042767167091369629e-01 1.230344414710998535e+00 1.878203004598617554e-01 3.775437772274017334e-01
2.425000000000000000e+03 6.992318725585937500e+01 -2.066353988647460938e+01 -2.624012716114521027e-02 3.738436102867126465e-02 3.343269694596529007e-03 1.549020409584045410e-01
2.426000000000000000e+03 7.171868133544921875e+01 1.254979801177978516e+01 -1.763968616724014282e-01 3.042569398880004883e+00 8.598517775535583496e-01 -1.108917817473411560e-01
2.427000000000000000e+03 7.173301696777343750e+01 1.332812213897705078e+01 -6.373719125986099243e-02 3.009954452514648438e+00 8.838651776313781738e-01 -1.173842772841453552e-01
2.428000000000000000e+03 4.213399505615234375e+01 -3.411660385131835938e+01 1.578279584646224976e-01 -1.218723177909851074e+00 -3.182685673236846924e-01 -1.666273325681686401e-01
2.429000000000000000e+03 4.138443374633789062e+01 -3.308303070068359375e+01 -1.654266417026519775e-01 -1.366345167160034180e+00 -4.595315456390380859e-01 -4.165595769882202148e-01
2.430000000000000000e+03 7.036764526367187500e+01 -3.385072708129882812e+01 -4.461507126688957214e-02 1.941430941224098206e-02 -7.560227997601032257e-03 1.320458576083183289e-02
2.431000000000000000e+03 6.904758453369140625e+01 -3.466368865966796875e+01 -6.587190181016921997e-02 2.286235615611076355e-02 -1.290286239236593246e-02 2.472662366926670074e-02
2.432000000000000000e+03 6.973912811279296875e+01 -3.436640548706054688e+01 -4.862690716981887817e-02 1.157274283468723297e-02 -1.111624855548143387e-02 2.322985231876373291e-02
2.433000000000000000e+03 1.805853271484375000e+01 -1.200560760498046875e+01 -3.272686808486469090e-05 -2.293658872076775879e-05 -1.669903758738655597e-05 1.000652173388516530e-05
2.434000000000000000e+03 5.847424697875976562e+01 -2.265138816833496094e+01 1.176795005798339844e+00 1.738045215606689453e+00 8.744520545005798340e-01 1.313438773155212402e+00
2.435000000000000000e+03 5.873648834228515625e+01 -2.193648529052734375e+01 2.068051248788833618e-01 1.529907941818237305e+00 5.210139155387878418e-01 1.025360703468322754e+00
2.436000000000000000e+03 4.034880828857421875e+01 8.059324264526367188e+00 -8.517302194377407432e-05 2.464941098878625780e-05 -1.815708310459740460e-05 -1.702190820651594549e-05
2.437000000000000000e+03 1.879864501953125000e+01 -1.105481338500976562e+01 -4.083462772541679442e-05 -6.108792604209156707e-06 -1.408302614436252043e-05 3.143419598927721381e-05
2.438000000000000000e+03 1.820666885375976562e+01 -1.009810447692871094e+01 -2.940662670880556107e-05 -2.336041688977275044e-05 -1.583011362527031451e-05 -2.419814700260758400e-05
2.439000000000000000e+03 3.732807540893554688e+01 -1.640935516357421875e+01 -1.742368112900294363e-06 -5.533642593036347535e-07 -6.887196946081530768e-07 -6.318967393781349529e-07
2.440000000000000000e+03 4.634079360961914062e+01 -2.491168975830078125e+00 -3.486898276605643332e-05 -1.413833979313494638e-05 -1.470219740440370515e-05 -2.480105104041285813e-05
2.441000000000000000e+03 5.509351348876953125e+01 -3.394113159179687500e+01 1.566758006811141968e-01 2.755135774612426758e+00 8.735434412956237793e-01 1.344873160123825073e-01
2.442000000000000000e+03 3.986356735229492188e+01 -3.493035888671875000e+01 6.590303033590316772e-02 -9.325839877128601074e-01 -2.600042819976806641e-01 -4.185021519660949707e-01
2.443000000000000000e+03 7.107445526123046875e+01 2.842166900634765625e+01 4.132707715034484863e-01 2.593624591827392578e+00 9.020686149597167969e-01 -2.103827893733978271e-01
2.444000000000000000e+03 7.081873321533203125e+01 2.931792831420898438e+01 3.952512741088867188e-01 2.457269430160522461e+00 8.557561635971069336e-01 -2.034648954868316650e-01
2.445000000000000000e+03 6.904132080078125000e+01 3.277281570434570312e+01 7.962575554847717285e-02 1.809023737907409668e+00 5.665948390960693359e-01 -3.507341444492340088e-01
2.446000000000000000e+03 5.778818130493164062e+01 -3.743939971923828125e+01 -1.262848228216171265e-01 1.236109972000122070e+00 3.329475522041320801e-01 -4.155043959617614746e-01
2.447000000000000000e+03 5.930642700195312500e+01 -3.648458099365234375e+01 5.559230223298072815e-02 7.365102767944335938e-01 2.376307696104049683e-01 -4.717922210693359375e-01
2.448000000000000000e+03 8.136928558349609375e+00 -2.660252952575683594e+01 -5.797492922283709049e-04 -3.800311606028117239e-05 -1.853257126640528440e-04 -3.762023407034575939e-04
2.449000000000000000e+03 1.043638038635253906e+01 -1.422666835784912109e+01 2.019887615460902452e-04 8.014631748665124178e-05 8.464052370982244611e-05 -1.484329368395265192e-05
2.450000000000000000e+03 4.051220321655273438e+01 1.084190273284912109e+01 -1.199778853333555162e-04 4.226606324664317071e-05 -2.331354698981158435e-05 -1.349003468931186944e-05
2.451000000000000000e+03 9.460085868835449219e+00 -3.075797462463378906e+01 1.526130829006433487e-03 -4.592943005263805389e-04 3.200509527232497931e-04 9.231421863660216331e-04
2.452000000000000000e+03 1.042898845672607422e+01 -3.113468170166015625e+01 2.427889965474605560e-03 -1.980521774385124445e-04 6.689513102173805237e-04 1.723976456560194492e-04
2.453000000000000000e+03 4.445254135131835938e+01 -3.300485992431640625e+01 1.432026475667953491e-01 -1.004877209663391113e+00 -2.585023641586303711e-01 1.034659966826438904e-01
2.454000000000000000e+03 3.456608963012695312e+01 -3.673796081542968750e+01 -4.581762105226516724e-02 -2.320318222045898438e-01 -8.335483074188232422e-02 -2.196036279201507568e-01
2.455000000000000000e+03 5.098547744750976562e+01 -1.464447498321533203e+01 4.298296971683157608e-06 -2.677977363418904133e-06 4.860958711105922703e-07 -4.648134563467465341e-06
2.456000000000000000e+03 5.190075302124023438e+01 -1.479423522949218750e+01 -5.577701813308522105e-06 -2.420004818759480258e-07 -1.745910708450537641e-06 1.424015181328286417e-06
2.457000000000000000e+03 5.791669464111328125e+01 -2.240478324890136719e+01 4.853397905826568604e-01 1.393036961555480957e+00 5.635130405426025391e-01 8.565363883972167969e-01
2.458000000000000000e+03 9.628912925720214844e+00 -1.396430301666259766e+01 -1.796294673113152385e-04 -4.456132046470884234e-06 -5.522567880689166486e-05 2.536118336138315499e-05
2.459000000000000000e+03 1.081775665283203125e+01 -1.520947074890136719e+01 1.936861663125455379e-04 9.285836858907714486e-05 8.596335828769952059e-05 -1.027142570819705725e-04
2.460000000000000000e+03 6.751431274414062500e+01 3.633438110351562500e+01 -1.905049234628677368e-01 1.164341092109680176e+00 2.921508252620697021e-01 -2.517668306827545166e-01
2.461000000000000000e+03 6.544827270507812500e+01 3.776251983642578125e+01 -1.466897279024124146e-01 8.281741142272949219e-01 2.044453024864196777e-01 -2.954470515251159668e-01
2.462000000000000000e+03 3.875569152832031250e+01 -1.710726928710937500e+01 7.914406978670740500e-07 -2.158113602490630001e-06 -4.100018884400924435e-07 -7.176734584390942473e-07
2.463000000000000000e+03 3.980890655517578125e+01 -1.739978599548339844e+01 -2.170892457797890529e-06 -1.039653852785704657e-06 -9.631639841245487332e-07 1.625957963824475883e-07
2.464000000000000000e+03 1.116575050354003906e+01 -3.243677902221679688e+01 4.110259935259819031e-03 1.760734157869592309e-04 1.285900012589991093e-03 1.281002187170088291e-03
2.465000000000000000e+03 7.259067535400390625e+01 -2.146278762817382812e+01 -1.503822356462478638e-01 9.859155118465423584e-02 -1.553720515221357346e-02 -3.411791846156120300e-02
2.466000000000000000e+03 8.688475608825683594e+00 -1.577527236938476562e+01 5.930382394581101835e-05 -2.975219831569120288e-05 8.865487870934884995e-06 -1.126868228311650455e-04
2.467000000000000000e+03 8.588175773620605469e+00 5.464231491088867188e+00 4.897794497082941234e-06 4.691535693268633622e-08 1.483413029745861422e-06 -4.118625838600564748e-06
2.468000000000000000e+03 5.419366455078125000e+01 -2.852800750732421875e+01 2.321963071823120117e+00 3.045941114425659180e+00 1.610371232032775879e+00 9.187552332878112793e-01
2.469000000000000000e+03 7.437127685546875000e+01 -2.332948112487792969e+01 -8.510559797286987305e-02 3.788041323423385620e-02 -1.416755467653274536e-02 -2.199081517755985260e-02
2.470000000000000000e+03 7.375158691406250000e+01 -2.256442451477050781e+01 -1.153092905879020691e-01 5.944325029850006104e-02 -1.675981283187866211e-02 -2.942244708538055420e-02
2.471000000000000000e+03 3.747684478759765625e+01 -1.691560363769531250e+01 7.683408398406754714e-07 8.599628245065105148e-07 4.884910822511301376e-07 6.275130886024271604e-07
2.472000000000000000e+03 6.677348327636718750e+01 -1.843833923339843750e+01 -3.857942521572113037e-01 1.091300845146179199e+00 2.116519659757614136e-01 7.923812270164489746e-01
2.473000000000000000e+03 1.283180046081542969e+01 3.430434703826904297e+00 4.724953669210663065e-06 3.200530954927671701e-06 2.377645387241500430e-06 -2.732654138526413590e-06
2.474000000000000000e+03 1.113100337982177734e+01 3.887853860855102539e+00 1.193868320115143433e-05 1.003665238386020064e-05 6.592600584554020315e-06 -1.897086258395574987e-05
2.475000000000000000e+03 5.488041305541992188e+01 -2.877513885498046875e+01 2.177983760833740234e+00 4.403149127960205078e+00 1.974339962005615234e+00 1.196201801300048828e+00
2.476000000000000000e+03 5.542541503906250000e+01 -3.487969207763671875e+01 -6.428726762533187866e-02 2.585401773452758789e+00 7.563343644142150879e-01 -8.923222869634628296e-02
2.477000000000000000e+03 5.619945907592773438e+01 -3.608811569213867188e+01 -1.984883397817611694e-01 1.990489840507507324e+00 5.376004576683044434e-01 -3.640998005867004395e-01
2.478000000000000000e+03 4.609991836547851562e+01 -2.269109785556793213e-01 -5.526236782316118479e-05 -1.520224486739607528e-05 -2.113938353431876749e-05 -3.069864033022895455e-05
2.479000000000000000e+03 5.227751159667968750e+01 3.674826431274414062e+01 -1.133238896727561951e-02 1.054261997342109680e-02 -2.369307912886142731e-04 1.582289487123489380e-02
2.480000000000000000e+03 6.125401687622070312e+01 -2.138532066345214844e+01 3.754036426544189453e-01 2.193980693817138672e+00 7.708152532577514648e-01 1.862213015556335449e+00
2.481000000000000000e+03 6.285142517089843750e+01 -2.171177482604980469e+01 1.440285325050354004e+00 1.676054477691650391e+00 9.349018931388854980e-01 2.171926736831665039e+00
2.482000000000000000e+03 7.556946754455566406e+00 -2.710380935668945312e+01 6.777462549507617950e-04 1.385486393701285124e-04 2.448884479235857725e-04 2.994815004058182240e-04
2.483000000000000000e+03 3.189260244369506836e+00 -2.397959327697753906e+01 7.538681384176015854e-04 -1.231896603712812066e-04 1.892035361379384995e-04 1.525203424534993246e-05
2.484000000000000000e+03 6.630094051361083984e+00 -2.544642448425292969e+01 3.732711484190076590e-04 1.994118938455358148e-04 1.718049024930223823e-04 2.994263777509331703e-04
2.485000000000000000e+03 5.326378250122070312e+01 -3.122128295898437500e+01 1.428624629974365234e+00 2.491098403930664062e+00 1.175916910171508789e+00 8.510238528251647949e-01
2.486000000000000000e+03 5.403835678100585938e+01 -3.250733184814453125e+01 7.865821123123168945e-01 2.974371671676635742e+00 1.128286123275756836e+00 7.598011493682861328e-01
2.487000000000000000e+03 6.249127960205078125e+01 -1.907225227355957031e+01 -1.566433906555175781e+00 1.662310004234313965e+00 2.876283414661884308e-02 1.047543287277221680e+00
2.488000000000000000e+03 4.413277053833007812e+01 -3.165030860900878906e+01 -1.356763839721679688e-01 -1.221178770065307617e+00 -4.070565402507781982e-01 -7.200232148170471191e-02
2.489000000000000000e+03 6.392240905761718750e+01 -2.056799507141113281e+01 2.990688085556030273e-01 1.334165692329406738e+00 4.899703562259674072e-01 1.674771547317504883e+00
2.490000000000000000e+03 6.108020782470703125e+01 -2.025755119323730469e+01 -1.205622315406799316e+00 1.808781623840332031e+00 1.809477806091308594e-01 1.372040271759033203e+00
2.491000000000000000e+03 4.397117614746093750e+01 -2.759276771545410156e+01 -3.215607702732086182e-01 -1.483230352401733398e+00 -5.414373278617858887e-01 -9.910709857940673828e-01
2.492000000000000000e+03 4.400643920898437500e+01 -2.937137603759765625e+01 -5.660067200660705566e-01 -1.406358003616333008e+00 -5.917094349861145020e-01 -6.082715988159179688e-01
2.493000000000000000e+03 6.181078338623046875e+01 -1.971368217468261719e+01 -1.414104342460632324e+00 1.704622030258178711e+00 8.715532720088958740e-02 1.283579826354980469e+00
2.494000000000000000e+03 2.707835912704467773e+00 -3.988290023803710938e+01 -3.812781651504337788e-04 2.145958133041858673e-03 5.294039729051291943e-04 -1.774425618350505829e-04
2.495000000000000000e+03 7.625321960449218750e+01 3.915201187133789062e+01 -1.274429559707641602e-01 8.600369095802307129e-03 -3.565277531743049622e-02 1.974932998418807983e-01
2.496000000000000000e+03 7.723525238037109375e+01 3.901522445678710938e+01 -7.967925816774368286e-02 -1.672183871269226074e-01 -7.406929135322570801e-02 1.838026344776153564e-01
2.497000000000000000e+03 4.520073890686035156e+00 3.855022811889648438e+01 5.624996629194356501e-05 -2.097059405059553683e-05 1.058381167240440845e-05 4.582167889566335361e-07
2.498000000000000000e+03 6.477445220947265625e+01 -3.689525604248046875e+01 -1.127038965933024883e-03 -5.065686069428920746e-03 -1.857817522250115871e-03 2.288993075489997864e-02
2.499000000000000000e+03 7.597692871093750000e+01 -3.881357955932617188e+01 4.223049618303775787e-03 -1.514523942023515701e-02 -3.276656847447156906e-03 1.730580441653728485e-02
2.500000000000000000e+03 7.596517944335937500e+01 -4.024938583374023438e+01 1.549751125276088715e-02 -2.487781830132007599e-02 -2.814091974869370461e-03 1.093415170907974243e-02
2.501000000000000000e+03 7.623325347900390625e+01 -3.702323532104492188e+01 2.174468711018562317e-03 -1.305169705301523209e-02 -3.263168269768357277e-03 1.815026625990867615e-02
2.502000000000000000e+03 7.667954254150390625e+01 -3.787309265136718750e+01 6.514004780910909176e-04 -1.590755581855773926e-02 -4.576846957206726074e-03 1.303188316524028778e-02
2.503000000000000000e+03 6.253437042236328125e+01 3.847691345214843750e+01 -4.140747711062431335e-02 4.381025135517120361e-01 1.190085113048553467e-01 -1.862363517284393311e-01
2.504000000000000000e+03 5.704934310913085938e+01 4.120427703857421875e+01 3.697935864329338074e-02 7.465241849422454834e-02 3.348953276872634888e-02 -8.727855049073696136e-03
2.505000000000000000e+03 6.224482345581054688e+01 -4.142380142211914062e+01 5.211766809225082397e-02 3.764503896236419678e-01 1.285704076290130615e-01 -2.605835907161235809e-02
2.506000000000000000e+03 1.266442394256591797e+01 -6.705634117126464844e+00 5.057437010691501200e-05 2.604942164907697588e-05 2.298713843629229814e-05 4.504778644331963733e-06
2.507000000000000000e+03 1.293105792999267578e+01 -6.190103054046630859e+00 -4.364788037491962314e-05 -2.810408295772504061e-05 -2.152558954549022019e-05 -7.229580205603269860e-06
2.508000000000000000e+03 8.063190460205078125e+00 -3.900822162628173828e+00 -2.938094257842749357e-05 -2.635434975672978908e-05 -1.672058715485036373e-05 -2.450440661050379276e-05
2.509000000000000000e+03 9.760231018066406250e+00 -4.774918079376220703e+00 -5.511437484528869390e-05 -2.326518369955010712e-05 -2.351386865484528244e-05 -2.029174720519222319e-05
2.510000000000000000e+03 1.344616794586181641e+01 -6.522165298461914062e+00 4.285890827304683626e-05 2.703644167922902852e-05 2.096860407618805766e-05 4.570164946926524863e-06
2.511000000000000000e+03 1.267659568786621094e+01 -5.335102081298828125e+00 -3.813737566815689206e-05 -2.952720387838780880e-05 -2.029937422776129097e-05 -1.109939785237656906e-05
2.512000000000000000e+03 2.830426788330078125e+01 -1.156219291687011719e+01 5.108481218485394493e-06 -1.052112452271103393e-06 1.216910618495603558e-06 -2.556900255967775593e-07
2.513000000000000000e+03 7.239997863769531250e+01 1.181161880493164062e+01 -2.264067828655242920e-01 2.620913505554199219e+00 7.183520197868347168e-01 -6.080542877316474915e-02
2.514000000000000000e+03 1.476790046691894531e+01 -6.673834323883056641e+00 -5.133305239723995328e-05 -1.635957232792861760e-05 -2.030778705375269055e-05 -9.804120963963214308e-06
2.515000000000000000e+03 1.393650341033935547e+01 -1.193717479705810547e+01 6.964702333789318800e-05 8.859190711518749595e-05 4.747167986351996660e-05 4.568670556182041764e-05
2.516000000000000000e+03 3.298670196533203125e+01 -1.608180809020996094e+01 3.302268851257394999e-06 2.155395122827030718e-06 1.637299192225327715e-06 2.352672254346543923e-06
2.517000000000000000e+03 3.264209365844726562e+01 -1.510569190979003906e+01 5.450419394037453458e-06 -2.327601436036275118e-07 1.565297793604258914e-06 1.241051563738437835e-06
2.518000000000000000e+03 3.075705718994140625e+01 -1.549631118774414062e+01 4.429282853379845619e-06 1.537432694931339938e-06 1.790014721336774528e-06 8.472183026242419146e-07
2.519000000000000000e+03 7.745700836181640625e+01 1.053771686553955078e+01 -2.735811471939086914e-02 -1.230390787124633789e+00 -3.773246705532073975e-01 6.999515742063522339e-02
2.520000000000000000e+03 1.136900234222412109e+01 -5.342898845672607422e+00 4.201153205940499902e-05 3.272773756179958582e-05 2.242178015876561403e-05 1.517390137451002374e-05
2.521000000000000000e+03 1.116808032989501953e+01 -5.904880046844482422e+00 -4.341076783020980656e-05 -3.619609924498945475e-05 -2.388206121395342052e-05 -1.489637179474812001e-05
2.522000000000000000e+03 1.572078514099121094e+01 -1.124119853973388672e+01 2.249859244329854846e-05 1.310999650740996003e-04 4.607956725521944463e-05 4.142707621213048697e-05
2.523000000000000000e+03 4.697246551513671875e+01 -2.463155746459960938e+01 -2.728891372680664062e-01 -7.151829600334167480e-01 -2.964216172695159912e-01 -1.354174613952636719e+00
2.524000000000000000e+03 4.719388198852539062e+01 -2.533150100708007812e+01 -6.890017539262771606e-02 -7.512720823287963867e-01 -2.460516691207885742e-01 -1.321270704269409180e+00
2.525000000000000000e+03 4.630073547363281250e+01 -2.480299949645996094e+01 -2.349564880132675171e-01 -7.946857213973999023e-01 -3.088926672935485840e-01 -1.298549294471740723e+00
2.526000000000000000e+03 4.591716003417968750e+01 -2.564233589172363281e+01 -1.113977804780006409e-01 -9.134923219680786133e-01 -3.074670433998107910e-01 -1.240788817405700684e+00
2.527000000000000000e+03 1.606688880920410156e+01 -6.975229263305664062e+00 3.909331280738115311e-05 2.387841777817811817e-05 1.889152008516248316e-05 1.522445381851866841e-05
2.528000000000000000e+03 1.525178623199462891e+01 -7.016817569732666016e+00 5.185816917219199240e-05 1.654879997659008950e-05 2.052209129033144563e-05 1.783107109076809138e-05
2.529000000000000000e+03 1.644158172607421875e+01 -1.032787227630615234e+01 -4.701233410742133856e-05 2.457234404573682696e-05 -6.731996563758002594e-06 -1.340923427051166072e-05
2.530000000000000000e+03 6.456286621093750000e+01 -2.028397369384765625e+01 1.693586707115173340e-01 1.229176640510559082e+00 4.195606112480163574e-01 1.398435235023498535e+00
2.531000000000000000e+03 7.720056152343750000e+01 -2.228325653076171875e+01 -3.055883944034576416e-02 -1.897028274834156036e-02 -1.485873665660619736e-02 -5.629448220133781433e-02
2.532000000000000000e+03 7.671759796142578125e+01 -2.354223823547363281e+01 -3.449993208050727844e-02 -2.278136526001617312e-04 -1.041832379996776581e-02 -3.525345772504806519e-02
2.533000000000000000e+03 1.083599472045898438e+01 -5.115073680877685547e+00 -4.519378489931114018e-05 -3.090386599069461226e-05 -2.282929563079960644e-05 -1.970210541912820190e-05
2.534000000000000000e+03 7.202068328857421875e+01 -3.266139602661132812e+01 -2.697504311800003052e-02 5.455155856907367706e-03 -6.455966271460056305e-03 6.340879015624523163e-03
2.535000000000000000e+03 3.365413284301757812e+01 -1.618522262573242188e+01 -1.832808834478782956e-06 -2.071623157462454401e-06 -1.171329586213687435e-06 -2.160180429200408980e-06
2.536000000000000000e+03 3.213478088378906250e+01 -1.474627780914306641e+01 -3.622977828854345717e-06 -1.483877412056244793e-07 -1.131409703702956904e-06 -1.072614281838468742e-06
2.537000000000000000e+03 2.971362495422363281e+01 -1.475950813293457031e+01 4.908620212518144399e-06 1.812905225051508751e-06 2.016457528952741995e-06 -2.770220817183144391e-07
2.538000000000000000e+03 3.119082260131835938e+01 -1.494743442535400391e+01 -3.258511242165695876e-06 -1.014375811791978776e-06 -1.281866161662037484e-06 -7.119479050743393600e-07
2.539000000000000000e+03 4.881126022338867188e+01 -2.576560974121093750e+01 3.015593588352203369e-01 -5.547959804534912109e-01 -7.597099244594573975e-02 -1.218488812446594238e+00
2.540000000000000000e+03 7.719931793212890625e+01 -2.312345695495605469e+01 -2.781536057591438293e-02 -1.264421921223402023e-02 -1.213787402957677841e-02 -4.114117473363876343e-02
2.541000000000000000e+03 7.770539093017578125e+01 -2.214262390136718750e+01 -2.205989509820938110e-02 -3.130105510354042053e-02 -1.600828394293785095e-02 -5.103015154600143433e-02
2.542000000000000000e+03 4.652925872802734375e+01 -2.670873451232910156e+01 6.963521987199783325e-02 -8.236163258552551270e-01 -2.261943221092224121e-01 -1.129871487617492676e+00
2.543000000000000000e+03 5.435878372192382812e+01 -2.590955734252929688e+01 1.981097221374511719e+00 1.677131056785583496e+00 1.097468495368957520e+00 2.712114453315734863e-01
2.544000000000000000e+03 4.788412857055664062e+01 -2.518420982360839844e+01 -3.633220866322517395e-02 -6.715340018272399902e-01 -2.123598605394363403e-01 -1.343119263648986816e+00
2.545000000000000000e+03 7.506780242919921875e+01 -2.332182121276855469e+01 -6.816104054450988770e-02 2.915099821984767914e-02 -1.170301344245672226e-02 -3.385610505938529968e-02
2.546000000000000000e+03 7.600235748291015625e+01 -1.971944808959960938e+01 -5.733299255371093750e-02 5.550195928663015366e-03 -1.553483866155147552e-02 -1.247424706816673279e-01
2.547000000000000000e+03 4.790423202514648438e+01 -8.916146278381347656e+00 -1.885891833808273077e-05 -2.992200279550161213e-06 -6.555335403390927240e-06 -5.228510417509824038e-06
2.548000000000000000e+03 2.856515884399414062e+01 -1.056827926635742188e+01 4.921217623632401228e-06 -1.804354837986466009e-06 9.350588356937805656e-07 4.689183583650446963e-07
2.549000000000000000e+03 2.912735939025878906e+01 -1.184975337982177734e+01 6.095040134823648259e-06 -1.228449946211185306e-06 1.459977056583738886e-06 -1.558342773932963610e-06
2.550000000000000000e+03 4.831942367553710938e+01 -1.247858238220214844e+01 1.257225903827929869e-05 -2.385860625508939847e-06 3.055919478356372565e-06 7.167944460206854274e-08
2.551000000000000000e+03 5.188817214965820312e+01 -2.343103599548339844e+01 -5.634781122207641602e-01 -3.393799662590026855e-01 -2.708574235439300537e-01 -1.359071612358093262e+00
2.552000000000000000e+03 5.226031875610351562e+01 -2.550094032287597656e+01 1.057282209396362305e+00 2.244913429021835327e-01 3.845320641994476318e-01 -7.715466022491455078e-01
2.553000000000000000e+03 5.121027374267578125e+01 -2.362487792968750000e+01 -5.069099664688110352e-01 -3.889134824275970459e-01 -2.687470316886901855e-01 -1.418571114540100098e+00
2.554000000000000000e+03 4.935998916625976562e+01 -2.489843559265136719e+01 7.295793294906616211e-02 -5.278380513191223145e-01 -1.364640444517135620e-01 -1.362652301788330078e+00
2.555000000000000000e+03 5.122718429565429688e+01 -1.576217174530029297e+01 3.545939762261696160e-06 4.946115836901299190e-07 1.212165443575941026e-06 -9.217764045388321392e-07
2.556000000000000000e+03 5.100728225708007812e+01 -1.518233680725097656e+01 -3.841316356556490064e-06 -4.983904489108681446e-08 -1.167346567854110617e-06 1.879253431980032474e-06
2.557000000000000000e+03 4.569356155395507812e+01 -4.230712413787841797e+00 -1.372891074424842373e-05 -2.252060767204966396e-05 -1.087485543393995613e-05 -2.080518606817349792e-05
2.558000000000000000e+03 4.629555511474609375e+01 -4.029774665832519531e+00 2.168485298170708120e-05 2.089114059344865382e-05 1.277279807254672050e-05 2.245836549263913184e-05
2.559000000000000000e+03 4.837420654296875000e+01 -1.174857807159423828e+01 -1.451338630431564525e-05 9.772880957825691439e-07 -4.060829269292298704e-06 -1.515910184934909921e-06
2.560000000000000000e+03 4.909193801879882812e+01 -1.104145050048828125e+01 -1.644585790927521884e-05 2.378433663352552685e-07 -4.862404239247553051e-06 -2.608952627269900404e-06
2.561000000000000000e+03 4.403846359252929688e+01 6.100931167602539062e-01 -4.156704744673334062e-05 -1.280221113120205700e-05 -1.631077793717850000e-05 -2.780777685984503478e-05
2.562000000000000000e+03 4.431436157226562500e+01 1.573922276496887207e+00 -5.781252184533514082e-05 -1.172918291558744386e-05 -2.086251151922624558e-05 -3.322359407320618629e-05
2.563000000000000000e+03 6.679498291015625000e+01 -1.956216239929199219e+01 -5.411822348833084106e-02 9.356715679168701172e-01 2.644659876823425293e-01 9.147436022758483887e-01
2.564000000000000000e+03 4.320832443237304688e+01 1.941075563430786133e+00 -4.469796840567141771e-05 -1.052347670338349417e-05 -1.656643325986806303e-05 -2.896604746638331562e-05
2.565000000000000000e+03 5.399058151245117188e+01 -2.299590110778808594e+01 -4.891132712364196777e-01 9.817786514759063721e-02 -1.172806173563003540e-01 -9.707147479057312012e-01
2.566000000000000000e+03 5.149367141723632812e+01 -2.428528785705566406e+01 8.238863945007324219e-02 -2.728753089904785156e-01 -5.714600160717964172e-02 -1.261142134666442871e+00
2.567000000000000000e+03 5.213997268676757812e+01 -2.404740524291992188e+01 2.359525859355926514e-02 -1.558927446603775024e-01 -3.968924656510353088e-02 -1.194101452827453613e+00
2.568000000000000000e+03 4.687052154541015625e+01 -1.583308410644531250e+01 -3.072447498198016547e-06 -2.572905941633507609e-06 -1.693606009212089702e-06 -1.910804485305561684e-06
2.569000000000000000e+03 4.654059982299804688e+01 -4.702015876770019531e+00 -2.105044404743239284e-05 -1.616480221855454147e-05 -1.116457406169502065e-05 -1.818217788240872324e-05
2.570000000000000000e+03 4.864936065673828125e+01 -1.357773399353027344e+01 -2.226906417490681633e-06 -5.403626346378587186e-06 -2.289159965584985912e-06 -7.375854238489409909e-06
2.571000000000000000e+03 4.837101364135742188e+01 -1.552014923095703125e+01 -4.810075552086345851e-06 -1.284659106204344425e-06 -1.828420408855890855e-06 -2.026005176958278753e-06
2.572000000000000000e+03 7.601100158691406250e+01 3.513577651977539062e+01 -1.002008914947509766e-01 -2.584602870047092438e-02 -3.781407698988914490e-02 3.701128959655761719e-01
2.573000000000000000e+03 3.209189224243164062e+01 -1.385430622100830078e+01 -2.917491883636103012e-06 -6.823495368735166267e-07 -1.079952426152885891e-06 -9.397512030773214065e-07
2.574000000000000000e+03 5.552857589721679688e+01 -2.582079505920410156e+01 2.438423633575439453e+00 2.677564144134521484e+00 1.534796357154846191e+00 1.138103008270263672e+00
2.575000000000000000e+03 6.573349761962890625e+01 -1.947787284851074219e+01 -1.830899268388748169e-01 1.170799970626831055e+00 2.963130176067352295e-01 1.053259849548339844e+00
2.576000000000000000e+03 4.677014923095703125e+01 -5.394917011260986328e+00 2.004723683057818562e-05 1.576263821334578097e-05 1.074296233127824962e-05 1.487185545556712896e-05
2.577000000000000000e+03 7.670053863525390625e+01 -3.528393173217773438e+01 -1.301226788200438023e-03 -8.591989055275917053e-03 -2.967964624986052513e-03 1.299211103469133377e-02
2.578000000000000000e+03 7.549967956542968750e+01 -3.593572998046875000e+01 -2.251824596896767616e-03 -7.709102705121040344e-03 -2.988278167322278023e-03 1.685814000666141510e-02
2.579000000000000000e+03 4.282189559936523438e+01 -2.627486944198608398e+00 3.004235077241901308e-05 -1.074940769285603892e-06 8.690222784935031086e-06 -5.228092504694359377e-06
2.580000000000000000e+03 4.506604385375976562e+01 2.208464592695236206e-01 -5.197029167902655900e-05 -1.338094716629711911e-05 -1.960537156264763325e-05 -3.348196332808583975e-05
2.581000000000000000e+03 6.633908271789550781e+00 4.829388141632080078e+00 2.529074663470964879e-06 8.538464498997200280e-06 3.320261839689919725e-06 -1.494672687840647995e-05
2.582000000000000000e+03 4.236857986450195312e+01 5.135736942291259766e+00 7.878644828451797366e-05 2.459055031067691743e-05 3.101309994235634804e-05 4.015572631033137441e-05
2.583000000000000000e+03 4.600397109985351562e+01 -1.828760504722595215e+00 3.870438740705139935e-05 2.068024878099095076e-05 1.781539140210952610e-05 2.567911724327132106e-05
2.584000000000000000e+03 7.674269866943359375e+01 -3.129677009582519531e+01 -1.686050323769450188e-03 -2.142271492630243301e-03 -1.148496521636843681e-03 2.847379073500633240e-03
2.585000000000000000e+03 7.606288146972656250e+01 -3.125335121154785156e+01 -6.492360495030879974e-03 6.793655920773744583e-04 -1.743898494169116020e-03 3.991374745965003967e-03
2.586000000000000000e+03 1.629363632202148438e+01 2.955844163894653320e+00 3.929520516976481304e-06 -1.679335241533408407e-06 6.750556167389731854e-07 -2.786832965284702368e-06
2.587000000000000000e+03 1.630577087402343750e+01 1.347788691520690918e+00 1.888042061182204634e-05 5.865046205144608393e-06 7.423639999615261331e-06 -1.164230434369528666e-05
2.588000000000000000e+03 4.510087203979492188e+01 3.036267089843750000e+01 -2.612075535580515862e-03 5.510016853804700077e-05 -7.670925697311758995e-04 2.072201605187729001e-04
2.589000000000000000e+03 4.814617538452148438e+01 -7.400812625885009766e+00 2.205775854235980660e-05 5.353732376534026116e-06 8.223447366617619991e-06 7.517455287597840652e-06
2.590000000000000000e+03 4.768657684326171875e+01 -8.217673301696777344e+00 1.957511813088785857e-05 5.202992724662180990e-06 7.433433438563952222e-06 6.345534984575351700e-06
2.591000000000000000e+03 5.669060134887695312e+01 -2.442666625976562500e+01 2.270726680755615234e+00 2.223226547241210938e+00 1.348186016082763672e+00 1.318636655807495117e+00
2.592000000000000000e+03 3.390236854553222656e+00 8.415862083435058594e+00 6.060876785340951756e-06 9.146087904809974134e-06 4.562089543469483033e-06 -2.915177446993766353e-06
2.593000000000000000e+03 3.560663223266601562e+01 -1.636688804626464844e+01 3.432078983678366058e-06 9.229281658917898312e-07 1.306502213083149400e-06 2.464038743710261770e-06
2.594000000000000000e+03 6.894486427307128906e+00 4.106161594390869141e+00 7.793341865180991590e-06 2.534230532091896748e-07 2.414029495412250981e-06 -4.930407158099114895e-06
2.595000000000000000e+03 8.562325477600097656e+00 -5.208200454711914062e+00 4.372986586531624198e-05 2.349027272430248559e-05 2.016604230448137969e-05 1.173611144622555003e-05
2.596000000000000000e+03 7.587778472900390625e+01 -3.505776977539062500e+01 -9.061680175364017487e-03 -2.807949902489781380e-03 -3.560889046639204025e-03 1.429446227848529816e-02
2.597000000000000000e+03 4.010810375213623047e+00 3.901975393295288086e+00 5.566144864133093506e-06 1.891464648906548973e-06 2.237282842543208972e-06 -3.927776106138480827e-06
2.598000000000000000e+03 6.321808338165283203e+00 5.537439823150634766e+00 4.642085059458622709e-06 2.610804131109034643e-06 2.175866711695562117e-06 -2.891473513955133967e-06
2.599000000000000000e+03 4.710394382476806641e+00 3.917565107345581055e+00 8.250453902292065322e-07 5.623210654448485002e-06 1.934476813403307460e-06 -8.319145308632869273e-06
2.600000000000000000e+03 5.966650962829589844e+00 4.688733577728271484e+00 5.942188181506935507e-06 1.898634081953787245e-06 2.352246838199789636e-06 -4.357082616479601711e-06
2.601000000000000000e+03 7.604695796966552734e+00 4.245219707489013672e+00 3.828133685601642355e-06 9.543185115035157651e-06 4.011395503766834736e-06 -1.501046335761202499e-05
2.602000000000000000e+03 6.643032073974609375e+01 -1.171478652954101562e+01 5.827713385224342346e-02 1.419055819511413574e+00 4.431999027729034424e-01 4.212006330490112305e-01
2.603000000000000000e+03 6.890080261230468750e+01 -1.122623825073242188e+01 -7.816451042890548706e-02 1.389268159866333008e+00 3.933311104774475098e-01 1.581401228904724121e-01
2.604000000000000000e+03 2.291905593872070312e+01 -4.157139301300048828e+00 1.128054918808629736e-05 3.433630126892239787e-06 4.414253908180398867e-06 -5.586938186752377078e-06
2.605000000000000000e+03 2.808705091476440430e+00 2.928663635253906250e+01 -2.932729330495931208e-05 2.688520362426061183e-05 -7.326268018914561253e-07 1.588486156833823770e-06
2.606000000000000000e+03 3.536938190460205078e+00 -3.050715255737304688e+01 1.005158177576959133e-03 1.708387862890958786e-04 3.527991066221147776e-04 1.037747206282801926e-04
2.607000000000000000e+03 8.533486366271972656e+00 -3.052279090881347656e+01 1.741581829264760017e-03 2.334219752810895443e-04 5.925011355429887772e-04 6.614169687964022160e-04
2.608000000000000000e+03 4.722760009765625000e+01 -6.809009552001953125e+00 1.975246414076536894e-05 9.761158253240864724e-06 8.854086445353459567e-06 9.101762771024368703e-06
2.609000000000000000e+03 7.752720642089843750e+01 5.745859622955322266e+00 4.801723361015319824e-02 -1.353852391242980957e+00 -3.917505443096160889e-01 4.033632576465606689e-02
2.610000000000000000e+03 7.287380981445312500e+01 5.294160366058349609e+00 1.890830695629119873e-01 2.487443685531616211e+00 8.029580116271972656e-01 1.566665014252066612e-03
2.611000000000000000e+03 6.413283538818359375e+01 -1.808270835876464844e+01 -1.163523077964782715e+00 1.499431729316711426e+00 1.007725894451141357e-01 7.720755338668823242e-01
2.612000000000000000e+03 7.670462036132812500e+01 2.894678688049316406e+01 6.299445778131484985e-02 -5.395737290382385254e-01 -1.429737806320190430e-01 3.724484145641326904e-01
2.613000000000000000e+03 7.731536102294921875e+01 3.354584884643554688e+01 -3.226458281278610229e-02 -5.213002562522888184e-01 -1.660694628953933716e-01 3.646214902400970459e-01
2.614000000000000000e+03 7.122772216796875000e+01 3.055361938476562500e+01 2.239682674407958984e-01 1.943915009498596191e+00 6.503649950027465820e-01 3.226089105010032654e-02
2.615000000000000000e+03 4.539480972290039062e+01 -4.689433276653289795e-01 4.672050999943166971e-05 2.211010178143624216e-05 2.064918407995719463e-05 3.265800478402525187e-05
2.616000000000000000e+03 4.565986251831054688e+01 -2.761171817779541016e+00 2.128003688994795084e-05 2.477980888215824962e-05 1.381795391353080049e-05 2.832461723301094025e-05
2.617000000000000000e+03 6.028006553649902344e+00 -3.135326004028320312e+01 9.362440905533730984e-04 5.609252184513024986e-05 2.977009862661361694e-04 -5.435233106254599988e-05
2.618000000000000000e+03 4.359363937377929688e+01 -1.683627319335937500e+01 5.619457965622132178e-07 3.039724788322928362e-06 1.080501192518568132e-06 8.909386792765872087e-07
2.619000000000000000e+03 4.180089187622070312e+01 -1.702230644226074219e+01 -3.232150220355833881e-06 -9.339505595562513918e-07 -1.249830233973625582e-06 -6.399968128789623734e-07
2.620000000000000000e+03 3.924585580825805664e+00 3.176035881042480469e+01 -2.384309664194006473e-05 5.809059075545519590e-06 -5.410211542766774073e-06 1.876968963188119233e-05
2.621000000000000000e+03 7.753807830810546875e+01 4.948085784912109375e+00 5.695601925253868103e-02 -1.362309813499450684e+00 -3.916061520576477051e-01 9.526951238512992859e-03
2.622000000000000000e+03 7.672285461425781250e+01 2.180302238464355469e+01 4.703462868928909302e-02 -6.691139936447143555e-01 -1.866238117218017578e-01 5.897051095962524414e-02
2.623000000000000000e+03 7.747136688232421875e+01 2.500381851196289062e+01 5.925788730382919312e-02 -1.152900576591491699e+00 -3.280928134918212891e-01 1.667475551366806030e-01
2.624000000000000000e+03 7.678836059570312500e+01 2.340340995788574219e+01 8.481736481189727783e-02 -7.053035497665405273e-01 -1.861458569765090942e-01 1.085390448570251465e-01
2.625000000000000000e+03 7.680996704101562500e+01 -1.188860416412353516e+01 -3.939471766352653503e-02 -2.541955113410949707e-01 -8.807706832885742188e-02 -2.940292358398437500e-01
2.626000000000000000e+03 7.749768066406250000e+01 -9.467085838317871094e+00 -1.802559569478034973e-02 -5.809905529022216797e-01 -1.797048449516296387e-01 -3.006677329540252686e-01
2.627000000000000000e+03 7.681118011474609375e+01 -9.472800254821777344e+00 -2.986321039497852325e-02 -3.619010746479034424e-01 -1.175292879343032837e-01 -3.438962996006011963e-01
2.628000000000000000e+03 7.674411773681640625e+01 1.288225746154785156e+01 -3.879385069012641907e-02 -6.660205721855163574e-01 -2.114443331956863403e-01 2.010357007384300232e-02
2.629000000000000000e+03 7.742781829833984375e+01 1.857836151123046875e+01 1.430639903992414474e-02 -1.201061606407165527e+00 -3.560265600681304932e-01 3.182522021234035492e-03
2.630000000000000000e+03 7.669998931884765625e+01 1.771537590026855469e+01 1.184560544788837433e-02 -6.509877443313598633e-01 -1.917426437139511108e-01 -3.628392005339264870e-03
2.631000000000000000e+03 7.681579589843750000e+01 -4.753569126129150391e+00 1.895007304847240448e-02 -5.821200609207153320e-01 -1.689510047435760498e-01 -3.749275803565979004e-01
2.632000000000000000e+03 7.749254608154296875e+01 -3.899420261383056641e+00 2.214906923472881317e-02 -9.943574666976928711e-01 -2.916625142097473145e-01 -3.242931663990020752e-01
2.633000000000000000e+03 7.681489562988281250e+01 -5.541742324829101562e+00 7.267538923770189285e-03 -5.452553033828735352e-01 -1.613963246345520020e-01 -3.779330849647521973e-01
2.634000000000000000e+03 7.743869781494140625e+01 1.374295425415039062e+01 -2.327464148402214050e-02 -1.200463533401489258e+00 -3.671214580535888672e-01 1.042235456407070160e-02
2.635000000000000000e+03 7.605595397949218750e+01 1.283341789245605469e+01 -5.441989004611968994e-02 -1.325052976608276367e-01 -5.607755482196807861e-02 1.750545203685760498e-02
2.636000000000000000e+03 7.460424804687500000e+01 5.703666687011718750e+00 1.287929564714431763e-01 9.387567639350891113e-01 3.202649354934692383e-01 2.849272266030311584e-02
2.637000000000000000e+03 7.261385345458984375e+01 8.705696105957031250e+00 1.061222050338983536e-02 2.547330379486083984e+00 7.673828005790710449e-01 7.995598018169403076e-02
2.638000000000000000e+03 7.669445800781250000e+01 2.098854446411132812e+01 4.046389460563659668e-02 -6.519750952720642090e-01 -1.834533661603927612e-01 4.231068119406700134e-02
2.639000000000000000e+03 7.745610809326171875e+01 9.739120483398437500e+00 -1.743434369564056396e-02 -1.244689464569091797e+00 -3.786371350288391113e-01 8.069932460784912109e-02
2.640000000000000000e+03 7.688812255859375000e+01 3.334640264511108398e+00 9.006173908710479736e-02 -8.443341255187988281e-01 -2.262817174196243286e-01 -5.912176519632339478e-02
2.641000000000000000e+03 7.750408172607421875e+01 1.742522120475769043e+00 7.766316831111907959e-02 -1.304059505462646484e+00 -3.679189085960388184e-01 -1.291775554418563843e-01
2.642000000000000000e+03 7.680513000488281250e+01 9.322904348373413086e-01 1.096824631094932556e-01 -7.617861032485961914e-01 -1.956310868263244629e-01 -1.905427277088165283e-01
2.643000000000000000e+03 7.743016815185546875e+01 1.454546356201171875e+01 -1.704113371670246124e-02 -1.197255373001098633e+00 -3.642889559268951416e-01 1.629276666790246964e-03
2.644000000000000000e+03 7.670048522949218750e+01 1.528698444366455078e+01 -1.290180440992116928e-02 -6.496207118034362793e-01 -1.987567394971847534e-01 -9.463205002248287201e-03
2.645000000000000000e+03 7.614117431640625000e+01 -4.022636890411376953e+00 4.064270481467247009e-02 -2.438197582960128784e-01 -6.095311418175697327e-02 -3.866242170333862305e-01
2.646000000000000000e+03 7.248031616210937500e+01 1.744365310668945312e+01 3.001050464808940887e-02 2.549865961074829102e+00 7.739629149436950684e-01 7.884548045694828033e-03
2.647000000000000000e+03 7.679277038574218750e+01 -3.161664009094238281e+00 4.356169700622558594e-02 -6.302828192710876465e-01 -1.760163456201553345e-01 -3.551114499568939209e-01
2.648000000000000000e+03 7.610456085205078125e+01 2.656311607360839844e+01 1.314349621534347534e-01 -2.301365286111831665e-01 -2.961046807467937469e-02 2.669763565063476562e-01
2.649000000000000000e+03 7.672867584228515625e+01 2.816029548645019531e+01 8.253459632396697998e-02 -5.834994316101074219e-01 -1.502894461154937744e-01 3.365147709846496582e-01
2.650000000000000000e+03 7.745945739746093750e+01 1.134022712707519531e+01 -3.006503544747829437e-02 -1.222473978996276855e+00 -3.757617175579071045e-01 5.321517586708068848e-02
2.651000000000000000e+03 7.483339691162109375e+01 1.205083751678466797e+01 -1.122327148914337158e-01 7.738978266716003418e-01 1.984995305538177490e-01 2.139544673264026642e-02
2.652000000000000000e+03 7.749904632568359375e+01 -8.668881416320800781e+00 -1.604537479579448700e-02 -6.399253010749816895e-01 -1.967912018299102783e-01 -3.119484782218933105e-01
2.653000000000000000e+03 7.613495635986328125e+01 -1.025292205810546875e+01 -4.744915664196014404e-02 -1.264447122812271118e-01 -5.216816067695617676e-02 -3.571048974990844727e-01
2.654000000000000000e+03 7.750057220458984375e+01 -7.873588562011718750e+00 -1.236658543348312378e-02 -7.001984119415283203e-01 -2.137694954872131348e-01 -3.215087652206420898e-01
2.655000000000000000e+03 7.674283599853515625e+01 8.888462066650390625e+00 -5.007409024983644485e-03 -6.964391469955444336e-01 -2.104339748620986938e-01 9.514905512332916260e-02
2.656000000000000000e+03 7.674700927734375000e+01 1.049412918090820312e+01 -4.197658598423004150e-02 -6.733339428901672363e-01 -2.145931571722030640e-01 7.397619634866714478e-02
2.657000000000000000e+03 7.679333496093750000e+01 7.280826568603515625e+00 3.059509024024009705e-02 -7.492056488990783691e-01 -2.155831754207611084e-01 8.347476273775100708e-02
2.658000000000000000e+03 7.675564575195312500e+01 1.208721542358398438e+01 -4.430600255727767944e-02 -6.706490516662597656e-01 -2.144865244626998901e-01 3.762519732117652893e-02
2.659000000000000000e+03 7.746560668945312500e+01 2.580206108093261719e+01 6.307017058134078979e-02 -1.118026018142700195e+00 -3.164867758750915527e-01 1.989261358976364136e-01
2.660000000000000000e+03 7.687520599365234375e+01 2.535657167434692383e+00 1.055060327053070068e-01 -8.341358900070190430e-01 -2.185889482498168945e-01 -1.010587587952613831e-01
2.661000000000000000e+03 7.273732757568359375e+01 2.586415052413940430e+00 2.941826283931732178e-01 2.520103931427001953e+00 8.442860245704650879e-01 3.351693600416183472e-02
2.662000000000000000e+03 7.678981781005859375e+01 2.419318580627441406e+01 8.766438066959381104e-02 -7.032222747802734375e-01 -1.846673786640167236e-01 1.463288813829421997e-01
2.663000000000000000e+03 7.452886962890625000e+01 2.226500511169433594e+01 1.218891814351081848e-01 9.228411316871643066e-01 3.134191036224365234e-01 3.572327643632888794e-02
2.664000000000000000e+03 7.613827514648437500e+01 -1.587524509429931641e+01 -5.664335936307907104e-02 -2.978027425706386566e-02 -2.592708915472030640e-02 -2.124981731176376343e-01
2.665000000000000000e+03 7.682292175292968750e+01 -1.508659076690673828e+01 -4.072298854589462280e-02 -1.406529545783996582e-01 -5.441278219223022461e-02 -2.177316844463348389e-01
2.666000000000000000e+03 7.683220672607421875e+01 -1.589368438720703125e+01 -3.930045664310455322e-02 -1.191432848572731018e-01 -4.753312095999717712e-02 -1.998605877161026001e-01
2.667000000000000000e+03 7.517903900146484375e+01 -2.158575057983398438e+01 -8.238551020622253418e-02 3.964663669466972351e-02 -1.282166223973035812e-02 -7.665286213159561157e-02
2.668000000000000000e+03 7.751556396484375000e+01 -1.828371810913085938e+01 -2.400928921997547150e-02 -1.137008816003799438e-01 -4.131305217742919922e-02 -1.296147406101226807e-01
2.669000000000000000e+03 7.679313659667968750e+01 -1.907278251647949219e+01 -3.852219134569168091e-02 -4.769983887672424316e-02 -2.586660906672477722e-02 -1.313917338848114014e-01
2.670000000000000000e+03 7.668802642822265625e+01 -1.990700912475585938e+01 -4.396979138255119324e-02 -2.818372659385204315e-02 -2.164605446159839630e-02 -1.121707484126091003e-01
2.671000000000000000e+03 7.742188262939453125e+01 2.976903915405273438e+01 2.906485833227634430e-02 -8.601651787757873535e-01 -2.493301033973693848e-01 3.512904345989227295e-01
2.672000000000000000e+03 7.669373321533203125e+01 2.972418212890625000e+01 4.490480571985244751e-02 -4.999082684516906738e-01 -1.365010440349578857e-01 3.920300602912902832e-01
2.673000000000000000e+03 7.676562500000000000e+01 1.269536018371582031e-01 9.993089735507965088e-02 -7.229581475257873535e-01 -1.869081705808639526e-01 -2.366376817226409912e-01
2.674000000000000000e+03 7.673982238769531250e+01 -6.925136446952819824e-01 8.655684441328048706e-02 -6.861167550086975098e-01 -1.798679828643798828e-01 -2.749920785427093506e-01
2.675000000000000000e+03 7.247099304199218750e+01 1.904592132568359375e+01 3.310146182775497437e-02 2.574185848236083984e+00 7.821862101554870605e-01 -3.182528540492057800e-03
2.676000000000000000e+03 7.741432952880859375e+01 3.054138755798339844e+01 1.852395944297313690e-02 -7.936903834342956543e-01 -2.325499206781387329e-01 3.620249032974243164e-01
2.677000000000000000e+03 7.684053802490234375e+01 -1.669381141662597656e+01 -3.841845318675041199e-02 -9.961780160665512085e-02 -4.141087830066680908e-02 -1.800122410058975220e-01
2.678000000000000000e+03 7.684285736083984375e+01 -1.748342704772949219e+01 -3.733371943235397339e-02 -8.110821247100830078e-02 -3.553257882595062256e-02 -1.644797623157501221e-01
2.679000000000000000e+03 7.681414031982421875e+01 -6.329762458801269531e+00 -5.098120309412479401e-03 -5.116226673126220703e-01 -1.550162434577941895e-01 -3.785111606121063232e-01
2.680000000000000000e+03 7.681479644775390625e+01 -7.113340377807617188e+00 -1.261515635997056961e-02 -4.743147790431976318e-01 -1.460789889097213745e-01 -3.730795979499816895e-01
2.681000000000000000e+03 7.675402069091796875e+01 2.736938667297363281e+01 9.340050816535949707e-02 -6.161919236183166504e-01 -1.568374335765838623e-01 3.006160557270050049e-01
2.682000000000000000e+03 7.677344512939453125e+01 2.577454376220703125e+01 9.398275613784790039e-02 -6.732836961746215820e-01 -1.737902760505676270e-01 2.160459160804748535e-01
2.683000000000000000e+03 2.648380470275878906e+01 -7.964800834655761719e+00 6.675905751762911677e-06 -3.746876927834819071e-06 8.787085903350089211e-07 -2.549391638240194879e-06
2.684000000000000000e+03 7.681150054931640625e+01 -1.268117618560791016e+01 -4.171707853674888611e-02 -2.230712771415710449e-01 -7.943650335073471069e-02 -2.774992883205413818e-01
2.685000000000000000e+03 7.681372833251953125e+01 -1.347353458404541016e+01 -4.093200713396072388e-02 -1.933389902114868164e-01 -7.028130441904067993e-02 -2.563669681549072266e-01
2.686000000000000000e+03 7.640367126464843750e+01 3.470322799682617188e+01 -6.832192838191986084e-02 -1.569732874631881714e-01 -6.758856028318405151e-02 3.833093047142028809e-01
2.687000000000000000e+03 7.655439758300781250e+01 3.338257598876953125e+01 -4.135209694504737854e-02 -2.606121897697448730e-01 -9.058928489685058594e-02 4.094549417495727539e-01
2.688000000000000000e+03 6.692964935302734375e+01 -1.399679756164550781e+01 -3.681026399135589600e-01 1.255134940147399902e+00 2.661096751689910889e-01 2.510864138603210449e-01
2.689000000000000000e+03 2.563141345977783203e+00 2.198041534423828125e+01 1.771215647750068456e-05 2.529448283894453198e-05 1.290199179493356496e-05 -3.372378785115870414e-07
2.690000000000000000e+03 3.324970483779907227e+00 2.283083152770996094e+01 1.881405660242307931e-05 1.991373392229434103e-05 1.161833733931416646e-05 1.570619247104332317e-06
2.691000000000000000e+03 2.661128997802734375e+00 4.754725456237792969e+00 -3.096064119745278731e-06 5.554808012675493956e-06 7.376231110356457066e-07 -2.877938641177024692e-06
2.692000000000000000e+03 7.630640411376953125e+01 -2.242490577697753906e+01 -5.069214850664138794e-02 4.640934523195028305e-03 -1.381536386907100677e-02 -5.890012905001640320e-02
2.693000000000000000e+03 3.368091821670532227e+00 2.446249389648437500e+01 2.079763908113818616e-05 1.962613714567851275e-05 1.212713232234818861e-05 5.048441835242556408e-06
2.694000000000000000e+03 2.494352579116821289e+00 1.474535465240478516e+01 -8.688205525686498731e-06 2.165726073144469410e-05 3.890716925525339320e-06 -7.301964160433271900e-06
2.695000000000000000e+03 3.218300342559814453e+00 1.560168743133544922e+01 -9.074175977730192244e-06 2.045381734205875546e-05 3.413892272874363698e-06 -8.348912160727195442e-06
2.696000000000000000e+03 4.314281463623046875e+00 -4.898297786712646484e+00 -6.423910235753282905e-05 -4.936938694299897179e-06 -2.075281190627720207e-05 -3.332899359520524740e-05
2.697000000000000000e+03 3.245354413986206055e+00 1.801189994812011719e+01 1.032699947245419025e-05 2.245241557830013335e-05 9.833824151428416371e-06 -2.847107907655299641e-06
2.698000000000000000e+03 3.213401794433593750e+00 1.319017696380615234e+01 6.150109129521297291e-06 1.717178747639991343e-05 6.996569027251098305e-06 -2.433327608741819859e-06
2.699000000000000000e+03 3.217496156692504883e+00 -8.945435523986816406e+00 -1.451745047233998775e-04 -5.106245225761085749e-06 -4.508422352955676615e-05 -1.865062040451448411e-05
2.700000000000000000e+03 2.563883066177368164e+00 -2.650200271606445312e+01 7.261019200086593628e-04 -2.462160227878484875e-05 2.104441082337871194e-04 -5.755100210080854595e-05
2.701000000000000000e+03 3.288357973098754883e+00 -2.153250122070312500e+01 -5.585679900832474232e-04 4.129698481847299263e-06 -1.663314760662615299e-04 -1.284276077058166265e-04
2.702000000000000000e+03 4.014245033264160156e+00 -2.230533599853515625e+01 -6.644297391176223755e-04 4.038008773932233453e-05 -1.872149005066603422e-04 -1.926714758155867457e-04
2.703000000000000000e+03 6.119096279144287109e+00 -2.365123176574707031e+01 2.504245785530656576e-04 -2.703341888263821602e-04 -5.972881808702368289e-06 -2.440591488266363740e-04
2.704000000000000000e+03 3.390038728713989258e+00 7.684232234954833984e+00 -6.345931524265324697e-06 9.717221473692916334e-06 1.011386871141439769e-06 -1.088860972231486812e-05
2.705000000000000000e+03 3.108266353607177734e+00 -1.667112541198730469e+01 -3.942853363696485758e-04 -6.035172077645256650e-07 -1.184666616609320045e-04 -1.261464058188721538e-04
2.706000000000000000e+03 3.114006519317626953e+00 -1.591907215118408203e+01 3.503491752780973911e-04 1.732545388222206384e-05 1.103023896575905383e-04 1.211405469803139567e-04
2.707000000000000000e+03 7.857456207275390625e+00 -1.701820564270019531e+01 1.561865792609751225e-04 9.004793355416040868e-06 4.955741314915940166e-05 -3.704304617713205516e-05
2.708000000000000000e+03 3.754202365875244141e+00 -1.730467796325683594e+01 -4.129161825403571129e-04 9.537798177916556597e-06 -1.210135087603703141e-04 -1.510113361291587353e-04
2.709000000000000000e+03 2.513783216476440430e+00 -1.917700958251953125e+01 -4.411824047565460205e-04 -1.858398900367319584e-05 -1.379299210384488106e-04 -8.105149026960134506e-05
2.710000000000000000e+03 7.508311748504638672e+00 -1.866009902954101562e+01 -1.439790867152623832e-05 1.271488581551238894e-04 3.382528666406869888e-05 1.483712840126827359e-04
2.711000000000000000e+03 6.949584960937500000e+00 -1.912726402282714844e+01 -3.021808224730193615e-04 -6.060348096070811152e-05 -1.088352873921394348e-04 -1.843195932451635599e-04
2.712000000000000000e+03 2.495129108428955078e+00 1.153578090667724609e+01 -6.707527063554152846e-06 1.670273377385456115e-05 2.998561740241711959e-06 -9.002471415442414582e-06
2.713000000000000000e+03 3.219015359878540039e+00 1.239263057708740234e+01 -6.816593668190762401e-06 1.657445682212710381e-05 2.927358764281962067e-06 -1.080637321138055995e-05
2.714000000000000000e+03 3.230778455734252930e+00 1.159778118133544922e+01 5.660344868374522775e-06 1.452160540793556720e-05 6.054584900994086638e-06 -2.483097205185913481e-06
2.715000000000000000e+03 3.142223358154296875e+00 -1.440542030334472656e+01 2.715248556341975927e-04 4.211228952044621110e-05 9.409114863956347108e-05 8.872262696968391538e-05
2.716000000000000000e+03 2.486076354980468750e+00 -1.130732536315917969e+01 -1.907735277200117707e-04 -1.993807200051378459e-05 -6.321348337223753333e-05 -3.676393680507317185e-05
2.717000000000000000e+03 2.512008190155029297e+00 -2.405238151550292969e+01 -6.808122852817177773e-04 7.238402758957818151e-05 -1.825284853111952543e-04 -7.971146987983956933e-05
2.718000000000000000e+03 3.193073034286499023e+00 -2.478709411621093750e+01 -8.149065542966127396e-04 1.571297179907560349e-04 -1.973330508917570114e-04 -2.803308234433643520e-05
2.719000000000000000e+03 3.361066102981567383e+00 -2.886970520019531250e+01 1.001012162305414677e-03 -2.186163101214333437e-06 2.996477996930480003e-04 -6.788390601286664605e-05
2.720000000000000000e+03 5.235013484954833984e+00 -9.255784034729003906e+00 1.235141680808737874e-04 3.110086254309862852e-05 4.638450627680867910e-05 3.526577347656711936e-05
2.721000000000000000e+03 3.818763017654418945e+00 -2.471055412292480469e+01 9.404965094290673733e-04 -1.676444517215713859e-04 2.318556216778233647e-04 -9.694536856841295958e-06
2.722000000000000000e+03 2.835931301116943359e+00 6.772174835205078125e+00 -2.327972879356821068e-06 7.841947081033140421e-06 1.654192260502895806e-06 -1.043852262228028849e-05
2.723000000000000000e+03 5.279487133026123047e+00 4.598870277404785156e+00 1.338073843726306222e-06 6.533706709888065234e-06 2.361534143346943893e-06 -1.066463846655096859e-05
2.724000000000000000e+03 3.278244018554687500e+00 2.041913986206054688e+01 -1.632312159927096218e-05 2.700472577998880297e-05 3.204481117791146971e-06 -4.005020855402108282e-06
2.725000000000000000e+03 2.481587171554565430e+00 -1.210276126861572266e+01 2.092179784085601568e-04 2.462034353811759502e-05 7.015149458311498165e-05 4.550475205178372562e-05
2.726000000000000000e+03 3.175574541091918945e+00 -1.130550193786621094e+01 1.878596667665988207e-04 2.563195812399499118e-05 6.404748273780569434e-05 3.453311364864930511e-05
2.727000000000000000e+03 3.236715078353881836e+00 1.721521759033203125e+01 -1.098403572541428730e-05 2.230662175861652941e-05 3.396775809960672632e-06 -6.593762009288184345e-06
2.728000000000000000e+03 3.168666839599609375e+00 -1.209453392028808594e+01 -2.027067821472883224e-04 -3.195241515641100705e-05 -7.039775664452463388e-05 -4.282412919565103948e-05
2.729000000000000000e+03 3.599072694778442383e+00 2.853933906555175781e+01 -2.480664079484995455e-05 2.140281139872968197e-05 -1.021148591462406330e-06 -2.492948851795517839e-06
2.730000000000000000e+03 4.347055912017822266e+00 2.776518440246582031e+01 -2.679845783859491348e-05 2.039723767666146159e-05 -1.920366003105300479e-06 -6.503257736767409369e-06
2.731000000000000000e+03 3.113954305648803711e+00 -3.625829315185546875e+01 9.478515130467712879e-04 8.999103447422385216e-04 5.543285515159368515e-04 5.353427841328084469e-04
2.732000000000000000e+03 3.293458223342895508e+00 -2.069418907165527344e+01 4.713658709079027176e-04 3.947391087422147393e-05 1.532519381726160645e-04 9.997218148782849312e-05
2.733000000000000000e+03 6.595597743988037109e+00 -2.007706832885742188e+01 -4.624341090675443411e-04 -7.849381654523313046e-05 -1.622783747734501958e-04 -1.458592214476084337e-05
2.734000000000000000e+03 2.644971370697021484e+00 -5.723441600799560547e+00 8.069127943599596620e-05 8.510605766787193716e-06 2.676056647032964975e-05 1.931104088725987822e-05
2.735000000000000000e+03 3.275843620300292969e+00 1.000673389434814453e+01 5.424767095973948017e-06 1.177440026367548853e-05 5.159749889571685344e-06 -2.530786332499701530e-06
2.736000000000000000e+03 7.078036785125732422e+00 -2.623790359497070312e+01 -4.889650153927505016e-04 -3.344616925460286438e-05 -1.567233412060886621e-04 -2.953730290755629539e-04
2.737000000000000000e+03 4.035464763641357422e+00 2.049620437622070312e+01 1.335315664618974552e-05 1.842945493990555406e-05 9.534783202980179340e-06 -1.614619350220891647e-06
2.738000000000000000e+03 2.551993608474731445e+00 2.118100929260253906e+01 -1.746012821968179196e-05 3.041612944798544049e-05 3.886800186592154205e-06 -2.880444526454084553e-06
2.739000000000000000e+03 3.318038702011108398e+00 9.210481643676757812e+00 -5.260011221253080294e-06 1.216109558299649507e-05 2.070325081149348989e-06 -1.166644869954325259e-05
2.740000000000000000e+03 3.248661041259765625e+00 1.080219745635986328e+01 -5.931820851401425898e-06 1.444647477910621092e-05 2.554396360210375860e-06 -1.140923995990306139e-05
2.741000000000000000e+03 3.153865575790405273e+00 -1.364120483398437500e+01 -2.453159540891647339e-04 -4.367203655419871211e-05 -8.669639646541327238e-05 -6.996707088546827435e-05
2.742000000000000000e+03 3.160873174667358398e+00 -1.287387180328369141e+01 2.242009795736521482e-04 3.837879557977430522e-05 7.877393363742157817e-05 5.558403063332661986e-05
2.743000000000000000e+03 4.149168491363525391e+00 -2.959095001220703125e+01 1.231920323334634304e-03 8.029534001252613962e-06 3.719849628396332264e-04 -3.968605960835702717e-05
2.744000000000000000e+03 2.851455688476562500e+00 -3.222231674194335938e+01 -5.784445093013346195e-04 3.405545139685273170e-04 -7.136700151022523642e-05 3.998450702056288719e-04
2.745000000000000000e+03 7.738606452941894531e+00 -2.945977592468261719e+01 1.172242336906492710e-03 2.445037243887782097e-04 4.250238125678151846e-04 -1.347699144389480352e-04
2.746000000000000000e+03 7.738636970520019531e+00 -3.119279289245605469e+01 2.080427715554833412e-03 3.495505370665341616e-04 7.289935019798576832e-04 1.073360559530556202e-03
2.747000000000000000e+03 4.073382854461669922e+00 3.350186538696289062e+01 -9.439264431421179324e-06 8.622766472399234772e-06 -2.449494616030278848e-07 1.362900002277456224e-05
2.748000000000000000e+03 4.469877243041992188e+00 3.029611396789550781e+01 1.299793348152888939e-05 2.288629730173852295e-05 1.076526950782863423e-05 2.699684273466118611e-06
2.749000000000000000e+03 3.236392498016357422e+00 3.406010437011718750e+01 4.339504812378436327e-05 1.811897527659311891e-05 1.845420774770900607e-05 1.416665327269583941e-05
2.750000000000000000e+03 4.004380702972412109e+00 -2.803936195373535156e+01 1.013641594909131527e-03 -1.599921597517095506e-05 2.992927038576453924e-04 -1.390913530485704541e-04
2.751000000000000000e+03 3.643269777297973633e+00 3.016694259643554688e+01 -2.686828156583942473e-05 2.014413439610507339e-05 -2.017244014496100135e-06 7.906457540229894221e-06
2.752000000000000000e+03 2.778816699981689453e+00 2.848124694824218750e+01 2.528494042053353041e-05 2.628839320095721632e-05 1.547200008644722402e-05 4.383644409244880080e-06
2.753000000000000000e+03 3.226222276687622070e+00 1.640949058532714844e+01 8.176444680429995060e-06 2.149782631022389978e-05 8.902281479095108807e-06 -2.716926246648654342e-06
2.754000000000000000e+03 6.674584960937500000e+01 -1.236584663391113281e+01 -7.111903280019760132e-02 1.358101129531860352e+00 3.860946297645568848e-01 3.099258840084075928e-01
2.755000000000000000e+03 6.972048187255859375e+01 -7.971797943115234375e+00 8.456894010305404663e-02 1.827858209609985352e+00 5.737281441688537598e-01 2.453427016735076904e-01
2.756000000000000000e+03 4.034272766113281250e+01 1.440613842010498047e+01 -1.645677257329225540e-04 5.153344682184979320e-05 -3.391028440091758966e-05 6.195175501488847658e-06
2.757000000000000000e+03 4.126749801635742188e+01 1.612784385681152344e+01 2.381703525315970182e-04 5.080020855530165136e-05 8.669117232784628868e-05 1.671166864980477840e-05
2.758000000000000000e+03 7.179161071777343750e+01 1.739223670959472656e+01 2.249659411609172821e-02 3.083354949951171875e+00 9.317554831504821777e-01 1.211708225309848785e-02
2.759000000000000000e+03 7.176724243164062500e+01 2.057200050354003906e+01 4.476501047611236572e-02 3.104933023452758789e+00 9.449093937873840332e-01 -3.470179066061973572e-02
2.760000000000000000e+03 4.082114696502685547e+00 2.290761756896972656e+01 -2.237832450191490352e-05 2.937228055088780820e-05 2.098186769217136316e-06 -5.646761110256193206e-06
2.761000000000000000e+03 7.178706359863281250e+01 1.657801628112792969e+01 3.807849064469337463e-02 3.073091268539428711e+00 9.333509206771850586e-01 2.345186285674571991e-02
2.762000000000000000e+03 7.455103302001953125e+01 1.593844509124755859e+01 5.936868954449892044e-03 9.657287597656250000e-01 2.914996743202209473e-01 -2.086811885237693787e-02
2.763000000000000000e+03 7.242487335205078125e+01 2.138455581665039062e+01 8.334974944591522217e-02 2.574208974838256836e+00 7.972676157951354980e-01 -4.637119546532630920e-02
2.764000000000000000e+03 7.385395812988281250e+01 1.915224266052246094e+01 4.216061159968376160e-02 1.501849412918090820e+00 4.632030129432678223e-01 -6.986163090914487839e-03
2.765000000000000000e+03 7.178964996337890625e+01 1.819522857666015625e+01 2.241546660661697388e-02 3.092461824417114258e+00 9.344632029533386230e-01 6.668359972536563873e-03
2.766000000000000000e+03 3.343242406845092773e+00 2.364483070373535156e+01 -2.210508137068245560e-05 3.093150735367089510e-05 2.647927885846002027e-06 -5.093769686936866492e-06
2.767000000000000000e+03 7.243330383300781250e+01 2.060686111450195312e+01 6.372275948524475098e-02 2.592467308044433594e+00 7.968570590019226074e-01 -3.131867945194244385e-02
2.768000000000000000e+03 7.247700500488281250e+01 1.662902832031250000e+01 3.534413129091262817e-02 2.533874511718750000e+00 7.707656025886535645e-01 3.773591713979840279e-03
2.769000000000000000e+03 4.834440994262695312e+01 -1.103553867340087891e+01 1.612166488484945148e-05 7.171308880060678348e-08 4.858013653574744239e-06 2.818796247083810158e-06
2.770000000000000000e+03 4.244025039672851562e+01 -1.702491378784179688e+01 3.501208993839100003e-06 8.936187327890365850e-07 1.318448312304099090e-06 4.000837350304209394e-07
2.771000000000000000e+03 7.714166259765625000e+01 3.498686981201171875e+01 -5.546784028410911560e-02 -3.632703423500061035e-01 -1.256214529275894165e-01 3.397389054298400879e-01
2.772000000000000000e+03 7.573422241210937500e+01 3.613003921508789062e+01 -1.191378235816955566e-01 6.511138379573822021e-02 -1.620793156325817108e-02 3.298085331916809082e-01
2.773000000000000000e+03 7.709639739990234375e+01 3.571462249755859375e+01 -5.827243253588676453e-02 -3.089177608489990234e-01 -1.101570650935173035e-01 3.201569020748138428e-01
2.774000000000000000e+03 7.600320434570312500e+01 3.693471145629882812e+01 -1.234221085906028748e-01 4.549524281173944473e-03 -3.566177561879158020e-02 3.071854710578918457e-01
2.775000000000000000e+03 3.659787893295288086e+00 -3.219120025634765625e+01 9.828589390963315964e-04 3.581504861358553171e-04 4.023028304800391197e-04 4.317745042499154806e-04
2.776000000000000000e+03 3.385259151458740234e+00 3.670497512817382812e+01 2.908096939790993929e-05 2.144991185559774749e-06 9.367788152303546667e-06 -1.543303733342327178e-05
2.777000000000000000e+03 3.156061649322509766e+00 3.516509628295898438e+01 -2.342635343666188419e-05 1.610612525837495923e-05 -2.196068635385017842e-06 -1.249404704140033573e-05
2.778000000000000000e+03 5.876663208007812500e+00 -3.986509323120117188e+00 3.057214780710637569e-05 1.980202614504378289e-05 1.511225218564504758e-05 3.288840889581479132e-05
2.779000000000000000e+03 5.680191421508789062e+01 -2.251603889465332031e+01 1.651063188910484314e-02 8.196930885314941406e-01 2.508611083030700684e-01 2.235707044601440430e-01
2.780000000000000000e+03 5.739831924438476562e+01 -2.237099266052246094e+01 8.844640851020812988e-02 1.116758823394775391e+00 3.615615665912628174e-01 4.921582043170928955e-01
2.781000000000000000e+03 3.485143899917602539e+00 -4.921070575714111328e+00 6.892001692904159427e-05 3.480226268948172219e-06 2.172007225453853607e-05 2.121765464835334569e-05
2.782000000000000000e+03 4.501972961425781250e+01 -1.716215324401855469e+01 -1.677480895523331128e-06 -2.120811814165790565e-06 -1.139487835644104052e-06 -6.049650096429104451e-07
2.783000000000000000e+03 3.652994394302368164e+00 3.096986007690429688e+01 3.212162118870764971e-05 2.186405617976561189e-05 1.619570321054197848e-05 -1.324930599366780370e-05
2.784000000000000000e+03 7.215888214111328125e+01 -3.340623092651367188e+01 -2.515344507992267609e-02 1.107803080230951309e-02 -4.222624469548463821e-03 1.124738901853561401e-02
2.785000000000000000e+03 7.425172424316406250e+01 -3.236029434204101562e+01 -1.258069649338722229e-02 4.929670132696628571e-03 -2.295307815074920654e-03 5.927239079028367996e-03
2.786000000000000000e+03 5.234392642974853516e+00 -5.648173809051513672e+00 -2.148020212189294398e-05 -2.589263203844893724e-05 -1.421185061190044507e-05 -4.769416773342527449e-05
2.787000000000000000e+03 3.476852178573608398e+00 -5.732691287994384766e+00 -8.090901974355801940e-05 -9.044450962392147630e-06 -2.698604112083557993e-05 -2.017605402215849608e-05
2.788000000000000000e+03 3.423990726470947266e+00 -6.539944648742675781e+00 1.009547486319206655e-04 8.677349796926137060e-06 3.288962761871516705e-05 2.443227458570618182e-05
2.789000000000000000e+03 6.656158447265625000e+00 -4.626492977142333984e+00 3.020628719241358340e-05 2.205317650805227458e-05 1.567783874634187669e-05 2.990797474922146648e-05
2.790000000000000000e+03 7.552104949951171875e+01 -3.190255546569824219e+01 -7.851321250200271606e-03 1.525883213616907597e-03 -1.897631445899605751e-03 4.606897011399269104e-03
2.791000000000000000e+03 3.517389774322509766e+00 -3.513368225097656250e+01 6.054855184629559517e-04 9.502341854386031628e-04 4.667158937081694603e-04 1.176133635453879833e-03
2.792000000000000000e+03 3.671355485916137695e+00 -3.300938415527343750e+01 -5.607487983070313931e-04 5.302186473272740841e-04 -9.159044566331431270e-06 5.673478008247911930e-04
2.793000000000000000e+03 8.008455276489257812e+00 -4.555434703826904297e+00 3.036464113392867148e-05 2.671904803719371557e-05 1.712510675133671612e-05 2.592609052953775972e-05
2.794000000000000000e+03 7.354937553405761719e+00 -4.573061943054199219e+00 -2.987850530189462006e-05 -2.449784915370400995e-05 -1.631290615478064865e-05 -3.021375596290454268e-05
2.795000000000000000e+03 7.817101287841796875e+01 -3.141469573974609375e+01 5.720906192436814308e-04 -2.320983679965138435e-03 -5.246679647825658321e-04 1.853475929237902164e-03
2.796000000000000000e+03 7.515283966064453125e+01 -3.481233978271484375e+01 -5.171887110918760300e-03 -4.140056204050779343e-03 -2.793583087623119354e-03 1.466522179543972015e-02
2.797000000000000000e+03 7.711571502685546875e+01 -3.364879608154296875e+01 -1.119371969252824783e-03 -5.492366384714841843e-03 -1.983521506190299988e-03 7.699477951973676682e-03
2.798000000000000000e+03 4.046327972412109375e+01 2.067861175537109375e+01 -3.155638987664133310e-04 4.822580376639962196e-05 -8.020142558962106705e-05 1.167228856502333656e-05
2.799000000000000000e+03 7.156890106201171875e+01 -7.549585700035095215e-01 2.774144411087036133e-01 2.995588779449462891e+00 9.819009900093078613e-01 1.358093768358230591e-01
2.800000000000000000e+03 8.737799644470214844e+00 -2.837100601196289062e+01 1.108198892325162888e-03 -2.042821870418265462e-05 3.263312100898474455e-04 7.914716843515634537e-04
2.801000000000000000e+03 4.308393955230712891e+00 -3.042053031921386719e+01 -4.992211470380425453e-04 2.032489428529515862e-04 -8.879165397956967354e-05 5.101589486002922058e-04
2.802000000000000000e+03 3.564575576782226562e+01 -1.574755859375000000e+01 -3.614585693867411464e-06 -8.483052624796982855e-07 -1.338867264166765381e-06 -2.744735638771089725e-06
2.803000000000000000e+03 7.612519836425781250e+01 -3.425997543334960938e+01 -3.349234117195010185e-03 -5.169392563402652740e-03 -2.555588027462363243e-03 1.174060814082622528e-02
2.804000000000000000e+03 7.635939788818359375e+01 -3.612553024291992188e+01 -5.575954914093017578e-03 -6.881696172058582306e-03 -3.737295279279351234e-03 1.539801713079214096e-02
2.805000000000000000e+03 4.006275177001953125e+01 1.887524223327636719e+01 -2.436643699184060097e-04 3.895970439771190286e-05 -6.141139601822942495e-05 2.651452632562723011e-06
2.806000000000000000e+03 3.990401077270507812e+01 1.798314857482910156e+01 2.014131750911474228e-04 -1.238889126398134977e-06 6.005228351568803191e-05 7.344928690145025030e-06
2.807000000000000000e+03 4.553579330444335938e+01 -2.646420288085937500e+01 -9.315236657857894897e-02 -1.012750506401062012e+00 -3.317708671092987061e-01 -1.164413213729858398e+00
2.808000000000000000e+03 4.487839126586914062e+01 -1.653548622131347656e+01 2.579539341240888461e-06 1.833328838074521627e-06 1.323860374213836621e-06 -1.055100895541727368e-07
2.809000000000000000e+03 4.421325302124023438e+01 -1.661542892456054688e+01 -3.202018206138745882e-06 -1.489799728915386368e-06 -1.407545369147555903e-06 -1.149625290963740554e-06
2.810000000000000000e+03 6.788272094726562500e+01 -1.951754951477050781e+01 -2.301037125289440155e-02 6.085590720176696777e-01 1.756646186113357544e-01 7.097679376602172852e-01
2.811000000000000000e+03 2.332480239868164062e+01 -3.505852127075195312e+01 3.037816612049937248e-03 -1.155782229034230113e-04 8.766715181991457939e-04 1.127539016306400299e-02
2.812000000000000000e+03 2.202810859680175781e+01 -3.425711822509765625e+01 1.083357632160186768e-02 2.649836242198944092e-03 4.045024048537015915e-03 1.233150251209735870e-02
2.813000000000000000e+03 3.681592178344726562e+01 -1.588168907165527344e+01 -3.910605300916358829e-06 -4.546143941297486890e-07 -1.309565845986071508e-06 -1.855714572229771875e-06
2.814000000000000000e+03 3.631331634521484375e+01 -1.520324802398681641e+01 -4.315213118388783187e-06 -1.241951508745842148e-06 -1.667149376771703828e-06 -1.922263436426874250e-06
2.815000000000000000e+03 4.697555923461914062e+01 -1.346892070770263672e+01 -8.851474376569967717e-06 6.728230800945311785e-06 -6.369731408994994126e-07 2.395370302110677585e-06
2.816000000000000000e+03 3.733394622802734375e+01 -1.598065662384033203e+01 5.469241841637995094e-06 -5.118162675898929592e-07 1.487227677898772527e-06 1.771305505826603621e-06
2.817000000000000000e+03 7.199958038330078125e+01 7.816548824310302734e+00 1.395082771778106689e-01 3.086807727813720703e+00 9.678948521614074707e-01 1.711962558329105377e-02
2.818000000000000000e+03 7.400711822509765625e+01 8.068256378173828125e+00 6.182689964771270752e-02 1.541395425796508789e+00 4.809666872024536133e-01 8.796058595180511475e-02
2.819000000000000000e+03 2.706973648071289062e+01 -3.682332611083984375e+01 -1.162781100720167160e-02 -3.735837712883949280e-02 -1.469585578888654709e-02 -2.093398245051503181e-03
2.820000000000000000e+03 2.743855857849121094e+01 -3.557341766357421875e+01 -5.490863230079412460e-03 -2.210780978202819824e-02 -8.279602043330669403e-03 -5.034821573644876480e-03
2.821000000000000000e+03 4.745854949951171875e+01 -7.516608238220214844e+00 -1.955286643351428211e-05 -6.623095032409764826e-06 -7.852788257878273726e-06 -7.120203463273355737e-06
2.822000000000000000e+03 4.269213867187500000e+01 2.584875679016113281e+01 -5.324753001332283020e-04 2.933923969976603985e-04 -7.172486948547884822e-05 -2.148926869267597795e-04
2.823000000000000000e+03 4.156451034545898438e+01 2.462476348876953125e+01 -5.584610044024884701e-04 4.369985981611534953e-05 -1.544283441035076976e-04 -9.143214992946013808e-05
2.824000000000000000e+03 4.304305267333984375e+01 -1.701419067382812500e+01 -2.568317313489387743e-06 -1.241213340108515695e-06 -1.142859218816738576e-06 5.057307248534925748e-07
2.825000000000000000e+03 4.198260498046875000e+01 -1.557262897491455078e+01 -3.228370587748941034e-06 -2.810365458572050557e-06 -1.811620904845767654e-06 -1.126699316955637187e-06
2.826000000000000000e+03 4.024892807006835938e+01 1.976970100402832031e+01 2.090317575493827462e-04 -2.236381442344281822e-05 5.600038275588303804e-05 -3.680487134261056781e-05
2.827000000000000000e+03 4.241637802124023438e+01 3.378235340118408203e+00 -5.282098209136165679e-05 -8.972027899289969355e-06 -1.853790308814495802e-05 -3.164011650369502604e-05
2.828000000000000000e+03 7.237743377685546875e+01 -2.231614685058593750e+01 -1.679415106773376465e-01 6.019558757543563843e-02 -3.232377395033836365e-02 2.537880092859268188e-03
2.829000000000000000e+03 7.014609527587890625e+01 -8.835211753845214844e+00 1.175850816071033478e-02 1.578040122985839844e+00 4.769395887851715088e-01 1.029044762253761292e-01
2.830000000000000000e+03 7.370685577392578125e+00 -2.242324256896972656e+01 -5.699040484614670277e-04 9.329046588391065598e-05 -1.429840776836499572e-04 1.687154290266335011e-04
2.831000000000000000e+03 3.273681402206420898e+00 -2.236048507690429688e+01 5.836311029270291328e-04 -1.297414746659342200e-05 1.711970835458487272e-04 9.773772035259753466e-05
2.832000000000000000e+03 4.108319473266601562e+01 8.256180763244628906e+00 1.026943718898110092e-04 2.745062192843761295e-05 3.904349796357564628e-05 4.146842547925189137e-05
2.833000000000000000e+03 7.244660186767578125e+01 2.217814254760742188e+01 1.297006756067276001e-01 2.528869152069091797e+00 7.975709438323974609e-01 -5.356029421091079712e-02
2.834000000000000000e+03 7.175004577636718750e+01 1.412598514556884766e+01 2.686824090778827667e-02 2.997907876968383789e+00 9.074328541755676270e-01 -6.462223827838897705e-02
2.835000000000000000e+03 7.246379089355468750e+01 1.498910140991210938e+01 2.634478732943534851e-02 2.502618074417114258e+00 7.586888074874877930e-01 -3.217353299260139465e-02
2.836000000000000000e+03 4.674411392211914062e+01 -1.589668631553649902e+00 -4.795264976564794779e-05 -1.426389462721999735e-05 -1.866496313596144319e-05 -2.462454358465038240e-05
2.837000000000000000e+03 4.809653854370117188e+01 -9.618809700012207031e+00 1.815967516449745744e-05 1.980562274184194393e-06 6.042071163392392918e-06 4.580943368637235835e-06
2.838000000000000000e+03 2.555840110778808594e+01 -6.495574951171875000e+00 9.160165063804015517e-06 -5.598436018772190437e-06 1.068518713509547524e-06 -2.297101673320867121e-06
2.839000000000000000e+03 6.894377899169921875e+01 3.550926208496093750e+01 -2.190271615982055664e-01 1.306881308555603027e+00 3.263562619686126709e-01 -1.427693367004394531e-01
2.840000000000000000e+03 6.790593719482421875e+01 3.401978302001953125e+01 5.365890264511108398e-02 1.477447032928466797e+00 4.593317806720733643e-01 -4.394364356994628906e-01
2.841000000000000000e+03 6.630876159667968750e+01 -1.536418151855468750e+01 -5.625220537185668945e-01 1.247001528739929199e+00 2.053438425064086914e-01 3.181772828102111816e-01
2.842000000000000000e+03 4.377972030639648438e+01 -2.564305877685546875e+01 -8.529205620288848877e-02 -1.249417901039123535e+00 -4.004130065441131592e-01 -8.937783241271972656e-01
2.843000000000000000e+03 7.614580535888671875e+01 -4.799549102783203125e+00 2.694007568061351776e-02 -2.340676635503768921e-01 -6.213827431201934814e-02 -3.968921303749084473e-01
2.844000000000000000e+03 6.810002899169921875e+01 -1.063165187835693359e+01 2.300985343754291534e-02 1.533712148666381836e+00 4.670166075229644775e-01 2.985296845436096191e-01
2.845000000000000000e+03 4.609778213500976562e+01 -1.601703834533691406e+01 2.943780373243498616e-06 2.700521918086451478e-06 1.693290755611087661e-06 1.807339913284522481e-06
2.846000000000000000e+03 1.467814064025878906e+01 -1.183128643035888672e+01 2.072335701086558402e-05 -5.087316822027787566e-05 -9.044942999025806785e-06 -2.530855999793857336e-05
2.847000000000000000e+03 1.251065444946289062e+01 -1.123611927032470703e+01 4.882449866272509098e-05 7.078812632244080305e-05 3.588378967833705246e-05 1.949113902810495347e-05
2.848000000000000000e+03 4.069669723510742188e+01 2.160599708557128906e+01 1.689658674877136946e-04 -4.744659236166626215e-05 3.645578181021846831e-05 -1.112962854676879942e-04
2.849000000000000000e+03 4.180237579345703125e+01 2.231835556030273438e+01 1.921122311614453793e-04 -1.681819594523403794e-05 5.258820965536870062e-05 -1.705151371425017715e-04
2.850000000000000000e+03 7.003415679931640625e+01 -7.265581607818603516e+00 8.563085645437240601e-02 1.919004201889038086e+00 6.013905405998229980e-01 2.313805967569351196e-01
2.851000000000000000e+03 7.069793701171875000e+01 -5.782447814941406250e+00 9.989143162965774536e-02 2.073816061019897461e+00 6.521122455596923828e-01 1.773040592670440674e-01
2.852000000000000000e+03 2.690713119506835938e+01 -8.708119392395019531e+00 5.380544735089642927e-06 5.489425802807090804e-07 1.778846240085840691e-06 -5.450903586279309820e-07
2.853000000000000000e+03 4.057743835449218750e+01 -1.688737678527832031e+01 -3.086336164415115491e-06 -1.268711002921918407e-06 -1.306514150201110169e-06 2.263474243591190316e-07
2.854000000000000000e+03 4.001451110839843750e+01 -1.673733139038085938e+01 3.263005282860831358e-06 1.211816766044648830e-06 1.342446580565592740e-06 -1.430485099263023585e-07
2.855000000000000000e+03 2.453068351745605469e+01 -5.059770107269287109e+00 1.145724309026263654e-05 -7.203257155197206885e-06 1.276195689570158720e-06 -1.759997303452109918e-06
2.856000000000000000e+03 5.600320816040039062e+01 -2.400382232666015625e+01 1.433767080307006836e+00 1.420314311981201172e+00 8.562244176864624023e-01 5.489695668220520020e-01
2.857000000000000000e+03 1.953690719604492188e+01 -7.081045769155025482e-03 1.239076573256170377e-05 -5.621810487355105579e-06 2.030686573561979458e-06 3.015256027083523804e-07
2.858000000000000000e+03 5.624754333496093750e+01 -2.335534667968750000e+01 9.716458916664123535e-01 1.200484991073608398e+00 6.516392827033996582e-01 3.542656004428863525e-01
2.859000000000000000e+03 2.924879264831542969e+01 -1.429893684387207031e+01 -2.456035645082010888e-06 -2.018563918682048097e-06 -1.342379846391850151e-06 -2.520221009660872369e-08
2.860000000000000000e+03 2.340583038330078125e+01 -3.682623624801635742e+00 1.319116472586756572e-05 -8.190928383555728942e-06 1.500071107329858933e-06 -1.022023866426025052e-06
2.861000000000000000e+03 4.712318038940429688e+01 3.418547821044921875e+01 -4.768454004079103470e-03 1.093808445148169994e-03 -1.102393609471619129e-03 2.207613084465265274e-03
2.862000000000000000e+03 1.812107086181640625e+01 1.015886902809143066e+00 1.037221863953163847e-05 -3.085416437897947617e-06 2.186040774176944979e-06 -6.243186589927063324e-07
2.863000000000000000e+03 4.436236572265625000e+01 2.762588691711425781e+01 -8.518878603354096413e-04 4.523247771430760622e-04 -1.198689205921255052e-04 -6.848875200375914574e-04
2.864000000000000000e+03 4.260881805419921875e+01 2.679402732849121094e+01 -6.368594476953148842e-04 -2.982180740218609571e-04 -2.805232652463018894e-04 3.325219586258754134e-05
2.865000000000000000e+03 7.213394927978515625e+01 6.145668029785156250e+00 1.897373497486114502e-01 3.127849102020263672e+00 9.952759742736816406e-01 -4.356358572840690613e-02
2.866000000000000000e+03 2.022278594970703125e+01 -5.590241551399230957e-01 1.703920133877545595e-05 4.164332949585514143e-06 6.361060059134615585e-06 -8.939959116105455905e-06
2.867000000000000000e+03 2.730194854736328125e+01 -9.446724891662597656e+00 4.179346888122381642e-06 -1.980050910788122565e-06 6.597887249881750904e-07 -2.581541593826841563e-06
2.868000000000000000e+03 1.415048789978027344e+01 2.582610845565795898e+00 8.407146196987014264e-06 2.784692924251430668e-06 3.357551577209960669e-06 -4.209412054478889331e-06
2.869000000000000000e+03 1.390182590484619141e+01 3.621913433074951172e+00 4.674252522818278521e-06 5.037508685745706316e-07 1.553401034470880404e-06 -2.877160341085982509e-06
2.870000000000000000e+03 3.955084609985351562e+01 1.344874382019042969e+01 -1.246005413122475147e-04 3.426341936574317515e-05 -2.710113767534494400e-05 -2.054561718978220597e-06
2.871000000000000000e+03 7.366838073730468750e+01 -2.328876876831054688e+01 -1.006964445114135742e-01 4.814286530017852783e-02 -1.576607488095760345e-02 -1.046881079673767090e-02
2.872000000000000000e+03 5.735391235351562500e+01 -2.381084823608398438e+01 2.107800722122192383e+00 2.016435384750366211e+00 1.237270832061767578e+00 1.422399401664733887e+00
2.873000000000000000e+03 6.039041519165039062e+01 -2.062667655944824219e+01 -1.035987377166748047e+00 1.640784859657287598e+00 1.814392358064651489e-01 1.213340520858764648e+00
2.874000000000000000e+03 4.127598571777343750e+01 5.627190113067626953e+00 7.163704867707565427e-05 2.041850166278891265e-05 2.761666473816148937e-05 3.740341708180494606e-05
2.875000000000000000e+03 4.093082046508789062e+01 6.413065910339355469e+00 -7.857627497287467122e-05 1.721408625598996878e-05 -1.840865661506541073e-05 -2.146315637219231576e-05
2.876000000000000000e+03 6.624424743652343750e+01 -1.784692955017089844e+01 -6.125552654266357422e-01 1.232715129852294922e+00 1.860479414463043213e-01 7.199177145957946777e-01
2.877000000000000000e+03 9.298581123352050781e+00 -1.618599700927734375e+01 -1.343960175290703773e-04 -3.828815533779561520e-05 -5.180525113246403635e-05 9.657347982283681631e-05
2.878000000000000000e+03 8.222614288330078125e+00 -1.634639549255371094e+01 -1.568506850162521005e-04 -1.052535662893205881e-05 -5.021281322115100920e-05 1.443100791220786050e-05
2.879000000000000000e+03 6.257446289062500000e+01 -2.104345893859863281e+01 5.754944086074829102e-01 1.793268799781799316e+00 7.106289863586425781e-01 2.050294399261474609e+00
2.880000000000000000e+03 6.696779632568359375e+01 3.529071426391601562e+01 -3.611812368035316467e-02 1.205323934555053711e+00 3.507617413997650146e-01 -3.866569101810455322e-01
2.881000000000000000e+03 6.681209564208984375e+01 3.412864303588867188e+01 1.973984837532043457e-01 1.219725131988525391e+00 4.251370728015899658e-01 -5.432946085929870605e-01
2.882000000000000000e+03 6.325506973266601562e+01 -2.080838012695312500e+01 3.310117423534393311e-01 1.578311204910278320e+00 5.727968811988830566e-01 1.879450678825378418e+00
2.883000000000000000e+03 6.364943313598632812e+01 -1.991750717163085938e+01 -3.788120448589324951e-01 1.561052203178405762e+00 3.546720445156097412e-01 1.481759905815124512e+00
2.884000000000000000e+03 8.625585556030273438e+00 -4.584986686706542969e+00 -3.926612771465443075e-05 -2.606615635158959776e-05 -1.959968540177214891e-05 -1.986540155485272408e-05
2.885000000000000000e+03 7.090799713134765625e+01 -3.235113382339477539e+00 1.765064597129821777e-01 2.683003902435302734e+00 8.578531146049499512e-01 2.762509286403656006e-01
2.886000000000000000e+03 7.115379333496093750e+01 -2.422569513320922852e+00 1.910930424928665161e-01 2.809085130691528320e+00 9.000534415245056152e-01 2.314151525497436523e-01
2.887000000000000000e+03 4.178610229492187500e+01 2.571780014038085938e+01 -3.427294723223894835e-04 -9.960480383597314358e-05 -1.327002828475087881e-04 -1.226391323143616319e-04
2.888000000000000000e+03 7.197043609619140625e+01 2.776040077209472656e+01 3.710442781448364258e-01 2.199945688247680664e+00 7.712969779968261719e-01 -2.040341123938560486e-02
2.889000000000000000e+03 4.122978210449218750e+01 2.355899238586425781e+01 2.784317257464863360e-05 -2.990831490023992956e-05 -6.195427886268589646e-07 -1.734504912747070193e-04
2.890000000000000000e+03 6.852406311035156250e+01 -1.996285820007324219e+01 3.267081826925277710e-02 3.635390996932983398e-01 1.188629716634750366e-01 5.696841478347778320e-01
2.891000000000000000e+03 7.065603733062744141e+00 -1.817556762695312500e+01 1.049145794240757823e-04 -1.431538985343649983e-04 -1.147179591498570517e-05 -1.707491755951195955e-04
2.892000000000000000e+03 7.232196807861328125e+01 2.593884658813476562e+01 3.337416946887969971e-01 2.285123109817504883e+00 7.856594324111938477e-01 -2.832063846290111542e-02
2.893000000000000000e+03 6.943264770507812500e+01 -8.670852661132812500e+00 6.282905489206314087e-02 1.738154768943786621e+00 5.402951836585998535e-01 2.492424845695495605e-01
2.894000000000000000e+03 7.612992858886718750e+01 2.343907165527343750e+01 1.052599102258682251e-01 -2.278752923011779785e-01 -3.678461536765098572e-02 1.034047901630401611e-01
2.895000000000000000e+03 2.603433990478515625e+01 -7.226352691650390625e+00 6.734164344379678369e-06 1.351586320197384339e-06 2.425725142529699951e-06 -1.455824872209632304e-06
2.896000000000000000e+03 6.212777709960937500e+01 -2.192828559875488281e+01 1.782604575157165527e+00 1.970314860343933105e+00 1.125875830650329590e+00 2.252591371536254883e+00
2.897000000000000000e+03 1.362755966186523438e+01 -3.624756622314453125e+01 1.167014124803245068e-03 2.393839182332158089e-03 1.068255980499088764e-03 5.341549869626760483e-03
2.898000000000000000e+03 4.524547958374023438e+01 3.481622695922851562e+01 -2.771412488073110580e-03 1.469653449021279812e-03 -3.905277117155492306e-04 2.964746905490756035e-03
2.899000000000000000e+03 7.177172851562500000e+01 2.866213798522949219e+01 3.516599535942077637e-01 2.136075973510742188e+00 7.463207840919494629e-01 -7.179146632552146912e-03
2.900000000000000000e+03 3.874629974365234375e+01 1.336391735076904297e+01 1.224111329065635800e-04 1.343607618764508516e-05 4.075416291016153991e-05 3.960275353165343404e-05
2.901000000000000000e+03 7.243641662597656250e+01 1.336474418640136719e+01 -7.406458258628845215e-02 2.533266305923461914e+00 7.377605438232421875e-01 -9.301482141017913818e-02
2.902000000000000000e+03 1.454450988769531250e+01 3.197463989257812500e+00 1.569097003084607422e-05 8.188311767298728228e-06 7.163784175645560026e-06 -1.300337953580310568e-05
2.903000000000000000e+03 7.186632537841796875e+01 9.347567558288574219e-01 3.719290792942047119e-01 3.101098060607910156e+00 1.041908144950866699e+00 9.978246688842773438e-02
2.904000000000000000e+03 2.398014068603515625e+01 -4.363723754882812500e+00 1.065767173713538796e-05 2.743731783994007856e-06 4.020420874439878389e-06 -4.081140104972291738e-06
2.905000000000000000e+03 1.665704727172851562e+01 1.944409489631652832e+00 8.114466254482977092e-06 -7.202290817076573148e-07 2.218271220044698566e-06 -2.216094799223355949e-06
2.906000000000000000e+03 3.992871093750000000e+01 9.802075386047363281e+00 -9.352462802780792117e-05 3.065286364289931953e-05 -1.886152858787681907e-05 -1.289162446482805535e-05
2.907000000000000000e+03 7.684594726562500000e+01 1.732695221900939941e+00 1.111157089471817017e-01 -7.984135150909423828e-01 -2.061893343925476074e-01 -1.479942798614501953e-01
2.908000000000000000e+03 6.964483642578125000e+01 3.339834594726562500e+01 -5.959167331457138062e-02 1.634797215461730957e+00 4.725616872310638428e-01 -1.437821239233016968e-01
2.909000000000000000e+03 7.074756622314453125e+01 -3.460721588134765625e+01 -3.290661051869392395e-02 6.766531150788068771e-03 -7.842023856937885284e-03 2.405728958547115326e-02
2.910000000000000000e+03 7.254396057128906250e+01 9.503984451293945312e+00 -1.018365025520324707e-01 2.606677293777465820e+00 7.514522075653076172e-01 7.124310731887817383e-02
2.911000000000000000e+03 2.155058670043945312e+01 -1.741613030433654785e+00 1.514094583399128169e-05 3.764079337997827679e-06 5.671507551596732810e-06 -7.369621016550809145e-06
2.912000000000000000e+03 2.089496612548828125e+01 -1.139084339141845703e+00 1.381401671096682549e-05 -7.457043011527275667e-06 1.907092268993437756e-06 2.771935783130174968e-07
2.913000000000000000e+03 1.522398757934570312e+01 2.780584812164306641e+00 6.710836714773904532e-06 2.957924607471795753e-07 2.101988684444222599e-06 -3.645729748313897289e-06
2.914000000000000000e+03 7.122978210449218750e+01 -1.894091415405273438e+01 -1.039496958255767822e-01 2.845042943954467773e-01 5.416638031601905823e-02 7.380526512861251831e-02
2.915000000000000000e+03 6.683328247070312500e+01 -1.497155284881591797e+01 -5.014153122901916504e-01 1.230099678039550781e+00 2.186052948236465454e-01 2.894451916217803955e-01
2.916000000000000000e+03 3.266196489334106445e+00 -1.985866165161132812e+01 -4.715260001830756664e-04 -3.828493936453014612e-05 -1.529432920506224036e-04 -9.140754264080896974e-05
2.917000000000000000e+03 1.453106689453125000e+01 -1.116445636749267578e+01 -7.984540388861205429e-06 9.114360000239685178e-05 2.494771797501016408e-05 7.090160215739160776e-05
2.918000000000000000e+03 1.529022026062011719e+01 -1.160041046142578125e+01 -5.601653538178652525e-05 -1.119546141126193106e-05 -2.016359940171241760e-05 -2.042004416580311954e-05
2.919000000000000000e+03 5.963314056396484375e+01 -2.132462882995605469e+01 -5.005674362182617188e-01 1.588641047477722168e+00 3.264220952987670898e-01 1.182891607284545898e+00
2.920000000000000000e+03 3.622741317749023438e+01 -1.640236663818359375e+01 -2.910396688093896955e-06 -7.053774311316374224e-07 -1.084732275558053516e-06 -1.651514821787714027e-06
2.921000000000000000e+03 5.483558273315429688e+01 -2.361462593078613281e+01 4.979370534420013428e-01 6.535581946372985840e-01 3.454485833644866943e-01 -3.684799671173095703e-01
2.922000000000000000e+03 4.386202621459960938e+01 -2.839392471313476562e+01 -5.380612611770629883e-01 -1.600614786148071289e+00 -6.416028141975402832e-01 -8.793975710868835449e-01
2.923000000000000000e+03 4.509508895874023438e+01 -2.795786666870117188e+01 -2.028629630804061890e-01 -1.111316919326782227e+00 -3.942539691925048828e-01 -9.355741739273071289e-01
2.924000000000000000e+03 4.061952972412109375e+01 7.222967147827148438e+00 8.137775876093655825e-05 2.413615402474533767e-05 3.165417365380562842e-05 3.905771154677495360e-05
2.925000000000000000e+03 4.085181427001953125e+01 9.095396041870117188e+00 -1.066435215761885047e-04 3.614482193370349705e-05 -2.114961171173490584e-05 -2.021514046646188945e-05
2.926000000000000000e+03 1.193735408782958984e+01 -3.213353729248046875e+01 2.822168869897723198e-03 -6.284998962655663490e-04 6.581006455235183239e-04 1.806951826438307762e-03
2.927000000000000000e+03 5.493054962158203125e+01 -2.534644699096679688e+01 1.931705117225646973e+00 1.758770823478698730e+00 1.107142806053161621e+00 4.411634206771850586e-01
2.928000000000000000e+03 7.279081726074218750e+01 7.050534248352050781e+00 1.560910940170288086e-01 2.487167358398437500e+00 7.929775714874267578e-01 3.052604198455810547e-02
2.929000000000000000e+03 6.928712463378906250e+01 -3.389918136596679688e+01 -6.368477642536163330e-02 1.426727697253227234e-02 -1.482524909079074860e-02 6.810532882809638977e-03
2.930000000000000000e+03 7.241033172607421875e+01 -1.338996738195419312e-02 3.149197697639465332e-01 2.474496841430664062e+00 8.368250131607055664e-01 -1.917216181755065918e-02
2.931000000000000000e+03 7.254786682128906250e+01 8.400240540504455566e-01 3.383588492870330811e-01 2.491758823394775391e+00 8.490352630615234375e-01 -4.477518610656261444e-03
2.932000000000000000e+03 1.706126594543457031e+01 -1.027066993713378906e+01 1.386761232424760237e-05 -1.084679934137966484e-05 9.062437698048597667e-07 2.258336462546139956e-05
2.933000000000000000e+03 1.696329879760742188e+01 -8.733358383178710938e+00 4.420860568643547595e-05 1.867699938884470612e-05 1.886568134068511426e-05 7.552093393314862624e-06
2.934000000000000000e+03 1.758531188964843750e+01 -3.619420623779296875e+01 -2.878388389945030212e-03 2.765179378911852837e-03 -3.396272586542181671e-05 8.809329010546207428e-03
2.935000000000000000e+03 5.277085876464843750e+01 -2.383321380615234375e+01 -1.450811233371496201e-02 -7.782103121280670166e-02 -2.769874222576618195e-02 -1.102255821228027344e+00
2.936000000000000000e+03 1.240988159179687500e+01 -3.303771209716796875e+01 5.936356261372566223e-03 2.624563639983534813e-04 1.859643845818936825e-03 3.175433725118637085e-03
2.937000000000000000e+03 1.369896697998046875e+01 -3.472905731201171875e+01 2.052208175882697105e-03 2.285033930093050003e-03 1.301172655075788498e-03 6.859831977635622025e-03
2.938000000000000000e+03 8.143762588500976562e+00 -2.784916305541992188e+01 -1.421174383722245693e-04 5.770234201918356121e-05 -2.532453072490170598e-05 -6.554874707944691181e-04
2.939000000000000000e+03 7.669693470001220703e+00 -3.032454681396484375e+01 2.470178878866136074e-04 -4.765737321577034891e-05 5.980814967188052833e-05 4.139830125495791435e-04
2.940000000000000000e+03 1.530502986907958984e+01 -3.592631912231445312e+01 -1.576251699589192867e-03 3.756673540920019150e-03 6.541265756823122501e-04 6.970447953790426254e-03
2.941000000000000000e+03 9.593550682067871094e+00 4.994561672210693359e+00 4.748677383759059012e-06 6.603518158954102546e-07 1.622708737158973236e-06 -4.225809334457153454e-06
2.942000000000000000e+03 6.517050933837890625e+01 -1.992902374267578125e+01 -5.017616972327232361e-02 1.197906970977783203e+00 3.443192243576049805e-01 1.215567946434020996e+00
2.943000000000000000e+03 1.220668792724609375e+01 -1.285868167877197266e+01 1.242118451045826077e-04 -1.486739438405493274e-05 3.280333476141095161e-05 1.158166487584821880e-04
2.944000000000000000e+03 1.285522937774658203e+01 -3.413696670532226562e+01 1.649842481128871441e-03 6.608377443626523018e-04 6.932040560059249401e-04 4.514045547693967819e-03
2.945000000000000000e+03 5.043262863159179688e+01 -1.524534606933593750e+01 5.833454906678525731e-06 -1.161249201686587185e-06 1.401661620548111387e-06 -9.070361670637794305e-07
2.946000000000000000e+03 4.935633087158203125e+01 -1.330213165283203125e+01 1.215538304677465931e-05 8.715206689657861716e-08 3.672760385597939603e-06 4.758659088111016899e-06
2.947000000000000000e+03 7.576261901855468750e+01 3.324291610717773438e+01 -5.907413363456726074e-02 4.001765511929988861e-03 -1.652171090245246887e-02 4.380692243576049805e-01
2.948000000000000000e+03 4.214910125732421875e+01 -3.511238479614257812e+01 2.772171199321746826e-01 -1.041723251342773438e+00 -2.293518334627151489e-01 -1.264096200466156006e-01
2.949000000000000000e+03 3.966256332397460938e+01 1.161191177368164062e+01 -1.080560905393213034e-04 3.281734825577586889e-05 -2.257162304886151105e-05 -7.832385563233401626e-06
2.950000000000000000e+03 3.977584457397460938e+01 1.070271110534667969e+01 1.133346522692590952e-04 2.510237936803605407e-05 4.153111149207688868e-05 4.546191848930902779e-05
2.951000000000000000e+03 7.073889160156250000e+01 -3.766993331909179688e+01 6.425161845982074738e-03 -3.272291040048003197e-03 9.458612767048180103e-04 4.532389715313911438e-02
2.952000000000000000e+03 1.717400741577148438e+01 -1.104312515258789062e+01 -3.488306538201868534e-05 1.912881089083384722e-05 -4.726276984001742676e-06 -2.099066296068485826e-05
2.953000000000000000e+03 1.768426704406738281e+01 -1.023389148712158203e+01 -1.137744129664497450e-05 6.777889666409464553e-06 -1.379865580020123161e-06 -7.757105777272954583e-06
2.954000000000000000e+03 7.614955139160156250e+01 -1.667746543884277344e+01 -5.392343923449516296e-02 -2.298087440431118011e-02 -2.307129465043544769e-02 -1.941410154104232788e-01
2.955000000000000000e+03 7.160572052001953125e+01 -1.972414588928222656e+01 -9.491939097642898560e-02 1.834215521812438965e-01 2.655064873397350311e-02 1.861177943646907806e-02
2.956000000000000000e+03 7.153833770751953125e+01 -3.442403411865234375e+01 -3.008160926401615143e-02 1.417187042534351349e-02 -4.772921558469533920e-03 1.962701231241226196e-02
2.957000000000000000e+03 7.034551239013671875e+01 3.264049148559570312e+01 -1.274756994098424911e-02 1.733242988586425781e+00 5.161486268043518066e-01 -3.755126148462295532e-02
2.958000000000000000e+03 7.017237854003906250e+01 -1.998246192932128906e+01 -2.780467458069324493e-02 1.761875599622726440e-01 4.451486468315124512e-02 2.037945538759231567e-01
2.959000000000000000e+03 2.426178741455078125e+01 -3.442807006835937500e+01 1.277318969368934631e-02 -2.426879014819860458e-03 3.103893250226974487e-03 1.350047253072261810e-02
2.960000000000000000e+03 2.374383926391601562e+01 -3.366401672363281250e+01 1.855763047933578491e-02 -1.343641080893576145e-03 5.164196714758872986e-03 1.072832476347684860e-02
2.961000000000000000e+03 3.927488708496093750e+01 -1.712232208251953125e+01 2.365918589930515736e-06 1.172970314655685797e-06 1.061666694113228004e-06 3.832135178072348936e-07
2.962000000000000000e+03 9.725118637084960938e+00 -1.554991531372070312e+01 1.276993280043825507e-04 1.003275756374932826e-04 6.840807327535003424e-05 -6.781445699743926525e-05
2.963000000000000000e+03 1.274972152709960938e+01 4.515973567962646484e+00 2.075415750368847512e-06 2.409590216245760530e-08 6.298534458437643480e-07 -5.147567776475625578e-07
2.964000000000000000e+03 1.224187088012695312e+01 3.907389163970947266e+00 1.383587459713453427e-05 9.490898264630232006e-06 6.998031949478900060e-06 -1.858166069723665714e-05
2.965000000000000000e+03 4.731463432312011719e+00 -2.218327713012695312e+01 4.007516836281865835e-04 1.794863201212137938e-04 1.740713923936709762e-04 3.331036132294684649e-04
2.966000000000000000e+03 3.787156295776367188e+01 -3.812563323974609375e+01 2.099651843309402466e-01 -6.212351918220520020e-01 -1.233809962868690491e-01 -2.295944690704345703e-01
2.967000000000000000e+03 3.905582427978515625e+01 -3.635956954956054688e+01 1.549628973007202148e-01 -7.393057346343994141e-01 -1.753028482198715210e-01 -3.432012200355529785e-01
2.968000000000000000e+03 1.010009098052978516e+01 -1.488721752166748047e+01 -1.754118420649319887e-04 -8.872806938597932458e-05 -7.924197416286915541e-05 1.318170143349561840e-05
2.969000000000000000e+03 7.151827239990234375e+01 2.958595466613769531e+01 2.926309406757354736e-01 2.039728879928588867e+00 6.997079253196716309e-01 1.982989721000194550e-02
2.970000000000000000e+03 4.011922454833984375e+01 8.920020103454589844e+00 9.554885764373466372e-05 2.414107621007133275e-05 3.590697815525345504e-05 4.436907329363748431e-05
2.971000000000000000e+03 1.085100460052490234e+01 -3.409916687011718750e+01 2.861923072487115860e-03 5.156434490345418453e-04 1.013269997201859951e-03 3.333757398650050163e-03
2.972000000000000000e+03 5.034082794189453125e+01 -1.460645771026611328e+01 -8.691194125276524574e-06 3.116037305517238565e-06 -1.672547114139888436e-06 2.213612191326319589e-07
2.973000000000000000e+03 6.892253875732421875e+01 -3.867375183105468750e+01 3.420782834291458130e-02 1.519881468266248703e-02 1.482199225574731827e-02 3.956174850463867188e-02
2.974000000000000000e+03 5.374879455566406250e+01 -2.801907539367675781e+01 2.233812332153320312e+00 2.137722969055175781e+00 1.311460614204406738e+00 5.761311054229736328e-01
2.975000000000000000e+03 7.270312500000000000e+01 -2.062756156921386719e+01 -1.337024569511413574e-01 1.216272786259651184e-01 -3.622554708272218704e-03 -5.141136795282363892e-02
2.976000000000000000e+03 5.579684829711914062e+01 -3.720075988769531250e+01 -3.209662437438964844e-01 1.856988787651062012e+00 4.608067572116851807e-01 -1.174914464354515076e-01
2.977000000000000000e+03 4.302731323242187500e+01 -3.435449600219726562e+01 2.143349796533584595e-01 -1.053065776824951172e+00 -2.516192197799682617e-01 -2.321310155093669891e-02
2.978000000000000000e+03 5.272753524780273438e+01 -2.996060180664062500e+01 1.808632969856262207e+00 1.878011703491210938e+00 1.105993390083312988e+00 6.699322462081909180e-01
2.979000000000000000e+03 5.302280807495117188e+01 -2.906667709350585938e+01 2.044696331024169922e+00 1.893826246261596680e+00 1.181556820869445801e+00 5.176079273223876953e-01
2.980000000000000000e+03 4.815151214599609375e+01 3.816465377807617188e+01 1.121212146244943142e-03 6.799119728384539485e-05 3.567610110621899366e-04 7.657313719391822815e-03
2.981000000000000000e+03 4.822878265380859375e+01 3.556299209594726562e+01 -5.331743508577346802e-03 1.669462188147008419e-03 -1.098684384487569332e-03 5.886184982955455780e-03
2.982000000000000000e+03 9.276257514953613281e+00 -3.173510360717773438e+01 1.795471762306988239e-03 8.526815508957952261e-05 5.642219912260770798e-04 7.525833207182586193e-04
2.983000000000000000e+03 1.021657276153564453e+01 -3.222100830078125000e+01 3.127020085230469704e-03 -5.770326242782175541e-04 7.649962208233773708e-04 2.416963689029216766e-03
2.984000000000000000e+03 9.850673675537109375e+00 -1.339315128326416016e+01 1.435394515283405781e-04 1.534139446448534727e-04 8.908601739676669240e-05 -7.356402056757360697e-05
2.985000000000000000e+03 6.262211608886718750e+01 -3.705159378051757812e+01 -9.873347589746117592e-04 2.173923999071121216e-01 6.492152065038681030e-02 -8.000697940587997437e-02
2.986000000000000000e+03 6.382355499267578125e+01 -3.836891174316406250e+01 5.658902972936630249e-02 1.198087856173515320e-01 5.291934311389923096e-02 5.993340630084276199e-03
2.987000000000000000e+03 1.001410770416259766e+01 4.175349235534667969e+00 8.663974767841864377e-06 1.080338643077993765e-05 5.840208359586540610e-06 -1.791176509868819267e-05
2.988000000000000000e+03 7.045530319213867188e+00 -2.836335754394531250e+01 1.044203061610460281e-03 7.763632311252877116e-05 3.365518350619822741e-04 -1.315955159952864051e-04
2.989000000000000000e+03 4.613939666748046875e+01 -3.388218307495117188e+01 3.500556349754333496e-01 -4.158414006233215332e-01 -1.973573304712772369e-02 3.483523428440093994e-01
2.990000000000000000e+03 7.510419464111328125e+01 -3.701520919799804688e+01 -4.054197575896978378e-03 -7.029353175312280655e-03 -3.325065365061163902e-03 2.028210088610649109e-02
2.991000000000000000e+03 5.419174194335937500e+01 -2.700364494323730469e+01 2.267071247100830078e+00 2.292349815368652344e+00 1.367826223373413086e+00 5.825473070144653320e-01
2.992000000000000000e+03 7.025802612304687500e+01 3.605766677856445312e+01 -2.827692925930023193e-01 1.183027267456054688e+00 2.700774073600769043e-01 3.417067602276802063e-02
2.993000000000000000e+03 4.523009490966796875e+01 -3.128566741943359375e+01 -1.695918501354753971e-03 -8.852900266647338867e-01 -2.660957872867584229e-01 -5.698072165250778198e-02
2.994000000000000000e+03 7.680188751220703125e+01 4.069207763671875000e+01 -1.114283576607704163e-01 -3.268551826477050781e-02 -4.323416203260421753e-02 1.100430190563201904e-01
2.995000000000000000e+03 7.178745269775390625e+01 4.155022048950195312e+01 -3.384827077388763428e-01 6.705981492996215820e-01 9.963463991880416870e-02 3.820033371448516846e-02
2.996000000000000000e+03 3.028669738769531250e+01 -3.438593673706054688e+01 -8.387583307921886444e-03 -1.954663358628749847e-02 -8.380264975130558014e-03 -2.530757151544094086e-02
2.997000000000000000e+03 4.606077194213867188e+01 -2.896521377563476562e+01 4.934558272361755371e-02 -7.978355884552001953e-01 -2.245469987392425537e-01 -6.247457265853881836e-01
2.998000000000000000e+03 4.464605712890625000e+01 -3.017495727539062500e+01 -2.449122071266174316e-01 -1.144274353981018066e+00 -4.167559742927551270e-01 -3.600347638130187988e-01
2.999000000000000000e+03 7.632729339599609375e+01 -4.175912857055664062e+01 5.744238849729299545e-03 -2.474064193665981293e-02 -5.698921158909797668e-03 -3.389232791960239410e-03
3.000000000000000000e+03 5.498792648315429688e+01 -3.601596450805664062e+01 -2.370670437812805176e-01 2.200742244720458984e+00 5.891025066375732422e-01 6.837446242570877075e-02
3.001000000000000000e+03 3.861504077911376953e+00 4.158866882324218750e+01 3.133389554932364263e-06 2.396547461103182286e-05 8.129659363476093858e-06 2.722517456277273595e-05
3.002000000000000000e+03 2.500454330444335938e+01 -3.360774993896484375e+01 2.327301353216171265e-02 -5.707009695470333099e-03 5.269801244139671326e-03 9.276082739233970642e-03
3.003000000000000000e+03 7.642739868164062500e+01 3.766592407226562500e+01 -1.083273068070411682e-01 -7.058775424957275391e-02 -5.367451906204223633e-02 2.523218095302581787e-01
3.004000000000000000e+03 5.365312576293945312e+01 3.901760101318359375e+01 1.346892584115266800e-02 1.361496560275554657e-02 8.125167340040206909e-03 2.077218703925609589e-02
3.005000000000000000e+03 5.236734008789062500e+01 -3.089195632934570312e+01 1.461703896522521973e+00 1.758525609970092773e+00 9.660688638687133789e-01 6.799696087837219238e-01
3.006000000000000000e+03 2.947009468078613281e+01 -3.548643493652343750e+01 -1.334405969828367233e-02 -3.036627173423767090e-02 -1.311309915035963058e-02 -2.162569388747215271e-02
3.007000000000000000e+03 1.939557194709777832e+00 -3.948718643188476562e+01 -1.439998013665899634e-04 1.412176294252276421e-03 3.804529260378330946e-04 4.775921115651726723e-04
3.008000000000000000e+03 4.015026092529296875e+00 -3.598688125610351562e+01 -6.452243542298674583e-04 9.719236404635012150e-04 9.800979023566469550e-05 5.204115295782685280e-04
3.009000000000000000e+03 2.584991073608398438e+01 -3.613167953491210938e+01 -7.532133720815181732e-03 -1.119065843522548676e-02 -5.616837646812200546e-03 1.071405783295631409e-02
3.010000000000000000e+03 4.172364711761474609e+00 -4.006584930419921875e+01 -1.344743417575955391e-03 2.019978361204266548e-03 2.025704889092594385e-04 1.024664612486958504e-03
3.011000000000000000e+03 3.124210166931152344e+01 -3.547934341430664062e+01 -4.299983009696006775e-02 -4.120367392897605896e-02 -2.526105195283889771e-02 -6.010556593537330627e-02
3.012000000000000000e+03 3.263110351562500000e+01 -3.649605560302734375e+01 -4.502841830253601074e-02 -1.189579218626022339e-01 -4.919590055942535400e-02 -1.113172769546508789e-01
3.013000000000000000e+03 6.041148757934570312e+01 4.009887313842773438e+01 1.979405758902430534e-03 2.286530733108520508e-01 6.918974220752716064e-02 -6.946182250976562500e-02
3.014000000000000000e+03 5.201351642608642578e+00 3.649021530151367188e+01 3.461914820945821702e-05 -8.316325875057373196e-06 7.890846973168663681e-06 -1.357930250378558412e-05
3.015000000000000000e+03 4.525902748107910156e+00 3.988384628295898438e+01 -3.215631295461207628e-05 1.538187279948033392e-05 -5.032332410337403417e-06 -2.266069350298494101e-05
3.016000000000000000e+03 2.006183433532714844e+01 -3.421963119506835938e+01 1.136805117130279541e-02 2.880854997783899307e-03 4.274671897292137146e-03 1.159651856869459152e-02
3.017000000000000000e+03 2.095433425903320312e+01 -3.567910766601562500e+01 6.654952303506433964e-04 4.040008876472711563e-03 1.411651261150836945e-03 1.296495739370584488e-02
3.018000000000000000e+03 7.215232086181640625e+01 -3.666215133666992188e+01 -4.854249302297830582e-03 8.777127950452268124e-04 -1.192961004562675953e-03 2.781205624341964722e-02
3.019000000000000000e+03 1.965023422241210938e+01 -3.547646331787109375e+01 1.635808846913278103e-03 2.414147835224866867e-03 1.214987016282975674e-03 9.535027667880058289e-03
3.020000000000000000e+03 5.134957885742187500e+01 3.829667663574218750e+01 8.969041518867015839e-03 -4.969214554876089096e-03 1.199948252178728580e-03 1.757542602717876434e-02
3.021000000000000000e+03 1.062686920166015625e+01 -1.109111595153808594e+01 -9.830328781390562654e-05 -4.744189573102630675e-05 -4.372355397208593786e-05 -2.652394687174819410e-05
3.022000000000000000e+03 1.569110774993896484e+01 -7.400729179382324219e+00 -4.107027052668854594e-05 -2.358572419325355440e-05 -1.939679896167945117e-05 -1.720200998533982784e-05
3.023000000000000000e+03 1.448291206359863281e+01 -7.193208217620849609e+00 5.797041376354172826e-05 1.277934461541008204e-05 2.122492696798872203e-05 -2.283179298956383718e-07
3.024000000000000000e+03 3.217498016357421875e+01 -1.559498977661132812e+01 -3.073953621424152516e-06 8.354154488188214600e-07 -6.715614517815993167e-07 6.641134859819430858e-07
3.025000000000000000e+03 3.017751312255859375e+01 -1.050139999389648438e+01 1.159831413133360911e-06 -4.155380338488612324e-06 -8.986646662378916517e-07 -2.976355972350575030e-06
3.026000000000000000e+03 9.630580902099609375e+00 -5.393522739410400391e+00 6.920852320035919547e-05 1.547710962768178433e-05 2.540569039410911500e-05 2.617517566250171512e-05
3.027000000000000000e+03 4.668353652954101562e+01 -2.756928253173828125e+01 1.493200957775115967e-01 -7.669040560722351074e-01 -1.852751970291137695e-01 -9.458240866661071777e-01
3.028000000000000000e+03 1.241499710083007812e+01 -5.881684780120849609e+00 4.358138176030479372e-05 3.017642484337557107e-05 2.212734216300304979e-05 8.891005563782528043e-06
3.029000000000000000e+03 7.316590118408203125e+01 1.034766578674316406e+01 -1.488100141286849976e-01 2.129221677780151367e+00 5.941234827041625977e-01 5.741548165678977966e-02
3.030000000000000000e+03 7.242459106445312500e+01 1.104659748077392578e+01 -2.279163002967834473e-01 2.619703292846679688e+00 7.175361514091491699e-01 -1.359382737427949905e-02
3.031000000000000000e+03 1.014654350280761719e+01 -5.523468971252441406e+00 -5.847331340191885829e-05 -2.551695251895580441e-05 -2.519707959436345845e-05 -3.007953637279570103e-05
3.032000000000000000e+03 3.800136566162109375e+01 -1.672444915771484375e+01 1.150477260125626344e-06 -1.064527737071330193e-06 2.578485513993200584e-08 4.605705896665313048e-07
3.033000000000000000e+03 3.748962020874023438e+01 -1.553247165679931641e+01 -5.239656275080051273e-06 2.545139352605474414e-07 -1.495542733209731523e-06 -2.346699147892650217e-06
3.034000000000000000e+03 7.307576751708984375e+01 -2.244315338134765625e+01 -1.371595710515975952e-01 7.313123345375061035e-02 -1.920850202441215515e-02 -1.603067107498645782e-02
3.035000000000000000e+03 4.128564453125000000e+01 -1.624758529663085938e+01 -3.426758212299318984e-06 -1.744706992212741170e-06 -1.551439595459669363e-06 -4.210897941447910853e-07
3.036000000000000000e+03 4.069750595092773438e+01 -1.617542266845703125e+01 3.740027523235767148e-06 1.903542283798742574e-06 1.693070998953771777e-06 -5.683943626877407951e-08
3.037000000000000000e+03 4.670880889892578125e+01 -2.614271354675292969e+01 3.437417000532150269e-02 -8.036077022552490234e-01 -2.307700514793395996e-01 -1.215084314346313477e+00
3.038000000000000000e+03 3.320969772338867188e+01 -1.539598941802978516e+01 -3.785730768868234009e-06 -6.117365956015419215e-07 -1.319240254815667868e-06 -2.247517386422259733e-06
3.039000000000000000e+03 3.257765960693359375e+01 -1.418273735046386719e+01 5.929813141847262159e-06 -3.239085799577878788e-07 1.681771323092107195e-06 1.332483407168183476e-06
3.040000000000000000e+03 7.271168518066406250e+01 -3.252711105346679688e+01 -2.046938426792621613e-02 8.802912198007106781e-03 -3.499941434711217880e-03 5.892553366720676422e-03
3.041000000000000000e+03 3.069142913818359375e+01 -1.460402011871337891e+01 5.285222869133576751e-06 1.150754883383342531e-06 1.930793359861127101e-06 9.548543289383815136e-09
3.042000000000000000e+03 4.802329635620117188e+01 -2.865970039367675781e+01 5.955890417098999023e-01 -4.182710647583007812e-01 5.319539085030555725e-02 -5.357228517532348633e-01
3.043000000000000000e+03 6.712284088134765625e+01 -1.300936126708984375e+01 -2.059731632471084595e-01 1.305683374404907227e+00 3.299130499362945557e-01 2.519398033618927002e-01
3.044000000000000000e+03 6.722843170166015625e+01 -1.138656711578369141e+01 2.446339279413223267e-02 1.460419893264770508e+00 4.454649984836578369e-01 3.560152351856231689e-01
3.045000000000000000e+03 7.391136932373046875e+01 -2.185665512084960938e+01 -1.149273216724395752e-01 7.330186665058135986e-02 -1.248763594776391983e-02 -5.377549678087234497e-02
3.046000000000000000e+03 3.021793556213378906e+01 -1.422058486938476562e+01 -2.630525386848603375e-06 -1.841810558289580513e-06 -1.341700794910138939e-06 9.700645620114300982e-08
3.047000000000000000e+03 6.300305557250976562e+01 -2.012420272827148438e+01 -4.824897646903991699e-01 1.677595376968383789e+00 3.585317134857177734e-01 1.639279246330261230e+00
3.048000000000000000e+03 1.216525363922119141e+01 -6.414064884185791016e+00 -5.097441317047923803e-05 -2.970686728076543659e-05 -2.420438431727234274e-05 -5.565412266150815412e-06
3.049000000000000000e+03 1.189503002166748047e+01 -5.599840164184570312e+00 -4.259927663952112198e-05 -3.234850373701192439e-05 -2.248433338536415249e-05 -1.152085314970463514e-05
3.050000000000000000e+03 7.705480957031250000e+01 -2.170970535278320312e+01 -3.473485633730888367e-02 -2.226998098194599152e-02 -1.710145175457000732e-02 -6.724207848310470581e-02
3.051000000000000000e+03 7.638837432861328125e+01 -2.070111656188964844e+01 -4.978490620851516724e-02 -8.497759699821472168e-03 -1.748480089008808136e-02 -9.884821623563766479e-02
3.052000000000000000e+03 3.443700408935546875e+01 -1.567509937286376953e+01 -2.103323822666425258e-06 -1.592307626196998172e-06 -1.108689389184291940e-06 -2.648445615704986267e-06
3.053000000000000000e+03 3.306983947753906250e+01 -1.449226474761962891e+01 -3.932771960535319522e-06 8.726631506306148367e-08 -1.153651624008489307e-06 -1.109163690671266522e-06
3.054000000000000000e+03 3.297180652618408203e+00 -2.726159286499023438e+01 8.635396370664238930e-04 -2.942703576991334558e-05 2.502337738405913115e-04 -8.729054388822987676e-05
3.055000000000000000e+03 1.065911960601806641e+01 -5.691469192504882812e+00 4.718001218861900270e-05 3.280262535554356873e-05 2.399479126324877143e-05 2.376231532252859324e-05
3.056000000000000000e+03 6.424870300292968750e+01 -1.967268371582031250e+01 -3.666922748088836670e-01 1.440238237380981445e+00 3.220637738704681396e-01 1.372893452644348145e+00
3.057000000000000000e+03 7.503904724121093750e+01 -2.206184577941894531e+01 -8.227092027664184570e-02 4.183962941169738770e-02 -1.212938781827688217e-02 -6.279239803552627563e-02
3.058000000000000000e+03 7.505013275146484375e+01 -2.264011192321777344e+01 -7.909505069255828857e-02 3.505736961960792542e-02 -1.321130432188510895e-02 -4.806103929877281189e-02
3.059000000000000000e+03 5.082115554809570312e+01 -2.452997016906738281e+01 9.976549446582794189e-02 -3.553805053234100342e-01 -7.668449729681015015e-02 -1.306331157684326172e+00
3.060000000000000000e+03 4.440979766845703125e+01 -2.635985240340232849e-02 4.390464891912415624e-05 1.938466630235780030e-05 1.898679329315200448e-05 3.300925527582876384e-05
3.061000000000000000e+03 1.541975975036621094e+01 -9.263384819030761719e+00 8.406043889408465475e-06 -2.285883783770259470e-05 -4.335838184488238767e-06 1.512961443950189278e-05
3.062000000000000000e+03 1.565387058258056641e+01 -8.259644508361816406e+00 -2.885254980355966836e-05 -3.231917435186915100e-05 -1.835151670093182474e-05 -8.665858786116586998e-07
3.063000000000000000e+03 4.737145233154296875e+01 -2.606995201110839844e+01 1.145690456032752991e-01 -7.204459309577941895e-01 -1.817630678415298462e-01 -1.219121098518371582e+00
3.064000000000000000e+03 4.958881378173828125e+01 -2.564912033081054688e+01 4.538018703460693359e-01 -4.689068496227264404e-01 -4.531501326709985733e-03 -1.188170075416564941e+00
3.065000000000000000e+03 4.807840347290039062e+01 -2.590277099609375000e+01 2.076248675584793091e-01 -6.597970128059387207e-01 -1.356516480445861816e-01 -1.236284613609313965e+00
3.066000000000000000e+03 4.491264343261718750e+01 -1.416456818580627441e+00 4.064327367814257741e-05 2.577038139861542732e-05 1.992409670492634177e-05 3.087550430791452527e-05
3.067000000000000000e+03 4.611484527587890625e+01 -5.544549465179443359e+00 -1.502310988144017756e-05 -1.732088639982976019e-05 -9.703198884380981326e-06 -1.172292559203924611e-05
3.068000000000000000e+03 6.564611053466796875e+01 -1.731879043579101562e+01 -7.886752486228942871e-01 1.350451469421386719e+00 1.685328483581542969e-01 6.261354088783264160e-01
3.069000000000000000e+03 6.517559051513671875e+01 -1.791092300415039062e+01 -8.543933629989624023e-01 1.398495793342590332e+00 1.632307171821594238e-01 7.691050171852111816e-01
3.070000000000000000e+03 4.973353195190429688e+01 -2.639114189147949219e+01 7.051143050193786621e-01 -3.579125702381134033e-01 1.041605249047279358e-01 -9.975963830947875977e-01
3.071000000000000000e+03 4.909376907348632812e+01 -1.541488933563232422e+01 5.284068720357026905e-06 5.514061172107176390e-07 1.750642354636511300e-06 1.490151134930783883e-06
3.072000000000000000e+03 4.978599548339843750e+01 -1.532268619537353516e+01 -5.850122761330567300e-06 3.880894894336961443e-07 -1.638610001464257948e-06 -9.591112757334485650e-07
3.073000000000000000e+03 2.883942794799804688e+01 -1.124479579925537109e+01 2.558160758781014010e-07 1.588392933626892045e-06 5.532626801141304895e-07 -1.263759941139142029e-06
3.074000000000000000e+03 4.966700363159179688e+01 -1.466432857513427734e+01 8.023282134672626853e-06 -1.088747012545354664e-06 2.080360673062386923e-06 2.797583874780684710e-06
3.075000000000000000e+03 3.355485916137695312e+01 -1.476715660095214844e+01 6.381443199643399566e-06 -8.448981816400191747e-07 1.660963448557595257e-06 1.885383653643657453e-06
3.076000000000000000e+03 5.041658020019531250e+01 -2.552897834777832031e+01 6.072362661361694336e-01 -2.932221591472625732e-01 9.420423209667205811e-02 -1.128278732299804688e+00
3.077000000000000000e+03 4.701078796386718750e+01 -8.331928253173828125e+00 -1.767739013303071260e-05 -5.744963345932774246e-06 -7.026706043689046055e-06 -5.701057489204686135e-06
3.078000000000000000e+03 4.247657775878906250e+01 1.552507519721984863e+00 1.409974720445461571e-05 2.632793439261149615e-05 1.212830466101877391e-05 3.160099731758236885e-05
3.079000000000000000e+03 4.203709411621093750e+01 2.285863399505615234e+00 -3.664921678137034178e-05 -2.140821379725821316e-05 -1.741722917358856648e-05 -2.576288716227281839e-05
3.080000000000000000e+03 4.541763687133789062e+01 -3.651007890701293945e+00 1.067181801772676408e-05 2.898108323279302567e-05 1.189587055705487728e-05 2.159042378480080515e-05
3.081000000000000000e+03 5.340973281860351562e+01 -2.366789817810058594e+01 1.664612255990505219e-02 9.884095937013626099e-02 3.464612364768981934e-02 -9.592066407203674316e-01
3.082000000000000000e+03 4.824630737304687500e+01 -1.032604217529296875e+01 -1.707080991764087230e-05 -8.062951906140369829e-07 -5.363132004276849329e-06 -3.692823383971699513e-06
3.083000000000000000e+03 4.202851867675781250e+01 4.123790740966796875e+00 5.794015305582433939e-05 2.378315730311442167e-05 2.451699219818692654e-05 4.122157770325429738e-05
3.084000000000000000e+03 4.297783279418945312e+01 9.057275652885437012e-01 -1.360624537483090535e-05 -1.869689913291949779e-05 -9.690943443274591118e-06 -1.907447040139231831e-05
3.085000000000000000e+03 4.762886047363281250e+01 -1.566017818450927734e+01 3.888277660735184327e-06 2.172192580474074930e-06 1.818140958675940055e-06 2.238535216747550294e-06
3.086000000000000000e+03 4.591111755371093750e+01 -4.869914054870605469e+00 1.383958078804425895e-05 2.346759356441907585e-05 1.119215176004217938e-05 1.754472941684070975e-05
3.087000000000000000e+03 2.935895729064941406e+01 -1.331885147094726562e+01 -1.637994614611670841e-06 -1.861437453953840304e-06 -1.049829620569653343e-06 3.653014459814585280e-07
3.088000000000000000e+03 3.070851707458496094e+01 -1.368445301055908203e+01 5.235428034211508930e-06 1.420722014700004365e-06 1.996844957830035128e-06 -7.062381541800277773e-07
3.089000000000000000e+03 2.703779029846191406e+01 -7.596795558929443359e+00 6.437502634071279317e-06 2.790071960134810070e-07 2.014952997342334129e-06 -6.105181569182605017e-07
3.090000000000000000e+03 2.766563987731933594e+01 -1.017362117767333984e+01 4.830184025195194408e-06 -3.254931755236611934e-07 1.351407263427972794e-06 8.602358292364442605e-08
3.091000000000000000e+03 5.545172119140625000e+01 -2.466541862487792969e+01 1.740439295768737793e+00 1.662639021873474121e+00 1.020923495292663574e+00 4.828325808048248291e-01
3.092000000000000000e+03 5.184460830688476562e+01 -2.492258453369140625e+01 6.199240684509277344e-01 -5.016115307807922363e-02 1.709288656711578369e-01 -1.042414784431457520e+00
3.093000000000000000e+03 5.339022064208984375e+01 -2.489630317687988281e+01 1.089377522468566895e+00 5.256323814392089844e-01 4.845029711723327637e-01 -5.732271671295166016e-01
3.094000000000000000e+03 4.762100982666015625e+01 -1.165563392639160156e+01 1.398066069668857381e-05 -2.116484836278686998e-07 4.130703473492758349e-06 2.413135007373057306e-06
3.095000000000000000e+03 7.562282562255859375e+01 3.816133880615234375e+01 -1.432843357324600220e-01 8.015384525060653687e-02 -1.893914490938186646e-02 2.600547969341278076e-01
3.096000000000000000e+03 4.670662689208984375e+01 -1.515439701080322266e+01 3.512162038532551378e-06 3.437590748944785446e-06 2.084925881717936136e-06 1.564121475894353352e-06
3.097000000000000000e+03 4.565498352050781250e+00 4.601479530334472656e+00 6.885099992359755561e-06 2.138339823432033882e-06 2.707031853788066655e-06 -5.061825959273846820e-06
3.098000000000000000e+03 4.823209381103515625e+01 -1.481032752990722656e+01 5.587697160081006587e-06 2.264784825456445105e-06 2.355744527449132875e-06 2.482359150235424750e-06
3.099000000000000000e+03 7.403231048583984375e+01 -3.652893829345703125e+01 -2.646128414198756218e-03 -5.901129450649023056e-03 -2.564177382737398148e-03 2.164027653634548187e-02
3.100000000000000000e+03 4.632766342163085938e+01 -6.241409301757812500e+00 1.609805985935963690e-05 1.507602428318932652e-05 9.352225788461510092e-06 9.605414561519864947e-06
3.101000000000000000e+03 4.699781417846679688e+01 -6.099647521972656250e+00 -1.978533146029803902e-05 -1.147482544183731079e-05 -9.378047252539545298e-06 -1.103155864257132635e-05
3.102000000000000000e+03 4.347378253936767578e+00 3.111684989929199219e+01 -2.631078359627281316e-06 1.335775414190720767e-05 3.218002802896080539e-06 5.639339178742375225e-06
3.103000000000000000e+03 7.222338867187500000e+01 2.981732368469238281e+01 2.326585948467254639e-01 1.653666734695434570e+00 5.658975839614868164e-01 1.768303960561752319e-01
3.104000000000000000e+03 7.660934448242187500e+01 3.268957519531250000e+01 -2.903106994926929474e-02 -3.133914768695831299e-01 -1.027267649769783020e-01 4.221631884574890137e-01
3.105000000000000000e+03 6.902053833007812500e+01 -1.002322959899902344e+01 4.299509339034557343e-03 1.549914002418518066e+00 4.662640690803527832e-01 2.104311883449554443e-01
3.106000000000000000e+03 4.209256172180175781e+00 8.577633857727050781e+00 -2.410732349744648673e-06 9.890493856801185757e-06 2.243928520329063758e-06 -1.380443609377834946e-05
3.107000000000000000e+03 4.502322673797607422e+00 7.910614967346191406e+00 -7.888417599133390468e-07 8.770766726229339838e-06 2.394577450104407035e-06 -2.592958708191872574e-06
3.108000000000000000e+03 4.752122116088867188e+01 -1.228065586090087891e+01 -1.250819968845462427e-05 3.024369561899220571e-06 -2.845149083441356197e-06 -1.035147306538419798e-06
3.109000000000000000e+03 7.197846221923828125e+01 3.081061744689941406e+01 1.487100273370742798e-01 1.608987569808959961e+00 5.273092985153198242e-01 1.833055466413497925e-01
3.110000000000000000e+03 7.296747207641601562e+00 5.000401973724365234e+00 6.992346698098117486e-06 5.661091790898353793e-07 2.267536729050334543e-06 -4.366152552393032238e-06
3.111000000000000000e+03 7.603590965270996094e+00 5.943820953369140625e+00 5.858035819983342662e-06 1.354839724854173255e-07 1.798056018742499873e-06 -3.318103154015261680e-06
3.112000000000000000e+03 5.141572475433349609e+00 5.168484687805175781e+00 4.883768724539550021e-06 3.512140210659708828e-06 2.518772816983982921e-06 -4.073273430549306795e-06
3.113000000000000000e+03 4.049877166748046875e+00 -2.880907249450683594e+01 -7.844360079616308212e-04 2.666627988219261169e-04 -1.553319743834435940e-04 2.270619734190404415e-04
3.114000000000000000e+03 3.439819574356079102e+00 -2.967962837219238281e+01 -6.087846704758703709e-04 1.777253928594291210e-04 -1.293177774641662836e-04 2.717879251576960087e-04
3.115000000000000000e+03 3.949355840682983398e+00 5.555990219116210938e+00 6.027152721799211577e-06 4.386890395835507661e-06 3.124212980765150860e-06 -1.064614207280101255e-05
3.116000000000000000e+03 3.554473638534545898e+00 5.077399253845214844e+00 -1.905185172290657647e-06 6.052247044863179326e-06 1.244118607246491592e-06 -2.353817308176076040e-06
3.117000000000000000e+03 3.544344425201416016e+00 2.771743965148925781e+01 2.282532841491047293e-05 2.229321398772299290e-05 1.353556308458792046e-05 7.710229510848876089e-06
3.118000000000000000e+03 4.482053279876708984e+00 2.944582366943359375e+01 -2.002069049922283739e-05 1.128003168560098857e-05 -2.622197825985495001e-06 -1.467766423957073130e-06
3.119000000000000000e+03 7.462673950195312500e+01 9.660767555236816406e+00 -5.748677253723144531e-02 9.949178695678710938e-01 2.812293171882629395e-01 9.545869380235671997e-02
3.120000000000000000e+03 6.755383300781250000e+01 -1.363556289672851562e+01 -2.922422289848327637e-01 1.251932621002197266e+00 2.879071235656738281e-01 2.072759270668029785e-01
3.121000000000000000e+03 4.796145439147949219e+00 -2.946955680847167969e+01 -7.718238048255443573e-04 3.034171822946518660e-04 -1.405219954904168844e-04 2.283354115206748247e-04
3.122000000000000000e+03 3.314687252044677734e+00 -2.807027626037597656e+01 -7.649185135960578918e-04 1.738697901600971818e-04 -1.773146213963627815e-04 9.715013584354892373e-05
3.123000000000000000e+03 4.544778442382812500e+01 -1.630823707580566406e+01 -2.545461974534646288e-08 -3.613709850469604135e-06 -1.091749368242744822e-06 -9.562327250023372471e-07
3.124000000000000000e+03 7.596965026855468750e+01 3.046280288696289062e+01 4.373940080404281616e-02 -1.233477592468261719e-01 -2.388250827789306641e-02 4.380332827568054199e-01
3.125000000000000000e+03 7.669454956054687500e+01 3.048510551452636719e+01 3.246284648776054382e-02 -4.636319279670715332e-01 -1.293507218360900879e-01 4.119137525558471680e-01
3.126000000000000000e+03 7.596892547607421875e+01 2.892092704772949219e+01 9.498925507068634033e-02 -1.596308201551437378e-01 -1.939246989786624908e-02 3.842673003673553467e-01
3.127000000000000000e+03 3.311701059341430664e+00 2.203153610229492188e+01 -1.993991099880076945e-05 2.946598942799028009e-05 2.857823801605263725e-06 -4.007457391708157957e-06
3.128000000000000000e+03 4.152379512786865234e+00 2.533308410644531250e+01 2.268699245178140700e-05 1.512757626187521964e-05 1.134437115979380906e-05 8.051171789702493697e-06
3.129000000000000000e+03 7.688614654541015625e+01 5.699492454528808594e+00 7.491257041692733765e-02 -8.275020122528076172e-01 -2.257768213748931885e-01 3.922220692038536072e-02
3.130000000000000000e+03 7.285746002197265625e+01 4.380619525909423828e+00 2.110789120197296143e-01 2.509667873382568359e+00 8.162240386009216309e-01 1.702284812927246094e-02
3.131000000000000000e+03 7.598986053466796875e+01 2.185148811340332031e+01 7.269702851772308350e-02 -1.448800861835479736e-01 -2.165491878986358643e-02 5.888331308960914612e-02
3.132000000000000000e+03 7.241193389892578125e+01 1.258235645294189453e+01 -1.507685482501983643e-01 2.564106464385986328e+00 7.240014076232910156e-01 -9.379336237907409668e-02
3.133000000000000000e+03 7.594932556152343750e+01 2.014366722106933594e+01 5.090725421905517578e-02 -8.258452266454696655e-02 -9.503180161118507385e-03 1.656198874115943909e-02
3.134000000000000000e+03 7.612391662597656250e+01 -1.185792160034179688e+01 -5.723213031888008118e-02 -9.355398267507553101e-02 -4.523583501577377319e-02 -3.197200596332550049e-01
3.135000000000000000e+03 7.681187438964843750e+01 -8.680063247680664062e+00 -2.396093495190143585e-02 -4.006298482418060303e-01 -1.273772418498992920e-01 -3.559825420379638672e-01
3.136000000000000000e+03 7.126352691650390625e+01 -9.827021598815917969e+00 -7.910034060478210449e-02 1.199656128883361816e+00 3.361667394638061523e-01 -9.790769219398498535e-02
3.137000000000000000e+03 7.607125091552734375e+01 2.266267585754394531e+01 8.610559999942779541e-02 -1.921773105859756470e-01 -3.182151541113853455e-02 8.840768039226531982e-02
3.138000000000000000e+03 7.677802276611328125e+01 2.497993659973144531e+01 8.838813751935958862e-02 -6.847909688949584961e-01 -1.789208501577377319e-01 1.787790805101394653e-01
3.139000000000000000e+03 7.612014007568359375e+01 2.419697761535644531e+01 1.296437531709671021e-01 -2.457359880208969116e-01 -3.482767194509506226e-02 1.394533514976501465e-01
3.140000000000000000e+03 3.487516403198242188e+00 2.689566802978515625e+01 -2.491546365490648896e-05 2.645746826601680368e-05 4.626012923836242408e-07 -5.568525011767633259e-06
3.141000000000000000e+03 7.385578918457031250e+01 1.422578620910644531e+01 -4.376488551497459412e-02 1.485561847686767578e+00 4.325391054153442383e-01 -4.554407298564910889e-02
3.142000000000000000e+03 7.669788360595703125e+01 1.852535820007324219e+01 1.912764832377433777e-02 -6.479111909866333008e-01 -1.886350661516189575e-01 2.141558565199375153e-03
3.143000000000000000e+03 7.455606079101562500e+01 1.757295989990234375e+01 2.622207626700401306e-02 9.654630422592163086e-01 2.975055277347564697e-01 -7.362841628491878510e-03
3.144000000000000000e+03 7.531991577148437500e+01 1.354690361022949219e+01 -6.278438121080398560e-02 3.980681598186492920e-01 1.005851402878761292e-01 -1.151598338037729263e-02
3.145000000000000000e+03 7.669184875488281250e+01 1.934212493896484375e+01 2.917048335075378418e-02 -6.430922150611877441e-01 -1.841765195131301880e-01 9.147612378001213074e-03
3.146000000000000000e+03 7.597611236572265625e+01 1.766362953186035156e+01 1.713301427662372589e-02 -1.051185876131057739e-01 -2.639567293226718903e-02 -5.593991838395595551e-03
3.147000000000000000e+03 7.676528930664062500e+01 -2.351221323013305664e+00 6.197698414325714111e-02 -6.480535864830017090e-01 -1.758229732513427734e-01 -3.349688947200775146e-01
3.148000000000000000e+03 7.611296081542968750e+01 -3.234328031539916992e+00 5.321291461586952209e-02 -2.325462400913238525e-01 -5.379999801516532898e-02 -3.703653216361999512e-01
3.149000000000000000e+03 7.613854980468750000e+01 -5.574124813079833984e+00 5.178680643439292908e-03 -2.213509082794189453e-01 -6.485167145729064941e-02 -4.027961790561676025e-01
3.150000000000000000e+03 7.672723388671875000e+01 1.368165016174316406e+01 -3.451414778828620911e-02 -6.577127575874328613e-01 -2.076680660247802734e-01 7.791355717927217484e-03
3.151000000000000000e+03 7.433028411865234375e+01 1.226953887939453125e+01 -1.152929738163948059e-01 1.169085264205932617e+00 3.161377012729644775e-01 -2.549462486058473587e-03
3.152000000000000000e+03 7.675542449951171875e+01 1.129323196411132812e+01 -4.516362026333808899e-02 -6.757681369781494141e-01 -2.162795364856719971e-01 5.660690739750862122e-02
3.153000000000000000e+03 7.527697753906250000e+01 5.495676517486572266e+00 1.053217127919197083e-01 4.190989434719085693e-01 1.573261916637420654e-01 4.123712703585624695e-02
3.154000000000000000e+03 7.689943695068359375e+01 4.125045299530029297e+00 8.394829183816909790e-02 -8.530333638191223145e-01 -2.307255119085311890e-01 -2.628433331847190857e-02
3.155000000000000000e+03 7.568639373779296875e+01 4.157554626464843750e+00 1.534796357154846191e-01 1.055987626314163208e-01 7.772351801395416260e-02 -2.075349353253841400e-02
3.156000000000000000e+03 7.631589508056640625e+01 4.891201496124267578e+00 1.115569099783897400e-01 -3.790744841098785400e-01 -8.025527000427246094e-02 1.794995367527008057e-02
3.157000000000000000e+03 7.345136260986328125e+01 3.387917280197143555e+00 2.368645817041397095e-01 1.935759186744689941e+00 6.517871618270874023e-01 -3.844064427539706230e-03
3.158000000000000000e+03 7.599403381347656250e+01 1.441971778869628906e+01 -3.201935067772865295e-02 -1.134542673826217651e-01 -4.364208504557609558e-02 -1.209792122244834900e-02
3.159000000000000000e+03 7.675811004638671875e+01 8.080763816833496094e+00 6.994178052991628647e-03 -7.164077162742614746e-01 -2.128240615129470825e-01 8.889953047037124634e-02
3.160000000000000000e+03 7.620617675781250000e+01 6.420777797698974609e+00 8.140589296817779541e-02 -2.752680480480194092e-01 -5.815865099430084229e-02 5.745099857449531555e-02
3.161000000000000000e+03 7.613794708251953125e+01 9.732886552810668945e-01 1.419920027256011963e-01 -2.676220834255218506e-01 -3.768902644515037537e-02 -1.975062936544418335e-01
3.162000000000000000e+03 7.597737121582031250e+01 1.522682857513427734e+01 -1.465649530291557312e-02 -1.026765108108520508e-01 -3.519990295171737671e-02 -1.388743706047534943e-02
3.163000000000000000e+03 7.674076843261718750e+01 9.692817687988281250e+00 -2.731074765324592590e-02 -6.768812537193298340e-01 -2.112576067447662354e-01 9.215378016233444214e-02
3.164000000000000000e+03 7.610304260253906250e+01 7.205121040344238281e+00 4.514527320861816406e-02 -2.087341099977493286e-01 -4.907665401697158813e-02 8.332107961177825928e-02
3.165000000000000000e+03 7.681353759765625000e+01 -7.895493030548095703e+00 -2.074855193495750427e-02 -4.385782480239868164e-01 -1.377980411052703857e-01 -3.657712042331695557e-01
3.166000000000000000e+03 7.613055419921875000e+01 -1.106035995483398438e+01 -5.140421167016029358e-02 -1.110160201787948608e-01 -4.872607067227363586e-02 -3.358044624328613281e-01
3.167000000000000000e+03 7.625876617431640625e+01 2.544903993606567383e+00 1.430173516273498535e-01 -3.490148782730102539e-01 -6.179926171898841858e-02 -1.041022911667823792e-01
3.168000000000000000e+03 7.602861785888671875e+01 9.666569709777832031e+00 -3.341491892933845520e-02 -1.203084811568260193e-01 -4.611701890826225281e-02 9.247516840696334839e-02
3.169000000000000000e+03 7.602648162841796875e+01 8.847321510314941406e+00 -6.015921477228403091e-03 -1.144354566931724548e-01 -3.613541275262832642e-02 9.974140673875808716e-02
3.170000000000000000e+03 7.250468444824218750e+01 2.301763725280761719e+01 1.816911846399307251e-01 2.430072784423828125e+00 7.835291624069213867e-01 -6.704645603895187378e-02
3.171000000000000000e+03 7.681684112548828125e+01 -1.427589035034179688e+01 -4.133357480168342590e-02 -1.662625521421432495e-01 -6.227883696556091309e-02 -2.392103821039199829e-01
3.172000000000000000e+03 7.219396972656250000e+01 -1.982361030578613281e+01 -1.138722002506256104e-01 1.714355349540710449e-01 1.726900041103363037e-02 -2.504433132708072662e-02
3.173000000000000000e+03 7.621385955810546875e+01 1.760102391242980957e+00 1.480728536844253540e-01 -3.264327049255371094e-01 -5.350795760750770569e-02 -1.540309637784957886e-01
3.174000000000000000e+03 7.213415527343750000e+01 2.685456275939941406e+01 3.500162363052368164e-01 2.261803388595581055e+00 7.835459113121032715e-01 -2.388794347643852234e-02
3.175000000000000000e+03 7.508700561523437500e+01 4.365250110626220703e+00 1.812626123428344727e-01 5.888844728469848633e-01 2.310441285371780396e-01 -1.226401887834072113e-02
3.176000000000000000e+03 7.308795928955078125e+01 -1.383608281612396240e-01 2.832490205764770508e-01 1.923987984657287598e+00 6.621710658073425293e-01 -1.190147697925567627e-01
3.177000000000000000e+03 7.683435058593750000e+01 -1.827265930175781250e+01 -3.846821933984756470e-02 -6.438066810369491577e-02 -3.085466660559177399e-02 -1.455806046724319458e-01
3.178000000000000000e+03 7.521898651123046875e+01 -2.023193931579589844e+01 -7.650897651910781860e-02 4.524297639727592468e-02 -9.379800409078598022e-03 -1.124642863869667053e-01
3.179000000000000000e+03 7.554027557373046875e+01 -2.191096496582031250e+01 -7.105991989374160767e-02 2.625477313995361328e-02 -1.344154309481382370e-02 -6.963689625263214111e-02
3.180000000000000000e+03 7.674133300781250000e+01 -1.523977041244506836e+00 7.265794277191162109e-02 -6.627749204635620117e-01 -1.770350933074951172e-01 -3.086494803428649902e-01
3.181000000000000000e+03 7.137253570556640625e+01 -1.594959974288940430e+00 2.198527306318283081e-01 2.912350416183471680e+00 9.396609663963317871e-01 1.779062896966934204e-01
3.182000000000000000e+03 4.569161224365234375e+01 -1.159328818321228027e+00 -4.392652044771239161e-05 -2.005094938795082271e-05 -1.919324131449684501e-05 -2.865831083909142762e-05
3.183000000000000000e+03 4.470449447631835938e+01 -6.899020671844482422e-01 -4.520084257819689810e-05 -1.343560688837897032e-05 -1.759093538566958159e-05 -3.131359335384331644e-05
3.184000000000000000e+03 7.185766601562500000e+01 -2.553497314453125000e+00 1.675143241882324219e-01 2.349779605865478516e+00 7.551881670951843262e-01 3.817699849605560303e-02
3.185000000000000000e+03 7.417006683349609375e+01 2.164427375793457031e+01 1.042554080486297607e-01 1.201267838478088379e+00 3.916569948196411133e-01 3.579888259992003441e-03
3.186000000000000000e+03 7.316773986816406250e+01 1.829690933227539062e+01 3.248149156570434570e-02 2.029254674911499023e+00 6.185207962989807129e-01 -2.284634858369827271e-03
3.187000000000000000e+03 7.668698120117187500e+01 2.016514587402343750e+01 3.657025471329689026e-02 -6.456903815269470215e-01 -1.827360391616821289e-01 2.325745113193988800e-02
3.188000000000000000e+03 7.606175994873046875e+01 1.568997353315353394e-01 1.419830471277236938e-01 -2.190363407135009766e-01 -2.311598882079124451e-02 -2.396598309278488159e-01
3.189000000000000000e+03 7.601055908203125000e+01 -6.984086632728576660e-01 1.215159147977828979e-01 -1.937818229198455811e-01 -2.167977392673492432e-02 -2.898575663566589355e-01
3.190000000000000000e+03 7.594547271728515625e+01 2.100235748291015625e+01 5.623311921954154968e-02 -1.003661900758743286e-01 -1.323992107063531876e-02 3.163884207606315613e-02
3.191000000000000000e+03 7.599116516113281250e+01 3.117502784729003906e+01 2.453659847378730774e-02 -1.133832782506942749e-01 -2.665400318801403046e-02 4.500416517257690430e-01
3.192000000000000000e+03 7.676995849609375000e+01 2.657494163513183594e+01 1.023047566413879395e-01 -6.501392722129821777e-01 -1.643503457307815552e-01 2.598205208778381348e-01
3.193000000000000000e+03 7.258333587646484375e+01 2.396160507202148438e+01 2.462777346372604370e-01 2.284575700759887695e+00 7.592560648918151855e-01 -5.285177379846572876e-02
3.194000000000000000e+03 7.615761566162109375e+01 -1.823437690734863281e+01 -5.164669081568717957e-02 -1.120321825146675110e-02 -1.885497383773326874e-02 -1.591861099004745483e-01
3.195000000000000000e+03 7.612190246582031250e+01 -8.668427467346191406e+00 -3.571391850709915161e-02 -1.614479571580886841e-01 -5.914856120944023132e-02 -3.791679441928863525e-01
3.196000000000000000e+03 7.602233886718750000e+01 2.813174057006835938e+01 1.147362515330314636e-01 -1.852899938821792603e-01 -2.116612344980239868e-02 3.510890901088714600e-01
3.197000000000000000e+03 7.404368591308593750e+01 -2.039057350158691406e+01 -1.043112352490425110e-01 9.916415065526962280e-02 -1.544124679639935493e-03 -9.662885218858718872e-02
3.198000000000000000e+03 7.545384216308593750e+01 -1.664494705200195312e+01 -7.210721075534820557e-02 5.747336521744728088e-02 -4.390153102576732635e-03 -1.947655975818634033e-01
3.199000000000000000e+03 7.613272857666015625e+01 -6.353395938873291016e+00 -5.359601695090532303e-03 -2.056457847356796265e-01 -6.330161541700363159e-02 -4.001242518424987793e-01
3.200000000000000000e+03 7.612600708007812500e+01 -7.128561496734619141e+00 -1.835316419601440430e-02 -1.931805908679962158e-01 -6.346012651920318604e-02 -3.993222713470458984e-01
3.201000000000000000e+03 7.252522277832031250e+01 2.497352409362792969e+01 3.036272227764129639e-01 2.252906799316406250e+00 7.669602036476135254e-01 -4.031900689005851746e-02
3.202000000000000000e+03 7.531961822509765625e+01 2.808131980895996094e+01 1.517574638128280640e-01 1.986311525106430054e-01 1.051165908575057983e-01 3.323769569396972656e-01
3.203000000000000000e+03 7.607849884033203125e+01 2.734873390197753906e+01 1.313832700252532959e-01 -2.216366976499557495e-01 -2.707603015005588531e-02 3.065987527370452881e-01
3.204000000000000000e+03 3.438470363616943359e+00 2.607987976074218750e+01 2.246588155685458332e-05 2.039188984781503677e-05 1.285733105760300532e-05 7.174021448008716106e-06
3.205000000000000000e+03 3.215282201766967773e+00 1.480049228668212891e+01 6.983441835473058745e-06 1.952337515831459314e-05 7.952045052661560476e-06 -2.456705487929866649e-06
3.206000000000000000e+03 3.949050426483154297e+00 1.568355846405029297e+01 6.379124897648580372e-06 1.900959614431485534e-05 7.616616130690090358e-06 -2.554812454036436975e-06
3.207000000000000000e+03 3.301750183105468750e+00 6.084586143493652344e+00 -9.419815114597440697e-07 7.126262516976566985e-06 1.855284267548995558e-06 -9.149158586296834983e-07
3.208000000000000000e+03 7.612810516357421875e+01 -1.506088066101074219e+01 -5.864008888602256775e-02 -3.918766602873802185e-02 -2.934832684695720673e-02 -2.365759313106536865e-01
3.209000000000000000e+03 3.296848535537719727e+00 2.123105621337890625e+01 1.581360811542253941e-05 2.161523298127576709e-05 1.122865251090843230e-05 -9.738332664710469544e-07
3.210000000000000000e+03 4.077748298645019531e+00 2.211153411865234375e+01 1.737378261168487370e-05 1.626900302653666586e-05 1.009283550956752151e-05 5.476946967064577620e-07
3.211000000000000000e+03 7.612033081054687500e+01 -1.264877414703369141e+01 -5.711783096194267273e-02 -7.732760906219482422e-02 -4.033363237977027893e-02 -2.973806262016296387e-01
3.212000000000000000e+03 7.612025451660156250e+01 -1.344146633148193359e+01 -5.932161211967468262e-02 -6.275200098752975464e-02 -3.662208467721939087e-02 -2.795278131961822510e-01
3.213000000000000000e+03 5.740989685058593750e+00 -7.409995079040527344e+00 -1.082925227819941938e-04 1.613760650798212737e-05 -2.764647615549620241e-05 2.932972165581304580e-05
3.214000000000000000e+03 4.693515777587890625e+00 3.247911071777343750e+01 6.902613677084445953e-06 2.010621574299875647e-05 8.102648280328139663e-06 -1.175424131361069158e-05
3.215000000000000000e+03 3.191225290298461914e+00 -9.739459991455078125e+00 1.605034340173006058e-04 1.078707464330364019e-05 5.138715278008021414e-05 2.178966133214998990e-05
3.216000000000000000e+03 3.976686239242553711e+00 -8.243762969970703125e+00 -1.366630458505824208e-04 -1.380737899125961121e-06 -4.141313547734171152e-05 -8.473077286907937378e-06
3.217000000000000000e+03 3.213341236114501953e+00 1.399582386016845703e+01 -7.722960617684293538e-06 1.859425537986680865e-05 3.261388428654754534e-06 -9.762223271536640823e-06
3.218000000000000000e+03 3.944736480712890625e+00 1.488128852844238281e+01 -8.048860763665288687e-06 1.743919165164697915e-05 2.817099129970301874e-06 -1.081902428268222138e-05
3.219000000000000000e+03 7.648777008056640625e+01 -2.172624397277832031e+01 -4.925244674086570740e-02 -3.139824548270553350e-04 -1.486992835998535156e-02 -7.453571259975433350e-02
3.220000000000000000e+03 7.686942291259765625e+01 -2.112128829956054688e+01 -4.028175026178359985e-02 -2.090116031467914581e-02 -1.835487224161624908e-02 -8.503972738981246948e-02
3.221000000000000000e+03 3.180104494094848633e+00 -1.052197933197021484e+01 -1.756755373207852244e-04 -1.899092603707686067e-05 -5.839993900735862553e-05 -2.690112341952044517e-05
3.222000000000000000e+03 3.288248062133789062e+00 -2.643684768676757812e+01 -7.487295661121606827e-04 1.045198441715911031e-04 -1.932629238581284881e-04 4.389785885905439500e-07
3.223000000000000000e+03 5.332462787628173828e+00 -2.228180885314941406e+01 -1.870761770987883210e-04 7.605451537529006600e-05 -3.330649997224099934e-05 -4.293933307053521276e-05
3.224000000000000000e+03 4.570396423339843750e+00 -1.063775730133056641e+01 -1.631037448532879353e-04 -2.872830373235046864e-05 -5.754961603088304400e-05 -2.004469206440262496e-05
3.225000000000000000e+03 3.879100322723388672e+00 -9.801259994506835938e+00 -1.555194467073306441e-04 -1.418385090801166371e-05 -5.091098864795640111e-05 -1.681688809185288846e-05
3.226000000000000000e+03 3.909459114074707031e+00 -9.024654388427734375e+00 1.457094185752794147e-04 6.462848432420287281e-06 4.565167910186573863e-05 1.254085782420588657e-05
3.227000000000000000e+03 4.991097450256347656e+00 8.800065994262695312e+00 4.380979135021334514e-06 7.781673048157244921e-06 3.648795654953573830e-06 -3.224601869078469463e-06
3.228000000000000000e+03 4.007498264312744141e+00 -2.145342254638671875e+01 5.321354838088154793e-04 4.931019066134467721e-05 1.744337059790268540e-04 1.310933148488402367e-04
3.229000000000000000e+03 3.978004693984985352e+00 1.729691696166992188e+01 7.964115866343490779e-06 2.016946746152825654e-05 8.440074452664703131e-06 -2.966250349345500581e-06
3.230000000000000000e+03 4.979528427124023438e+00 -2.279047012329101562e+01 5.851782407262362540e-05 -2.149073843611404300e-04 -4.691686626756563783e-05 -3.809370391536504030e-04
3.231000000000000000e+03 3.155622243881225586e+00 -1.822462844848632812e+01 -4.428387910593301058e-04 5.104046977066900581e-06 -1.313204265898093581e-04 -1.102358219213783741e-04
3.232000000000000000e+03 3.208491086959838867e+00 -1.903442955017089844e+01 4.527104028966277838e-04 1.107106345443753526e-05 1.391344412695616484e-04 8.696179429534822702e-05
3.233000000000000000e+03 4.902733802795410156e+00 -1.707489395141601562e+01 -2.812342718243598938e-04 -5.069737017038278282e-05 -9.957949805539101362e-05 -1.378915476379916072e-04
3.234000000000000000e+03 3.127013921737670898e+00 -1.516556835174560547e+01 -3.084805794060230255e-04 -3.346544690430164337e-05 -1.025838064379058778e-04 -1.065349060809239745e-04
3.235000000000000000e+03 3.821885824203491211e+00 -1.438305568695068359e+01 -2.506106393411755562e-04 -6.089927774155512452e-05 -9.345297439722344279e-05 -8.938001701608300209e-05
3.236000000000000000e+03 5.160214424133300781e+00 -2.376479721069335938e+01 2.425936399959027767e-04 -2.496300148777663708e-04 -2.110906962116132490e-06 -1.950994774233549833e-04
3.237000000000000000e+03 3.252752304077148438e+00 1.880663299560546875e+01 -1.353792868030723184e-05 2.469789797032717615e-05 3.347990514157572761e-06 -4.981496658729156479e-06
3.238000000000000000e+03 3.960978031158447266e+00 1.247989845275878906e+01 5.260895704850554466e-06 1.475197950639994815e-05 6.003862381476210430e-06 -2.399699042143765837e-06
3.239000000000000000e+03 3.747342824935913086e+00 -1.657052993774414062e+01 3.863215679302811623e-04 -5.638522111439669970e-07 1.157273145508952439e-04 1.532066962681710720e-04
3.240000000000000000e+03 3.769531726837158203e+00 -1.585243606567382812e+01 -3.376688400749117136e-04 -2.652239163580816239e-05 -1.092573729692958295e-04 -1.420990156475454569e-04
3.241000000000000000e+03 3.798117876052856445e+00 -1.512398624420166016e+01 2.832163008861243725e-04 5.007924482924863696e-05 9.998866880778223276e-05 1.179913597297854722e-04
3.242000000000000000e+03 6.620696067810058594e+00 -1.861425971984863281e+01 6.245553959161043167e-05 1.472882577218115330e-04 6.292314355960115790e-05 1.754986587911844254e-04
3.243000000000000000e+03 4.039655685424804688e+00 -2.057940673828125000e+01 -5.137380212545394897e-04 -2.805439544317778200e-05 -1.625377335585653782e-04 -1.023257646011188626e-04
3.244000000000000000e+03 4.006563186645507812e+00 -1.969801139831542969e+01 4.783993063028901815e-04 4.248587720212526619e-05 1.562655525049194694e-04 1.095290572266094387e-04
3.245000000000000000e+03 3.499765872955322266e+00 7.070448398590087891e+00 3.149377562294830568e-06 6.495382876892108470e-06 2.893428018069243990e-06 -2.053713387795141898e-06
3.246000000000000000e+03 5.173352718353271484e+00 8.194615364074707031e+00 -1.224538664246210828e-06 1.036102821672102436e-05 2.740946911217179149e-06 -1.596351285115815699e-05
3.247000000000000000e+03 4.003334522247314453e+00 1.888912391662597656e+01 1.065406104316934943e-05 1.964747752936091274e-05 9.090461389860138297e-06 -2.922881776612484828e-06
3.248000000000000000e+03 4.813230037689208984e+00 2.060060501098632812e+01 -1.743504253681749105e-05 2.290805969096254557e-05 1.641905100768781267e-06 -5.358480848371982574e-06
3.249000000000000000e+03 5.713342666625976562e+00 5.337080478668212891e+00 2.693505166462273337e-06 7.120978807506617159e-06 2.944345169453299604e-06 -1.424403490091208369e-05
3.250000000000000000e+03 3.954660654067993164e+00 -2.551697921752929688e+01 -9.435497922822833061e-04 1.976963831111788750e-04 -2.237560256617143750e-04 9.212732038577087224e-06
3.251000000000000000e+03 4.094990253448486328e+00 9.328991889953613281e+00 4.414824616105761379e-06 1.008828076010104269e-05 4.350931703811511397e-06 -2.691890358619275503e-06
3.252000000000000000e+03 6.429573059082031250e+00 -3.067530441284179688e+01 9.728684090077877045e-04 5.084446165710687637e-04 4.443939251359552145e-04 1.171887386590242386e-03
3.253000000000000000e+03 4.428838253021240234e+00 2.859875297546386719e+01 2.144788413716014475e-05 2.074651638395152986e-05 1.265831997443456203e-05 1.021622756525175646e-05
3.254000000000000000e+03 3.173723697662353516e+00 3.304255294799804688e+01 -4.133598122280091047e-05 3.066806675633415580e-05 -3.200374067091615871e-06 -3.644815933512290940e-07
3.255000000000000000e+03 3.750980377197265625e+00 -3.384860229492187500e+01 1.010406413115561008e-03 6.648918497376143932e-04 5.025894497521221638e-04 8.557189721614122391e-04
3.256000000000000000e+03 4.987704753875732422e+00 -3.343570709228515625e+01 8.972797659225761890e-04 8.151159854605793953e-04 5.137186963111162186e-04 6.977273151278495789e-04
3.257000000000000000e+03 4.015488624572753906e+00 1.968720436096191406e+01 -1.523154332971898839e-05 2.366244370932690799e-05 2.529270204831846058e-06 -5.146992862137267366e-06
3.258000000000000000e+03 3.950913429260253906e+00 1.327476692199707031e+01 -7.020233624643879011e-06 1.593521119502838701e-05 2.674493089216412045e-06 -1.227329994435422122e-05
3.259000000000000000e+03 4.032164573669433594e+00 -2.639297294616699219e+01 8.303766953758895397e-04 1.742256017678300850e-06 2.496356901247054338e-04 -1.681316934991627932e-04
3.260000000000000000e+03 3.856360197067260742e+00 -1.211465358734130859e+01 1.935438194777816534e-04 3.880294025293551385e-05 6.970402318984270096e-05 3.929496597265824676e-05
3.261000000000000000e+03 4.264965534210205078e+00 2.694294166564941406e+01 2.418547774141188711e-05 1.599901770532596856e-05 1.205534863402135670e-05 9.613232577976305038e-06
3.262000000000000000e+03 3.399421453475952148e+00 2.527164077758789062e+01 -2.414743903500493616e-05 2.949411100416909903e-05 1.604001795385556761e-06 -5.900943051528884098e-06
3.263000000000000000e+03 4.035767555236816406e+00 1.010208606719970703e+01 -5.023789526603650302e-06 1.261640318261925131e-05 2.277784005855210125e-06 -1.356038137600990012e-05
3.264000000000000000e+03 4.001174926757812500e+00 1.089145755767822266e+01 4.968213033862411976e-06 1.221166439790977165e-05 5.153963229531655088e-06 -2.675667474250076339e-06
3.265000000000000000e+03 3.836788654327392578e+00 -1.363568210601806641e+01 2.298841573065146804e-04 5.694122228305786848e-05 8.604761387687176466e-05 6.712288450216874480e-05
3.266000000000000000e+03 3.866071224212646484e+00 -1.133616924285888672e+01 -1.794436102500185370e-04 -3.236275733797810972e-05 -6.354190554702654481e-05 -2.922506064351182431e-05
3.267000000000000000e+03 7.315976715087890625e+01 1.909746551513671875e+01 3.510940819978713989e-02 2.040489912033081055e+00 6.226798295974731445e-01 -8.093419484794139862e-03
3.268000000000000000e+03 7.247871398925781250e+01 1.824876594543457031e+01 2.590193226933479309e-02 2.560432672500610352e+00 7.759004235267639160e-01 1.741939195198938251e-04
3.269000000000000000e+03 7.597330474853515625e+01 1.847709846496582031e+01 2.383700013160705566e-02 -1.019625216722488403e-01 -2.343765646219253540e-02 7.999167428351938725e-04
3.270000000000000000e+03 3.961087942123413086e+00 1.648992156982421875e+01 -9.516709724266547710e-06 1.876582427939865738e-05 2.774734184640692547e-06 -8.805954166746232659e-06
3.271000000000000000e+03 7.309185791015625000e+01 2.064825630187988281e+01 7.973348349332809448e-02 2.078215837478637695e+00 6.473848223686218262e-01 -1.518759317696094513e-02
3.272000000000000000e+03 7.245394897460937500e+01 1.983090972900390625e+01 4.650790244340896606e-02 2.580495119094848633e+00 7.881008982658386230e-01 -1.342503167688846588e-02
3.273000000000000000e+03 7.597518920898437500e+01 1.685243225097656250e+01 6.877101492136716843e-03 -1.038517355918884277e-01 -2.909239009022712708e-02 -1.086078211665153503e-02
3.274000000000000000e+03 7.315981292724609375e+01 1.502769470214843750e+01 3.379797795787453651e-03 1.995089411735534668e+00 5.995407700538635254e-01 -3.874195739626884460e-02
3.275000000000000000e+03 4.858429431915283203e+00 2.303097343444824219e+01 1.874064400908537209e-05 8.390964467253070325e-06 8.139482815749943256e-06 3.701715968418284319e-06
3.276000000000000000e+03 7.649915313720703125e+01 3.405625152587890625e+01 -6.018023192882537842e-02 -2.254774719476699829e-01 -8.569730818271636963e-02 3.913375437259674072e-01
3.277000000000000000e+03 7.358657836914062500e+01 3.201699066162109375e+01 -1.143157109618186951e-02 8.345090746879577637e-01 2.469232529401779175e-01 3.904265761375427246e-01
3.278000000000000000e+03 4.084645271301269531e+00 2.371311187744140625e+01 1.969767617993056774e-05 1.380125104333274066e-05 1.004967816697899252e-05 5.139568656886694953e-06
3.279000000000000000e+03 4.108500003814697266e+00 2.452656745910644531e+01 -2.450276952004060149e-05 2.868736191885545850e-05 1.255377810593927279e-06 -7.067386832204647362e-06
3.280000000000000000e+03 4.093622684478759766e+00 -3.468502044677734375e+01 -3.039646253455430269e-04 5.769830313511192799e-04 8.190552034648135304e-05 4.675767559092491865e-04
3.281000000000000000e+03 5.636094570159912109e+00 -3.318338775634765625e+01 -1.709634962026029825e-04 4.293025995139032602e-04 7.750173244858160615e-05 1.444763969630002975e-03
3.282000000000000000e+03 7.134875488281250000e+01 -4.205313682556152344e+00 1.294223964214324951e-01 2.206678867340087891e+00 7.008303999900817871e-01 1.124741137027740479e-01
3.283000000000000000e+03 6.810424804687500000e+01 -1.126288414001464844e+01 -2.677130512893199921e-02 1.461274862289428711e+00 4.303510487079620361e-01 2.566752433776855469e-01
3.284000000000000000e+03 6.626961517333984375e+01 -1.625540924072265625e+01 -6.579793095588684082e-01 1.264296531677246094e+00 1.818951666355133057e-01 4.186303019523620605e-01
3.285000000000000000e+03 7.043970489501953125e+01 -1.932635116577148438e+01 -7.973255217075347900e-02 2.786752283573150635e-01 5.968280881643295288e-02 1.795910596847534180e-01
3.286000000000000000e+03 6.011592388153076172e+00 -5.426437854766845703e+00 2.040118488366715610e-05 1.971556775970384479e-05 1.203502597491024062e-05 2.934363146778196096e-05
3.287000000000000000e+03 5.124104022979736328e+00 -4.824554920196533203e+00 3.891991218551993370e-05 1.871380118245724589e-05 1.729011455608997494e-05 4.233411891618743539e-05
3.288000000000000000e+03 7.529844665527343750e+01 3.534281158447265625e+01 -1.367246955633163452e-01 1.887149512767791748e-01 1.559707801789045334e-02 3.767964541912078857e-01
3.289000000000000000e+03 3.624124145507812500e+01 -1.580597400665283203e+01 4.942346095049288124e-06 4.342574584370595403e-07 1.612981122889323160e-06 2.238504748675040901e-06
3.290000000000000000e+03 3.457190704345703125e+01 -1.513126087188720703e+01 4.722348421637434512e-06 8.126477268888265826e-08 1.441084009456972126e-06 1.698673941064043902e-06
3.291000000000000000e+03 5.154257774353027344e+00 -3.484960937500000000e+01 3.377692773938179016e-04 7.640136755071580410e-04 3.305348800495266914e-04 7.812800467945635319e-04
3.292000000000000000e+03 7.640694427490234375e+01 3.581486892700195312e+01 -9.096562117338180542e-02 -1.151222661137580872e-01 -6.182636320590972900e-02 3.412784337997436523e-01
3.293000000000000000e+03 7.466226196289062500e+01 3.568272018432617188e+01 -1.649405807256698608e-01 3.354145288467407227e-01 5.114218592643737793e-02 3.730906248092651367e-01
3.294000000000000000e+03 6.470515441894531250e+01 -1.848622512817382812e+01 -8.687446713447570801e-01 1.483142495155334473e+00 1.843193471431732178e-01 9.524099826812744141e-01
3.295000000000000000e+03 4.097589969635009766e+00 -7.457427024841308594e+00 1.312239328399300575e-04 -5.302851604938041419e-06 3.777632446144707501e-05 7.393358828267082572e-06
3.296000000000000000e+03 4.677865982055664062e+01 -7.643713474273681641e+00 1.739653453114442527e-05 8.935053301684092730e-06 7.899476258899085224e-06 6.697325716231716797e-06
3.297000000000000000e+03 5.369980812072753906e+00 2.952305412292480469e+01 1.889971645141486079e-05 1.920181421155575663e-05 1.143045938079012558e-05 1.360490296065108851e-05
3.298000000000000000e+03 4.164478302001953125e+01 4.867904186248779297e+00 -6.992393900873139501e-05 1.031231477099936455e-05 -1.788348890841007233e-05 -3.132145866402424872e-05
3.299000000000000000e+03 1.666028404235839844e+01 3.536775112152099609e+00 2.042877895291894674e-05 4.076655841345200315e-06 7.351630301855038851e-06 -9.520361345494166017e-06
3.300000000000000000e+03 7.647399902343750000e+01 -3.272214889526367188e+01 -2.805365482345223427e-03 -2.891892101615667343e-03 -1.709177275188267231e-03 6.207931321114301682e-03
3.301000000000000000e+03 7.667573547363281250e+01 -3.200409698486328125e+01 -6.577715277671813965e-03 -7.111408049240708351e-04 -2.186656696721911430e-03 5.304541438817977905e-03
3.302000000000000000e+03 8.033051490783691406e+00 -5.805985927581787109e+00 -9.653566849010530859e-06 3.679992369143292308e-05 8.143907507474068552e-06 2.851648787327576429e-05
3.303000000000000000e+03 9.206648826599121094e+00 -4.662046909332275391e+00 5.060625699115917087e-05 2.339267666684463620e-05 2.219967973360326141e-05 1.751013587636407465e-05
3.304000000000000000e+03 4.048133087158203125e+01 1.616568374633789062e+01 -1.891451393021270633e-04 5.424693517852574587e-05 -4.046946196467615664e-05 1.391649311699438840e-05
3.305000000000000000e+03 3.955183029174804688e+01 1.436740112304687500e+01 1.543574180686846375e-04 2.093062903441023082e-05 5.258641613181680441e-05 3.808961992035619915e-05
3.306000000000000000e+03 7.605925750732421875e+01 -3.187364196777343750e+01 -3.491421462967991829e-03 -1.943303272128105164e-03 -1.630417420528829098e-03 4.245440941303968430e-03
3.307000000000000000e+03 5.800343322753906250e+01 -2.326706123352050781e+01 1.891845822334289551e+00 1.937707185745239258e+00 1.148865938186645508e+00 1.422489523887634277e+00
3.308000000000000000e+03 7.265566253662109375e+01 1.706603527069091797e+00 3.409613668918609619e-01 2.505004167556762695e+00 8.537896871566772461e-01 2.030815184116363525e-02
3.309000000000000000e+03 7.628937530517578125e+01 4.122665405273437500e+00 1.139207035303115845e-01 -3.801467418670654297e-01 -7.986781001091003418e-02 -2.863818220794200897e-02
3.310000000000000000e+03 4.495319366455078125e+01 -1.593131446838378906e+01 -5.247145963949151337e-06 1.298888719247770496e-06 -1.184477127935679164e-06 -7.540976412201416679e-07
3.311000000000000000e+03 4.319399261474609375e+01 -1.641570281982421875e+01 4.450639607966877520e-06 -6.238495871002669446e-07 1.148036972153931856e-06 -3.168634066241793334e-07
3.312000000000000000e+03 7.348485565185546875e+01 -3.249100112915039062e+01 -1.400037854909896851e-02 1.445989590138196945e-03 -3.766316687688231468e-03 7.846603170037269592e-03
3.313000000000000000e+03 7.234461212158203125e+01 -3.418982315063476562e+01 -2.364044822752475739e-02 5.352981388568878174e-03 -5.486240144819021225e-03 1.964704133570194244e-02
3.314000000000000000e+03 3.681394195556640625e+01 -1.642335891723632812e+01 3.461760798018076457e-06 3.284594356500747381e-07 1.137066078626958188e-06 1.498684014222817495e-06
3.315000000000000000e+03 6.762279510498046875e+01 -1.610007476806640625e+01 -4.909569919109344482e-01 1.117137551307678223e+00 1.878541857004165649e-01 3.761128187179565430e-01
3.316000000000000000e+03 7.307419586181640625e+01 2.212547111511230469e+01 1.225892826914787292e-01 2.041604757308959961e+00 6.492582559585571289e-01 -2.358612790703773499e-02
3.317000000000000000e+03 7.545226287841796875e+01 -9.420933723449707031e+00 -4.917608574032783508e-02 7.665570825338363647e-02 8.243886753916740417e-03 -3.804368376731872559e-01
3.318000000000000000e+03 1.775786590576171875e+01 2.091820955276489258e+00 6.293889782682526857e-06 -3.617634547481429763e-06 8.028765705603291281e-07 -3.642407193638064200e-07
3.319000000000000000e+03 4.722881317138671875e+01 -9.007966041564941406e+00 1.762586543918587267e-05 4.394405095808906481e-06 6.606081115023698658e-06 5.434292688732966781e-06
3.320000000000000000e+03 4.741406250000000000e+01 -9.680007934570312500e+00 -1.701362816675100476e-05 -2.311108573849196546e-06 -5.797421181341633201e-06 -4.780958988703787327e-06
3.321000000000000000e+03 7.245346069335937500e+01 1.416940593719482422e+01 -1.757653430104255676e-02 2.516038417816162109e+00 7.495385408401489258e-01 -7.279504090547561646e-02
3.322000000000000000e+03 7.315499877929687500e+01 1.419933319091796875e+01 -3.628461435437202454e-02 2.000939607620239258e+00 5.893964767456054688e-01 -5.226419493556022644e-02
3.323000000000000000e+03 7.224461364746093750e+01 -8.603416681289672852e-01 2.586390674114227295e-01 2.451519727706909180e+00 8.130476474761962891e-01 -1.635546796023845673e-02
3.324000000000000000e+03 2.609683799743652344e+01 -6.092601776123046875e+00 8.139748388202860951e-06 1.097285576179274358e-06 2.771110303001478314e-06 -1.415383735547948163e-06
3.325000000000000000e+03 2.504858398437500000e+01 -4.622811317443847656e+00 1.012459870253223926e-05 1.907614660012768582e-06 3.609663963288767263e-06 -2.584821913842461072e-06
3.326000000000000000e+03 4.482800292968750000e+01 -2.597261619567871094e+01 -1.286232769489288330e-01 -1.116351485252380371e+00 -3.734924197196960449e-01 -1.145797133445739746e+00
3.327000000000000000e+03 4.560504531860351562e+01 -2.710561943054199219e+01 -8.902987837791442871e-02 -9.947507381439208984e-01 -3.251341879367828369e-01 -1.091507911682128906e+00
3.328000000000000000e+03 3.976747131347656250e+01 1.708638572692871094e+01 -1.861695054685696959e-04 3.283139449195005000e-05 -4.600143438437953591e-05 2.822307010319491383e-07
3.329000000000000000e+03 3.689962768554687500e+01 -1.535364532470703125e+01 5.498325663211289793e-06 6.293752790043072309e-07 1.838310367929807398e-06 3.323035798530327156e-06
3.330000000000000000e+03 3.587213516235351562e+01 -1.434193897247314453e+01 -6.858638244011672214e-06 3.945302751162671484e-07 -1.939232333825202659e-06 -2.153831928808358498e-06
3.331000000000000000e+03 5.556563568115234375e+01 -2.348184585571289062e+01 6.232294440269470215e-01 9.013328552246093750e-01 4.573687016963958740e-01 -4.441405087709426880e-02
3.332000000000000000e+03 4.190557479858398438e+01 -1.628607749938964844e+01 3.778641257667914033e-06 1.764240892043744680e-06 1.662864633544813842e-06 1.288044018110667821e-06
3.333000000000000000e+03 3.982690048217773438e+01 2.179360580444335938e+01 -3.706053830683231354e-04 6.929868686711415648e-05 -9.039200813276693225e-05 4.623554559657350183e-06
3.334000000000000000e+03 4.094876480102539062e+01 2.255863189697265625e+01 -4.153839545324444771e-04 4.966542473994195461e-05 -1.097155618481338024e-04 1.092194634111365303e-05
3.335000000000000000e+03 7.615223693847656250e+01 -1.746532821655273438e+01 -5.338118225336074829e-02 -1.844683103263378143e-02 -2.154840342700481415e-02 -1.730496138334274292e-01
3.336000000000000000e+03 7.143547058105468750e+01 -2.042774200439453125e+01 -1.191202700138092041e-01 1.332898885011672974e-01 4.250884987413883209e-03 1.447594910860061646e-02
3.337000000000000000e+03 7.285111236572265625e+01 6.190461158752441406e+00 1.789395809173583984e-01 2.469615936279296875e+00 7.945666313171386719e-01 2.611560514196753502e-03
3.338000000000000000e+03 7.356661987304687500e+01 5.281559944152832031e+00 1.916436403989791870e-01 1.873374938964843750e+00 6.195055842399597168e-01 2.356992848217487335e-02
3.339000000000000000e+03 7.467127990722656250e+01 -3.310041427612304688e+01 -1.274904515594244003e-02 1.242380385519936681e-04 -3.787442110478878021e-03 1.231902558356523514e-02
3.340000000000000000e+03 7.528407287597656250e+01 -3.274476623535156250e+01 -8.814904838800430298e-03 1.357505796477198601e-03 -2.237219829112291336e-03 5.430534016340970993e-03
3.341000000000000000e+03 2.265721511840820312e+01 -1.858599662780761719e+00 1.442963366571348161e-05 3.139836280752206221e-06 5.270841029414441437e-06 -5.782765128969913349e-06
3.342000000000000000e+03 2.280812454223632812e+01 -3.015779495239257812e+00 1.290732870984356850e-05 3.238075123590533622e-06 4.843620899919187650e-06 -5.647810212394688278e-06
3.343000000000000000e+03 2.133442878723144531e+01 -5.971214771270751953e-01 1.642375900701154023e-05 3.677475888252956793e-06 6.030370514054084197e-06 -7.652000931557267904e-06
3.344000000000000000e+03 1.701626205444335938e+01 2.541251420974731445e+00 1.940149741130881011e-05 4.741020347864832729e-06 7.242755145853152499e-06 -1.071131919161416590e-05
3.345000000000000000e+03 2.200492286682128906e+01 -1.215484619140625000e+00 1.303970566368661821e-05 -1.020872514345683157e-05 8.492942242810386233e-07 1.131886733674036805e-06
3.346000000000000000e+03 7.395940399169921875e+01 -3.654267311096191406e+00 8.417245745658874512e-02 9.761012196540832520e-01 3.180821239948272705e-01 -3.047930300235748291e-01
3.347000000000000000e+03 7.162590026855468750e+01 -3.388871431350708008e+00 1.482356041669845581e-01 2.281825780868530273e+00 7.290183901786804199e-01 7.106957584619522095e-02
3.348000000000000000e+03 6.336325645446777344e+00 -1.944293785095214844e+01 5.186256603337824345e-04 -3.121987538179382682e-05 1.462217333028092980e-04 1.057858462445437908e-04
3.349000000000000000e+03 2.977467727661132812e+01 -1.379109382629394531e+01 4.785184046340873465e-06 1.792743205442093313e-06 1.973378175534890033e-06 -1.002534418148570694e-06
3.350000000000000000e+03 3.116277313232421875e+01 -1.405784988403320312e+01 -2.663340410435921513e-06 -1.321967602052609436e-06 -1.195592403746559285e-06 -2.934247902430797694e-07
3.351000000000000000e+03 2.823726463317871094e+01 -9.846857070922851562e+00 3.582279077818384394e-06 -1.072914415090053808e-06 7.528093988184991758e-07 -2.193116188209387474e-06
3.352000000000000000e+03 3.937388610839843750e+01 1.989480209350585938e+01 -2.801820519380271435e-04 3.093318082392215729e-05 -7.477466715499758720e-05 -1.393247475789394230e-05
3.353000000000000000e+03 3.813597106933593750e+01 1.810165786743164062e+01 1.432363060303032398e-04 -1.554463960928842425e-05 3.830749847111292183e-05 4.459251795196905732e-05
3.354000000000000000e+03 4.592877197265625000e+01 -1.527084255218505859e+01 -4.976324362360173836e-06 -1.720355157885933295e-06 -2.009003765124361962e-06 -2.102900680256425403e-06
3.355000000000000000e+03 4.513309860229492188e+01 -1.524780941009521484e+01 6.172055691422428936e-06 2.612288199088652618e-07 1.929985501192277297e-06 1.752809680510836188e-06
3.356000000000000000e+03 7.072952270507812500e+01 -7.477680683135986328e+00 4.369400441646575928e-02 1.699597120285034180e+00 5.229873061180114746e-01 7.400564104318618774e-02
3.357000000000000000e+03 6.524143981933593750e+01 -1.893882751464843750e+01 -5.135220289230346680e-01 1.335062623023986816e+00 2.464621961116790771e-01 1.058266162872314453e+00
3.358000000000000000e+03 6.596675872802734375e+01 -1.672297096252441406e+01 -7.358853816986083984e-01 1.285120248794555664e+00 1.647704690694808960e-01 5.071210861206054688e-01
3.359000000000000000e+03 6.727058410644531250e+00 -5.310778141021728516e+00 -4.159861782682128251e-05 -1.103610702557489276e-05 -1.579041781951673329e-05 -2.984359343827236444e-05
3.360000000000000000e+03 7.990695953369140625e+00 -5.195945739746093750e+00 -2.251168007205706090e-05 -3.081382237724028528e-05 -1.599765164428390563e-05 -2.858575135178398341e-05
3.361000000000000000e+03 3.960267639160156250e+01 2.083439445495605469e+01 1.607865269761532545e-04 -6.324591959128156304e-05 2.926218257925938815e-05 -6.288970325840637088e-05
3.362000000000000000e+03 7.103230285644531250e+01 -5.004118919372558594e+00 1.148229539394378662e-01 2.148604154586791992e+00 6.790280938148498535e-01 1.462580710649490356e-01
3.363000000000000000e+03 7.036203765869140625e+01 -6.537292003631591797e+00 1.016038358211517334e-01 1.997518181800842285e+00 6.297366023063659668e-01 2.044651806354522705e-01
3.364000000000000000e+03 3.966117858886718750e+01 1.618419265747070312e+01 1.778737496351823211e-04 1.262043497263221070e-05 5.714825601899065077e-05 2.844897426257375628e-05
3.365000000000000000e+03 3.872865295410156250e+01 1.431062698364257812e+01 -1.149403615272603929e-04 2.025904723268467933e-05 -2.840439447027165443e-05 -2.160820031349430792e-06
3.366000000000000000e+03 1.064445877075195312e+01 -1.357009601593017578e+01 -1.957810600288212299e-04 -1.289598440052941442e-04 -9.742227121023461223e-05 7.344019104493781924e-05
3.367000000000000000e+03 5.376595973968505859e+00 -1.682653808593750000e+01 -6.401524296961724758e-05 2.539860433898866177e-04 5.699124449165537953e-05 1.100066219805739820e-04
3.368000000000000000e+03 9.300296783447265625e+00 -1.458411026000976562e+01 1.577768125571310520e-04 1.184484572149813175e-04 8.286757656605914235e-05 4.623821951099671423e-05
3.369000000000000000e+03 6.979304313659667969e+00 -1.729969024658203125e+01 2.149204519810155034e-04 -4.576416540658101439e-05 5.074688669992610812e-05 -9.099349699681624770e-05
3.370000000000000000e+03 7.483290195465087891e+00 -1.763522338867187500e+01 -1.611103361938148737e-04 5.894439163967035711e-05 -3.064978227484971285e-05 9.180770575767382979e-05
3.371000000000000000e+03 4.322071075439453125e+01 2.729910469055175781e+01 -7.142170798033475876e-04 4.535741754807531834e-04 -7.819286838639527559e-05 -5.367589765228331089e-04
3.372000000000000000e+03 4.016102218627929688e+01 6.142979621887207031e+00 6.340300024021416903e-05 2.060970837192144245e-05 2.520381349313538522e-05 3.565504812286235392e-05
3.373000000000000000e+03 4.051075744628906250e+01 5.336982727050781250e+00 -6.362960994010791183e-05 1.454009634471731260e-05 -1.472685471526347101e-05 -1.886333302536513656e-05
3.374000000000000000e+03 7.307539367675781250e+01 -5.820446491241455078e+00 2.663049474358558655e-02 1.185389161109924316e+00 3.636059165000915527e-01 -2.388956397771835327e-01
3.375000000000000000e+03 4.028769302368164062e+01 2.381740379333496094e+01 -4.455225425772368908e-04 4.027343311463482678e-05 -1.215747324749827385e-04 -2.958095137728378177e-06
3.376000000000000000e+03 7.105394744873046875e+01 -6.762923717498779297e+00 5.003244429826736450e-02 1.748746871948242188e+00 5.396338105201721191e-01 4.874350503087043762e-02
3.377000000000000000e+03 7.139205169677734375e+01 -6.010920047760009766e+00 6.394585222005844116e-02 1.785166263580322266e+00 5.547336339950561523e-01 1.347728539258241653e-02
3.378000000000000000e+03 6.892587280273437500e+01 -1.064547252655029297e+01 -2.532446384429931641e-02 1.469901800155639648e+00 4.333732128143310547e-01 1.874823570251464844e-01
3.379000000000000000e+03 7.545771789550781250e+01 -1.100030994415283203e+01 -7.000142335891723633e-02 6.557995826005935669e-02 -1.326440018601715565e-03 -3.483101725578308105e-01
3.380000000000000000e+03 3.796817016601562500e+01 1.231317043304443359e+01 9.979586320696398616e-05 7.091598945407895371e-06 3.206624023732729256e-05 3.795143857132643461e-05
3.381000000000000000e+03 4.004987335205078125e+01 2.277991485595703125e+01 3.890219522872939706e-05 -5.447121293400414288e-05 -4.670705493481364101e-06 -1.474558521294966340e-04
3.382000000000000000e+03 2.786728477478027344e+01 -9.105667114257812500e+00 5.078594313090434298e-06 -4.662533683585934341e-07 1.383702169732714538e-06 -1.050914555378312798e-08
3.383000000000000000e+03 2.095300102233886719e+01 -3.726620483398437500e+01 -6.405183579772710800e-03 1.504726475104689598e-03 -1.470137154683470726e-03 8.647904731333255768e-03
3.384000000000000000e+03 2.637055587768554688e+01 -3.838557815551757812e+01 -2.388427592813968658e-02 -2.551841549575328827e-02 -1.482080761343240738e-02 7.733033969998359680e-03
3.385000000000000000e+03 6.992869567871093750e+01 -9.486164093017578125e+00 -1.773956418037414551e-02 1.510100603103637695e+00 4.477083384990692139e-01 1.015600562095642090e-01
3.386000000000000000e+03 7.123619079589843750e+01 3.312673950195312500e+01 -9.359396249055862427e-02 1.476854562759399414e+00 4.149781763553619385e-01 1.299134641885757446e-01
3.387000000000000000e+03 8.463274002075195312e+00 -3.132565498352050781e+01 1.423194305971264839e-03 -2.532067301217466593e-04 3.509962698444724083e-04 8.710681577213108540e-04
3.388000000000000000e+03 2.658204650878906250e+01 -6.841041088104248047e+00 8.051555596466641873e-06 -5.187608167034341022e-06 8.591843538852117490e-07 -1.915650045702932402e-06
3.389000000000000000e+03 7.626868438720703125e+01 3.338203668594360352e+00 1.149715855717658997e-01 -3.616639971733093262e-01 -7.400771975517272949e-02 -6.498306244611740112e-02
3.390000000000000000e+03 7.269719696044921875e+01 7.885622978210449219e+00 8.148407936096191406e-02 2.521315097808837891e+00 7.808397412300109863e-01 6.451880931854248047e-02
3.391000000000000000e+03 7.603987121582031250e+01 8.017189025878906250e+00 1.622126810252666473e-02 -1.482016146183013916e-01 -3.959410265088081360e-02 9.878935664892196655e-02
3.392000000000000000e+03 6.166423320770263672e+00 -2.477759933471679688e+01 -3.171706921420991421e-04 -4.163650373811833560e-05 -1.076421540346927941e-04 -3.488363581709563732e-04
3.393000000000000000e+03 6.486530303955078125e+00 -2.299093055725097656e+01 -4.403682542033493519e-04 2.373365568928420544e-04 -6.090950773796066642e-05 1.357061555609107018e-04
3.394000000000000000e+03 4.168437576293945312e+01 3.076406955718994141e+00 4.197969246888533235e-05 2.823759314196649939e-05 2.106518513755872846e-05 4.168815212324261665e-05
3.395000000000000000e+03 8.217836380004882812e+00 6.212308883666992188e+00 3.260925041104201227e-06 1.231531859957613051e-05 4.672873274103039876e-06 -1.956331107066944242e-05
3.396000000000000000e+03 2.448637199401855469e+01 -3.908586025238037109e+00 1.211401377076981589e-05 -9.230411706084851176e-06 8.650804943499679212e-07 -6.292258944995410275e-07
3.397000000000000000e+03 1.849812507629394531e+01 1.609081625938415527e+00 1.906128454720601439e-05 4.246729076839983463e-06 6.992403996264329180e-06 -1.046466331899864599e-05
3.398000000000000000e+03 1.379098892211914062e+01 4.677331924438476562e+00 1.753047740749025252e-06 -2.554042339397710748e-06 -2.402983625415799906e-07 -6.682637376798084006e-07
3.399000000000000000e+03 1.883675384521484375e+01 5.157421231269836426e-01 1.851586421253159642e-05 4.492716016102349386e-06 6.902574114064918831e-06 -1.022695960273267701e-05
3.400000000000000000e+03 1.922876739501953125e+01 1.097764253616333008e+00 9.188525837089400738e-06 -6.679227681161137298e-06 7.527895036218978930e-07 1.127051746152574196e-06
3.401000000000000000e+03 7.546205902099609375e+01 2.417043495178222656e+01 1.645921915769577026e-01 2.204281985759735107e-01 1.155061200261116028e-01 1.258843839168548584e-01
3.402000000000000000e+03 7.608834838867187500e+01 2.496953201293945312e+01 1.147914454340934753e-01 -2.418348938226699829e-01 -3.811303153634071350e-02 1.834697425365447998e-01
3.403000000000000000e+03 7.205973815917968750e+01 -1.707434415817260742e+00 2.118237912654876709e-01 2.410629510879516602e+00 7.867360115051269531e-01 1.043327618390321732e-02
3.404000000000000000e+03 6.927519321441650391e+00 -2.751590538024902344e+01 -6.228212732821702957e-04 1.380098692607134581e-04 -1.454434241168200970e-04 2.098081040458055213e-06
3.405000000000000000e+03 4.491770935058593750e+01 -2.718705558776855469e+01 -1.767953783273696899e-01 -1.175711154937744141e+00 -4.057519435882568359e-01 -1.054651498794555664e+00
3.406000000000000000e+03 7.250399017333984375e+01 2.888876152038574219e+01 2.680103778839111328e-01 1.671807289123535156e+00 5.819453001022338867e-01 1.633403599262237549e-01
3.407000000000000000e+03 3.689364242553710938e+01 -1.361302661895751953e+01 -5.347424576029879972e-06 -1.942852804859285243e-06 -2.187083282478852198e-06 -1.983334641408873722e-06
3.408000000000000000e+03 1.559885311126708984e+01 -1.053802394866943359e+01 2.818880602717399597e-05 8.892212645150721073e-05 3.513327828841283917e-05 6.933463009772822261e-05
3.409000000000000000e+03 1.398513984680175781e+01 -1.057044124603271484e+01 4.002222704002633691e-05 6.909725198056548834e-05 3.273584297858178616e-05 5.562712976825423539e-05
3.410000000000000000e+03 4.107947540283203125e+01 2.682288742065429688e+01 -6.032926030457019806e-04 9.655274334363639355e-05 -1.520219520898535848e-04 -4.093920506420545280e-05
3.411000000000000000e+03 4.055506134033203125e+01 2.488448333740234375e+01 -2.705082588363438845e-04 6.683921674266457558e-05 -6.110071262810379267e-05 -1.967666175914928317e-04
3.412000000000000000e+03 5.441286468505859375e+01 -2.777618598937988281e+01 2.407846927642822266e+00 3.021445751190185547e+00 1.628787755966186523e+00 8.651258945465087891e-01
3.413000000000000000e+03 5.373575973510742188e+01 -2.633906173706054688e+01 1.988709568977355957e+00 1.409209489822387695e+00 1.019375681877136230e+00 1.005083844065666199e-01
3.414000000000000000e+03 7.277567291259765625e+01 2.703472709655761719e+01 3.219605684280395508e-01 1.820077419281005859e+00 6.426113843917846680e-01 7.933253049850463867e-02
3.415000000000000000e+03 7.609516143798828125e+01 2.576585769653320312e+01 1.359872221946716309e-01 -2.307598292827606201e-01 -2.843178249895572662e-02 2.254432588815689087e-01
3.416000000000000000e+03 7.300743103027343750e+01 2.616344070434570312e+01 3.135966658592224121e-01 1.773786067962646484e+00 6.262148022651672363e-01 6.844993680715560913e-02
3.417000000000000000e+03 4.827308273315429688e+01 -1.412348461151123047e+01 -5.440073437057435513e-06 9.608527307136682793e-07 -1.343766257377865259e-06 -1.502701707067899406e-06
3.418000000000000000e+03 7.538895416259765625e+01 7.076982021331787109e+00 8.458481729030609131e-02 3.859737515449523926e-01 1.411675661802291870e-01 8.104351162910461426e-02
3.419000000000000000e+03 3.803020477294921875e+00 -1.807166290283203125e+01 4.277002008166164160e-04 -2.040502522504539229e-06 1.276979164686053991e-04 1.449238916393369436e-04
3.420000000000000000e+03 1.541012763977050781e+01 4.360763072967529297e+00 1.235992567671928555e-05 9.721465175971388817e-06 6.624417437706142664e-06 -1.254708422493422404e-05
3.421000000000000000e+03 3.879721450805664062e+01 1.242057704925537109e+01 -9.710430458653718233e-05 2.204996781074441969e-05 -2.251630030514206737e-05 -2.987163497891742736e-06
3.422000000000000000e+03 4.240038394927978516e+00 3.561092758178710938e+01 -1.272551344300154597e-05 2.169107574445661157e-05 2.689668690436519682e-06 2.115826100634876639e-05
3.423000000000000000e+03 1.483951854705810547e+01 -7.953576564788818359e+00 4.007736788480542600e-05 1.703414818621240556e-05 1.713345591269899160e-05 1.979062653845176101e-05
3.424000000000000000e+03 1.369439315795898438e+01 -7.388045787811279297e+00 4.997778160031884909e-05 2.892215343308635056e-05 2.366998160141520202e-05 6.575178446155405254e-08
3.425000000000000000e+03 1.652511596679687500e+01 -9.043489456176757812e+00 -2.908695751102641225e-05 -1.877413524198345840e-05 -1.435832746210508049e-05 -1.900362121887155809e-06
3.426000000000000000e+03 7.313773345947265625e+01 1.337593269348144531e+01 -8.510930836200714111e-02 2.051228761672973633e+00 5.898358225822448730e-01 -7.125017046928405762e-02
3.427000000000000000e+03 7.323535919189453125e+01 7.199997901916503906e-01 3.016536533832550049e-01 1.914131164550781250e+00 6.647354364395141602e-01 -9.299696981906890869e-02
3.428000000000000000e+03 7.323455810546875000e+01 -3.582501220703125000e+01 -1.268176455050706863e-02 1.114639744628220797e-04 -3.771090181544423103e-03 2.675633691251277924e-02
3.429000000000000000e+03 4.489014816284179688e+01 -2.652775192260742188e+01 -1.640478819608688354e-01 -1.119980812072753906e+00 -3.852086067199707031e-01 -1.117217898368835449e+00
3.430000000000000000e+03 1.030019283294677734e+01 -4.924194812774658203e+00 5.153306847205385566e-05 2.670007961569353938e-05 2.346994551771786064e-05 2.180409865104593337e-05
3.431000000000000000e+03 6.732040405273437500e+00 -2.226684570312500000e+01 3.927050856873393059e-04 -6.661890802206471562e-05 9.782585402717813849e-05 -3.683368777274154127e-05
3.432000000000000000e+03 1.534662914276123047e+01 -1.085000228881835938e+01 -9.479474101681262255e-06 -1.060611248249188066e-04 -3.466218186076730490e-05 -8.807327685644850135e-05
3.433000000000000000e+03 1.611948966979980469e+01 -8.663369178771972656e+00 6.610479613300412893e-05 1.789027010090649128e-05 2.519852023397106677e-05 7.327012667701637838e-07
3.434000000000000000e+03 5.355342864990234375e+01 -2.417139053344726562e+01 4.905115664005279541e-01 2.942523956298828125e-01 2.354291975498199463e-01 -7.689151763916015625e-01
3.435000000000000000e+03 1.330351829528808594e+01 4.057140350341796875e+00 1.382002028549322858e-05 9.694143955130130053e-06 7.054249181237537414e-06 -1.694622005743440241e-05
3.436000000000000000e+03 9.077243804931640625e+00 -1.524465274810791016e+01 -9.988469537347555161e-05 -1.369630917906761169e-04 -7.105433905962854624e-05 1.762626561685465276e-05
3.437000000000000000e+03 7.478179931640625000e+00 -1.601146316528320312e+01 2.456867368891835213e-04 4.106994674657471478e-05 8.602700836490839720e-05 6.115737778600305319e-05
3.438000000000000000e+03 3.957850646972656250e+01 7.847967624664306641e+00 7.486598769901320338e-05 2.064185719063971192e-05 2.865235364879481494e-05 4.200125113129615784e-05
3.439000000000000000e+03 4.072410202026367188e+01 -3.683318710327148438e+01 3.107315003871917725e-01 -8.206322789192199707e-01 -1.529702246189117432e-01 -1.951516717672348022e-01
3.440000000000000000e+03 7.086564636230468750e+01 3.156932640075683594e+01 1.072236150503158569e-01 1.843441724777221680e+00 5.851995944976806641e-01 1.571068353950977325e-02
3.441000000000000000e+03 7.074057006835937500e+01 3.450983810424804688e+01 -2.016606777906417847e-01 1.360571980476379395e+00 3.476734161376953125e-01 7.645516097545623779e-02
3.442000000000000000e+03 7.520436859130859375e+01 3.719128799438476562e+01 -1.494658738374710083e-01 1.756253093481063843e-01 7.847832515835762024e-03 2.914031744003295898e-01
3.443000000000000000e+03 2.850424194335937500e+01 -3.564299011230468750e+01 -1.054875459522008896e-02 -2.510228380560874939e-02 -1.069531124085187912e-02 -1.464006584137678146e-02
3.444000000000000000e+03 7.008743286132812500e+01 -3.502099609375000000e+01 -4.071321338415145874e-02 2.288386598229408264e-02 -5.348803941160440445e-03 2.704222127795219421e-02
3.445000000000000000e+03 7.070527648925781250e+01 -3.556220626831054688e+01 -2.812678739428520203e-02 1.309132482856512070e-02 -4.510638304054737091e-03 3.650908917188644409e-02
3.446000000000000000e+03 6.891497039794921875e+01 -1.930251693725585938e+01 -4.380928352475166321e-02 4.420119524002075195e-01 1.194607987999916077e-01 4.837819635868072510e-01
3.447000000000000000e+03 6.740655517578125000e+01 -1.459893131256103516e+01 -4.036476314067840576e-01 1.209573268890380859e+00 2.417777031660079956e-01 2.450164258480072021e-01
3.448000000000000000e+03 3.934882736206054688e+01 8.733550071716308594e+00 -7.564860425191000104e-05 2.085670894302893430e-05 -1.643756877456326038e-05 -1.111480287363519892e-05
3.449000000000000000e+03 6.953318023681640625e+01 -1.966760635375976562e+01 -3.179103508591651917e-02 2.814735472202301025e-01 7.490475475788116455e-02 3.384252786636352539e-01
3.450000000000000000e+03 7.533110046386718750e+01 3.117613220214843750e+01 3.812497854232788086e-02 1.778356879949569702e-01 6.478819996118545532e-02 4.614933431148529053e-01
3.451000000000000000e+03 7.594945526123046875e+01 3.186731338500976562e+01 -1.580077223479747772e-03 -6.725122779607772827e-02 -2.064939215779304504e-02 4.493776857852935791e-01
3.452000000000000000e+03 6.628594207763671875e+01 -3.910081100463867188e+01 7.677653431892395020e-02 2.014956250786781311e-02 2.907782793045043945e-02 3.035551495850086212e-02
3.453000000000000000e+03 7.190568542480468750e+01 -3.895299148559570312e+01 1.997957006096839905e-02 -1.432092394679784775e-02 1.697593485005199909e-03 2.735061757266521454e-02
3.454000000000000000e+03 7.169809722900390625e+01 -3.552761459350585938e+01 -1.842028088867664337e-02 2.360530430451035500e-03 -4.817924927920103073e-03 3.148064017295837402e-02
3.455000000000000000e+03 5.303130340576171875e+01 -2.438617134094238281e+01 5.222076773643493652e-01 1.852254271507263184e-01 2.122299373149871826e-01 -8.876286745071411133e-01
3.456000000000000000e+03 4.889473342895507812e+01 -1.412986373901367188e+01 6.906462203914998099e-06 1.743375037221994717e-06 2.594951183709781617e-06 7.195757007139036432e-06
3.457000000000000000e+03 3.888105773925781250e+01 1.148611259460449219e+01 1.077449414879083633e-04 1.654526568017899990e-05 3.728706360561773181e-05 4.333416291046887636e-05
3.458000000000000000e+03 3.915753555297851562e+01 9.636134147644042969e+00 9.118622983805835247e-05 1.798776975192595273e-05 3.275219933129847050e-05 4.486655234359204769e-05
3.459000000000000000e+03 1.152712154388427734e+01 -3.340838623046875000e+01 1.521780854091048241e-03 3.726257127709686756e-04 5.683219642378389835e-04 3.812828101217746735e-03
3.460000000000000000e+03 6.626110076904296875e+01 -1.896957397460937500e+01 -3.315724134445190430e-01 1.123559474945068359e+00 2.375961095094680786e-01 9.289471507072448730e-01
3.461000000000000000e+03 1.192444992065429688e+01 -3.449676895141601562e+01 3.384153824299573898e-03 1.033860142342746258e-03 1.325404155068099499e-03 3.672666614875197411e-03
3.462000000000000000e+03 4.552455139160156250e+01 -2.967044067382812500e+01 -9.716202318668365479e-02 -9.182586669921875000e-01 -3.046261966228485107e-01 -4.437603950500488281e-01
3.463000000000000000e+03 9.200140953063964844e+00 5.792522430419921875e+00 4.832286776945693418e-06 1.195665390696376562e-05 5.036682068748632446e-06 -1.919473106681834906e-05
3.464000000000000000e+03 3.842212295532226562e+01 -4.126924133300781250e+01 2.913115918636322021e-01 -5.674661397933959961e-01 -8.284637331962585449e-02 -3.977950662374496460e-02
3.465000000000000000e+03 3.997455215454101562e+01 -3.889626693725585938e+01 3.447658121585845947e-01 -6.918631196022033691e-01 -1.041292026638984680e-01 -1.513591408729553223e-01
3.466000000000000000e+03 1.325907611846923828e+01 5.133598327636718750e+00 1.179204264190047979e-05 1.102521946449996904e-05 6.845178631920134649e-06 -1.930425605678465217e-05
3.467000000000000000e+03 1.121370792388916016e+01 5.053020477294921875e+00 8.690855793247465044e-06 1.104182138078613207e-05 5.919803243159549311e-06 -2.136648254236206412e-05
3.468000000000000000e+03 8.911801338195800781e+00 -3.260502624511718750e+01 2.291636075824499130e-03 2.737821196205914021e-04 7.696254760958254337e-04 1.959585351869463921e-03
3.469000000000000000e+03 9.849240303039550781e+00 -3.332164001464843750e+01 1.063360366970300674e-03 5.497741512954235077e-04 4.839403554797172546e-04 2.058271551504731178e-03
3.470000000000000000e+03 4.383737564086914062e+01 -3.520426177978515625e+01 3.337057530879974365e-01 -8.575710058212280273e-01 -1.571595817804336548e-01 1.386862099170684814e-01
3.471000000000000000e+03 5.310469818115234375e+01 -2.824956893920898438e+01 2.096293926239013672e+00 1.818738460540771484e+00 1.174509644508361816e+00 3.948057591915130615e-01
3.472000000000000000e+03 4.529749298095703125e+01 3.269812774658203125e+01 -3.180860308930277824e-03 1.632626954233273864e-04 -9.052792447619140148e-04 1.378045533783733845e-03
3.473000000000000000e+03 7.441090393066406250e+01 3.855640792846679688e+01 -2.143656015396118164e-01 3.542944490909576416e-01 4.197866097092628479e-02 2.045327126979827881e-01
3.474000000000000000e+03 6.767430877685546875e+01 3.983381652832031250e+01 -3.405225574970245361e-01 9.208856821060180664e-01 1.741089373826980591e-01 -8.545221388339996338e-02
3.475000000000000000e+03 1.908729934692382812e+01 -3.703425598144531250e+01 -3.928299061954021454e-03 4.596604965627193451e-03 2.004916459554806352e-04 1.140605006366968155e-02
3.476000000000000000e+03 3.831902265548706055e+00 -3.758329391479492188e+01 -1.005899743176996708e-03 1.591729931533336639e-03 1.757490244926884770e-04 7.168917800299823284e-04
3.477000000000000000e+03 2.866976547241210938e+01 -3.706319046020507812e+01 -2.110300213098526001e-02 -5.117152631282806396e-02 -2.168235927820205688e-02 -2.760989405214786530e-02
3.478000000000000000e+03 4.498407745361328125e+01 -3.450292587280273438e+01 3.499460220336914062e-01 -6.523988842964172363e-01 -9.073586016893386841e-02 2.508523464202880859e-01
3.479000000000000000e+03 4.820943450927734375e+01 -3.198553466796875000e+01 5.965000391006469727e-01 -1.669186539947986603e-02 1.739424467086791992e-01 3.247108161449432373e-01
3.480000000000000000e+03 2.488577842712402344e+01 -3.732086944580078125e+01 -1.762054860591888428e-02 -1.021241024136543274e-02 -8.349887095391750336e-03 5.156944505870342255e-03
3.481000000000000000e+03 4.890271377563476562e+01 -3.041406631469726562e+01 8.715108633041381836e-01 -2.981557510793209076e-03 2.605587840080261230e-01 5.819997936487197876e-02
3.482000000000000000e+03 2.394159889221191406e+01 -3.617217254638671875e+01 -2.690718742087483406e-03 -3.335437038913369179e-03 -1.807846711017191410e-03 1.314494758844375610e-02
3.483000000000000000e+03 6.142004394531250000e+01 -3.924238586425781250e+01 4.268662258982658386e-02 4.492835104465484619e-01 1.475910395383834839e-01 -1.806680560111999512e-01
3.484000000000000000e+03 4.368204498291015625e+01 2.824517631530761719e+01 -1.386387739330530167e-03 -3.045748053409624845e-05 -4.250535566825419664e-04 1.465057139284908772e-04
3.485000000000000000e+03 7.098891258239746094e+00 -4.145038986206054688e+01 -2.425606828182935715e-03 2.993468428030610085e-03 1.703585148788988590e-04 1.194309676066040993e-03
3.486000000000000000e+03 6.681593322753906250e+01 -4.129000854492187500e+01 9.953138977289199829e-02 3.389424830675125122e-02 4.002768918871879578e-02 -6.083814078010618687e-04
3.487000000000000000e+03 5.265270996093750000e+01 -3.354573440551757812e+01 5.386441946029663086e-01 1.969110488891601562e+00 7.523264288902282715e-01 7.419968843460083008e-01
3.488000000000000000e+03 5.390826416015625000e+01 -3.391231155395507812e+01 2.515678703784942627e-01 2.740471601486206055e+00 8.976118564605712891e-01 5.224221348762512207e-01
3.489000000000000000e+03 5.296269226074218750e+01 4.128264236450195312e+01 2.965029329061508179e-02 -6.565020419657230377e-03 6.925581954419612885e-03 1.198706217110157013e-02
3.490000000000000000e+03 4.982835388183593750e+01 4.010719680786132812e+01 1.339694298803806305e-02 -7.975119166076183319e-03 1.626547076739370823e-03 4.216285888105630875e-03
3.491000000000000000e+03 4.657009887695312500e+01 3.667262268066406250e+01 -5.138895357958972454e-04 -5.129632190801203251e-04 -3.080558381043374538e-04 4.343861714005470276e-03
3.492000000000000000e+03 1.123910903930664062e+01 -7.271266460418701172e+00 4.913843076792545617e-05 3.876828850479796529e-05 2.637201578181702644e-05 -1.781097307684831321e-05
3.493000000000000000e+03 7.449996948242187500e+01 -2.199740219116210938e+01 -9.938734024763107300e-02 5.445104464888572693e-02 -1.348088774830102921e-02 -5.834182351827621460e-02
3.494000000000000000e+03 7.327868652343750000e+01 -2.163900947570800781e+01 -1.374552696943283081e-01 8.735877275466918945e-02 -1.502895168960094452e-02 -4.685826227068901062e-02
3.495000000000000000e+03 4.514287567138671875e+01 -4.419382572174072266e+00 6.137081072665750980e-06 2.958298136945813894e-05 1.071601855073822662e-05 1.965738556464202702e-05
3.496000000000000000e+03 4.656635665893554688e+01 -9.110132217407226562e+00 -1.630601582292001694e-05 -4.394828010845230892e-06 -6.210253559402190149e-06 -5.060584044258575886e-06
3.497000000000000000e+03 4.841094207763671875e+01 -2.725595474243164062e+01 5.772779583930969238e-01 -5.142912864685058594e-01 1.889599859714508057e-02 -8.984109163284301758e-01
3.498000000000000000e+03 1.142004299163818359e+01 -1.229953670501708984e+01 1.678211119724437594e-04 2.589464384072925895e-05 5.811472874484024942e-05 4.970040390617214143e-05
3.499000000000000000e+03 5.466674804687500000e+00 -7.962581634521484375e+00 1.003005672828294337e-04 2.018837039940990508e-05 3.614668094087392092e-05 -1.255773167940787971e-05
3.500000000000000000e+03 9.518816947937011719e+00 -6.018288135528564453e+00 -8.014998456928879023e-05 -1.095469906431389973e-05 -2.733140536292921752e-05 -3.933855259674601257e-05
3.501000000000000000e+03 7.102147674560546875e+01 -1.956120109558105469e+01 -7.920631766319274902e-02 2.188443839550018311e-01 4.189141839742660522e-02 9.689466655254364014e-02
3.502000000000000000e+03 7.417186737060546875e+01 -2.121350288391113281e+01 -1.119396314024925232e-01 7.706204801797866821e-02 -1.046327408403158188e-02 -7.644839584827423096e-02
3.503000000000000000e+03 3.163996124267578125e+01 -1.441033363342285156e+01 5.611490905721439049e-06 3.305749771698174300e-07 1.782619733603496570e-06 5.783256256108870730e-07
3.504000000000000000e+03 3.034094238281250000e+01 -1.139930534362792969e+01 -3.071116680075647309e-06 -3.632222387750516646e-06 -2.011001697610481642e-06 -7.546486813225783408e-08
3.505000000000000000e+03 8.427916526794433594e+00 -1.445410537719726562e+01 -1.785569329513236880e-04 -1.554809277877211571e-04 -1.002113640424795449e-04 -1.262566220248118043e-04
3.506000000000000000e+03 1.166917705535888672e+01 -6.149894237518310547e+00 4.622531923814676702e-05 3.447040580795146525e-05 2.420871715003158897e-05 7.744480171822942793e-06
3.507000000000000000e+03 1.002293872833251953e+01 -6.116865634918212891e+00 6.170261622173711658e-05 2.896289697673637420e-05 2.719965414144098759e-05 4.216775050736032426e-05
3.508000000000000000e+03 1.531332206726074219e+01 -7.777620315551757812e+00 4.021971108159050345e-05 1.223555864271475002e-05 1.573658119013998657e-05 2.419573866063728929e-05
3.509000000000000000e+03 1.395002460479736328e+01 -8.289068222045898438e+00 6.105264037614688277e-05 1.163056640507420525e-05 2.180496267101261765e-05 -2.263537317048758268e-05
3.510000000000000000e+03 1.624760818481445312e+01 -9.736297607421875000e+00 3.655250475276261568e-05 -4.195436486043035984e-05 -1.620557668502442539e-06 2.446665712341200560e-05
3.511000000000000000e+03 7.525890350341796875e+01 1.516736221313476562e+01 -1.588584482669830322e-02 4.426687061786651611e-01 1.280348598957061768e-01 -1.912452280521392822e-02
3.512000000000000000e+03 7.597356414794921875e+01 1.603959465026855469e+01 -2.173648914322257042e-03 -1.011660173535346985e-01 -3.100189939141273499e-02 -1.276894565671682358e-02
3.513000000000000000e+03 5.118508148193359375e+01 -2.526754951477050781e+01 6.562544107437133789e-01 -1.857078224420547485e-01 1.411639899015426636e-01 -1.077636003494262695e+00
3.514000000000000000e+03 5.346162414550781250e+01 -2.731101799011230469e+01 2.081903457641601562e+00 1.640275478363037109e+00 1.116653680801391602e+00 2.120916694402694702e-01
3.515000000000000000e+03 7.304168701171875000e+01 1.182426261901855469e+01 -1.793448925018310547e-01 2.134306192398071289e+00 5.864883661270141602e-01 -3.486509993672370911e-02
3.516000000000000000e+03 7.307872772216796875e+01 1.109072685241699219e+01 -1.963787674903869629e-01 2.161753177642822266e+00 5.896123647689819336e-01 1.467709150165319443e-02
3.517000000000000000e+03 7.568663024902343750e+01 -2.250926017761230469e+01 -6.311932206153869629e-02 2.119081467390060425e-02 -1.257855072617530823e-02 -5.790524184703826904e-02
3.518000000000000000e+03 7.578546905517578125e+01 -2.042845344543457031e+01 -6.617391854524612427e-02 1.933677308261394501e-02 -1.405114401131868362e-02 -1.080403849482536316e-01
3.519000000000000000e+03 6.707202148437500000e+01 -1.643877983093261719e+01 -5.460446476936340332e-01 1.180292129516601562e+00 1.902742236852645874e-01 4.534246623516082764e-01
3.520000000000000000e+03 4.759444808959960938e+01 -2.679326057434082031e+01 2.669718861579895020e-01 -6.907768845558166504e-01 -1.271415054798126221e-01 -1.088428378105163574e+00
3.521000000000000000e+03 1.098359680175781250e+01 -6.446172237396240234e+00 3.904165714629925787e-05 4.383566192700527608e-05 2.486319499439559877e-05 1.103118484024889767e-05
3.522000000000000000e+03 7.597316741943359375e+01 -2.140618324279785156e+01 -6.174228340387344360e-02 1.473581418395042419e-02 -1.410194113850593567e-02 -8.099875599145889282e-02
3.523000000000000000e+03 4.340202331542968750e+01 2.607564032077789307e-01 2.186736674048006535e-05 2.549563396314624697e-05 1.420890021108789369e-05 1.563421938044484705e-05
3.524000000000000000e+03 4.381371307373046875e+01 -2.985787391662597656e-01 -2.562422923801932484e-05 -3.974607807322172448e-06 -8.879651431925594807e-06 -2.598383071017451584e-05
3.525000000000000000e+03 4.523450469970703125e+01 -2.121525526046752930e+00 -2.673563722055405378e-05 -1.815174982766620815e-05 -1.346621684206184000e-05 -2.675909126992337406e-05
3.526000000000000000e+03 7.323523712158203125e+01 9.568473815917968750e+00 -9.945710003376007080e-02 2.082921504974365234e+00 5.950393676757812500e-01 8.131614327430725098e-02
3.527000000000000000e+03 7.329393005371093750e+01 8.772584915161132812e+00 -2.185891149565577507e-03 2.049747228622436523e+00 6.142684221267700195e-01 8.173699676990509033e-02
3.528000000000000000e+03 4.896289062500000000e+01 -2.647250747680664062e+01 5.456572175025939941e-01 -5.084400177001953125e-01 1.116515323519706726e-02 -1.052362203598022461e+00
3.529000000000000000e+03 4.145690536499023438e+01 -2.327954769134521484e-01 4.205261939205229282e-05 2.106669307977426797e-05 1.893579428724478930e-05 -1.094165236281696707e-05
3.530000000000000000e+03 3.027749061584472656e+01 -1.328140449523925781e+01 -1.632233647796965670e-06 -2.218729605374392122e-06 -1.155288941845356021e-06 6.771672929062333424e-07
3.531000000000000000e+03 4.825761032104492188e+01 -2.659890556335449219e+01 3.870831131935119629e-01 -5.671862363815307617e-01 -5.403093621134757996e-02 -1.076879262924194336e+00
3.532000000000000000e+03 5.268516159057617188e+01 -2.606772804260253906e+01 1.521036386489868164e+00 6.463928818702697754e-01 6.502287983894348145e-01 -4.250299334526062012e-01
3.533000000000000000e+03 4.545257568359375000e+01 -5.680163860321044922e+00 1.266573235625401139e-05 2.012100230786018074e-05 9.836020581133197993e-06 8.465008249913807958e-06
3.534000000000000000e+03 4.189010620117187500e+01 9.979229569435119629e-01 2.535776911827269942e-05 8.747912033868487924e-06 1.023170443659182638e-05 -2.455654339428292587e-06
3.535000000000000000e+03 4.528398132324218750e+01 -5.014023780822753906e+00 -9.710168342280667275e-06 -2.325341483810916543e-05 -9.889075045066419989e-06 -1.079736557585420087e-05
3.536000000000000000e+03 2.937773704528808594e+01 -1.097211074829101562e+01 4.724559403257444501e-06 -6.522888725157827139e-06 -5.394988420448498800e-07 -1.240968913407414220e-06
3.537000000000000000e+03 4.129630279541015625e+01 3.829328775405883789e+00 -5.262140984996221960e-05 6.920022769918432459e-06 -1.371041616948787123e-05 -3.272872345405630767e-05
3.538000000000000000e+03 4.754959869384765625e+01 -1.034999561309814453e+01 1.634189175092615187e-05 1.595734033799089957e-06 5.381287792260991409e-06 4.383407485875068232e-06
3.539000000000000000e+03 5.060371780395507812e+01 -2.637423324584960938e+01 9.863176345825195312e-01 -1.283751130104064941e-01 2.573827803134918213e-01 -8.597877621650695801e-01
3.540000000000000000e+03 1.495743846893310547e+01 -7.454575061798095703e+00 -7.194986392278224230e-05 -2.675046971489791758e-06 -2.238747219962533563e-05 -2.188950384152121842e-05
3.541000000000000000e+03 1.426145553588867188e+01 -7.766242980957031250e+00 -6.130576366558670998e-05 -2.796062835841439664e-05 -2.677991869859397411e-05 8.123899533529765904e-06
3.542000000000000000e+03 5.167682266235351562e+01 -2.585147285461425781e+01 1.059029459953308105e+00 1.105035841464996338e-01 3.508599400520324707e-01 -8.081560730934143066e-01
3.543000000000000000e+03 6.089593887329101562e+00 -2.095084953308105469e+01 -2.443785488139837980e-04 -2.363101084483787417e-04 -1.442065986339002848e-04 -3.153409124934114516e-05
3.544000000000000000e+03 3.790542984008789062e+01 1.327663516998291016e+01 -8.925686415750533342e-05 8.619940672360826284e-06 -2.419107659079600126e-05 -1.460972157474316191e-06
3.545000000000000000e+03 5.327995681762695312e+01 -2.575318145751953125e+01 1.554969429969787598e+00 8.590373396873474121e-01 7.242020368576049805e-01 -2.997809350490570068e-01
3.546000000000000000e+03 5.245896148681640625e+01 -2.464140701293945312e+01 5.814503431320190430e-01 4.299838840961456299e-02 1.873346269130706787e-01 -9.775435328483581543e-01
3.547000000000000000e+03 2.916905593872070312e+01 -1.027169799804687500e+01 3.268981799919856712e-06 6.233094040908326861e-07 1.167687400993600022e-06 -1.780313141352962703e-06
3.548000000000000000e+03 2.947996711730957031e+01 -1.237713527679443359e+01 -1.426315861863258760e-06 -1.340059839094465133e-06 -8.299126648125820793e-07 1.089426291400741320e-06
3.549000000000000000e+03 3.118638229370117188e+01 -1.313446712493896484e+01 -1.757923882905743085e-06 -2.086205313389655203e-06 -1.153238713413884398e-06 2.419359645955410087e-07
3.550000000000000000e+03 4.564987945556640625e+01 -6.379431247711181641e+00 -1.385306131851393729e-05 -1.413606696587521583e-05 -8.396738849114626646e-06 -6.155561550258425996e-06
3.551000000000000000e+03 5.434968948364257812e+01 -2.491841125488281250e+01 1.484881877899169922e+00 1.088998436927795410e+00 7.721641063690185547e-01 -1.014852449297904968e-01
3.552000000000000000e+03 1.570703411102294922e+01 -9.868797302246093750e+00 -1.554985828988719732e-05 4.343633190728724003e-05 8.365941539523191750e-06 -2.711550769163295627e-05
3.553000000000000000e+03 1.683527183532714844e+01 -9.592657089233398438e+00 9.996638254960998893e-06 2.435036731185391545e-05 1.030410203384235501e-05 -2.022536682488862425e-05
3.554000000000000000e+03 7.488014984130859375e+01 3.314821624755859375e+01 -5.907594040036201477e-02 3.396998047828674316e-01 8.418715745210647583e-02 4.522284269332885742e-01
3.555000000000000000e+03 5.384745407104492188e+01 -2.456421089172363281e+01 9.743198156356811523e-01 5.753316283226013184e-01 4.648954272270202637e-01 -5.157265067100524902e-01
3.556000000000000000e+03 6.800818634033203125e+01 -1.423839759826660156e+01 -3.598133623600006104e-01 1.186097621917724609e+00 2.478852719068527222e-01 2.038728296756744385e-01
3.557000000000000000e+03 7.576708221435546875e+01 3.454565429687500000e+01 -9.961695224046707153e-02 5.944214761257171631e-02 -1.205244008451700211e-02 4.091427028179168701e-01
3.558000000000000000e+03 7.168612670898437500e+01 3.190244102478027344e+01 3.578620404005050659e-02 1.546371340751647949e+00 4.746472537517547607e-01 1.782575994729995728e-01
3.559000000000000000e+03 4.695024013519287109e+00 -2.804835128784179688e+01 -6.092142430134117603e-04 1.261670258827507496e-04 -1.449141709599643946e-04 2.088108594762161374e-04
3.560000000000000000e+03 4.683717346191406250e+01 -1.210919189453125000e+01 1.313284974457928911e-05 -2.578008889031480066e-06 3.166452188452240080e-06 1.532379769741964992e-06
3.561000000000000000e+03 4.762412643432617188e+01 -1.101099872589111328e+01 -1.520838941360125318e-05 -5.357114787329919636e-07 -4.723230176750803366e-06 -3.503290599837782793e-06
3.562000000000000000e+03 4.659458541870117188e+01 -1.453903484344482422e+01 -5.061964202468516305e-06 -1.718043677101377398e-06 -2.034002363870968111e-06 -7.185711865531629883e-07
3.563000000000000000e+03 4.746436309814453125e+01 -1.495149707794189453e+01 -3.370842705407994799e-06 -4.239007012074580416e-06 -2.282954937982140109e-06 -3.176297013851581141e-06
3.564000000000000000e+03 5.268176078796386719e+00 2.862499618530273438e+01 -2.775282337097451091e-05 1.127381165133556351e-05 -4.943703515891684219e-06 -7.343888228206196800e-06
3.565000000000000000e+03 3.434355926513671875e+01 -1.447940540313720703e+01 8.813125532469712198e-06 -3.526633008732460439e-06 1.585947757121175528e-06 2.207937313869479112e-06
3.566000000000000000e+03 3.394930267333984375e+01 -1.422502708435058594e+01 -4.734136382467113435e-06 3.507775772959575988e-06 -3.679081430618680315e-07 4.964278943475619599e-08
3.567000000000000000e+03 7.284036159515380859e+00 6.617257118225097656e+00 -1.203251940751215443e-06 1.316162251896457747e-05 3.587511173464008607e-06 -1.995549428102094680e-05
3.568000000000000000e+03 3.958238983154296875e+01 -1.599370956420898438e+01 3.424298256504698656e-06 1.570854919918929227e-06 1.498545998401823454e-06 -1.051808226293360349e-06
3.569000000000000000e+03 5.174230098724365234e+00 3.148445701599121094e+01 -1.105063461181998719e-06 1.553139554744120687e-05 4.327899659983813763e-06 1.519804663985269144e-05
3.570000000000000000e+03 4.506290435791015625e+01 -3.105988979339599609e+00 -1.923875061038415879e-06 -3.008593921549618244e-05 -9.602944373909849674e-06 -1.835977491282392293e-05
3.571000000000000000e+03 6.958930492401123047e+00 5.734570980072021484e+00 7.562348969258891884e-07 1.052969946613302454e-05 3.385780246389913373e-06 -1.757887002895586193e-05
3.572000000000000000e+03 5.951982021331787109e+00 6.228656291961669922e+00 3.583341822377406061e-06 7.864323379180859774e-06 3.434299514992744662e-06 -1.797583536244928837e-05
3.573000000000000000e+03 5.367295742034912109e+00 5.922069549560546875e+00 7.731312052783323452e-07 5.383487405197229236e-06 1.846985583142668474e-06 -2.346537485209410079e-06
3.574000000000000000e+03 4.432587146759033203e+00 -3.129825019836425781e+01 1.095601241104304790e-03 2.831890305969864130e-04 4.136370844207704067e-04 2.123010490322485566e-04
3.575000000000000000e+03 7.517278289794921875e+01 2.972675132751464844e+01 9.795211255550384521e-02 2.439071238040924072e-01 1.025577709078788757e-01 4.210977256298065186e-01
3.576000000000000000e+03 4.398351192474365234e+00 6.038409709930419922e+00 -7.547713494204799645e-07 6.645623670920031145e-06 1.767255753293284215e-06 -2.506948703739908524e-06
3.577000000000000000e+03 4.565485000610351562e+00 5.203483581542968750e+00 -3.429424850764917210e-06 7.472388460882939398e-06 1.212889060298039112e-06 -6.269364348554518074e-06
3.578000000000000000e+03 7.574504852294921875e+01 3.391199493408203125e+01 -6.868949532508850098e-02 4.638266935944557190e-02 -6.692047230899333954e-03 4.318139553070068359e-01
3.579000000000000000e+03 7.432653045654296875e+01 3.433727645874023438e+01 -1.405340135097503662e-01 4.571056365966796875e-01 9.497148543596267700e-02 4.094808101654052734e-01
3.580000000000000000e+03 4.634147262573242188e+01 -8.458860397338867188e+00 1.618533678993117064e-05 7.419873782055219635e-06 7.081563126121181995e-06 5.323538516677217558e-06
3.581000000000000000e+03 4.874272346496582031e+00 2.223015975952148438e+01 -2.036980367847718298e-05 2.457206937833689153e-05 1.260679937331588008e-06 -4.827469638257753104e-06
3.582000000000000000e+03 7.594958496093750000e+01 2.970660591125488281e+01 6.920562684535980225e-02 -1.400875747203826904e-01 -2.126458473503589630e-02 4.221060276031494141e-01
3.583000000000000000e+03 7.521397399902343750e+01 2.889537429809570312e+01 1.398230940103530884e-01 2.366327494382858276e-01 1.129367575049400330e-01 3.842830359935760498e-01
3.584000000000000000e+03 7.390735626220703125e+01 2.711662292480468750e+01 2.601746916770935059e-01 1.005795121192932129e+00 3.797909319400787354e-01 2.276583909988403320e-01
3.585000000000000000e+03 4.825330257415771484e+00 2.459353065490722656e+01 1.997305844270158559e-05 1.067296580004040152e-05 9.193807272822596133e-06 9.605656487110536546e-06
3.586000000000000000e+03 7.522399902343750000e+01 3.051535606384277344e+01 5.469922348856925964e-02 2.056678235530853271e-01 7.811011373996734619e-02 4.486259520053863525e-01
3.587000000000000000e+03 7.524068450927734375e+01 2.196121788024902344e+01 9.630994498729705811e-02 4.275138676166534424e-01 1.571471393108367920e-01 3.959239646792411804e-02
3.588000000000000000e+03 7.477436828613281250e+01 2.588105964660644531e+01 1.926441341638565063e-01 5.776886940002441406e-01 2.310998439788818359e-01 1.963158696889877319e-01
3.589000000000000000e+03 4.060322761535644531e+00 2.130967140197753906e+01 -1.836027149693109095e-05 2.583218883955851197e-05 2.241575202788226306e-06 -4.545855972537538037e-06
3.590000000000000000e+03 7.539690399169921875e+01 2.279799079895019531e+01 1.176795363426208496e-01 2.624222934246063232e-01 1.140305474400520325e-01 7.183583080768585205e-02
3.591000000000000000e+03 4.683927536010742188e+00 1.498472213745117188e+01 4.584273028740426525e-06 1.674241866567172110e-05 6.398007371899439022e-06 -2.162632881663739681e-06
3.592000000000000000e+03 7.629014587402343750e+01 5.652598381042480469e+00 8.221045136451721191e-02 -3.420624434947967529e-01 -7.795560359954833984e-02 3.867619484663009644e-02
3.593000000000000000e+03 7.354401397705078125e+01 4.320496082305908203e+00 2.117284089326858521e-01 1.900061964988708496e+00 6.335371136665344238e-01 1.198318414390087128e-02
3.594000000000000000e+03 4.506642818450927734e+00 -3.222197723388671875e+01 -1.438292529201135039e-04 2.999161952175199986e-04 4.682608778239227831e-05 7.959816139191389084e-04
3.595000000000000000e+03 7.543417358398437500e+01 -1.179000854492187500e+01 -7.120795547962188721e-02 6.860182434320449829e-02 -7.818379090167582035e-04 -3.258426189422607422e-01
3.596000000000000000e+03 7.613086700439453125e+01 -9.451627731323242188e+00 -3.607930615544319153e-02 -1.488789469003677368e-01 -5.548747628927230835e-02 -3.698670864105224609e-01
3.597000000000000000e+03 4.818724632263183594e+00 -7.678878307342529297e+00 -1.162732878583483398e-04 -6.135393505246611312e-06 -3.672260572784580290e-05 1.376519321638625115e-05
3.598000000000000000e+03 5.139697074890136719e+00 2.777507781982421875e+01 2.708776992221828550e-05 1.224751758854836226e-05 1.180058643512893468e-05 1.336559307674178854e-05
3.599000000000000000e+03 7.317745971679687500e+01 2.290579032897949219e+01 1.947728693485260010e-01 1.942608714103698730e+00 6.412144899368286133e-01 -2.832844853401184082e-02
3.600000000000000000e+03 7.176046752929687500e+01 -1.907646751403808594e+01 -1.018394231796264648e-01 2.423308789730072021e-01 4.214743897318840027e-02 2.778700925409793854e-02
3.601000000000000000e+03 4.584489345550537109e+00 -9.135945320129394531e+00 -1.402696507284417748e-04 -1.284898917219834402e-05 -4.593559424392879009e-05 -1.405458715453278273e-05
3.602000000000000000e+03 7.525086212158203125e+01 1.925909805297851562e+01 3.790897130966186523e-02 4.410029053688049316e-01 1.436735540628433228e-01 4.903569351881742477e-03
3.603000000000000000e+03 7.316257476806640625e+01 1.585244369506835938e+01 2.550742775201797485e-02 1.998913407325744629e+00 6.073262691497802734e-01 -1.905028708279132843e-02
3.604000000000000000e+03 7.316536712646484375e+01 1.667318534851074219e+01 2.809218689799308777e-02 2.012362718582153320e+00 6.121364235877990723e-01 -5.713058169931173325e-03
3.605000000000000000e+03 7.475061035156250000e+01 1.268214988708496094e+01 -8.375219255685806274e-02 8.716054558753967285e-01 2.363559901714324951e-01 -4.164974205195903778e-03
3.606000000000000000e+03 7.547381591796875000e+01 -4.834411144256591797e+00 3.242713958024978638e-02 1.022973358631134033e-01 4.041734337806701660e-02 -4.008739590644836426e-01
3.607000000000000000e+03 7.545091247558593750e+01 -5.585828781127929688e+00 8.236792869865894318e-03 1.022370457649230957e-01 3.314215317368507385e-02 -4.059014320373535156e-01
3.608000000000000000e+03 7.602343750000000000e+01 1.362157344818115234e+01 -4.872327297925949097e-02 -1.219279319047927856e-01 -5.119536072015762329e-02 -4.218068905174732208e-03
3.609000000000000000e+03 7.455161285400390625e+01 1.511192893981933594e+01 -1.760764792561531067e-02 9.700457453727722168e-01 2.857314348220825195e-01 -3.089098632335662842e-02
3.610000000000000000e+03 7.604092407226562500e+01 1.047343254089355469e+01 -5.989602208137512207e-02 -1.240638419985771179e-01 -5.518795922398567200e-02 8.211274445056915283e-02
3.611000000000000000e+03 7.606132507324218750e+01 1.126741313934326172e+01 -6.695916503667831421e-02 -1.295801252126693726e-01 -5.896178632974624634e-02 5.409429594874382019e-02
3.612000000000000000e+03 7.541956329345703125e+01 1.203553295135498047e+01 -8.407919108867645264e-02 3.840366303920745850e-01 8.998723328113555908e-02 2.726597711443901062e-02
3.613000000000000000e+03 7.527618408203125000e+01 1.434958648681640625e+01 -3.545930609107017517e-02 4.323314428329467773e-01 1.190616413950920105e-01 -1.882951334118843079e-02
3.614000000000000000e+03 7.574909210205078125e+01 5.591489315032958984e+00 8.934874087572097778e-02 7.862111181020736694e-02 5.039095506072044373e-02 4.347745329141616821e-02
3.615000000000000000e+03 7.577330780029296875e+01 4.893777847290039062e+00 1.371307969093322754e-01 5.207614228129386902e-02 5.676208063960075378e-02 2.096333354711532593e-02
3.616000000000000000e+03 7.340422821044921875e+01 2.489541530609130859e+00 2.904247045516967773e-01 1.931363582611083984e+00 6.665365099906921387e-01 -1.546586025506258011e-02
3.617000000000000000e+03 7.467512512207031250e+01 6.731919765472412109e+00 1.105724945664405823e-01 9.677163958549499512e-01 3.234866857528686523e-01 9.084476530551910400e-02
3.618000000000000000e+03 7.169513702392578125e+01 -1.048686695098876953e+01 -1.102030053734779358e-01 1.031874299049377441e+00 2.765013873577117920e-01 -1.540325433015823364e-01
3.619000000000000000e+03 7.547301483154296875e+01 1.078348994255065918e+00 1.729939728975296021e-01 2.084396928548812866e-01 1.144300997257232666e-01 -1.902850270271301270e-01
3.620000000000000000e+03 7.337433624267578125e+01 7.963025569915771484e+00 6.931397318840026855e-02 1.959459900856018066e+00 6.086321473121643066e-01 8.655800670385360718e-02
3.621000000000000000e+03 7.532386016845703125e+01 9.660549163818359375e+00 -4.655884951353073120e-02 4.397976696491241455e-01 1.179716438055038452e-01 9.037549793720245361e-02
3.622000000000000000e+03 7.387464141845703125e+01 1.045998954772949219e+01 -1.238719299435615540e-01 1.575202584266662598e+00 4.353992044925689697e-01 6.118537113070487976e-02
3.623000000000000000e+03 7.316783142089843750e+01 1.748819732666015625e+01 3.036047704517841339e-02 2.020437479019165039e+00 6.152393817901611328e-01 -1.868491293862462044e-03
3.624000000000000000e+03 7.606774902343750000e+01 -2.421923398971557617e+00 7.634405791759490967e-02 -2.061782032251358032e-01 -3.895024210214614868e-02 -3.596999645233154297e-01
3.625000000000000000e+03 7.209075927734375000e+01 -4.404726982116699219e+00 9.549680352210998535e-02 1.834094524383544922e+00 5.788773894309997559e-01 -6.075806543231010437e-02
3.626000000000000000e+03 7.560182189941406250e+01 1.833352088928222656e+00 1.974595189094543457e-01 1.401358842849731445e-01 1.012786254286766052e-01 -1.454201489686965942e-01
3.627000000000000000e+03 7.477662658691406250e+01 1.290453314781188965e+00 2.181222140789031982e-01 7.557042837142944336e-01 2.921479344367980957e-01 -1.595405936241149902e-01
3.628000000000000000e+03 7.526010894775390625e+01 -6.834505200386047363e-01 1.607599407434463501e-01 3.478159904479980469e-01 1.525727808475494385e-01 -2.817651033401489258e-01
3.629000000000000000e+03 7.601811981201171875e+01 -1.571091771125793457e+00 1.030057072639465332e-01 -1.901995837688446045e-01 -2.615816518664360046e-02 -3.314847052097320557e-01
3.630000000000000000e+03 7.236645507812500000e+01 -3.550545692443847656e+00 1.240173429250717163e-01 1.854519486427307129e+00 5.935610532760620117e-01 -8.470213413238525391e-02
3.631000000000000000e+03 7.596378326416015625e+01 1.930164718627929688e+01 3.479893878102302551e-02 -9.312714636325836182e-02 -1.749846339225769043e-02 6.909789051860570908e-03
3.632000000000000000e+03 7.522808074951171875e+01 2.011328887939453125e+01 5.908543244004249573e-02 4.569509625434875488e-01 1.548109203577041626e-01 1.087488140910863876e-02
3.633000000000000000e+03 7.535809326171875000e+01 2.422722429037094116e-01 1.841177791357040405e-01 2.910296916961669922e-01 1.425442397594451904e-01 -2.371190041303634644e-01
3.634000000000000000e+03 7.528032684326171875e+01 -1.637384891510009766e+00 1.295361071825027466e-01 2.985005974769592285e-01 1.284110099077224731e-01 -3.199916779994964600e-01
3.635000000000000000e+03 7.444850158691406250e+01 2.092027664184570312e+01 8.836083114147186279e-02 1.016479849815368652e+00 3.314521908760070801e-01 3.490065224468708038e-03
3.636000000000000000e+03 7.534242248535156250e+01 -1.955547904968261719e+01 -7.445858418941497803e-02 4.296122491359710693e-02 -9.449207223951816559e-03 -1.276100873947143555e-01
3.637000000000000000e+03 7.334499359130859375e+01 2.378934478759765625e+01 2.080384343862533569e-01 1.748465299606323242e+00 5.869511365890502930e-01 1.010244153439998627e-02
3.638000000000000000e+03 7.611981964111328125e+01 -7.897654533386230469e+00 -2.850013785064220428e-02 -1.743255108594894409e-01 -6.084769219160079956e-02 -3.913918435573577881e-01
3.639000000000000000e+03 4.366422653198242188e+00 -5.764837265014648438e+00 8.293426799355074763e-05 5.357557256502332166e-06 2.648754707479383796e-05 3.094288331340067089e-05
3.640000000000000000e+03 4.286841392517089844e+00 -6.639463424682617188e+00 -1.191435003420338035e-04 2.367955403315136209e-06 -3.503266270854510367e-05 -1.967518255696631968e-05
3.641000000000000000e+03 7.612101745605468750e+01 -1.898410987854003906e+01 -5.578897148370742798e-02 -3.103649942204356194e-03 -1.766778528690338135e-02 -1.374316960573196411e-01
3.642000000000000000e+03 7.474997711181640625e+01 -1.732816314697265625e+01 -8.414063602685928345e-02 1.138574779033660889e-01 8.915051817893981934e-03 -1.633775979280471802e-01
3.643000000000000000e+03 7.492314910888671875e+01 -1.851356697082519531e+01 -7.721608132123947144e-02 8.079454302787780762e-02 1.073539373464882374e-03 -1.451774239540100098e-01
3.644000000000000000e+03 7.367032623291015625e+01 2.457733917236328125e+01 2.562354803085327148e-01 1.477884769439697266e+00 5.202360749244689941e-01 5.029629170894622803e-02
3.645000000000000000e+03 7.544397735595703125e+01 -6.355173587799072266e+00 -9.862516075372695923e-03 1.009589210152626038e-01 2.732892148196697235e-02 -4.075196087360382080e-01
3.646000000000000000e+03 7.542304229736328125e+01 -7.123330593109130859e+00 -2.274305000901222229e-02 1.003788709640502930e-01 2.329074591398239136e-02 -3.984378576278686523e-01
3.647000000000000000e+03 3.992512226104736328e+00 1.809553337097167969e+01 -1.212358893099008128e-05 2.081340790027752519e-05 2.606945372463087551e-06 -6.616541668336139992e-06
3.648000000000000000e+03 7.392332458496093750e+01 2.531238937377929688e+01 2.437433898448944092e-01 1.211923837661743164e+00 4.367001652717590332e-01 1.081602498888969421e-01
3.649000000000000000e+03 7.437740325927734375e+01 2.421170425415039062e+01 2.102969735860824585e-01 9.682166576385498047e-01 3.535540699958801270e-01 8.433627337217330933e-02
3.650000000000000000e+03 7.381510162353515625e+01 -1.752307701110839844e+01 -1.033334434032440186e-01 2.088315337896347046e-01 3.164942935109138489e-02 -1.339871436357498169e-01
3.651000000000000000e+03 7.462352752685546875e+01 2.796111106872558594e+01 1.928725689649581909e-01 6.075729727745056152e-01 2.401336580514907837e-01 3.064776659011840820e-01
3.652000000000000000e+03 3.899782180786132812e+00 6.531654357910156250e+00 2.257898586321971379e-06 7.790798917994834483e-06 3.014609319507144392e-06 -1.224192965310066938e-05
3.653000000000000000e+03 4.680835723876953125e+00 -3.434444046020507812e+01 5.255590658634901047e-04 1.074832049198448658e-03 4.801173345185816288e-04 9.071591775864362717e-04
3.654000000000000000e+03 5.341440200805664062e+00 -3.221773529052734375e+01 1.444522291421890259e-03 3.104557690676301718e-04 5.264934152364730835e-04 3.176063764840364456e-04
3.655000000000000000e+03 7.612276458740234375e+01 -1.424436473846435547e+01 -5.771019682288169861e-02 -4.938467592000961304e-02 -3.212846070528030396e-02 -2.557896971702575684e-01
3.656000000000000000e+03 7.543003082275390625e+01 -1.583787155151367188e+01 -7.607966661453247070e-02 6.211219727993011475e-02 -4.190241917967796326e-03 -2.193688750267028809e-01
3.657000000000000000e+03 3.870362281799316406e+00 -1.056753540039062500e+01 1.708458876237273216e-04 2.321580359421204776e-05 5.821850936627015471e-05 2.281402521475683898e-05
3.658000000000000000e+03 7.542206573486328125e+01 -1.258359050750732422e+01 -7.609885931015014648e-02 7.103161513805389404e-02 -1.520172576420009136e-03 -3.104564249515533447e-01
3.659000000000000000e+03 7.541875457763671875e+01 -1.338124942779541016e+01 -7.635870575904846191e-02 7.392144203186035156e-02 -7.311786757782101631e-04 -2.869554460048675537e-01
3.660000000000000000e+03 7.548308563232421875e+01 -2.106786155700683594e+01 -7.366250455379486084e-02 3.118927963078022003e-02 -1.274196710437536240e-02 -9.171713888645172119e-02
3.661000000000000000e+03 5.833507061004638672e+00 8.335695266723632812e+00 8.482329576509073377e-06 4.031483058497542515e-06 3.754143790501984768e-06 -3.090110112680122256e-06
3.662000000000000000e+03 7.542014312744140625e+01 -1.418496608734130859e+01 -7.995068281888961792e-02 7.355073094367980957e-02 -1.919986098073422909e-03 -2.655900716781616211e-01
3.663000000000000000e+03 1.070024204254150391e+01 -1.167407035827636719e+01 1.461649371776729822e-04 2.054280594165902585e-05 5.001232420909218490e-05 4.477135007618926466e-06
3.664000000000000000e+03 3.977941274642944336e+00 7.470974922180175781e+00 5.348127160686999559e-06 8.572666047257371247e-06 4.176237780484370887e-06 -1.165855883300537243e-05
3.665000000000000000e+03 3.937279462814331055e+00 -2.315571975708007812e+01 7.553173345513641834e-04 -1.878787588793784380e-04 1.702315785223618150e-04 6.614459562115371227e-05
3.666000000000000000e+03 5.537788391113281250e+00 -2.321565246582031250e+01 -3.513526753522455692e-04 3.488681104499846697e-04 -7.453625698872201610e-07 2.403427351964637637e-04
3.667000000000000000e+03 5.043287754058837891e+00 -2.582233619689941406e+01 -4.036822938360273838e-04 9.427127952221781015e-05 -9.282330574933439493e-05 -5.814644973725080490e-04
3.668000000000000000e+03 3.814673662185668945e+00 -2.395123291015625000e+01 -9.430180070921778679e-04 3.024863253813236952e-04 -1.921594957821071148e-04 -4.161385368206538260e-05
3.669000000000000000e+03 5.674952507019042969e+00 -2.423574638366699219e+01 -6.870458310004323721e-05 2.791243314277380705e-04 6.312592449830844998e-05 3.438776184339076281e-04
3.670000000000000000e+03 5.416980266571044922e+00 -2.120604133605957031e+01 8.889508171705529094e-05 3.606680256780236959e-04 1.348689256701618433e-04 1.204351792694069445e-04
3.671000000000000000e+03 4.355251312255859375e+00 -1.718219375610351562e+01 3.763606073334813118e-04 -5.032972239860100672e-06 1.113982871174812317e-04 1.715839753160253167e-04
3.672000000000000000e+03 3.977527141571044922e+00 1.168640136718750000e+01 -6.191077773110009730e-06 1.441887161490740255e-05 2.468338152539217845e-06 -1.316360521741444245e-05
3.673000000000000000e+03 3.889616966247558594e+00 -1.886635017395019531e+01 -4.674158990383148193e-04 -7.195873877208214253e-06 -1.423835346940904856e-04 -1.423540961695834994e-04
3.674000000000000000e+03 6.232205867767333984e+00 -1.829295921325683594e+01 3.480728482827544212e-04 -2.073066134471446276e-04 4.222987263347022235e-05 -2.586366899777203798e-04
3.675000000000000000e+03 4.687764167785644531e+00 1.418150138854980469e+01 -7.020823886705329642e-06 1.474754753871820867e-05 2.318016868230188265e-06 -1.328406960965367034e-05
3.676000000000000000e+03 4.846612930297851562e+00 2.141614913940429688e+01 1.419709769834298640e-05 1.373962550133001059e-05 8.381017323699779809e-06 3.030884698773661512e-08
3.677000000000000000e+03 4.777277946472167969e+00 1.900089263916015625e+01 -1.367636741633759812e-05 1.974951192096341401e-05 1.821943556024052668e-06 -6.024371941748540848e-06
3.678000000000000000e+03 4.708174705505371094e+00 -2.059890747070312500e+01 3.191343275830149651e-04 1.250982022611424327e-04 1.332697574980556965e-04 -3.428268428251612931e-06
3.679000000000000000e+03 5.050183296203613281e+00 -2.002101325988769531e+01 1.557856594445183873e-04 8.474274363834410906e-05 7.215851655928418040e-05 2.882781845983117819e-04
3.680000000000000000e+03 4.512970924377441406e+00 -1.438570022583007812e+01 2.301735366927459836e-04 7.838414603611454368e-05 9.256730845663696527e-05 8.529952174285426736e-05
3.681000000000000000e+03 5.471899509429931641e+00 -1.903464508056640625e+01 3.965971700381487608e-04 2.946783934021368623e-05 1.278194977203384042e-04 1.557914947625249624e-04
3.682000000000000000e+03 4.371695995330810547e+00 -1.649944686889648438e+01 -3.832579532172530890e-04 1.198127665702486411e-05 -1.113830003305338323e-04 -1.740071893436834216e-04
3.683000000000000000e+03 4.483468055725097656e+00 -1.511209297180175781e+01 -2.533658116590231657e-04 -7.239392289193347096e-05 -9.772792691364884377e-05 -1.146493377746082842e-04
3.684000000000000000e+03 4.441225051879882812e+00 6.951995372772216797e+00 -1.853806338658614550e-06 7.822476618457585573e-06 1.790601004358904902e-06 -3.001371396749163978e-06
3.685000000000000000e+03 3.846074581146240234e+00 -1.288240528106689453e+01 -2.126761974068358541e-04 -4.861309571424499154e-05 -7.838678720872849226e-05 -5.066246376372873783e-05
3.686000000000000000e+03 4.560591697692871094e+00 -9.884737014770507812e+00 1.519761426607146859e-04 1.423175854142755270e-05 4.986237399862147868e-05 1.765009801601991057e-05
3.687000000000000000e+03 4.527173042297363281e+00 -1.365489768981933594e+01 -2.111805370077490807e-04 -7.338972500292584300e-05 -8.537108078598976135e-05 -6.095943172113038599e-05
3.688000000000000000e+03 4.697149276733398438e+00 1.338063621520996094e+01 4.505749075178755447e-06 1.482367861171951517e-05 5.798828169645275921e-06 -1.962007672773324884e-06
3.689000000000000000e+03 4.692770957946777344e+00 1.578933906555175781e+01 -8.173656169674359262e-06 1.556542338221333921e-05 2.217530209236429073e-06 -1.117452484322711825e-05
3.690000000000000000e+03 4.740529060363769531e+00 1.740470886230468750e+01 -1.015883481159107760e-05 1.683832124399486929e-05 2.003846020670607686e-06 -8.389285540033597499e-06
3.691000000000000000e+03 3.998834848403930664e+00 -2.724666023254394531e+01 -7.786942296661436558e-04 2.106710453517735004e-04 -1.704069582046940923e-04 1.532044843770563602e-04
3.692000000000000000e+03 5.281578540802001953e+00 -2.776669502258300781e+01 3.239596553612500429e-04 4.833810089621692896e-04 2.422021934762597084e-04 1.135853453888557851e-04
3.693000000000000000e+03 4.201430797576904297e+00 2.613335609436035156e+01 -2.663251507328823209e-05 2.595142359496094286e-05 -2.043271081220154883e-07 -6.980883881624322385e-06
3.694000000000000000e+03 1.290228557586669922e+01 -7.506733417510986328e+00 5.567769403569400311e-05 1.803809209377504885e-05 2.211473474744707346e-05 -1.051794515660731122e-05
3.695000000000000000e+03 1.396618843078613281e+01 -1.118508243560791016e+01 -7.760331936879083514e-05 -6.261548696784302592e-05 -4.206564335618168116e-05 -6.274689076235517859e-05
3.696000000000000000e+03 4.790843963623046875e+00 1.979585075378417969e+01 1.149799027189146727e-05 1.543184225738514215e-05 8.078950486378744245e-06 -2.529130370021448471e-06
3.697000000000000000e+03 4.751202583312988281e+00 1.099666213989257812e+01 -5.877329840586753562e-06 1.295219317398732528e-05 2.122458909070701338e-06 -1.528892607893794775e-05
3.698000000000000000e+03 4.798810005187988281e+00 1.021853542327880859e+01 4.820432877750135958e-06 9.901831617753487080e-06 4.416679530550027266e-06 -2.810476189551991411e-06
3.699000000000000000e+03 7.526081085205078125e+01 1.761666488647460938e+01 1.919758133590221405e-02 4.350453913211822510e-01 1.362728923559188843e-01 -7.843514904379844666e-03
3.700000000000000000e+03 5.835016727447509766e+00 -2.720999908447265625e+01 -1.953496830537915230e-04 -1.163723864010535181e-04 -9.351662447443231940e-05 -5.016311843064613640e-05
3.701000000000000000e+03 7.518213653564453125e+01 2.103089141845703125e+01 7.180812209844589233e-02 4.860088229179382324e-01 1.673450767993927002e-01 2.502819150686264038e-02
3.702000000000000000e+03 4.954183101654052734e+00 2.617730522155761719e+01 2.641269384184852242e-05 8.689748028700705618e-06 1.053073265211423859e-05 8.450387213088106364e-06
3.703000000000000000e+03 7.525859069824218750e+01 1.680336380004882812e+01 1.253425236791372299e-02 4.351178705692291260e-01 1.342956423759460449e-01 -1.246274169534444809e-02
3.704000000000000000e+03 7.525598907470703125e+01 1.598694705963134766e+01 -1.781849307008087635e-03 4.393738806247711182e-01 1.312776058912277222e-01 -1.925184763967990875e-02
3.705000000000000000e+03 4.714029312133789062e+00 1.659676170349121094e+01 5.607784714811714366e-06 1.822962076403200626e-05 7.151221780077321455e-06 -2.800554966597701423e-06
3.706000000000000000e+03 5.431597709655761719e+00 1.510179328918457031e+01 -6.917147402418777347e-06 1.275485010410193354e-05 1.751310946929152124e-06 -1.371426333207637072e-05
3.707000000000000000e+03 4.692625427246093750e+01 -1.155999565124511719e+01 -1.371021062368527055e-05 -2.819444659962755395e-07 -4.197646376269403845e-06 -4.200515832053497434e-06
3.708000000000000000e+03 5.021149635314941406e+00 2.696168708801269531e+01 -3.264226688770577312e-05 2.375505391682963818e-05 -2.666164164111251011e-06 -7.297457614185987040e-06
3.709000000000000000e+03 4.810957908630371094e+00 2.381085205078125000e+01 -2.517958091630134732e-05 3.085769640165381134e-05 1.703434463706798851e-06 -1.013906057778513059e-05
3.710000000000000000e+03 5.710593700408935547e+00 2.238219642639160156e+01 1.562223042128607631e-05 9.536311154079157859e-06 7.547562290710629895e-06 1.497489051871525589e-06
3.711000000000000000e+03 4.433901309967041016e+00 -3.302377319335937500e+01 7.990989834070205688e-04 4.510477010626345873e-04 3.750440082512795925e-04 4.718026902992278337e-04
3.712000000000000000e+03 6.608370304107666016e+00 -3.190843200683593750e+01 1.505191787146031857e-03 5.548353074118494987e-04 6.180080818012356758e-04 1.067947363480925560e-03
3.713000000000000000e+03 6.779325103759765625e+01 -1.269704532623291016e+01 -1.740517616271972656e-01 1.309693932533264160e+00 3.406926393508911133e-01 2.069440186023712158e-01
3.714000000000000000e+03 5.369302749633789062e+00 3.047775459289550781e+01 -1.152446111518656835e-05 4.189303581370040774e-06 -2.200547214670223184e-06 -4.851471203437540680e-06
3.715000000000000000e+03 6.219408512115478516e+00 -6.066106319427490234e+00 1.354042433376889676e-05 -1.892770887934602797e-05 -1.616185500097344629e-06 -3.891773303621448576e-05
3.716000000000000000e+03 7.394194793701171875e+01 3.517165756225585938e+01 -1.736197918653488159e-01 5.501499176025390625e-01 1.129590421915054321e-01 3.767299950122833252e-01
3.717000000000000000e+03 7.192241668701171875e+01 3.467521667480468750e+01 -2.085091322660446167e-01 1.096939921379089355e+00 2.665292322635650635e-01 2.217317968606948853e-01
3.718000000000000000e+03 5.598654747009277344e+00 -6.394628047943115234e+00 -5.267230517347343266e-05 2.376730662945192307e-05 -8.671499017509631813e-06 6.101372855482622981e-05
3.719000000000000000e+03 5.920009136199951172e+00 -2.031978034973144531e+01 2.935954253189265728e-04 1.489724672865122557e-04 1.327703648712486029e-04 1.346320204902440310e-04
3.720000000000000000e+03 6.111391544342041016e+00 -1.884003448486328125e+01 -5.662441253662109375e-04 3.605428355513140559e-05 -1.590569590916857123e-04 -4.189645551377907395e-05
3.721000000000000000e+03 3.772468185424804688e+01 -1.623589515686035156e+01 -1.751313448039581999e-06 4.554084966912341770e-07 -3.887714683514786884e-07 1.169653529586867080e-07
3.722000000000000000e+03 4.697322368621826172e+00 -3.545011138916015625e+01 5.130835925228893757e-04 1.188024645671248436e-03 5.103324656374752522e-04 1.539982040412724018e-03
3.723000000000000000e+03 6.059295177459716797e+00 -3.214568328857421875e+01 -6.870094512123614550e-05 2.799453504849225283e-04 6.337332160910591483e-05 1.375645399093627930e-03
3.724000000000000000e+03 7.384506225585937500e+00 -5.247297286987304688e+00 3.163218934787437320e-05 2.083196341118309647e-05 1.573924600961618125e-05 3.943712727050296962e-05
3.725000000000000000e+03 7.363304138183593750e+01 3.601156997680664062e+01 -2.159017622470855713e-01 5.834025740623474121e-01 1.102502420544624329e-01 3.162849545478820801e-01
3.726000000000000000e+03 7.174542236328125000e+01 -5.224503517150878906e+00 6.543937325477600098e-02 1.802698016166687012e+00 5.604411959648132324e-01 -2.405882813036441803e-02
3.727000000000000000e+03 1.211765098571777344e+01 -1.223151016235351562e+01 -1.289700740016996861e-04 -6.222640513442456722e-05 -5.735894592362456024e-05 -1.002481076284311712e-04
3.728000000000000000e+03 1.337688159942626953e+01 -1.102718353271484375e+01 8.984929445432499051e-05 7.416029984597116709e-05 4.920287756249308586e-05 -2.696556839509867132e-05
3.729000000000000000e+03 2.746614074707031250e+01 -8.354024887084960938e+00 5.781703748652944341e-06 -3.062433506784145720e-06 8.157811635101097636e-07 -2.085925189021509141e-06
3.730000000000000000e+03 5.948150157928466797e+00 -3.416055679321289062e+01 9.309425950050354004e-04 9.566986700519919395e-04 5.662923795171082020e-04 7.531180162914097309e-04
3.731000000000000000e+03 1.699607467651367188e+01 4.136184692382812500e+00 -4.655193606595275924e-06 -3.149781150568742305e-06 -2.341492290725000203e-06 -6.191242846398381516e-06
3.732000000000000000e+03 2.986747932434082031e+01 -1.284556865692138672e+01 5.244947260507615283e-06 1.587757992638216820e-06 2.049811655524536036e-06 -1.806104364732163958e-06
3.733000000000000000e+03 3.162872505187988281e+01 -1.350427913665771484e+01 5.446052909974241629e-06 7.502668495362740941e-07 1.858895871009735856e-06 1.875428949915658450e-07
3.734000000000000000e+03 3.701705551147460938e+01 -1.483564090728759766e+01 -4.655876182368956506e-06 -1.823516555532478378e-07 -1.451468392588139977e-06 -3.566873829186079092e-06
3.735000000000000000e+03 3.697548675537109375e+01 -1.429116439819335938e+01 5.616097041638568044e-06 1.169880306406412274e-06 2.035793158938759007e-06 3.557764785000472330e-06
3.736000000000000000e+03 7.111956024169921875e+01 -8.402351379394531250e+00 -1.690500974655151367e-02 1.435699105262756348e+00 4.256382286548614502e-01 -3.892367333173751831e-02
3.737000000000000000e+03 1.595509624481201172e+01 -1.081462860107421875e+01 -2.676734402484726161e-05 -1.075704785762354732e-04 -4.030134732602164149e-05 6.020168257236946374e-06
3.738000000000000000e+03 2.611940574645996094e+01 -4.937664031982421875e+00 9.674414286564569920e-06 7.878801397964707576e-07 3.138688498438568786e-06 -1.238879804077441804e-06
3.739000000000000000e+03 7.165633201599121094e+00 -7.040825366973876953e+00 4.779289520229212940e-05 -1.907079058582894504e-05 8.616631021141074598e-06 -5.642962059937417507e-05
3.740000000000000000e+03 4.675114822387695312e+01 -9.747804641723632812e+00 1.630969745747279376e-05 3.419413587835151702e-06 5.918733677390264347e-06 5.392056664277333766e-06
3.741000000000000000e+03 4.687754058837890625e+01 -1.037500667572021484e+01 -1.554022674099542201e-05 -1.472929056944849435e-06 -5.103946932649705559e-06 -5.133721060701645911e-06
3.742000000000000000e+03 4.198445510864257812e+01 -1.488711547851562500e+01 4.203999196761287749e-06 3.430367769396980293e-06 2.290310021635377780e-06 7.493366638300358318e-07
3.743000000000000000e+03 6.728565216064453125e+01 -1.793043899536132812e+01 -4.208874702453613281e-01 1.018334388732910156e+00 1.792340874671936035e-01 6.582443118095397949e-01
3.744000000000000000e+03 6.029585361480712891e+00 -2.596829414367675781e+01 -4.215912194922566414e-04 -3.704179835040122271e-05 -1.375899155391380191e-04 -2.637268917169421911e-04
3.745000000000000000e+03 4.139480209350585938e+01 -1.487349510192871094e+01 -3.667444843813427724e-06 -3.026096464964211918e-06 -2.008062438108026981e-06 -1.192974536934343632e-07
3.746000000000000000e+03 7.352150726318359375e+01 7.127555370330810547e+00 1.059013456106185913e-01 1.863287091255187988e+00 5.907565355300903320e-01 6.773721426725387573e-02
3.747000000000000000e+03 7.357267761230468750e+01 6.232202529907226562e+00 1.636698096990585327e-01 1.851195335388183594e+00 6.044595241546630859e-01 3.791359439492225647e-02
3.748000000000000000e+03 2.389978981018066406e+01 -3.209581613540649414e+00 1.228205655934289098e-05 2.579573674665880390e-06 4.458489001990528777e-06 -4.081543920619878918e-06
3.749000000000000000e+03 2.558518028259277344e+01 -5.352185726165771484e+00 1.031860574585152790e-05 -7.369592822215054184e-06 8.847037520354206208e-07 -1.467729020987462718e-06
3.750000000000000000e+03 7.042121887207031250e+01 -8.164694786071777344e+00 2.202652022242546082e-02 1.647226333618164062e+00 5.007758140563964844e-01 9.590227901935577393e-02
3.751000000000000000e+03 4.255163955688476562e+01 -1.631392097473144531e+01 -4.614920726453419775e-06 -5.810023822050425224e-07 -1.558776943966222461e-06 -1.372305746372148860e-06
3.752000000000000000e+03 7.626850891113281250e+01 -3.347681427001953125e+01 -8.823560550808906555e-03 -1.600739196874201298e-03 -3.127289935946464539e-03 9.313639253377914429e-03
3.753000000000000000e+03 6.830711841583251953e+00 -5.989451885223388672e+00 7.402228220598772168e-05 -3.480664190647075884e-06 2.116248469974379987e-05 2.038673846982419491e-05
3.754000000000000000e+03 7.474050045013427734e+00 -5.961344242095947266e+00 -2.554647471697535366e-05 -1.862581302702892572e-05 -1.325168614130234346e-05 -5.636849527945742011e-05
3.755000000000000000e+03 7.543530273437500000e+01 -3.324400663375854492e+00 5.488140881061553955e-02 1.530412584543228149e-01 6.237680092453956604e-02 -3.808156847953796387e-01
3.756000000000000000e+03 7.344422149658203125e+01 -3.327453994750976562e+01 -1.901713013648986816e-02 5.443804897367954254e-03 -4.071997478604316711e-03 1.252240501344203949e-02
3.757000000000000000e+03 7.400634002685546875e+01 -3.504549789428710938e+01 -9.417863562703132629e-03 4.449884290806949139e-04 -2.691862639039754868e-03 1.604894734919071198e-02
3.758000000000000000e+03 2.328958511352539062e+01 -2.525078296661376953e+00 1.316229645453859121e-05 -1.019143746816553175e-05 8.912576276998152025e-07 2.655092998793406878e-07
3.759000000000000000e+03 2.313703346252441406e+01 -1.352452635765075684e+00 1.235769013874232769e-05 -1.214484473166521639e-05 6.385382533835581853e-08 1.643820041863364168e-06
3.760000000000000000e+03 6.726953887939453125e+01 -1.554144954681396484e+01 -4.921407401561737061e-01 1.183924436569213867e+00 2.075351029634475708e-01 3.261387050151824951e-01
3.761000000000000000e+03 6.681525421142578125e+01 -1.736149787902832031e+01 -5.525181889533996582e-01 1.176501750946044922e+00 1.871950626373291016e-01 6.030490398406982422e-01
3.762000000000000000e+03 4.121968078613281250e+01 1.255713820457458496e+00 -5.913220957154408097e-05 -1.440202686353586614e-05 -2.206027056672610343e-05 -9.687430065241642296e-06
3.763000000000000000e+03 4.420980834960937500e+01 -1.585308361053466797e+01 5.398419034463586286e-06 5.265055733616463840e-07 1.777477336872834712e-06 2.562661848060088232e-06
3.764000000000000000e+03 7.539905548095703125e+01 -3.340131378173828125e+01 -6.151281762868165970e-03 -2.019437029957771301e-03 -2.451215637847781181e-03 1.066427584737539291e-02
3.765000000000000000e+03 7.583737182617187500e+01 -3.240901947021484375e+01 -8.531630039215087891e-03 -9.446938638575375080e-04 -2.842897083610296249e-03 8.484029211103916168e-03
3.766000000000000000e+03 3.880315780639648438e+01 1.619182968139648438e+01 -1.411880803061649203e-04 1.368418634228873998e-05 -3.825116800726391375e-05 -7.868887223594356328e-06
3.767000000000000000e+03 4.267509460449218750e+01 -1.556242942810058594e+01 4.035508027300238609e-06 2.866395789169473574e-06 2.070571099466178566e-06 2.517471102692070417e-06
3.768000000000000000e+03 6.977060794830322266e+00 -2.923256874084472656e+01 1.968590222531929612e-04 -2.343571541132405400e-04 -1.124944083130685613e-05 4.712515219580382109e-04
3.769000000000000000e+03 6.336497306823730469e+00 -2.937936782836914062e+01 6.537637673318386078e-04 7.166622090153396130e-04 4.111278103664517403e-04 4.090839065611362457e-04
3.770000000000000000e+03 7.855423450469970703e+00 6.886715412139892578e+00 9.456727525503083598e-07 3.766517124859092291e-07 3.966973451952071628e-07 -1.466013259232568089e-06
3.771000000000000000e+03 6.826740264892578125e+01 -1.582049942016601562e+01 -4.027804136276245117e-01 1.046053051948547363e+00 1.929817944765090942e-01 2.885765433311462402e-01
3.772000000000000000e+03 7.583901882171630859e+00 -1.524273967742919922e+01 -2.034338685916736722e-04 -1.213158029713667929e-04 -9.742490510689094663e-05 -9.297664655605331063e-05
3.773000000000000000e+03 6.463346481323242188e+00 -2.671853828430175781e+01 6.313539342954754829e-04 1.674172235652804375e-04 2.396313357166945934e-04 1.190979164675809443e-04
3.774000000000000000e+03 3.909627532958984375e+01 2.298002052307128906e+01 -3.990651748608797789e-04 8.147273911163210869e-05 -9.527773363515734673e-05 2.763076190603896976e-05
3.775000000000000000e+03 6.969679260253906250e+01 -1.070768451690673828e+01 -7.681992650032043457e-02 1.360326647758483887e+00 3.850519955158233643e-01 7.527259737253189087e-02
3.776000000000000000e+03 7.215624237060546875e+01 -1.042143821716308594e+01 -1.066933721303939819e-01 9.343833327293395996e-01 2.483069896697998047e-01 -2.033315896987915039e-01
3.777000000000000000e+03 7.552245330810546875e+01 2.351076698303222656e+01 1.163789480924606323e-01 1.665579229593276978e-01 8.488105982542037964e-02 1.084246933460235596e-01
3.778000000000000000e+03 1.560813140869140625e+01 3.364123106002807617e+00 1.654361403780058026e-05 7.128586730686947703e-06 7.101660230546258390e-06 -1.133650675910757855e-05
3.779000000000000000e+03 3.894098663330078125e+01 2.196837615966796875e+01 8.053825149545446038e-05 -9.123366180574521422e-05 -3.208623184036696330e-06 -1.206200322485528886e-04
3.780000000000000000e+03 3.903015518188476562e+01 1.804200172424316406e+01 -2.033907367149367929e-04 2.281305933138355613e-05 -5.417330612544901669e-05 -2.023830711550544947e-05
3.781000000000000000e+03 7.143873596191406250e+01 -7.742020130157470703e+00 -3.637514077126979828e-03 1.468929290771484375e+00 4.395875334739685059e-01 -5.982182919979095459e-02
3.782000000000000000e+03 4.591713333129882812e+01 -1.453048515319824219e+01 7.138664841477293521e-06 -6.943843544604533236e-08 2.120767931046430022e-06 7.761798315186752006e-07
3.783000000000000000e+03 7.334201049804687500e+01 1.598252415657043457e+00 3.045022785663604736e-01 1.921332359313964844e+00 6.677503585815429688e-01 -4.936793446540832520e-02
3.784000000000000000e+03 7.565724182128906250e+01 3.361507654190063477e+00 1.443832069635391235e-01 1.142799481749534607e-01 7.759894430637359619e-02 -6.638477742671966553e-02
3.785000000000000000e+03 3.806266021728515625e+01 -1.583634090423583984e+01 4.914234523312188685e-06 -6.571719382009177934e-07 1.277118713005620521e-06 6.387629696291696746e-07
3.786000000000000000e+03 3.762277603149414062e+01 -1.497568893432617188e+01 5.823317678732564673e-06 4.866158747063309420e-07 1.892979980766540393e-06 2.326358071513823234e-06
3.787000000000000000e+03 1.523838233947753906e+01 -1.012174320220947266e+01 -7.313072273973375559e-05 -3.485941124381497502e-05 -3.239704165025614202e-05 -1.871268614195287228e-05
3.788000000000000000e+03 7.823706150054931641e+00 -2.858873367309570312e+01 4.680021374952048063e-04 -2.002759720198810101e-04 8.031784818740561604e-05 4.137592623010277748e-04
3.789000000000000000e+03 2.663887596130371094e+01 -5.694812297821044922e+00 8.983221960079390556e-06 -6.685849712084745988e-06 6.892116175549745094e-07 -1.077011006600514520e-06
3.790000000000000000e+03 3.984869766235351562e+01 6.982471466064453125e+00 -6.702249083900824189e-05 1.479307229601545259e-05 -1.566882565384730697e-05 -1.422996956534916535e-05
3.791000000000000000e+03 4.046086883544921875e+01 1.227809667587280273e+00 2.760605457297060639e-05 4.571450335788540542e-05 2.199616756115574390e-05 2.878232407965697348e-05
3.792000000000000000e+03 4.804421615600585938e+01 -1.316916275024414062e+01 -6.616660812142072245e-06 5.306546881911344826e-06 -3.930341563318506815e-07 4.466801328817382455e-06
3.793000000000000000e+03 4.729513931274414062e+01 -1.288707065582275391e+01 1.029260874929605052e-05 -5.924989636696409434e-06 1.310285711042524781e-06 -1.993744263018015772e-06
3.794000000000000000e+03 3.406057357788085938e+01 -1.497953319549560547e+01 -4.346072728367289528e-06 8.566843234802945517e-07 -1.046816578309517354e-06 -2.092233899020357057e-06
3.795000000000000000e+03 1.994498825073242188e+01 5.622879862785339355e-01 1.818936470954213291e-05 4.040896328660892323e-06 6.669078629784053192e-06 -9.364739526063203812e-06
3.796000000000000000e+03 1.738311386108398438e+01 3.151436567306518555e+00 1.362955913464247715e-06 -3.467584519967203960e-06 -6.313885592135193292e-07 -6.435145110117446166e-07
3.797000000000000000e+03 7.242524147033691406e+00 -1.670106315612792969e+01 -2.272922574775293469e-04 -2.037231752183288336e-05 -7.429937249980866909e-05 8.814418833935633302e-06
3.798000000000000000e+03 7.070941162109375000e+01 3.965610122680664062e+01 -3.651838898658752441e-01 8.688086271286010742e-01 1.510874181985855103e-01 7.692469656467437744e-02
3.799000000000000000e+03 7.175645446777343750e+01 -7.035740375518798828e+00 1.688436977565288544e-02 1.483455061912536621e+00 4.501018226146697998e-01 -8.365654945373535156e-02
3.800000000000000000e+03 2.881108474731445312e+01 -9.518516540527343750e+00 4.581310804496752098e-06 -1.582720642545609735e-06 8.995771167974453419e-07 2.005178174613320152e-07
3.801000000000000000e+03 2.802576828002929688e+01 -8.001655578613281250e+00 6.105342436057981104e-06 -8.596398402005434036e-07 1.573710846969333943e-06 -1.721906670582029619e-07
3.802000000000000000e+03 7.468431091308593750e+01 -2.657258749008178711e+00 1.085304394364356995e-01 5.992829203605651855e-01 2.123440057039260864e-01 -3.397701084613800049e-01
3.803000000000000000e+03 4.183722305297851562e+01 2.674466133117675781e+01 -8.052150369621813297e-04 3.365682787261903286e-04 -1.405940274707973003e-04 -3.316985385026782751e-04
3.804000000000000000e+03 4.038044738769531250e+01 2.723993873596191406e+01 -8.070992189459502697e-04 -4.987564898328855634e-05 -2.570924698375165462e-04 5.049577885074540973e-05
3.805000000000000000e+03 2.378283500671386719e+01 -2.037308692932128906e+00 1.377367698296438903e-05 2.404751512585789897e-06 4.853528480452951044e-06 -4.107382665097247809e-06
3.806000000000000000e+03 2.557390785217285156e+01 -4.190690994262695312e+00 1.090756268240511417e-05 -9.245787623513024300e-06 4.985326995665673167e-07 -3.671017907436180394e-07
3.807000000000000000e+03 2.500210762023925781e+01 -3.458832263946533203e+00 1.174320550489937887e-05 1.720871523502864875e-06 4.039223313156981021e-06 -2.528054665162926540e-06
3.808000000000000000e+03 2.759273719787597656e+01 -7.232552051544189453e+00 6.832446615590015426e-06 -4.131638888793531805e-06 8.102423407763126306e-07 -1.320823002970428206e-06
3.809000000000000000e+03 7.358071899414062500e+01 -5.080677509307861328e+00 4.163238778710365295e-02 1.014090299606323242e+00 3.167168200016021729e-01 -2.929501235485076904e-01
3.810000000000000000e+03 7.375953674316406250e+01 1.252207565307617188e+01 -1.264310330152511597e-01 1.616084218025207520e+00 4.468959569931030273e-01 -2.549697458744049072e-02
3.811000000000000000e+03 4.284769058227539062e+01 2.873328208923339844e+01 -8.976573590189218521e-04 1.468744158046320081e-04 -2.252348931506276131e-04 -2.051236224360764027e-04
3.812000000000000000e+03 4.185425186157226562e+01 2.775926780700683594e+01 -7.661531562916934490e-04 -8.260301547124981880e-05 -2.546268515288829803e-04 1.267413608729839325e-04
3.813000000000000000e+03 2.178555297851562500e+01 -5.766831338405609131e-02 1.114273891289485618e-05 -1.188181613542838022e-05 -2.217231696022281540e-07 2.480167722751502879e-06
3.814000000000000000e+03 3.607575607299804688e+01 -1.355151176452636719e+01 9.504215995548292994e-06 5.079420475340157282e-07 3.003647407240350731e-06 2.681289743122761138e-06
3.815000000000000000e+03 4.955504608154296875e+01 -1.399718570709228516e+01 -1.017022077576257288e-05 1.426756512046267744e-06 -2.623039335958310403e-06 -4.754248038807418197e-06
3.816000000000000000e+03 4.122204208374023438e+01 2.033786773681640625e+00 5.162127854418940842e-05 3.736279177246615291e-05 2.669522109499666840e-05 2.820996996888425201e-05
3.817000000000000000e+03 6.876350402832031250e+01 -1.299362564086914062e+01 -2.187139689922332764e-01 1.213447213172912598e+00 2.984199821949005127e-01 1.183873787522315979e-01
3.818000000000000000e+03 7.483774566650390625e+01 -1.015617656707763672e+01 -7.162651419639587402e-02 2.454674243927001953e-01 5.215227231383323669e-02 -3.577475547790527344e-01
3.819000000000000000e+03 3.968676757812500000e+01 5.003113269805908203e+00 5.018182127969339490e-05 1.455676556361140683e-05 1.942157541634514928e-05 3.101399124716408551e-05
3.820000000000000000e+03 4.044039535522460938e+01 1.908296823501586914e+00 -3.771798219531774521e-05 -3.170757554471492767e-05 -2.082766695821192116e-05 -2.147202030755579472e-05
3.821000000000000000e+03 1.020484447479248047e+01 5.372297763824462891e+00 6.866965577501105145e-06 1.074772808351553977e-05 5.284407961880788207e-06 -1.890707972052041441e-05
3.822000000000000000e+03 1.063307094573974609e+01 4.599492549896240234e+00 4.168141913396539167e-06 1.974986616914975457e-06 1.842938559093454387e-06 -2.935388465630239807e-06
3.823000000000000000e+03 6.573379516601562500e+01 -1.841111183166503906e+01 -5.946679711341857910e-01 1.311242699623107910e+00 2.149724066257476807e-01 8.839696645736694336e-01
3.824000000000000000e+03 3.918046951293945312e+01 1.896768379211425781e+01 1.773342664819210768e-04 -3.296997601864859462e-05 4.330928641138598323e-05 -7.347713108174502850e-06
3.825000000000000000e+03 7.536882781982421875e+01 2.494486618041992188e+01 1.643355190753936768e-01 2.527019083499908447e-01 1.251112222671508789e-01 1.669367402791976929e-01
3.826000000000000000e+03 3.965025711059570312e+01 2.815639877319335938e+01 -7.004555081948637962e-04 4.865073133260011673e-04 -6.418445991585031152e-05 -1.111989877244923264e-05
3.827000000000000000e+03 5.189672470092773438e+00 -2.476645851135253906e+01 -3.588018589653074741e-04 4.726541646959958598e-06 -1.062225928762927651e-04 -2.858415246009826660e-04
3.828000000000000000e+03 2.247087287902832031e+01 -6.918766498565673828e-01 1.572987275721970946e-05 3.073613697779364884e-06 5.641045845550252125e-06 -6.114203642937354743e-06
3.829000000000000000e+03 2.295469284057617188e+01 -1.756000071763992310e-01 1.079909452528227121e-05 -1.399658685841131955e-05 -9.592475862518767826e-07 3.029926574527053162e-06
3.830000000000000000e+03 3.950648880004882812e+01 2.521075630187988281e+01 -5.400802474468946457e-04 4.389732930576428771e-05 -1.488548878114670515e-04 8.827148121781647205e-05
3.831000000000000000e+03 4.427190303802490234e+00 -1.789829635620117188e+01 -3.810245543718338013e-04 -1.303925910178804770e-05 -1.182191408588550985e-04 -1.764463668223470449e-04
3.832000000000000000e+03 7.528630065917968750e+01 4.962233543395996094e+00 1.544157415628433228e-01 4.184036552906036377e-01 1.718458235263824463e-01 1.836773380637168884e-02
3.833000000000000000e+03 2.843051910400390625e+01 -8.764117240905761719e+00 4.974289367964956909e-06 -1.959512474059010856e-06 9.044330795404675882e-07 -1.434789851373352576e-06
3.834000000000000000e+03 1.888986968994140625e+01 2.199052333831787109e+00 5.299348686094162986e-06 -7.479435225832276046e-06 -6.540259960274852347e-07 1.476456191085162573e-06
3.835000000000000000e+03 5.529037475585937500e+00 -3.619971084594726562e+01 -3.756793739739805460e-05 9.269662550650537014e-04 2.668194938451051712e-04 6.844013114459812641e-04
3.836000000000000000e+03 4.202340602874755859e+00 -3.866341781616210938e+01 6.447517080232501030e-04 1.492229872383177280e-03 6.410944624803960323e-04 7.120987283997237682e-04
3.837000000000000000e+03 7.547418975830078125e+01 2.656507873535156250e+01 1.613040864467620850e-01 1.525622606277465820e-01 9.415990114212036133e-02 2.588741481304168701e-01
3.838000000000000000e+03 7.324555206298828125e+01 2.524633979797363281e+01 2.752920985221862793e-01 1.699021697044372559e+00 5.922940969467163086e-01 5.645145103335380554e-02
3.839000000000000000e+03 4.197497558593750000e+01 3.044769477844238281e+01 -1.304823090322315693e-03 1.680517016211524606e-04 -3.410314093343913555e-04 3.199950442649424076e-04
3.840000000000000000e+03 1.193225288391113281e+01 -6.936700344085693359e+00 6.234479224076494575e-05 2.736123497015796602e-05 2.691180816327687353e-05 4.056494617543648928e-06
3.841000000000000000e+03 7.291324615478515625e+01 -9.770234823226928711e-01 2.407740205526351929e-01 1.944146633148193359e+00 6.554762125015258789e-01 -1.187981814146041870e-01
3.842000000000000000e+03 7.543064117431640625e+01 2.731439971923828125e+01 1.662669628858566284e-01 1.695533990859985352e-01 1.007461100816726685e-01 2.998567819595336914e-01
3.843000000000000000e+03 1.484531784057617188e+01 4.825421333312988281e+00 2.696213414310477674e-06 -5.347707428882131353e-06 -7.954481588967610151e-07 -1.181524567073211074e-06
3.844000000000000000e+03 1.435777187347412109e+01 4.231632232666015625e+00 1.311208507104311138e-05 9.989353202399797738e-06 6.930431482032872736e-06 -1.496758704888634384e-05
3.845000000000000000e+03 3.986202239990234375e+01 2.633081054687500000e+01 -5.108589539304375648e-04 2.455985231790691614e-04 -7.957813068060204387e-05 -1.756035489961504936e-04
3.846000000000000000e+03 7.335824584960937500e+01 2.716599082946777344e+01 2.993204891681671143e-01 1.476420760154724121e+00 5.327223539352416992e-01 1.591594815254211426e-01
3.847000000000000000e+03 3.702653121948242188e+01 1.319744968414306641e+01 8.748478285269811749e-05 1.011112317428342067e-06 2.654876698215957731e-05 2.971333015011623502e-05
3.848000000000000000e+03 7.567823791503906250e+01 2.570304393768310547e+00 1.657620668411254883e-01 9.663782268762588501e-02 7.871996611356735229e-02 -9.844038635492324829e-02
3.849000000000000000e+03 7.358785247802734375e+01 2.995384979248046875e+01 1.432192623615264893e-01 1.001423597335815430e+00 3.433928787708282471e-01 3.612301051616668701e-01
3.850000000000000000e+03 8.388267517089843750e+00 -1.519287014007568359e+01 1.458647457184270024e-04 1.741329324431717396e-04 9.599930490367114544e-05 1.305197656620293856e-04
3.851000000000000000e+03 5.136469841003417969e+00 -1.585968589782714844e+01 -2.717449388001114130e-04 -5.145062095834873617e-05 -9.695866901893168688e-05 -1.368967205053195357e-04
3.852000000000000000e+03 3.852207565307617188e+01 -1.640184593200683594e+01 -1.059774490386189427e-06 1.638624098632135428e-06 1.736548966846385156e-07 1.872853943041263847e-07
3.853000000000000000e+03 3.874631881713867188e+01 1.525465965270996094e+01 1.380485919071361423e-04 5.598793904937338084e-06 4.309421638026833534e-05 3.215194374206475914e-05
3.854000000000000000e+03 7.560264587402343750e+01 6.304821014404296875e+00 9.488986432552337646e-02 2.079247832298278809e-01 9.084439277648925781e-02 5.242536589503288269e-02
3.855000000000000000e+03 1.813648223876953125e+01 2.696603536605834961e+00 1.950011028384324163e-05 3.948772700823610649e-06 7.034665031824260950e-06 -1.082170820154715329e-05
3.856000000000000000e+03 5.243282794952392578e+00 -1.833555221557617188e+01 -2.943788713309913874e-04 -5.504888758878223598e-05 -1.048283302225172520e-04 -2.128481282852590084e-04
3.857000000000000000e+03 1.378167629241943359e+01 5.762026786804199219e+00 -1.754214622451399919e-06 -4.465229721972718835e-06 -1.865833269221184310e-06 6.934387783985584974e-07
3.858000000000000000e+03 7.232350158691406250e+01 3.336990356445312500e+01 -1.180379390716552734e-01 1.138894915580749512e+00 3.062570989131927490e-01 2.834595441818237305e-01
3.859000000000000000e+03 7.464579010009765625e+01 3.965279459953308105e-01 2.228410243988037109e-01 8.113402128219604492e-01 3.102543652057647705e-01 -2.056385576725006104e-01
3.860000000000000000e+03 3.806138229370117188e+01 1.135868549346923828e+01 -7.787513459334149957e-05 1.430118209100328386e-05 -1.907218393171206117e-05 -1.363877800031332299e-06
3.861000000000000000e+03 6.828637599945068359e+00 -2.152140808105468750e+01 -4.198077658656984568e-04 -6.832987128291279078e-05 -1.464412925997748971e-04 1.735229488986078650e-05
3.862000000000000000e+03 4.636704254150390625e+01 -2.817672920227050781e+01 6.742661446332931519e-02 -8.004148602485656738e-01 -2.198964804410934448e-01 -8.349634408950805664e-01
3.863000000000000000e+03 4.578846359252929688e+01 -2.771316337585449219e+01 -5.848693847656250000e-02 -9.313198328018188477e-01 -2.969420254230499268e-01 -9.447735548019409180e-01
3.864000000000000000e+03 7.077169418334960938e+00 -3.277278137207031250e+01 4.922502193949185312e-05 1.049949569278396666e-04 4.626599547918885946e-05 8.689123205840587616e-04
3.865000000000000000e+03 7.463141632080078125e+01 -3.436898803710937500e+01 -1.155690103769302368e-02 -1.222568796947598457e-03 -3.833841066807508469e-03 1.664457470178604126e-02
3.866000000000000000e+03 7.290410614013671875e+01 3.001029968261718750e+01 1.887253820896148682e-01 1.353693366050720215e+00 4.627256095409393311e-01 2.742661535739898682e-01
3.867000000000000000e+03 4.699098110198974609e+00 -2.731137657165527344e+01 6.881545996293425560e-04 -3.002836274390574545e-05 1.974378828890621662e-04 -2.940851263701915741e-04
3.868000000000000000e+03 9.817687988281250000e+00 6.176333427429199219e+00 2.860991344277863391e-06 -3.725683654920430854e-07 7.465268936357460916e-07 -3.753091050384682603e-06
3.869000000000000000e+03 4.390800476074218750e+01 -2.195461273193359375e+00 4.000281842309050262e-05 -1.041399627865757793e-05 8.876646461430937052e-06 -7.524392458435613662e-06
3.870000000000000000e+03 4.613025283813476562e+01 -2.626640510559082031e+01 -5.704642087221145630e-02 -8.807228803634643555e-01 -2.813307940959930420e-01 -1.201560378074645996e+00
3.871000000000000000e+03 6.786073303222656250e+01 -1.519654369354248047e+01 -4.368005096912384033e-01 1.141269445419311523e+00 2.113406658172607422e-01 2.675642073154449463e-01
3.872000000000000000e+03 6.748367309570312500e+01 -1.206261157989501953e+01 -8.504416793584823608e-02 1.375970721244812012e+00 3.872779905796051025e-01 2.757368683815002441e-01
3.873000000000000000e+03 6.730953216552734375e+01 -1.899768066406250000e+01 -1.998180299997329712e-01 8.580954670906066895e-01 1.974832415580749512e-01 7.948266863822937012e-01
3.874000000000000000e+03 6.931050109863281250e+01 -1.866565895080566406e+01 -1.437554508447647095e-01 5.155400037765502930e-01 1.115353703498840332e-01 3.871270716190338135e-01
3.875000000000000000e+03 1.071518039703369141e+01 -1.292300796508789062e+01 1.995574275497347116e-04 6.813251093262806535e-05 8.030697790673002601e-05 -4.655258089769631624e-05
3.876000000000000000e+03 3.818885421752929688e+01 1.040981292724609375e+01 8.815969340503215790e-05 9.048888387042097747e-06 2.916257290053181350e-05 4.178360904916189611e-05
3.877000000000000000e+03 3.900101852416992188e+01 1.055680751800537109e+01 -8.451830944977700710e-05 2.336819306947290897e-05 -1.834503564168699086e-05 -6.610664968320634216e-06
3.878000000000000000e+03 7.528886413574218750e+01 3.174883651733398438e+01 -1.309608574956655502e-02 1.899659931659698486e-01 5.306097120046615601e-02 4.589087665081024170e-01
3.879000000000000000e+03 5.224151992797851562e+01 -2.881836700439453125e+01 1.821701526641845703e+00 1.186963796615600586e+00 9.025995731353759766e-01 2.636899650096893311e-01
3.880000000000000000e+03 5.119625091552734375e+01 -2.749498558044433594e+01 1.429571032524108887e+00 2.683322131633758545e-01 5.093709826469421387e-01 -4.311411976814270020e-01
3.881000000000000000e+03 7.379257202148437500e+01 -3.990288543701171875e+01 1.692173816263675690e-02 -1.433546934276819229e-02 7.758805877529084682e-04 1.981784403324127197e-02
3.882000000000000000e+03 1.274277687072753906e+01 5.603007316589355469e+00 -4.252563030604505911e-07 -2.421463250357192010e-06 -8.540158091818739194e-07 1.982648853982027504e-07
3.883000000000000000e+03 1.223440456390380859e+01 5.008187770843505859e+00 1.070137750502908602e-05 1.113348480430431664e-05 6.550458692800020799e-06 -2.073232280963566154e-05
3.884000000000000000e+03 7.362028503417968750e+01 3.094313049316406250e+01 7.892175018787384033e-02 9.072231650352478027e-01 2.958434820175170898e-01 3.891831040382385254e-01
3.885000000000000000e+03 7.493180084228515625e+01 3.389339447021484375e+01 -1.001847833395004272e-01 3.216435313224792480e-01 6.643762439489364624e-02 4.376685023307800293e-01
3.886000000000000000e+03 4.373871994018554688e+01 -3.755751037597656250e+01 4.069073498249053955e-01 -5.881931185722351074e-01 -5.438573658466339111e-02 1.526046395301818848e-01
3.887000000000000000e+03 4.498056411743164062e+01 -3.604528808593750000e+01 3.777454793453216553e-01 -5.413927435874938965e-01 -4.909418150782585144e-02 2.727108597755432129e-01
3.888000000000000000e+03 7.410900878906250000e+01 -3.372694778442382812e+01 -1.168375927954912186e-02 2.929747337475419044e-03 -2.626203466206789017e-03 1.031739171594381332e-02
3.889000000000000000e+03 5.799134254455566406e+00 3.308332061767578125e+01 1.039889980347652454e-06 4.606488346325932071e-06 1.693913418421288952e-06 2.630792187119368464e-05
3.890000000000000000e+03 5.082998275756835938e+00 3.434172821044921875e+01 1.175475699710659683e-05 9.523897460894659162e-06 6.383596428349846974e-06 -1.629477810638491064e-05
3.891000000000000000e+03 8.340900421142578125e+00 -3.331974411010742188e+01 5.520616541616618633e-04 7.547015411546453834e-05 1.882595388451591134e-04 1.165459980256855488e-03
3.892000000000000000e+03 2.343218231201171875e+01 -3.845866394042968750e+01 -1.404370460659265518e-02 -5.013749003410339355e-03 -5.717236083000898361e-03 8.261431008577346802e-03
3.893000000000000000e+03 4.398085021972656250e+01 3.164687919616699219e+01 -2.076258650049567223e-03 8.905646391212940216e-04 -3.557081799954175949e-04 2.431165921734645963e-04
3.894000000000000000e+03 9.192822456359863281e+00 -3.433789825439453125e+01 1.840826822444796562e-03 1.210745773278176785e-03 9.154717554338276386e-04 2.489322796463966370e-03
3.895000000000000000e+03 3.117415046691894531e+01 -3.690935897827148438e+01 -3.809805959463119507e-02 -7.987117022275924683e-02 -3.539076820015907288e-02 -7.484464347362518311e-02
3.896000000000000000e+03 4.688362121582031250e+01 -2.919034194946289062e+01 2.960025072097778320e-01 -6.106221675872802734e-01 -9.438589215278625488e-02 -4.907868504524230957e-01
3.897000000000000000e+03 7.313908386230468750e+01 -3.764741897583007812e+01 6.108807283453643322e-04 -4.807531833648681641e-03 -1.258995383977890015e-03 2.926499024033546448e-02
3.898000000000000000e+03 7.467657470703125000e+01 -3.558236694335937500e+01 -1.022367924451828003e-02 -1.890715910121798515e-03 -3.634318476542830467e-03 1.938667893409729004e-02
3.899000000000000000e+03 7.742427062988281250e+01 -3.997449874877929688e+01 2.557290485128760338e-03 -2.923172712326049805e-02 -8.002331480383872986e-03 2.021127846091985703e-03
3.900000000000000000e+03 6.755607604980468750e+01 4.164715957641601562e+01 -3.719496726989746094e-01 9.358440041542053223e-01 1.691682934761047363e-01 -3.411804139614105225e-02
3.901000000000000000e+03 6.776113891601562500e+01 3.794566726684570312e+01 -2.918156087398529053e-01 1.042805790901184082e+00 2.252970486879348755e-01 -1.427676081657409668e-01
3.902000000000000000e+03 5.351138305664062500e+01 -3.571244812011718750e+01 -9.391059726476669312e-02 2.048140287399291992e+00 5.862689018249511719e-01 3.858196735382080078e-01
3.903000000000000000e+03 6.219972610473632812e+00 3.182485008239746094e+01 -1.167802656709682196e-05 7.170122444222215563e-06 -1.352371327811852098e-06 -1.248086846317164600e-05
3.904000000000000000e+03 2.263562393188476562e+01 -3.689888381958007812e+01 -1.098368316888809204e-02 2.180188661441206932e-03 -2.641048282384872437e-03 1.020655035972595215e-02
3.905000000000000000e+03 2.221935844421386719e+01 -3.550131225585937500e+01 4.376326687633991241e-03 -5.684492061845958233e-04 1.142363180406391621e-03 1.170764490962028503e-02
3.906000000000000000e+03 4.560699462890625000e+01 -3.259173965454101562e+01 2.198675572872161865e-01 -7.063769102096557617e-01 -1.459528058767318726e-01 1.510933190584182739e-01
3.907000000000000000e+03 5.044200515747070312e+01 -3.248566818237304688e+01 8.441470861434936523e-01 7.929841876029968262e-01 4.911393821239471436e-01 6.172516942024230957e-01
3.908000000000000000e+03 5.153202056884765625e+01 -3.299909210205078125e+01 7.381778955459594727e-01 1.463572144508361816e+00 6.605250239372253418e-01 7.676325440406799316e-01
3.909000000000000000e+03 5.017045593261718750e+01 -3.486177444458007812e+01 3.777997493743896484e-01 8.745223283767700195e-01 3.756966292858123779e-01 6.434864997863769531e-01
3.910000000000000000e+03 4.325494003295898438e+01 3.005296134948730469e+01 -1.998358871787786484e-03 5.014241323806345463e-04 -4.490803985390812159e-04 3.541496698744595051e-04
3.911000000000000000e+03 1.051059246063232422e+01 -6.246653079986572266e+00 -4.589107629726640880e-05 -4.041027204948477447e-05 -2.589040377642959356e-05 -3.144135553156957030e-05
3.912000000000000000e+03 6.659336090087890625e+00 -7.452491760253906250e+00 -7.262048166012391448e-05 3.676889173220843077e-05 -1.075547788786934689e-05 5.905662328586913645e-05
3.913000000000000000e+03 7.469646453857421875e+01 -2.140738868713378906e+01 -9.326419234275817871e-02 5.670945346355438232e-02 -1.096642110496759415e-02 -7.897350937128067017e-02
3.914000000000000000e+03 7.439512634277343750e+01 -1.798418998718261719e+01 -9.290379285812377930e-02 1.333374679088592529e-01 1.213010493665933609e-02 -1.497440934181213379e-01
3.915000000000000000e+03 5.072295761108398438e+01 -2.991491127014160156e+01 1.357979059219360352e+00 6.070355176925659180e-01 5.895043611526489258e-01 2.191900610923767090e-01
3.916000000000000000e+03 7.361777496337890625e+01 1.180809593200683594e+01 -1.473586261272430420e-01 1.774746060371398926e+00 4.882162213325500488e-01 -1.530448626726865768e-02
3.917000000000000000e+03 7.370628356933593750e+01 1.118344783782958984e+01 -1.599980145692825317e-01 1.675046324729919434e+00 4.545144736766815186e-01 2.258287556469440460e-02
3.918000000000000000e+03 6.986649322509765625e+01 -1.902111625671386719e+01 -7.900910079479217529e-02 3.801026344299316406e-01 9.032806009054183960e-02 2.909809947013854980e-01
3.919000000000000000e+03 3.877603149414062500e+01 7.630681514739990234e+00 -6.346807640511542559e-05 1.307137245021294802e-05 -1.511901064077392220e-05 -9.977191439247690141e-06
3.920000000000000000e+03 1.337600612640380859e+01 -9.633528709411621094e+00 -6.693584145978093147e-05 -2.659900928847491741e-05 -2.806045449688099325e-05 4.534903928288258612e-05
3.921000000000000000e+03 1.145566368103027344e+01 -6.696569442749023438e+00 -5.036704533267766237e-05 -3.489974551484920084e-05 -2.558003689046017826e-05 1.303783051298523787e-06
3.922000000000000000e+03 1.354378700256347656e+01 -1.045955848693847656e+01 -6.676521297777071595e-05 -7.835608994355425239e-05 -4.353639087639749050e-05 2.350004251638893038e-05
3.923000000000000000e+03 1.204398155212402344e+01 -1.074523639678955078e+01 -7.073119923006743193e-05 -4.689895649789832532e-05 -3.528904562699608505e-05 -1.321931813436094671e-05
3.924000000000000000e+03 4.727136135101318359e+00 -2.877302169799804688e+01 1.131477649323642254e-03 -7.917285984149202704e-05 3.156914317514747381e-04 -1.078219065675511956e-04
3.925000000000000000e+03 6.374030113220214844e+00 -2.796999549865722656e+01 4.223864234518259764e-04 2.696370065677911043e-04 2.076070231851190329e-04 -5.357617192203179002e-05
3.926000000000000000e+03 1.506661510467529297e+01 -8.579670906066894531e+00 -9.385133807882084511e-07 1.775770033418666571e-05 5.045756097388220951e-06 -2.343577943975105882e-05
3.927000000000000000e+03 1.443575382232666016e+01 -8.869116783142089844e+00 -3.152190038235858083e-05 -1.373246868752175942e-05 -1.357631117571145296e-05 2.121487705153413117e-05
3.928000000000000000e+03 4.487710189819335938e+01 -3.958032131195068359e+00 -1.147362127085216343e-06 -1.914119093271438032e-05 -6.086565917939879000e-06 -1.170385621662717313e-05
3.929000000000000000e+03 1.079572105407714844e+01 5.751574993133544922e+00 3.358039748491137289e-06 7.845495133551594336e-07 1.242776761500863358e-06 -1.042412918650370557e-06
3.930000000000000000e+03 1.133532810211181641e+01 6.081615447998046875e+00 1.666646880948974285e-06 1.364090985589427873e-05 4.592267032421659678e-06 -2.360581311222631484e-05
3.931000000000000000e+03 7.049041748046875000e+01 -1.022922897338867188e+01 -7.940609008073806763e-02 1.304447650909423828e+00 3.675124645233154297e-01 -1.126115582883358002e-02
3.932000000000000000e+03 6.842983245849609375e+01 -1.244606590270996094e+01 -1.696001291275024414e-01 1.297152161598205566e+00 3.382655978202819824e-01 1.658233106136322021e-01
3.933000000000000000e+03 4.135866165161132812e+01 -1.554547882080078125e+01 4.019610969407949597e-06 2.743199502219795249e-06 2.028843255175161175e-06 5.253716608422109857e-07
3.934000000000000000e+03 3.957789230346679688e+01 -1.534362316131591797e+01 -2.519556119295884855e-06 -2.542703896324383095e-06 -1.518678004686080385e-06 4.811681151295488235e-07
3.935000000000000000e+03 4.460256195068359375e+01 -4.436122894287109375e+00 -1.156688904302427545e-05 -1.781260652933269739e-05 -8.813848580757621676e-06 -6.633350949414307252e-06
3.936000000000000000e+03 7.393021392822265625e+01 9.630453109741210938e+00 -8.201020956039428711e-02 1.529755353927612305e+00 4.343235194683074951e-01 9.587061405181884766e-02
3.937000000000000000e+03 7.537784576416015625e+01 1.127196693420410156e+01 -8.998598903417587280e-02 3.871579170227050781e-01 8.915157616138458252e-02 6.484294682741165161e-02
3.938000000000000000e+03 3.352782058715820312e+01 -1.390321445465087891e+01 7.868470675020944327e-06 -1.562852162351191510e-06 1.891685656119079795e-06 1.738071432555443607e-06
3.939000000000000000e+03 3.207944869995117188e+01 -1.294002628326416016e+01 -1.822981062105100136e-06 -1.557200562274374533e-06 -1.014054532788577490e-06 -4.361378387329750694e-07
3.940000000000000000e+03 4.416296386718750000e+01 -3.104879617691040039e+00 1.842455640144180506e-05 -6.548677447426598519e-06 3.562763595255091786e-06 -1.344208340015029535e-05
3.941000000000000000e+03 4.239638137817382812e+01 4.861014783382415771e-01 -2.904604343711980619e-06 2.542326546972617507e-05 6.755598406016360968e-06 1.253309392268420197e-06
3.942000000000000000e+03 3.075912284851074219e+01 -1.274298381805419922e+01 5.183280791243305430e-06 1.797056029317900538e-06 2.094101091643096879e-06 -1.201846203002787661e-06
3.943000000000000000e+03 4.905881881713867188e+01 -2.717672538757324219e+01 7.006353139877319336e-01 -4.160415530204772949e-01 8.537813276052474976e-02 -8.676978349685668945e-01
3.944000000000000000e+03 1.385718822479248047e+01 -9.228680610656738281e+00 2.451844193274155259e-05 8.519533366779796779e-06 9.911392226058524102e-06 -5.331615830073133111e-05
3.945000000000000000e+03 4.463739395141601562e+01 -5.088209152221679688e+00 1.325800167251145467e-05 2.341088475077413023e-05 1.100066583603620529e-05 5.349400453269481659e-06
3.946000000000000000e+03 5.282463455200195312e+01 -2.759642028808593750e+01 1.925236105918884277e+00 1.252196788787841797e+00 9.532299041748046875e-01 1.070597767829895020e-01
3.947000000000000000e+03 1.316970920562744141e+01 -7.031475067138671875e+00 -5.062216223450377584e-05 -2.560381653893273324e-05 -2.286779454152565449e-05 -3.365453949299990200e-06
3.948000000000000000e+03 1.045343494415283203e+01 -8.228432655334472656e+00 8.971805073088034987e-05 -9.548340131004806608e-06 2.405091254331637174e-05 -3.727011062437668443e-05
3.949000000000000000e+03 4.517338562011718750e+01 -7.233495712280273438e+00 -1.343701387668261304e-05 -1.094481285690562800e-05 -7.314547929127002135e-06 -3.855708200717344880e-06
3.950000000000000000e+03 4.654917144775390625e+01 -6.944344043731689453e+00 -1.680806053627748042e-05 -1.064089428837178275e-05 -8.234685992647428066e-06 -7.449777058354811743e-06
3.951000000000000000e+03 4.277858734130859375e+01 -8.349885791540145874e-02 -2.549023520259652287e-05 -1.564651756780222058e-05 -1.234102546732174233e-05 9.359108844364527613e-06
3.952000000000000000e+03 5.241610336303710938e+01 -2.697726249694824219e+01 1.739796996116638184e+00 7.952049970626831055e-01 7.605006098747253418e-01 -2.416521012783050537e-01
3.953000000000000000e+03 5.144536972045898438e+01 -2.643237113952636719e+01 1.262612938880920410e+00 1.637883335351943970e-01 4.279203712940216064e-01 -6.896419525146484375e-01
3.954000000000000000e+03 7.508322143554687500e+01 3.239298248291015625e+01 -2.558897435665130615e-02 2.683858871459960938e-01 7.283907383680343628e-02 4.514146745204925537e-01
3.955000000000000000e+03 5.210441970825195312e+01 -2.634717750549316406e+01 1.486764073371887207e+00 4.406587183475494385e-01 5.782268047332763672e-01 -5.190451741218566895e-01
3.956000000000000000e+03 2.988360977172851562e+01 -1.103785419464111328e+01 6.896792001498397440e-06 5.021617653255816549e-06 3.575522896426264197e-06 3.978205995736061595e-07
3.957000000000000000e+03 2.975689888000488281e+01 -9.909582138061523438e+00 3.851665496767964214e-06 -7.863441737754328642e-07 9.195964594255201519e-07 1.110954713112732861e-06
3.958000000000000000e+03 2.713036537170410156e+01 -6.460937023162841797e+00 7.837581506464630365e-06 -1.912705727136199130e-07 2.293893203386687674e-06 -5.110404117658617906e-07
3.959000000000000000e+03 2.611056518554687500e+01 -3.769989967346191406e+00 1.133242403739131987e-05 4.480966424580401508e-07 3.534156121531850658e-06 -1.089336819859454408e-06
3.960000000000000000e+03 4.617340469360351562e+01 -2.722828674316406250e+01 4.701215773820877075e-02 -8.615070581436157227e-01 -2.443484812974929810e-01 -1.038360714912414551e+00
3.961000000000000000e+03 4.785685729980468750e+01 -2.747174835205078125e+01 4.240404367446899414e-01 -5.556953549385070801e-01 -3.949647769331932068e-02 -8.824588656425476074e-01
3.962000000000000000e+03 4.055615997314453125e+01 3.504065513610839844e+00 3.761920015676878393e-05 1.028138285619206727e-05 1.437017454009037465e-05 4.358000660431571305e-05
3.963000000000000000e+03 4.102641677856445312e+01 5.469107627868652344e-01 3.769069007830694318e-05 1.900950337585527450e-05 1.701005749055184424e-05 -3.157781065965536982e-06
3.964000000000000000e+03 7.322321319580078125e+01 2.924248123168945312e+01 2.149997800588607788e-01 1.248134136199951172e+00 4.389401674270629883e-01 2.718994021415710449e-01
3.965000000000000000e+03 5.307862281799316406e+00 -2.911791992187500000e+01 5.586380138993263245e-04 4.220871487632393837e-04 2.942175487987697124e-04 2.971886424347758293e-04
3.966000000000000000e+03 5.088737487792968750e+00 -3.027753639221191406e+01 1.516037620604038239e-03 1.180127219413407147e-04 4.902150831185281277e-04 1.971520687220618129e-04
3.967000000000000000e+03 5.384570312500000000e+01 -2.538435745239257812e+01 1.559052705764770508e+00 1.002010345458984375e+00 7.683188915252685547e-01 -1.667323559522628784e-01
3.968000000000000000e+03 7.423555755615234375e+01 7.387191295623779297e+00 7.977530360221862793e-02 1.291039466857910156e+00 4.112444221973419189e-01 7.678098976612091064e-02
3.969000000000000000e+03 7.461268615722656250e+01 8.017277717590332031e+00 3.798892349004745483e-02 9.727793335914611816e-01 3.032304644584655762e-01 1.176409050822257996e-01
3.970000000000000000e+03 5.177958297729492188e+01 -1.559318065643310547e+01 -4.022110260848421603e-06 -8.193504186237987597e-07 -1.452438141313905362e-06 2.722408680710941553e-07
3.971000000000000000e+03 5.835376739501953125e+00 -2.856497001647949219e+01 1.709664938971400261e-04 -2.641851024236530066e-04 -2.796558692352846265e-05 -7.354302215389907360e-05
3.972000000000000000e+03 4.145877456665039062e+01 -1.363804626464843750e+01 -3.098932893408345990e-06 -3.124898739770287648e-06 -1.867149421741487458e-06 1.613866402294661384e-06
3.973000000000000000e+03 4.611601638793945312e+01 -9.826694488525390625e+00 -1.489569422119529918e-05 -3.141084789604065008e-06 -5.411033725977176800e-06 -5.527109351532999426e-06
3.974000000000000000e+03 4.343361663818359375e+01 -1.569046401977539062e+01 -4.088508831046056002e-06 -9.352766028314363211e-07 -1.507135721112717874e-06 -1.496305799264519010e-06
3.975000000000000000e+03 4.718470764160156250e+01 -1.434248256683349609e+01 7.949815739038967877e-08 5.179720119485864416e-06 1.577765488036675379e-06 2.983594868055661209e-06
3.976000000000000000e+03 7.507253265380859375e+01 3.460465240478515625e+01 -1.245768219232559204e-01 2.401079684495925903e-01 3.465934097766876221e-02 4.008502364158630371e-01
3.977000000000000000e+03 7.436511993408203125e+01 3.207830047607421875e+01 -1.766568049788475037e-02 5.328264832496643066e-01 1.545482426881790161e-01 4.593279361724853516e-01
3.978000000000000000e+03 5.921223640441894531e+00 2.770604896545410156e+01 -3.576648305170238018e-05 1.455578058084938675e-05 -6.363211014104308560e-06 1.648464149184292182e-06
3.979000000000000000e+03 4.944432735443115234e+00 7.342757225036621094e+00 5.678050911228638142e-06 6.387474968505557626e-06 3.619657945819199085e-06 -1.484914355387445539e-05
3.980000000000000000e+03 6.618915557861328125e+00 6.450700283050537109e+00 7.256458502524765208e-06 1.016585542856773827e-06 2.481913270457880571e-06 -1.587125325386296026e-06
3.981000000000000000e+03 5.421777725219726562e+00 7.662550926208496094e+00 -1.315362965215172153e-06 7.893283509474713355e-06 1.973376129171811044e-06 -3.671765398394200020e-06
3.982000000000000000e+03 4.410651016235351562e+01 -1.497895002365112305e+00 -4.456531678442843258e-05 -9.915966984408441931e-06 -1.634438376640900970e-05 -8.329162483278196305e-06
3.983000000000000000e+03 5.253739356994628906e+00 -3.122750091552734375e+01 -4.253057995811104774e-04 3.600710770115256310e-04 -1.957041968125849962e-05 7.402326446026563644e-04
3.984000000000000000e+03 5.777478694915771484e+00 -2.990846252441406250e+01 9.288931323681026697e-05 -3.233850002288818359e-04 -6.914870755281299353e-05 -8.534301741747185588e-05
3.985000000000000000e+03 7.055795669555664062e+00 7.192695617675781250e+00 1.015766247292049229e-05 -1.081753453036071733e-06 2.722772933339001611e-06 -1.310559696321433876e-06
3.986000000000000000e+03 7.300159454345703125e+01 3.484504699707031250e+01 -1.922758966684341431e-01 8.276619911193847656e-01 1.906158179044723511e-01 3.109578490257263184e-01
3.987000000000000000e+03 4.866194725036621094e+00 5.615367412567138672e+00 5.183952453080564737e-06 5.168467396288178861e-06 3.105725909335887991e-06 -1.368486664432566613e-05
3.988000000000000000e+03 6.462720394134521484e+00 7.132425785064697266e+00 -1.024522771331248805e-05 1.455877008993411437e-05 1.294062712986487895e-06 -1.729733048705384135e-05
3.989000000000000000e+03 4.625390243530273438e+01 -1.197646236419677734e+01 -1.134507510869298130e-05 -7.777707651257514954e-07 -3.636853989519295283e-06 -3.171685193592566065e-06
3.990000000000000000e+03 4.693677139282226562e+01 -1.098341941833496094e+01 1.495013293606461957e-05 1.317820647273038048e-06 4.880385858996305615e-06 5.206733021623222157e-06
3.991000000000000000e+03 7.440844726562500000e+01 2.681645965576171875e+01 2.263268828392028809e-01 7.660430669784545898e-01 2.977109849452972412e-01 2.337647080421447754e-01
3.992000000000000000e+03 5.673469543457031250e+00 2.324294662475585938e+01 -2.045761902991216630e-05 2.733007750066462904e-05 2.061737404801533557e-06 -8.396637895202729851e-06
3.993000000000000000e+03 5.437760353088378906e+00 -2.643100929260253906e+01 4.358852747827768326e-04 3.928962396457791328e-04 2.486344601493328810e-04 2.353590243728831410e-04
3.994000000000000000e+03 5.643239021301269531e+00 2.153496170043945312e+01 -2.097496508213225752e-05 2.204324118793010712e-05 3.204824281510809669e-07 -5.869037067895988002e-06
3.995000000000000000e+03 7.482306671142578125e+01 2.722280883789062500e+01 1.764692366123199463e-01 5.120177865028381348e-01 2.065461128950119019e-01 2.846848368644714355e-01
3.996000000000000000e+03 3.252638244628906250e+01 -1.329073715209960938e+01 5.942544248682679608e-06 1.514794689683185425e-07 1.828207132348325104e-06 1.343504891337943263e-06
3.997000000000000000e+03 3.034480476379394531e+01 -1.233598709106445312e+01 -1.588104737493267749e-06 -2.767475507425842807e-06 -1.306673993894946761e-06 1.143387066804280039e-06
3.998000000000000000e+03 7.435791778564453125e+01 2.977874755859375000e+01 1.269751340150833130e-01 6.576116085052490234e-01 2.353760153055191040e-01 3.846878409385681152e-01
3.999000000000000000e+03 2.858429145812988281e+01 -7.651727676391601562e+00 5.726117706217337400e-06 -2.621917701617348939e-06 9.312600468547316268e-07 -4.455841065009735757e-07
4.000000000000000000e+03 6.251219749450683594e+00 -7.802656650543212891e+00 9.210204734699800611e-05 -3.150867996737360954e-05 1.817800875869579613e-05 -5.978467015665955842e-05
4.001000000000000000e+03 4.662649154663085938e+00 -8.401954650878906250e+00 1.265414466615766287e-04 1.148757110058795661e-05 4.140870441915467381e-05 1.876467649708501995e-06
4.002000000000000000e+03 5.491090774536132812e+00 1.671917724609375000e+01 -8.629097465018276125e-06 1.322684056503931060e-05 1.379322952743677888e-06 -1.056004475685767829e-05
4.003000000000000000e+03 5.433958053588867188e+00 1.429783535003662109e+01 3.028150558748166077e-06 1.479204456700244918e-05 5.346058514987817034e-06 -1.300821395489037968e-06
4.004000000000000000e+03 7.376095581054687500e+01 2.073383522033691406e+01 9.081498533487319946e-02 1.591233611106872559e+00 5.046145915985107422e-01 -4.371898714452981949e-03
4.005000000000000000e+03 7.411854553222656250e+01 2.610563850402832031e+01 2.533009648323059082e-01 1.033301115036010742e+00 3.859806060791015625e-01 1.657571345567703247e-01
4.006000000000000000e+03 7.473120117187500000e+01 -1.168087768554687500e+01 -9.223105013370513916e-02 2.365625649690628052e-01 4.329945519566535950e-02 -3.295863270759582520e-01
4.007000000000000000e+03 7.547292327880859375e+01 -1.020775318145751953e+01 -5.791594833135604858e-02 6.140213087201118469e-02 1.045854995027184486e-03 -3.630828261375427246e-01
4.008000000000000000e+03 7.474320220947265625e+01 2.306493377685546875e+01 1.446183919906616211e-01 7.541548013687133789e-01 2.696319520473480225e-01 5.657874047756195068e-02
4.009000000000000000e+03 3.828050231933593750e+01 -1.520284748077392578e+01 -3.749574489120277576e-06 -1.605970282980706543e-06 -1.606663431630295236e-06 -7.624780096193717327e-07
4.010000000000000000e+03 7.452655029296875000e+01 2.004617118835449219e+01 5.383864417672157288e-02 9.703171253204345703e-01 3.072467446327209473e-01 -2.160040894523262978e-03
4.011000000000000000e+03 7.471527099609375000e+01 -1.249032783508300781e+01 -8.991209417581558228e-02 2.317117452621459961e-01 4.253989458084106445e-02 -3.054906129837036133e-01
4.012000000000000000e+03 4.624037742614746094e+00 -2.524230194091796875e+01 6.248709396459162235e-04 5.718199099646881223e-05 2.046158770099282265e-04 2.229309029644355178e-04
4.013000000000000000e+03 4.778005599975585938e+00 -2.651105308532714844e+01 -3.685010306071490049e-04 -2.772515290416777134e-05 -1.188678579637780786e-04 2.483842254150658846e-04
4.014000000000000000e+03 7.456122589111328125e+01 1.427596378326416016e+01 -3.699398785829544067e-02 9.791790843009948730e-01 2.826555371284484863e-01 -3.016840294003486633e-02
4.015000000000000000e+03 7.385664367675781250e+01 1.671507453918457031e+01 2.377368323504924774e-02 1.488588929176330566e+00 4.537087976932525635e-01 -1.205669716000556946e-02
4.016000000000000000e+03 7.540887451171875000e+01 -8.648798942565917969e+00 -4.023588076233863831e-02 8.051443099975585938e-02 1.208356488496065140e-02 -3.916392326354980469e-01
4.017000000000000000e+03 7.455681610107421875e+01 1.838779640197753906e+01 3.079441748559474945e-02 9.679921865463256836e-01 2.996359765529632568e-01 -4.458602983504533768e-03
4.018000000000000000e+03 7.525978851318359375e+01 1.843206977844238281e+01 3.122226707637310028e-02 4.347080290317535400e-01 1.397790908813476562e-01 -2.141838893294334412e-03
4.019000000000000000e+03 7.385904693603515625e+01 1.753053855895996094e+01 2.723055891692638397e-02 1.495301485061645508e+00 4.567596018314361572e-01 -6.610763724893331528e-03
4.020000000000000000e+03 7.459539031982421875e+01 1.342101860046386719e+01 -7.635781168937683105e-02 9.612702727317810059e-01 2.654737532138824463e-01 -2.717179618775844574e-02
4.021000000000000000e+03 7.538986968994140625e+01 1.278226280212402344e+01 -6.551187485456466675e-02 3.734572827816009521e-01 9.238361567258834839e-02 -3.816970624029636383e-03
4.022000000000000000e+03 7.469538879394531250e+01 1.133603572845458984e+01 -1.069247424602508545e-01 9.208683371543884277e-01 2.441830784082412720e-01 3.063048608601093292e-02
4.023000000000000000e+03 7.533439636230468750e+01 1.047856903076171875e+01 -7.024806737899780273e-02 4.155589044094085693e-01 1.035932525992393494e-01 7.386779785156250000e-02
4.024000000000000000e+03 7.529672241210937500e+01 7.943174362182617188e+00 2.238541468977928162e-02 4.523358345031738281e-01 1.424163728952407837e-01 9.617144614458084106e-02
4.025000000000000000e+03 7.416373443603515625e+01 5.378037452697753906e+00 1.761324405670166016e-01 1.435225367546081543e+00 4.834073483943939209e-01 1.227950397878885269e-02
4.026000000000000000e+03 7.464247894287109375e+01 8.838493347167968750e+00 -2.156084030866622925e-02 9.566884040832519531e-01 2.805382609367370605e-01 1.181620582938194275e-01
4.027000000000000000e+03 7.385991668701171875e+01 1.834268188476562500e+01 3.398537635803222656e-02 1.497454881668090820e+00 4.594320654869079590e-01 -3.774034092202782631e-03
4.028000000000000000e+03 7.478412628173828125e+01 3.787229061126708984e+00 1.694634556770324707e-01 8.024687170982360840e-01 2.915796637535095215e-01 -1.899280026555061340e-02
4.029000000000000000e+03 7.460133361816406250e+01 3.201437473297119141e+00 2.478484511375427246e-01 1.012188434600830078e+00 3.780110776424407959e-01 -4.529674723744392395e-02
4.030000000000000000e+03 7.532299804687500000e+01 8.826938629150390625e+00 -6.320887245237827301e-03 4.370114505290985107e-01 1.292071640491485596e-01 1.002357676625251770e-01
4.031000000000000000e+03 7.471947479248046875e+01 -5.561536312103271484e+00 8.676835335791110992e-03 4.508723914623260498e-01 1.378647685050964355e-01 -3.774696290493011475e-01
4.032000000000000000e+03 7.514896392822265625e+01 2.597152709960937500e+00 1.660623103380203247e-01 4.548096954822540283e-01 1.862616091966629028e-01 -1.190410479903221130e-01
4.033000000000000000e+03 7.510040283203125000e+01 3.275606632232666016e+00 2.005299925804138184e-01 5.137812495231628418e-01 2.142933756113052368e-01 -5.627807602286338806e-02
4.034000000000000000e+03 7.406942749023437500e+01 2.409275054931640625e+00 2.597468197345733643e-01 1.375197410583496094e+00 4.904832541942596436e-01 -6.560797989368438721e-02
4.035000000000000000e+03 7.537811279296875000e+01 -2.519617319107055664e+00 9.419628977775573730e-02 1.923135668039321899e-01 8.595295250415802002e-02 -3.583776652812957764e-01
4.036000000000000000e+03 7.472842407226562500e+01 -3.454797983169555664e+00 7.114847749471664429e-02 5.224494338035583496e-01 1.780793666839599609e-01 -3.686906099319458008e-01
4.037000000000000000e+03 7.455101013183593750e+01 1.920876121520996094e+01 4.618348926305770874e-02 9.679864645004272461e-01 3.042509853839874268e-01 -7.307611522264778614e-04
4.038000000000000000e+03 7.326276397705078125e+01 -2.769825458526611328e+00 1.409733891487121582e-01 1.471104979515075684e+00 4.836235046386718750e-01 -2.086892426013946533e-01
4.039000000000000000e+03 7.422342681884765625e+01 -1.313499569892883301e+00 1.728125661611557007e-01 9.893612861633300781e-01 3.486521542072296143e-01 -2.611452639102935791e-01
4.040000000000000000e+03 7.273749542236328125e+01 -1.817322015762329102e+00 1.887617409229278564e-01 1.933028340339660645e+00 6.365370154380798340e-01 -1.225415766239166260e-01
4.041000000000000000e+03 7.377809906005859375e+01 -2.975941598415374756e-01 2.577433586120605469e-01 1.411105990409851074e+00 5.006548166275024414e-01 -1.890003979206085205e-01
4.042000000000000000e+03 7.357510375976562500e+01 -1.111993670463562012e+00 1.985548138618469238e-01 1.458652257919311523e+00 4.971621334552764893e-01 -2.067292928695678711e-01
4.043000000000000000e+03 7.498659515380859375e+01 2.379514503479003906e+01 1.576539129018783569e-01 5.485518574714660645e-01 2.118617147207260132e-01 9.190941601991653442e-02
4.044000000000000000e+03 7.422273254394531250e+01 -1.691599845886230469e+01 -1.056154146790504456e-01 1.898865699768066406e-01 2.528134733438491821e-02 -1.650539040565490723e-01
4.045000000000000000e+03 7.476428985595703125e+01 -6.338274955749511719e+00 -5.209011025726795197e-03 3.865324258804321289e-01 1.143970265984535217e-01 -3.817605972290039062e-01
4.046000000000000000e+03 7.539745330810546875e+01 -7.885317802429199219e+00 -3.632517158985137939e-02 8.602540940046310425e-02 1.491007115691900253e-02 -3.934059441089630127e-01
4.047000000000000000e+03 7.422216033935546875e+01 -9.495962142944335938e+00 -7.544804364442825317e-02 4.340892732143402100e-01 1.075923740863800049e-01 -3.567247688770294189e-01
4.048000000000000000e+03 7.542979431152343750e+01 2.578397941589355469e+01 1.695636063814163208e-01 1.966532319784164429e-01 1.098650544881820679e-01 2.211112529039382935e-01
4.049000000000000000e+03 7.463129425048828125e+01 2.505010032653808594e+01 2.137214690446853638e-01 7.265078425407409668e-01 2.820687890052795410e-01 1.435249596834182739e-01
4.050000000000000000e+03 7.443882751464843750e+01 -1.904942512512207031e+01 -9.121724218130111694e-02 1.022214144468307495e-01 3.301250515505671501e-03 -1.298351287841796875e-01
4.051000000000000000e+03 7.547900390625000000e+01 -1.821150588989257812e+01 -7.026142627000808716e-02 4.490901157259941101e-02 -7.605724502354860306e-03 -1.555838137865066528e-01
4.052000000000000000e+03 7.542288208007812500e+01 -1.500835037231445312e+01 -7.637581974267959595e-02 6.890555471181869507e-02 -2.241078764200210571e-03 -2.381409406661987305e-01
4.053000000000000000e+03 7.336839294433593750e+01 -1.811639022827148438e+01 -1.125828102231025696e-01 2.124862372875213623e-01 2.997102774679660797e-02 -1.040755733847618103e-01
4.054000000000000000e+03 4.570889472961425781e+00 -1.139487838745117188e+01 1.722335728118196130e-04 3.632736843428574502e-05 6.256828055484220386e-05 2.834470433299429715e-05
4.055000000000000000e+03 5.221093654632568359e+00 -9.958445549011230469e+00 -1.483524829382076859e-04 -1.351254923065425828e-05 -4.855951192439533770e-05 -4.821554830414243042e-05
4.056000000000000000e+03 7.479498291015625000e+01 -9.418242454528808594e+00 -6.023740395903587341e-02 2.771671414375305176e-01 6.507892161607742310e-02 -3.698571324348449707e-01
4.057000000000000000e+03 7.472049713134765625e+01 -7.084756374359130859e+00 -2.893081679940223694e-02 3.631043136119842529e-01 1.002520471811294556e-01 -3.874975740909576416e-01
4.058000000000000000e+03 4.801501274108886719e+00 -2.428000068664550781e+01 -5.250401954981498420e-05 2.569314383435994387e-04 6.132822454674169421e-05 1.692821824690327048e-04
4.059000000000000000e+03 7.399290466308593750e+01 -1.955703353881835938e+01 -1.000003889203071594e-01 1.202556937932968140e-01 6.076591089367866516e-03 -1.083338484168052673e-01
4.060000000000000000e+03 7.546313476562500000e+01 -1.887853813171386719e+01 -6.714878976345062256e-02 3.712036833167076111e-02 -9.008526802062988281e-03 -1.434131413698196411e-01
4.061000000000000000e+03 7.470373535156250000e+01 -1.329935073852539062e+01 -1.007314547896385193e-01 2.149201035499572754e-01 3.425659239292144775e-02 -2.847819030284881592e-01
4.062000000000000000e+03 4.591755867004394531e+00 -2.335381317138671875e+01 -5.168538773432374001e-04 3.158836043439805508e-04 -6.029108044458553195e-05 1.386354560963809490e-04
4.063000000000000000e+03 5.295745372772216797e+00 -2.055653572082519531e+01 -1.720113359624519944e-04 -2.261182089569047093e-04 -1.194388678413815796e-04 -1.949119614437222481e-04
4.064000000000000000e+03 4.720066070556640625e+00 -2.139026451110839844e+01 -4.134606278967112303e-04 -1.595774810994043946e-04 -1.719114370644092560e-04 -1.405739458277821541e-04
4.065000000000000000e+03 8.804584503173828125e+00 6.555913448333740234e+00 7.456340540556993801e-07 -1.520458710047023487e-07 1.780764478098717518e-07 -2.296173988725058734e-06
4.066000000000000000e+03 4.873649597167968750e+00 9.478169441223144531e+00 -4.420598997967317700e-06 1.140940912591759115e-05 2.096643129334552214e-06 -1.530405825178604573e-05
4.067000000000000000e+03 4.551216602325439453e+00 -1.216209316253662109e+01 -1.846339146140962839e-04 -4.279914719518274069e-05 -6.822992145316675305e-05 -3.220346115995198488e-05
4.068000000000000000e+03 4.362785339355468750e+00 -2.400743103027343750e+01 6.809997139498591423e-04 -2.339728234801441431e-04 1.341080642305314541e-04 -1.122796311392448843e-04
4.069000000000000000e+03 5.461395740509033203e+00 6.821106433868408203e+00 -5.235198386799311265e-06 9.261940249416511506e-06 1.208022695209365338e-06 -1.923204763443209231e-06
4.070000000000000000e+03 5.940517425537109375e+00 -8.763233184814453125e+00 8.297806198243051767e-05 5.646862337016500533e-05 4.183400596957653761e-05 2.751637657638639212e-05
4.071000000000000000e+03 7.470692443847656250e+01 -1.410558700561523438e+01 -9.797892719507217407e-02 1.980175226926803589e-01 3.001157939434051514e-02 -2.589681446552276611e-01
4.072000000000000000e+03 4.751096248626708984e+00 -1.940293693542480469e+01 -3.338856040500104427e-04 -8.619288564659655094e-05 -1.260235439985990524e-04 -1.655535015743225813e-04
4.073000000000000000e+03 5.027780055999755859e+00 -1.767891120910644531e+01 2.296931343153119087e-04 9.013841190608218312e-05 9.594946459401398897e-05 2.021293330471962690e-04
4.074000000000000000e+03 6.675160884857177734e+00 -1.588842201232910156e+01 -2.050509356195107102e-04 -1.024159282678738236e-04 -9.224005771102383733e-05 -1.232332724612206221e-04
4.075000000000000000e+03 4.565881252288818359e+00 -1.863715934753417969e+01 3.627391124609857798e-04 4.291949881007894874e-05 1.216975797433406115e-04 1.741457672324031591e-04
4.076000000000000000e+03 5.826648235321044922e+00 -1.793195724487304688e+01 2.578784005891066045e-05 1.314541150350123644e-04 4.717258707387372851e-05 2.389656583545729518e-04
4.077000000000000000e+03 4.979039669036865234e+00 -1.650930976867675781e+01 3.805711457971483469e-04 -9.918985597323626280e-05 8.441438694717362523e-05 9.944814519258216023e-05
4.078000000000000000e+03 4.433832645416259766e+00 -1.582164287567138672e+01 3.046495257876813412e-04 3.907262725988402963e-05 1.031166466418653727e-04 1.544332626508548856e-04
4.079000000000000000e+03 5.694838523864746094e+00 -1.969931411743164062e+01 -4.519149952102452517e-04 2.638551677591749467e-06 -1.347829384030774236e-04 -1.589675666764378548e-04
4.080000000000000000e+03 7.471634674072265625e+01 -1.493820571899414062e+01 -1.006783470511436462e-01 1.854959428310394287e-01 2.544528059661388397e-02 -2.370603233575820923e-01
4.081000000000000000e+03 5.193845272064208984e+00 -1.512985134124755859e+01 2.334224263904616237e-04 8.742115460336208344e-05 9.625307575333863497e-05 1.101154048228636384e-04
4.082000000000000000e+03 7.305245971679687500e+01 2.138953781127929688e+01 9.221909195184707642e-02 2.088143825531005859e+00 6.541088819503784180e-01 -2.919538877904415131e-02
4.083000000000000000e+03 5.604413986206054688e+00 2.072463607788085938e+01 1.349798458250006661e-05 9.627075087337289006e-06 6.937517810001736507e-06 -1.137217168434290215e-06
4.084000000000000000e+03 4.901785850524902344e+00 2.539201354980468750e+01 -2.549808232288341969e-05 2.294023033755365759e-05 -7.673556865483988076e-07 -6.057719929231097922e-06
4.085000000000000000e+03 5.719841480255126953e+00 2.622672080993652344e+01 -3.133402788080275059e-05 3.131220364593900740e-05 -6.548151354479614383e-09 -1.157948736363323405e-05
4.086000000000000000e+03 4.722070217132568359e+00 1.179089736938476562e+01 4.868990345130441710e-06 1.228636483574518934e-05 5.146606326889013872e-06 -2.154765752493403852e-06
4.087000000000000000e+03 4.762653827667236328e+00 1.820635223388671875e+01 7.874565199017524719e-06 1.783012885425705463e-05 7.711408215982373804e-06 -3.366557621120591648e-06
4.088000000000000000e+03 5.581387519836425781e+00 1.914210891723632812e+01 8.423819963354617357e-06 1.397348751197569072e-05 6.719192242599092424e-06 -3.842261776298983023e-06
4.089000000000000000e+03 4.536689281463623047e+00 -1.291666316986083984e+01 1.989882439374923706e-04 5.896362927160225809e-05 7.738556450931355357e-05 4.242021532263606787e-05
4.090000000000000000e+03 5.448063373565673828e+00 1.349397754669189453e+01 -6.608048806810984388e-06 1.241135396412573755e-05 1.740991592669161037e-06 -1.623640855541452765e-05
4.091000000000000000e+03 4.707032680511474609e+00 1.258601856231689453e+01 -6.720826604578178376e-06 1.377905755362007767e-05 2.117469193763099611e-06 -1.487910503783496097e-05
4.092000000000000000e+03 7.942892074584960938e+00 -1.234279918670654297e+01 1.161206600954756141e-04 7.132867904147133231e-05 5.623480319627560675e-05 7.364182238234207034e-05
4.093000000000000000e+03 5.633541107177734375e+00 9.607739448547363281e+00 6.167801075207535177e-06 7.006163741607451811e-06 3.952189217670820653e-06 -2.893321607189136557e-06
4.094000000000000000e+03 5.546917438507080078e+00 1.033890438079833984e+01 -6.744306574546499178e-06 1.256458654097514227e-05 1.746083967191225383e-06 -1.719268402666784823e-05
4.095000000000000000e+03 5.590513229370117188e+00 1.993320274353027344e+01 -1.687035182840190828e-05 1.991218596231192350e-05 9.125501492235343903e-07 -5.176050308364210650e-06
4.096000000000000000e+03 5.221995353698730469e+00 -1.441065406799316406e+01 -2.099487464874982834e-04 -9.901232988340780139e-05 -9.268832218367606401e-05 -8.248319500125944614e-05
4.097000000000000000e+03 5.234236717224121094e+00 -1.297212028503417969e+01 -1.832905982155352831e-04 -7.446593372151255608e-05 -7.732696394668892026e-05 -3.453009048826061189e-05
4.098000000000000000e+03 7.385523986816406250e+01 1.589408111572265625e+01 1.014962233603000641e-02 1.485280871391296387e+00 4.486291408538818359e-01 -2.313791587948799133e-02
4.099000000000000000e+03 5.483502388000488281e+00 1.110688209533691406e+01 5.715778115700231865e-06 9.239933206117711961e-06 4.486713351070648059e-06 -1.426365088263992220e-06
4.100000000000000000e+03 5.452228546142578125e+00 1.590824985504150391e+01 3.515548087307251990e-06 1.639502988837193698e-05 5.973173756501637399e-06 -2.318366796316695400e-06
4.101000000000000000e+03 6.182801246643066406e+00 1.521345043182373047e+01 1.839338210629648529e-06 1.454754419683013111e-05 4.916064881399506703e-06 -1.834244926612882409e-06
4.102000000000000000e+03 5.292884826660156250e+00 -1.069810676574707031e+01 1.730767835397273302e-04 1.178655475086998194e-05 5.545900057768449187e-05 3.015764195879455656e-05
4.103000000000000000e+03 5.532339572906494141e+00 1.753220367431640625e+01 4.832707872992614284e-06 1.667529613769147545e-05 6.452401066781021655e-06 -3.415415676499833353e-06
4.104000000000000000e+03 2.958144950866699219e+01 -1.150371265411376953e+01 -1.378281240249634720e-06 -5.283930022415006533e-07 -5.720022500099730678e-07 1.910741730171139352e-06
4.105000000000000000e+03 7.263262176513671875e+01 3.210208892822265625e+01 -7.716377265751361847e-03 1.200261473655700684e+00 3.577635288238525391e-01 3.190893828868865967e-01
4.106000000000000000e+03 5.739691257476806641e+00 2.693192672729492188e+01 2.653702176758088171e-05 8.195730515581090003e-06 1.041982613969594240e-05 1.084764335246291012e-05
4.107000000000000000e+03 5.477503776550292969e+00 2.463219833374023438e+01 -2.497589230188168585e-05 2.041069456026889384e-05 -1.369559527120145503e-06 -6.342673259496223181e-06
4.108000000000000000e+03 7.419615173339843750e+01 4.114552974700927734e+00 1.882682144641876221e-01 1.350851893424987793e+00 4.617360234260559082e-01 -8.331905119121074677e-03
4.109000000000000000e+03 7.385664367675781250e+01 1.335682106018066406e+01 -8.300006389617919922e-02 1.503048777580261230e+00 4.260146021842956543e-01 -3.691059350967407227e-02
4.110000000000000000e+03 7.490154266357421875e+01 5.229688644409179688e+00 1.469032019376754761e-01 7.391155958175659180e-01 2.658056616783142090e-01 3.018614277243614197e-02
4.111000000000000000e+03 7.452430725097656250e+01 4.774276733398437500e+00 2.001102119684219360e-01 1.117703437805175781e+00 3.953440785408020020e-01 -5.353055428713560104e-03
4.112000000000000000e+03 4.703150558471679688e+01 -2.710304832458496094e+01 2.116364985704421997e-01 -7.328981161117553711e-01 -1.563784927129745483e-01 -1.039942264556884766e+00
4.113000000000000000e+03 5.494265556335449219e+00 2.397046279907226562e+01 1.242655889654997736e-05 -2.665082661224005278e-07 3.648015308499452658e-06 1.727289418340660632e-05
4.114000000000000000e+03 7.666593074798583984e+00 -3.238359451293945312e+01 1.996739301830530167e-03 6.379203405231237411e-04 7.903978694230318069e-04 1.806639600545167923e-03
4.115000000000000000e+03 3.300610351562500000e+01 -1.361042022705078125e+01 -3.598182729547261260e-06 -4.309395151835815341e-08 -1.092383058676205110e-06 -1.757295308379980270e-06
4.116000000000000000e+03 7.419902038574218750e+01 6.110223293304443359e+00 1.538179218769073486e-01 1.391390562057495117e+00 4.635625481605529785e-01 5.994210392236709595e-02
4.117000000000000000e+03 5.092466354370117188e+00 -6.957814693450927734e+00 1.040642528096213937e-04 -2.197777803303324617e-06 3.055994238820858300e-05 -2.051014780590776354e-05
4.118000000000000000e+03 6.920539093017578125e+01 -1.766819000244140625e+01 -2.553841173648834229e-01 7.020449638366699219e-01 1.339982599020004272e-01 3.516418635845184326e-01
4.119000000000000000e+03 4.452309036254882812e+01 -1.442233943939208984e+01 8.431285095866769552e-06 -3.501750711620843504e-07 2.424332933514961042e-06 3.182653699695947580e-06
4.120000000000000000e+03 4.454505920410156250e+01 -1.372699069976806641e+01 -7.762158020341303200e-06 -2.061577333734021522e-06 -2.947120719909435138e-06 -3.826353349722921848e-06
4.121000000000000000e+03 6.641054630279541016e+00 -6.539438724517822266e+00 -1.085548574337735772e-04 4.173316483502276242e-05 -2.004650741582736373e-05 5.011198300053365529e-05
4.122000000000000000e+03 6.892429351806640625e+01 -1.177312088012695312e+01 -1.148176118731498718e-01 1.327963471412658691e+00 3.639437556266784668e-01 1.331049054861068726e-01
4.123000000000000000e+03 4.010408020019531250e+01 4.223415851593017578e+00 -4.534071558737196028e-05 1.943078314070589840e-05 -7.772979188302997500e-06 -2.289105395902879536e-05
4.124000000000000000e+03 4.028627395629882812e+01 2.516801118850708008e+00 2.802040580718312413e-05 9.907325875246897340e-06 1.137831986852688715e-05 2.891076110245194286e-05
4.125000000000000000e+03 7.342362976074218750e+01 3.375094604492187500e+01 -1.227957457304000854e-01 7.791363000869750977e-01 1.969021558761596680e-01 3.676564097404479980e-01
4.126000000000000000e+03 6.821891784667968750e+01 -1.186306667327880859e+01 -9.962611645460128784e-02 1.377450704574584961e+00 3.833473920822143555e-01 2.052124589681625366e-01
4.127000000000000000e+03 7.857636928558349609e+00 7.911256313323974609e+00 -1.218078796227928251e-05 6.246391876629786566e-06 -1.780318825694848783e-06 -9.685797976999310777e-07
4.128000000000000000e+03 8.375746726989746094e+00 7.267609119415283203e+00 7.684332558710593730e-06 1.168138078355696052e-05 5.809713911730796099e-06 -2.204809788963757455e-05
4.129000000000000000e+03 5.951796531677246094e+00 -3.521445465087890625e+01 1.094897816074080765e-04 9.395263623446226120e-04 3.147048410028219223e-04 1.608138205483555794e-03
4.130000000000000000e+03 7.624357223510742188e+00 -3.385057830810546875e+01 2.162727760151028633e-03 6.918481085449457169e-04 8.563727606087923050e-04 1.844532787799835205e-03
4.131000000000000000e+03 3.889978790283203125e+01 1.712007522583007812e+01 1.587053702678531408e-04 -1.335457000095630065e-06 4.721097502624616027e-05 2.736573333095293492e-05
4.132000000000000000e+03 3.786880111694335938e+01 1.522556400299072266e+01 -1.096006453735753894e-04 6.083368589315796271e-06 -3.105518408119678497e-05 -5.566049821936758235e-06
4.133000000000000000e+03 7.207519531250000000e+01 -6.281080245971679688e+00 3.319252282381057739e-02 1.484622716903686523e+00 4.553445875644683838e-01 -1.145232692360877991e-01
4.134000000000000000e+03 4.520133972167968750e+01 -1.448518753051757812e+01 -7.933844244689680636e-06 1.024266566673759371e-06 -2.072873257930041291e-06 -1.718172711662191432e-06
4.135000000000000000e+03 7.110514640808105469e+00 -3.147008514404296875e+01 4.405248619150370359e-04 -4.399555327836424112e-04 1.707934558226043009e-07 -1.458576753066154197e-05
4.136000000000000000e+03 6.876858234405517578e+00 -3.002160835266113281e+01 1.050125691108405590e-03 -1.234516530530527234e-04 2.780022332444787025e-04 -2.818504071910865605e-06
4.137000000000000000e+03 4.763673019409179688e+01 -1.382127475738525391e+01 4.353312306193402037e-06 -3.695370651257690042e-06 1.973824623746622819e-07 -1.874513372968067415e-06
4.138000000000000000e+03 7.786229610443115234e+00 -6.683260440826416016e+00 -1.375837291561765596e-05 1.070055350282927975e-05 -9.173457442557264585e-07 8.049864845816046000e-05
4.139000000000000000e+03 9.002707481384277344e+00 -5.919076919555664062e+00 9.222463268088176847e-05 -2.177348051191074774e-06 2.701418452488724142e-05 1.588203667779453099e-05
4.140000000000000000e+03 4.434750747680664062e+01 -9.119136810302734375e+00 -6.104887688707094640e-06 -1.028521728585474193e-05 -4.917031674267491326e-06 -4.423351128934882581e-06
4.141000000000000000e+03 3.787169647216796875e+01 1.424912071228027344e+01 1.097256827051751316e-04 1.230371822202869225e-06 3.328681486891582608e-05 3.368628313182853162e-05
4.142000000000000000e+03 3.610762023925781250e+01 1.313559150695800781e+01 -6.350266630761325359e-05 -1.429266558261588216e-05 -2.333859993086662143e-05 1.121235618484206498e-05
4.143000000000000000e+03 7.394325256347656250e+01 -8.841364860534667969e+00 -5.669075995683670044e-02 5.579531788825988770e-01 1.503787338733673096e-01 -3.448548614978790283e-01
4.144000000000000000e+03 7.062795257568359375e+01 -9.640350341796875000e+00 -4.660322517156600952e-02 1.354661345481872559e+00 3.924174308776855469e-01 -8.763113059103488922e-03
4.145000000000000000e+03 7.256362915039062500e+01 -2.678915023803710938e+00 1.551999598741531372e-01 1.889925241470336914e+00 6.135375499725341797e-01 -1.079027056694030762e-01
4.146000000000000000e+03 7.393347930908203125e+01 5.732266902923583984e-01 2.549434304237365723e-01 1.349030375480651855e+00 4.811921417713165283e-01 -1.564282327890396118e-01
4.147000000000000000e+03 7.385559844970703125e+01 2.265614509582519531e+01 1.724691241979598999e-01 1.454303979873657227e+00 4.880319237709045410e-01 2.670329413376748562e-04
4.148000000000000000e+03 7.560259342193603516e+00 -1.448009967803955078e+01 1.763806940289214253e-04 1.434468285879120231e-04 9.594825678505003452e-05 9.980061440728604794e-05
4.149000000000000000e+03 7.405884552001953125e+01 3.283823013305664062e+00 2.427406460046768188e-01 1.447637677192687988e+00 5.071134567260742188e-01 -3.331561386585235596e-02
4.150000000000000000e+03 3.835023880004882812e+01 9.469397544860839844e+00 -7.025354716461151838e-05 1.606149089639075100e-05 -1.625761615287046880e-05 -5.316571787261636928e-06
4.151000000000000000e+03 3.854537200927734375e+01 8.544221878051757812e+00 7.658274989807978272e-05 1.317727856076089665e-05 2.692800808290485293e-05 4.290117431082762778e-05
4.152000000000000000e+03 1.694124984741210938e+01 4.753279209136962891e+00 1.237157266587018967e-05 -9.189236152451485395e-06 9.547010222377139144e-07 1.485754978602926712e-06
4.153000000000000000e+03 7.041081237792968750e+01 -1.080317592620849609e+01 -9.454084932804107666e-02 1.247077107429504395e+00 3.457608520984649658e-01 -1.781894080340862274e-02
4.154000000000000000e+03 4.261177444458007812e+01 -1.481274700164794922e+01 -2.557033212724491023e-06 -3.617298489189124666e-06 -1.852299533311452251e-06 -1.057268377735454123e-06
4.155000000000000000e+03 6.738368988037109375e+01 -1.697094726562500000e+01 -4.989445507526397705e-01 1.089408278465270996e+00 1.771391034126281738e-01 4.940253198146820068e-01
4.156000000000000000e+03 1.428149032592773438e+01 -9.842540740966796875e+00 -2.667397893674205989e-05 1.525008519820403308e-05 -3.427168167036143132e-06 4.826351505471393466e-05
4.157000000000000000e+03 1.496792697906494141e+01 -1.055334949493408203e+01 4.242211798555217683e-05 1.035068562487140298e-04 4.377869117888621986e-05 5.970345955574885011e-05
4.158000000000000000e+03 9.958732604980468750e+00 -1.279463577270507812e+01 -1.591916807228699327e-04 -1.042056028381921351e-04 -7.901918434072285891e-05 2.942517130577471107e-05
4.159000000000000000e+03 9.063170433044433594e+00 -1.208695602416992188e+01 -2.131167639163322747e-05 1.759095757734030485e-04 4.637936945073306561e-05 1.209723268402740359e-05
4.160000000000000000e+03 7.218627929687500000e+01 -8.092850685119628906e+00 -3.498605266213417053e-02 1.182225227355957031e+00 3.441717624664306641e-01 -1.816522926092147827e-01
4.161000000000000000e+03 1.854159355163574219e+01 3.297194480895996094e+00 8.652457950120151509e-07 -8.204629921237938106e-06 -2.201815277658170089e-06 1.321387230746040586e-06
4.162000000000000000e+03 2.814607048034667969e+01 -6.873391628265380859e+00 7.613147772644879296e-06 -1.524858021184627432e-06 1.826486823119921610e-06 -2.663931866209168220e-07
4.163000000000000000e+03 2.898974037170410156e+01 -8.418855667114257812e+00 5.651342235069023445e-06 -2.002944256673799828e-06 1.094519348043831997e-06 -2.182627980573670357e-07
4.164000000000000000e+03 4.599598312377929688e+01 -1.382044982910156250e+01 -8.901815817807801068e-06 2.612099251564359292e-06 -1.886914901660929900e-06 -9.321024094788299408e-07
4.165000000000000000e+03 4.524307632446289062e+01 -1.372250175476074219e+01 9.363427125208545476e-06 3.851751273487025173e-07 2.924580712715396658e-06 3.575397840904770419e-06
4.166000000000000000e+03 4.592027282714843750e+01 -9.232654571533203125e+00 1.507256547483848408e-05 5.948124453425407410e-06 6.306207069428637624e-06 5.447131570690544322e-06
4.167000000000000000e+03 6.877484893798828125e+01 -1.828195381164550781e+01 -1.925339102745056152e-01 6.667766571044921875e-01 1.422728151082992554e-01 4.667261540889739990e-01
4.168000000000000000e+03 7.243962097167968750e+01 -5.491416931152343750e+00 4.268525913357734680e-02 1.466104626655578613e+00 4.526369869709014893e-01 -1.564674675464630127e-01
4.169000000000000000e+03 7.419301605224609375e+01 -4.462839126586914062e+00 4.577487334609031677e-02 7.931368350982666016e-01 2.516734898090362549e-01 -3.401543498039245605e-01
4.170000000000000000e+03 3.766799545288085938e+01 -1.433131027221679688e+01 -4.890848231298150495e-06 -1.390396732858789619e-06 -1.884373546090500895e-06 -8.023788495847838931e-07
4.171000000000000000e+03 3.530145263671875000e+01 -1.345335960388183594e+01 -6.732402198394993320e-06 -1.308449782300158404e-06 -2.412255525996442884e-06 -4.047649781568907201e-06
4.172000000000000000e+03 5.881001949310302734e+00 -2.265390396118164062e+01 2.825888223014771938e-04 -1.793773117242380977e-04 3.096345608355477452e-05 -6.267783464863896370e-05
4.173000000000000000e+03 3.799071121215820312e+01 1.716143035888671875e+01 -1.384108327329158783e-04 -1.759492624842096120e-05 -4.680172423832118511e-05 -2.689935899979900569e-05
4.174000000000000000e+03 2.440525245666503906e+01 -2.741296291351318359e+00 1.212257848237641156e-05 -1.118540785682853311e-05 2.811510455558163812e-07 6.189373493725724984e-07
4.175000000000000000e+03 4.334029388427734375e+01 -3.526364326477050781e+00 2.655413118191063404e-05 1.024483390210662037e-05 1.103968952520517632e-05 -8.887298463378101587e-06
4.176000000000000000e+03 2.429275894165039062e+01 -1.559465885162353516e+00 1.154425626737065613e-05 -1.309882281930185854e-05 -4.663700110540958121e-07 1.914632321131648496e-06
4.177000000000000000e+03 3.847151565551757812e+01 2.005645561218261719e+01 1.877041358966380358e-04 -4.918549529975280166e-05 4.155559145146980882e-05 -3.914408080163411796e-05
4.178000000000000000e+03 2.415285873413085938e+01 -3.693911731243133545e-01 1.028172209771582857e-05 -1.514875566499540582e-05 -1.460110070183873177e-06 3.205646635251468979e-06
4.179000000000000000e+03 7.249826812744140625e+01 -7.352002620697021484e+00 -1.854412443935871124e-02 1.186620593070983887e+00 3.504229187965393066e-01 -2.085019499063491821e-01
4.180000000000000000e+03 3.934045791625976562e+01 5.848906040191650391e+00 -5.221550964051857591e-05 6.619535724894376472e-06 -1.367879212921252474e-05 -1.092280126613331959e-05
4.181000000000000000e+03 7.385467529296875000e+01 1.506596183776855469e+01 -5.662439856678247452e-03 1.482716441154479980e+00 4.431161880493164062e-01 -3.506429865956306458e-02
4.182000000000000000e+03 7.408813476562500000e+01 -1.073007678985595703e+01 -9.404104202985763550e-02 4.249402582645416260e-01 9.926976263523101807e-02 -3.320100903511047363e-01
4.183000000000000000e+03 6.817702484130859375e+01 -1.330392360687255859e+01 -2.607519924640655518e-01 1.236861944198608398e+00 2.928329706192016602e-01 1.728883087635040283e-01
4.184000000000000000e+03 7.286591339111328125e+01 -4.642077922821044922e+00 5.888875201344490051e-02 1.403571605682373047e+00 4.387381076812744141e-01 -2.042932361364364624e-01
4.185000000000000000e+03 3.699016189575195312e+01 2.319590377807617188e+01 -3.329380415380001068e-04 1.356447319267317653e-04 -5.918799070059321821e-05 7.555422143923351541e-06
4.186000000000000000e+03 7.407270050048828125e+01 2.342329216003417969e+01 1.654214709997177124e-01 1.226925134658813477e+00 4.177039861679077148e-01 5.724098160862922668e-02
4.187000000000000000e+03 2.718423461914062500e+01 -5.306711673736572266e+00 9.358507668366655707e-06 -7.017621328486711718e-07 2.597023694761446677e-06 -2.966426677630806807e-07
4.188000000000000000e+03 3.698516464233398438e+01 1.418921756744384766e+01 -8.233361586462706327e-05 -6.561008831340586767e-06 -2.666838736331555992e-05 -5.320537184161366895e-06
4.189000000000000000e+03 5.308371734619140625e+01 -2.667378234863281250e+01 1.913520216941833496e+00 1.132924437522888184e+00 9.139333963394165039e-01 -6.781920790672302246e-02
4.190000000000000000e+03 7.231411743164062500e+01 -1.915341186523437500e+01 -1.050849407911300659e-01 2.164964824914932251e-01 3.342346101999282837e-02 -2.742949128150939941e-02
4.191000000000000000e+03 1.600567245483398438e+01 3.919863700866699219e+00 2.712995183173916303e-06 -4.417303443915443495e-06 -5.112925123285094742e-07 -4.111239832127466798e-06
4.192000000000000000e+03 3.790291213989257812e+01 1.619999504089355469e+01 1.142189139500260353e-04 -2.634540351209579967e-06 3.347531310282647610e-05 2.096430034725926816e-05
4.193000000000000000e+03 3.984748077392578125e+01 3.100044727325439453e+00 -1.087790951714850962e-05 1.031653573591029271e-05 -1.684121571088326164e-07 -1.576711292727850378e-05
4.194000000000000000e+03 7.400958251953125000e+01 -1.986237645149230957e+00 1.681224852800369263e-01 1.118719696998596191e+00 3.860526382923126221e-01 -2.629989683628082275e-01
4.195000000000000000e+03 1.963463973999023438e+01 1.673867464065551758e+00 1.910402716021053493e-05 3.762830829145968892e-06 6.860057055746437982e-06 -9.764556125446688384e-06
4.196000000000000000e+03 1.775530624389648438e+01 3.811069250106811523e+00 2.078563557006418705e-05 3.538379587553208694e-06 7.297204319911543280e-06 -1.099871406040620059e-05
4.197000000000000000e+03 7.444867706298828125e+01 3.072423362731933594e+01 6.904264539480209351e-02 5.582017898559570312e-01 1.881733238697052002e-01 4.247496724128723145e-01
4.198000000000000000e+03 2.363420486450195312e+01 -8.547762632369995117e-01 1.507135584688512608e-05 2.306454689460224472e-06 5.213343229115707800e-06 -4.348567017586901784e-06
4.199000000000000000e+03 7.396897125244140625e+01 8.829392433166503906e+00 -2.248270437121391296e-02 1.527350306510925293e+00 4.514602720737457275e-01 1.086014285683631897e-01
4.200000000000000000e+03 2.553216934204101562e+01 -3.019494533538818359e+00 1.085919029719661921e-05 -1.109956519940169528e-05 -7.211245645066810539e-08 8.645794196127098985e-07
4.201000000000000000e+03 2.492644119262695312e+01 -2.283303022384643555e+00 1.327130121353548020e-05 1.451712932976079173e-06 4.416904175741365179e-06 -2.434840098430868238e-06
4.202000000000000000e+03 4.076690292358398438e+01 -1.548424911499023438e+01 -3.541614432833739556e-06 -2.353478066652314737e-06 -1.768527795320551377e-06 3.368211025644995971e-07
4.203000000000000000e+03 7.405149078369140625e+01 1.486290574073791504e+00 2.660589814186096191e-01 1.321153640747070312e+00 4.761637747287750244e-01 -1.131048724055290222e-01
4.204000000000000000e+03 3.879925537109375000e+01 2.698111915588378906e+01 -6.761078839190304279e-04 3.270179149694740772e-05 -1.930218131747096777e-04 2.401502570137381554e-04
4.205000000000000000e+03 6.733340263366699219e+00 -1.518627071380615234e+01 1.806835061870515347e-04 1.314564287895336747e-04 9.364198194816708565e-05 1.055327811627648771e-04
4.206000000000000000e+03 5.939305305480957031e+00 -1.515501022338867188e+01 -2.098689146805554628e-04 -1.132252073148265481e-04 -9.692823368823155761e-05 -1.212966453749686480e-04
4.207000000000000000e+03 1.133152866363525391e+01 -1.167037391662597656e+01 -1.341346360277384520e-04 -1.277194496651645750e-05 -4.407197411637753248e-05 -4.711379006039351225e-05
4.208000000000000000e+03 3.834448242187500000e+01 -1.445417404174804688e+01 6.047842362022493035e-06 1.735137175273848698e-06 2.334893906663637608e-06 1.142377186624798924e-06
4.209000000000000000e+03 2.006236839294433594e+01 2.241360664367675781e+00 4.407564574648858979e-06 -1.083403276425087824e-05 -1.927940274981665425e-06 3.210736167602590285e-06
4.210000000000000000e+03 7.174796295166015625e+01 3.603282165527343750e+01 -2.744553089141845703e-01 9.993823766708374023e-01 2.174781262874603271e-01 1.911357343196868896e-01
4.211000000000000000e+03 1.591154384613037109e+01 4.892930984497070312e+00 4.358041223895270377e-06 -7.698906301811803132e-06 -1.002259523374959826e-06 -9.828377187659498304e-07
4.212000000000000000e+03 6.398334503173828125e+00 -3.303576278686523438e+01 1.825125305913388729e-03 3.865108010359108448e-04 6.634908495470881462e-04 6.103256600908935070e-04
4.213000000000000000e+03 2.274916839599609375e+01 1.003385782241821289e+00 8.495926522300578654e-06 -1.570532913319766521e-05 -2.162821147067006677e-06 4.354260909167351201e-06
4.214000000000000000e+03 2.108239746093750000e+01 5.496760010719299316e-01 1.758519647410139441e-05 3.541983232935308479e-06 6.338153525575762615e-06 -8.178248208423610777e-06
4.215000000000000000e+03 3.838965225219726562e+01 2.557213592529296875e+01 -2.718849573284387589e-04 4.198845635983161628e-05 -6.896894774399697781e-05 -1.607132144272327423e-04
4.216000000000000000e+03 7.358378601074218750e+01 2.653186416625976562e+01 2.784029543399810791e-01 1.346295833587646484e+00 4.874096214771270752e-01 1.505156159400939941e-01
4.217000000000000000e+03 4.458917617797851562e+01 -2.568810224533081055e+00 -1.056662495102500543e-05 2.619337647047359496e-05 4.688025455834576860e-06 1.721499029372353107e-05
4.218000000000000000e+03 4.407077407836914062e+01 -8.348416686058044434e-01 3.979133907705545425e-05 2.338423655601218343e-05 1.895267268992029130e-05 2.183739343308843672e-05
4.219000000000000000e+03 5.150050735473632812e+01 -3.045407104492187500e+01 1.469125390052795410e+00 1.054135084152221680e+00 7.569781541824340820e-01 5.073378682136535645e-01
4.220000000000000000e+03 5.170386886596679688e+01 -2.715354919433593750e+01 1.524697422981262207e+00 4.391228258609771729e-01 5.891460776329040527e-01 -3.685463666915893555e-01
4.221000000000000000e+03 4.901836395263671875e+01 -3.351789093017578125e+01 5.681155323982238770e-01 3.870462179183959961e-01 2.865485250949859619e-01 5.815835595130920410e-01
4.222000000000000000e+03 6.257374286651611328e+00 -1.751269531250000000e+01 6.894925900269299746e-05 -1.264114398509263992e-04 -1.723865352687425911e-05 -2.450968313496559858e-04
4.223000000000000000e+03 7.324026107788085938e+00 1.225787639617919922e+01 -1.672535654506646097e-05 1.016501482808962464e-05 -1.968102424143580720e-06 -5.503003649209858850e-06
4.224000000000000000e+03 7.363961791992187500e+01 -2.094394302368164062e+01 -1.221114695072174072e-01 9.875948727130889893e-02 -7.005595602095127106e-03 -7.428688555955886841e-02
4.225000000000000000e+03 4.662741470336914062e+01 -1.264588165283203125e+01 -1.116238126996904612e-05 7.170220669650007039e-06 -1.197648316519916989e-06 2.294093974342104048e-06
4.226000000000000000e+03 8.508721351623535156e+00 -5.798201560974121094e+00 -6.032971941749565303e-05 -1.408715434081386775e-05 -2.232506267318967730e-05 8.521506970282644033e-06
4.227000000000000000e+03 1.433391952514648438e+01 6.405747413635253906e+00 1.248106673301663250e-05 9.402236173627898097e-06 6.564991053892299533e-06 -1.916458859341219068e-05
4.228000000000000000e+03 1.430961132049560547e+01 5.294612407684326172e+00 1.123647325584897771e-05 1.107252683141268790e-05 6.692700026178499684e-06 -1.778319165168795735e-05
4.229000000000000000e+03 4.826460647583007812e+01 -2.987155342102050781e+01 6.930490732192993164e-01 -2.425190657377243042e-01 1.351590007543563843e-01 -1.876918673515319824e-01
4.230000000000000000e+03 5.244398880004882812e+01 -2.808223533630371094e+01 1.907295107841491699e+00 1.103738307952880859e+00 9.033100605010986328e-01 6.969646364450454712e-02
4.231000000000000000e+03 4.623638153076171875e+01 -3.062644004821777344e+01 1.765013933181762695e-01 -6.517717242240905762e-01 -1.425810903310775757e-01 -1.445483416318893433e-01
4.232000000000000000e+03 3.709775924682617188e+01 1.221479701995849609e+01 -7.224755245260894299e-05 2.954713409053510986e-06 -2.078785291814710945e-05 4.293342499295249581e-06
4.233000000000000000e+03 3.807839965820312500e+01 2.313810920715332031e+01 -6.153956201160326600e-05 -8.212038665078580379e-05 -4.309798532631248236e-05 -1.208665053127333522e-04
4.234000000000000000e+03 7.366620635986328125e+01 2.200230598449707031e+01 1.165150031447410583e-01 1.598400592803955078e+00 5.144746899604797363e-01 -7.541813421994447708e-03
4.235000000000000000e+03 4.187464523315429688e+01 2.893951225280761719e+01 -1.321960124187171459e-03 5.779488710686564445e-04 -2.232033584732562304e-04 -9.447862248634919524e-05
4.236000000000000000e+03 1.008250713348388672e+01 -1.220261096954345703e+01 1.565473066875711083e-04 4.430979242897592485e-05 6.025713082635775208e-05 -5.863007754669524729e-05
4.237000000000000000e+03 1.198832130432128906e+01 -1.157856655120849609e+01 5.987071563140489161e-05 2.331649739062413573e-05 2.495616354281082749e-05 5.387327837524935603e-05
4.238000000000000000e+03 3.904041290283203125e+01 6.729981899261474609e+00 6.173246947582811117e-05 1.831558620324358344e-05 2.401441633992362767e-05 3.984717113780789077e-05
4.239000000000000000e+03 3.926255416870117188e+01 3.769251823425292969e+00 1.222572609549388289e-05 2.571623781477683224e-06 4.439204985828837380e-06 4.035562233184464276e-05
4.240000000000000000e+03 3.389945602416992188e+01 -1.332129859924316406e+01 -5.279761353449430317e-06 -1.609779815225920174e-06 -2.066862407446024008e-06 -3.944167474401183426e-06
4.241000000000000000e+03 3.337656021118164062e+01 -1.307217884063720703e+01 6.577206477231811732e-06 4.704710079295182368e-07 2.114303242706228048e-06 3.040960791622637771e-06
4.242000000000000000e+03 7.268344879150390625e+01 2.795281028747558594e+01 3.258945643901824951e-01 1.743067264556884766e+00 6.206885576248168945e-01 1.294250637292861938e-01
4.243000000000000000e+03 3.720380020141601562e+01 1.123742008209228516e+01 8.556814282201230526e-05 -9.119718242800445296e-07 2.539685192459728569e-05 3.390231358935125172e-05
4.244000000000000000e+03 6.151333332061767578e+00 -2.209499931335449219e+01 -3.821001737378537655e-04 1.636617816984653473e-04 -6.553152343258261681e-05 3.073781408602371812e-05
4.245000000000000000e+03 5.685796260833740234e+00 -2.177623176574707031e+01 1.120770684792660177e-05 -2.525844902265816927e-04 -7.241302955662831664e-05 -2.586487971711903811e-05
4.246000000000000000e+03 1.375478363037109375e+01 6.882779598236083984e+00 -5.880523531232029200e-06 -5.023277935833903030e-06 -3.271140258220839314e-06 -7.122109195734083187e-07
4.247000000000000000e+03 2.036558914184570312e+01 1.125639915466308594e+00 8.375501238333526999e-06 -1.019815772451693192e-05 -5.467970254358078819e-07 2.634541715451632626e-06
4.248000000000000000e+03 7.474185180664062500e+01 3.142971611022949219e+01 1.389105990529060364e-02 4.168120920658111572e-01 1.292109489440917969e-01 4.521897137165069580e-01
4.249000000000000000e+03 7.277392578125000000e+01 3.096241378784179688e+01 9.449575841426849365e-02 1.289049148559570312e+00 4.150634407997131348e-01 3.025749027729034424e-01
4.250000000000000000e+03 7.416927337646484375e+01 3.728610992431640625e+01 -2.224278599023818970e-01 4.629850983619689941e-01 7.216717302799224854e-02 2.654303312301635742e-01
4.251000000000000000e+03 6.792397022247314453e+00 -3.411637878417968750e+01 -2.257736487081274390e-04 6.460442091338336468e-04 1.260811550309881568e-04 1.915980363264679909e-03
4.252000000000000000e+03 7.346737670898437500e+01 -3.441415786743164062e+01 -1.697664521634578705e-02 2.170589286834001541e-03 -4.441816825419664383e-03 2.016529440879821777e-02
4.253000000000000000e+03 7.269567871093750000e+01 -3.501723861694335938e+01 -1.604960858821868896e-02 6.951435469090938568e-03 -2.729451982304453850e-03 1.982447318732738495e-02
4.254000000000000000e+03 4.253548049926757812e+01 3.513087844848632812e+01 -8.325154194608330727e-04 -3.838099364656955004e-04 -3.648975980468094349e-04 2.295392099767923355e-03
4.255000000000000000e+03 7.013342285156250000e+01 -4.045690917968750000e+01 4.308232665061950684e-02 -4.130439367145299911e-03 1.168556697666645050e-02 3.144644945859909058e-02
4.256000000000000000e+03 7.127117156982421875e+00 3.361150741577148438e+01 -4.793875177711015567e-06 1.003593297355109826e-07 -1.408054799867386464e-06 -2.144279824278783053e-05
4.257000000000000000e+03 8.274490356445312500e+00 -3.524122619628906250e+01 -5.649636732414364815e-04 8.792112348601222038e-04 9.427428449271246791e-05 1.791610731743276119e-03
4.258000000000000000e+03 2.117632675170898438e+01 -3.914150238037109375e+01 -1.789917610585689545e-02 3.836600575596094131e-03 -4.218772519379854202e-03 8.034277707338333130e-03
4.259000000000000000e+03 1.182775974273681641e+01 -3.599163436889648438e+01 -1.324938348261639476e-04 2.386623295024037361e-03 6.762388511560857296e-04 5.346239544451236725e-03
4.260000000000000000e+03 1.124311351776123047e+01 -3.786314010620117188e+01 -2.766677876934409142e-03 3.337448230013251305e-03 1.712310768198221922e-04 2.406868617981672287e-03
4.261000000000000000e+03 4.257192611694335938e+01 -4.142698287963867188e+01 4.185643196105957031e-01 -5.505523085594177246e-01 -3.959640488028526306e-02 -9.261013939976692200e-03
4.262000000000000000e+03 5.009801864624023438e+01 -3.367121124267578125e+01 5.839709639549255371e-01 7.907614111900329590e-01 4.124197065830230713e-01 6.793505549430847168e-01
4.263000000000000000e+03 4.227714157104492188e+01 3.245353698730468750e+01 -1.921633491292595863e-03 9.213826851919293404e-04 -3.000752185471355915e-04 1.017634524032473564e-03
4.264000000000000000e+03 7.296439361572265625e+01 -4.160041046142578125e+01 3.599671646952629089e-02 -2.471203729510307312e-02 3.385403426364064217e-03 1.152104698121547699e-02
4.265000000000000000e+03 5.544285774230957031e+00 -3.810179519653320312e+01 -1.399839180521667004e-03 1.929922960698604584e-03 1.590251340530812740e-04 9.673782042227685452e-04
4.266000000000000000e+03 9.422401428222656250e+00 -3.670675659179687500e+01 5.914453649893403053e-04 2.301109256222844124e-03 8.677663863636553288e-04 3.021008335053920746e-03
4.267000000000000000e+03 1.761367607116699219e+01 -4.127568817138671875e+01 -1.342255435883998871e-02 7.976063527166843414e-03 -1.633947365917265415e-03 4.480262752622365952e-03
4.268000000000000000e+03 2.193428421020507812e+01 -4.132337570190429688e+01 -2.145858854055404663e-02 -4.134348593652248383e-03 -7.677881047129631042e-03 -7.953786407597362995e-04
4.269000000000000000e+03 7.434697723388671875e+01 3.633415985107421875e+01 -1.902972161769866943e-01 4.452923238277435303e-01 7.649853825569152832e-02 3.505971133708953857e-01
4.270000000000000000e+03 4.236876296997070312e+01 4.108824539184570312e+01 3.201525658369064331e-03 -2.734734443947672844e-03 1.400373876094818115e-04 1.289882580749690533e-03
4.271000000000000000e+03 4.240589141845703125e+01 3.816852569580078125e+01 1.663418137468397617e-03 -8.303081849589943886e-04 2.499329857528209686e-04 2.043707761913537979e-03
4.272000000000000000e+03 3.148884582519531250e+01 -3.876234436035156250e+01 -3.803968429565429688e-03 -1.510279029607772827e-01 -4.644956439733505249e-02 -8.286810666322708130e-02
4.273000000000000000e+03 2.866073608398437500e+01 -3.894179153442382812e+01 -1.436374522745609283e-02 -8.164009451866149902e-02 -2.880115248262882233e-02 -1.792206615209579468e-02
4.274000000000000000e+03 3.065262985229492188e+01 -1.017868232727050781e+01 -2.417243649688316509e-06 -1.448245484425569884e-06 -1.159646672022063285e-06 -2.654406671354081482e-06
4.275000000000000000e+03 3.164787483215332031e+01 -1.256112480163574219e+01 5.594249614659929648e-06 1.308235709984728601e-06 2.070745495075243525e-06 -2.903247491303773131e-07
4.276000000000000000e+03 5.053508377075195312e+01 -2.716062355041503906e+01 1.191462278366088867e+00 2.045438811182975769e-02 3.635750114917755127e-01 -6.131512522697448730e-01
4.277000000000000000e+03 7.465148162841796875e+01 2.493699073791503906e+00 2.138012647628784180e-01 9.275883436203002930e-01 3.424168825149536133e-01 -9.323289245367050171e-02
4.278000000000000000e+03 4.716687393188476562e+01 -2.840395927429199219e+01 3.183165192604064941e-01 -6.248274445533752441e-01 -9.195327758789062500e-02 -7.018036842346191406e-01
4.279000000000000000e+03 7.443929290771484375e+01 2.884175109863281250e+01 1.898928582668304443e-01 6.756224036216735840e-01 2.596545815467834473e-01 3.484844565391540527e-01
4.280000000000000000e+03 4.911417007446289062e+01 -2.792269897460937500e+01 8.350336551666259766e-01 -3.063363730907440186e-01 1.586091965436935425e-01 -6.306502223014831543e-01
4.281000000000000000e+03 4.393561553955078125e+01 -5.104158878326416016e+00 -1.840881304815411568e-05 -1.441978020011447370e-05 -9.848577974480576813e-06 -1.530680265204864554e-06
4.282000000000000000e+03 4.339535903930664062e+01 -1.356865406036376953e+00 3.187364927725866437e-05 1.805107785912696272e-05 1.497741777711780742e-05 -1.454377297704922967e-06
4.283000000000000000e+03 1.218256282806396484e+01 -7.648485183715820312e+00 2.621422390802763402e-05 4.096378688700497150e-05 2.015340214711613953e-05 -1.725679794617462903e-05
4.284000000000000000e+03 1.281391048431396484e+01 -1.068062305450439453e+01 -3.908788130502216518e-05 -1.086622651200741529e-04 -4.432504283613525331e-05 1.557444920763373375e-05
4.285000000000000000e+03 4.192127227783203125e+01 5.159261822700500488e-02 -1.139870073529891670e-05 1.695510491117602214e-06 -2.910956936830189079e-06 2.648900044732727110e-05
4.286000000000000000e+03 4.151398468017578125e+01 3.553346991539001465e-01 -3.636063775047659874e-05 -8.021510438993573189e-06 -1.331464409304317087e-05 1.106350100599229336e-05
4.287000000000000000e+03 6.779549407958984375e+01 -1.843600845336914062e+01 -2.494392842054367065e-01 8.361870050430297852e-01 1.760243177413940430e-01 6.478456854820251465e-01
4.288000000000000000e+03 5.034746551513671875e+01 -2.779860305786132812e+01 1.210278749465942383e+00 5.267687886953353882e-02 3.788866996765136719e-01 -4.769598245620727539e-01
4.289000000000000000e+03 4.977272415161132812e+01 -2.709903907775878906e+01 9.053322076797485352e-01 -2.742805182933807373e-01 1.893155127763748169e-01 -8.016259074211120605e-01
4.290000000000000000e+03 4.667726898193359375e+01 -1.400266456604003906e+01 8.835763765091542155e-06 -4.826463282370241359e-06 1.202790144816390239e-06 -1.060814952325017657e-06
4.291000000000000000e+03 4.978234481811523438e+01 -2.774054718017578125e+01 1.055444359779357910e+00 -1.270846724510192871e-01 2.785079181194305420e-01 -5.494905710220336914e-01
4.292000000000000000e+03 1.241135501861572266e+01 -7.195745944976806641e+00 -5.173714089323766530e-05 -2.636921453813556582e-05 -2.343190681131090969e-05 3.635669543200492626e-07
4.293000000000000000e+03 1.079738521575927734e+01 -6.936878204345703125e+00 -3.064872726099565625e-05 -5.271626287139952183e-05 -2.500949631212279201e-05 -1.154276196757564321e-05
4.294000000000000000e+03 4.541770553588867188e+01 -7.941128730773925781e+00 1.397753112541977316e-05 1.019985757011454552e-05 7.253216608660295606e-06 4.652952156902756542e-06
4.295000000000000000e+03 5.868057727813720703e+00 -9.372700691223144531e+00 -9.565683285472914577e-05 -5.527640678337775171e-05 -4.527997225522994995e-05 -4.933475429425016046e-05
4.296000000000000000e+03 6.861135101318359375e+01 -1.387960910797119141e+01 -2.935053110122680664e-01 1.157081842422485352e+00 2.590729594230651855e-01 1.426266580820083618e-01
4.297000000000000000e+03 7.397562408447265625e+01 3.284169387817382812e+01 -5.920577049255371094e-02 6.729380488395690918e-01 1.841196864843368530e-01 4.230900108814239502e-01
4.298000000000000000e+03 3.029353141784667969e+01 -9.517035484313964844e+00 5.834928742842748761e-06 -9.379446055390872061e-07 1.469095195716363378e-06 2.075463953588041477e-06
4.299000000000000000e+03 4.284802627563476562e+01 -1.173009037971496582e+00 -3.128639582428149879e-05 2.644843561938614585e-06 -8.592465746914967895e-06 7.645512596354819834e-06
4.300000000000000000e+03 4.394694900512695312e+01 -4.348429679870605469e+00 2.085496635118033737e-05 1.609113678568974137e-05 1.108383094106102362e-05 5.061722731625195593e-06
4.301000000000000000e+03 6.971990203857421875e+01 -1.804868316650390625e+01 -1.699384003877639771e-01 5.648037791252136230e-01 1.184596121311187744e-01 2.908341288566589355e-01
4.302000000000000000e+03 6.846818542480468750e+01 -1.483691120147705078e+01 -3.603923320770263672e-01 1.104429960250854492e+00 2.232113033533096313e-01 1.986898481845855713e-01
4.303000000000000000e+03 7.237874603271484375e+01 -1.857682228088378906e+01 -1.150478571653366089e-01 2.584890723228454590e-01 4.303236305713653564e-02 -2.380125224590301514e-02
4.304000000000000000e+03 6.893115997314453125e+01 -1.546452045440673828e+01 -3.604761362075805664e-01 9.906653165817260742e-01 1.890567392110824585e-01 2.119480222463607788e-01
4.305000000000000000e+03 1.381310081481933594e+01 -1.008440780639648438e+01 4.258859553374350071e-05 6.356532139761839062e-06 1.468353821110213175e-05 -5.788104681414552033e-05
4.306000000000000000e+03 4.221466827392578125e+01 -4.177868366241455078e-01 1.660220004850998521e-05 2.041781226580496877e-05 1.110600442189024761e-05 -2.149062493117526174e-05
4.307000000000000000e+03 3.798471450805664062e+01 2.118859863281250000e+01 9.065678750630468130e-05 -9.304758714279159904e-05 -7.172389473453222308e-07 -1.168276357930153608e-04
4.308000000000000000e+03 3.876070022583007812e+01 2.100484466552734375e+01 -3.506448410917073488e-04 7.575819472549483180e-05 -8.246599463745951653e-05 8.604206414020154625e-06
4.309000000000000000e+03 4.141707992553710938e+01 -1.423015213012695312e+01 4.151018401898909360e-06 3.825289695669198409e-06 2.392892383795697242e-06 3.099927141647640383e-07
4.310000000000000000e+03 3.209646224975585938e+01 -1.198181056976318359e+01 -1.357940504931320902e-06 -1.943004463100805879e-06 -9.902834108288516290e-07 6.638786658186290879e-07
4.311000000000000000e+03 2.994576835632324219e+01 -1.192283535003662109e+01 6.427201697078999132e-06 1.437689206795766950e-06 2.359467316637164913e-06 -2.170087554986821488e-06
4.312000000000000000e+03 2.937405776977539062e+01 -9.170780181884765625e+00 4.395426458358997479e-06 -9.407292509422404692e-07 1.036409116750292014e-06 -6.840798505436396226e-07
4.313000000000000000e+03 4.476998138427734375e+01 -5.786774635314941406e+00 -1.364789841318270192e-05 -1.637713830859865993e-05 -9.007510925584938377e-06 -3.940900114685064182e-06
4.314000000000000000e+03 4.921198368072509766e+00 6.442385196685791016e+00 5.310152118909172714e-06 6.274914085224736482e-06 3.475519861240172759e-06 -1.499865084042539820e-05
4.315000000000000000e+03 6.699532032012939453e+00 2.752709388732910156e+01 3.805344749707728624e-05 2.228994020470054238e-07 1.148290357377845794e-05 -1.047588375513441861e-05
4.316000000000000000e+03 3.448655319213867188e+01 -1.400407886505126953e+01 -4.092384642717661336e-06 -2.036762452917173505e-06 -1.838744196902553085e-06 -4.829958470509154722e-06
4.317000000000000000e+03 6.524590969085693359e+00 2.241932106018066406e+01 -2.640827551658730954e-05 1.429662916052620858e-05 -3.633494088717270643e-06 7.339688750107598025e-07
4.318000000000000000e+03 3.078205871582031250e+01 -1.176349925994873047e+01 7.342282060562865809e-06 2.116003315677517094e-06 2.837485453710542060e-06 -1.714613631520478521e-06
4.319000000000000000e+03 3.333368682861328125e+01 -1.226054096221923828e+01 5.036154561821604148e-06 -3.798868704052438261e-07 1.396880293214053381e-06 5.286178179630951490e-07
4.320000000000000000e+03 7.371069335937500000e+01 2.857670021057128906e+01 2.285440713167190552e-01 1.075983524322509766e+00 3.913582861423492432e-01 3.063106536865234375e-01
4.321000000000000000e+03 1.306333446502685547e+01 -1.013361835479736328e+01 6.690655573038384318e-05 6.439680873882025480e-05 3.939100861316546798e-05 -3.067560464842244983e-05
4.322000000000000000e+03 1.187005043029785156e+01 -7.983648300170898438e+00 1.381093905905572683e-08 -2.881074397009797394e-05 -8.639080078864935786e-06 5.767454058513976634e-05
4.323000000000000000e+03 3.981681823730468750e+01 2.071942806243896484e+00 1.423754747520433739e-05 3.167048271279782057e-05 1.377240823785541579e-05 1.713197707431390882e-05
4.324000000000000000e+03 2.767772483825683594e+01 -6.089123249053955078e+00 7.529625690949615091e-06 -5.014434918848564848e-06 7.545572771050501615e-07 -4.980090011486026924e-07
4.325000000000000000e+03 2.829087066650390625e+01 -4.569551944732666016e+00 1.129575321101583540e-05 -4.147807885601650923e-06 2.144383643098990433e-06 5.046289288657135330e-07
4.326000000000000000e+03 6.794392108917236328e+00 2.310243415832519531e+01 1.754940240061841905e-05 1.624832293600775301e-05 1.013931796478573233e-05 -1.447789600206306204e-05
4.327000000000000000e+03 4.368284225463867188e+01 -1.492433071136474609e+01 6.326062248263042420e-06 -1.292934484808938578e-06 1.509938442723068874e-06 2.049932390946196392e-06
4.328000000000000000e+03 4.193930816650390625e+01 -1.423975944519042969e+01 -4.556139174383133650e-06 -3.019695213879458606e-06 -2.272750407428247854e-06 -1.626961307010788005e-06
4.329000000000000000e+03 6.415443420410156250e+00 2.163122940063476562e+01 1.794699528545606881e-05 3.570936314645223320e-06 6.455379661929327995e-06 -4.083048565917124506e-07
4.330000000000000000e+03 3.696327209472656250e+01 1.519200420379638672e+01 9.128368401434272528e-05 -1.232363683811854571e-05 2.368801324337255210e-05 2.711043089220765978e-05
4.331000000000000000e+03 4.242126846313476562e+01 -1.418273830413818359e+01 4.939815426041604951e-06 3.023782255695550703e-06 2.389079327258514240e-06 1.465903324060491286e-06
4.332000000000000000e+03 2.080643081665039062e+01 1.684124946594238281e+00 1.904579039546661079e-05 3.210127943020779639e-06 6.676775683445157483e-06 -9.064669029612559825e-06
4.333000000000000000e+03 5.313527584075927734e+00 -8.589274406433105469e+00 -1.068062047124840319e-04 -3.304552228655666113e-05 -4.195551809971220791e-05 -8.357717888429760933e-06
4.334000000000000000e+03 6.222970962524414062e+00 1.601861763000488281e+01 -8.143665581883396953e-06 1.068521851266268641e-05 7.624659019711543806e-07 -1.312757285631960258e-05
4.335000000000000000e+03 4.239807510375976562e+01 -1.360622596740722656e+01 -6.519535872939741239e-06 -1.729498535496531986e-06 -2.474710299793514423e-06 -1.884183348010992631e-06
4.336000000000000000e+03 6.177070617675781250e+00 1.441744518280029297e+01 -5.047813829150982201e-06 9.509053597867023200e-06 1.338371816927974578e-06 -1.637180321267805994e-05
4.337000000000000000e+03 6.027358531951904297e+00 -8.216062545776367188e+00 -8.219380106311291456e-05 -4.228961915941908956e-05 -3.734502752195112407e-05 4.877891115029342473e-06
4.338000000000000000e+03 6.402951240539550781e+00 2.667350387573242188e+01 -2.131767905666492879e-05 -2.301991116837598383e-06 -7.085900961101287976e-06 1.878031798696611077e-05
4.339000000000000000e+03 5.683856010437011719e+00 2.543814468383789062e+01 2.282654713781084865e-05 1.147274178947554901e-05 1.028978658723644912e-05 2.117966005243943073e-06
4.340000000000000000e+03 7.402103424072265625e+01 -1.238482379913330078e+01 -1.164023280143737793e-01 3.903852403163909912e-01 8.219487220048904419e-02 -2.946237325668334961e-01
4.341000000000000000e+03 7.478443145751953125e+01 -1.090270233154296875e+01 -7.852875441312789917e-02 2.332199960947036743e-01 4.640737175941467285e-02 -3.431662321090698242e-01
4.342000000000000000e+03 7.298535919189453125e+01 -1.075011539459228516e+01 -1.095621809363365173e-01 6.978134512901306152e-01 1.764753758907318115e-01 -2.728403806686401367e-01
4.343000000000000000e+03 7.426470184326171875e+01 -1.008017730712890625e+01 -7.416155189275741577e-02 3.985798060894012451e-01 9.732547402381896973e-02 -3.481766879558563232e-01
4.344000000000000000e+03 7.477693176269531250e+01 -4.826556205749511719e+00 4.716818779706954956e-02 4.739674925804138184e-01 1.563407033681869507e-01 -3.738867342472076416e-01
4.345000000000000000e+03 7.482263946533203125e+01 -4.169343948364257812e+00 4.913224279880523682e-02 4.723074436187744141e-01 1.564319133758544922e-01 -3.835454583168029785e-01
4.346000000000000000e+03 7.500312805175781250e+01 2.002844095230102539e+00 2.366176545619964600e-01 6.201196312904357910e-01 2.570211887359619141e-01 -1.360489428043365479e-01
4.347000000000000000e+03 7.397117614746093750e+01 -2.769261360168457031e+00 1.233974546194076538e-01 1.078716397285461426e+00 3.606341481208801270e-01 -2.840558886528015137e-01
4.348000000000000000e+03 7.450283050537109375e+01 -5.294298529624938965e-01 2.023776471614837646e-01 8.610676527023315430e-01 3.190335929393768311e-01 -2.512214779853820801e-01
4.349000000000000000e+03 7.404199218750000000e+01 -5.699704170227050781e+00 9.403671137988567352e-03 7.271581292152404785e-01 2.209685444831848145e-01 -3.458458483219146729e-01
4.350000000000000000e+03 7.465373992919921875e+01 -8.653822898864746094e+00 -4.991881549358367920e-02 3.527383506298065186e-01 9.084586054086685181e-02 -3.784573376178741455e-01
4.351000000000000000e+03 7.149355316162109375e+01 -9.287785530090332031e+00 -5.323238298296928406e-02 1.217916250228881836e+00 3.494051694869995117e-01 -1.162873879075050354e-01
4.352000000000000000e+03 7.476383972167968750e+01 -1.661785697937011719e+01 -8.828861266374588013e-02 1.365820020437240601e-01 1.448801904916763306e-02 -1.886405646800994873e-01
4.353000000000000000e+03 7.350025939941406250e+01 -1.925436210632324219e+01 -1.034402698278427124e-01 1.518340259790420532e-01 1.451812498271465302e-02 -9.585599601268768311e-02
4.354000000000000000e+03 7.396118927001953125e+01 -1.320496940612792969e+01 -1.159226819872856140e-01 3.656144738197326660e-01 7.490754127502441406e-02 -2.631137967109680176e-01
4.355000000000000000e+03 7.469106292724609375e+01 -1.581030273437500000e+01 -9.680340439081192017e-02 1.637914925813674927e-01 2.009642869234085083e-02 -2.028737515211105347e-01
4.356000000000000000e+03 7.285867309570312500e+01 -1.763777923583984375e+01 -1.186865940690040588e-01 2.904734015464782715e-01 5.153604224324226379e-02 -7.386296987533569336e-02
4.357000000000000000e+03 6.399809360504150391e+00 2.086718940734863281e+01 -2.191325802414212376e-05 2.164936449844390154e-05 -7.916815292219325784e-08 -4.539765086519764736e-06
4.358000000000000000e+03 5.306823730468750000e+00 -1.146991348266601562e+01 -1.731956872390583158e-04 -3.419544373173266649e-05 -6.221733929123729467e-05 -1.470987899665487930e-05
4.359000000000000000e+03 9.581370353698730469e+00 -9.075204849243164062e+00 9.375339141115546227e-05 -4.661456114263273776e-05 1.414165035384939983e-05 -9.072623652173206210e-05
4.360000000000000000e+03 7.462614440917968750e+01 -7.856603622436523438e+00 -3.620106726884841919e-02 3.818608522415161133e-01 1.036979332566261292e-01 -3.840556740760803223e-01
4.361000000000000000e+03 7.338990020751953125e+01 -9.241723060607910156e+00 -7.104143500328063965e-02 7.081992626190185547e-01 1.911473423242568970e-01 -3.079400658607482910e-01
4.362000000000000000e+03 7.389337921142578125e+01 -1.859768295288085938e+01 -9.696873277425765991e-02 1.565407812595367432e-01 1.787161268293857574e-02 -1.153879314661026001e-01
4.363000000000000000e+03 5.845147132873535156e+00 7.266241073608398438e+00 1.463812077417969704e-05 1.421216097696742509e-06 4.817801254830555990e-06 -1.172288375528296456e-05
4.364000000000000000e+03 5.918511390686035156e+00 7.785798549652099609e+00 -8.810897270450368524e-06 1.389011322316946462e-05 1.523764808553096373e-06 -1.542893915029708296e-05
4.365000000000000000e+03 7.322801971435546875e+01 -7.512359619140625000e+00 -2.606640569865703583e-02 9.300625920295715332e-01 2.711988687515258789e-01 -2.848216593265533447e-01
4.366000000000000000e+03 7.328339385986328125e+01 -2.049214172363281250e+01 -1.194646731019020081e-01 1.198841407895088196e-01 1.258399715879932046e-04 -7.096800953149795532e-02
4.367000000000000000e+03 7.476161956787109375e+01 -1.957402229309082031e+01 -8.211775124073028564e-02 7.508405297994613647e-02 -2.110109664499759674e-03 -1.249938532710075378e-01
4.368000000000000000e+03 5.247287273406982422e+00 -1.223786163330078125e+01 1.741557789500802755e-04 5.104802767164073884e-05 6.756114453310146928e-05 1.847417115641292185e-05
4.369000000000000000e+03 7.396935272216796875e+01 -1.402952003479003906e+01 -1.251437515020370483e-01 3.387003540992736816e-01 6.406698375940322876e-02 -2.452997267246246338e-01
4.370000000000000000e+03 6.592318534851074219e+00 -1.654204559326171875e+01 2.264335635118186474e-04 7.121380622265860438e-05 8.929421164793893695e-05 7.642168202437460423e-05
4.371000000000000000e+03 6.210466384887695312e+00 1.360125160217285156e+01 5.731884584747604094e-07 1.378607885271776468e-05 4.307780272938543931e-06 6.200568236636172514e-07
4.372000000000000000e+03 5.448390007019042969e+00 1.269362354278564453e+01 4.621909283741842955e-06 1.265221999346977100e-05 5.182238510315073654e-06 -8.346946742676664144e-07
4.373000000000000000e+03 7.330983734130859375e+01 -1.545683574676513672e+01 -1.381022930145263672e-01 3.757625222206115723e-01 7.129807025194168091e-02 -1.673910170793533325e-01
4.374000000000000000e+03 7.382795715332031250e+01 1.995629310607910156e+01 5.271618068218231201e-02 1.523496985435485840e+00 4.728639721870422363e-01 -1.031986810266971588e-02
4.375000000000000000e+03 5.977612018585205078e+00 -1.165081405639648438e+01 1.195146105601452291e-04 6.896976265124976635e-05 5.654531196341849864e-05 -8.991584763862192631e-06
4.376000000000000000e+03 7.403731536865234375e+01 -1.485531711578369141e+01 -1.191658154129981995e-01 2.861181199550628662e-01 5.008568987250328064e-02 -2.115710079669952393e-01
4.377000000000000000e+03 1.047404766082763672e+01 6.589457988739013672e+00 1.381698325531033333e-06 1.157648966909619048e-05 3.887456387019483373e-06 -1.950856130861211568e-05
4.378000000000000000e+03 5.231581687927246094e+00 -1.369301986694335938e+01 1.933804451255127788e-04 8.919101674109697342e-05 8.477144001517444849e-05 5.523404615814797580e-05
4.379000000000000000e+03 5.563436985015869141e+00 1.834159851074218750e+01 -1.146172144217416644e-05 1.530227564217057079e-05 1.152166305473656394e-06 -7.025133982097031549e-06
4.380000000000000000e+03 6.414072036743164062e+00 2.010369491577148438e+01 1.011980839393800125e-05 8.034852726268582046e-06 5.446398063213564456e-06 -3.487611138552892953e-06
4.381000000000000000e+03 5.449089527130126953e+00 1.189560604095458984e+01 -7.137630746001377702e-06 1.273877478524809703e-05 1.680343416410323698e-06 -1.774067095539066941e-05
4.382000000000000000e+03 6.417632579803466797e+00 1.931106948852539062e+01 -1.416710983903612942e-05 1.513559345767134801e-05 2.905451594870100962e-07 -5.063946900918381289e-06
4.383000000000000000e+03 8.136226654052734375e+00 -1.301109313964843750e+01 -1.225705345859751105e-04 -9.782488632481545210e-05 -6.611862772842869163e-05 -6.907247006893157959e-05
4.384000000000000000e+03 6.660207271575927734e+00 -1.307920742034912109e+01 -1.516434276709333062e-04 -9.478312858846038580e-05 -7.392796396743506193e-05 -4.237751636537723243e-05
4.385000000000000000e+03 7.158364295959472656e+00 -1.172003650665283203e+01 1.430558331776410341e-04 3.510429087327793241e-05 5.344803867046721280e-05 7.398123852908611298e-05
4.386000000000000000e+03 6.183677673339843750e+00 1.277233409881591797e+01 -9.594195034878794104e-06 1.099158544093370438e-05 4.192170308670029044e-07 -2.128446067217737436e-05
4.387000000000000000e+03 6.935955524444580078e+00 1.530188465118408203e+01 -8.831592822389211506e-06 1.043289557856041938e-05 4.803907813766272739e-07 -1.505597629147814587e-05
4.388000000000000000e+03 6.264946460723876953e+00 1.045106792449951172e+01 7.533834832429420203e-06 6.352319360303226858e-06 4.165846348769264296e-06 -1.589226485521066934e-06
4.389000000000000000e+03 6.137266635894775391e+00 1.197735500335693359e+01 7.714279490755870938e-06 7.690140591876115650e-06 4.621325842890655622e-06 1.940368292707717046e-06
4.390000000000000000e+03 6.878847122192382812e+00 2.484798240661621094e+01 5.713720838684821501e-07 2.793432213366031647e-05 8.551707651349715889e-06 -5.250543836154974997e-06
4.391000000000000000e+03 4.572660827636718750e+01 -1.201854419708251953e+01 4.023656401841435581e-06 1.100821100408211350e-05 4.509559857979184017e-06 1.258760221389820799e-05
4.392000000000000000e+03 4.624085998535156250e+01 -1.040797519683837891e+01 1.519010402262210846e-05 2.173381744796643034e-06 5.209045866649830714e-06 6.191608008521143347e-06
4.393000000000000000e+03 6.862257480621337891e+00 2.393694114685058594e+01 -5.985789357509929687e-06 2.518172732379753143e-05 5.758781298936810344e-06 4.849472588830394670e-06
4.394000000000000000e+03 7.276895904541015625e+01 -1.987021636962890625e+01 -1.100902706384658813e-01 1.531914025545120239e-01 1.293033920228481293e-02 -6.060892343521118164e-02
4.395000000000000000e+03 4.627463150024414062e+01 -1.319207954406738281e+01 9.854958989308215678e-06 -7.632433153048623353e-06 6.667576712970912922e-07 -3.229338972232653759e-06
4.396000000000000000e+03 7.022147369384765625e+01 -1.841192054748535156e+01 -1.449339091777801514e-01 4.493117034435272217e-01 9.131333231925964355e-02 2.232404947280883789e-01
4.397000000000000000e+03 6.964929962158203125e+01 -1.127610969543457031e+01 -1.003891080617904663e-01 1.299425959587097168e+00 3.597110509872436523e-01 6.260892003774642944e-02
4.398000000000000000e+03 7.346345520019531250e+01 -1.030704975128173828e+01 -9.350322186946868896e-02 6.147689223289489746e-01 1.563797146081924438e-01 -3.093357682228088379e-01
4.399000000000000000e+03 6.156777381896972656e+00 -6.953748226165771484e+00 9.852266521193087101e-05 -4.281054862076416612e-05 1.671363497735001147e-05 -6.377216777764260769e-05
4.400000000000000000e+03 4.315718841552734375e+01 -1.448388385772705078e+01 -2.505989641576888971e-06 4.264227754902094603e-06 5.274714567349292338e-07 -2.032122210948728025e-06
4.401000000000000000e+03 4.515519332885742188e+01 -1.298243904113769531e+01 -8.258200068667065352e-06 -3.207052031939383596e-06 -3.439575721131404862e-06 -4.385354259284213185e-06
4.402000000000000000e+03 3.894207000732421875e+01 -1.532764911651611328e+01 3.764807161132921465e-06 2.678679948076023720e-06 1.933046178237418644e-06 1.597460936864081305e-06
4.403000000000000000e+03 3.899112319946289062e+01 -1.456390190124511719e+01 -4.604828973242547363e-06 -2.118617430824087933e-06 -2.017033921219990589e-06 -8.788998115960566793e-07
4.404000000000000000e+03 4.761557388305664062e+01 -2.939410591125488281e+01 5.604892969131469727e-01 -4.263899326324462891e-01 4.022980853915214539e-02 -3.484927713871002197e-01
4.405000000000000000e+03 7.338735198974609375e+01 -6.805578231811523438e+00 -1.395295280963182449e-02 9.477101564407348633e-01 2.801271677017211914e-01 -2.935491502285003662e-01
4.406000000000000000e+03 7.078856945037841797e+00 -3.552418518066406250e+01 8.840074297040700912e-04 1.237319782376289368e-03 6.363981519825756550e-04 1.254437607713043690e-03
4.407000000000000000e+03 6.740316390991210938e+00 -1.447191905975341797e+01 -1.754022960085421801e-04 -1.293197274208068848e-04 -9.141660848399624228e-05 -7.649110921192914248e-05
4.408000000000000000e+03 3.464969635009765625e+01 -1.277328395843505859e+01 -3.829324668913614005e-06 -3.102032223978312686e-06 -2.079407067867578007e-06 -5.042213615524815395e-06
4.409000000000000000e+03 2.954989814758300781e+01 -8.070196151733398438e+00 4.919400907965609804e-06 -8.261656603281153366e-07 1.227970642503350973e-06 9.136572884926863480e-07
4.410000000000000000e+03 7.497026062011718750e+01 -2.083872413635253906e+01 -8.837033063173294067e-02 5.212164670228958130e-02 -1.087460480630397797e-02 -9.569472074508666992e-02
4.411000000000000000e+03 7.473158264160156250e+01 -2.010678100585937500e+01 -8.951980620622634888e-02 6.740576028823852539e-02 -6.634213030338287354e-03 -1.122922599315643311e-01
4.412000000000000000e+03 6.548991680145263672e+00 -8.272094726562500000e+00 2.815513835230376571e-05 5.590060754911974072e-05 2.521672286093235016e-05 5.451575270853936672e-05
4.413000000000000000e+03 8.857005119323730469e+00 -6.580566406250000000e+00 -1.222858700202777982e-04 8.681869076099246740e-06 -3.408120028325356543e-05 -3.958550951210781932e-05
4.414000000000000000e+03 1.223509407043457031e+01 6.079670429229736328e+00 8.660414096084423363e-06 1.247075761057203636e-05 6.339351784845348448e-06 -2.120231874869205058e-05
4.415000000000000000e+03 3.616293334960937500e+01 -1.270911026000976562e+01 -8.098842954495921731e-06 -9.056952308128529694e-07 -2.701361381696187891e-06 -1.111747224058490247e-06
4.416000000000000000e+03 3.637425994873046875e+01 -1.189898395538330078e+01 1.200139377033337951e-05 -1.116142016144294757e-06 3.265575514888041653e-06 3.082591035763471154e-07
4.417000000000000000e+03 7.113301849365234375e+01 -1.036447238922119141e+01 -9.119197726249694824e-02 1.159949302673339844e+00 3.206272125244140625e-01 -8.974575251340866089e-02
4.418000000000000000e+03 7.180400085449218750e+01 -8.720117568969726562e+00 -4.973844811320304871e-02 1.213758230209350586e+00 3.492059409618377686e-01 -1.430796235799789429e-01
4.419000000000000000e+03 9.403230667114257812e+00 6.966793537139892578e+00 5.553632036026101559e-06 1.261552824871614575e-05 5.450748176372144371e-06 -2.228239100077189505e-05
4.420000000000000000e+03 3.876890563964843750e+01 4.613002300262451172e+00 -4.062994412379339337e-05 2.427745187105756486e-07 -1.211615108331898227e-05 -8.648119546705856919e-06
4.421000000000000000e+03 8.350680351257324219e+00 -1.371257972717285156e+01 1.297697745030745864e-04 1.468806440243497491e-04 8.299512410303577781e-05 5.898075323784723878e-05
4.422000000000000000e+03 8.845866203308105469e+00 -1.283949089050292969e+01 4.255853855283930898e-05 9.944613702828064561e-05 4.260140121914446354e-05 6.125991058070212603e-05
4.423000000000000000e+03 7.008602905273437500e+01 -1.256152534484863281e+01 -1.935139596462249756e-01 1.094598412513732910e+00 2.703253328800201416e-01 2.680710982531309128e-03
4.424000000000000000e+03 1.762034797668457031e+01 5.075114250183105469e+00 1.133707883127499372e-05 4.929146598442457616e-06 4.879867901763645932e-06 -1.423228877683868632e-05
4.425000000000000000e+03 7.315044403076171875e+01 -3.703031301498413086e+00 9.691113978624343872e-02 1.408960461616516113e+00 4.517614841461181641e-01 -2.200541347265243530e-01
4.426000000000000000e+03 3.700565338134765625e+01 1.991732597351074219e+01 1.626181642677693162e-06 6.856521213194355369e-05 2.105741805280558765e-05 -1.417937164660543203e-04
4.427000000000000000e+03 3.825366973876953125e+01 1.907580566406250000e+01 -2.448847226332873106e-04 5.118914123158901930e-05 -5.810867151012644172e-05 -4.870958946412429214e-05
4.428000000000000000e+03 2.992340469360351562e+01 -8.810250282287597656e+00 4.662358151108492166e-06 -3.178738779752166010e-06 4.450858739346585935e-07 -1.152958816419413779e-06
4.429000000000000000e+03 4.553031921386718750e+01 -9.927098274230957031e+00 1.190495459013618529e-05 5.931956366111990064e-06 5.351073468773392960e-06 6.949322596483398229e-06
4.430000000000000000e+03 5.118699264526367188e+01 -2.919619560241699219e+01 1.527241706848144531e+00 6.436098814010620117e-01 6.512554883956909180e-01 1.266647279262542725e-01
4.431000000000000000e+03 4.095552062988281250e+01 -1.351650333404541016e+01 7.055882178974570706e-06 1.481176241213688627e-06 2.561117526056477800e-06 -8.587376214563846588e-07
4.432000000000000000e+03 7.107154083251953125e+01 -1.090174198150634766e+01 -1.150401979684829712e-01 1.122154831886291504e+00 3.021343946456909180e-01 -8.709578961133956909e-02
4.433000000000000000e+03 7.399797058105468750e+01 -1.153111267089843750e+01 -1.016277819871902466e-01 4.194243252277374268e-01 9.533895552158355713e-02 -3.142249584197998047e-01
4.434000000000000000e+03 7.101585388183593750e+01 -1.820481491088867188e+01 -1.462648957967758179e-01 4.061171710491180420e-01 7.795567810535430908e-02 1.075264215469360352e-01
4.435000000000000000e+03 7.071767425537109375e+01 -1.872221374511718750e+01 -1.052509173750877380e-01 3.562571704387664795e-01 7.530187070369720459e-02 1.537307649850845337e-01
4.436000000000000000e+03 2.666239547729492188e+01 -3.363791227340698242e+00 9.305997991759795696e-06 -9.764254173205699772e-06 -1.374770874917885521e-07 1.111538153963920195e-06
4.437000000000000000e+03 1.601448631286621094e+01 5.925921916961669922e+00 1.516005681878596079e-06 -8.682203770149499178e-06 -2.149859483324689791e-06 1.141988718700304162e-06
4.438000000000000000e+03 1.640291976928710938e+01 4.424678325653076172e+00 1.112368499889271334e-05 9.671094630903098732e-06 6.238433797989273444e-06 -1.003533725452143699e-05
4.439000000000000000e+03 3.926782989501953125e+01 2.558363437652587891e+00 -1.144109774031676352e-05 -1.077387332770740613e-05 -6.664491138508310542e-06 7.758768333587795496e-06
4.440000000000000000e+03 4.704778671264648438e+01 -2.996498680114746094e+01 3.546928167343139648e-01 -5.051206946372985840e-01 -4.512836784124374390e-02 -2.547513246536254883e-01
4.441000000000000000e+03 2.536951828002929688e+01 -6.394367218017578125e-01 9.195623533742036670e-06 -1.492552473791874945e-05 -1.718970565889321733e-06 3.107023530901642516e-06
4.442000000000000000e+03 2.721401596069335938e+01 -4.143550395965576172e+00 1.117289139074273407e-05 -1.293794525736302603e-06 2.963729002658510581e-06 -3.304705842310795560e-08
4.443000000000000000e+03 7.436034393310546875e+01 -1.989595031738281250e+01 -9.694860875606536865e-02 9.349125623703002930e-02 -1.037205336615443230e-03 -1.122149005532264709e-01
4.444000000000000000e+03 1.930639648437500000e+01 2.777087450027465820e+00 2.020276042458135635e-05 3.327754257043125108e-06 7.059154540911549702e-06 -1.023162803903687745e-05
4.445000000000000000e+03 1.824885177612304688e+01 4.427171707153320312e+00 -1.621599608370161150e-06 -8.240749593824148178e-06 -2.958704726552241482e-06 3.381607029950828291e-06
4.446000000000000000e+03 3.751627349853515625e+01 9.307649612426757812e+00 7.790195377310737967e-05 3.476870233498630114e-06 2.441364813421387225e-05 3.973947241320274770e-05
4.447000000000000000e+03 3.771809768676757812e+01 8.358217239379882812e+00 -6.269400910241529346e-05 1.093650098482612520e-05 -1.552725188957992941e-05 -5.423738912213593721e-06
4.448000000000000000e+03 3.695366287231445312e+01 1.621231269836425781e+01 -1.066848562913946807e-04 -6.288141321419971064e-06 -3.389189805602654815e-05 -7.076188012433703989e-06
4.449000000000000000e+03 3.937155532836914062e+01 1.495438575744628906e+00 -1.592190528754144907e-05 5.007977051718626171e-06 -3.274178197898436338e-06 7.930959327495656908e-06
4.450000000000000000e+03 2.482176399230957031e+01 -1.094162940979003906e+00 1.463623902964172885e-05 1.251518256140116137e-06 4.766327037941664457e-06 -2.376177917540189810e-06
4.451000000000000000e+03 2.607932281494140625e+01 -2.594334363937377930e+00 1.306328613281948492e-05 8.063172884931191220e-08 3.943175215681549162e-06 -9.014157171804981772e-07
4.452000000000000000e+03 5.734019756317138672e+00 8.938220977783203125e+00 -6.253745596040971577e-06 1.228243854711763561e-05 1.808607862585631665e-06 -1.726670416246633977e-05
4.453000000000000000e+03 1.115150737762451172e+01 6.767805576324462891e+00 1.764877015375532210e-05 1.942334364457565243e-07 5.352901098376605660e-06 -1.089053603209322318e-05
4.454000000000000000e+03 1.005897331237792969e+01 7.453111171722412109e+00 -3.797643785219406709e-06 -5.626631605082366150e-07 -1.308092009821848478e-06 4.719285584542376455e-07
4.455000000000000000e+03 4.608658599853515625e+01 -1.239022922515869141e+01 1.000246356852585450e-05 -9.943682016455568373e-06 1.763442192270758824e-08 -6.679135367448907346e-06
4.456000000000000000e+03 2.153707504272460938e+01 1.097815275192260742e+00 8.319291737279854715e-06 -1.323415472143096849e-05 -1.474458940720069222e-06 3.719060714502120391e-06
4.457000000000000000e+03 1.900215530395507812e+01 3.866054773330688477e+00 2.041059633484110236e-05 2.458857807141612284e-06 6.860836037958506495e-06 -1.123758465837454423e-05
4.458000000000000000e+03 1.040924453735351562e+01 -6.758717060089111328e+00 4.736286064144223928e-05 4.076540062669664621e-05 2.643847983563318849e-05 4.479119888856075704e-05
4.459000000000000000e+03 3.699758911132812500e+01 2.445814323425292969e+01 -1.668701734161004424e-04 -7.367311627604067326e-05 -7.216298399725928903e-05 -7.432165148202329874e-05
4.460000000000000000e+03 3.566464614868164062e+01 2.452051925659179688e+01 -3.640588547568768263e-04 1.568535371916368604e-04 -6.216159090399742126e-05 4.476413232623599470e-05
4.461000000000000000e+03 2.346185684204101562e+01 3.306370377540588379e-01 1.621583760424982756e-05 2.276111445098649710e-06 5.547584805754013360e-06 -4.835421350435353816e-06
4.462000000000000000e+03 3.512068557739257812e+01 1.413379669189453125e+01 -5.099988993606530130e-05 -4.577390063786879182e-05 -2.903213862737175077e-05 2.417043833702336997e-05
4.463000000000000000e+03 1.483473396301269531e+01 -9.553657531738281250e+00 4.021578934043645859e-05 8.212615284719504416e-06 1.452852120564784855e-05 -7.873690265114419162e-06
4.464000000000000000e+03 3.961811447143554688e+01 -1.464788436889648438e+01 4.779352366313105449e-06 2.569805474195163697e-06 2.204747261203010567e-06 7.447569032592582516e-07
4.465000000000000000e+03 4.018167495727539062e+01 -1.540823173522949219e+01 4.037953658553306013e-06 2.399702452748897485e-06 1.931296765178558417e-06 -4.714678709660802269e-07
4.466000000000000000e+03 2.876739311218261719e+01 -5.373818874359130859e+00 5.606875220109941438e-06 -2.470969548085122369e-06 9.407717129761294927e-07 2.021167119892197661e-06
4.467000000000000000e+03 3.757410049438476562e+01 2.909406471252441406e+01 -6.722429534420371056e-04 4.044508968945592642e-04 -8.033762424020096660e-05 3.603287623263895512e-04
4.468000000000000000e+03 3.713828659057617188e+01 2.586843681335449219e+01 -5.141935544088482857e-04 1.695882674539461732e-04 -1.033815860864706337e-04 1.286412443732842803e-04
4.469000000000000000e+03 3.696904373168945312e+01 -1.283974647521972656e+01 9.028713975567370653e-06 1.474989630878553726e-06 3.151111286570085213e-06 2.400716311967698857e-06
4.470000000000000000e+03 7.490126800537109375e+01 2.659210395812988281e+01 2.111075222492218018e-01 4.835812747478485107e-01 2.084066420793533325e-01 2.497324794530868530e-01
4.471000000000000000e+03 3.745459747314453125e+01 2.744578742980957031e+01 -4.316766280680894852e-04 4.553079270408488810e-05 -1.158437517005950212e-04 -1.450725449103629217e-06
4.472000000000000000e+03 3.859960937500000000e+01 3.090022325515747070e+00 3.051682870136573911e-05 3.370318518136627972e-05 1.926600452861748636e-05 -3.731991000677226111e-06
4.473000000000000000e+03 3.736226654052734375e+01 1.904726600646972656e+01 2.450880310789216310e-05 -9.369602776132524014e-05 -2.075616794172674417e-05 6.063282489776611328e-05
4.474000000000000000e+03 9.445878982543945312e+00 -6.649550437927246094e+00 7.090414874255657196e-05 2.932941606559325010e-05 3.007007035193964839e-05 5.827249697176739573e-05
4.475000000000000000e+03 1.057363319396972656e+01 -9.240200996398925781e+00 2.734513327595777810e-05 -2.256080188089981675e-05 1.435299509466858581e-06 -6.356097583193331957e-05
4.476000000000000000e+03 1.539494800567626953e+01 5.399372577667236328e+00 9.848621630226261914e-06 9.728492841531988233e-06 5.873134341527475044e-06 -1.545949635328724980e-05
4.477000000000000000e+03 6.787911224365234375e+01 -1.661431312561035156e+01 -4.398844540119171143e-01 1.054420590400695801e+00 1.843608319759368896e-01 4.130659997463226318e-01
4.478000000000000000e+03 6.778034210205078125e+01 -1.745489883422851562e+01 -3.931724131107330322e-01 9.781942367553710938e-01 1.755065470933914185e-01 5.246279239654541016e-01
4.479000000000000000e+03 7.042303562164306641e+00 7.702905654907226562e+00 -1.686115683696698397e-05 1.557353971293196082e-05 -3.862853077407635283e-07 -1.420794797013513744e-05
4.480000000000000000e+03 7.492040157318115234e+00 7.431123256683349609e+00 9.534956006973516196e-06 9.320562639913987368e-06 5.656655503116780892e-06 -2.181338277296163142e-05
4.481000000000000000e+03 4.356282424926757812e+01 -2.854738235473632812e+00 -2.868530827981885523e-05 6.372345978888915852e-06 -6.693888735753716901e-06 1.433233319403370842e-05
4.482000000000000000e+03 2.914179992675781250e+01 -7.303731918334960938e+00 7.200883828772930428e-06 -2.981450961669906974e-06 1.265829837393539492e-06 -5.933248985456884839e-07
4.483000000000000000e+03 2.773325157165527344e+01 -4.931890010833740234e+00 7.783028195262886584e-06 -5.959062491456279531e-06 5.471897566167172045e-07 5.633821729134069756e-07
4.484000000000000000e+03 7.208457183837890625e+01 3.746848297119140625e+01 -3.121074140071868896e-01 8.280606865882873535e-01 1.547859758138656616e-01 1.878031492233276367e-01
4.485000000000000000e+03 7.291722869873046875e+01 3.909385299682617188e+01 -3.125900030136108398e-01 6.635414958000183105e-01 1.052854433655738831e-01 1.412679105997085571e-01
4.486000000000000000e+03 2.127327537536621094e+01 2.241768598556518555e+00 4.403191724122734740e-06 -1.419641375832725316e-05 -2.937966655736090615e-06 4.867995357926702127e-06
4.487000000000000000e+03 3.769694137573242188e+01 2.043328094482421875e+01 -2.795073378365486860e-04 -6.515932909678667784e-05 -1.033999942592345178e-04 7.317527342820540071e-05
4.488000000000000000e+03 3.803106689453125000e+01 2.209703826904296875e+01 -3.303578996565192938e-04 1.035767054418101907e-04 -6.803435826441273093e-05 1.888851693365722895e-05
4.489000000000000000e+03 6.117904186248779297e+00 2.856104850769042969e+01 3.869528154609724879e-05 3.506812845444073901e-06 1.266062827198766172e-05 1.035957029671408236e-05
4.490000000000000000e+03 7.424041748046875000e+00 2.929703140258789062e+01 4.992660979041829705e-05 -4.776185505761532113e-06 1.354512733087176457e-05 5.262214017420774326e-06
4.491000000000000000e+03 1.487725162506103516e+01 5.912256240844726562e+00 -1.514276135594627704e-07 -7.819609891157597303e-06 -2.391311227256665006e-06 1.145242890743247699e-06
4.492000000000000000e+03 3.618848800659179688e+01 1.212884998321533203e+01 7.888302206993103027e-05 -9.334725291409995407e-06 2.086449057969730347e-05 2.093906186928506941e-05
4.493000000000000000e+03 3.647951507568359375e+01 1.012983894348144531e+01 7.830389949958771467e-05 -7.973278115969151258e-06 2.109918568748980761e-05 3.384181763976812363e-05
4.494000000000000000e+03 3.734438705444335938e+01 1.026832866668701172e+01 -6.788362952647730708e-05 1.080483252735575661e-05 -1.712363882688805461e-05 5.176569288778409828e-07
4.495000000000000000e+03 7.436725139617919922e+00 3.207242965698242188e+01 2.258628956042230129e-05 -6.757487426511943340e-06 4.748640549223637208e-06 3.772789568756707013e-05
4.496000000000000000e+03 6.355986118316650391e+00 3.516159057617187500e+01 -1.562224315421190113e-05 5.964618139842059463e-06 -2.897287458836217411e-06 3.190352072124369442e-05
4.497000000000000000e+03 7.437290954589843750e+01 4.085885238647460938e+01 -2.399274259805679321e-01 3.418193757534027100e-01 3.056758269667625427e-02 6.988382339477539062e-02
4.498000000000000000e+03 5.094690322875976562e+01 -3.137968635559082031e+01 1.134898185729980469e+00 9.402292966842651367e-01 6.225382089614868164e-01 5.686157941818237305e-01
4.499000000000000000e+03 5.053227996826171875e+01 -2.873706245422363281e+01 1.329468369483947754e+00 2.852017581462860107e-01 4.844010174274444580e-01 -1.575156301259994507e-01
4.500000000000000000e+03 6.928256988525390625e+00 2.835018157958984375e+01 -5.372115992940962315e-05 1.659434929024428129e-05 -1.113804319174960256e-05 1.717111263133119792e-05
4.501000000000000000e+03 7.016710662841796875e+01 3.779188919067382812e+01 -3.417579829692840576e-01 1.026533126831054688e+00 2.054325342178344727e-01 3.865366429090499878e-02
4.502000000000000000e+03 5.205288314819335938e+01 -3.492864608764648438e+01 2.071200013160705566e-01 1.733201742172241211e+00 5.820965170860290527e-01 6.923840045928955078e-01
4.503000000000000000e+03 6.704355239868164062e+00 -3.700626373291015625e+01 3.241160593461245298e-04 1.667579053901135921e-03 5.975085659883916378e-04 2.343505853787064552e-03
4.504000000000000000e+03 1.375293445587158203e+01 -3.840929412841796875e+01 -5.589356180280447006e-03 5.621443036943674088e-03 9.626070095691829920e-06 5.998916923999786377e-03
4.505000000000000000e+03 7.283301544189453125e+01 3.588795089721679688e+01 -2.472358345985412598e-01 7.985458970069885254e-01 1.653930246829986572e-01 2.691690623760223389e-01
4.506000000000000000e+03 3.219385528564453125e+01 -4.116341781616210938e+01 4.635297879576683044e-02 -2.356599122285842896e-01 -5.679208040237426758e-02 -4.009736701846122742e-02
4.507000000000000000e+03 5.023593139648437500e+01 -3.966148757934570312e+01 -7.375262677669525146e-02 9.811917543411254883e-01 2.722317278385162354e-01 2.565087974071502686e-01
4.508000000000000000e+03 4.677633285522460938e+01 4.112096405029296875e+01 7.949132472276687622e-03 -3.037988673895597458e-03 1.473342999815940857e-03 1.256172079592943192e-03
4.509000000000000000e+03 4.681614685058593750e+01 -3.690394973754882812e+01 3.212917149066925049e-01 1.495006843470036983e-03 9.683602303266525269e-02 3.952806591987609863e-01
4.510000000000000000e+03 7.050423622131347656e+00 -8.019579887390136719e+00 4.878409163211472332e-05 -3.330381878186017275e-05 4.644082309823716059e-06 -3.055009801755659282e-05
4.511000000000000000e+03 9.480484962463378906e+00 -7.274972915649414062e+00 -5.720974968426162377e-06 -5.734200385631993413e-05 -1.891889405669644475e-05 -5.982500442769378424e-05
4.512000000000000000e+03 1.311512184143066406e+01 -8.268611907958984375e+00 7.178975647548213601e-05 -1.661711758060846478e-05 1.655179039516951889e-05 -4.696788892033509910e-05
4.513000000000000000e+03 1.225605583190917969e+01 -1.027799034118652344e+01 6.630304415011778474e-05 8.049405005294829607e-05 4.403913044370710850e-05 1.358860299660591409e-05
4.514000000000000000e+03 1.146358489990234375e+01 -8.340052604675292969e+00 5.287658132147043943e-05 1.691874786047264934e-05 2.093859984597656876e-05 -4.040683415951207280e-05
4.515000000000000000e+03 6.959917449951171875e+01 -1.181838130950927734e+01 -1.452165096998214722e-01 1.240024566650390625e+00 3.284423947334289551e-01 5.876973643898963928e-02
4.516000000000000000e+03 6.899702453613281250e+01 -1.227540874481201172e+01 -1.635529398918151855e-01 1.269331693649291992e+00 3.317336142063140869e-01 1.099708974361419678e-01
4.517000000000000000e+03 4.569305801391601562e+01 -1.096638107299804688e+01 1.776224598870612681e-05 -1.730537746880145278e-06 4.809512574865948409e-06 6.331705208140192553e-06
4.518000000000000000e+03 6.868762969970703125e+01 -1.730323028564453125e+01 -3.058159053325653076e-01 8.316711783409118652e-01 1.577565670013427734e-01 3.991601765155792236e-01
4.519000000000000000e+03 7.141535186767578125e+01 -1.839244842529296875e+01 -1.207643300294876099e-01 3.345060944557189941e-01 6.412252783775329590e-02 6.363004446029663086e-02
4.520000000000000000e+03 7.227343750000000000e+01 -1.499427223205566406e+01 -1.761937439441680908e-01 5.547786355018615723e-01 1.135754585266113281e-01 -1.157239377498626709e-01
4.521000000000000000e+03 3.119442749023437500e+01 -9.847805023193359375e+00 3.373627350811148062e-06 -3.024779857696557883e-07 9.213448493028408848e-07 3.574844868126092479e-06
4.522000000000000000e+03 3.293147659301757812e+01 -1.274934101104736328e+01 -2.158411689379136078e-06 -1.140579115599393845e-06 -9.896972414935589768e-07 -1.206477463711053133e-06
4.523000000000000000e+03 4.835607147216796875e+01 -2.792197990417480469e+01 6.456735134124755859e-01 -4.498969614505767822e-01 5.873296782374382019e-02 -7.015246748924255371e-01
4.524000000000000000e+03 4.329988479614257812e+01 -5.953061580657958984e+00 -1.949614852492231876e-05 -1.069802419806364924e-05 -9.058251634996850044e-06 -4.625263045454630628e-06
4.525000000000000000e+03 7.287499237060546875e+01 -1.851603698730468750e+01 -1.046435087919235229e-01 2.252000868320465088e-01 3.616697341203689575e-02 -6.861855089664459229e-02
4.526000000000000000e+03 7.189044952392578125e+01 -1.847693252563476562e+01 -1.164977401494979858e-01 2.931897640228271484e-01 5.300760641694068909e-02 1.030328404158353806e-02
4.527000000000000000e+03 4.446209716796875000e+01 -7.389984130859375000e+00 1.329442147834924981e-05 1.247211457666708156e-05 7.729960998403839767e-06 5.118847184348851442e-06
4.528000000000000000e+03 4.941967010498046875e+01 -2.865989875793457031e+01 1.013004422187805176e+00 -1.108362376689910889e-01 2.706504762172698975e-01 -3.433817028999328613e-01
4.529000000000000000e+03 5.001271438598632812e+01 -2.826774978637695312e+01 1.167096734046936035e+00 -6.929608993232250214e-03 3.480501472949981689e-01 -3.939386606216430664e-01
4.530000000000000000e+03 4.530094146728515625e+01 -9.395607948303222656e+00 -1.277830597246065736e-05 -5.626468464470235631e-06 -5.521432285604532808e-06 -6.200901680131210014e-06
4.531000000000000000e+03 1.341398334503173828e+01 -7.859966278076171875e+00 -6.441155710490420461e-05 -6.383937034115660936e-06 -2.123864760505966842e-05 1.182866435556206852e-05
4.532000000000000000e+03 3.121694564819335938e+01 -1.215863418579101562e+01 -8.824463293422013521e-07 -2.984845423270598985e-06 -1.160187480309105013e-06 6.964780823182081804e-07
4.533000000000000000e+03 3.165755844116210938e+01 -1.155225944519042969e+01 6.273671715462114662e-06 1.126689767261268571e-06 2.220108399342279881e-06 -5.626969823424587958e-07
4.534000000000000000e+03 1.275601100921630859e+01 -9.228919029235839844e+00 1.100807567127048969e-04 5.771541509602684528e-06 3.475568883004598320e-05 -3.195075623807497323e-05
4.535000000000000000e+03 4.405331420898437500e+01 -5.867979049682617188e+00 1.669117591518443078e-05 1.620953480596654117e-05 9.870213034446351230e-06 4.023634119221242145e-06
4.536000000000000000e+03 4.052563858032226562e+01 5.965606570243835449e-01 -3.072294930461794138e-05 -1.104358761949697509e-05 -1.252996116818394512e-05 -3.639643182395957410e-05
4.537000000000000000e+03 3.794625473022460938e+01 7.422151088714599609e+00 6.755399226676672697e-05 9.954324923455715179e-06 2.325249442947097123e-05 4.062725201947614551e-05
4.538000000000000000e+03 3.819377517700195312e+01 6.494534492492675781e+00 -5.729337863158434629e-05 7.121173894120147452e-06 -1.505166073911823332e-05 -9.390861123392824084e-06
4.539000000000000000e+03 8.383958816528320312e+00 -8.083413124084472656e+00 7.848298992030322552e-05 1.013554265227867290e-05 2.658555968082509935e-05 1.200449041789397597e-04
4.540000000000000000e+03 6.342885494232177734e+00 -1.117400169372558594e+01 5.163846071809530258e-05 1.610025537956971675e-05 2.032161501119844615e-05 1.021016068989410996e-04
4.541000000000000000e+03 3.118192863464355469e+01 -1.110619544982910156e+01 -2.600957259346614592e-06 -3.755694706342183053e-06 -1.906995635181374382e-06 1.344049564977467526e-06
4.542000000000000000e+03 3.255574417114257812e+01 -1.141495513916015625e+01 5.993902959744445980e-06 -3.472395349035650725e-07 1.693999024610093329e-06 -1.034916522257844917e-06
4.543000000000000000e+03 7.118167400360107422e+00 2.173241996765136719e+01 -2.514210609660949558e-05 2.337543082830961794e-05 -5.300022962728689890e-07 -4.746338618133449927e-06
4.544000000000000000e+03 4.399150466918945312e+01 -3.665010929107666016e+00 -2.702219171624165028e-05 -1.118215823225909844e-05 -1.146130489360075444e-05 6.270103767747059464e-06
4.545000000000000000e+03 4.501226425170898438e+01 -8.810276031494140625e+00 1.253164100489811972e-05 8.428020919382106513e-06 6.287898486334597692e-06 4.580821496347198263e-06
4.546000000000000000e+03 4.038924407958984375e+01 -1.339313030242919922e+01 -6.934336397534934804e-06 -1.004902287604636513e-06 -2.381771537329768762e-06 -2.317267302487380221e-07
4.547000000000000000e+03 3.378929519653320312e+01 -1.186070060729980469e+01 6.066304081286943983e-07 1.375831288896733895e-06 5.947384806859190576e-07 3.113311549896025099e-06
4.548000000000000000e+03 6.923134326934814453e+00 1.453401279449462891e+01 2.573721928911254508e-07 1.407371655659517273e-05 4.299326519685564563e-06 -3.099114564975025132e-06
4.549000000000000000e+03 7.701797008514404297e+00 1.608548355102539062e+01 -1.301907013839809224e-05 5.331391093932325020e-06 -2.306303485966054723e-06 -1.654342850088141859e-05
4.550000000000000000e+03 7.291096496582031250e+01 -1.915197372436523438e+01 -1.137192845344543457e-01 1.912632584571838379e-01 2.326319366693496704e-02 -6.814496219158172607e-02
4.551000000000000000e+03 5.823904991149902344e+00 -9.988762855529785156e+00 9.944265184458345175e-05 5.190365118323825300e-05 4.540389272733591497e-05 8.704637730261310935e-05
4.552000000000000000e+03 6.486821651458740234e+00 -9.511505126953125000e+00 1.114189653890207410e-04 5.201026215218007565e-05 4.902876753476448357e-05 3.457691855146549642e-05
4.553000000000000000e+03 7.252688407897949219e+00 2.032306671142578125e+01 -1.626651646802201867e-05 1.581626383995171636e-05 -1.350759362139797304e-07 -3.821080099442042410e-06
4.554000000000000000e+03 7.328005981445312500e+01 -1.152186203002929688e+01 -1.176000982522964478e-01 5.848956108093261719e-01 1.401886492967605591e-01 -2.814577817916870117e-01
4.555000000000000000e+03 7.237181091308593750e+01 -1.099972057342529297e+01 -1.217094436287879944e-01 8.366296887397766113e-01 2.144760787487030029e-01 -2.193971723318099976e-01
4.556000000000000000e+03 7.326475524902343750e+01 -1.295609951019287109e+01 -1.441576629877090454e-01 5.079298615455627441e-01 1.091316491365432739e-01 -2.443822771310806274e-01
4.557000000000000000e+03 3.767810440063476562e+01 -1.365002918243408203e+01 6.866843250463716686e-06 2.169463414247729816e-06 2.710891976676066406e-06 1.613551148693659343e-06
4.558000000000000000e+03 3.838922882080078125e+01 -1.374560451507568359e+01 -5.364467142499051988e-06 -2.111957655870355666e-06 -2.242927394036087207e-06 -7.365124474745243788e-07
4.559000000000000000e+03 7.274050140380859375e+01 -6.567315578460693359e+00 4.598482977598905563e-03 1.216200590133666992e+00 3.662397265434265137e-01 -2.194663882255554199e-01
4.560000000000000000e+03 7.025797367095947266e+00 9.770684242248535156e+00 1.060170598066179082e-05 1.462820364395156503e-06 3.619357812567614019e-06 2.846089955710340291e-06
4.561000000000000000e+03 6.456596374511718750e+00 8.994819641113281250e+00 1.020314721245085821e-05 2.858628022295306437e-06 3.918532456737011671e-06 -2.288596760990913026e-06
4.562000000000000000e+03 7.255868530273437500e+01 -1.012239646911621094e+01 -9.428252279758453369e-02 8.751938939094543457e-01 2.342734038829803467e-01 -2.399559766054153442e-01
4.563000000000000000e+03 7.366927337646484375e+01 -1.644240188598632812e+01 -1.158185005187988281e-01 2.703090012073516846e-01 4.634715244174003601e-02 -1.523598730564117432e-01
4.564000000000000000e+03 7.325230407714843750e+01 -1.707591819763183594e+01 -1.279758661985397339e-01 2.865779101848602295e-01 4.758060723543167114e-02 -1.137978062033653259e-01
4.565000000000000000e+03 7.361611938476562500e+01 -6.162430286407470703e+00 3.503295127302408218e-03 9.191411733627319336e-01 2.767933309078216553e-01 -3.216226398944854736e-01
4.566000000000000000e+03 7.414500427246093750e+01 -6.324143409729003906e+00 -4.073944874107837677e-03 6.118158698081970215e-01 1.823225766420364380e-01 -3.589829206466674805e-01
4.567000000000000000e+03 7.346989440917968750e+01 -8.178300857543945312e+00 -4.773963987827301025e-02 7.708553075790405273e-01 2.169346958398818970e-01 -3.186189830303192139e-01
4.568000000000000000e+03 9.528263092041015625e+00 -1.207895183563232422e+01 -7.326317427214235067e-05 -1.336557033937424421e-04 -6.207566184457391500e-05 7.747167546767741442e-05
4.569000000000000000e+03 7.389856719970703125e+01 -7.672207355499267578e+00 -4.234910383820533752e-02 6.346328258514404297e-01 1.776851266622543335e-01 -3.505564928054809570e-01
4.570000000000000000e+03 7.327793884277343750e+01 -1.990384483337402344e+01 -1.160480827093124390e-01 1.397884488105773926e-01 7.122111041098833084e-03 -7.730160653591156006e-02
4.571000000000000000e+03 7.293149566650390625e+01 -1.461606693267822266e+01 -1.559171378612518311e-01 4.951840043067932129e-01 1.017800569534301758e-01 -1.793283075094223022e-01
4.572000000000000000e+03 7.395954895019531250e+01 -1.568668746948242188e+01 -1.198316141963005066e-01 2.632188200950622559e-01 4.301616176962852478e-02 -1.896045356988906860e-01
4.573000000000000000e+03 7.015872955322265625e+01 -1.746491050720214844e+01 -2.143194526433944702e-01 5.926253199577331543e-01 1.134917587041854858e-01 1.990446746349334717e-01
4.574000000000000000e+03 1.157348346710205078e+01 -1.050756072998046875e+01 1.239361299667507410e-04 2.823497925419360399e-05 4.565133349387906492e-05 6.693577597616240382e-05
4.575000000000000000e+03 8.861054420471191406e+00 -7.310712337493896484e+00 8.947146125137805939e-05 3.416371328057721257e-06 2.786635013762861490e-05 7.090150029398500919e-05
4.576000000000000000e+03 7.866900444030761719e+00 -9.255339622497558594e+00 -1.324557379120960832e-04 -3.065835699089802802e-05 -4.893422737950459123e-05 -7.301077857846394181e-05
4.577000000000000000e+03 5.960338592529296875e+00 -1.444370365142822266e+01 1.857934694271534681e-04 1.180496328743174672e-04 9.115292778005823493e-05 8.107462053885683417e-05
4.578000000000000000e+03 6.955332279205322266e+00 1.054850292205810547e+01 -1.049196998792467639e-05 1.199909092974849045e-05 4.521362484410929028e-07 -2.308976763742975891e-05
4.579000000000000000e+03 6.187957286834716797e+00 1.121324062347412109e+01 -9.608789696358144283e-06 1.403553687850944698e-05 1.328024268332228530e-06 -2.004460293392185122e-05
4.580000000000000000e+03 5.928716659545898438e+00 -1.233757781982421875e+01 -1.503995299572125077e-04 -7.483379158657044172e-05 -6.756999937351793051e-05 -1.669442826823797077e-05
4.581000000000000000e+03 5.939024925231933594e+00 -1.303532791137695312e+01 1.662001886870712042e-04 8.681064355187118053e-05 7.590324821649119258e-05 3.494540214887820184e-05
4.582000000000000000e+03 6.886359214782714844e+00 1.133190631866455078e+01 3.687223170345532708e-06 6.653819582425057888e-06 3.102312803093809634e-06 1.116150770030799322e-06
4.583000000000000000e+03 7.275177001953125000e+01 -1.521968173980712891e+01 -1.695483326911926270e-01 4.785177409648895264e-01 9.269081801176071167e-02 -1.411375403404235840e-01
4.584000000000000000e+03 6.399824142456054688e+00 1.849365043640136719e+01 4.637972779164556414e-06 1.353063817077782005e-05 5.450583103083772585e-06 -4.684866325987968594e-06
4.585000000000000000e+03 5.957020759582519531e+00 -1.373640155792236328e+01 -1.758600992616266012e-04 -1.064351963577792048e-04 -8.468858868582174182e-05 -5.323724690242670476e-05
4.586000000000000000e+03 6.711754322052001953e+00 -1.376871299743652344e+01 1.638058456592261791e-04 1.192444688058458269e-04 8.491509652230888605e-05 5.626882921205833554e-05
4.587000000000000000e+03 7.217587947845458984e+00 1.778250503540039062e+01 1.809480750125658233e-06 1.427959432476200163e-05 4.826722488360246643e-06 -4.710024313681060448e-06
4.588000000000000000e+03 7.265675354003906250e+01 -1.669546699523925781e+01 -1.418600529432296753e-01 3.806356787681579590e-01 7.163269072771072388e-02 -8.357952535152435303e-02
4.589000000000000000e+03 7.303031921386718750e+01 -1.609941673278808594e+01 -1.515017747879028320e-01 3.777961432933807373e-01 6.788831204175949097e-02 -1.316692382097244263e-01
4.590000000000000000e+03 7.114417552947998047e+00 1.692052078247070312e+01 -8.627645001979544759e-06 5.743476776842726395e-06 -8.652504561723617371e-07 -1.217895351146580651e-05
4.591000000000000000e+03 8.828700065612792969e+00 3.219788742065429688e+01 -4.613010241882875562e-05 3.924953034584177658e-06 -1.266154504264704883e-05 -1.816750773286912590e-05
4.592000000000000000e+03 7.498133182525634766e+00 2.540469932556152344e+01 -7.177544375736033544e-06 -4.176443326286971569e-06 -3.406196128707961179e-06 7.862297024985309690e-06
4.593000000000000000e+03 6.375681400299072266e+00 2.525850677490234375e+01 -1.846244413172826171e-05 -5.071079158369684592e-06 -7.060057214403059334e-06 1.876922760857269168e-05
4.594000000000000000e+03 7.253138065338134766e+00 2.442386436462402344e+01 -7.719819222984369844e-06 -4.012537829112261534e-06 -3.519707206578459591e-06 -2.449982048347010277e-06
4.595000000000000000e+03 7.650598049163818359e+00 2.410266876220703125e+01 1.446434453100664541e-05 8.995697498903609812e-06 7.038012427074136212e-06 1.005144713417394087e-05
4.596000000000000000e+03 4.563706207275390625e+01 -1.150392532348632812e+01 -1.704851092654280365e-05 1.155160930466081481e-06 -4.768005055666435510e-06 -1.148452884081052616e-05
4.597000000000000000e+03 4.566623306274414062e+01 -1.045137500762939453e+01 -1.338521178695373237e-05 -2.645577069415594451e-06 -4.809236543223960325e-06 -5.349774710339261219e-06
4.598000000000000000e+03 8.165462493896484375e+00 -7.396395683288574219e+00 -2.907671478169504553e-05 -1.715027974569238722e-05 -1.386809799441834912e-05 -9.088022488867864013e-05
4.599000000000000000e+03 4.572421264648437500e+01 -1.280341339111328125e+01 -6.913298875588225201e-06 1.237973992829211056e-05 1.639932406760635786e-06 5.930667157372226939e-06
4.600000000000000000e+03 7.339210510253906250e+01 -1.914894342422485352e+00 1.783211082220077515e-01 1.484694480895996094e+00 4.989047050476074219e-01 -2.127930223941802979e-01
4.601000000000000000e+03 4.503765487670898438e+01 -1.006352615356445312e+01 -1.824441596909309737e-06 -1.161987620434956625e-05 -4.033295226690825075e-06 -3.752516249733162113e-06
4.602000000000000000e+03 7.037126922607421875e+01 -1.138650512695312500e+01 -1.332234740257263184e-01 1.181532144546508789e+00 3.144925832748413086e-01 -2.493028156459331512e-02
4.603000000000000000e+03 3.594741821289062500e+01 1.618822097778320312e+01 5.329063424142077565e-05 -4.343789260019548237e-05 2.955822537842323072e-06 1.428148516424698755e-05
4.604000000000000000e+03 3.724837875366210938e+01 1.819626235961914062e+01 -1.870604610303416848e-04 -4.779124355991370976e-05 -7.045551319606602192e-05 -7.436195301124826074e-05
4.605000000000000000e+03 6.951694488525390625e+01 -1.231421470642089844e+01 -1.666985750198364258e-01 1.202758789062500000e+00 3.108180463314056396e-01 5.567442253232002258e-02
4.606000000000000000e+03 4.281417083740234375e+01 -1.392878627777099609e+01 2.512465243853512220e-06 -2.610505134725826792e-06 -2.941196619588026806e-08 3.293662530268193223e-06
4.607000000000000000e+03 3.881045532226562500e+01 1.937027096748352051e+00 1.309914296143688262e-05 3.096889122389256954e-05 1.322040952800307423e-05 2.406575049462844618e-06
4.608000000000000000e+03 2.887117576599121094e+01 -4.215668201446533203e+00 4.980279300070833415e-06 -2.099380253639537841e-06 8.642697366667562164e-07 2.638159458001609892e-06
4.609000000000000000e+03 3.905342864990234375e+01 -1.385048103332519531e+01 6.771263088012346998e-06 2.224029913122649305e-06 2.698587877603131346e-06 1.539298636998864822e-06
4.610000000000000000e+03 6.925466918945312500e+01 -1.269394969940185547e+01 -2.041901946067810059e-01 1.194659829139709473e+00 2.971408963203430176e-01 8.346147090196609497e-02
4.611000000000000000e+03 7.447908782958984375e+01 -2.063923454284667969e+01 -9.610707312822341919e-02 7.411330193281173706e-02 -6.598131265491247177e-03 -9.931436181068420410e-02
4.612000000000000000e+03 8.352787017822265625e+00 8.428030967712402344e+00 1.051596154866274446e-05 9.683531061455141753e-06 6.059847692085895687e-06 -2.580442742328159511e-05
4.613000000000000000e+03 8.944831848144531250e+00 8.924157142639160156e+00 -9.996435437642503530e-06 2.144537575077265501e-06 -2.355569449719041586e-06 1.524876893199689221e-06
4.614000000000000000e+03 6.919740295410156250e+01 -1.350914764404296875e+01 -2.622638344764709473e-01 1.118906974792480469e+00 2.569929361343383789e-01 9.708759188652038574e-02
4.615000000000000000e+03 8.306032180786132812e+00 -6.315279006958007812e+00 8.735686424188315868e-05 -1.073620569513877854e-05 2.298619801877066493e-05 -3.084019408561289310e-05
4.616000000000000000e+03 7.564934253692626953e+00 -7.664721012115478516e+00 -6.339188075799029320e-06 1.214526400872273371e-05 1.741822757139743771e-06 5.907271770411171019e-05
4.617000000000000000e+03 2.869408416748046875e+01 -6.520106315612792969e+00 6.028746611264068633e-06 -3.054411081393482164e-06 8.923006475924921688e-07 7.373239441221812740e-07
4.618000000000000000e+03 4.586795806884765625e+01 -7.086044311523437500e+00 1.490219437982887030e-05 1.271086784981889650e-05 8.283918759843800217e-06 6.139701326901558787e-06
4.619000000000000000e+03 4.495488357543945312e+01 -6.509345531463623047e+00 1.382759637635899708e-05 1.558287658554036170e-05 8.823141797620337456e-06 5.016518116462975740e-06
4.620000000000000000e+03 6.337525844573974609e+00 2.951184082031250000e+01 -3.496148565318435431e-05 6.536290129588451236e-06 -8.527558748028241098e-06 -1.072266877599759027e-05
4.621000000000000000e+03 7.207730865478515625e+01 -9.639369010925292969e+00 -8.080635964870452881e-02 1.041058659553527832e+00 2.880757153034210205e-01 -1.868664920330047607e-01
4.622000000000000000e+03 7.179926300048828125e+01 -1.005327892303466797e+01 -8.468000590801239014e-02 1.058356404304504395e+00 2.921029031276702881e-01 -1.631162911653518677e-01
4.623000000000000000e+03 2.051783943176269531e+01 2.802855491638183594e+00 2.047795169346500188e-05 2.366443368373438716e-06 6.853318609501002356e-06 -9.982858500734437257e-06
4.624000000000000000e+03 3.081033706665039062e+01 -9.159184455871582031e+00 5.038444214733317494e-06 -3.901368927472503856e-06 3.411226714433723828e-07 -4.073172021890059114e-06
4.625000000000000000e+03 3.047050666809082031e+01 -8.460451126098632812e+00 4.262944457877893001e-06 2.198762331317993812e-06 1.938512014021398500e-06 3.007169880220317282e-06
4.626000000000000000e+03 7.501960277557373047e+00 -1.376970481872558594e+01 -1.514883624622598290e-04 -1.390630204696208239e-04 -8.716541196918115020e-05 -5.735864033340476453e-05
4.627000000000000000e+03 1.031421566009521484e+01 3.597681808471679688e+01 5.447246167022967711e-06 -1.421360866515897214e-05 -2.629908749440801330e-06 -2.539069646445568651e-05
4.628000000000000000e+03 4.081511306762695312e+01 -1.481275367736816406e+01 4.445926151674939319e-06 3.049164661206305027e-06 2.248527152914903127e-06 -1.959921434036004939e-07
4.629000000000000000e+03 1.088788604736328125e+01 -7.780644893646240234e+00 -5.570373832597397268e-05 -8.378864549740683287e-06 -1.922478077176492661e-05 4.726372935692779720e-05
4.630000000000000000e+03 1.169552135467529297e+01 -1.100286579132080078e+01 -7.148191070882603526e-05 -5.703497208742192015e-06 -2.315562232979573309e-05 -8.122180588543415070e-05
4.631000000000000000e+03 3.770722579956054688e+01 3.405823945999145508e+00 -6.378530815709382296e-05 -1.085965595848392695e-05 -2.239348759758286178e-05 5.486072495841654018e-06
4.632000000000000000e+03 7.172320556640625000e+01 -1.102416229248046875e+01 -1.193692982196807861e-01 9.716648459434509277e-01 2.556886672973632812e-01 -1.624812781810760498e-01
4.633000000000000000e+03 7.295757293701171875e+01 -9.704850196838378906e+00 -8.475614339113235474e-02 8.061633110046386719e-01 2.164221405982971191e-01 -2.732895314693450928e-01
4.634000000000000000e+03 7.287079620361328125e+01 -8.615830421447753906e+00 -6.022433564066886902e-02 9.227132797241210938e-01 2.587466835975646973e-01 -2.591552734375000000e-01
4.635000000000000000e+03 4.397066879272460938e+01 -1.377074241638183594e+01 5.035868525737896562e-06 5.172053988644620404e-06 3.062376890738960356e-06 3.600431000450043939e-06
4.636000000000000000e+03 4.444249343872070312e+01 -1.300947856903076172e+01 5.359922397474292666e-06 6.758353720215382054e-06 3.635482698882697150e-06 4.535271273198304698e-06
4.637000000000000000e+03 6.842644500732421875e+01 -1.645323562622070312e+01 -3.824060857295989990e-01 9.692754745483398438e-01 1.760608255863189697e-01 3.372795879840850830e-01
4.638000000000000000e+03 7.062812042236328125e+01 -1.693575859069824219e+01 -2.017619460821151733e-01 6.010838150978088379e-01 1.197965666651725769e-01 1.135333105921745300e-01
4.639000000000000000e+03 2.923536491394042969e+01 -6.169131278991699219e+00 9.050208063854370266e-06 -4.566381903714500368e-06 1.345147893516696058e-06 -1.342163386652828194e-06
4.640000000000000000e+03 1.779768180847167969e+01 6.133872985839843750e+00 1.021420484903501347e-05 4.645894932764349505e-06 4.458029707166133448e-06 -1.569563028169795871e-05
4.641000000000000000e+03 4.362488174438476562e+01 -9.455980300903320312e+00 9.488299838267266750e-06 1.231450278282864019e-05 6.540840786328772083e-06 9.114778549701441079e-06
4.642000000000000000e+03 4.354529190063476562e+01 -1.401234722137451172e+01 3.818626282736659050e-06 -5.279881861497415230e-06 -4.383766452065174235e-07 2.893433020290103741e-06
4.643000000000000000e+03 1.952356147766113281e+01 4.399000644683837891e+00 -2.004046109504997730e-06 -1.217181943502509966e-05 -4.252759481460088864e-06 4.383757641335250810e-06
4.644000000000000000e+03 2.778348731994628906e+01 -3.766226291656494141e+00 7.354708486673189327e-06 -7.152533271437278017e-06 6.065246793696132954e-08 1.607992203389585484e-06
4.645000000000000000e+03 9.845676422119140625e+00 -7.766176223754882812e+00 -1.317595306318253279e-04 3.789560287259519100e-05 -2.815918014675844461e-05 4.384677595226094127e-05
4.646000000000000000e+03 2.546523284912109375e+01 -1.838072419166564941e+00 1.029997747536981478e-05 -1.287482155021280050e-05 -7.724532906649983488e-07 2.032570591836702079e-06
4.647000000000000000e+03 3.620887374877929688e+01 1.951621437072753906e+01 -1.518377830507233739e-04 -8.969688497018069029e-05 -7.246040331665426493e-05 4.337216159910894930e-05
4.648000000000000000e+03 2.469437408447265625e+01 1.051855236291885376e-01 1.599167808308266103e-05 1.263974013454571832e-06 5.176695594855118543e-06 -2.491761506462353282e-06
4.649000000000000000e+03 3.605414962768554688e+01 1.514002704620361328e+01 -7.185245340224355459e-05 -1.724698086036369205e-05 -2.672983100637793541e-05 -1.920739487104583532e-05
4.650000000000000000e+03 1.975813293457031250e+01 3.337306976318359375e+00 -1.423481990059372038e-07 -1.100686586141819134e-05 -3.344764309076708741e-06 3.620878942456329241e-06
4.651000000000000000e+03 1.649589920043945312e+01 5.347103118896484375e+00 8.858078217599540949e-06 7.218350674520479515e-06 4.822928985959151760e-06 -1.596939910086803138e-05
4.652000000000000000e+03 3.968715667724609375e+01 -1.395509910583496094e+01 -5.269242137728724629e-06 -2.032007614616304636e-06 -2.190374971178243868e-06 -5.690546913683647290e-07
4.653000000000000000e+03 3.514141082763671875e+01 1.309815883636474609e+01 6.770066829631105065e-05 -1.299850737268570811e-05 1.641064773139078170e-05 -1.490578938501130324e-06
4.654000000000000000e+03 2.602025222778320312e+01 -1.403360605239868164e+00 1.462842101318528876e-05 -3.288504899501276668e-07 4.289870958018582314e-06 -4.320310154071194120e-07
4.655000000000000000e+03 2.723368835449218750e+01 -2.969011068344116211e+00 1.317583792115328833e-05 -1.922185674629872665e-06 3.376095492058084346e-06 3.224922693334519863e-07
4.656000000000000000e+03 2.664349937438964844e+01 -2.180785417556762695e+00 8.423865438089706004e-06 -1.127092127717332914e-05 -8.541168767806084361e-07 2.199599748564651236e-06
4.657000000000000000e+03 3.666813278198242188e+01 9.150181770324707031e+00 -6.128411041572690010e-05 8.001370588317513466e-06 -1.598482049303129315e-05 -8.840269174470449798e-07
4.658000000000000000e+03 3.846224212646484375e+01 5.564693450927734375e+00 5.401196176535449922e-05 1.669398079684469849e-05 2.121178295055869967e-05 3.786868546740151942e-05
4.659000000000000000e+03 3.485855865478515625e+01 1.753978157043457031e+01 6.176444912853185087e-06 5.940785558777861297e-05 1.967528987734112889e-05 -7.046073005767539144e-05
4.660000000000000000e+03 7.199021339416503906e+00 8.279216766357421875e+00 2.089289409923367202e-05 -5.553928303925204091e-07 6.101250164647353813e-06 -7.673670552321709692e-06
4.661000000000000000e+03 3.773497772216796875e+01 -1.294642353057861328e+01 -5.941947620158316568e-06 -2.149827878383803181e-06 -2.427532763249473646e-06 -1.210054165312612895e-06
4.662000000000000000e+03 2.201748847961425781e+01 1.643127918243408203e+00 1.815809082472696900e-05 2.665015927050262690e-06 6.246932116482639685e-06 -7.711789294262416661e-06
4.663000000000000000e+03 1.209268283843994141e+01 7.172846317291259766e+00 1.092478760256199166e-05 1.063707804860314354e-05 6.468559604400070384e-06 -1.769783193594776094e-05
4.664000000000000000e+03 3.012261581420898438e+01 -7.720401763916015625e+00 6.110338290454819798e-06 -4.440133125171996653e-06 5.010615495848469436e-07 -1.242877374352246989e-06
4.665000000000000000e+03 2.969877052307128906e+01 -6.952379226684570312e+00 5.298355517879826948e-06 -1.323269202657684218e-06 1.192525814985856414e-06 2.674760025911382399e-06
4.666000000000000000e+03 3.708050918579101562e+01 2.208854866027832031e+01 -7.585425191791728139e-05 -1.112896279664710164e-04 -5.614316251012496650e-05 -4.348556467448361218e-05
4.667000000000000000e+03 3.726328659057617188e+01 2.114515686035156250e+01 -1.219526820932514966e-04 8.189161599148064852e-05 -1.201831946673337370e-05 -4.366016946732997894e-05
4.668000000000000000e+03 4.315772628784179688e+01 -1.968660473823547363e+00 -3.625144745456054807e-05 1.028599308483535424e-05 -7.789636583765968680e-06 7.672043466300237924e-06
4.669000000000000000e+03 4.211094284057617188e+01 -2.260445356369018555e+00 -1.054175572789972648e-05 9.927881365001667291e-06 -1.841624737153324531e-07 8.908288691600318998e-06
4.670000000000000000e+03 3.368104934692382812e+01 -1.261081314086914062e+01 -1.989936890822718851e-06 -1.588689428899670020e-06 -1.073587895916716661e-06 -1.646023292778409086e-06
4.671000000000000000e+03 6.904573822021484375e+01 -1.665518569946289062e+01 -3.354363739490509033e-01 8.617435097694396973e-01 1.578921377658843994e-01 2.891784012317657471e-01
4.672000000000000000e+03 1.805988311767578125e+01 7.107313156127929688e+00 6.027923518558964133e-06 4.200669536658097059e-06 3.068577825615648180e-06 -1.564350895932875574e-05
4.673000000000000000e+03 1.552048587799072266e+01 6.537024021148681641e+00 8.100649210973642766e-06 9.903251338982954621e-06 5.401170255936449394e-06 -1.786661414371337742e-05
4.674000000000000000e+03 7.193274974822998047e+00 9.000090599060058594e+00 -1.284097197640221566e-05 1.705073555058334023e-05 1.262929117729072459e-06 -2.156769733119290322e-05
4.675000000000000000e+03 8.914707183837890625e+00 7.712246894836425781e+00 -5.942601546848891303e-06 1.759311658133810852e-06 -1.254986955245840363e-06 9.096337976188806351e-07
4.676000000000000000e+03 3.568074417114257812e+01 2.608196067810058594e+01 -2.341644722037017345e-04 -5.385897020460106432e-05 -8.640703163109719753e-05 4.070726845384342596e-06
4.677000000000000000e+03 3.663782501220703125e+01 1.867739105224609375e+01 1.771884672052692622e-05 7.981171802384778857e-05 2.925916851381771266e-05 -6.231230145203880966e-06
4.678000000000000000e+03 2.399524116516113281e+01 8.287568092346191406e-01 8.324644113599788398e-06 -1.728848656057380140e-05 -2.689153006940614432e-06 4.291074219509027898e-06
4.679000000000000000e+03 7.252924346923828125e+01 -1.810876464843750000e+01 -1.267822980880737305e-01 2.857251465320587158e-01 4.768285155296325684e-02 -5.433160439133644104e-02
4.680000000000000000e+03 3.587153625488281250e+01 2.771172142028808594e+01 -5.192603566683828831e-04 1.843708741944283247e-04 -1.004668374662287533e-04 3.065609489567577839e-04
4.681000000000000000e+03 1.173546028137207031e+01 6.528517723083496094e+00 -1.723562377264897805e-06 -3.157229684802587144e-06 -1.464237584514194168e-06 -1.079537923942552879e-06
4.682000000000000000e+03 1.069766044616699219e+01 8.134169578552246094e+00 1.116527164413128048e-05 1.056063774740323424e-05 6.517772817460354418e-06 -2.166804188163951039e-05
4.683000000000000000e+03 4.373973846435546875e+01 -7.559033870697021484e+00 -1.350944057776359841e-05 -9.532672265777364373e-06 -6.912633580213878304e-06 -5.051991138316225260e-06
4.684000000000000000e+03 4.402501296997070312e+01 -8.351227760314941406e+00 1.056923156284028664e-05 1.154065739683574066e-05 6.632966687902808189e-06 7.306105544557794929e-06
4.685000000000000000e+03 5.012131500244140625e+01 -3.066551208496093750e+01 1.107353448867797852e+00 4.421219825744628906e-01 4.648426473140716553e-01 3.081656098365783691e-01
4.686000000000000000e+03 4.931413650512695312e+01 -3.221973037719726562e+01 7.833778262138366699e-01 3.676923513412475586e-01 3.453210592269897461e-01 4.914492964744567871e-01
4.687000000000000000e+03 4.248070526123046875e+01 -8.707723021507263184e-01 -2.651098384376382455e-06 -1.668110962782520801e-05 -5.799662631034152582e-06 1.719864667393267155e-05
4.688000000000000000e+03 3.525053787231445312e+01 1.204255199432373047e+01 -6.570044934051111341e-05 -1.510421157036034856e-06 -2.016326106968335807e-05 1.507387332821963355e-05
4.689000000000000000e+03 3.687516021728515625e+01 8.185528755187988281e+00 7.163421105360612273e-05 3.265115822159714298e-07 2.158821553166490048e-05 3.803593426709994674e-05
4.690000000000000000e+03 1.628198242187500000e+01 7.019351959228515625e+00 8.563278242945671082e-06 -1.413228801538934931e-05 -1.670702886258368380e-06 2.376840257056755945e-06
4.691000000000000000e+03 1.492920875549316406e+01 7.088198184967041016e+00 -1.005669946607667953e-05 -5.117936780152376741e-06 -4.552391146717127413e-06 9.907125786412507296e-07
4.692000000000000000e+03 3.453180694580078125e+01 2.286434745788574219e+01 -2.193338877987116575e-04 1.263662561541423202e-04 -2.789029167615808547e-05 -3.846290201181545854e-05
4.693000000000000000e+03 5.090854263305664062e+01 -2.812685966491699219e+01 1.426400542259216309e+00 2.804900705814361572e-01 5.120671987533569336e-01 -2.655835747718811035e-01
4.694000000000000000e+03 4.713605499267578125e+01 -3.148610687255859375e+01 3.973722755908966064e-01 -3.483158051967620850e-01 1.471694093197584152e-02 1.310505717992782593e-01
4.695000000000000000e+03 4.785537719726562500e+01 -3.321279907226562500e+01 5.256471633911132812e-01 9.416284039616584778e-03 1.605190336704254150e-01 4.599717855453491211e-01
4.696000000000000000e+03 4.772438049316406250e+01 -3.059759330749511719e+01 5.247888565063476562e-01 -2.968429028987884521e-01 6.838379055261611938e-02 -1.965151354670524597e-02
4.697000000000000000e+03 4.947031021118164062e+01 -2.988042449951171875e+01 1.013982295989990234e+00 8.714913576841354370e-02 3.303394317626953125e-01 -5.701163318008184433e-03
4.698000000000000000e+03 3.901712799072265625e+01 2.964076423645019531e+01 -8.592028752900660038e-04 -3.827723776339553297e-05 -2.692440466489642859e-04 3.438556159380823374e-04
4.699000000000000000e+03 3.402186584472656250e+01 2.623142242431640625e+01 -3.827715117949992418e-04 1.664888841332867742e-04 -6.488478538813069463e-05 1.269044732907786965e-04
4.700000000000000000e+03 3.541634368896484375e+01 1.100446891784667969e+01 7.762629684293642640e-05 -2.116293035214766860e-05 1.693900958343874663e-05 2.361404949624557048e-05
4.701000000000000000e+03 3.631626510620117188e+01 1.112396335601806641e+01 -6.525654316646978259e-05 4.651272320188581944e-06 -1.818158125388436019e-05 6.512104846478905529e-06
4.702000000000000000e+03 7.510173797607421875e+00 2.773585510253906250e+01 -7.716053914919029921e-06 2.180745832447428256e-05 4.227421413816045970e-06 -9.913937901728786528e-06
4.703000000000000000e+03 7.622090816497802734e+00 3.638271331787109375e+01 3.225088948966003954e-05 -1.285965026909252629e-05 5.817371857119724154e-06 -1.060348768078256398e-05
4.704000000000000000e+03 4.079757690429687500e+01 2.877672767639160156e+01 -1.063650357536971569e-03 -6.555058007506886497e-06 -3.210616123396903276e-04 2.297394821653142571e-04
4.705000000000000000e+03 7.320105743408203125e+01 3.682947921752929688e+01 -2.623400986194610596e-01 6.791811585426330566e-01 1.250523179769515991e-01 2.582586705684661865e-01
4.706000000000000000e+03 4.735822296142578125e+01 -3.479877471923828125e+01 3.809123933315277100e-01 -5.943323019891977310e-03 1.124907135963439941e-01 5.044639706611633301e-01
4.707000000000000000e+03 4.886338043212890625e+01 -3.509707260131835938e+01 3.876713812351226807e-01 4.735409021377563477e-01 2.583636939525604248e-01 6.116850376129150391e-01
4.708000000000000000e+03 3.618268966674804688e+01 2.928131103515625000e+01 -2.357886114623397589e-04 -5.472967677633278072e-05 -8.715548756299540401e-05 8.839392830850556493e-05
4.709000000000000000e+03 3.833812713623046875e+01 3.152342796325683594e+01 -5.916375666856765747e-04 4.388499655760824680e-04 -4.583627742249518633e-05 5.986948381178081036e-04
4.710000000000000000e+03 5.240808868408203125e+01 -3.765886306762695312e+01 -2.137434035539627075e-01 1.619461417198181152e+00 4.217154085636138916e-01 3.754549324512481689e-01
4.711000000000000000e+03 9.950038909912109375e+00 -4.004713821411132812e+01 -1.013207598589360714e-03 3.483193460851907730e-03 7.409957470372319221e-04 2.099472563713788986e-03
4.712000000000000000e+03 4.107094192504882812e+01 2.769134330749511719e+01 -7.411306723952293396e-04 4.014289006590843201e-04 -1.019105257000774145e-04 -2.498619141988456249e-04
4.713000000000000000e+03 1.317277717590332031e+01 -4.105719757080078125e+01 -6.269206758588552475e-03 5.305117461830377579e-03 -2.892267075367271900e-04 1.178474994958378375e-04
4.714000000000000000e+03 5.794159698486328125e+01 -3.935922241210937500e+01 -2.195049822330474854e-01 1.150968790054321289e+00 2.794391512870788574e-01 -2.693907618522644043e-01
4.715000000000000000e+03 6.579111099243164062e+00 -8.874733924865722656e+00 -9.350694017484784126e-05 -6.076966747059486806e-05 -4.628298484021797776e-05 -5.604734178632497787e-05
4.716000000000000000e+03 4.170912170410156250e+01 -7.759913802146911621e-01 -1.863713987404480577e-05 -1.087270629795966670e-05 -8.852954124449752271e-06 1.491007515141973272e-05
4.717000000000000000e+03 4.263793182373046875e+01 -3.328271865844726562e+00 -2.647700785018969327e-05 -8.131740287353750318e-06 -1.038262416841462255e-05 1.083418555936077610e-05
4.718000000000000000e+03 5.003234100341796875e+01 -2.931359672546386719e+01 1.191780447959899902e+00 1.709183454513549805e-01 4.088096320629119873e-01 -7.469948381185531616e-02
4.719000000000000000e+03 4.086731719970703125e+01 -1.415666198730468750e+01 -4.288701802579453215e-06 -2.600382458695094101e-06 -2.066725301119731739e-06 1.051736944646108896e-06
4.720000000000000000e+03 4.051840591430664062e+01 -1.274198627471923828e+01 1.041927498590666801e-05 4.920113951811799780e-07 3.273386028013192117e-06 2.170970219594892114e-06
4.721000000000000000e+03 4.880031585693359375e+01 -2.919549179077148438e+01 8.741962313652038574e-01 -2.111503332853317261e-01 1.989137679338455200e-01 -2.888940274715423584e-01
4.722000000000000000e+03 1.247987747192382812e+01 -9.752510070800781250e+00 -9.748324373504146934e-05 -3.758101593120954931e-05 -4.051927680848166347e-05 1.069766040018294007e-05
4.723000000000000000e+03 1.048338413238525391e+01 -7.259521007537841797e+00 -9.909877007885370404e-06 -7.867525710025802255e-06 -5.333220542524941266e-06 -4.247668402967974544e-05
4.724000000000000000e+03 7.024497985839843750e+01 -1.359780120849609375e+01 -2.377246767282485962e-01 9.848530292510986328e-01 2.241385132074356079e-01 6.046437658369541168e-03
4.725000000000000000e+03 3.455792617797851562e+01 -1.215359115600585938e+01 5.539151516131823882e-06 1.556736606289632618e-06 2.128766482201172039e-06 6.326736183837056160e-06
4.726000000000000000e+03 3.344725036621093750e+01 -1.136034679412841797e+01 4.383346094982698560e-06 -2.076363898595445789e-06 6.920947157595946919e-07 -1.656815015849133488e-06
4.727000000000000000e+03 4.518011093139648438e+01 -1.089977455139160156e+01 -1.474846885685110465e-05 6.741280685673700646e-06 -2.402156496827956289e-06 7.896525175965507515e-07
4.728000000000000000e+03 6.987406253814697266e+00 -1.033841705322265625e+01 1.563274126965552568e-04 2.314534322067629546e-05 5.384182441048324108e-05 2.355947071919217706e-05
4.729000000000000000e+03 9.354541778564453125e+00 -1.252519989013671875e+01 7.786619971739128232e-05 3.894546534866094589e-05 3.504350024741142988e-05 -3.376230552021297626e-06
4.730000000000000000e+03 3.887392044067382812e+01 9.697217941284179688e-01 1.673943370406050235e-05 9.778254025150090456e-06 7.955306500662118196e-06 -2.773665073618758470e-06
4.731000000000000000e+03 4.066366577148437500e+01 8.394747227430343628e-02 1.666344360273797065e-05 1.914619315357413143e-05 1.074289048119680956e-05 3.792492498178035021e-05
4.732000000000000000e+03 9.997815132141113281e+00 -7.283835411071777344e+00 7.640964031452313066e-05 1.606613659532740712e-05 2.774273343675304204e-05 4.770621217176085338e-06
4.733000000000000000e+03 7.445634841918945312e+00 -8.511556625366210938e+00 -1.064193784259259701e-04 9.724321898829657584e-07 -3.163408473483286798e-05 -5.230036549619399011e-06
4.734000000000000000e+03 4.319413375854492188e+01 -1.346120929718017578e+01 -2.373633151364629157e-06 4.992733465769561008e-06 7.857300374780606944e-07 -2.255416802654508501e-06
4.735000000000000000e+03 4.347367858886718750e+01 -1.082027530670166016e+01 -1.042115945892874151e-05 8.679974598635453731e-06 -5.223556058808753733e-07 1.027862523983458232e-07
4.736000000000000000e+03 3.170262145996093750e+01 -9.315326690673828125e+00 3.896830548910656944e-06 2.523800617382221390e-07 1.244763097929535434e-06 -2.410632077953778207e-06
4.737000000000000000e+03 3.211561965942382812e+01 -1.095217323303222656e+01 -1.151345941252657212e-06 -1.044103328240453266e-06 -6.586348035853006877e-07 2.080465264953090809e-06
4.738000000000000000e+03 3.251518249511718750e+01 -1.238022899627685547e+01 5.531958322535501793e-06 4.397830366542621050e-07 1.791522322491800878e-06 4.135959272844047518e-07
4.739000000000000000e+03 6.845195770263671875e+00 1.266800880432128906e+01 1.787557812349405140e-05 5.394759227783652022e-06 6.981101250858046114e-06 -1.889118721010163426e-06
4.740000000000000000e+03 7.571662425994873047e+00 1.382495021820068359e+01 1.011767380987294018e-05 9.583075552654918283e-06 5.910224899707827717e-06 -5.803609838039847091e-06
4.741000000000000000e+03 7.252790927886962891e+00 2.237039566040039062e+01 1.710406831989530474e-05 9.231785952579230070e-06 7.900755917944479734e-06 2.744740413618274033e-06
4.742000000000000000e+03 8.151602745056152344e+00 2.327202033996582031e+01 -6.048953309800708666e-06 -3.753635837711044587e-07 -1.927294988490757532e-06 2.134451096935663372e-05
4.743000000000000000e+03 4.316978454589843750e+01 -4.273680686950683594e+00 -2.773985033854842186e-05 -1.879842443486268166e-06 -8.885907845979090780e-06 2.587968765510595404e-06
4.744000000000000000e+03 3.518077087402343750e+01 -1.195190048217773438e+01 -1.730449071146722417e-06 -1.833161149988882244e-06 -1.069083054971997626e-06 -6.649280294368509203e-06
4.745000000000000000e+03 3.536140441894531250e+01 -1.268842697143554688e+01 8.805033758108038455e-06 1.786351845112221781e-06 3.177415919708437286e-06 5.711157427867874503e-06
4.746000000000000000e+03 6.825954437255859375e+01 -1.788174247741699219e+01 -3.074617087841033936e-01 8.224369287490844727e-01 1.544925570487976074e-01 5.165036320686340332e-01
4.747000000000000000e+03 4.474051284790039062e+01 -9.664752960205078125e+00 7.044053518256987445e-08 8.858306500769685954e-06 2.678624014151864685e-06 6.900100743223447353e-06
4.748000000000000000e+03 4.264531326293945312e+01 -1.297882461547851562e+01 7.400426056847209111e-06 -8.091425911516125780e-07 1.977384954443550669e-06 7.776607162668369710e-07
4.749000000000000000e+03 8.998960494995117188e+00 1.997755622863769531e+01 -1.189407043966639321e-06 2.893091732403263450e-06 5.111054406370385550e-07 -2.689077291506691836e-06
4.750000000000000000e+03 6.991049289703369141e+00 1.608982467651367188e+01 2.733217343120486476e-06 1.312136009801179171e-05 4.756373073178110644e-06 -1.896269168355502188e-07
4.751000000000000000e+03 3.838626861572265625e+01 1.337249159812927246e+00 -1.232210979651426896e-05 -1.573524605191778392e-05 -8.417207027378026396e-06 3.336767622386105359e-05
4.752000000000000000e+03 6.906593322753906250e+01 -1.444297122955322266e+01 -3.201286494731903076e-01 1.059180140495300293e+00 2.217154651880264282e-01 1.403425931930541992e-01
4.753000000000000000e+03 7.055274200439453125e+01 -1.599319744110107422e+01 -2.382232397794723511e-01 7.197079658508300781e-01 1.444454193115234375e-01 7.786486297845840454e-02
4.754000000000000000e+03 7.206178283691406250e+01 -1.196121692657470703e+01 -1.446568071842193604e-01 8.314102888107299805e-01 2.060260474681854248e-01 -1.863332390785217285e-01
4.755000000000000000e+03 7.068958282470703125e+01 -1.270267581939697266e+01 -1.834272891283035278e-01 1.006891131401062012e+00 2.470391690731048584e-01 -5.150169134140014648e-02
4.756000000000000000e+03 7.261747741699218750e+01 -1.169416332244873047e+01 -1.313780844211578369e-01 7.399650812149047852e-01 1.825761049985885620e-01 -2.289801985025405884e-01
4.757000000000000000e+03 7.276818275451660156e+00 1.950835609436035156e+01 5.014779162593185902e-06 7.895373528299387544e-06 3.873045898217242211e-06 -4.249904577591223642e-06
4.758000000000000000e+03 7.238779544830322266e+00 2.358374404907226562e+01 -2.793617568386252970e-05 7.583055776194669306e-06 -6.105936336098238826e-06 1.429533676855498925e-05
4.759000000000000000e+03 7.219725131988525391e+00 -9.040198326110839844e+00 1.200287733809091151e-04 4.391313632368110120e-05 4.918257400277070701e-05 4.070437353220768273e-05
4.760000000000000000e+03 3.128997230529785156e+01 -8.775188446044921875e+00 3.918943093594862148e-06 -1.445078396500321105e-06 7.421593295475759078e-07 6.730282166245160624e-06
4.761000000000000000e+03 7.435555458068847656e+00 2.305893516540527344e+01 -1.138205152528826147e-05 7.343442121054977179e-06 -1.211582798532617744e-06 -1.221536058437777683e-05
4.762000000000000000e+03 7.191373348236083984e+00 2.107078361511230469e+01 1.093565060727996752e-05 7.351152930823445786e-08 3.302748609712580219e-06 -1.738530841066676658e-06
4.763000000000000000e+03 8.138398170471191406e+00 1.882265090942382812e+01 1.447650561203772668e-06 8.438294571533333510e-06 2.965783551189815626e-06 -3.996480700152460486e-06
4.764000000000000000e+03 7.741203784942626953e+00 2.474180984497070312e+01 -8.603687092545442283e-06 7.866417035984341055e-06 -2.211808833862960455e-07 -6.343820132315158844e-06
4.765000000000000000e+03 7.882527828216552734e+00 9.163764953613281250e+00 -1.219936279994726647e-06 1.296601567446487024e-06 2.299957735374391632e-08 3.264178303652442992e-06
4.766000000000000000e+03 7.281262207031250000e+01 -1.352618408203125000e+01 -1.508292704820632935e-01 5.584137439727783203e-01 1.222753450274467468e-01 -2.077529579401016235e-01
4.767000000000000000e+03 7.380559539794921875e+01 -9.787745475769042969e+00 -8.263876289129257202e-02 5.429544448852539062e-01 1.380946934223175049e-01 -3.357475399971008301e-01
4.768000000000000000e+03 7.403975677490234375e+01 -6.978513717651367188e+00 -1.606523059308528900e-02 6.224024295806884766e-01 1.819011718034744263e-01 -3.612468540668487549e-01
4.769000000000000000e+03 7.113533020019531250e+01 -1.738579177856445312e+01 -1.825648993253707886e-01 4.859772622585296631e-01 9.102371335029602051e-02 7.273201644420623779e-02
4.770000000000000000e+03 6.371840000152587891e+00 -1.014388370513916016e+01 -9.314974158769473433e-05 -5.644662815029732883e-05 -4.487891055759973824e-05 -3.671431386464973912e-06
4.771000000000000000e+03 7.953135013580322266e+00 -8.723151206970214844e+00 1.147391521953977644e-04 2.276828854519408196e-05 4.125223131268285215e-05 8.576605614507570863e-05
4.772000000000000000e+03 7.344245147705078125e+01 -1.479341411590576172e+01 -1.389295309782028198e-01 3.707918226718902588e-01 6.955868750810623169e-02 -1.999322921037673950e-01
4.773000000000000000e+03 1.008064079284667969e+01 8.847331047058105469e+00 -1.096722735383082181e-05 3.927706586637214059e-07 -3.172337073920061812e-06 -5.506431079993490130e-07
4.774000000000000000e+03 6.556679248809814453e+00 -1.176444530487060547e+01 -1.088721619453281164e-04 -7.024630758678540587e-05 -5.373554085963405669e-05 -9.150229743681848049e-05
4.775000000000000000e+03 7.653695583343505859e+00 -1.041267013549804688e+01 -1.412183482898399234e-04 -2.760736060736235231e-05 -5.064771175966598094e-05 -3.117503001703880727e-05
4.776000000000000000e+03 7.573023319244384766e+00 1.048787784576416016e+01 2.015502832364290953e-05 2.182419166274485178e-06 6.701234269712585956e-06 -4.052543317811796442e-06
4.777000000000000000e+03 6.761484146118164062e+00 1.202971744537353516e+01 -1.065618107531918213e-05 1.517344662715913728e-05 1.355179620077251457e-06 -2.162983219022862613e-05
4.778000000000000000e+03 6.605415821075439453e+00 -1.240300464630126953e+01 1.344554475508630276e-04 7.765881309751421213e-05 6.363427382893860340e-05 5.019095260649919510e-05
4.779000000000000000e+03 7.784691810607910156e+00 -1.168086528778076172e+01 -1.135800048359669745e-04 -6.248964928090572357e-05 -5.282089477987028658e-05 -5.937317473581060767e-05
4.780000000000000000e+03 8.133471488952636719e+00 1.973142814636230469e+01 -1.306844296777853742e-05 1.007342507364228368e-05 -8.985052204479870852e-07 -4.430074568517738953e-06
4.781000000000000000e+03 7.397691249847412109e+00 -1.307893371582031250e+01 1.483274099882692099e-04 9.010967914946377277e-05 7.153112528612837195e-05 5.328059705789200962e-05
4.782000000000000000e+03 7.245714569091796875e+01 -1.578432273864746094e+01 -1.621068120002746582e-01 4.730691015720367432e-01 9.328868985176086426e-02 -9.970442205667495728e-02
4.783000000000000000e+03 7.153735351562500000e+01 -1.594189834594726562e+01 -1.936081796884536743e-01 5.860202312469482422e-01 1.177236065268516541e-01 -2.020785771310329437e-02
4.784000000000000000e+03 7.960179805755615234e+00 1.691704177856445312e+01 3.930368620785884559e-06 1.597860682522878051e-05 5.972692633804399520e-06 -1.851335809988086112e-06
4.785000000000000000e+03 7.266252994537353516e+00 1.865331840515136719e+01 -1.213977702718693763e-05 1.001041255221934989e-05 -6.388091833287035115e-07 -5.805976343253860250e-06
4.786000000000000000e+03 1.348507404327392578e+01 -8.676094055175781250e+00 -8.798126600595423952e-07 2.830857511071371846e-06 5.853135007782839239e-07 4.600107422447763383e-05
4.787000000000000000e+03 7.554138183593750000e+00 1.159801483154296875e+01 5.395874723035376519e-06 6.253923857002519071e-06 3.494939619486103766e-06 -1.826836160034872591e-05
4.788000000000000000e+03 7.226908874511718750e+01 -1.308319759368896484e+01 -1.760010421276092529e-01 6.963459849357604980e-01 1.561034768819808960e-01 -1.872667670249938965e-01
4.789000000000000000e+03 6.953015136718750000e+01 -1.499885082244873047e+01 -2.992581427097320557e-01 9.569267034530639648e-01 1.973005682229995728e-01 1.192355304956436157e-01
4.790000000000000000e+03 1.008815574645996094e+01 -1.161743736267089844e+01 -1.197806632262654603e-04 -6.093071351642720401e-05 -5.421341484179720283e-05 2.991137080243788660e-05
4.791000000000000000e+03 7.967456817626953125e+00 2.677060508728027344e+01 4.879601419816026464e-06 -1.727318158373236656e-05 -3.718073912750696763e-06 1.724092908261809498e-05
4.792000000000000000e+03 8.212471961975097656e+00 2.399035072326660156e+01 -2.316734935448039323e-05 4.078335678059374914e-06 -5.726704330299980938e-06 -2.095078707498032600e-05
4.793000000000000000e+03 4.445738601684570312e+01 -1.093367671966552734e+01 -7.432195616274839267e-06 1.351340324617922306e-05 1.824362129809742328e-06 4.855724910157732666e-06
4.794000000000000000e+03 7.102339172363281250e+01 -1.142546939849853516e+01 -1.337513476610183716e-01 1.079411625862121582e+00 2.836980819702148438e-01 -8.713389188051223755e-02
4.795000000000000000e+03 4.525981521606445312e+01 -1.237028312683105469e+01 1.292173419642494991e-05 -1.324513232248136774e-05 -9.701946623863477726e-08 -3.202461584805860184e-06
4.796000000000000000e+03 4.500747680664062500e+01 -1.136040019989013672e+01 1.531233647256158292e-05 -9.296481039200443774e-06 1.804756720957811922e-06 1.616157419448427390e-06
4.797000000000000000e+03 4.253494644165039062e+01 -1.678666472434997559e+00 1.684241760813165456e-05 5.887245038138644304e-07 5.229342605161946267e-06 -2.191297653553192504e-06
4.798000000000000000e+03 4.205809402465820312e+01 -1.270962476730346680e+00 7.069415914884302765e-07 1.543010512250475585e-05 4.841113877773750573e-06 -3.677418590086745098e-06
4.799000000000000000e+03 3.296014785766601562e+01 -1.184900283813476562e+01 -7.796469390086713247e-07 -5.759425221185665578e-07 -4.066768326538294787e-07 9.996878134188591503e-07
4.800000000000000000e+03 3.592765045166015625e+01 1.730858612060546875e+01 -7.098016067175194621e-05 -5.530607813852839172e-05 -3.788587127928622067e-05 6.976070388020616519e-09
4.801000000000000000e+03 8.555354118347167969e+00 -1.223086643218994141e+01 -4.701535362983122468e-05 -1.144407142419368029e-04 -4.843682108912616968e-05 -7.803327025612816215e-05
4.802000000000000000e+03 7.820958614349365234e+00 1.282221508026123047e+01 1.761654675647150725e-05 7.292005193448858336e-06 7.472565357602434233e-06 -9.924716323439497501e-06
4.803000000000000000e+03 6.927632331848144531e+00 1.378027534484863281e+01 2.661796315805986524e-06 4.663363597501302138e-06 2.197547928517451510e-06 -1.586386679264251143e-05
4.804000000000000000e+03 3.104409408569335938e+01 -8.145642280578613281e+00 1.320537649007746950e-06 -9.056655471795238554e-06 -2.320835164937307127e-06 -4.244767296768259257e-06
4.805000000000000000e+03 7.199986267089843750e+01 -1.787956619262695312e+01 -1.324609965085983276e-01 3.515225946903228760e-01 6.571847945451736450e-02 4.073919728398323059e-03
4.806000000000000000e+03 3.074627685546875000e+01 -7.368758678436279297e+00 6.401138307410292327e-06 1.860813370058167493e-07 1.976166004169499502e-06 4.952222752763191238e-06
4.807000000000000000e+03 2.252868080139160156e+01 2.190978527069091797e+00 5.422979029390262440e-06 -1.743341454130131751e-05 -3.603130835472256877e-06 5.594458798441337422e-06
4.808000000000000000e+03 2.838276100158691406e+01 -3.395078897476196289e+00 1.361411796096945181e-05 -4.889233423455152661e-06 2.617465270304819569e-06 1.183344352284620982e-06
4.809000000000000000e+03 9.494202613830566406e+00 8.219374656677246094e+00 1.027547750709345564e-05 1.033298212860245258e-05 6.182538072607712820e-06 -2.426779428787995130e-05
4.810000000000000000e+03 3.773585128784179688e+01 4.376056194305419922e+00 6.591384590137749910e-05 1.637056084291543812e-05 2.468532147759106010e-05 1.977795909624546766e-05
4.811000000000000000e+03 3.820402908325195312e+01 2.318813562393188477e+00 -2.772710649878717959e-05 -2.324897650396451354e-05 -1.529282417322974652e-05 2.546781433920841664e-05
4.812000000000000000e+03 2.024769592285156250e+01 3.889114379882812500e+00 2.146785482182167470e-05 1.581314904797181953e-06 6.914750883879605681e-06 -1.071168117050547153e-05
4.813000000000000000e+03 3.655929183959960938e+01 5.241876125335693359e+00 5.976653483230620623e-05 7.343372544710291550e-06 2.013297125813551247e-05 2.333027077838778496e-05
4.814000000000000000e+03 4.472286987304687500e+01 -8.128589630126953125e+00 -1.137134313466958702e-05 -9.189948286802973598e-06 -6.168387244542827830e-06 -3.617641596065368503e-06
4.815000000000000000e+03 3.444392013549804688e+01 1.662328147888183594e+01 -4.548949436866678298e-05 -1.301317824982106686e-04 -5.268638415145687759e-05 4.699928467744030058e-05
4.816000000000000000e+03 6.963171386718750000e+01 -1.706029319763183594e+01 -2.494309097528457642e-01 7.211419343948364258e-01 1.415133029222488403e-01 2.427788525819778442e-01
4.817000000000000000e+03 8.080647468566894531e+00 2.059840202331542969e+01 3.258477590861730278e-06 1.292028287025459576e-06 1.365151774734840728e-06 -2.435747774143237621e-06
4.818000000000000000e+03 7.956148147583007812e+00 2.138921356201171875e+01 -1.420911121385870501e-05 1.830765540944412351e-05 1.229563395099830814e-06 -4.265035840944619849e-06
4.819000000000000000e+03 1.324153995513916016e+01 6.230847358703613281e+00 1.102176884160144255e-05 1.106883246393408626e-05 6.627180482610128820e-06 -1.962455098691862077e-05
4.820000000000000000e+03 1.367590999603271484e+01 8.055359840393066406e+00 -8.094983968476299196e-06 -7.526469289587112144e-06 -4.686436113843228668e-06 -6.455210268541122787e-07
4.821000000000000000e+03 7.411804199218750000e+01 1.158998870849609375e+01 -1.289655268192291260e-01 1.385324120521545410e+00 3.769075870513916016e-01 1.443524286150932312e-02
4.822000000000000000e+03 4.375574874877929688e+01 -1.186720657348632812e+01 -1.047519526764517650e-05 7.590033874294022098e-06 -8.655485430608678143e-07 1.906660486383771058e-06
4.823000000000000000e+03 8.393041610717773438e+00 2.852471160888671875e+01 -1.773841722751967609e-05 -1.526715095678810030e-05 -9.901669727696571499e-06 2.834148290276061743e-05
4.824000000000000000e+03 1.477012729644775391e+01 8.235958099365234375e+00 -8.456963769276626408e-06 -8.994527888717129827e-06 -5.235447588347597048e-06 -1.889673285404569469e-06
4.825000000000000000e+03 6.965602874755859375e+01 -1.403013420104980469e+01 -2.651805579662322998e-01 1.028428554534912109e+00 2.289744168519973755e-01 6.449322402477264404e-02
4.826000000000000000e+03 7.159701538085937500e+01 -1.153589439392089844e+01 -1.412635892629623413e-01 9.451593160629272461e-01 2.411687225103378296e-01 -1.485332697629928589e-01
4.827000000000000000e+03 1.845506668090820312e+01 6.520532131195068359e+00 -9.954377446774742566e-07 -1.463282296754186973e-05 -4.688478384196059778e-06 6.957418008823879063e-06
4.828000000000000000e+03 1.827676582336425781e+01 5.525939464569091797e+00 7.114702498256519902e-07 -1.333600539510371163e-05 -3.787360583373811096e-06 4.847328455070964992e-06
4.829000000000000000e+03 3.553050231933593750e+01 1.908750343322753906e+01 4.840431211050599813e-05 3.372263381606899202e-05 2.463808414177037776e-05 -7.320989243453368545e-05
4.830000000000000000e+03 4.409450531005859375e+01 -1.137091827392578125e+01 1.319793500442756340e-05 -1.258826887351460755e-05 1.828996545327754575e-07 -6.126309131104790140e-07
4.831000000000000000e+03 2.005988311767578125e+01 4.914530277252197266e+00 1.717935811029747128e-05 4.534470463113393635e-06 6.514148481073789299e-06 -1.054540916811674833e-05
4.832000000000000000e+03 1.868664932250976562e+01 7.430703163146972656e+00 -4.066112069267546758e-07 -1.534275179437827319e-05 -4.724808604805730283e-06 7.052253295114496723e-06
4.833000000000000000e+03 2.782608222961425781e+01 -2.578264713287353516e+00 6.139296601759269834e-06 -8.480956239509396255e-06 -7.024977435321488883e-07 2.616851134007447399e-06
4.834000000000000000e+03 3.518456268310546875e+01 1.507266998291015625e+01 2.135296927008312196e-05 2.360022881475742906e-05 1.348596015304792672e-05 2.132706686097662896e-05
4.835000000000000000e+03 3.607406616210937500e+01 1.413908481597900391e+01 6.282576941885054111e-05 4.970224381395382807e-06 2.033879900409374386e-05 2.203161602665204555e-05
4.836000000000000000e+03 1.263205623626708984e+01 -7.960879802703857422e+00 -5.028376108384691179e-05 -1.559366683068219572e-05 -1.976322892005555332e-05 4.519386493484489620e-05
4.837000000000000000e+03 1.176917552947998047e+01 -9.355942726135253906e+00 1.181211628136225045e-04 1.237639116880018264e-05 3.914926492143422365e-05 -5.409282948676263914e-06
4.838000000000000000e+03 8.962165832519531250e+00 -8.001448631286621094e+00 -1.191386254504323006e-04 -6.516303074022289366e-06 -3.769647810258902609e-05 -1.170454561361111701e-04
4.839000000000000000e+03 2.327205085754394531e+01 1.527162313461303711e+00 1.723521745589096099e-05 2.342694870094419457e-06 5.873373538634041324e-06 -5.477328613778809085e-06
4.840000000000000000e+03 2.177038383483886719e+01 2.808400869369506836e+00 1.967163007066119462e-05 2.104991381202125922e-06 6.532986390084261075e-06 -9.057597708306275308e-06
4.841000000000000000e+03 1.035830783843994141e+01 1.242284774780273438e+01 1.876093483588192612e-05 3.884380930685438216e-06 6.793594820919679478e-06 -1.278084619116270915e-05
4.842000000000000000e+03 7.062721252441406250e+01 -1.785724639892578125e+01 -1.527619510889053345e-01 4.833642244338989258e-01 9.918068349361419678e-02 1.529475301504135132e-01
4.843000000000000000e+03 2.722025299072265625e+01 -1.770735144615173340e+00 1.519398847449338064e-05 -2.608183422125875950e-06 3.775741333811311051e-06 9.743675946083385497e-07
4.844000000000000000e+03 2.593571090698242188e+01 -1.914492100477218628e-01 1.644087751628831029e-05 -4.849963488595676608e-07 4.786764748132554814e-06 3.181132157692445617e-08
4.845000000000000000e+03 3.483327865600585938e+01 -1.131685733795166016e+01 5.261121714283945039e-06 1.828281938287545927e-06 2.126821073034079745e-06 9.431233593204524368e-06
4.846000000000000000e+03 2.525949859619140625e+01 5.742746591567993164e-01 7.274509243870852515e-06 -1.726032496662810445e-05 -2.995744580402970314e-06 3.853828275168780237e-06
4.847000000000000000e+03 7.854165077209472656e+00 -8.217954635620117188e+00 -3.867178747896105051e-05 5.822886919304437470e-07 -1.142684959631878883e-05 -8.282578346552327275e-05
4.848000000000000000e+03 2.658807182312011719e+01 -9.739647507667541504e-01 7.239265414682449773e-06 -1.289726242248434573e-05 -1.697399170552671421e-06 2.978430075017968193e-06
4.849000000000000000e+03 7.143865966796875000e+01 -1.787833786010742188e+01 -1.371444016695022583e-01 3.997205793857574463e-01 7.877285033464431763e-02 4.475206509232521057e-02
4.850000000000000000e+03 7.007884216308593750e+01 -1.649961662292480469e+01 -2.664659023284912109e-01 7.241121530532836914e-01 1.372938603162765503e-01 1.589824110269546509e-01
4.851000000000000000e+03 1.773535346984863281e+01 7.737536907196044922e+00 3.753481678359094076e-06 -1.438608069292968139e-05 -3.189779590684338473e-06 -1.245519456460897345e-06
4.852000000000000000e+03 4.111296844482421875e+01 -1.290644264221191406e+01 -9.141634109255392104e-06 1.327067025158612523e-06 -2.344370159335085191e-06 9.098666282625345048e-07
4.853000000000000000e+03 3.581642532348632812e+01 8.999951362609863281e+00 7.266904140124097466e-05 -1.075117052096175030e-05 1.857536153693217784e-05 3.507296423777006567e-05
4.854000000000000000e+03 3.608316802978515625e+01 2.189477157592773438e+01 -1.777421857696026564e-04 1.074754181900061667e-04 -2.108003172907046974e-05 -6.173154542921110988e-05
4.855000000000000000e+03 3.485197830200195312e+01 1.986983489990234375e+01 -1.842059427872300148e-04 -8.647498179925605655e-05 -8.120427810354158282e-05 4.700815770775079727e-05
4.856000000000000000e+03 1.139777755737304688e+01 7.582486629486083984e+00 -1.387720840284600854e-05 2.782993078653817065e-06 -3.328264483570819721e-06 -4.286554485588567331e-06
4.857000000000000000e+03 1.065452957153320312e+01 9.601376533508300781e+00 1.199497273773886263e-05 1.008713570627151057e-05 6.624632533203111961e-06 -2.251092701044399291e-05
4.858000000000000000e+03 7.282035827636718750e+00 -1.239866638183593750e+01 -1.368444645777344704e-04 -7.115455082384869456e-05 -6.239970389287918806e-05 -6.927967478986829519e-05
4.859000000000000000e+03 2.455626678466796875e+01 1.324055910110473633e+00 1.726991649775300175e-05 1.389144813401799183e-06 5.597718427452491596e-06 -2.540963805586216040e-06
4.860000000000000000e+03 2.903011703491210938e+01 -3.015918016433715820e+00 4.727340183308115229e-06 -4.912859822070458904e-06 -5.565585325939537142e-08 3.509658654365921393e-06
4.861000000000000000e+03 3.591029357910156250e+01 1.831674766540527344e+01 -6.367091555148363113e-05 -2.892329212045297027e-05 -2.777826375677250326e-05 -5.127975327923195437e-06
4.862000000000000000e+03 6.947898101806640625e+01 -1.603496360778808594e+01 -3.022913336753845215e-01 8.670628070831298828e-01 1.694314479827880859e-01 1.948409527540206909e-01
4.863000000000000000e+03 4.423649215698242188e+01 -6.633128643035888672e+00 -1.492794945079367608e-05 -1.184742541227024049e-05 -8.032612640818115324e-06 -3.500646926113404334e-06
4.864000000000000000e+03 8.353081703186035156e+00 2.576816177368164062e+01 -1.190732564282370731e-05 1.050538230629172176e-05 -4.205829782222281210e-07 -2.678561941138468683e-06
4.865000000000000000e+03 3.430068969726562500e+01 1.193804645538330078e+01 7.535986514994874597e-05 -3.438774729147553444e-05 1.229163626703666523e-05 1.028475162456743419e-05
4.866000000000000000e+03 3.413325881958007812e+01 1.307528877258300781e+01 -7.648517930647358298e-05 -6.287078122113598511e-06 -2.483167554601095617e-05 2.566590228525456041e-05
4.867000000000000000e+03 4.313962173461914062e+01 -5.108148574829101562e+00 2.389967085036914796e-05 1.369192341371672228e-05 1.127747873397311196e-05 5.747893283114535734e-06
4.868000000000000000e+03 3.417035675048828125e+01 2.445967292785644531e+01 -1.489041897002607584e-04 -1.110375305870547891e-04 -7.798251317581161857e-05 4.402747435960918665e-05
4.869000000000000000e+03 3.025037002563476562e+01 -6.583014488220214844e+00 8.944332876126281917e-06 -5.661822342517552897e-06 9.847530009210458957e-07 -3.842807927867397666e-06
4.870000000000000000e+03 1.427715396881103516e+01 7.559196472167968750e+00 1.181644529424374923e-05 8.561463801015634090e-06 6.113372819527285174e-06 -1.655137930356431752e-05
4.871000000000000000e+03 1.610203552246093750e+01 7.702076435089111328e+00 -1.687813710304908454e-05 8.060980690061114728e-06 -2.645146878421655856e-06 -1.163218712463276461e-05
4.872000000000000000e+03 1.127401924133300781e+01 8.960723876953125000e+00 -1.183595031761797145e-05 -2.019193289015674964e-06 -4.156543127464829013e-06 9.265122002943826374e-08
4.873000000000000000e+03 7.884886264801025391e+00 1.104365825653076172e+01 -2.722173849178943783e-05 1.579959644004702568e-05 -3.426642479098518379e-06 -8.424439329246524721e-06
4.874000000000000000e+03 3.504886245727539062e+01 2.151692008972167969e+01 -1.510631700512021780e-04 -1.090899677365086973e-04 -7.804593769833445549e-05 6.066459172870963812e-05
4.875000000000000000e+03 3.580286407470703125e+01 2.311808395385742188e+01 -1.267974148504436016e-04 -1.101343368645757437e-04 -7.107952842488884926e-05 -6.243102689040824771e-06
4.876000000000000000e+03 3.709256744384765625e+01 7.238935947418212891e+00 -5.879702439415268600e-05 6.358601240208372474e-06 -1.573152803757693619e-05 -3.961212769354460761e-06
4.877000000000000000e+03 3.731064224243164062e+01 6.303416728973388672e+00 6.556067091878503561e-05 7.223839475045679137e-06 2.183535434596706182e-05 3.479828228591941297e-05
4.878000000000000000e+03 3.602040863037109375e+01 8.035018920898437500e+00 -5.571882866206578910e-05 3.204743734386283904e-06 -1.575422538735438138e-05 -1.556494908072636463e-06
4.879000000000000000e+03 3.451826095581054688e+01 1.086247253417968750e+01 -6.305568240350112319e-05 8.660263119963929057e-06 -1.631862505746539682e-05 4.714728220278630033e-06
4.880000000000000000e+03 4.850121307373046875e+01 -3.105858230590820312e+01 6.847153306007385254e-01 -3.143145143985748291e-02 1.959851533174514771e-01 1.827062070369720459e-01
4.881000000000000000e+03 3.556152725219726562e+01 3.183740425109863281e+01 -8.947899186750873923e-05 -7.681322313146665692e-05 -4.988766522728838027e-05 2.490899059921503067e-04
4.882000000000000000e+03 9.539528846740722656e+00 2.929471969604492188e+01 -6.714667051710421219e-06 1.171893836726667359e-05 1.501281531091080979e-06 -1.988802432606462389e-05
4.883000000000000000e+03 4.680807113647460938e+01 -4.106398391723632812e+01 1.759168207645416260e-01 2.461993992328643799e-01 1.266348659992218018e-01 1.021150872111320496e-01
4.884000000000000000e+03 7.276566028594970703e+00 4.135173034667968750e+01 -2.748088627413380891e-05 4.618831553671043366e-06 -6.858616416138829663e-06 -3.659654248622246087e-05
4.885000000000000000e+03 6.765975952148437500e+00 3.931060409545898438e+01 5.048880484537221491e-05 -2.644637788762338459e-05 7.212727723526768386e-06 3.887811089953174815e-06
4.886000000000000000e+03 3.952745819091796875e+01 3.471202850341796875e+01 -1.229652407346293330e-04 1.617446396267041564e-04 1.163382148661185056e-05 1.210004556924104691e-03
4.887000000000000000e+03 1.093230438232421875e+01 2.999058723449707031e+01 -7.388233825622592121e-06 -3.405064126127399504e-05 -1.243166207132162526e-05 3.276557617937214673e-05
4.888000000000000000e+03 4.671490859985351562e+01 -3.267415618896484375e+01 3.582596778869628906e-01 -3.405625522136688232e-01 5.309136584401130676e-03 2.694787681102752686e-01
4.889000000000000000e+03 3.648888778686523438e+01 2.083481025695800781e+01 -1.576147769810631871e-04 -8.648494258522987366e-05 -7.322991586988791823e-05 4.591535252984613180e-05
4.890000000000000000e+03 6.324036598205566406e+00 -3.955893707275390625e+01 1.292097294935956597e-04 1.952009857632219791e-03 6.243658717721700668e-04 1.114634680561721325e-03
4.891000000000000000e+03 3.416462707519531250e+01 2.808994102478027344e+01 -1.340638991678133607e-04 -1.153544435510411859e-04 -7.482550427084788680e-05 1.062780356733128428e-04
4.892000000000000000e+03 1.106683921813964844e+01 -8.830343246459960938e+00 -7.874811853980645537e-05 -5.385726126405643299e-06 -2.524015326343942434e-05 2.607233909657225013e-05
4.893000000000000000e+03 4.349578857421875000e+01 -6.762381076812744141e+00 1.648816760280169547e-05 1.376721320411888883e-05 9.076614333025645465e-06 6.689451765851117671e-06
4.894000000000000000e+03 4.301428985595703125e+01 -7.744297981262207031e+00 1.526723463030066341e-05 9.764307833393104374e-06 7.509463102906011045e-06 8.472541594528593123e-06
4.895000000000000000e+03 7.101657390594482422e+00 -9.670569419860839844e+00 -1.402992784278467298e-04 -2.948968358396086842e-05 -5.093669096822850406e-05 -3.010258478752803057e-05
4.896000000000000000e+03 1.255334949493408203e+01 7.875118732452392578e+00 -1.007234459393657744e-05 -2.959343419206561521e-06 -3.909506176569266245e-06 -2.053667458312702365e-06
4.897000000000000000e+03 3.356455993652343750e+01 -1.032316112518310547e+01 8.637302926217671484e-06 -3.993234258814482018e-06 1.393220713907794561e-06 -2.694858949325862341e-06
4.898000000000000000e+03 4.088803100585937500e+01 -4.861671924591064453e-01 -1.978609907382633537e-05 -1.612087180546950549e-05 -1.077209162758663297e-05 -2.087483608192997053e-06
4.899000000000000000e+03 3.884962463378906250e+01 1.548651903867721558e-01 6.074391762922459748e-07 -1.683348273218143731e-05 -4.867813004238996655e-06 1.066060031007509679e-05
4.900000000000000000e+03 9.452256202697753906e+00 -1.097750759124755859e+01 -8.759866614127531648e-05 -7.367124635493382812e-05 -4.838097447645850480e-05 -1.153343600890366361e-05
4.901000000000000000e+03 7.675307750701904297e+00 -1.103653907775878906e+01 1.205394291901029646e-04 5.276385491015389562e-05 5.199098450248129666e-05 3.333064887556247413e-05
4.902000000000000000e+03 3.849507522583007812e+01 4.990516901016235352e-01 -2.837784450093749911e-05 8.906860671231697779e-07 -8.246147444879170507e-06 2.195359047618694603e-05
4.903000000000000000e+03 7.225341796875000000e+01 -1.728015899658203125e+01 -1.518617868423461914e-01 3.805750608444213867e-01 6.861398369073867798e-02 -4.192186519503593445e-02
4.904000000000000000e+03 3.304535675048828125e+01 -1.086320304870605469e+01 -7.043657319627527613e-07 1.852012445624495740e-07 -1.557493476411764277e-07 3.232813469367101789e-06
4.905000000000000000e+03 4.020349121093750000e+01 -7.928746938705444336e-01 2.048400347121059895e-05 2.791502265608869493e-05 1.451970820198766887e-05 1.288657040277030319e-05
4.906000000000000000e+03 3.927082824707031250e+01 5.336254835128784180e-01 -8.409273505094461143e-06 2.012530239881016314e-05 3.514808895488386042e-06 -2.112959009537007660e-06
4.907000000000000000e+03 1.105614757537841797e+01 -1.049652576446533203e+01 -9.124628559220582247e-05 -4.286725015845149755e-05 -4.023405927000567317e-05 -9.426506585441529751e-05
4.908000000000000000e+03 3.712425231933593750e+01 -1.209140110015869141e+01 -7.972114872245583683e-06 -6.763301598766702227e-07 -2.594533498267992400e-06 -6.318289820228528697e-07
4.909000000000000000e+03 3.667621994018554688e+01 -1.116844940185546875e+01 -8.144694220391102135e-06 -5.712324195883411448e-07 -2.614777940834756009e-06 1.676606757428089622e-06
4.910000000000000000e+03 8.485918045043945312e+00 1.240733909606933594e+01 -2.225041680503636599e-05 8.287103810289409012e-06 -4.188993898424087092e-06 -1.141522170655662194e-05
4.911000000000000000e+03 4.253603363037109375e+01 -6.077620506286621094e+00 1.787583096302114427e-05 1.530645931779872626e-05 9.954686902347020805e-06 9.179248081636615098e-06
4.912000000000000000e+03 8.738910675048828125e+00 2.180346488952636719e+01 -2.202100404247175902e-06 -5.313612291502067819e-06 -2.254713763250038028e-06 3.337451062179752626e-06
4.913000000000000000e+03 4.233119201660156250e+01 -5.247022628784179688e+00 -1.408487514709122479e-05 -1.658316614339128137e-05 -9.200412932841572911e-06 -8.909461030270904303e-06
4.914000000000000000e+03 9.246039390563964844e+00 1.731209182739257812e+01 3.987354375567520037e-06 9.567982488078996539e-06 4.066600922669749707e-06 -7.067512342473492026e-06
4.915000000000000000e+03 3.163815498352050781e+01 -1.045348739624023438e+01 6.998820026637986302e-06 -4.281641849956940860e-07 1.971196752492687665e-06 -3.048819962714333087e-06
4.916000000000000000e+03 7.010353088378906250e+01 -1.455431461334228516e+01 -2.750471234321594238e-01 9.206593036651611328e-01 1.936836540699005127e-01 5.064419284462928772e-02
4.917000000000000000e+03 1.005423831939697266e+01 2.392630386352539062e+01 3.491851430226233788e-06 1.380249341309536248e-05 5.188303475733846426e-06 -8.533702384738717228e-06
4.918000000000000000e+03 3.214537429809570312e+01 -8.723737716674804688e+00 3.002918219863204286e-06 -4.555457962851505727e-06 -4.657619570025417488e-07 2.033328200923278928e-06
4.919000000000000000e+03 3.260061645507812500e+01 -1.036811733245849609e+01 6.928684342710766941e-06 -1.678957232797984034e-06 1.574918087499099784e-06 -2.265058128614327870e-06
4.920000000000000000e+03 7.717934608459472656e+00 1.460256576538085938e+01 -1.166203583125025034e-05 6.952343937882687896e-06 -1.412907522535533644e-06 -1.407763284078100696e-05
4.921000000000000000e+03 3.398669815063476562e+01 -1.092169761657714844e+01 1.243782435267348774e-06 3.942802322853822261e-06 1.555975359224248677e-06 5.628126018564216793e-06
4.922000000000000000e+03 3.913488388061523438e+01 -1.316473007202148438e+01 -6.097458481235662475e-06 -2.072691586363362148e-06 -2.451045020279707387e-06 -1.303034991906315554e-06
4.923000000000000000e+03 4.191522216796875000e+01 -1.361413860321044922e+01 4.225549673719797283e-06 5.632190550386440009e-06 2.957322067231871188e-06 4.226406872476218268e-06
4.924000000000000000e+03 7.121904754638671875e+01 -1.186955738067626953e+01 -1.498443335294723511e-01 9.936943650245666504e-01 2.531550228595733643e-01 -1.102827787399291992e-01
4.925000000000000000e+03 7.235671997070312500e+01 -1.256037044525146484e+01 -1.554401665925979614e-01 7.161415219306945801e-01 1.682104021310806274e-01 -2.031957954168319702e-01
4.926000000000000000e+03 7.600464820861816406e+00 9.857925415039062500e+00 -6.803351880080299452e-06 1.529685687273740768e-05 2.548051497797132470e-06 -2.652394505275879055e-05
4.927000000000000000e+03 4.245438003540039062e+01 -3.993836879730224609e+00 1.686672476353123784e-05 -6.379668320732889697e-06 3.146117023788974620e-06 -8.587930096837226301e-06
4.928000000000000000e+03 8.893750190734863281e+00 1.534924888610839844e+01 -2.190911072830203921e-05 3.090662403337773867e-06 -5.645534201903501526e-06 -9.838374353421386331e-06
4.929000000000000000e+03 7.009564876556396484e+00 -1.103424453735351562e+01 -1.583211269462481141e-04 -1.451037041988456622e-05 -5.184944893699139357e-05 -4.623585482477210462e-05
4.930000000000000000e+03 9.510169982910156250e+00 -1.155508708953857422e+01 8.161951700458303094e-05 1.024806115310639143e-04 5.523003710550256073e-05 -1.943996721820440143e-05
4.931000000000000000e+03 4.292471694946289062e+01 -1.226149845123291016e+01 -6.964656222407938913e-06 -9.251506867258285638e-07 -2.366941998843685724e-06 -2.021788292339010695e-09
4.932000000000000000e+03 8.386259078979492188e+00 -1.162336158752441406e+01 6.284077244345098734e-05 1.096752748708240688e-04 5.175481419428251684e-05 5.501478153746575117e-05
4.933000000000000000e+03 8.697496414184570312e+00 1.662998199462890625e+01 -1.640993650653399527e-05 -3.720175300259143114e-06 -6.039033451088471338e-06 -8.819269169180188328e-06
4.934000000000000000e+03 8.120336532592773438e+00 1.787141418457031250e+01 -1.133338264480698854e-05 4.244627234584186226e-06 -2.126626441167900339e-06 -7.662212738068774343e-06
4.935000000000000000e+03 9.287364006042480469e+00 2.466257095336914062e+01 -4.164786514593288302e-05 -3.623578550104866736e-06 -1.358143344987183809e-05 2.894864564950694330e-06
4.936000000000000000e+03 8.423816680908203125e+00 2.481536674499511719e+01 1.982625235541490838e-06 1.013767086988082156e-05 3.636088877101428807e-06 1.440615051251370460e-05
4.937000000000000000e+03 6.974481201171875000e+01 -1.309274673461914062e+01 -2.128683626651763916e-01 1.094982981681823730e+00 2.646343708038330078e-01 3.192466497421264648e-02
4.938000000000000000e+03 7.148674011230468750e+01 -1.507427024841308594e+01 -2.073217183351516724e-01 6.756792068481445312e-01 1.405072510242462158e-01 -5.369842797517776489e-02
4.939000000000000000e+03 7.083303070068359375e+01 -1.220632076263427734e+01 -1.705959886312484741e-01 1.031274437904357910e+00 2.582035362720489502e-01 -6.950562447309494019e-02
4.940000000000000000e+03 7.236853599548339844e+00 1.323430728912353516e+01 -2.443465746182482690e-05 1.567973777127917856e-05 -2.626475634315283969e-06 -1.132282341131940484e-05
4.941000000000000000e+03 3.162425804138183594e+01 -8.226300239562988281e+00 9.734950253914576024e-06 4.923797405353980139e-06 4.397624252305831760e-06 -1.704413762126932852e-06
4.942000000000000000e+03 3.978023147583007812e+01 -1.327669334411621094e+01 7.910154636192601174e-06 1.837740569499146659e-06 2.924368573076208122e-06 1.940358743013348430e-06
4.943000000000000000e+03 3.621425247192382812e+01 7.092639923095703125e+00 6.562237831531092525e-05 5.749553224632109050e-07 1.985919880098663270e-05 3.294029011158272624e-05
4.944000000000000000e+03 3.789455032348632812e+01 1.672949433326721191e+00 1.538861397420987487e-05 3.410269710002467036e-05 1.484739368606824428e-05 -1.094466551876394078e-05
4.945000000000000000e+03 1.118894577026367188e+01 -1.107795619964599609e+01 1.152121039922349155e-04 1.876720853033475578e-05 4.019379412056878209e-05 6.789037433918565512e-05
4.946000000000000000e+03 1.159925937652587891e+01 -9.943182945251464844e+00 -1.077027263818308711e-04 -4.243825242156162858e-05 -4.504229582380503416e-05 -2.572775520093273371e-05
4.947000000000000000e+03 4.197060012817382812e+01 -1.261081314086914062e+01 -7.714971616223920137e-06 1.421960973857494537e-06 -1.887903067654406186e-06 2.174144526634336216e-07
4.948000000000000000e+03 3.733727645874023438e+01 -1.136430358886718750e+01 1.187303496408276260e-05 1.371825959495254210e-07 3.603065124480053782e-06 1.277968067370238714e-06
4.949000000000000000e+03 3.198709487915039062e+01 -7.521208763122558594e+00 -7.489584845643548761e-07 -4.138187250646296889e-06 -1.466143771722272504e-06 4.176401944278040901e-06
4.950000000000000000e+03 3.845529556274414062e+01 -1.305461406707763672e+01 7.691231076023541391e-06 2.358169240324059501e-06 3.014820094904280268e-06 1.961048837983980775e-06
4.951000000000000000e+03 1.704714584350585938e+01 7.378008842468261719e+00 -8.978382197710743640e-07 9.218986633641179651e-06 2.496344677638262510e-06 -1.274316946364706382e-05
4.952000000000000000e+03 1.569575691223144531e+01 8.482532501220703125e+00 -2.770626815618015826e-05 6.582899914064910263e-06 -6.337010745482984930e-06 -3.646914592536631972e-06
4.953000000000000000e+03 3.752868270874023438e+01 5.357846736907958984e+00 -5.909549508942291141e-05 4.341774001659359783e-06 -1.642611641727853566e-05 -2.984856564580695704e-06
4.954000000000000000e+03 3.748597335815429688e+01 2.545295715332031250e+00 6.173635483719408512e-05 1.260068256669910625e-05 2.230111203971318901e-05 1.251602316187927499e-05
4.955000000000000000e+03 2.931400108337402344e+01 -5.027088165283203125e+00 1.195506956719327718e-05 -7.923632438178174198e-06 1.209431275128736161e-06 -6.700474841636605561e-07
4.956000000000000000e+03 1.944458580017089844e+01 5.427449226379394531e+00 1.117757193469515187e-07 -1.821207115426659584e-05 -5.430088549474021420e-06 6.716440111631527543e-06
4.957000000000000000e+03 2.100379180908203125e+01 3.372101306915283203e+00 -3.652321254321577726e-07 -1.447383237973554060e-05 -4.451719632925232872e-06 5.419909030024427921e-06
4.958000000000000000e+03 3.565063858032226562e+01 2.042716979980468750e+01 -2.171774394810199738e-05 5.767650509369559586e-05 1.078762852557701990e-05 -1.086829652194865048e-04
4.959000000000000000e+03 3.384010696411132812e+01 1.801781845092773438e+01 -9.917762508848682046e-05 -8.567165787098929286e-05 -5.545478416024707258e-05 4.784507109434343874e-05
4.960000000000000000e+03 2.382618904113769531e+01 2.052071094512939453e+00 5.660717306454898790e-06 -1.962095666385721415e-05 -4.188072125543840230e-06 4.981318852514959872e-06
4.961000000000000000e+03 8.892431259155273438e+00 1.323705577850341797e+01 1.684050766925793141e-05 6.141125595604535192e-06 6.894489615660859272e-06 -9.828595466387923807e-06
4.962000000000000000e+03 4.360366439819335938e+01 -1.245839977264404297e+01 6.346879217744572088e-06 5.131917532708030194e-06 3.443638888711575419e-06 1.202973066938284319e-06
4.963000000000000000e+03 3.436335372924804688e+01 1.527586364746093750e+01 -4.934372554998844862e-05 -1.130371238104999065e-04 -4.871425335295498371e-05 6.727108848281204700e-05
4.964000000000000000e+03 1.316434001922607422e+01 7.371774673461914062e+00 1.043095744535094127e-05 1.088920544134452939e-05 6.396048775059171021e-06 -1.825666549848392606e-05
4.965000000000000000e+03 2.976557922363281250e+01 -5.814105987548828125e+00 2.807374812618945725e-06 6.729114829795435071e-07 1.044085820467444137e-06 4.894112407782813534e-06
4.966000000000000000e+03 3.557950973510742188e+01 -1.067113018035888672e+01 -2.968352191601297818e-06 -4.364309006632538512e-06 -2.199798245783313178e-06 7.474359620118775638e-08
4.967000000000000000e+03 3.573424148559570312e+01 -1.153209209442138672e+01 -3.098780098298448138e-06 7.498924219362379517e-07 -7.046662631182698533e-07 4.378513949632178992e-06
4.968000000000000000e+03 7.241078948974609375e+01 -1.448554134368896484e+01 -1.767173856496810913e-01 5.795038938522338867e-01 1.208359524607658386e-01 -1.474154740571975708e-01
4.969000000000000000e+03 2.779871368408203125e+01 -1.358022093772888184e+00 3.585763579394551925e-06 -8.752286703384015709e-06 -1.549956778035266325e-06 3.396972488189931028e-06
4.970000000000000000e+03 2.843248939514160156e+01 -2.179285526275634766e+00 1.628079371585045010e-05 -5.507836249307729304e-06 3.231887376387021504e-06 9.126700319939118344e-07
4.971000000000000000e+03 4.222679138183593750e+01 -1.191929626464843750e+01 1.003947636490920559e-05 3.718396044405380962e-07 3.123394662907230668e-06 1.436641127838811371e-06
4.972000000000000000e+03 4.398854064941406250e+01 -1.029754829406738281e+01 -2.111623871314805001e-06 -1.208120465889805928e-05 -4.257848559063859284e-06 -6.930002655280986801e-06
4.973000000000000000e+03 3.503099060058593750e+01 1.591620826721191406e+01 -3.488820948405191302e-05 6.362819112837314606e-05 8.621993401902727783e-06 -3.631339859566651285e-05
4.974000000000000000e+03 3.408032226562500000e+01 1.426766681671142578e+01 6.769471656298264861e-05 -4.420180175657151267e-06 1.898236041597556323e-05 -4.045149762532673776e-05
4.975000000000000000e+03 4.468771362304687500e+01 -1.190894985198974609e+01 -1.097205586120253429e-05 1.253816571988863871e-05 4.698330258179339580e-07 2.445998461553244852e-06
4.976000000000000000e+03 4.314983367919921875e+01 -1.152046775817871094e+01 9.704823241918347776e-06 -2.111363073709071614e-06 2.278038209624355659e-06 -4.711007761670771288e-07
4.977000000000000000e+03 7.107552337646484375e+01 -1.462918376922607422e+01 -2.327599376440048218e-01 7.730027437210083008e-01 1.620728373527526855e-01 -3.103720024228096008e-02
4.978000000000000000e+03 7.733827114105224609e+00 2.206257629394531250e+01 -7.784512490616180003e-06 -5.510471510206116363e-06 -3.988494881923543289e-06 5.903067631152225658e-06
4.979000000000000000e+03 1.954511260986328125e+01 6.398082733154296875e+00 -1.897617948998231441e-06 -2.038465390796773136e-05 -6.684681466140318662e-06 1.157089445769088343e-05
4.980000000000000000e+03 1.957726669311523438e+01 8.118211746215820312e+00 -1.443190012651029974e-05 -2.229186247859615833e-05 -1.101712859963299707e-05 1.284509562538005412e-05
4.981000000000000000e+03 7.207772064208984375e+01 -1.633165931701660156e+01 -1.807954460382461548e-01 4.809564054012298584e-01 9.004828333854675293e-02 -5.628765746951103210e-02
4.982000000000000000e+03 2.056324958801269531e+01 5.405375957489013672e+00 4.971328507963335142e-06 -2.586598384368699044e-05 -6.268396646191831678e-06 4.187992544757435098e-06
4.983000000000000000e+03 7.087023162841796875e+01 -1.325972270965576172e+01 -2.067711502313613892e-01 9.320346117019653320e-01 2.175790518522262573e-01 -6.372055411338806152e-02
4.984000000000000000e+03 7.118408966064453125e+01 -1.256018543243408203e+01 -1.735112071037292480e-01 9.217234849929809570e-01 2.244636863470077515e-01 -1.026878878474235535e-01
4.985000000000000000e+03 3.074279594421386719e+01 -5.051412582397460938e+00 9.056309977495402563e-07 -2.375859367020893842e-06 -4.410685221500898479e-07 1.194804099213797599e-05
4.986000000000000000e+03 2.121383666992187500e+01 5.073149681091308594e+00 2.569323260104283690e-05 -8.928811325858987402e-07 7.440105491696158424e-06 -4.938647180097177625e-06
4.987000000000000000e+03 2.652195358276367188e+01 2.543539106845855713e-01 5.301300916471518576e-06 -1.537747448310256004e-05 -3.022852069989312440e-06 3.117517280770698562e-06
4.988000000000000000e+03 2.585055732727050781e+01 1.043158888816833496e+00 1.808403067116159946e-05 -2.628485447075945558e-07 5.346354555513244122e-06 5.356338874662469607e-07
4.989000000000000000e+03 8.434208869934082031e+00 1.063388729095458984e+01 1.942692506418097764e-05 4.853501195611897856e-06 7.284128059836803004e-06 -1.619224531168583781e-05
4.990000000000000000e+03 4.156167602539062500e+01 -1.728487014770507812e+00 -2.430302629363723099e-06 -7.756761988275684416e-06 -3.056119567190762609e-06 -4.694868778187810676e-07
4.991000000000000000e+03 4.050287246704101562e+01 -1.529353857040405273e+00 -1.528812390461098403e-05 -1.225946380145614967e-05 -8.264276402769610286e-06 -1.141845132224261761e-06
4.992000000000000000e+03 2.307308387756347656e+01 2.747992038726806641e+00 1.814607821870595217e-05 2.741243406489957124e-06 6.266196578508242965e-06 -6.151797606435138732e-06
4.993000000000000000e+03 3.509690856933593750e+01 1.847274971008300781e+01 -1.239280827576294541e-04 -8.843810064718127251e-05 -6.370985647663474083e-05 5.871036410098895431e-05
4.994000000000000000e+03 3.422957611083984375e+01 1.905514717102050781e+01 -7.192545012912887614e-07 6.016940824338234961e-05 1.783504558261483908e-05 -6.546392251038923860e-05
4.995000000000000000e+03 2.514667320251464844e+01 1.820322990417480469e+00 4.798147529072593898e-06 -1.975305349333211780e-05 -4.486471880227327347e-06 4.279930180928204209e-06
4.996000000000000000e+03 3.474981689453125000e+01 9.841788291931152344e+00 7.128086144803091884e-05 -2.569218486314639449e-05 1.367660206597065553e-05 3.176966856699436903e-05
4.997000000000000000e+03 3.561101913452148438e+01 9.989941596984863281e+00 -6.196503818500787020e-05 6.862389000161783770e-06 -1.653079380048438907e-05 2.413280753899016418e-06
4.998000000000000000e+03 3.185492897033691406e+01 -6.204590320587158203e+00 2.007714783758274280e-06 -5.767775292042642832e-06 -1.128018197960045654e-06 4.523295501712709665e-06
4.999000000000000000e+03 3.027592086791992188e+01 -5.445959091186523438e+00 1.285870530409738421e-05 -8.405762855545617640e-06 1.335882529929222073e-06 -5.231102022662525997e-06
5.000000000000000000e+03 4.198049545288085938e+01 -3.446550369262695312e+00 1.173959731204377022e-06 2.686207335500512272e-05 8.410809641645755619e-06 1.547003012092318386e-05
5.001000000000000000e+03 1.821014022827148438e+01 8.727154731750488281e+00 1.525954576209187508e-05 -1.912867992359679192e-05 -1.160740339400945231e-06 -9.926789061864838004e-06
5.002000000000000000e+03 1.676382827758789062e+01 7.995352268218994141e+00 3.949225629185093567e-06 -1.928426172526087612e-05 -4.600510692398529500e-06 -1.006324282570858486e-06
5.003000000000000000e+03 3.399001693725585938e+01 2.090008926391601562e+01 -3.452731834840960801e-05 7.971956802066415548e-05 1.355767562927212566e-05 -8.597111445851624012e-05
5.004000000000000000e+03 3.360214233398437500e+01 1.697393417358398438e+01 1.324510321865091100e-05 1.144933139585191384e-05 7.408330475300317630e-06 -2.136903276550583541e-05
5.005000000000000000e+03 1.191348457336425781e+01 8.386617660522460938e+00 1.488644193159416318e-05 7.940175237308721989e-06 6.847985332569805905e-06 -2.092909016937483102e-05
5.006000000000000000e+03 8.823976516723632812e+00 1.126280975341796875e+01 -2.280921580677386373e-05 8.127423825499136001e-06 -4.404537321534007788e-06 -7.248432666528970003e-06
5.007000000000000000e+03 3.668541717529296875e+01 4.324919700622558594e+00 -4.833182902075350285e-05 -1.202959174406714737e-05 -1.810842695704195648e-05 5.058920578449033201e-06
5.008000000000000000e+03 3.639404678344726562e+01 6.166841506958007812e+00 -5.367537960410118103e-05 5.718807187804486603e-07 -1.593104934727307409e-05 1.254957510354870465e-06
5.009000000000000000e+03 3.310542297363281250e+01 1.299424171447753906e+01 6.624033267144113779e-05 -4.671847636927850544e-05 5.856556981598259881e-06 5.254643383523216471e-06
5.010000000000000000e+03 3.363199996948242188e+01 1.068200016021728516e+01 6.073770782677456737e-05 -3.873454261338338256e-05 6.600949745916295797e-06 2.460139148752205074e-05
5.011000000000000000e+03 9.423803329467773438e+00 2.591919136047363281e+01 1.448048624297371134e-05 -1.270351822313386947e-05 5.330904286893201061e-07 1.294602407142519951e-05
5.012000000000000000e+03 3.496906280517578125e+01 8.860905647277832031e+00 -5.334262095857411623e-05 3.542868171280133538e-06 -1.493992658652132377e-05 -3.332031155878212303e-06
5.013000000000000000e+03 9.043383598327636719e+00 2.728288459777832031e+01 -1.337977664661593735e-05 1.590402280271518975e-05 7.572737104055704549e-07 -1.064542266249191016e-05
5.014000000000000000e+03 8.923055648803710938e+00 3.075275039672851562e+01 1.571365646668709815e-05 -2.218859117419924587e-05 -1.942480139405233786e-06 3.910161831299774349e-05
5.015000000000000000e+03 9.231702804565429688e+00 2.315725517272949219e+01 -1.190368129755370319e-05 -1.377123044221661985e-05 -7.702473340032156557e-06 1.644202893658075482e-05
5.016000000000000000e+03 8.705793380737304688e+00 3.373462295532226562e+01 2.867436523956712335e-05 -2.288140785822179168e-05 1.737887259878334589e-06 3.943436240660957992e-05
5.017000000000000000e+03 8.907607078552246094e+00 3.791607284545898438e+01 -2.894502358685713261e-05 -3.790529035541112535e-06 -9.820665582083165646e-06 3.114921128144487739e-05
5.018000000000000000e+03 3.694324493408203125e+01 3.053143310546875000e+01 -5.654286942444741726e-04 -1.010571068036369979e-04 -1.999457308556884527e-04 6.437128176912665367e-04
5.019000000000000000e+03 1.004357910156250000e+01 -1.103839015960693359e+01 9.657214832259342074e-05 6.349675823003053665e-05 4.802066905540414155e-05 -1.146452086686622351e-05
5.020000000000000000e+03 1.003002166748046875e+01 -1.046455287933349609e+01 -7.883612852310761809e-05 -8.649923256598412991e-05 -4.960061050951480865e-05 9.145234798779711127e-06
5.021000000000000000e+03 3.771480560302734375e+01 9.707344323396682739e-02 -4.776766218128614128e-05 -4.523994903138373047e-06 -1.568749758007470518e-05 2.784562639135401696e-05
5.022000000000000000e+03 8.952777862548828125e+00 -1.156019878387451172e+01 -4.380629616207443178e-05 -1.240469864569604397e-04 -5.035598587710410357e-05 -2.353798663534689695e-05
5.023000000000000000e+03 7.160621643066406250e+01 -1.227729415893554688e+01 -1.607725471258163452e-01 8.835227489471435547e-01 2.168250679969787598e-01 -1.357638984918594360e-01
5.024000000000000000e+03 7.161465454101562500e+01 -1.425407505035400391e+01 -2.005973309278488159e-01 7.233991622924804688e-01 1.568405479192733765e-01 -9.758149832487106323e-02
5.025000000000000000e+03 4.334261322021484375e+01 -8.572613716125488281e+00 -1.252698803000384942e-05 -8.914132195059210062e-06 -6.432336249417858198e-06 -9.045917067851405591e-06
5.026000000000000000e+03 7.220685577392578125e+01 -1.393919467926025391e+01 -1.805496364831924438e-01 6.347942352294921875e-01 1.362733840942382812e-01 -1.452195346355438232e-01
5.027000000000000000e+03 7.124395751953125000e+01 -1.378176307678222656e+01 -2.155808061361312866e-01 8.174371123313903809e-01 1.805568933486938477e-01 -7.553452998399734497e-02
5.028000000000000000e+03 8.289154052734375000e+00 -1.103135585784912109e+01 -7.256689423229545355e-05 -8.805810648482292891e-05 -4.818749948753975332e-05 -3.118023960269056261e-05
5.029000000000000000e+03 9.591436386108398438e+00 2.226591491699218750e+01 -9.148608114628586918e-06 1.269331460207467899e-05 1.063411787072254810e-06 -5.675743523170240223e-06
5.030000000000000000e+03 9.017773628234863281e+00 1.902861213684082031e+01 -1.051419530995190144e-05 4.332218850322533399e-06 -1.854593051575648133e-06 -5.846405201737070456e-06
5.031000000000000000e+03 8.190837860107421875e+00 1.164113807678222656e+01 1.749101284076459706e-05 4.724377959064440802e-06 6.664617103524506092e-06 -9.879919161903671920e-06
5.032000000000000000e+03 3.214613723754882812e+01 -9.856536865234375000e+00 1.246865849680034444e-06 -1.771879396983422339e-06 -1.575040755597001407e-07 3.337079306220402941e-06
5.033000000000000000e+03 4.090644836425781250e+01 -1.064496517181396484e+01 -1.313799384661251679e-05 2.381449348831665702e-06 -3.226963372071622871e-06 -2.704343387449625880e-06
5.034000000000000000e+03 4.131741333007812500e+01 -1.228891944885253906e+01 1.098958728107390925e-05 -5.056350005361309741e-07 3.145185701214359142e-06 1.534143507342378143e-06
5.035000000000000000e+03 8.963829040527343750e+00 1.011656665802001953e+01 -1.728045390336774290e-05 4.652782536140875891e-06 -3.788301455642795190e-06 -2.337445721423137002e-06
5.036000000000000000e+03 4.157637405395507812e+01 -5.476132392883300781e+00 9.603329999663401395e-06 2.113786831614561379e-05 9.222359039995353669e-06 4.573699698084965348e-06
5.037000000000000000e+03 3.836352157592773438e+01 7.571425288915634155e-03 4.173528941464610398e-05 1.851308479672297835e-05 1.807451189961284399e-05 -7.515153356507653370e-06
5.038000000000000000e+03 3.357319259643554688e+01 -8.129801750183105469e+00 5.819421858177520335e-06 -5.784952463727677241e-06 1.034072738548275083e-08 -1.852800778578966856e-06
5.039000000000000000e+03 7.164736175537109375e+01 -1.689077758789062500e+01 -1.646723449230194092e-01 4.792864620685577393e-01 9.438423067331314087e-02 5.200014915317296982e-03
5.040000000000000000e+03 4.115777969360351562e+01 -1.138542056083679199e+00 1.407281706633511931e-05 2.090742418658919632e-05 1.049407183018047363e-05 4.376383458293275908e-06
5.041000000000000000e+03 8.432934761047363281e+00 2.257835388183593750e+01 -3.709085831360425800e-06 1.688136580924037844e-05 3.951683538616634905e-06 -1.425658410880714655e-05
5.042000000000000000e+03 7.688682079315185547e+00 1.537705421447753906e+01 2.419666031983069843e-07 6.300417226157151163e-06 1.962715259651304223e-06 8.009533303265925497e-07
5.043000000000000000e+03 9.341044425964355469e+00 1.618336868286132812e+01 1.206550768984016031e-05 8.420661288255359977e-06 6.145850875327596441e-06 -3.125813464066595770e-06
5.044000000000000000e+03 8.582514762878417969e+00 -9.426983833312988281e+00 1.539923978270962834e-04 1.012067059491528198e-05 4.923392043565399945e-05 4.750379594042897224e-05
5.045000000000000000e+03 8.245214462280273438e+00 -1.047865104675292969e+01 9.654566383687779307e-05 5.003154728910885751e-05 4.397316297399811447e-05 3.762638243642868474e-06
5.046000000000000000e+03 4.175492858886718750e+01 -6.210876464843750000e+00 -1.269531639991328120e-05 -1.264072307094465941e-05 -7.600811841257382184e-06 -9.169519330498587806e-07
5.047000000000000000e+03 9.744468688964843750e+00 1.689395523071289062e+01 -2.915568984462879598e-05 5.690942089131567627e-06 -7.039424417598638684e-06 -1.446341138944262639e-05
5.048000000000000000e+03 8.869978904724121094e+00 -1.099239730834960938e+01 4.753346729557961226e-05 1.077202541637234390e-04 4.657611498259939253e-05 3.649586506071500480e-05
5.049000000000000000e+03 8.043087005615234375e+00 1.013339805603027344e+01 -1.476940269640181214e-05 6.148771262814989313e-06 -2.586189566500252113e-06 -5.263011189526878297e-06
5.050000000000000000e+03 7.002334594726562500e+01 -1.551976585388183594e+01 -2.912731170654296875e-01 8.439574241638183594e-01 1.658052951097488403e-01 1.064337641000747681e-01
5.051000000000000000e+03 9.035982131958007812e+00 1.808002662658691406e+01 -5.262765625957399607e-06 7.895147973613347858e-06 7.897145337665278930e-07 -5.444383077701786533e-06
5.052000000000000000e+03 9.999664306640625000e+00 -9.553966522216796875e+00 -1.133759633376030251e-05 4.349372466094791889e-05 9.646838407206814736e-06 4.250248457537963986e-05
5.053000000000000000e+03 3.258318710327148438e+01 -8.092970848083496094e+00 6.405429303413257003e-06 -4.811907956536742859e-07 1.777271563696558587e-06 1.125487756326037925e-06
5.054000000000000000e+03 3.307572174072265625e+01 -9.796807289123535156e+00 -1.478929334552958608e-06 6.831175483057450037e-07 -2.387435529271897394e-07 2.421143108222167939e-06
5.055000000000000000e+03 3.785218429565429688e+01 -1.224067020416259766e+01 9.209986274072434753e-06 1.717420900604338385e-06 3.278222038716194220e-06 1.893084800030919723e-06
5.056000000000000000e+03 3.628655242919921875e+01 -1.030593299865722656e+01 -5.033452453062636778e-06 -4.801112481800373644e-06 -2.950369434984168038e-06 5.706417596229584888e-07
5.057000000000000000e+03 3.607959747314453125e+01 -1.092226600646972656e+01 8.037005500227678567e-06 2.156893287974526174e-06 3.058169568248558789e-06 -4.484884641442477005e-07
5.058000000000000000e+03 3.529977035522460938e+01 -1.106321048736572266e+01 3.171045818817219697e-06 -2.536697820687550120e-06 1.903043909123880439e-07 -4.477959464566083625e-06
5.059000000000000000e+03 4.246149444580078125e+01 -1.119046878814697266e+01 -1.198837981064571068e-05 2.393543809375842102e-06 -2.878450914067798294e-06 -5.921089041294180788e-07
5.060000000000000000e+03 8.275422096252441406e+00 1.580149269104003906e+01 7.544555046479217708e-06 1.626794801268260926e-05 7.143750735849607736e-06 -8.666331268614158034e-06
5.061000000000000000e+03 7.194355773925781250e+01 -1.545671176910400391e+01 -1.973891854286193848e-01 5.723761320114135742e-01 1.124960929155349731e-01 -7.697561383247375488e-02
5.062000000000000000e+03 9.514647483825683594e+00 -8.201500892639160156e+00 9.781165135791525245e-05 -1.061707462213234976e-05 2.615837365738116205e-05 -2.998304807988461107e-05
5.063000000000000000e+03 9.905874252319335938e+00 2.023086547851562500e+01 -1.342651739832945168e-05 4.079726750205736607e-06 -2.804037421810789965e-06 -4.912504664389416575e-06
5.064000000000000000e+03 4.151440048217773438e+01 -2.824659824371337891e+00 -2.048639998974977061e-06 -6.720220881106797606e-06 -2.630658173075062223e-06 -1.212635834235697985e-05
5.065000000000000000e+03 4.192488479614257812e+01 -8.196437835693359375e+00 1.930664802785031497e-05 -2.527371179894544184e-06 5.033783509134082124e-06 -4.551803613139782101e-06
5.066000000000000000e+03 4.000595855712890625e+01 -1.198030185699462891e+01 1.080725087376777083e-05 2.459314146108226851e-06 3.979969278589123860e-06 6.183042842167196795e-06
5.067000000000000000e+03 3.735061645507812500e+01 1.819344162940979004e+00 -4.940654616802930832e-05 -4.151652319706045091e-06 -1.606745900062378496e-05 -4.836470452573848888e-06
5.068000000000000000e+03 7.066999053955078125e+01 -1.414079380035400391e+01 -2.329929918050765991e-01 8.746883869171142578e-01 1.925086081027984619e-01 -2.358678542077541351e-02
5.069000000000000000e+03 3.747647476196289062e+01 1.198253273963928223e+00 2.936299460998270661e-05 -1.198937025037594140e-05 5.212087216932559386e-06 3.703208494698628783e-05
5.070000000000000000e+03 3.252800750732421875e+01 -6.787245750427246094e+00 1.103722024708986282e-05 -2.883536751596693648e-07 3.224659849365707487e-06 -4.919736511510564014e-07
5.071000000000000000e+03 3.134706687927246094e+01 -6.875404357910156250e+00 9.453201528231147677e-06 -2.512254241082700901e-06 2.082284254356636666e-06 -1.403669216415437404e-06
5.072000000000000000e+03 4.282041168212890625e+01 -9.572457313537597656e+00 -1.354131745756603777e-05 -6.027292329235933721e-06 -5.870583208889001980e-06 -5.160970431461464614e-06
5.073000000000000000e+03 2.005195426940917969e+01 5.896406173706054688e+00 1.008122944767819718e-05 9.333099114883225411e-06 5.824298568768426776e-06 -1.734003672027029097e-05
5.074000000000000000e+03 2.151744461059570312e+01 3.974761724472045898e+00 2.213998232036828995e-05 7.818464951014902908e-07 6.876548923173686489e-06 -1.024904395308112726e-05
5.075000000000000000e+03 8.774046897888183594e+00 2.376895141601562500e+01 2.035360739682801068e-05 8.451763278571888804e-06 8.641611202619969845e-06 -1.092324419005308300e-05
5.076000000000000000e+03 7.145031738281250000e+01 -1.300533962249755859e+01 -1.847558319568634033e-01 8.506119251251220703e-01 1.997568309307098389e-01 -1.166471019387245178e-01
5.077000000000000000e+03 2.441294097900390625e+01 2.580623388290405273e+00 1.836809860833454877e-05 1.591763975739013404e-06 5.987958957121009007e-06 -2.612356183817610145e-06
5.078000000000000000e+03 1.630217361450195312e+01 8.349918365478515625e+00 2.891859367082361132e-05 -9.798208338906988502e-06 5.736115326726576313e-06 -1.063200852513546124e-05
5.079000000000000000e+03 1.538816165924072266e+01 7.823128223419189453e+00 2.195146225858479738e-05 -4.625159419902047375e-07 6.446683528338326141e-06 -1.560639248054940253e-05
5.080000000000000000e+03 2.853314018249511719e+01 1.642291903495788574e+00 1.984236951102502644e-05 -4.155816441198112443e-06 4.705966148321749642e-06 4.951024493493605405e-06
5.081000000000000000e+03 2.716547584533691406e+01 -5.465459823608398438e-01 1.782974140951409936e-05 -3.525711235852213576e-06 4.291209279472241178e-06 2.646129814820596948e-06
5.082000000000000000e+03 4.933894729614257812e+01 -3.115066146850585938e+01 8.875619769096374512e-01 2.651202380657196045e-01 3.458046615123748779e-01 3.261009752750396729e-01
5.083000000000000000e+03 2.950314521789550781e+01 -3.868890047073364258e+00 1.371690541418502107e-05 -1.142597557191038504e-05 6.872788844702881761e-07 1.679542947385925800e-06
5.084000000000000000e+03 2.902099227905273438e+01 -1.752703309059143066e+00 -3.288352218078216538e-06 -3.879353698721388355e-06 -2.150311729565146379e-06 3.949742222175700590e-06
5.085000000000000000e+03 9.439642906188964844e+00 1.077870845794677734e+01 1.873531073215417564e-05 5.835004230902995914e-06 7.371094852715032175e-06 -1.835470357036683708e-05
5.086000000000000000e+03 3.530823516845703125e+01 6.987056255340576172e+00 -4.756271664518862963e-05 -4.823949439014540985e-06 -1.571599932503886521e-05 1.367677782582177315e-06
5.087000000000000000e+03 3.274367141723632812e+01 1.572879314422607422e+01 6.162125646369531751e-05 -7.740221190033480525e-05 -4.734286449092905968e-06 -4.698619306964246789e-07
5.088000000000000000e+03 3.457203292846679688e+01 -1.066580772399902344e+01 -4.767364771396387368e-06 -4.386305590742267668e-06 -2.746101245065801777e-06 -6.175602720759343356e-06
5.089000000000000000e+03 2.987072944641113281e+01 -4.695339202880859375e+00 1.403616920470085461e-06 5.395983407652238384e-06 2.039879973381175660e-06 6.867924639664124697e-06
5.090000000000000000e+03 3.025500488281250000e+01 -3.545788288116455078e+00 8.307281859742943197e-06 8.195816008083056659e-06 4.950928996549919248e-06 9.680585208116099238e-06
5.091000000000000000e+03 3.558289718627929688e+01 5.171687126159667969e+00 -4.327538408688269556e-05 -7.455007562384707853e-06 -1.521911690360866487e-05 5.723690719605656341e-06
5.092000000000000000e+03 3.295016860961914062e+01 1.433302021026611328e+01 -8.527476165909320116e-05 -3.386699972907081246e-06 -2.659843994479160756e-05 1.710844662738963962e-05
5.093000000000000000e+03 2.230066871643066406e+01 3.397930383682250977e+00 1.603174496267456561e-06 -1.938717286975588650e-05 -5.335199602995999157e-06 6.638498234678991139e-06
5.094000000000000000e+03 2.204039573669433594e+01 4.667240619659423828e+00 -4.833485945709981024e-06 -2.147892882931046188e-05 -7.893724614405073225e-06 6.775396741431904957e-06
5.095000000000000000e+03 2.836378669738769531e+01 -9.391263723373413086e-01 2.151891203538980335e-05 -7.745437869743909687e-06 4.132042249693768099e-06 5.120812602399382740e-06
5.096000000000000000e+03 1.908098411560058594e+01 6.902516365051269531e+00 1.141364555223844945e-05 4.422171969054033980e-06 4.750745574710890651e-06 -2.019028579525183886e-05
5.097000000000000000e+03 1.965296363830566406e+01 7.310936927795410156e+00 -8.113489457173272967e-06 -2.076728378597181290e-05 -8.664231245347764343e-06 1.386063377140089869e-05
5.098000000000000000e+03 4.195132827758789062e+01 -4.502027034759521484e+00 1.481855747442750726e-06 1.981267814699094743e-05 6.388360361597733572e-06 1.550050001242198050e-05
5.099000000000000000e+03 8.456505775451660156e+00 9.573322296142578125e+00 9.741496796777937561e-06 1.121527839131886140e-05 6.287032647378509864e-06 -2.306164424226153642e-05
5.100000000000000000e+03 2.365256118774414062e+01 3.314467668533325195e+00 2.110609329974977300e-06 -2.217775363533291966e-05 -6.020143246132647619e-06 5.294390575727447867e-06
5.101000000000000000e+03 3.260905075073242188e+01 1.708630561828613281e+01 -1.272215304197743535e-04 -1.295619131269631907e-05 -4.205331424600444734e-05 1.201351096824510023e-05
5.102000000000000000e+03 3.125501060485839844e+01 -5.602698326110839844e+00 1.020019044517539442e-05 -4.474857462355430471e-07 2.925811486420570873e-06 -3.084741820202907547e-06
5.103000000000000000e+03 3.165904617309570312e+01 -4.909538745880126953e+00 4.091044047527248040e-06 -1.212875486089615151e-05 -2.411313516859081574e-06 8.433778020844329149e-06
5.104000000000000000e+03 9.506512641906738281e+00 9.515961647033691406e+00 1.313832490268396214e-05 9.582912753103300929e-06 6.816371296736178920e-06 -2.274922553624492139e-05
5.105000000000000000e+03 2.286610412597656250e+01 4.013796329498291016e+00 1.939059075084514916e-05 3.532306436682119966e-06 6.876869065308710560e-06 -6.631756150454748422e-06
5.106000000000000000e+03 8.554811477661132812e+00 -8.744870185852050781e+00 -1.248683547601103783e-04 6.901613687659846619e-06 -3.539002500474452972e-05 -9.310876339441165328e-05
5.107000000000000000e+03 7.109529113769531250e+01 -1.643882560729980469e+01 -2.181040197610855103e-01 5.996292233467102051e-01 1.144575625658035278e-01 4.381173104047775269e-02
5.108000000000000000e+03 4.272859191894531250e+01 -6.911023139953613281e+00 -1.694532147666905075e-05 -1.037732545228209347e-05 -8.196794624382164329e-06 -5.746740498580038548e-06
5.109000000000000000e+03 4.242747116088867188e+01 -8.013045310974121094e+00 -6.583391041203867644e-06 -6.302516794676193967e-06 -3.865772214339813218e-06 -3.105618361587403342e-06
5.110000000000000000e+03 3.390161132812500000e+01 9.671896934509277344e+00 -5.029625390307046473e-05 1.158771101472666487e-05 -1.161256295745261014e-05 -3.046114898097584955e-06
5.111000000000000000e+03 8.918521881103515625e+00 2.091574478149414062e+01 -1.264281945623224601e-05 1.105495448427973315e-05 -4.763594461110187694e-07 -3.331816287754918449e-06
5.112000000000000000e+03 1.247925472259521484e+01 3.075485038757324219e+01 5.211388725001597777e-06 -1.513091774540953338e-05 -2.975858933496056125e-06 -1.328146481682779267e-05
5.113000000000000000e+03 1.716036605834960938e+01 9.164710044860839844e+00 9.419899470231030136e-06 -2.680026773305144161e-05 -5.214110387896653265e-06 7.001093536018743180e-07
5.114000000000000000e+03 1.742996597290039062e+01 8.417266845703125000e+00 -6.973702966206474230e-06 1.115907434723339975e-05 1.255611437045445200e-06 -1.168075959867564961e-05
5.115000000000000000e+03 3.989238739013671875e+01 -1.261979866027832031e+01 -8.045104550546966493e-06 -1.342317773378454149e-06 -2.816226924551301636e-06 -2.375424855927121826e-06
5.116000000000000000e+03 4.065652847290039062e+01 -1.208975505828857422e+01 -1.090043861040612683e-05 4.615010595898638712e-07 -3.131681296508759260e-06 -2.599403615022310987e-06
5.117000000000000000e+03 4.094425201416015625e+01 -2.209494829177856445e+00 8.714051546121481806e-06 1.188323403766844422e-05 6.179185675136977807e-06 1.452103151677874848e-05
5.118000000000000000e+03 2.975618934631347656e+01 -2.598125696182250977e+00 1.844668986450415105e-05 -8.976840945251751691e-06 2.840954493876779452e-06 -8.700419584783958271e-08
5.119000000000000000e+03 1.423836994171142578e+01 8.750238418579101562e+00 7.440671652148012072e-06 1.192003583128098398e-05 5.808212335978168994e-06 -2.051213232334703207e-05
5.120000000000000000e+03 9.208728790283203125e+00 1.201014232635498047e+01 1.735557998472359031e-05 5.920623152633197606e-06 6.982861123105976731e-06 -1.244606391992419958e-05
5.121000000000000000e+03 3.162664413452148438e+01 1.875820159912109375e+01 -1.753097894834354520e-04 6.349071934863559363e-09 -5.259103272692300379e-05 1.672588587098289281e-05
5.122000000000000000e+03 3.228430175781250000e+01 -5.470382690429687500e+00 7.950624421937391162e-06 5.603269073617411777e-06 4.066168003191705793e-06 1.406600063091900665e-06
5.123000000000000000e+03 1.085017299652099609e+01 2.045694732666015625e+01 -1.256216478395799641e-06 -2.647441078806878068e-06 -1.171097210317384452e-06 5.986139512970112264e-06
5.124000000000000000e+03 1.493003368377685547e+01 9.412327766418457031e+00 -1.086920519810519181e-06 -1.454644916520919651e-05 -4.690010882768547162e-06 3.948466201109113172e-06
5.125000000000000000e+03 1.525562858581542969e+01 8.810786247253417969e+00 5.318409876053920016e-06 6.637785190832801163e-06 3.586858383641811088e-06 -1.954713479790370911e-05
5.126000000000000000e+03 8.211994171142578125e+00 1.358231163024902344e+01 -2.286870767420623451e-05 8.794360837782733142e-06 -4.222304141876520589e-06 -1.001809778244933113e-05
5.127000000000000000e+03 2.576566314697265625e+01 2.320234537124633789e+00 1.925334254337940365e-05 -1.177462465307144157e-07 5.740678716392721981e-06 5.217497118792380206e-07
5.128000000000000000e+03 3.666167449951171875e+01 2.589885950088500977e+00 -5.155500912223942578e-05 -4.724931386590469629e-06 -1.688398151600267738e-05 -8.070418516581412405e-06
5.129000000000000000e+03 3.671010208129882812e+01 3.439258575439453125e+00 5.579298522206954658e-05 2.064212094410322607e-05 2.293053148605395108e-05 2.772593870759010315e-05
5.130000000000000000e+03 3.515441513061523438e+01 7.911312103271484375e+00 6.411292270058766007e-05 -6.197822131071006879e-06 1.737453021632973105e-05 3.360177652211859822e-05
5.131000000000000000e+03 3.323986434936523438e+01 2.237199020385742188e+01 -1.488982525188475847e-04 -9.613921429263427854e-05 -7.351124077104032040e-05 4.943229214404709637e-05
5.132000000000000000e+03 4.017351913452148438e+01 3.228975677490234375e+01 -1.079443725757300854e-03 2.119792407029308379e-05 -3.174737212248146534e-04 1.011366723105311394e-03
5.133000000000000000e+03 3.714913177490234375e+01 3.351339340209960938e+01 -2.344334934605285525e-04 -3.786282031796872616e-04 -1.839185133576393127e-04 1.010148902423679829e-03
5.134000000000000000e+03 3.355710220336914062e+01 3.316146087646484375e+01 -3.058928705286234617e-04 1.593984779901802540e-05 -8.698590681888163090e-05 4.799711750820279121e-04
5.135000000000000000e+03 4.539269256591796875e+01 -3.880170822143554688e+01 3.174627125263214111e-01 -1.139776632189750671e-01 6.104551628232002258e-02 2.656837105751037598e-01
5.136000000000000000e+03 5.480572128295898438e+01 -3.884049224853515625e+01 -3.276350498199462891e-01 1.628579139709472656e+00 3.902832269668579102e-01 4.696053639054298401e-02
5.137000000000000000e+03 7.192228698730468750e+01 -1.468885231018066406e+01 -1.975747346878051758e-01 6.420482397079467773e-01 1.333420574665069580e-01 -1.008749753236770630e-01
5.138000000000000000e+03 7.180356597900390625e+01 -1.345792770385742188e+01 -1.867852956056594849e-01 7.498371005058288574e-01 1.689155399799346924e-01 -1.442350000143051147e-01
5.139000000000000000e+03 3.318283843994140625e+01 -4.226679801940917969e+00 -5.862408670509466901e-06 3.421784640522673726e-06 -7.321872317334054969e-07 -7.246023869811324403e-06
5.140000000000000000e+03 3.446820449829101562e+01 -5.980068683624267578e+00 -6.459249561885371804e-06 -1.131102362705860287e-05 -5.331081865733722225e-06 -3.473258630037889816e-06
5.141000000000000000e+03 1.186493206024169922e+01 9.780851364135742188e+00 1.120370779972290620e-05 9.304873856308404356e-06 6.152574769657803699e-06 -2.160332405765075237e-05
5.142000000000000000e+03 1.308877944946289062e+01 8.589442253112792969e+00 1.264540060219587758e-05 9.172702448267955333e-06 6.545431006088620052e-06 -2.099340417771600187e-05
5.143000000000000000e+03 9.630432128906250000e+00 1.497849559783935547e+01 1.618832357053179294e-05 5.225906534178648144e-06 6.424269031413132325e-06 -5.691001206287182868e-06
5.144000000000000000e+03 3.456684112548828125e+01 -9.984282493591308594e+00 1.620713373995386064e-05 9.382763721532683121e-08 4.890288437309209257e-06 7.653230568394064903e-06
5.145000000000000000e+03 1.054877185821533203e+01 -1.055079174041748047e+01 4.373880801722407341e-05 8.123474253807216883e-05 3.749206734937615693e-05 6.140301411505788565e-05
5.146000000000000000e+03 1.091655921936035156e+01 -9.879224777221679688e+00 4.815039210370741785e-05 5.467946903081610799e-05 3.084895797655917704e-05 7.889873813837766647e-05
5.147000000000000000e+03 7.190053558349609375e+01 -1.272294235229492188e+01 -1.700201779603958130e-01 8.094693422317504883e-01 1.918347477912902832e-01 -1.584501266479492188e-01
5.148000000000000000e+03 3.261370086669921875e+01 -9.263844490051269531e+00 6.124247647676384076e-06 -6.109455625846749172e-07 1.653990693739615381e-06 -2.985097466989827808e-07
5.149000000000000000e+03 3.478139114379882812e+01 -8.831029891967773438e+00 1.686872019490692765e-05 4.343540354057040531e-07 5.190922365727601573e-06 8.564682502765208483e-06
5.150000000000000000e+03 3.434056472778320312e+01 -9.161669731140136719e+00 8.070267540460918099e-06 -3.542967760949977674e-06 1.358189820166444406e-06 5.184234375121832272e-09
5.151000000000000000e+03 3.948899459838867188e+01 -1.128265953063964844e+01 5.453025551105383784e-06 4.881758286501280963e-06 3.100435151281999424e-06 2.254579385407851078e-06
5.152000000000000000e+03 8.514815330505371094e+00 1.444890785217285156e+01 1.370984955428866670e-05 9.098349437408614904e-06 6.842459697509184480e-06 -8.815967703412752599e-06
5.153000000000000000e+03 9.611983299255371094e+00 1.284494018554687500e+01 -2.379692887188866735e-05 5.518170382856624201e-06 -5.483627774083288386e-06 -9.518778824713081121e-06
5.154000000000000000e+03 8.382914543151855469e+00 -9.992351531982421875e+00 -1.662041177041828632e-04 1.993417390622198582e-05 -4.388098386698402464e-05 -4.459474439499899745e-06
5.155000000000000000e+03 4.135605621337890625e+01 -4.830732345581054688e+00 -3.802927949436707422e-06 -1.708574200165458024e-05 -6.266600848903181031e-06 -1.246329020432312973e-06
5.156000000000000000e+03 1.151358699798583984e+01 2.316949272155761719e+01 -1.349297144770389423e-05 1.238666413883038331e-06 -3.676291498777572997e-06 -1.231180976901669055e-05
5.157000000000000000e+03 3.801864242553710938e+01 -1.153823280334472656e+01 -7.696729880990460515e-06 -1.244708414560591336e-06 -2.682431613720837049e-06 4.245398201874195365e-07
5.158000000000000000e+03 3.400138854980468750e+01 -9.728504180908203125e+00 -5.357226200430886820e-06 2.887712469146208605e-07 -1.520536443422315642e-06 6.668273613286146428e-07
5.159000000000000000e+03 7.102748107910156250e+01 -1.551743602752685547e+01 -2.377559691667556763e-01 7.018415927886962891e-01 1.392256766557693481e-01 9.661644697189331055e-03
5.160000000000000000e+03 3.914753723144531250e+01 -3.761790096759796143e-01 1.158816030510934070e-05 2.075448719551786780e-05 9.702794159238692373e-06 5.837940989295020700e-06
5.161000000000000000e+03 1.070547008514404297e+01 1.552856254577636719e+01 2.351168586756102741e-05 -3.004826965025131358e-07 6.963361101952614263e-06 -6.246926204767078161e-06
5.162000000000000000e+03 1.039586544036865234e+01 1.665241432189941406e+01 2.168308310501743108e-05 -5.563210265790985432e-07 6.338028924801619723e-06 -2.156442207024156232e-07
5.163000000000000000e+03 1.148415565490722656e+01 1.731689643859863281e+01 2.726564889599103481e-05 -2.308404418727150187e-06 7.487173206754960120e-06 -1.258622887689853087e-06
5.164000000000000000e+03 9.938870429992675781e+00 1.832542610168457031e+01 -1.618632813915610313e-05 2.364606416449532844e-06 -4.146516857872484252e-06 -7.335529517149552703e-06
5.165000000000000000e+03 4.272536087036132812e+01 -1.041762351989746094e+01 1.690051976765971631e-05 -1.377565922666690312e-06 4.656886176235275343e-06 4.857495241594733670e-06
5.166000000000000000e+03 4.268287277221679688e+01 -8.739162445068359375e+00 1.365695152344414964e-05 8.994477866508532315e-06 6.795428816985804588e-06 6.722823854943271726e-06
5.167000000000000000e+03 3.312529754638671875e+01 -7.439851284027099609e+00 1.957928134288522415e-06 2.261193685626494698e-06 1.265736500499770045e-06 3.089504389208741486e-06
5.168000000000000000e+03 3.306872177124023438e+01 -8.681008338928222656e+00 1.112836230277025606e-06 -3.522354745655320585e-07 2.281802267134480644e-07 1.544446263324061874e-06
5.169000000000000000e+03 9.903569221496582031e+00 1.154846382141113281e+01 -2.478593160049058497e-05 5.866606443305499852e-06 -5.675797638104995713e-06 -6.119899353507207707e-06
5.170000000000000000e+03 3.678492736816406250e+01 9.615884423255920410e-01 -5.111361315357498825e-05 1.119310672947904095e-05 -1.197615165438037366e-05 -4.778000402438919991e-06
5.171000000000000000e+03 3.690041351318359375e+01 -1.047858619689941406e+01 1.150908974523190409e-05 2.335078761461772956e-06 4.153250756644411013e-06 2.395769342911080457e-06
5.172000000000000000e+03 7.055210876464843750e+01 -1.505411148071289062e+01 -2.475915849208831787e-01 8.124486804008483887e-01 1.694571226835250854e-01 2.720142342150211334e-02
5.173000000000000000e+03 1.032317543029785156e+01 -1.006762981414794922e+01 1.930564030772075057e-05 -2.519276858947705477e-05 -1.766138325365318451e-06 -5.456923827296122909e-05
5.174000000000000000e+03 3.696884918212890625e+01 -6.541703939437866211e-01 -4.098838689969852567e-05 2.558933545060426695e-07 -1.221974798681912944e-05 7.166183877416187897e-06
5.175000000000000000e+03 4.084396743774414062e+01 -5.582479953765869141e+00 -1.174782573798438534e-05 -1.451248044759267941e-05 -7.878091309976298362e-06 6.159253644000273198e-06
5.176000000000000000e+03 4.141963958740234375e+01 -3.903086423873901367e+00 8.979366612038575113e-06 -1.664203955442644656e-05 -2.298801973665831611e-06 -1.192896979773649946e-05
5.177000000000000000e+03 1.004251098632812500e+01 -8.674872398376464844e+00 -7.409322279272601008e-05 2.501889503037091345e-05 -1.472229905630229041e-05 6.309409945970401168e-05
5.178000000000000000e+03 9.133263587951660156e+00 -8.593454360961914062e+00 2.305358793819323182e-05 1.237125707120867446e-05 1.062745286617428064e-05 1.168826347566209733e-04
5.179000000000000000e+03 1.248344516754150391e+01 9.158589363098144531e+00 -1.494079970143502578e-05 -2.977968733830493875e-06 -5.375630735215963796e-06 7.930614742690522689e-07
5.180000000000000000e+03 1.058288574218750000e+01 1.103333854675292969e+01 1.925193464558105916e-05 5.683992640115320683e-06 7.480778549506794661e-06 -2.116170071531087160e-05
5.181000000000000000e+03 2.775534629821777344e+01 -1.187058612704277039e-01 1.917151166708208621e-06 -1.072047962225042284e-05 -2.640998445713194087e-06 1.367458139611699153e-06
5.182000000000000000e+03 2.943576812744140625e+01 -1.559836268424987793e-01 1.779756894393358380e-05 -1.635750959394499660e-05 4.320174298300116789e-07 4.953630195814184844e-06
5.183000000000000000e+03 1.648179817199707031e+01 8.994828224182128906e+00 -3.731557444552890956e-05 1.763674481480848044e-05 -5.903648798266658559e-06 -2.537397449486888945e-06
5.184000000000000000e+03 2.952984046936035156e+01 -1.265919685363769531e+00 2.700504228414501995e-05 -6.415036750695435330e-06 6.177001523610670120e-06 6.547839348058914766e-06
5.185000000000000000e+03 3.569309234619140625e+01 4.276674270629882812e+00 5.201936801313422620e-05 1.213808718603104353e-05 1.924723619595170021e-05 2.317052349098958075e-05
5.186000000000000000e+03 2.890818214416503906e+01 -5.210841894149780273e-01 -4.512075975071638823e-06 -3.665317990453331731e-06 -2.453218257869593799e-06 -2.469004130034591071e-07
5.187000000000000000e+03 9.932372093200683594e+00 1.924158859252929688e+01 -1.292144929720961954e-06 3.624348209996242076e-06 6.996609727139002644e-07 -1.675201133366499562e-06
5.188000000000000000e+03 1.074569320678710938e+01 2.157803344726562500e+01 -1.246172723767813295e-05 2.982562136821798049e-06 -2.843749371095327660e-06 -7.678552719880826771e-06
5.189000000000000000e+03 4.009295272827148438e+01 -4.773419857025146484e+00 -1.818730015656910837e-05 -1.261362740478944033e-05 -9.240277904609683901e-06 1.188621172332204878e-05
5.190000000000000000e+03 3.544943618774414062e+01 6.077982425689697266e+00 5.701759801013395190e-05 2.528923459976795129e-06 1.786395660019479692e-05 2.492766725481487811e-05
5.191000000000000000e+03 4.191029357910156250e+01 -6.985081195831298828e+00 1.684537346591241658e-05 1.114318729378283024e-05 8.396567864110693336e-06 2.540280547691509128e-06
5.192000000000000000e+03 9.258965492248535156e+00 1.410121917724609375e+01 -2.345158827665727586e-05 4.880746473645558581e-06 -5.571252586378250271e-06 -1.040680763253476471e-05
5.193000000000000000e+03 3.944589233398437500e+01 -1.085207581520080566e+00 -1.680380955804139376e-05 -1.742046879371628165e-05 -1.026728386932518333e-05 -9.783281029740464874e-07
5.194000000000000000e+03 3.379677581787109375e+01 -3.836419105529785156e+00 2.287214010721072555e-05 -1.048254489433020353e-05 3.716878836712567136e-06 1.358940789941698313e-05
5.195000000000000000e+03 2.196639823913574219e+01 6.135288715362548828e+00 1.079736421161214821e-06 -2.861467692127916962e-05 -8.260481990873813629e-06 5.632291959045687690e-06
5.196000000000000000e+03 2.070037078857421875e+01 6.346111774444580078e+00 5.148997388459974900e-07 -2.646378197823651135e-05 -7.784664376231376082e-06 1.313828306592768058e-05
5.197000000000000000e+03 4.075515365600585938e+01 -1.137694263458251953e+01 1.258215343113988638e-05 1.568988182043540291e-06 4.245342552167130634e-06 5.041121312387986109e-06
5.198000000000000000e+03 3.413687133789062500e+01 8.729029655456542969e+00 6.253759056562557817e-05 -2.399923687335103750e-05 1.156150483438977972e-05 3.730985918082296848e-05
5.199000000000000000e+03 3.428153228759765625e+01 7.826349735260009766e+00 -4.487495243665762246e-05 -1.128291114582680166e-05 -1.684735980234108865e-05 -4.801464001502608880e-06
5.200000000000000000e+03 2.013368988037109375e+01 7.810603618621826172e+00 1.761176281434018165e-05 7.601980541949160397e-06 7.564123279735213146e-06 -1.964377042895648628e-05
5.201000000000000000e+03 1.977335166931152344e+01 8.666638374328613281e+00 1.300267012993572280e-05 9.457429769099690020e-06 6.738030151609564200e-06 -1.989014344871975482e-05
5.202000000000000000e+03 4.122124862670898438e+01 -7.686656475067138672e+00 1.842406527430284768e-05 6.019018655933905393e-06 7.332925179071025923e-06 2.632301630001165904e-06
5.203000000000000000e+03 3.034089279174804688e+01 -1.951948761940002441e+00 -7.134764473448740318e-06 -1.265184891963144764e-05 -5.935984063398791477e-06 2.230002110081841238e-06
5.204000000000000000e+03 2.503061103820800781e+01 3.112759828567504883e+00 1.678127432569453958e-06 -2.227878576377406716e-05 -6.180197487992700189e-06 4.717651790997479111e-06
5.205000000000000000e+03 2.136496162414550781e+01 6.847954750061035156e+00 1.351832179352641106e-05 8.647680260764900595e-06 6.649800525337923318e-06 -1.587681799719575793e-05
5.206000000000000000e+03 2.348766517639160156e+01 4.633139133453369141e+00 -2.343061623832909390e-06 -2.425198908895254135e-05 -7.978514986461959779e-06 5.530717771762283519e-06
5.207000000000000000e+03 1.901247406005859375e+01 8.802993774414062500e+00 -1.628295285627245903e-05 -1.586334656167309731e-05 -9.643889825383666903e-06 1.221755883307196200e-05
5.208000000000000000e+03 1.839996528625488281e+01 8.027900695800781250e+00 -2.547662461438449100e-06 -1.278509245139503037e-07 -8.026539717320702039e-07 -1.071142105502076447e-05
5.209000000000000000e+03 3.923730468750000000e+01 -1.250381088256835938e+01 8.372363481612410396e-06 2.418326630504452623e-06 3.237207010897691362e-06 3.078330564676434733e-06
5.210000000000000000e+03 4.077721786499023438e+01 -4.911572933197021484e+00 1.233041803061496466e-05 1.969084769370965660e-05 9.606379535398446023e-06 -3.095554575338610448e-06
5.211000000000000000e+03 4.095808029174804688e+01 -4.364637851715087891e+00 -1.167158006865065545e-05 8.815343790047336370e-06 -8.568707130507391412e-07 1.095980587706435472e-05
5.212000000000000000e+03 3.335680389404296875e+01 1.178541278839111328e+01 -5.849180524819530547e-05 8.469375643471721560e-06 -1.500672897236654535e-05 1.984454684134107083e-06
5.213000000000000000e+03 3.306274414062500000e+01 9.451457023620605469e+00 4.142848047195002437e-05 -4.123931648791767657e-05 5.674888470252881234e-08 2.285362825205083936e-05
5.214000000000000000e+03 2.712108993530273438e+01 2.002479314804077148e+00 2.024639070441480726e-05 -1.709965999907581136e-06 5.560927547776373103e-06 3.036735961359227076e-06
5.215000000000000000e+03 3.277639389038085938e+01 1.843054008483886719e+01 3.920203744200989604e-05 -8.827875717543065548e-06 9.112249244935810566e-06 -4.568872827803716063e-05
5.216000000000000000e+03 2.969794273376464844e+01 1.633283233642578125e+01 4.816525688511319458e-05 4.804094714927487075e-06 1.589080602570902556e-05 -3.900020601577125490e-05
5.217000000000000000e+03 3.511533355712890625e+01 -1.058784770965576172e+01 8.191010238078888506e-06 4.814349722437327728e-06 3.901607669831719249e-06 6.612022843910381198e-06
5.218000000000000000e+03 3.294868469238281250e+01 -5.973989486694335938e+00 -1.457292341910942923e-06 -1.109232016460737213e-05 -3.764883558687870391e-06 3.070862248932826333e-06
5.219000000000000000e+03 3.205508422851562500e+01 -4.090433120727539062e+00 1.014790541375987232e-05 4.580038876156322658e-06 4.418383468873798847e-06 -5.189012881601229310e-07
5.220000000000000000e+03 3.190531539916992188e+01 2.033121871948242188e+01 6.790058932892861776e-07 -2.672683149285148829e-05 -7.814347554813139141e-06 -2.538294938858598471e-05
5.221000000000000000e+03 3.145612907409667969e+01 1.721277618408203125e+01 6.166270031826570630e-05 -4.709809581981971860e-05 4.369380349089624360e-06 -1.131970657297642902e-05
5.222000000000000000e+03 3.665308761596679688e+01 1.768894553184509277e+00 5.721795241697691381e-05 6.818517590545525309e-07 1.736994090606458485e-05 2.751275496848393232e-05
5.223000000000000000e+03 9.807328224182128906e+00 2.125203514099121094e+01 -4.424567578098503873e-06 -3.979740085924277082e-06 -2.521292344681569375e-06 1.947729288076516241e-06
5.224000000000000000e+03 3.243076324462890625e+01 1.154924297332763672e+01 3.029301115020643920e-05 -4.283145608496852219e-05 -3.761533434953889810e-06 2.094629962812177837e-05
5.225000000000000000e+03 2.837837600708007812e+01 3.059709072113037109e-01 1.990848249988630414e-05 -7.976896995387505740e-06 3.579475560400169343e-06 1.003988018055679277e-05
5.226000000000000000e+03 2.779606819152832031e+01 1.162679910659790039e+00 3.442909473960753530e-06 -1.629181679163593799e-05 -3.854672286252025515e-06 2.295579861311125569e-06
5.227000000000000000e+03 1.002093791961669922e+01 1.583329296112060547e+01 -3.119635221082717180e-05 5.944945769442711025e-06 -7.575422387162689120e-06 -1.248754415428265929e-05
5.228000000000000000e+03 3.138649368286132812e+01 -2.417367458343505859e+00 3.006674705829937011e-05 3.118964286841219291e-06 9.955713721865322441e-06 9.000475074572023004e-06
5.229000000000000000e+03 3.103625106811523438e+01 -4.471621513366699219e+00 2.092498471029102802e-05 1.298893494094954804e-06 6.667163233942119405e-06 -3.301748165540629998e-06
5.230000000000000000e+03 2.016072654724121094e+01 6.855995178222656250e+00 1.371605776512296870e-05 7.363683380390284583e-06 6.323922661977121606e-06 -2.100195160892326385e-05
5.231000000000000000e+03 1.370030307769775391e+01 9.310560226440429688e+00 -1.440357027604477480e-05 -7.080836894601816311e-06 -6.445322014769772068e-06 4.594360689225140959e-06
5.232000000000000000e+03 9.942153930664062500e+00 1.755007362365722656e+01 8.716819138498976827e-06 7.490988309655222110e-07 2.839775333995930851e-06 -3.362566758369212039e-07
5.233000000000000000e+03 1.109774017333984375e+01 2.459615135192871094e+01 -9.006317668536212295e-06 -1.796389369701500982e-05 -8.091063136816956103e-06 2.353653871978167444e-05
5.234000000000000000e+03 3.461349105834960938e+01 5.123157501220703125e+00 5.053077984484843910e-05 2.932667712229886092e-06 1.603903365321457386e-05 2.061373379547148943e-05
5.235000000000000000e+03 1.144192886352539062e+01 3.279457473754882812e+01 -3.288368316134437919e-05 -2.797652086883317679e-05 -1.825806066335644573e-05 3.900030060322023928e-05
5.236000000000000000e+03 1.155482959747314453e+01 2.831401824951171875e+01 -9.592332389729563147e-06 -2.466721980454167351e-06 -3.617716402004589327e-06 -8.324701411766000092e-06
5.237000000000000000e+03 1.199590396881103516e+01 2.661780929565429688e+01 -1.821460386963735800e-06 -2.450483589200302958e-05 -7.897888281149789691e-06 2.852118450391571969e-05
5.238000000000000000e+03 1.065796566009521484e+01 2.617857360839843750e+01 -1.372405404254095629e-05 2.612474190755165182e-06 -3.333473841848899610e-06 -7.751197699690237641e-06
5.239000000000000000e+03 2.826700592041015625e+01 2.483839225769042969e+01 -2.187698410125449300e-04 4.930242357659153640e-05 -5.084022632217966020e-05 7.383593765553086996e-05
5.240000000000000000e+03 2.924438667297363281e+01 2.264846992492675781e+01 -2.368366986047476530e-04 2.238389060948975384e-05 -6.433584348997101188e-05 6.995727017056196928e-05
5.241000000000000000e+03 3.180833625793457031e+01 1.420465564727783203e+01 4.387268563732504845e-05 -3.901228774338960648e-05 1.458119527342205402e-06 9.034980394062586129e-06
5.242000000000000000e+03 9.385423660278320312e+00 -1.031783390045166016e+01 9.562772902427241206e-05 5.414529368863441050e-05 4.493190863286145031e-05 2.281612614751793444e-05
5.243000000000000000e+03 1.114957046508789062e+01 1.197746562957763672e+01 -2.919397957157343626e-05 3.511621798679698259e-06 -7.704707059019710869e-06 -2.675689984243945219e-06
5.244000000000000000e+03 3.691970443725585938e+01 1.431041210889816284e-01 5.442659312393516302e-05 -2.126693914306088118e-07 1.626417724764905870e-05 1.038936807162826881e-05
5.245000000000000000e+03 1.004660511016845703e+01 1.022160625457763672e+01 -1.827736559789627790e-05 2.123063723047380336e-06 -4.846290721616242081e-06 -6.600391770916758105e-07
5.246000000000000000e+03 1.311217689514160156e+01 9.908698081970214844e+00 1.445111229259055108e-05 5.571444035012973472e-06 6.006766852806322277e-06 -2.238445085822604597e-05
5.247000000000000000e+03 3.397561264038085938e+01 -8.707033157348632812e+00 2.301205768162617460e-06 1.330401232735312078e-06 1.089482111638062634e-06 4.706284016720019281e-06
5.248000000000000000e+03 3.475254821777343750e+01 -9.382204055786132812e+00 -1.429121221008244902e-05 1.896342155305319466e-06 -3.718460902746301144e-06 -3.981914687756216154e-06
5.249000000000000000e+03 4.151327514648437500e+01 -1.161517715454101562e+01 -1.043185784510569647e-05 2.776936298687360249e-07 -3.046249275939771906e-06 -1.966858235391555354e-06
5.250000000000000000e+03 3.535145187377929688e+01 -8.813899993896484375e+00 -1.300208987231599167e-05 -2.145383405149914324e-06 -4.544242074189241976e-06 4.665953383664600551e-06
5.251000000000000000e+03 1.107599639892578125e+01 1.640150070190429688e+01 -4.224500298732891679e-05 5.254264578979928046e-06 -1.109722234104992822e-05 -8.519361472281161696e-06
5.252000000000000000e+03 3.869407653808593750e+01 -1.171078872680664062e+01 8.021753274078946561e-06 2.978793645525001921e-06 3.300164053143817000e-06 1.652478658797917888e-06
5.253000000000000000e+03 3.704473495483398438e+01 -9.815551757812500000e+00 -6.688614575978135690e-06 -5.963886451354483142e-06 -3.795750217250315472e-06 -1.657572738622548059e-06
5.254000000000000000e+03 1.176061344146728516e+01 1.835592842102050781e+01 -3.720636595971882343e-05 2.295883405167842284e-06 -1.047314435709267855e-05 -1.292637807637220249e-05
5.255000000000000000e+03 4.017983627319335938e+01 -6.376185894012451172e+00 -1.639430411159992218e-05 -1.044332384481094778e-05 -8.051288205024320632e-06 3.152003728246199898e-06
5.256000000000000000e+03 4.109290313720703125e+01 -7.028392791748046875e+00 -1.241377958649536595e-05 -1.028144924930529669e-05 -6.808568741689668968e-06 1.168862354461452924e-06
5.257000000000000000e+03 3.352100372314453125e+01 -9.234763145446777344e+00 7.845123946026433259e-06 -2.855945922419778071e-06 1.496753384344629012e-06 7.934468158055096865e-07
5.258000000000000000e+03 9.343757629394531250e+00 -9.614474296569824219e+00 -1.336891145911067724e-04 -1.834504291764460504e-05 -4.561024616123177111e-05 -1.302657892665592954e-05
5.259000000000000000e+03 4.202399826049804688e+01 -9.483983039855957031e+00 1.289622650801902637e-05 5.368141955841565505e-06 5.479310402733972296e-06 5.323767254594713449e-06
5.260000000000000000e+03 4.170926666259765625e+01 -1.090904045104980469e+01 1.409817377862054855e-05 -9.513998975307913497e-07 3.944031959690619260e-06 4.400128091219812632e-06
5.261000000000000000e+03 2.274674224853515625e+01 8.072476387023925781e+00 1.031432748277438805e-05 7.207745966297807172e-06 5.256621989246923476e-06 -4.904698016616748646e-07
5.262000000000000000e+03 2.074277496337890625e+01 7.391975402832031250e+00 -1.144582984125008807e-05 -2.669264904398005456e-05 -1.144154339272063226e-05 1.251317917194683105e-05
5.263000000000000000e+03 4.020434188842773438e+01 -2.735940933227539062e+00 -5.743412657466251403e-06 -1.122928324548411183e-06 -2.059902271867031232e-06 -9.271120688936207443e-06
5.264000000000000000e+03 3.847905731201171875e+01 -5.945823788642883301e-01 -3.566321174730546772e-05 -5.887771749257808551e-06 -1.246529518539318815e-05 1.568289371789433062e-05
5.265000000000000000e+03 3.855619049072265625e+01 -1.237602519989013672e+01 -6.190372005221433938e-06 -2.392739133938448504e-06 -2.574933432697434910e-06 -1.228396740771131590e-06
5.266000000000000000e+03 4.006974792480468750e+01 -1.133270454406738281e+01 -6.002327154419617727e-06 -7.412169907183852047e-06 -4.024348982056835666e-06 -8.175348739314358681e-06
5.267000000000000000e+03 4.014573287963867188e+01 -1.029794788360595703e+01 1.355928088742075488e-05 -4.051207270094892010e-06 2.852422085197758861e-06 1.405171587975928560e-06
5.268000000000000000e+03 4.033338546752929688e+01 -7.160499572753906250e+00 1.706562761683017015e-05 8.904876267479266971e-06 7.791150892444420606e-06 4.049154995300341398e-06
5.269000000000000000e+03 3.515551376342773438e+01 -1.004016876220703125e+01 -7.465872840839438140e-06 -4.090059064765227959e-06 -3.466779617156134918e-06 -4.297483883419772610e-06
5.270000000000000000e+03 3.774456787109375000e+01 -9.896453857421875000e+00 1.445276393496897072e-05 3.485022489257971756e-06 5.381335995480185375e-06 5.405573119787732139e-06
5.271000000000000000e+03 3.577939224243164062e+01 2.546585798263549805e+00 5.113441147841513157e-05 8.206153324863407761e-06 1.780216916813515127e-05 2.928490903286729008e-05
5.272000000000000000e+03 3.575342559814453125e+01 3.405950069427490234e+00 -4.269878263585269451e-05 -1.352501294604735449e-05 -1.686713949311524630e-05 -3.637908548626000993e-06
5.273000000000000000e+03 2.427117919921875000e+01 3.885106563568115234e+00 1.967358548427000642e-05 1.587326778462738730e-06 6.378273610607720912e-06 -3.048118060178239830e-06
5.274000000000000000e+03 1.579433822631835938e+01 9.760504722595214844e+00 -3.393161750864237547e-05 1.478856938774697483e-05 -5.742914709117030725e-06 -1.368016273772809654e-05
5.275000000000000000e+03 1.442919540405273438e+01 1.004431724548339844e+01 1.608921775186900049e-05 4.524011274043004960e-06 6.183968253026250750e-06 -2.636776844155974686e-05
5.276000000000000000e+03 1.793046188354492188e+01 1.026098442077636719e+01 1.923560921568423510e-05 1.444070221623405814e-06 6.203903922141762450e-06 -1.903775046230293810e-05
5.277000000000000000e+03 3.087536048889160156e+01 5.129835605621337891e-01 3.276468123658560216e-05 4.599959083861904219e-06 1.120939214160898700e-05 5.081337803858332336e-06
5.278000000000000000e+03 3.004006576538085938e+01 -8.131654560565948486e-02 3.022217424586415291e-05 -3.013665946127730422e-06 8.162552148860413581e-06 1.544960582577914465e-06
5.279000000000000000e+03 3.338619995117187500e+01 6.947983741760253906e+00 -3.234683026676066220e-05 -1.866662569227628410e-05 -1.530403642391320318e-05 5.769498784502502531e-06
5.280000000000000000e+03 2.049543952941894531e+01 8.425333976745605469e+00 -1.381324636895442382e-05 -3.173120421706698835e-05 -1.366333526675589383e-05 1.140705808211350814e-05
5.281000000000000000e+03 3.205508422851562500e+01 1.280020618438720703e+01 -4.053245720569975674e-05 8.265357791970018297e-06 -9.680129551270511001e-06 -7.685952368774451315e-06
5.282000000000000000e+03 3.157752990722656250e+01 1.568514251708984375e+01 -1.042719668475911021e-04 2.469714127073530108e-05 -2.387244785495568067e-05 -1.740671541483607143e-05
5.283000000000000000e+03 2.991333389282226562e+01 -7.291271090507507324e-01 -1.007579885481391102e-05 -8.870258170645684004e-06 -5.683817107637878507e-06 8.116377102851402014e-06
5.284000000000000000e+03 3.118998146057128906e+01 -3.552233219146728516e+00 -1.085946678358595818e-05 -1.140133372246054932e-05 -6.678239969915011898e-06 4.072724095749435946e-06
5.285000000000000000e+03 3.063458442687988281e+01 -1.112044334411621094e+00 2.733842666202690452e-05 6.329729558274266310e-07 8.391419214603956789e-06 -1.146717977462685667e-06
5.286000000000000000e+03 3.788725280761718750e+01 -2.111633300781250000e+00 3.044086770387366414e-05 1.639399488340131938e-05 1.405045895808143541e-05 3.583223815439851023e-07
5.287000000000000000e+03 3.437254333496093750e+01 6.931173324584960938e+00 5.294998118188232183e-05 1.057840336216031574e-06 1.620234615984372795e-05 2.510862395865842700e-05
5.288000000000000000e+03 2.267567443847656250e+01 5.366552352905273438e+00 1.976616294996347278e-05 2.746695145106059499e-06 6.753857633157167584e-06 -8.862178219715133309e-06
5.289000000000000000e+03 2.416589164733886719e+01 5.244576930999755859e+00 2.014631900237873197e-05 1.940745960382628255e-06 6.626119557040510699e-06 -4.386974978842772543e-06
5.290000000000000000e+03 3.382154083251953125e+01 -6.967489719390869141e+00 -2.863052486645756289e-06 -9.245105502486694604e-06 -3.632447260315530002e-06 -2.468984575898502953e-06
5.291000000000000000e+03 3.451801300048828125e+01 -8.276640892028808594e+00 -1.416092572981142439e-06 -2.817597987814224325e-06 -1.270107190975977574e-06 -8.463471203867811710e-06
5.292000000000000000e+03 1.250490379333496094e+01 1.058072757720947266e+01 -1.572403380123432726e-05 -4.583322152029722929e-06 -6.092206604080274701e-06 7.149014891183469445e-07
5.293000000000000000e+03 3.783543395996093750e+01 -1.378911137580871582e+00 -3.250854206271469593e-05 -7.518691290897550061e-06 -1.200817041535628960e-05 1.390977558912709355e-05
5.294000000000000000e+03 3.457861709594726562e+01 -6.713715076446533203e+00 1.319530292676063254e-05 8.174481081368867308e-06 6.410934929590439424e-06 5.331804459274280816e-06
5.295000000000000000e+03 3.026397514343261719e+01 1.175963306427001953e+01 -1.668385812081396580e-05 2.459002462273929268e-05 2.371849859628127888e-06 6.143359769339440390e-06
5.296000000000000000e+03 3.187851333618164062e+01 1.012412738800048828e+01 1.829412030929233879e-05 -4.278582127881236374e-05 -7.347509836108656600e-06 9.841446626523975283e-06
5.297000000000000000e+03 1.087328720092773438e+01 1.939275741577148438e+01 -2.211557512055151165e-05 1.039870312524726614e-06 -6.322711669781710953e-06 -8.991599315777420998e-06
5.298000000000000000e+03 3.340650177001953125e+01 7.821975231170654297e+00 6.931605457793921232e-05 -1.065056721927248873e-06 2.047529778792522848e-05 2.983428203151561320e-05
5.299000000000000000e+03 2.567340660095214844e+01 3.646098375320434570e+00 2.096418029395863414e-05 -2.060531159031597781e-07 6.227438007044838741e-06 8.289530342153739184e-07
5.300000000000000000e+03 2.492779350280761719e+01 4.456766605377197266e+00 -1.748997306094679516e-06 -2.548792144807521254e-05 -8.171075933205429465e-06 4.813809937331825495e-06
5.301000000000000000e+03 2.340897369384765625e+01 6.000182151794433594e+00 -5.791878720629028976e-06 -2.899048013205174357e-05 -1.043470820150105283e-05 6.555368599947541952e-06
5.302000000000000000e+03 4.190384292602539062e+01 -1.019581222534179688e+01 -1.339938262390205637e-05 2.884067100694664987e-07 -3.933292646252084523e-06 -4.711328983830753714e-06
5.303000000000000000e+03 4.203027725219726562e+01 -8.801419258117675781e+00 -1.200830593006685376e-05 -3.643640411610249430e-06 -4.695583811553660780e-06 1.377456101181451231e-06
5.304000000000000000e+03 3.149239921569824219e+01 -1.340830683708190918e+00 -1.416561644873581827e-05 -1.312888343818485737e-05 -8.188349966076202691e-06 3.339616114317323081e-06
5.305000000000000000e+03 2.851242446899414062e+01 1.699856376647949219e+01 -1.082064336515031755e-04 -4.856463783653452992e-05 -4.703132071881555021e-05 7.952125997690018266e-06
5.306000000000000000e+03 1.021329593658447266e+01 2.778575897216796875e+01 -2.728988192757242359e-06 -2.213190964539535344e-05 -7.458269465132616460e-06 2.791794213408138603e-05
5.307000000000000000e+03 3.268418884277343750e+01 -4.761429786682128906e+00 5.342219083104282618e-06 -9.912211680784821510e-06 -1.370997892990999389e-06 7.423815986840054393e-06
5.308000000000000000e+03 3.245128250122070312e+01 -2.569553136825561523e+00 -1.805589090508874506e-05 -1.090158821170916781e-05 -8.687244189786724746e-06 -3.015481297552469186e-06
5.309000000000000000e+03 9.992534637451171875e+00 1.373417568206787109e+01 1.806956788641400635e-05 3.771183401113376021e-06 6.552225386258214712e-06 -9.477310413785744458e-06
5.310000000000000000e+03 1.034740447998046875e+01 1.463830280303955078e+01 -3.068870864808559418e-05 5.472605607792502269e-06 -7.564831321360543370e-06 -9.740070709085557610e-06
5.311000000000000000e+03 2.778084182739257812e+01 2.511878967285156250e+00 -4.410284873301861808e-06 -1.847128442022949457e-05 -6.864470378786791116e-06 5.077346486359601840e-06
5.312000000000000000e+03 1.994483375549316406e+01 9.316180229187011719e+00 -7.479700798285193741e-06 -2.654973650351166725e-05 -1.020883064484223723e-05 4.347384674474596977e-06
5.313000000000000000e+03 1.665633201599121094e+01 9.675971031188964844e+00 3.832819493254646659e-05 -1.152146342064952478e-05 8.042019544518552721e-06 -2.582658271421678364e-05
5.314000000000000000e+03 1.582544517517089844e+01 9.057986259460449219e+00 2.938487341452855617e-05 -2.279755972267594188e-05 1.976193971131579019e-06 2.561865812822361477e-06
5.315000000000000000e+03 3.318421936035156250e+01 1.981327819824218750e+01 -1.780174789018929005e-04 -7.316615665331482887e-05 -7.535509212175384164e-05 5.613387475023046136e-05
5.316000000000000000e+03 3.195121383666992188e+01 2.196569061279296875e+01 -1.723372988635674119e-04 6.537257286254316568e-05 -3.208942143828608096e-05 6.277958163991570473e-06
5.317000000000000000e+03 3.335293579101562500e+01 8.594884872436523438e+00 -4.021148561150766909e-05 1.680883542576339096e-05 -7.020795237622223794e-06 -5.736232196795754135e-06
5.318000000000000000e+03 3.077750396728515625e+01 1.425028228759765625e+01 -6.381276034517213702e-05 -4.847440504818223417e-05 -3.368615216459147632e-05 1.426501785317668691e-05
5.319000000000000000e+03 1.050846099853515625e+01 2.274766159057617188e+01 -1.192829677165718749e-05 -1.083848746930016205e-05 -6.830035090388264507e-06 1.020689796860096976e-05
5.320000000000000000e+03 1.006929683685302734e+01 3.151872444152832031e+01 2.060782389889936894e-05 1.477204250477370806e-06 6.625508376600919291e-06 -1.324560071225278080e-05
5.321000000000000000e+03 1.235253715515136719e+01 2.499138259887695312e+01 -2.294833211635705084e-05 -1.340285393780504819e-07 -6.924708486621966586e-06 -1.106877516576787457e-05
5.322000000000000000e+03 3.977717590332031250e+01 -1.080831050872802734e+01 -5.983427399769425392e-06 5.759909527114359662e-06 -6.705548116769932676e-08 5.380700713430996984e-06
5.323000000000000000e+03 3.935747909545898438e+01 -1.187050914764404297e+01 -5.773468728875741363e-06 -3.512637704261578619e-06 -2.785832066365401261e-06 -2.841986770363291726e-06
5.324000000000000000e+03 4.096040725708007812e+01 -6.306182861328125000e+00 1.329243332293117419e-05 1.557769246574025601e-05 8.661038009449839592e-06 1.106943386730563361e-06
5.325000000000000000e+03 4.141457366943359375e+01 -8.748997688293457031e+00 1.654467814660165459e-05 -9.635145943320821971e-07 4.674349384004017338e-06 -1.078111267815984320e-06
5.326000000000000000e+03 1.073952484130859375e+01 1.337495994567871094e+01 -2.853982005035504699e-05 4.836374046135460958e-06 -7.111033937690081075e-06 -7.547012955910759047e-06
5.327000000000000000e+03 1.188214206695556641e+01 1.134456539154052734e+01 1.027596863423241302e-05 9.870695066638290882e-06 6.043999292160151526e-06 -2.251890691695734859e-05
5.328000000000000000e+03 3.582357788085937500e+01 -9.562716484069824219e+00 -5.622648131975438446e-06 -5.667528967023827136e-06 -3.387053084225044586e-06 1.426667722626007162e-06
5.329000000000000000e+03 3.571332168579101562e+01 -1.014166069030761719e+01 9.515669262327719480e-06 4.378202902444172651e-06 4.168161467532627285e-06 2.398764991085045040e-06
5.330000000000000000e+03 3.649655151367187500e+01 -9.118704795837402344e+00 -4.139792508794926107e-06 -7.563731742266099900e-06 -3.511057229843572713e-06 1.302341956943564583e-06
5.331000000000000000e+03 1.123630428314208984e+01 1.043608474731445312e+01 -1.578759656695183367e-05 -2.781238663374097086e-06 -5.570650500885676593e-06 1.239927541973884217e-06
5.332000000000000000e+03 3.607240295410156250e+01 6.815128773450851440e-02 -3.907789505319669843e-05 2.498239837223081850e-06 -1.097389667847892269e-05 -1.669883886279421858e-06
5.333000000000000000e+03 3.365641021728515625e+01 5.081448554992675781e+00 -3.282970283180475235e-05 -1.157489441538928077e-05 -1.332137890130979940e-05 8.168740350811276585e-06
5.334000000000000000e+03 3.448644256591796875e+01 6.026553153991699219e+00 -3.856226976495236158e-05 -1.008325762086315081e-05 -1.459365739719942212e-05 6.877605756017146632e-06
5.335000000000000000e+03 4.013277053833007812e+01 -5.584201335906982422e+00 2.125912942574359477e-05 1.194452761410502717e-05 9.961097021005116403e-06 -3.925440978491678834e-06
5.336000000000000000e+03 1.173725223541259766e+01 1.609873962402343750e+01 2.554350794525817037e-05 -1.717626503250357928e-07 7.611523869854863733e-06 -6.771583684894721955e-06
5.337000000000000000e+03 1.183014202117919922e+01 1.947860336303710938e+01 9.269352631235960871e-06 -6.226560344657627866e-06 9.128376063927134965e-07 1.077942124538822100e-05
5.338000000000000000e+03 3.617067337036132812e+01 -6.931558251380920410e-01 3.943760748370550573e-05 3.970408670284086838e-06 1.302240525546949357e-05 1.814093775465153158e-05
5.339000000000000000e+03 3.822393798828125000e+01 -1.083111763000488281e+01 1.128765234170714393e-05 9.302528951593558304e-07 3.665371650640736334e-06 4.418144499140908010e-07
5.340000000000000000e+03 3.414772796630859375e+01 -7.682880401611328125e+00 6.956232482480118051e-06 4.824523330171359703e-06 3.534226607371238060e-06 1.048603371600620449e-05
5.341000000000000000e+03 3.971749496459960938e+01 -1.940530657768249512e+00 1.855080154200550169e-05 1.977696047106292099e-05 1.149832860392052680e-05 1.163549404736841097e-05
5.342000000000000000e+03 3.865069580078125000e+01 -1.311404347419738770e+00 3.383039438631385565e-05 1.398665608576266095e-05 1.434511523257242516e-05 1.280257379221438896e-06
5.343000000000000000e+03 3.686372375488281250e+01 -3.309500217437744141e+00 -2.842527101165615022e-05 9.348023922939319164e-06 -5.723174126615049317e-06 1.348860405414598063e-05
5.344000000000000000e+03 3.473027038574218750e+01 4.230942726135253906e+00 -3.805447340710088611e-05 -1.156887174147414044e-05 -1.488700399931985885e-05 3.045810217372491024e-06
5.345000000000000000e+03 3.582320022583007812e+01 1.688091516494750977e+00 -4.072700903634540737e-05 -2.665242618604679592e-06 -1.301767588302027434e-05 -5.034592049923958257e-06
5.346000000000000000e+03 3.321181869506835938e+01 -5.237081527709960938e+00 9.215758836944587529e-06 7.932832886581309140e-06 5.144577698956709355e-06 -2.373055139059943031e-07
5.347000000000000000e+03 2.561419677734375000e+01 5.026004791259765625e+00 2.023724300670437515e-05 1.673466158536029980e-06 6.573212885996326804e-06 1.657509073993423954e-06
5.348000000000000000e+03 2.640533065795898438e+01 2.826441526412963867e+00 -2.886380343625205569e-07 -2.101088284689467400e-05 -6.389856025634799153e-06 4.550523499347036704e-06
5.349000000000000000e+03 3.486876678466796875e+01 2.485034704208374023e+00 -3.775156437768600881e-05 -9.222206244885455817e-06 -1.409213109582196921e-05 -5.291184152156347409e-06
5.350000000000000000e+03 3.481471252441406250e+01 3.356807470321655273e+00 4.989834997104480863e-05 7.642250238859560341e-06 1.726218033581972122e-05 2.589565337984822690e-05
5.351000000000000000e+03 1.860723876953125000e+01 9.890649795532226562e+00 3.575063374228193425e-06 -4.451739732758142054e-05 -1.228270048159174621e-05 8.102240826701745391e-06
5.352000000000000000e+03 3.945887756347656250e+01 -5.565055370330810547e+00 -1.867689388745930046e-05 -8.684730346431024373e-06 -8.208487088268157095e-06 6.255686002987204120e-06
5.353000000000000000e+03 3.203233337402343750e+01 4.042131423950195312e+00 3.940378883271478117e-05 -1.075780528481118381e-05 8.593795428168959916e-06 1.510938727733446285e-05
5.354000000000000000e+03 1.137639904022216797e+01 1.524089241027832031e+01 -4.044915840495377779e-05 5.787139798485441133e-06 -1.039860580931417644e-05 -8.329528100148309022e-06
5.355000000000000000e+03 3.148628807067871094e+01 -4.737860560417175293e-01 3.065740384045056999e-05 4.786119802702160086e-07 9.340804353996645659e-06 3.533036760927643627e-07
5.356000000000000000e+03 3.169509887695312500e+01 2.032606601715087891e-01 -2.326401954633183777e-05 -9.818163562158588320e-06 -9.924655387294478714e-06 1.100756981031736359e-05
5.357000000000000000e+03 2.074423408508300781e+01 9.169717788696289062e+00 1.876691931101959199e-05 3.540470970619935542e-06 6.692217084491858259e-06 -1.967245589185040444e-05
5.358000000000000000e+03 1.598591327667236328e+01 1.069442844390869141e+01 2.723203760979231447e-05 -1.292983961320715025e-05 4.290659489925019443e-06 -9.039309588843025267e-06
5.359000000000000000e+03 3.010742568969726562e+01 1.645254969596862793e+00 3.193625161657109857e-05 9.871295333141461015e-06 1.254226390301482752e-05 1.147760121966712177e-05
5.360000000000000000e+03 2.909405899047851562e+01 6.990017294883728027e-01 6.034951184119563550e-06 -1.270802130193260382e-08 1.806673026294447482e-06 2.495377657396602444e-06
5.361000000000000000e+03 1.083503913879394531e+01 1.839982795715332031e+01 8.785270438238512725e-06 1.362442390018259175e-06 3.044313871214399114e-06 9.955541599993011914e-07
5.362000000000000000e+03 3.955358123779296875e+01 -3.447307109832763672e+00 -5.599325504590524361e-06 -3.212822775822132826e-06 -2.643644620548002422e-06 8.631464879726991057e-06
5.363000000000000000e+03 3.621880340576171875e+01 -1.436701774597167969e+00 -2.621928069856949151e-05 -1.082304152077995241e-05 -1.111269739340059459e-05 -9.742851858618450933e-08
5.364000000000000000e+03 3.107952880859375000e+01 1.234321212768554688e+01 -1.166127003671135753e-05 -6.579424371011555195e-05 -2.323665285075549036e-05 1.091668855224270374e-05
5.365000000000000000e+03 2.633181381225585938e+01 4.173255443572998047e+00 -4.157387593295425177e-06 -2.457376467646099627e-05 -8.619345862825866789e-06 2.621281737447134219e-06
5.366000000000000000e+03 3.526506805419921875e+01 -9.452736854553222656e+00 1.653530125622637570e-05 3.796308760684041772e-07 5.074479304312262684e-06 3.094384055657428689e-06
5.367000000000000000e+03 2.704937171936035156e+01 3.339222192764282227e+00 2.553092963353265077e-05 -2.394794364590779878e-06 6.940840648894663900e-06 4.634414835891220719e-06
5.368000000000000000e+03 2.479669189453125000e+01 7.342221260070800781e+00 -9.082997166842687875e-06 -4.033532968605868518e-05 -1.482549760112306103e-05 5.065694494987837970e-06
5.369000000000000000e+03 3.267546081542968750e+01 -3.502356290817260742e+00 2.253354614367708564e-05 -6.765187208657152951e-06 4.730507498607039452e-06 1.369056553812697530e-05
5.370000000000000000e+03 2.486877822875976562e+01 5.861880302429199219e+00 -5.092869741929462180e-06 -3.083938281633891165e-05 -1.077967590390471742e-05 5.691103524441132322e-06
5.371000000000000000e+03 2.411486244201660156e+01 6.637179374694824219e+00 2.130201391992159188e-05 3.773252956307260320e-06 7.522579835494980216e-06 -5.821005288453307003e-06
5.372000000000000000e+03 1.105043125152587891e+01 1.433246898651123047e+01 2.368736568314488977e-05 -1.795666094039916061e-06 6.567509899468859658e-06 -9.974611202778760344e-06
5.373000000000000000e+03 4.057098388671875000e+01 -7.897737979888916016e+00 -9.388655598741024733e-06 -9.242493433703202754e-06 -5.589344709733268246e-06 -3.541619662428274751e-06
5.374000000000000000e+03 4.041078567504882812e+01 -9.661667823791503906e+00 -1.009765037451870739e-05 6.974728989916911814e-07 -2.820053168761660345e-06 1.770693188518634997e-06
5.375000000000000000e+03 3.037773132324218750e+01 1.905234527587890625e+01 3.505279892124235630e-05 -5.327888356987386942e-05 -5.467825758387334645e-06 -2.296147977176588029e-05
5.376000000000000000e+03 3.369865798950195312e+01 -6.137679576873779297e+00 1.526006053609307855e-05 9.015383511723484844e-06 7.282633305294439197e-06 8.441767022304702550e-06
5.377000000000000000e+03 3.473452377319335938e+01 -7.354941844940185547e+00 -2.082826313198893331e-06 -9.335239155916497111e-06 -3.425419663471984677e-06 -4.701015768659999594e-06
5.378000000000000000e+03 2.108653831481933594e+01 9.969201087951660156e+00 -2.743453114817384630e-05 -2.502133429516106844e-05 -1.573675945110153407e-05 2.728137133090058342e-06
5.379000000000000000e+03 2.126781272888183594e+01 8.056455612182617188e+00 1.815908035496249795e-05 9.962452168110758066e-06 8.436460120719857514e-06 -1.598467315488960594e-05
5.380000000000000000e+03 3.374641418457031250e+01 -5.374759197235107422e+00 -9.656047950556967407e-06 -1.022189735522260889e-05 -5.963383500784402713e-06 -3.768895339817390777e-06
5.381000000000000000e+03 3.270034408569335938e+01 8.245139122009277344e+00 -6.055745416233548895e-06 -4.858857937506400049e-05 -1.639329821045976132e-05 2.490569931978825480e-05
5.382000000000000000e+03 3.098648262023925781e+01 9.763330459594726562e+00 -1.279627394978888333e-05 7.559184268757235259e-06 -1.571126972521597054e-06 8.218304174079094082e-06
5.383000000000000000e+03 1.756788444519042969e+01 1.154451847076416016e+01 1.961966336239129305e-05 2.374820724071469158e-06 6.598344953090418130e-06 -3.021163684024941176e-05
5.384000000000000000e+03 1.306516647338867188e+01 2.881455039978027344e+01 4.644883802029653452e-07 -3.671296872198581696e-05 -1.087454438675194979e-05 4.246347452863119543e-05
5.385000000000000000e+03 3.019912910461425781e+01 1.755830574035644531e+01 -1.377918961225077510e-04 -2.035146280832123011e-05 -4.744300895254127681e-05 2.292478893650695682e-05
5.386000000000000000e+03 3.057215881347656250e+01 1.541130447387695312e+01 -1.208377761940937489e-05 -8.859424269758164883e-05 -3.020340591319836676e-05 3.510800161166116595e-05
5.387000000000000000e+03 1.182607746124267578e+01 2.063561820983886719e+01 -2.463651981088332832e-05 -6.299474080151412636e-07 -7.579940302093746141e-06 -1.412297478964319453e-05
5.388000000000000000e+03 1.173539352416992188e+01 2.185817909240722656e+01 -3.211388730051112361e-06 -9.083275472221430391e-06 -3.688399374368600547e-06 1.656685344642028213e-05
5.389000000000000000e+03 1.353501510620117188e+01 3.382431411743164062e+01 8.115789569274056703e-06 -2.752701038843952119e-05 -5.823366336699109524e-06 -3.388994809938594699e-05
5.390000000000000000e+03 2.908329391479492188e+01 1.538406848907470703e+01 -6.188281986396759748e-05 -7.278909470187500119e-05 -4.040157364215701818e-05 4.194637585896998644e-05
5.391000000000000000e+03 3.919981384277343750e+01 -6.951235294342041016e+00 -3.566169652913231403e-06 -4.843378064833814278e-06 -2.522864406273583882e-06 7.668751095479819924e-06
5.392000000000000000e+03 3.593050003051757812e+01 -8.969533920288085938e+00 1.012507527775596827e-05 5.686914846592117101e-06 4.743596946354955435e-06 -7.271396498254034668e-07
5.393000000000000000e+03 3.641396331787109375e+01 -9.698143959045410156e+00 9.036549272423144430e-06 6.044184829079313204e-06 4.524220003077061847e-06 2.177402620873181149e-06
5.394000000000000000e+03 4.128931045532226562e+01 -9.308880805969238281e+00 -1.073278417607070878e-05 -1.894524757517501712e-06 -3.788192771025933325e-06 -1.741928599585662596e-06
5.395000000000000000e+03 3.846686553955078125e+01 -1.010493564605712891e+01 -9.378028153150808066e-06 -4.989330477656039875e-07 -2.963088491014786996e-06 7.141981654967821669e-07
5.396000000000000000e+03 1.377868270874023438e+01 1.062819576263427734e+01 -1.974730184883810580e-05 -4.567109044728567824e-06 -7.294323495443677530e-06 4.091613845957908779e-06
5.397000000000000000e+03 2.039465522766113281e+01 1.043117904663085938e+01 -6.836441116320202127e-06 1.923397030623164028e-05 3.719258984347106889e-06 -7.408259989460930228e-06
5.398000000000000000e+03 3.755446243286132812e+01 -1.064137172698974609e+01 -1.027444523060694337e-05 -6.636377065660781227e-07 -3.281424824308487587e-06 1.071613908720792097e-08
5.399000000000000000e+03 3.757615280151367188e+01 -7.718686103820800781e+00 6.394956926669692621e-06 2.093794364554923959e-06 2.546625410104752518e-06 1.498176970926579088e-05
5.400000000000000000e+03 3.888148117065429688e+01 -1.105860424041748047e+01 -5.954694188403664157e-06 -1.712610924187174533e-06 -2.300191454196465202e-06 1.362121565762208775e-06
5.401000000000000000e+03 3.990984344482421875e+01 -8.087474822998046875e+00 1.287428585783345625e-05 1.154058645624900237e-05 7.324461876123677939e-06 6.546327313117217273e-06
5.402000000000000000e+03 4.112251663208007812e+01 -9.955513954162597656e+00 1.277277533517917618e-05 1.098175516744959168e-06 4.161285232839873061e-06 3.635698021753341891e-06
5.403000000000000000e+03 4.061139678955078125e+01 -9.006278991699218750e+00 9.743286682351026684e-06 4.651171366276685148e-06 4.318337232689373195e-06 1.135644879468600266e-06
5.404000000000000000e+03 4.089923095703125000e+01 -8.476870536804199219e+00 8.325002340825449210e-07 4.625247584044700488e-06 1.637324430703301914e-06 5.964158390270313248e-06
5.405000000000000000e+03 3.226977920532226562e+01 -1.202893137931823730e+00 4.643971351470099762e-06 1.667127617110963911e-05 6.394574484147597104e-06 1.462764430470997468e-05
5.406000000000000000e+03 1.974921798706054688e+01 9.960438728332519531e+00 1.872166762950655539e-06 -3.875970287481322885e-05 -1.106626041291747242e-05 4.757332135341130197e-06
5.407000000000000000e+03 3.358992767333984375e+01 -4.791356086730957031e+00 1.849049658630974591e-05 -5.119931756780715659e-06 4.011169494333444163e-06 1.311872529186075553e-05
5.408000000000000000e+03 3.706460571289062500e+01 -2.092558383941650391e+00 -2.401483470748644322e-05 -1.327836707787355408e-05 -1.118796080845640972e-05 6.415926236513769254e-06
5.409000000000000000e+03 3.774662780761718750e+01 -6.459009051322937012e-01 4.677782635553739965e-05 6.171511813590768725e-06 1.588480154168792069e-05 -4.415455805428791791e-06
5.410000000000000000e+03 3.592796707153320312e+01 8.546817898750305176e-01 4.769516817759722471e-05 -3.525441059082368156e-07 1.420278658770257607e-05 1.803169470804277807e-05
5.411000000000000000e+03 3.880070495605468750e+01 -2.142289161682128906e+00 -2.894158205890562385e-05 -1.117254578275606036e-05 -1.203423835249850526e-05 7.586261745018418878e-06
5.412000000000000000e+03 1.319409275054931641e+01 1.129546070098876953e+01 9.286933163821231574e-06 6.524279342556837946e-06 4.743363660963950679e-06 -2.474956090736668557e-05
5.413000000000000000e+03 1.153319835662841797e+01 1.305774497985839844e+01 2.478140595485456288e-05 -4.653197720472235233e-06 6.038462743163108826e-06 -1.223498020408442244e-05
5.414000000000000000e+03 3.914631652832031250e+01 -1.044736576080322266e+01 1.174849512608489022e-05 -2.301637323398608714e-06 2.834057340805884451e-06 8.037775955926917959e-07
5.415000000000000000e+03 3.979226684570312500e+01 -9.365359306335449219e+00 1.590748252056073397e-05 -5.136975232744589448e-06 3.231152277294313535e-06 -8.103999675768136512e-07
5.416000000000000000e+03 1.279295444488525391e+01 2.206965827941894531e+01 -3.124024806311354041e-05 -1.068325673259096220e-06 -9.692572348285466433e-06 -1.544853330415207893e-05
5.417000000000000000e+03 3.499857330322265625e+01 6.997812986373901367e-01 -2.918718564615119249e-05 -7.177662155299913138e-06 -1.090945443138480186e-05 -2.898515958804637194e-06
5.418000000000000000e+03 2.758677864074707031e+01 1.321833133697509766e+01 -2.949792906292714179e-05 1.260738190467236564e-05 -5.067163783678552136e-06 -3.622743315645493567e-05
5.419000000000000000e+03 3.152799606323242188e+01 1.120432186126708984e+01 -5.699317625840194523e-06 4.897141934634419158e-06 -2.406525823062111158e-07 9.540275641484186053e-06
5.420000000000000000e+03 1.241158485412597656e+01 1.576608943939208984e+01 -4.547672142507508397e-05 4.152183919359231368e-06 -1.239736138813896105e-05 -1.733190765662584454e-05
5.421000000000000000e+03 2.920210075378417969e+01 2.271770477294921875e+00 -3.798004399868659675e-06 -2.696655792533420026e-05 -9.229368515661917627e-06 3.326639443912426941e-06
5.422000000000000000e+03 3.389683151245117188e+01 -2.857253074645996094e+00 -3.165431962770526297e-06 -9.259088983526453376e-06 -3.727356443050666712e-06 1.065399010258261114e-05
5.423000000000000000e+03 1.284599113464355469e+01 2.076557922363281250e+01 8.523011274519376457e-06 -1.166729998658411205e-05 -9.432865226699505001e-07 1.924312164192087948e-05
5.424000000000000000e+03 3.076503372192382812e+01 -2.841262817382812500e-01 -1.608475213288329542e-05 -9.079330993699841201e-06 -7.549224847025470808e-06 1.422462992195505649e-05
5.425000000000000000e+03 3.223739242553710938e+01 2.481528759002685547e+00 4.680908386944793165e-05 -1.003823058454145212e-06 1.374157909594941884e-05 2.060551014437805861e-05
5.426000000000000000e+03 3.379211807250976562e+01 4.188356399536132812e+00 4.843870920012705028e-05 -1.981042032639379613e-07 1.447218164685182273e-05 1.995770435314625502e-05
5.427000000000000000e+03 3.491822052001953125e+01 1.599795699119567871e+00 4.445133890840224922e-05 4.832065314985811710e-06 1.478502053942065686e-05 2.519968620617873967e-05
5.428000000000000000e+03 2.996630477905273438e+01 7.690694332122802734e-01 -8.270681064459495246e-06 -2.111006324412301183e-05 -8.814223292574752122e-06 9.068327017303090543e-06
5.429000000000000000e+03 1.915508842468261719e+01 1.053914070129394531e+01 -2.283958338011871092e-06 2.199848677264526486e-05 5.914358553127385676e-06 -2.155848778784275055e-05
5.430000000000000000e+03 1.921551704406738281e+01 9.460623741149902344e+00 2.170146672142436728e-06 1.973200414795428514e-05 6.570645382453221828e-06 -2.527589276724029332e-05
5.431000000000000000e+03 3.199191284179687500e+01 9.123117327690124512e-01 3.732220284291543067e-05 1.013836663332767785e-05 1.423817047907505184e-05 1.394372247887076810e-05
5.432000000000000000e+03 1.505860710144042969e+01 1.084663200378417969e+01 -3.328648381284438074e-05 -2.903462473113904707e-06 -1.085698386305011809e-05 1.083629103959538043e-05
5.433000000000000000e+03 3.900036239624023438e+01 -4.114529609680175781e+00 -5.519240858120610937e-06 5.450641765492036939e-06 -2.057979209268978593e-08 -4.739506948681082577e-06
5.434000000000000000e+03 3.351765441894531250e+01 5.994686603546142578e+00 4.560034722089767456e-05 3.411465172575844917e-07 1.378244814986828715e-05 1.835032162489369512e-05
5.435000000000000000e+03 3.555106353759765625e+01 -8.155712127685546875e+00 1.390772649756399915e-05 2.629696496114775073e-07 4.251208792993566021e-06 -7.206304871942847967e-06
5.436000000000000000e+03 3.271632766723632812e+01 -1.741719245910644531e+00 4.389876266941428185e-05 -9.760512512002605945e-06 1.024147513817297295e-05 6.511818355647847056e-06
5.437000000000000000e+03 2.558520698547363281e+01 6.491908550262451172e+00 2.227554432465694845e-05 5.197556220082333311e-06 8.241930117947049439e-06 1.711390609671070706e-06
5.438000000000000000e+03 2.699548339843750000e+01 4.677271366119384766e+00 2.761576070042792708e-05 -4.474082288652425632e-06 6.942503659956855699e-06 6.350599051074823365e-06
5.439000000000000000e+03 1.438609218597412109e+01 1.131089305877685547e+01 1.693603371677454561e-05 1.861205419118050486e-06 5.639171831717249006e-06 -2.680597754078917205e-05
5.440000000000000000e+03 2.829174613952636719e+01 4.405045509338378906e+00 2.808061435644049197e-05 -1.662690465309424326e-06 7.925376849016174674e-06 5.612202585325576365e-06
5.441000000000000000e+03 2.404422569274902344e+01 7.976058959960937500e+00 2.957159813377074897e-05 3.534102688718121499e-06 9.931710337696131319e-06 -3.239767465856857598e-06
5.442000000000000000e+03 3.288366699218750000e+01 4.136393070220947266e+00 -3.120601832051761448e-05 -7.974880645633675158e-06 -1.175426950794644654e-05 4.538017492450308055e-06
5.443000000000000000e+03 1.202493858337402344e+01 1.496628665924072266e+01 3.320658288430422544e-05 -9.965020581148564816e-06 6.972468327148817480e-06 -3.762244887184351683e-06
5.444000000000000000e+03 3.339350891113281250e+01 -3.233109712600708008e+00 -1.480594710301375017e-05 4.703172180597903207e-06 -3.030832431250018999e-06 -2.566657258284976706e-06
5.445000000000000000e+03 3.540689086914062500e+01 -7.529922127723693848e-01 -2.334651799174025655e-05 -1.093713126465445384e-05 -1.028509450407000259e-05 -7.787636604916770011e-06
5.446000000000000000e+03 2.768114089965820312e+01 3.862221717834472656e+00 -9.461862646276131272e-06 -2.162037162634078413e-05 -9.324670827481895685e-06 4.936783625453244895e-06
5.447000000000000000e+03 3.223916625976562500e+01 9.120543479919433594e+00 -6.419105829991167411e-06 1.277975297853117809e-05 1.908194235511473380e-06 6.874575774418190122e-06
5.448000000000000000e+03 1.173132514953613281e+01 1.409155178070068359e+01 -4.240642374497838318e-05 1.199964845000067726e-05 -9.122033588937483728e-06 -9.959238013834692538e-06
5.449000000000000000e+03 2.993910408020019531e+01 1.471926784515380859e+01 -2.053771822829730809e-05 5.067762322141788900e-05 9.041970770340412855e-06 -2.965936255350243300e-05
5.450000000000000000e+03 2.202148437500000000e+01 7.476407051086425781e+00 -4.586754130286863074e-06 -3.724795533344149590e-05 -1.255041297554271296e-05 3.904064669768558815e-06
5.451000000000000000e+03 1.842600822448730469e+01 1.105895996093750000e+01 -2.157093877031002194e-05 -2.574861173343379050e-05 -1.419586442352738231e-05 1.290350519411731511e-05
5.452000000000000000e+03 3.200117492675781250e+01 7.732839107513427734e+00 2.775603388727176934e-05 7.473255209333728999e-06 1.056878681993111968e-05 -1.601677649887278676e-05
5.453000000000000000e+03 3.255014419555664062e+01 5.955863475799560547e+00 -1.991188401007093489e-05 -2.198048423451837152e-05 -1.256771065527573228e-05 1.407253876095637679e-05
5.454000000000000000e+03 1.215367126464843750e+01 1.692960357666015625e+01 -3.748717790585942566e-05 -7.870238732721190900e-06 -1.360722490062471479e-05 -1.252906940862885676e-06
5.455000000000000000e+03 1.354553318023681641e+01 1.629061317443847656e+01 -4.960063597536645830e-05 5.799417976959375665e-06 -1.314036489930003881e-05 -1.786371649359352887e-05
5.456000000000000000e+03 1.342941761016845703e+01 2.697423171997070312e+01 -2.781368311843834817e-05 -7.088299753377214074e-06 -1.047059504344360903e-05 -1.042045187205076218e-05
5.457000000000000000e+03 3.048130798339843750e+01 2.059551620483398438e+01 -1.756834972184151411e-04 8.373835044039878994e-06 -5.019289892516098917e-05 5.738798063248395920e-05
5.458000000000000000e+03 2.985762405395507812e+01 2.441643905639648438e+01 1.018751572701148689e-05 -5.762275031884200871e-05 -1.423057074134703726e-05 7.084726348693948239e-06
5.459000000000000000e+03 1.477253627777099609e+01 2.917741394042968750e+01 -3.587782339309342206e-05 -1.543961661809589714e-05 -1.539523327664937824e-05 -8.688295565661974251e-06
5.460000000000000000e+03 1.436855411529541016e+01 3.136266517639160156e+01 1.240386154677253217e-05 -5.849777517141774297e-05 -1.382817390549462289e-05 6.303646659944206476e-05
5.461000000000000000e+03 1.236492633819580078e+01 3.662638854980468750e+01 -1.975007762666791677e-05 -3.750493488041684031e-05 -1.717650411592330784e-05 6.550550460815429688e-05
5.462000000000000000e+03 2.895467567443847656e+01 2.085433959960937500e+01 1.621775300009176135e-05 -7.134034240152686834e-05 -1.653677827562205493e-05 -4.492017978918738663e-06
5.463000000000000000e+03 3.869501113891601562e+01 -2.988340616226196289e+00 3.162241409881971776e-05 6.588782525795977563e-06 1.146335853263735771e-05 1.611550146662921179e-06
5.464000000000000000e+03 3.883807373046875000e+01 -5.562388896942138672e+00 1.116361818276345730e-05 1.572876681166235358e-05 8.067715498327743262e-06 1.241332370227610227e-06
5.465000000000000000e+03 3.834747314453125000e+01 -8.885473251342773438e+00 1.631563122828083578e-06 5.965806849417276680e-06 2.279211003042291850e-06 5.511369181476766244e-06
5.466000000000000000e+03 1.238841533660888672e+01 1.305934524536132812e+01 -1.795029129425529391e-05 9.878590390144381672e-06 -2.421510089334333315e-06 -1.863777833932545036e-05
5.467000000000000000e+03 1.267048645019531250e+01 1.209178924560546875e+01 -7.874412403907626867e-06 -1.016478745441418141e-05 -5.411759957496542484e-06 6.937932994333095849e-06
5.468000000000000000e+03 2.232096862792968750e+01 8.879827499389648438e+00 -2.106115744027192704e-07 -2.875740392482839525e-05 -8.690404683875385672e-06 -1.490936847403645515e-05
5.469000000000000000e+03 1.983816528320312500e+01 1.116985130310058594e+01 -2.027435584750492126e-06 -4.651656854548491538e-05 -1.456320114812115207e-05 1.057757435773964971e-05
5.470000000000000000e+03 3.810942077636718750e+01 -6.350182533264160156e+00 -2.830216317306621931e-06 -2.446760390739655122e-06 -1.583092966939148027e-06 5.735945705964695662e-06
5.471000000000000000e+03 3.702415084838867188e+01 -1.394353747367858887e+00 3.701059904415160418e-05 9.622123798180837184e-06 1.398981748934602365e-05 5.478450020746095106e-06
5.472000000000000000e+03 3.538312530517578125e+01 -1.519569158554077148e+00 2.868586852855514735e-05 1.432612225471530110e-05 1.290359705308219418e-05 1.243390670424560085e-05
5.473000000000000000e+03 3.657891464233398438e+01 -8.610419273376464844e+00 8.322509529534727335e-06 5.256559688859852031e-06 4.073720901942579076e-06 -2.152752216488806880e-07
5.474000000000000000e+03 3.708410263061523438e+01 -9.193434715270996094e+00 9.887678061204496771e-06 6.990246674831723794e-06 5.063377557235071436e-06 3.964402822020929307e-06
5.475000000000000000e+03 3.523828125000000000e+01 -7.823312282562255859e-02 3.099202513112686574e-05 -5.398349458118900657e-06 7.678102520003449172e-06 2.778330963337793946e-05
5.476000000000000000e+03 3.295367813110351562e+01 -1.053064584732055664e+00 -1.897756374091841280e-05 -1.230534053320297971e-05 -9.384871191286947578e-06 3.329406581542571075e-06
5.477000000000000000e+03 3.781573104858398438e+01 -2.821091651916503906e+00 -2.909894465119577944e-05 -4.779191840498242527e-06 -1.016344140225555748e-05 5.047390914114657789e-06
5.478000000000000000e+03 3.993171691894531250e+01 -8.774945259094238281e+00 -1.222266564582241699e-05 -6.425158971978817135e-06 -5.594347385340370238e-06 6.131597274361411110e-07
5.479000000000000000e+03 3.944189834594726562e+01 -6.307555198669433594e+00 1.564303420309443027e-05 1.293588957196334377e-05 8.573677405365742743e-06 -2.222417151642730460e-06
5.480000000000000000e+03 3.679301452636718750e+01 -8.246367454528808594e+00 1.178147499558690470e-06 2.302678240084787831e-06 1.044247710524359718e-06 1.198370227939449251e-05
5.481000000000000000e+03 3.702205657958984375e+01 -8.654622077941894531e+00 -5.740443612012313679e-06 -5.584861810348229483e-06 -3.397591626708162948e-06 -3.757408876481349580e-06
5.482000000000000000e+03 3.487324905395507812e+01 -4.153668403625488281e+00 1.609258470125496387e-05 7.917662514955736697e-06 7.203073892014799640e-06 1.110884113586507738e-05
5.483000000000000000e+03 3.936690139770507812e+01 -4.799262046813964844e+00 2.048645728791598231e-05 1.326931305811740458e-05 1.012673146760789678e-05 9.302707439928781241e-07
5.484000000000000000e+03 3.532761383056640625e+01 -7.258640766143798828e+00 2.053721073025371879e-05 2.471633251843741164e-06 6.902653240103973076e-06 -2.378887529630446807e-06
5.485000000000000000e+03 3.785838317871093750e+01 -5.497650623321533203e+00 4.500119757722131908e-06 2.538223270676098764e-05 8.964705557445995510e-06 -1.325502694271563087e-07
5.486000000000000000e+03 3.872642517089843750e+01 -4.999862670898437500e+00 -1.329954829998314381e-05 -6.114898042142158374e-06 -5.824334039061795920e-06 1.102819169318536296e-05
5.487000000000000000e+03 3.138355636596679688e+01 8.666497230529785156e+00 1.570776839798782021e-05 -4.226983946864493191e-05 -7.968620593601372093e-06 1.563116529723629355e-05
5.488000000000000000e+03 1.454527950286865234e+01 1.241096210479736328e+01 -8.907544724934268743e-06 7.580367764603579417e-06 -3.981530198871041648e-07 -2.576324004621710628e-05
5.489000000000000000e+03 3.389619064331054688e+01 3.314965009689331055e+00 -3.618746632128022611e-05 -1.070317466655978933e-05 -1.406719184160465375e-05 -7.244791504490422085e-07
5.490000000000000000e+03 3.106346321105957031e+01 1.260679006576538086e+00 -1.550923661852721125e-05 -2.609299917821772397e-05 -1.248067019332665950e-05 -3.246149731239711400e-07
5.491000000000000000e+03 3.328102874755859375e+01 -2.616337776184082031e+00 3.204211679985746741e-05 2.705812221392989159e-06 1.042437907017301768e-05 1.250224431714741513e-05
5.492000000000000000e+03 3.507606887817382812e+01 -4.997036457061767578e+00 -1.228118162543978542e-05 -8.794540008238982409e-06 -6.322716672002570704e-06 -6.552138529514195397e-06
5.493000000000000000e+03 1.702481842041015625e+01 1.054786205291748047e+01 -3.437195118749514222e-05 -7.122922397684305906e-06 -1.244846225745277479e-05 1.130018790718168020e-05
5.494000000000000000e+03 1.539565277099609375e+01 1.158596992492675781e+01 4.318580977269448340e-05 -1.871927270258311182e-05 7.339961030083941296e-06 -3.701248351717367768e-05
5.495000000000000000e+03 3.215158843994140625e+01 1.712425112724304199e+00 -2.689488064788747579e-05 -1.870862251962535083e-05 -1.368105131405172870e-05 -6.406760348909301683e-07
5.496000000000000000e+03 2.841378402709960938e+01 3.077751159667968750e+00 2.716809649427887052e-05 1.334881972070434131e-06 8.550893653591629118e-06 6.270517133089015260e-06
5.497000000000000000e+03 3.049570083618164062e+01 2.368489742279052734e+00 -1.207523291668621823e-05 -2.528057848394382745e-05 -1.120674369303742424e-05 4.272489604772999883e-06
5.498000000000000000e+03 3.301420593261718750e+01 3.282794713973999023e+00 4.789901868207380176e-05 -2.439452373437234201e-06 1.363787032460095361e-05 2.092709837597794831e-05
5.499000000000000000e+03 3.305106353759765625e+01 1.587757706642150879e+00 4.574811464408412576e-05 3.935687800549203530e-06 1.490514114266261458e-05 1.957968379429075867e-05
5.500000000000000000e+03 1.282901191711425781e+01 1.954079627990722656e+01 -3.591019412851892412e-05 4.549686138943798142e-07 -1.063656782207544893e-05 -1.838113530538976192e-05
5.501000000000000000e+03 3.884582519531250000e+01 -9.462585449218750000e+00 9.851592039922252297e-06 -4.469982741284184158e-06 1.614482698641950265e-06 -8.085314675554400310e-07
5.502000000000000000e+03 1.364379119873046875e+01 1.471933555603027344e+01 -3.064366683247499168e-05 -2.221579961769748479e-06 -9.859573765425011516e-06 6.443012352974619716e-06
5.503000000000000000e+03 3.034053993225097656e+01 1.323086929321289062e+01 5.052709093433804810e-05 1.529675137135200202e-05 1.974715269170701504e-05 -2.160214171453844756e-05
5.504000000000000000e+03 2.956362152099609375e+01 6.145776748657226562e+00 3.681514499476179481e-05 -1.014061308524105698e-05 8.002360118553042412e-06 1.669259518166654743e-06
5.505000000000000000e+03 1.815952682495117188e+01 1.381920146942138672e+01 -1.119333410315448418e-05 -4.468955376069061458e-05 -1.676486681390088052e-05 3.906987330992706120e-05
5.506000000000000000e+03 1.276873683929443359e+01 1.836515045166015625e+01 1.123836409533396363e-05 -8.725226507522165775e-06 7.539414923485310283e-07 1.314526889473199844e-05
5.507000000000000000e+03 3.294425201416015625e+01 -2.172892987728118896e-01 2.920121733041014522e-05 1.060272279573837295e-05 1.194118249259190634e-05 1.388443888572510332e-05
5.508000000000000000e+03 2.798841857910156250e+01 1.598409366607666016e+01 2.652231160027440637e-05 2.434915359117439948e-06 8.687167792231775820e-06 -1.754149343469180167e-05
5.509000000000000000e+03 2.901662826538085938e+01 1.804879570007324219e+01 1.969123695744201541e-05 -1.166301353805465624e-05 2.408467025816207752e-06 3.526462705849553458e-06
5.510000000000000000e+03 3.219892120361328125e+01 3.246448755264282227e+00 -2.944920743175316602e-05 -7.212169293779879808e-06 -1.099841301765991375e-05 1.540438347547024023e-06
5.511000000000000000e+03 2.965052032470703125e+01 1.240890407562255859e+01 -6.198909250088036060e-05 -4.744400212075561285e-05 -3.282992838649079204e-05 3.991182529716752470e-05
5.512000000000000000e+03 2.767376327514648438e+01 5.140705108642578125e+00 -7.025173999863909557e-06 -2.243950984848197550e-05 -8.839405381877440959e-06 7.504612767661456019e-06
5.513000000000000000e+03 3.063478851318359375e+01 1.080932903289794922e+01 2.320885687367990613e-05 -5.837760909344069660e-05 -1.055062512023141608e-05 4.150849974848824786e-07
5.514000000000000000e+03 2.757077407836914062e+01 7.845477581024169922e+00 1.966785202967002988e-05 -3.171532443957403302e-05 -3.614240995375439525e-06 7.496374564652796835e-06
5.515000000000000000e+03 2.714561271667480469e+01 5.982642650604248047e+00 1.378236083837691694e-05 -1.205974876938853413e-05 5.167835865904635284e-07 5.048078492109198123e-06
5.516000000000000000e+03 2.633212852478027344e+01 5.583493709564208984e+00 -5.591145963990129530e-06 -2.821868838509544730e-05 -1.014295048662461340e-05 -3.857606714063877007e-07
5.517000000000000000e+03 2.693716621398925781e+01 6.841140747070312500e+00 9.655127541918773204e-06 8.887183184924651869e-07 3.163153905916260555e-06 5.602316832664655522e-06
5.518000000000000000e+03 2.617379760742187500e+01 7.140619277954101562e+00 -4.635758614313090220e-06 -4.737426206702366471e-05 -1.560300552228000015e-05 7.933243068691808730e-06
5.519000000000000000e+03 2.306712722778320312e+01 9.321721076965332031e+00 -1.302433247474255040e-06 6.653271611867239699e-06 1.605251441105792765e-06 3.240025762352161109e-06
5.520000000000000000e+03 1.237501907348632812e+01 1.398185443878173828e+01 2.021580075961537659e-05 -1.227663688041502610e-05 2.381749254709575325e-06 1.515277062935638241e-06
5.521000000000000000e+03 1.260837364196777344e+01 1.468525314331054688e+01 -5.157232226338237524e-05 1.138949937740107998e-05 -1.205484659294597805e-05 -7.798110345902387053e-06
5.522000000000000000e+03 1.907645606994628906e+01 1.182507610321044922e+01 1.185892688226886094e-05 9.463988135394174606e-06 6.396874596248380840e-06 -3.005767939612269402e-05
5.523000000000000000e+03 3.024176979064941406e+01 4.336542129516601562e+00 -2.385066363785881549e-05 -3.643265472419443540e-06 -8.248179256042931229e-06 1.116521434596506879e-05
5.524000000000000000e+03 2.887567901611328125e+01 4.979444503784179688e+00 1.134955368797818664e-06 -3.100242247455753386e-05 -8.960239938460290432e-06 5.058291208115406334e-06
5.525000000000000000e+03 1.282596111297607422e+01 1.736556816101074219e+01 -2.731080530793406069e-05 8.249863640230614692e-06 -5.718282864108914509e-06 -2.923503234342206270e-05
5.526000000000000000e+03 2.070869255065917969e+01 1.166429424285888672e+01 -2.314633820788003504e-05 1.941148912010248750e-05 -1.120454498959588818e-06 -1.534682269266340882e-05
5.527000000000000000e+03 1.385960292816162109e+01 2.367009925842285156e+01 -4.226920646033249795e-05 -2.684334958757972345e-07 -1.276129205507459119e-05 -1.230409725394565612e-05
5.528000000000000000e+03 1.661419296264648438e+01 2.372329521179199219e+01 -7.740497676422819495e-05 3.433981191847124137e-06 -2.219129964942112565e-05 6.911822310939896852e-06
5.529000000000000000e+03 2.910037422180175781e+01 1.925637435913085938e+01 -1.430196280125528574e-04 3.959502646466717124e-05 -3.102737900917418301e-05 -5.079258698970079422e-06
5.530000000000000000e+03 2.809646224975585938e+01 1.876522064208984375e+01 -9.386045712744817138e-05 -7.516699406551197171e-05 -5.070823681307956576e-05 3.315486537758260965e-05
5.531000000000000000e+03 2.944024276733398438e+01 1.151237297058105469e+01 6.161820783745497465e-05 -6.430508074117824435e-05 -8.060619620664510876e-07 -9.359336218039970845e-06
5.532000000000000000e+03 1.017667865753173828e+01 3.428648757934570312e+01 5.933919601375237107e-05 -3.205979737685993314e-05 8.183819772966671735e-06 1.489931582909775898e-05
5.533000000000000000e+03 3.933528900146484375e+01 -8.960975646972656250e+00 -2.661854296093224548e-06 9.296297321270685643e-06 1.990332975765340962e-06 1.992096713365754113e-06
5.534000000000000000e+03 3.970452880859375000e+01 -7.430347919464111328e+00 -8.179391443263739347e-06 -1.134932645641129056e-07 -2.487865231159958057e-06 -1.439597895114275161e-06
5.535000000000000000e+03 3.772604751586914062e+01 -9.156114578247070312e+00 -8.216788955905940384e-06 -5.507641162694199011e-06 -4.117328899155836552e-06 -3.882695182255702093e-06
5.536000000000000000e+03 3.609840011596679688e+01 -8.397857666015625000e+00 -4.300334694562479854e-06 -3.890154403052292764e-06 -2.457146592860226519e-06 5.651341325574321672e-06
5.537000000000000000e+03 3.880086898803710938e+01 -6.131955146789550781e+00 -7.303551228687865660e-06 -1.280701235373271629e-05 -6.033169029251439497e-06 2.782753654173575342e-06
5.538000000000000000e+03 3.629602050781250000e+01 -2.155161857604980469e+00 2.880779720726422966e-05 1.250673722097417340e-05 1.239436005562311038e-05 1.286412589251995087e-05
5.539000000000000000e+03 3.390077209472656250e+01 -3.099162876605987549e-01 -2.528602999518625438e-05 -1.450340641895309091e-05 -1.193683056044392288e-05 8.882254405762068927e-06
5.540000000000000000e+03 3.453280639648437500e+01 -1.425505518913269043e+00 -1.763593900250270963e-05 -1.845488986873533577e-05 -1.082724884327035397e-05 1.165795492852339521e-05
5.541000000000000000e+03 3.930854034423828125e+01 -7.902441024780273438e+00 3.841434590867720544e-06 -9.961961950466502458e-06 -1.836158162404899485e-06 -7.691861014791356865e-08
5.542000000000000000e+03 3.861625671386718750e+01 -6.631371021270751953e+00 1.107269235944841057e-05 5.966661319689592347e-06 5.111805876367725432e-06 2.936123451036110055e-07
5.543000000000000000e+03 3.532990264892578125e+01 -6.554450511932373047e+00 -1.508612513134721667e-05 -6.007378033245913684e-06 -6.328050858428468928e-06 1.784407999139148160e-07
5.544000000000000000e+03 3.657839202880859375e+01 -4.751621723175048828e+00 -2.105837302224244922e-05 -4.222912593832006678e-06 -7.584385457448661327e-06 5.549012257688445970e-06
5.545000000000000000e+03 3.437361145019531250e+01 -5.219161510467529297e+00 1.608010643394663930e-05 7.654287401237525046e-06 7.120318514353130013e-06 1.160759620688622817e-05
5.546000000000000000e+03 3.270668792724609375e+01 5.028258800506591797e+00 4.369340240373276174e-05 -7.545436346845235676e-06 1.084439008991466835e-05 1.218340003106277436e-05
5.547000000000000000e+03 3.741987991333007812e+01 -6.576116085052490234e+00 -1.706380498944781721e-05 -6.825474429206224158e-06 -7.166784143919358030e-06 -3.804770130955148488e-06
5.548000000000000000e+03 3.847988891601562500e+01 -4.516587734222412109e+00 1.577337570779491216e-05 -3.671243803182733245e-06 3.630639412222080864e-06 4.321019275721482700e-07
5.549000000000000000e+03 3.834210205078125000e+01 -3.689300537109375000e+00 -2.291822420374955982e-05 3.841577381535898894e-06 -5.722994046664098278e-06 1.498883830208797008e-05
5.550000000000000000e+03 3.706937026977539062e+01 -2.732948064804077148e+00 3.037132228200789541e-05 9.293543371313717216e-06 1.189945942314807326e-05 1.075902105185377877e-06
5.551000000000000000e+03 1.276866722106933594e+01 1.655145645141601562e+01 1.917137342388741672e-05 -5.227938345342408866e-06 4.183030341664562002e-06 1.306957619817694649e-05
5.552000000000000000e+03 3.306958770751953125e+01 2.441549777984619141e+00 -3.398760600248351693e-05 -1.115138275054050609e-05 -1.354169671685667709e-05 -1.916054088724195026e-06
5.553000000000000000e+03 3.395629501342773438e+01 2.444448709487915039e+00 4.822151822736486793e-05 2.818632083290140145e-06 1.531204543425701559e-05 2.435671922285109758e-05
5.554000000000000000e+03 1.388288593292236328e+01 1.191075801849365234e+01 -1.391567639075219631e-05 -1.023679396894294769e-05 -7.245741016959073022e-06 8.312876161653548479e-06
5.555000000000000000e+03 3.503909301757812500e+01 -7.840069293975830078e+00 -2.076738383038900793e-06 1.108121068682521582e-06 -2.905852056755975354e-07 1.434783916920423508e-05
5.556000000000000000e+03 3.349118423461914062e+01 -1.949639320373535156e+00 -2.595027581264730543e-05 -5.838594915985595435e-06 -9.536661309539340436e-06 -9.057100101017567795e-07
5.557000000000000000e+03 3.890140151977539062e+01 -8.423390388488769531e+00 2.039640321527258493e-06 -8.093374503914674278e-07 3.690908840781048639e-07 1.059383748724940233e-06
5.558000000000000000e+03 3.092473220825195312e+01 2.910646915435791016e+00 1.906392571981996298e-05 4.699369583249790594e-06 7.128988727345131338e-06 7.918868504930287600e-06
5.559000000000000000e+03 3.399588394165039062e+01 6.290438771247863770e-01 4.166936923866160214e-05 7.604983238707063720e-06 1.478230569773586467e-05 1.336286732112057507e-05
5.560000000000000000e+03 3.416601181030273438e+01 -4.493070125579833984e+00 -9.560806574882008135e-06 -3.224943156965309754e-06 -3.835724783129990101e-06 -1.846542659222905058e-06
5.561000000000000000e+03 3.427438354492187500e+01 -2.229891300201416016e+00 2.481459523551166058e-05 6.654960543528432027e-06 9.440866961085703224e-06 3.685585852508665994e-06
5.562000000000000000e+03 2.845698165893554688e+01 8.039434432983398438e+00 -1.913833330036140978e-05 -1.501502651990449522e-06 -6.191950888023711741e-06 7.990614903974346817e-06
5.563000000000000000e+03 3.371422195434570312e+01 -1.188574552536010742e+00 3.504134292597882450e-05 5.133573267812607810e-06 1.205247463076375425e-05 5.024708116252440959e-06
5.564000000000000000e+03 3.129369544982910156e+01 1.957136511802673340e+00 3.798488251050002873e-05 6.475536793004721403e-06 1.333812633674824610e-05 1.740418520057573915e-05
5.565000000000000000e+03 1.682855987548828125e+01 1.215396881103515625e+01 -2.068483627226669341e-05 -2.526837306504603475e-05 -1.378596334689063951e-05 2.308038710907567292e-05
5.566000000000000000e+03 1.823392105102539062e+01 1.240539360046386719e+01 -2.769395177892874926e-05 -3.043425567739177495e-05 -1.743846223689615726e-05 2.594627767393831164e-05
5.567000000000000000e+03 1.429791927337646484e+01 1.312166309356689453e+01 -7.431925951095763594e-06 -1.632102976145688444e-05 -7.125886440917383879e-06 1.109999720938503742e-05
5.568000000000000000e+03 2.638322257995605469e+01 1.528413200378417969e+01 2.719634176173713058e-05 -3.105316500295884907e-05 -1.157046881417045370e-06 -5.047698323323857039e-06
5.569000000000000000e+03 2.386934852600097656e+01 9.694627761840820312e+00 9.556777513353154063e-06 -4.107310451217927039e-05 -9.454898645344655961e-06 3.827507043752120808e-06
5.570000000000000000e+03 2.186660385131835938e+01 9.582079887390136719e+00 1.491703005740419030e-05 7.489343715860741213e-06 6.721912086504744366e-06 -1.406800129188923165e-05
5.571000000000000000e+03 3.638533401489257812e+01 -7.897946357727050781e+00 8.536302630091086030e-06 -2.575684447947423905e-06 1.788185500117833726e-06 -6.878755812067538500e-06
5.572000000000000000e+03 2.794948768615722656e+01 6.228001117706298828e+00 2.912697027568356134e-06 -1.319039620284456760e-05 -3.083309820794966072e-06 -4.025197540613589808e-06
5.573000000000000000e+03 2.677154541015625000e+01 7.601624488830566406e+00 -3.555974217306356877e-06 1.231745386576221790e-06 -6.972686037443054374e-07 -8.813938620733097196e-06
5.574000000000000000e+03 3.006535911560058594e+01 9.455320358276367188e+00 3.706558709382079542e-05 -4.968731809640303254e-05 -3.786518618653644808e-06 9.759290151123423129e-06
5.575000000000000000e+03 2.637418746948242188e+01 8.412047386169433594e+00 1.731990596454124898e-05 -4.678162076743319631e-05 -8.838514077069703490e-06 1.009264451568014920e-05
5.576000000000000000e+03 2.902553939819335938e+01 3.722473144531250000e+00 -1.149016679846681654e-05 -2.560205939516890794e-05 -1.112766767619177699e-05 1.071042242983821779e-05
5.577000000000000000e+03 3.297107315063476562e+01 6.985258460044860840e-01 -2.369021422055084258e-05 -1.971507663256488740e-05 -1.302158761973259971e-05 -1.340839276053884532e-06
5.578000000000000000e+03 1.486768627166748047e+01 1.189650440216064453e+01 -3.843675222015008330e-05 8.359213552466826513e-07 -1.128024905483471230e-05 2.260830842715222389e-05
5.579000000000000000e+03 2.206612586975097656e+01 1.109911632537841797e+01 -1.323012475040741265e-05 9.352850611321628094e-06 -1.163182446362043265e-06 -1.026489098876481876e-05
5.580000000000000000e+03 1.298548698425292969e+01 1.419309806823730469e+01 4.042374712298624218e-06 2.978577640533330850e-06 2.106285592162748799e-06 -1.738104219839442521e-05
5.581000000000000000e+03 2.861721038818359375e+01 1.448356437683105469e+01 4.721772256743861362e-06 2.870682692446280271e-05 1.002857970888726413e-05 -3.043305150640662760e-05
5.582000000000000000e+03 2.819125938415527344e+01 1.369736576080322266e+01 -3.605900928960181773e-05 -6.975626456551253796e-05 -3.174458106514066458e-05 2.887600021495018154e-05
5.583000000000000000e+03 3.125037384033203125e+01 3.851070404052734375e+00 -1.153302764578256756e-05 9.190113132717669941e-07 -3.184204842909821309e-06 1.121465538744814694e-05
5.584000000000000000e+03 3.041214752197265625e+01 8.334916114807128906e+00 -3.001724689966067672e-05 5.689750651072245091e-06 -7.298248874576529488e-06 8.210073247028049082e-06
5.585000000000000000e+03 2.972804832458496094e+01 1.049947166442871094e+01 -4.237274333718232810e-05 1.946078373293858021e-05 -6.873587153677362949e-06 3.579107215045951307e-06
5.586000000000000000e+03 2.887301063537597656e+01 1.300937271118164062e+01 1.407802665198687464e-05 2.109729757648892701e-05 1.055259690474485978e-05 -3.496029967209324241e-05
5.587000000000000000e+03 2.747572326660156250e+01 2.087810134887695312e+01 -1.294670946663245559e-04 4.053294469485990703e-05 -2.668024717422667891e-05 4.576399533107178286e-06
5.588000000000000000e+03 1.511197471618652344e+01 2.539978408813476562e+01 -5.636710920953191817e-05 3.418785468056739774e-07 -1.680756940913852304e-05 -8.168509339157026261e-06
5.589000000000000000e+03 1.518251132965087891e+01 2.375339889526367188e+01 2.401606434432324022e-05 -3.651560109574347734e-05 -3.749860752577660605e-06 3.040076990146189928e-05
5.590000000000000000e+03 1.393508815765380859e+01 2.219897651672363281e+01 1.490612612542463467e-05 -2.176461384806316346e-05 -2.057546453215763904e-06 2.478056921972893178e-05
5.591000000000000000e+03 2.632384490966796875e+01 2.039985084533691406e+01 -7.378554437309503555e-05 -7.834529242245480418e-05 -4.563925176626071334e-05 2.016607504629064351e-05
5.592000000000000000e+03 3.589637374877929688e+01 -7.511256694793701172e+00 -3.577644065444474109e-06 -2.140701099051511846e-06 -1.715503572086163331e-06 1.194357537315227091e-05
5.593000000000000000e+03 3.642307662963867188e+01 -2.860191583633422852e+00 -9.402944670000579208e-06 -1.623461866984143853e-05 -7.691269274801015854e-06 -6.794318778702290729e-06
5.594000000000000000e+03 3.760593795776367188e+01 -3.480313539505004883e+00 3.710459350259043276e-05 -5.295145911077270284e-06 9.542834050080273300e-06 1.224312768499657977e-06
5.595000000000000000e+03 3.496382522583007812e+01 -2.754591703414916992e+00 -9.360192052554339170e-07 -1.115182112698676065e-05 -3.626352281571598724e-06 4.330025149101857096e-06
5.596000000000000000e+03 1.747211647033691406e+01 1.305170440673828125e+01 1.198830250359605998e-05 1.291712396778166294e-05 7.471627668564906344e-06 -4.447299579624086618e-05
5.597000000000000000e+03 1.321417427062988281e+01 1.342820358276367188e+01 -5.625052381219575182e-06 -1.089195120584918186e-05 -4.955101303494302556e-06 1.048569743034022395e-06
5.598000000000000000e+03 3.828129577636718750e+01 -5.995606422424316406e+00 1.724432081573468167e-06 2.213258812844287604e-05 7.157106210797792301e-06 8.846278660712414421e-07
5.599000000000000000e+03 3.830810928344726562e+01 -5.573313713073730469e+00 1.283308165511698462e-06 -2.106610372720751911e-05 -5.934839009569259360e-06 1.768145693858969025e-06
5.600000000000000000e+03 3.947283554077148438e+01 -9.891265869140625000e+00 -1.256779796676710248e-05 6.673169991699978709e-06 -1.768388301570666954e-06 5.879058448954310734e-07
5.601000000000000000e+03 3.520453262329101562e+01 -5.792207241058349609e+00 2.135685463144909590e-05 5.137312200531596318e-06 7.948249731271062046e-06 1.044386135617969558e-05
5.602000000000000000e+03 3.797043228149414062e+01 -4.727849483489990234e+00 -2.038868115050718188e-05 -2.249499630124773830e-06 -6.791454325139056891e-06 1.244494706043042243e-05
5.603000000000000000e+03 3.471226119995117188e+01 -5.834482908248901367e-01 2.689309076231438667e-05 1.609059472684748471e-05 1.289510510105174035e-05 7.419433813993236981e-07
5.604000000000000000e+03 2.344117736816406250e+01 1.061154365539550781e+01 -1.021522075461689383e-05 9.209149538946803659e-06 -3.018213590166851645e-07 -9.313635018770582974e-06
5.605000000000000000e+03 3.175944328308105469e+01 4.931878566741943359e+00 -2.078338911815080792e-05 -5.044788849772885442e-06 -7.748453754174988717e-06 8.518709364579990506e-06
5.606000000000000000e+03 2.778349304199218750e+01 7.004735469818115234e+00 9.729601515573449433e-07 -1.914817221404518932e-05 -5.452563527796883136e-06 1.222354603669373319e-05
5.607000000000000000e+03 3.398225402832031250e+01 1.555207371711730957e+00 -3.426853800192475319e-05 -9.767967640073038638e-06 -1.321095169259933755e-05 -3.004322707056417130e-06
5.608000000000000000e+03 3.155619621276855469e+01 6.981527328491210938e+00 -2.665122883627191186e-05 -3.277900759712792933e-05 -1.782907020242419094e-05 3.432342055020853877e-05
5.609000000000000000e+03 3.881137466430664062e+01 -7.461548328399658203e+00 1.202813990630602348e-07 6.854203093098476529e-06 2.092345312121324241e-06 -1.730726580717600882e-06
5.610000000000000000e+03 1.311955928802490234e+01 1.537948989868164062e+01 3.910757368430495262e-05 -1.402850193699123338e-05 7.523720796598354355e-06 -4.036368864035466686e-06
5.611000000000000000e+03 1.397070407867431641e+01 1.389088821411132812e+01 3.908140115527203307e-06 2.503439873180468567e-06 1.923473973874934018e-06 -2.454883724567480385e-05
5.612000000000000000e+03 2.946105003356933594e+01 1.386247062683105469e+01 -4.177249138592742383e-05 -8.412257011514157057e-05 -3.776851735892705619e-05 2.430888162052724510e-05
5.613000000000000000e+03 2.524474906921386719e+01 1.134656810760498047e+01 -1.565504317113664001e-05 6.475004283856833354e-06 -2.754011575234471820e-06 -1.420671378582483158e-05
5.614000000000000000e+03 3.149676132202148438e+01 2.582597732543945312e+00 -2.626092464197427034e-05 -1.601880467205774039e-05 -1.268391861231066287e-05 -3.847328855499654310e-07
5.615000000000000000e+03 2.553695487976074219e+01 7.976357936859130859e+00 6.022766683599911630e-06 1.122755838878219947e-05 5.175097612664103508e-06 -5.174923444428713992e-06
5.616000000000000000e+03 3.057451057434082031e+01 7.162076950073242188e+00 4.665712549467571080e-05 -1.569981395732611418e-05 9.287193279305938631e-06 -8.538814313396869693e-07
5.617000000000000000e+03 1.477256298065185547e+01 1.833502578735351562e+01 3.191778159816749394e-05 -2.166420745197683573e-05 3.076072289331932552e-06 1.067267112375702709e-05
5.618000000000000000e+03 2.256505393981933594e+01 1.016434097290039062e+01 -4.490512310439953580e-06 -3.822488361038267612e-05 -1.281461845792364329e-05 6.683087576675461605e-06
5.619000000000000000e+03 2.420563316345214844e+01 8.776510238647460938e+00 -1.904825694509781897e-05 -6.328792210297251586e-07 -5.904340923734707758e-06 5.369678092392859980e-06
5.620000000000000000e+03 2.761406517028808594e+01 1.497497272491455078e+01 -6.525845674332231283e-05 -4.425224324222654104e-05 -3.285321145085617900e-05 2.303993824170902371e-05
5.621000000000000000e+03 1.515950870513916016e+01 1.502281475067138672e+01 3.565896622603759170e-05 -1.324393906543264166e-05 6.724507784383604303e-06 -2.305457019247114658e-05
5.622000000000000000e+03 3.748421859741210938e+01 -8.508790969848632812e+00 9.161843081528786570e-06 4.043137323606060818e-06 3.961494257964659482e-06 1.149883701145881787e-05
5.623000000000000000e+03 2.511001968383789062e+01 1.513581752777099609e+01 -2.909214890678413212e-05 2.711799652388435788e-06 -7.914104571682401001e-06 -1.211768540088087320e-05
5.624000000000000000e+03 2.114385032653808594e+01 1.079456138610839844e+01 1.812867049011401832e-05 -3.937875953852199018e-05 -6.375026714522391558e-06 8.783871408013510518e-07
5.625000000000000000e+03 1.957481384277343750e+01 1.258810424804687500e+01 -3.494970951578579843e-05 -2.719953045016154647e-05 -1.864477235358208418e-05 3.255909905419684947e-05
5.626000000000000000e+03 1.884195899963378906e+01 1.315460491180419922e+01 4.811289272765861824e-06 1.645669726713094860e-05 6.380395916494308040e-06 -4.499944407143630087e-05
5.627000000000000000e+03 3.445182800292968750e+01 -3.397572040557861328e+00 8.733624099477310665e-07 1.542142740618146490e-06 7.246515565384470392e-07 -1.572389010107144713e-06
5.628000000000000000e+03 1.350243377685546875e+01 1.262601661682128906e+01 -6.197376023919787258e-06 1.234800856764195487e-05 1.845189672167180106e-06 -2.349469286855310202e-05
5.629000000000000000e+03 2.835194969177246094e+01 5.597371101379394531e+00 2.708086503844242543e-05 -2.952686202206677990e-07 8.035678547457791865e-06 -1.779121362233127002e-06
5.630000000000000000e+03 2.725755882263183594e+01 8.737364768981933594e+00 -1.668510958552360535e-05 6.275062787608476356e-06 -3.123014039374538697e-06 -3.413503918636706658e-06
5.631000000000000000e+03 2.879780197143554688e+01 1.025530719757080078e+01 3.792907591559924185e-05 -5.672262341249734163e-05 -5.638064521917840466e-06 1.300531857850728557e-05
5.632000000000000000e+03 2.124374580383300781e+01 1.292462539672851562e+01 -1.869855623226612806e-05 1.731591510178986937e-05 -4.147921117692021653e-07 -1.609674291103146970e-05
5.633000000000000000e+03 2.165660667419433594e+01 1.205259227752685547e+01 3.982434009230928496e-06 -4.795602580998092890e-05 -1.319207785854814574e-05 7.118256235116859898e-06
5.634000000000000000e+03 1.392631530761718750e+01 2.083548164367675781e+01 -4.767305290442891419e-05 6.101757321630429942e-07 -1.411886296409647912e-05 -1.489568330725887790e-05
5.635000000000000000e+03 1.552465343475341797e+01 1.311280059814453125e+01 -5.867341315024532378e-05 9.949058039637748152e-06 -1.461730607843492180e-05 1.034922206599730998e-05
5.636000000000000000e+03 1.517222023010253906e+01 1.247174835205078125e+01 4.667972825700417161e-05 -2.120382123393937945e-05 7.642772288818378001e-06 -2.832427890098188072e-05
5.637000000000000000e+03 3.047350692749023438e+01 3.546590328216552734e+00 1.911817344080191106e-05 -2.604399560368619859e-05 -2.077746557915816084e-06 1.012200300465337932e-05
5.638000000000000000e+03 2.956422996520996094e+01 7.158776283264160156e+00 -2.152270462829619646e-05 -1.308361606788821518e-05 -1.038189657265320420e-05 1.653438994253519922e-05
5.639000000000000000e+03 2.977573966979980469e+01 3.012442111968994141e+00 1.958047323569189757e-05 8.394970791414380074e-06 8.392633390030823648e-06 5.722604782931739464e-06
5.640000000000000000e+03 1.506120109558105469e+01 2.082016944885253906e+01 2.599834442662540823e-05 -2.440697426209226251e-05 4.774107651428494137e-07 1.777664692781399935e-05
5.641000000000000000e+03 2.940326118469238281e+01 8.188010215759277344e+00 3.806682434515096247e-05 -3.725865099113434553e-05 2.424528986466611968e-07 9.340773772237298544e-07
5.642000000000000000e+03 2.507534027099609375e+01 8.975564956665039062e+00 9.728171789902262390e-06 -3.860827200696803629e-05 -8.664030247018672526e-06 2.947944267361890525e-06
5.643000000000000000e+03 2.299672508239746094e+01 1.155441856384277344e+01 1.698545815997931641e-06 -4.577010258799418807e-05 -1.322146727034123614e-05 4.625455403584055603e-06
5.644000000000000000e+03 1.820296859741210938e+01 2.534848785400390625e+01 -8.991403592517599463e-05 2.293531179020646960e-05 -2.009361742238979787e-05 -3.227201545996649656e-07
5.645000000000000000e+03 2.718558502197265625e+01 1.955434036254882812e+01 1.564692502142861485e-05 3.378280837296188110e-07 4.795426320924889296e-06 -9.560014404996763915e-06
5.646000000000000000e+03 2.547478485107421875e+01 1.740405082702636719e+01 2.886438323912443593e-06 2.076164855679962784e-05 7.094426109688356519e-06 -1.822450394683983177e-05
5.647000000000000000e+03 2.694694137573242188e+01 2.464686775207519531e+01 -1.053036903613246977e-04 -7.837591692805290222e-05 -5.510388291440904140e-05 7.400779577437788248e-05
5.648000000000000000e+03 2.631828498840332031e+01 2.638538742065429688e+01 -1.040842471411451697e-04 3.657762499642558396e-05 -2.025198773480951786e-05 4.504633398028090596e-05
5.649000000000000000e+03 2.677515602111816406e+01 2.240709686279296875e+01 -1.099021901609376073e-04 -7.218379323603585362e-05 -5.462579429149627686e-05 8.627864735899493098e-05
5.650000000000000000e+03 3.635995483398437500e+01 -7.011717796325683594e+00 -6.711698461003834382e-06 -1.042633812176063657e-06 -2.326299636479234323e-06 -1.059789065038785338e-05
5.651000000000000000e+03 3.784609985351562500e+01 -5.978452682495117188e+00 -4.107168933842331171e-06 -1.991971475945319980e-05 -7.208064744190778583e-06 6.931353709660470486e-06
5.652000000000000000e+03 1.506266212463378906e+01 1.364822959899902344e+01 -6.800256414862815291e-06 1.020279341901186854e-05 1.020761146719451062e-06 -2.747009966697078198e-05
5.653000000000000000e+03 3.677535247802734375e+01 -7.514546871185302734e+00 4.246457592671504244e-06 3.329497758386423811e-06 2.272786559842643328e-06 1.743848406476899981e-05
5.654000000000000000e+03 2.912079429626464844e+01 9.221033096313476562e+00 -3.235154508729465306e-05 1.040839561028406024e-05 -6.582944934052648023e-06 3.344336391819524579e-06
5.655000000000000000e+03 3.553554153442382812e+01 -2.291404962539672852e+00 -2.208584555773995817e-05 -3.257765911257592961e-06 -7.603083759022410959e-06 -2.463276814523851499e-06
5.656000000000000000e+03 3.797993087768554688e+01 -7.422525882720947266e+00 -9.167607117888110224e-07 2.462383918100385927e-06 4.636869732621562434e-07 -6.098932772147236392e-06
5.657000000000000000e+03 3.568866348266601562e+01 -3.056044816970825195e+00 3.069966987823136151e-05 7.626698334206594154e-06 1.149791023635771126e-05 1.678322769294027239e-05
5.658000000000000000e+03 3.816583633422851562e+01 -5.169711112976074219e+00 1.933163366629742086e-05 -1.932803797899396159e-06 5.219649210630450398e-06 8.063353220677527133e-07
5.659000000000000000e+03 3.672406768798828125e+01 -6.148424625396728516e+00 -1.652032187848817557e-05 -5.300088560034055263e-06 -6.546123131556669250e-06 -5.671453209288301878e-07
5.660000000000000000e+03 3.156285095214843750e+01 5.936005115509033203e+00 4.069999704370275140e-05 -4.044262823299504817e-06 1.099672044801991433e-05 1.371997086607734673e-06
5.661000000000000000e+03 3.833072662353515625e+01 -7.058229923248291016e+00 -1.644052645133342594e-06 -3.200112587364856154e-06 -1.453249637961562257e-06 7.112379989848705009e-06
5.662000000000000000e+03 3.787898635864257812e+01 -6.697658061981201172e+00 7.661076779186259955e-06 7.851313057471998036e-06 4.653717041946947575e-06 1.419132615865237312e-07
5.663000000000000000e+03 3.572792053222656250e+01 -3.935437679290771484e+00 -2.058678001048974693e-05 -7.845776963222306222e-06 -8.529767001164145768e-06 -2.415731614746619016e-06
5.664000000000000000e+03 3.055366134643554688e+01 6.036873340606689453e+00 -3.060647941310890019e-05 -1.891628016892354935e-05 -1.485682787460973486e-05 2.110462810378521681e-05
5.665000000000000000e+03 2.869353675842285156e+01 6.253542423248291016e+00 -1.537818570795934647e-05 -2.678996315808035433e-05 -1.265044465981191024e-05 2.234098974440712482e-05
5.666000000000000000e+03 1.440253162384033203e+01 1.510480499267578125e+01 -1.498727033322211355e-05 -1.465207901674148161e-06 -4.935743163514416665e-06 -2.800564107019454241e-05
5.667000000000000000e+03 1.669432067871093750e+01 1.795615959167480469e+01 4.547865682980045676e-05 -2.658784796949476004e-05 5.667242930940119550e-06 -8.212874490709509701e-06
5.668000000000000000e+03 2.864190673828125000e+01 7.120889186859130859e+00 3.034280780411791056e-05 -2.102330472553148866e-05 2.795850605252780952e-06 -4.361288574727950618e-06
5.669000000000000000e+03 2.039641571044921875e+01 1.250755596160888672e+01 1.044022610585670918e-05 -3.573402500478550792e-05 -7.588139851577579975e-06 -1.329391920990019571e-06
5.670000000000000000e+03 2.817750167846679688e+01 8.996406555175781250e+00 3.032338099728804082e-05 -4.517656998359598219e-05 -4.455956513993442059e-06 8.455949682684149593e-06
5.671000000000000000e+03 2.785191726684570312e+01 9.984395980834960938e+00 -2.789419340842869133e-05 1.067737321136519313e-05 -5.165045877220109105e-06 -4.635160621546674520e-06
5.672000000000000000e+03 2.255993652343750000e+01 1.251033592224121094e+01 -1.668297409196384251e-05 1.367975255561759695e-05 -9.009664836412412114e-07 -1.138962306868052110e-05
5.673000000000000000e+03 2.579939460754394531e+01 1.271485042572021484e+01 -2.608919385238550603e-05 4.669844656746136025e-06 -6.425805167964426801e-06 -2.250378929602447897e-05
5.674000000000000000e+03 2.956426429748535156e+01 5.243458747863769531e+00 -3.234403629903681576e-05 -4.077996436535613611e-06 -1.092660932044964284e-05 1.021278148982673883e-05
5.675000000000000000e+03 3.038803100585937500e+01 5.123911380767822266e+00 5.601009615929797292e-05 -7.660197297809645534e-06 1.450496893085073680e-05 1.651445018069352955e-06
5.676000000000000000e+03 1.379062747955322266e+01 1.840472602844238281e+01 -4.949782305629923940e-05 4.734790763905039057e-06 -1.342890936939511448e-05 -1.720373620628379285e-05
5.677000000000000000e+03 1.492129421234130859e+01 1.952596092224121094e+01 -6.225358083611354232e-05 3.856575858662836254e-06 -1.751910167513415217e-05 -1.158394661615602672e-05
5.678000000000000000e+03 3.096389198303222656e+01 4.628460884094238281e+00 1.588146733411122113e-05 -2.842858521034941077e-05 -3.764135271921986714e-06 4.294012342143105343e-06
5.679000000000000000e+03 1.533255577087402344e+01 1.600030899047851562e+01 -5.831573071191087365e-05 5.461663477035472170e-06 -1.585621976119000465e-05 2.281412214699685137e-08
5.680000000000000000e+03 1.879432487487792969e+01 2.885229301452636719e+01 -9.128123201662674546e-05 -2.191568091802764684e-05 -3.395907333469949663e-05 4.796086795977316797e-05
5.681000000000000000e+03 1.497518062591552734e+01 2.719635963439941406e+01 1.889759732875972986e-05 -4.619799074134789407e-05 -8.190118933271151036e-06 4.861323031946085393e-05
5.682000000000000000e+03 2.711304283142089844e+01 1.198648738861083984e+01 -3.597994509618729353e-05 1.908459307742305100e-05 -5.068605787528213114e-06 -2.597334969323128462e-05
5.683000000000000000e+03 2.562125587463378906e+01 1.033575725555419922e+01 1.081981372408336028e-05 -4.516814442467875779e-05 -1.030449857353232801e-05 9.975497050618287176e-06
5.684000000000000000e+03 1.665964698791503906e+01 1.357362079620361328e+01 -6.007264892105013132e-05 2.327262080825676094e-07 -1.795197749743238091e-05 2.111619141942355782e-05
5.685000000000000000e+03 1.552457237243652344e+01 1.706415557861328125e+01 3.703811671584844589e-05 -2.266406227136030793e-05 4.312215878599090502e-06 -1.326852725469507277e-06
5.686000000000000000e+03 2.256418228149414062e+01 1.673179435729980469e+01 -4.605022695614024997e-05 -5.216338104219175875e-05 -2.946408130810596049e-05 3.070781895075924695e-05
5.687000000000000000e+03 2.806628036499023438e+01 1.236153316497802734e+01 1.191281353385420516e-05 -7.185518188634887338e-05 -1.798270932340528816e-05 4.025056114187464118e-05
5.688000000000000000e+03 2.444866752624511719e+01 1.346673870086669922e+01 -1.767670619301497936e-05 4.153264399064937606e-06 -4.057032128912396729e-06 -1.066648655978497118e-05
5.689000000000000000e+03 1.516221237182617188e+01 2.223039817810058594e+01 -6.164900696603581309e-05 1.121842387874494307e-06 -1.815814903238788247e-05 -6.578870397788705304e-06
5.690000000000000000e+03 1.661908149719238281e+01 2.722288322448730469e+01 -7.785949856042861938e-05 -2.526077764741785359e-07 -2.343363303225487471e-05 2.463527380314189941e-06
5.691000000000000000e+03 2.299070167541503906e+01 1.400672149658203125e+01 -1.936613080033566803e-05 1.780419552233070135e-05 -4.685806516135926358e-07 -1.615727160242386162e-05
5.692000000000000000e+03 2.647704315185546875e+01 1.404887676239013672e+01 -5.475189027492888272e-05 -2.652149532877956517e-06 -1.722121305647306144e-05 -1.651408820180222392e-05
5.693000000000000000e+03 2.633218193054199219e+01 1.851222229003906250e+01 -9.597252210369333625e-05 -6.255381595110520720e-05 -4.755789996124804020e-05 2.903678978327661753e-05
5.694000000000000000e+03 2.153920364379882812e+01 1.433360099792480469e+01 -1.353125480818562210e-05 1.942017115652561188e-05 1.766675154613039922e-06 -2.685901381482835859e-05
5.695000000000000000e+03 2.215595436096191406e+01 2.619044303894042969e+01 -6.943424523342400789e-05 -8.230487583205103874e-05 -4.552173777483403683e-05 9.476814739173278213e-05
5.696000000000000000e+03 2.442543601989746094e+01 2.071067237854003906e+01 -7.328320498345419765e-05 -7.085010292939841747e-05 -4.323999019106850028e-05 3.637025292846374214e-05
5.697000000000000000e+03 3.716231918334960938e+01 -7.982010841369628906e+00 -2.340628668662247946e-07 -4.138571512157795951e-06 -1.311790242652932648e-06 -1.159520343207987025e-05
5.698000000000000000e+03 3.661796569824218750e+01 -3.979166269302368164e+00 3.044597906409762800e-05 3.576431254259659909e-06 1.020672334561822936e-05 3.948484845750499517e-06
5.699000000000000000e+03 3.606173706054687500e+01 -6.368413925170898438e+00 2.087745997414458543e-05 4.416998763190349564e-06 7.588337666675215587e-06 9.766796210897155106e-06
5.700000000000000000e+03 3.739302062988281250e+01 -4.109513759613037109e+00 -2.725359445321373641e-05 1.624304559300071560e-06 -7.688787263759877533e-06 7.463803740392904729e-06
5.701000000000000000e+03 3.662047576904296875e+01 -5.481447219848632812e+00 2.423741352686192840e-05 5.196187885303515941e-06 8.830080332700163126e-06 4.518850346357794479e-06
5.702000000000000000e+03 3.691447067260742188e+01 -6.730872154235839844e+00 1.945803705893922597e-05 2.253450702482950874e-06 6.513446351164020598e-06 1.225348478328669444e-05
5.703000000000000000e+03 3.760971832275390625e+01 -7.004230022430419922e+00 1.094438630389049649e-05 -2.269684046041220427e-06 2.602410631880047731e-06 1.492252340540289879e-05
5.704000000000000000e+03 1.596969699859619141e+01 1.476960372924804688e+01 -6.391823990270495415e-05 1.011300901154754683e-05 -1.614157008589245379e-05 5.674500243912916631e-06
5.705000000000000000e+03 3.148085784912109375e+01 3.177411556243896484e+00 3.538086457410827279e-05 -1.598836570337880403e-05 5.817749297420959920e-06 1.623728530830703676e-05
5.706000000000000000e+03 2.750035476684570312e+01 1.099309349060058594e+01 2.835641316778492182e-05 -5.922778291278518736e-05 -9.261410014005377889e-06 1.523935407021781430e-05
5.707000000000000000e+03 2.848651695251464844e+01 1.133681488037109375e+01 -4.098590579815208912e-05 1.820755824155639857e-05 -6.833504812675528228e-06 -8.674381206219550222e-06
5.708000000000000000e+03 1.443510723114013672e+01 1.611263465881347656e+01 2.033339478657580912e-05 -1.203477040689904243e-05 2.489587359377765097e-06 8.279146641143597662e-06
5.709000000000000000e+03 1.948013114929199219e+01 1.383643627166748047e+01 -1.924964635691139847e-05 -4.254240047885105014e-05 -1.853761386882979423e-05 3.782760177273303270e-05
5.710000000000000000e+03 1.687793922424316406e+01 1.457260036468505859e+01 4.983987673767842352e-05 -3.482597458059899509e-05 4.504170192376477644e-06 -1.951834019564557821e-05
5.711000000000000000e+03 1.461723995208740234e+01 1.721602058410644531e+01 -5.649854574585333467e-05 6.701635356876067817e-06 -1.493907257099635899e-05 -1.562805482535623014e-05
5.712000000000000000e+03 2.472608947753906250e+01 1.000923538208007812e+01 -1.024865287035936490e-05 5.516162218555109575e-06 -1.419747263753379229e-06 -8.002740287338383496e-06
5.713000000000000000e+03 2.690997886657714844e+01 9.680372238159179688e+00 2.312311698915436864e-05 -4.945633554598316550e-05 -7.899965567048639059e-06 9.987016710510943085e-06
5.714000000000000000e+03 2.433268737792968750e+01 1.099555492401123047e+01 3.554883278411580250e-06 -4.489123602979816496e-05 -1.240090568899177015e-05 8.802081538306083530e-06
5.715000000000000000e+03 2.239630508422851562e+01 1.498442554473876953e+01 -2.186463279940653592e-05 -5.696146035916171968e-05 -2.364782812946941704e-05 2.297690662089735270e-05
5.716000000000000000e+03 2.005755233764648438e+01 1.321754169464111328e+01 -2.673104745554155670e-06 9.050315384229179472e-06 1.913163259814609773e-06 -3.848662527161650360e-05
5.717000000000000000e+03 2.076142311096191406e+01 1.374263286590576172e+01 -1.514532232249621302e-05 -4.508180063567124307e-05 -1.806813634175341576e-05 2.375180883973371238e-05
5.718000000000000000e+03 2.673410797119140625e+01 1.297785377502441406e+01 1.760161649144720286e-05 -5.489735849550925195e-05 -1.118872296501649544e-05 2.959155062853824347e-05
5.719000000000000000e+03 2.545383644104003906e+01 1.384823322296142578e+01 -2.729400421230820939e-06 -4.123216058360412717e-05 -1.318846807407680899e-05 1.852788045653142035e-05
5.720000000000000000e+03 2.391829872131347656e+01 1.198756027221679688e+01 -1.413960490026511252e-05 7.766145245113875717e-06 -1.912037760121165775e-06 -1.006216825771844015e-05
5.721000000000000000e+03 2.208813095092773438e+01 1.343932342529296875e+01 -6.853607374068815261e-06 -5.342512667994014919e-05 -1.808361957955639809e-05 1.335431352345040068e-05
5.722000000000000000e+03 2.485423278808593750e+01 1.238199329376220703e+01 -1.845104407038888894e-06 -4.490428909775801003e-05 -1.402481848344905302e-05 1.309747221966972575e-05
5.723000000000000000e+03 1.888328361511230469e+01 1.447438907623291016e+01 -1.205561238748487085e-05 2.359617428737692535e-05 3.462168933765497059e-06 -4.418602475197985768e-05
5.724000000000000000e+03 2.236834144592285156e+01 2.087303161621093750e+01 -6.944025517441332340e-05 -5.859006341779604554e-05 -3.840909630525857210e-05 4.228995021549053490e-05
5.725000000000000000e+03 1.952862167358398438e+01 1.518761253356933594e+01 -2.730765481828711927e-05 -4.602038825396448374e-05 -2.199841401306912303e-05 3.486706555122509599e-05
5.726000000000000000e+03 1.779444122314453125e+01 2.189905548095703125e+01 -9.185232192976400256e-05 -8.470011607641936280e-07 -2.780979775707237422e-05 1.805399551813025028e-05
5.727000000000000000e+03 2.784960937500000000e+01 2.339067268371582031e+01 -6.071579264244064689e-06 -3.764034545383765362e-06 -2.950684120150981471e-06 -1.179307128040818498e-05
5.728000000000000000e+03 2.477098846435546875e+01 2.562291145324707031e+01 -8.797677583061158657e-05 -8.973677904577925801e-05 -5.331406646291725338e-05 9.301528916694223881e-05
5.729000000000000000e+03 3.732029342651367188e+01 -4.761599540710449219e+00 2.472925734764430672e-05 6.456773917307145894e-06 9.355809197586495429e-06 -3.359948777870158665e-06
5.730000000000000000e+03 2.617370605468750000e+01 1.167153453826904297e+01 1.328486450802301988e-05 -5.227907240623608232e-05 -1.169826282421126962e-05 2.063218926195986569e-05
5.731000000000000000e+03 2.598624229431152344e+01 9.343558311462402344e+00 -1.317714850301854312e-05 8.139957571984268725e-06 -1.511157165623444598e-06 -3.496801582514308393e-06
5.732000000000000000e+03 1.470833587646484375e+01 1.434619522094726562e+01 -3.184378874721005559e-05 -8.707333108759485185e-06 -1.216533655679086223e-05 2.541326830396428704e-05
5.733000000000000000e+03 3.581895065307617188e+01 -4.820222854614257812e+00 2.817941822286229581e-05 2.352464434807188809e-06 9.159564797300845385e-06 1.011329368338920176e-05
5.734000000000000000e+03 2.654915428161621094e+01 1.066535854339599609e+01 -2.431623579468578100e-05 1.102191890822723508e-05 -3.988295247836504132e-06 -1.152063578047091141e-05
5.735000000000000000e+03 2.348313140869140625e+01 1.299899005889892578e+01 -4.648451522371033207e-06 -5.018494994146749377e-05 -1.645001975703053176e-05 7.055274636513786390e-06
5.736000000000000000e+03 1.761915588378906250e+01 1.763487243652343750e+01 -8.008851000340655446e-05 -3.734144911504699849e-06 -2.514679545129183680e-05 1.923335730680264533e-05
5.737000000000000000e+03 1.574329185485839844e+01 1.818687057495117188e+01 -7.207187445601448417e-05 6.415279585780808702e-06 -1.969697768799960613e-05 -4.336526671977480873e-06
5.738000000000000000e+03 2.147534370422363281e+01 1.972010612487792969e+01 -2.954418732770136558e-06 9.211582437274046242e-06 1.877148974926967639e-06 -1.886484096758067608e-05
5.739000000000000000e+03 2.089972305297851562e+01 1.518163871765136719e+01 -2.773199230432510376e-05 -4.992883987142704427e-05 -2.329824928892776370e-05 3.054732223972678185e-05
5.740000000000000000e+03 1.622588539123535156e+01 2.069311141967773438e+01 -7.611403270857408643e-05 2.521934220567345619e-06 -2.207762918260414153e-05 -7.098213359313376714e-07
5.741000000000000000e+03 1.646024894714355469e+01 2.214293098449707031e+01 3.048340113309677690e-05 -3.321050098747946322e-05 -8.181303883247892372e-07 1.706498551357071847e-05
5.742000000000000000e+03 2.335884094238281250e+01 1.568933868408203125e+01 -1.648944271437358111e-05 1.988082112802658230e-05 1.017413637782738078e-06 -2.499060974514577538e-05
5.743000000000000000e+03 2.445364379882812500e+01 1.643742942810058594e+01 -4.949411959387362003e-05 -5.853612310602329671e-05 -3.240907244617119431e-05 2.818508801283314824e-05
5.744000000000000000e+03 2.443282318115234375e+01 1.854236030578613281e+01 -7.117403583833947778e-05 -6.315711652860045433e-05 -4.029934643767774105e-05 2.437573493807576597e-05
5.745000000000000000e+03 1.834123992919921875e+01 1.507177448272705078e+01 -1.825392428145278245e-05 -4.409846951602958143e-05 -1.870571759354788810e-05 2.555088394728954881e-05
5.746000000000000000e+03 2.017125892639160156e+01 1.449652957916259766e+01 -6.465269507316406816e-06 1.760701707098633051e-05 3.342524450999917462e-06 -4.023496512672863901e-05
5.747000000000000000e+03 2.536952209472656250e+01 1.951929664611816406e+01 -2.169483741454314440e-05 2.604650580906309187e-05 1.305500518355984241e-06 -4.877686023974092677e-06
5.748000000000000000e+03 1.702183151245117188e+01 1.913127326965332031e+01 -8.466488361591473222e-05 1.652601326895819511e-06 -2.490368387952912599e-05 1.077907290891744196e-05
5.749000000000000000e+03 1.597852134704589844e+01 1.938392639160156250e+01 3.878770439769141376e-05 -2.742956530710216612e-05 3.407442363823065534e-06 7.000609912211075425e-06
5.750000000000000000e+03 3.216449737548828125e+01 2.627673912048339844e+01 -9.550421236781403422e-05 -1.204809450428001583e-04 -6.479554576799273491e-05 1.109904987970367074e-04
5.751000000000000000e+03 2.082368850708007812e+01 2.468375015258789062e+01 -1.958927441592095420e-06 -3.264847691752947867e-06 -1.567132585478248075e-06 -1.395376420987304300e-05
5.752000000000000000e+03 1.618177223205566406e+01 1.580420589447021484e+01 4.543013710645027459e-05 -2.773271262412890792e-05 5.309227617544820532e-06 -1.505051750427810475e-05
5.753000000000000000e+03 1.726534652709960938e+01 1.660334777832031250e+01 4.620460094884037971e-05 -2.473151653248351067e-05 6.441925506806001067e-06 -1.782320941856596619e-05
5.754000000000000000e+03 1.884063339233398438e+01 1.579969406127929688e+01 9.055621376319322735e-06 8.129508387355599552e-06 5.155538929102476686e-06 -3.430957076488994062e-05
5.755000000000000000e+03 1.700127983093261719e+01 1.560464477539062500e+01 -7.558649667771533132e-05 1.167868322227150202e-05 -1.917234294523950666e-05 7.460066171915968880e-06
5.756000000000000000e+03 2.398181915283203125e+01 1.458792495727539062e+01 -1.367466666124528274e-05 -5.706215597456321120e-05 -2.122104706359095871e-05 1.092897491616895422e-05
5.757000000000000000e+03 2.169022941589355469e+01 1.592262840270996094e+01 -7.592663223476847634e-06 1.657067514315713197e-05 2.693403530429350212e-06 -3.047196696570608765e-05
5.758000000000000000e+03 2.000081253051757812e+01 1.758275985717773438e+01 1.095445986720733345e-05 3.235633585063624196e-06 4.257028194842860103e-06 -3.028906394320074469e-05
5.759000000000000000e+03 2.069477653503417969e+01 1.861554336547851562e+01 -6.318918894976377487e-05 -4.178674498689360917e-05 -3.149278199998661876e-05 3.628303602454252541e-05
5.760000000000000000e+03 3.127068519592285156e+01 2.345957946777343750e+01 -2.269974356750026345e-04 -6.593382568098604679e-05 -8.787937986198812723e-05 1.384448260068893433e-04
5.761000000000000000e+03 2.343179893493652344e+01 1.970218849182128906e+01 -1.603263444849289954e-05 1.896780304377898574e-05 8.805505444797745440e-07 -9.853918527369387448e-06
5.762000000000000000e+03 2.452983474731445312e+01 2.303742980957031250e+01 -8.718676690477877855e-05 -7.143519178498536348e-05 -4.758658542414195836e-05 6.764548743376508355e-05
5.763000000000000000e+03 2.341396331787109375e+01 2.457133293151855469e+01 -3.280408782302401960e-05 1.329111364611890167e-05 -5.853892616869416088e-06 6.101789495005505159e-06
5.764000000000000000e+03 1.641238784790039062e+01 1.685986137390136719e+01 -7.593486225232481956e-05 7.411426850012503564e-06 -2.055703043879475445e-05 6.555527306773001328e-06
5.765000000000000000e+03 1.938439941406250000e+01 1.664099884033203125e+01 -5.173959652893245220e-05 -3.362063944223336875e-05 -2.560807115514762700e-05 3.275379640399478376e-05
5.766000000000000000e+03 1.808248519897460938e+01 1.627054786682128906e+01 -6.489197403425350785e-05 -1.235904528584796935e-05 -2.317530743312090635e-05 2.081014463328756392e-05
5.767000000000000000e+03 2.017926979064941406e+01 1.595593261718750000e+01 1.049968659572186880e-06 1.293607147090369835e-05 4.195812380203278735e-06 -3.586078673833981156e-05
5.768000000000000000e+03 2.349671745300292969e+01 1.760031127929687500e+01 -2.620284249132964760e-06 1.340727339993463829e-05 3.236096745240502059e-06 -1.991399767575785518e-05
5.769000000000000000e+03 2.251609802246093750e+01 1.868612098693847656e+01 -6.352031778078526258e-05 -5.432264515548013151e-05 -3.535288851708173752e-05 3.176714017172344029e-05
5.770000000000000000e+03 1.804413986206054688e+01 1.875920677185058594e+01 3.927498619304969907e-05 -2.017177394009195268e-05 5.730963493988383561e-06 -1.868484650913160294e-05
5.771000000000000000e+03 1.739089202880859375e+01 2.042974090576171875e+01 4.220937626087106764e-05 -3.021827433258295059e-05 3.597330987759050913e-06 -1.939424009833601303e-06
5.772000000000000000e+03 1.954796791076660156e+01 2.606889915466308594e+01 -6.058459257474169135e-05 -6.318757368717342615e-05 -3.713164915097877383e-05 7.553532486781477928e-05
5.773000000000000000e+03 1.909821510314941406e+01 2.140664863586425781e+01 3.038383874809369445e-05 -2.019929706875700504e-05 3.055362412851536646e-06 -1.785573840606957674e-05
5.774000000000000000e+03 3.013539695739746094e+01 2.648659896850585938e+01 -2.871754404623061419e-04 9.765272989170625806e-05 -5.685681389877572656e-05 9.696515917312353849e-05
5.775000000000000000e+03 2.812348175048828125e+01 2.669384002685546875e+01 -4.394649295136332512e-05 -1.110911471187137067e-04 -4.651129347621463239e-05 1.056214459822513163e-04
5.776000000000000000e+03 2.550674629211425781e+01 2.855732536315917969e+01 -5.718197280657477677e-05 -1.187914094771258533e-04 -5.279201286612078547e-05 1.421037741238251328e-04
5.777000000000000000e+03 1.853288078308105469e+01 2.000463485717773438e+01 -8.730902482056990266e-05 -1.281424010812770575e-05 -3.003697929671034217e-05 3.138840111205354333e-05
5.778000000000000000e+03 2.166819572448730469e+01 1.771306991577148438e+01 -6.096387323850649409e-07 1.000242900772718713e-05 2.817836957547115162e-06 -2.559626227593980730e-05
5.779000000000000000e+03 1.852213668823242188e+01 1.720479393005371094e+01 2.951867099909577519e-05 -9.425874850421678275e-06 6.027838935551699251e-06 -2.788958590826950967e-05
5.780000000000000000e+03 1.964198303222656250e+01 1.939530563354492188e+01 1.930866528709884733e-05 -5.346495527192018926e-06 4.188651018921518698e-06 -2.519799636502284557e-05
5.781000000000000000e+03 2.219701957702636719e+01 2.334055709838867188e+01 -7.716830441495403647e-05 -6.229565769899636507e-05 -4.183919008937664330e-05 6.481098535005003214e-05
5.782000000000000000e+03 2.088722991943359375e+01 1.679765510559082031e+01 -4.702852311311289668e-05 -4.487657133722677827e-05 -2.757152833510190248e-05 3.347679739817976952e-05
5.783000000000000000e+03 1.820359611511230469e+01 2.360302162170410156e+01 3.610354906413704157e-05 -4.693984737969003618e-05 -3.250889449191163294e-06 1.544526821817271411e-05
5.784000000000000000e+03 1.978681755065917969e+01 2.303730773925781250e+01 -8.684610656928271055e-05 -3.283668047515675426e-05 -3.590483538573607802e-05 5.882597542949952185e-05
5.785000000000000000e+03 1.904520416259765625e+01 1.824753379821777344e+01 -7.143355469452217221e-05 -2.294994919793680310e-05 -2.831505116773769259e-05 3.234520045225508511e-05
5.786000000000000000e+03 2.033309745788574219e+01 2.065124893188476562e+01 -7.388065569102764130e-05 -3.918786023859865963e-05 -3.392055441509000957e-05 4.435751543496735394e-05
5.787000000000000000e+03 1.823378753662109375e+01 2.698101806640625000e+01 4.805852586287073791e-05 -6.365047738654538989e-05 -4.677584911405574530e-06 3.581307100830599666e-05
5.788000000000000000e+03 2.116795539855957031e+01 2.200347900390625000e+01 -5.463975412567378953e-06 4.341597559687215835e-06 -3.367134127074677963e-07 -1.364680247206706554e-05
5.789000000000000000e+03 1.954241561889648438e+01 3.126964759826660156e+01 7.001023186603561044e-05 -1.050147329806350172e-04 -1.050135051627876237e-05 4.844943396165035665e-05
5.790000000000000000e+03 2.204049301147460938e+01 2.976918411254882812e+01 -6.607684190385043621e-05 -9.732629405334591866e-05 -4.902094224235042930e-05 1.274098030989989638e-04
5.791000000000000000e+03 1.893387222290039062e+01 3.768795776367187500e+01 6.718654913129284978e-05 -1.516398915555328131e-04 -2.533600127208046615e-05 1.068534620571881533e-04
5.792000000000000000e+03 1.628033828735351562e+01 3.429082107543945312e+01 4.212145722704008222e-05 -1.007512837531976402e-04 -1.758894723025150597e-05 7.730973447905853391e-05
5.793000000000000000e+03 2.727696800231933594e+01 3.463293838500976562e+01 -1.277846877201227471e-05 -8.249141683336347342e-05 -2.858096559066325426e-05 1.438828185200691223e-04
5.794000000000000000e+03 3.265266799926757812e+01 3.077247619628906250e+01 -1.265576338482787833e-05 -2.002485416596755385e-04 -6.387128814822062850e-05 2.289667027071118355e-04
5.795000000000000000e+03 2.436317253112792969e+01 3.123344421386718750e+01 -3.830718560493551195e-05 -2.219882480858359486e-05 -1.815180257835891098e-05 4.926164547214284539e-05
5.796000000000000000e+03 3.497963333129882812e+01 -3.811890411376953125e+01 3.130934387445449829e-02 -3.169059157371520996e-01 -8.567897230386734009e-02 -1.908845901489257812e-01
5.797000000000000000e+03 8.962822914123535156e+00 3.516685485839843750e+01 -2.817519998643547297e-05 -5.465195954457158223e-06 -1.009211882774252445e-05 2.318033011761144735e-06
5.798000000000000000e+03 3.181587219238281250e+01 3.728203582763671875e+01 1.071529477485455573e-04 -1.773240510374307632e-04 -2.105133353325072676e-05 2.818392531480640173e-04
5.799000000000000000e+03 2.348090744018554688e+01 3.445314788818359375e+01 8.146718028001487255e-05 -2.112367510562762618e-04 -3.893087341566570103e-05 1.366287178825587034e-04
5.800000000000000000e+03 2.308088684082031250e+01 3.782492065429687500e+01 1.390130546496948227e-05 -8.873837214196100831e-05 -2.245112045784480870e-05 -2.661942198756150901e-05
5.801000000000000000e+03 1.354796981811523438e+01 4.072579956054687500e+01 -1.194216110889101401e-05 -4.398933742777444422e-05 -1.677944965194910765e-05 7.501934305764734745e-05
5.802000000000000000e+03 1.525141429901123047e+01 3.734315109252929688e+01 5.759405667049577460e-06 -4.367557266959920526e-05 -1.137485014623962343e-05 -5.071529449196532369e-05
5.803000000000000000e+03 3.076203346252441406e+01 3.419559860229492188e+01 1.181184416054747999e-04 -3.190835996065288782e-04 -6.028954885550774634e-05 3.174385055899620056e-04
5.804000000000000000e+03 3.571967315673828125e+01 -4.000588607788085938e+01 1.400080174207687378e-01 -4.189295470714569092e-01 -8.367646485567092896e-02 -1.138598024845123291e-01
5.805000000000000000e+03 2.775947570800781250e+01 2.897694969177246094e+01 -1.612572377780452371e-04 4.359625745564699173e-05 -3.529829336912371218e-05 8.920965774450451136e-05
5.806000000000000000e+03 1.967507934570312500e+01 3.433001327514648438e+01 -4.766643905895762146e-05 -2.772505831671878695e-05 -2.261744884890504181e-05 1.150386106019141153e-05
5.807000000000000000e+03 2.739170837402343750e+01 3.165067100524902344e+01 1.284555764868855476e-05 -1.931670558406040072e-04 -5.409644654719159007e-05 2.069078473141416907e-04
5.808000000000000000e+03 3.022627639770507812e+01 3.142620277404785156e+01 -2.167180209653452039e-04 4.483805605559609830e-05 -5.156399129191413522e-05 2.030298783211037517e-04
5.809000000000000000e+03 5.845201492309570312e+01 -1.592261886596679688e+01 3.242950242565711960e-06 6.743349786120234057e-06 2.995890099555253983e-06 2.901665311583201401e-06
5.810000000000000000e+03 5.899195480346679688e+01 -1.566721534729003906e+01 1.129310362557589542e-06 -2.833543476299382746e-06 -5.112699454912217334e-07 -9.383617225466878153e-07
5.811000000000000000e+03 2.172001838684082031e+01 -1.349843788146972656e+01 -3.979599205194972456e-05 -1.559929387440206483e-06 -1.240677647729171440e-05 -1.012319899018621072e-07
5.812000000000000000e+03 9.188929557800292969e+00 -1.877987146377563477e+00 -1.628295831324066967e-05 -2.813641003740485758e-05 -1.332581086899153888e-05 -1.676292049523908645e-05
5.813000000000000000e+03 2.103413200378417969e+01 -1.329586219787597656e+01 -1.914907988975755870e-05 -3.258181095588952303e-06 -6.722178113705012947e-06 1.273270640922419261e-06
5.814000000000000000e+03 5.463620376586914062e+01 3.445331954956054688e+01 -3.385685756802558899e-02 -5.076684523373842239e-03 -1.168006286025047302e-02 -1.343348342925310135e-02
5.815000000000000000e+03 6.009133529663085938e+01 3.599361038208007812e+01 -3.454230725765228271e-02 3.637742996215820312e-02 5.505376611836254597e-04 -1.664882339537143707e-02
5.816000000000000000e+03 5.939820098876953125e+01 3.809030914306640625e+01 3.655030205845832825e-02 6.926856189966201782e-02 3.174566105008125305e-02 -7.158911973237991333e-02
5.817000000000000000e+03 5.413003540039062500e+01 -3.141234588623046875e+01 1.435409069061279297e+00 3.419882297515869141e+00 1.456587433815002441e+00 6.684776544570922852e-01
5.818000000000000000e+03 4.284322357177734375e+01 -2.924968719482421875e+01 -9.683057665824890137e-01 -2.144068002700805664e+00 -9.337121248245239258e-01 -8.208289146423339844e-01
5.819000000000000000e+03 4.333608627319335938e+01 -2.876656532287597656e+01 -7.514621615409851074e-01 -1.915396332740783691e+00 -8.000575900077819824e-01 -8.841756582260131836e-01
5.820000000000000000e+03 7.760136413574218750e+01 3.740203475952148438e+01 -5.643348023295402527e-02 -3.247705101966857910e-01 -1.143612042069435120e-01 2.290840744972229004e-01
5.821000000000000000e+03 7.824839782714843750e+01 -3.780274200439453125e+01 3.770021488890051842e-03 -2.315525896847248077e-02 -5.815571174025535583e-03 8.200815878808498383e-03
5.822000000000000000e+03 6.599732971191406250e+01 3.539746475219726562e+01 3.935412317514419556e-02 1.004269957542419434e+00 3.130871951580047607e-01 -4.221756756305694580e-01
5.823000000000000000e+03 6.282762145996093750e+01 -3.575425720214843750e+01 -8.530921489000320435e-02 8.794405311346054077e-02 7.904529920779168606e-04 -2.890363894402980804e-02
5.824000000000000000e+03 3.650434875488281250e+01 -3.444363403320312500e+01 -2.036597281694412231e-01 -2.850204706192016602e-01 -1.466040611267089844e-01 -3.361710608005523682e-01
5.825000000000000000e+03 2.114372253417968750e+01 -3.317316818237304688e+01 1.984224468469619751e-02 2.208544872701168060e-03 6.615236867219209671e-03 1.038723811507225037e-02
5.826000000000000000e+03 4.350226974487304688e+01 -2.682632827758789062e+01 -1.824666112661361694e-01 -1.698628544807434082e+00 -5.643285512924194336e-01 -9.603551626205444336e-01
5.827000000000000000e+03 6.084855270385742188e+01 3.619399642944335938e+01 2.796289324760437012e-02 9.216307103633880615e-02 3.603778779506683350e-02 -9.143225848674774170e-02
5.828000000000000000e+03 5.102589797973632812e+01 -3.411280059814453125e+01 4.615435302257537842e-01 1.230377912521362305e+00 5.075764060020446777e-01 6.703841686248779297e-01
5.829000000000000000e+03 2.992033195495605469e+01 -3.650392532348632812e+01 -2.617005072534084320e-02 -5.571778491139411926e-02 -2.456635050475597382e-02 -4.472475498914718628e-02
5.830000000000000000e+03 3.030452537536621094e+01 -3.543910598754882812e+01 -2.730560488998889923e-02 -4.287317022681236267e-02 -2.105363272130489349e-02 -4.387288540601730347e-02
5.831000000000000000e+03 6.925437164306640625e+01 -3.555676269531250000e+01 -4.421759769320487976e-02 1.298778038471937180e-02 -9.368944913148880005e-03 3.938281908631324768e-02
5.832000000000000000e+03 5.354325866699218750e+01 -3.024756240844726562e+01 1.805949568748474121e+00 2.729999303817749023e+00 1.360784649848937988e+00 7.393795847892761230e-01
5.833000000000000000e+03 6.762505340576171875e+01 -3.520557022094726562e+01 -8.906887471675872803e-02 7.967260666191577911e-03 -2.433048374950885773e-02 3.016488812863826752e-02
5.834000000000000000e+03 7.709520721435546875e+01 -3.880760192871093750e+01 8.876356296241283417e-03 -2.170949243009090424e-02 -3.849940840154886246e-03 1.464933995157480240e-02
5.835000000000000000e+03 6.218127441406250000e+01 -3.611761093139648438e+01 8.162247948348522186e-03 1.456602960824966431e-01 4.614676535129547119e-02 -1.514463573694229126e-01
5.836000000000000000e+03 1.170071887969970703e+01 4.443861484527587891e+00 3.218942765670362860e-06 1.492825276727671735e-06 1.413530412719410378e-06 -7.355026809818809852e-07
5.837000000000000000e+03 1.848034286499023438e+01 -1.058357906341552734e+01 1.561141289130318910e-05 3.996325904154218733e-05 1.667240212555043399e-05 -5.290014541969867423e-06
5.838000000000000000e+03 3.366388702392578125e+01 -3.430283737182617188e+01 -8.816552907228469849e-02 -4.394102469086647034e-02 -3.963196650147438049e-02 -1.039909869432449341e-01
5.839000000000000000e+03 4.047624588012695312e+01 -3.394754791259765625e+01 -7.083416730165481567e-02 -1.122527599334716797e+00 -3.580085337162017822e-01 -4.366003572940826416e-01
5.840000000000000000e+03 4.013026428222656250e+01 -1.608061981201171875e+01 -3.306835878902347758e-06 -1.590458168720942922e-06 -1.469188191549619660e-06 6.655434958702244330e-07
5.841000000000000000e+03 3.946349334716796875e+01 -1.654778289794921875e+01 -3.296142040198901668e-06 -3.710023577241372550e-08 -9.999727126341895200e-07 5.530393991648452356e-07
5.842000000000000000e+03 2.745427703857421875e+01 -3.453061676025390625e+01 9.399244561791419983e-03 -1.243021897971630096e-02 -9.092922555282711983e-04 -9.195416932925581932e-04
5.843000000000000000e+03 6.969152069091796875e+01 3.432651901245117188e+01 -1.634041965007781982e-01 1.487327456474304199e+00 3.971769809722900391e-01 -7.044588029384613037e-02
5.844000000000000000e+03 4.437532806396484375e+01 -2.810706138610839844e+01 -3.404491245746612549e-01 -1.318285107612609863e+00 -4.976202845573425293e-01 -9.010470509529113770e-01
5.845000000000000000e+03 2.035432338714599609e+00 3.604201507568359375e+01 -4.061776780872605741e-05 2.899255559896118939e-05 -3.487563844828400761e-06 1.031776992022059858e-05
5.846000000000000000e+03 6.502684783935546875e+01 -1.686289596557617188e+01 -9.457871913909912109e-01 1.354827046394348145e+00 1.227119490504264832e-01 4.781911075115203857e-01
5.847000000000000000e+03 6.477965545654296875e+01 -1.940416145324707031e+01 -3.635812401771545410e-01 1.349560856819152832e+00 2.957938909530639648e-01 1.187589406967163086e+00
5.848000000000000000e+03 7.502812957763671875e+01 3.635630416870117188e+01 -1.558387577533721924e-01 2.529770731925964355e-01 2.914149872958660126e-02 3.256180286407470703e-01
5.849000000000000000e+03 5.192783737182617188e+01 -2.961087036132812500e+01 1.709511041641235352e+00 1.182487487792968750e+00 8.675995469093322754e-01 3.664941489696502686e-01
5.850000000000000000e+03 6.754006958007812500e+01 3.466352844238281250e+01 -3.659447189420461655e-03 1.321810126304626465e+00 3.954451978206634521e-01 -4.014219641685485840e-01
5.851000000000000000e+03 7.140610504150390625e+01 -3.286124420166015625e+01 -2.783082984387874603e-02 1.133264228701591492e-02 -4.949456546455621719e-03 2.768158912658691406e-03
5.852000000000000000e+03 3.905409622192382812e+01 -1.608450126647949219e+01 -4.423427526489831507e-07 -1.985399876502924599e-06 -7.283227887455723248e-07 -3.684979787976772059e-07
5.853000000000000000e+03 7.367646026611328125e+01 -2.008545303344726562e+01 -1.105230003595352173e-01 1.176240295171737671e-01 2.130307722836732864e-03 -9.015997499227523804e-02
5.854000000000000000e+03 5.242300987243652344e+00 -3.417021942138671875e+01 9.883422899292781949e-05 3.656807239167392254e-04 1.393544807797297835e-04 1.331619219854474068e-03
5.855000000000000000e+03 4.428175926208496094e+00 -3.368924713134765625e+01 4.056110356032149866e-06 3.261677338741719723e-04 9.906715422403067350e-05 9.756151121109724045e-04
5.856000000000000000e+03 8.179253578186035156e+00 -3.193924903869628906e+01 7.653560023754835129e-04 -1.313360553467646241e-04 1.902059884741902351e-04 3.832602815236896276e-04
5.857000000000000000e+03 4.442362594604492188e+01 -2.878107070922851562e+01 -4.440877735614776611e-01 -1.280401587486267090e+00 -5.173467993736267090e-01 -7.588193416595458984e-01
5.858000000000000000e+03 1.175248050689697266e+01 5.529945850372314453e+00 2.185522362196934409e-06 -1.281284198739740532e-06 2.712714604058419354e-07 8.647248819215747062e-07
5.859000000000000000e+03 3.328446149826049805e+00 4.566618442535400391e+00 5.058897841081488878e-06 3.571635033949860372e-06 2.589159748822567053e-06 -5.856613370269769803e-06
5.860000000000000000e+03 4.521791076660156250e+01 -2.882116699218750000e+01 -2.618378698825836182e-01 -1.053199410438537598e+00 -3.945111930370330811e-01 -7.247394919395446777e-01
5.861000000000000000e+03 7.279962921142578125e+01 -3.323334121704101562e+01 -2.176554314792156219e-02 5.273992195725440979e-03 -4.947464913129806519e-03 1.116184610873460770e-02
5.862000000000000000e+03 7.301686859130859375e+01 -3.382710647583007812e+01 -1.717727445065975189e-02 6.766286678612232208e-03 -3.123296424746513367e-03 1.312169805169105530e-02
5.863000000000000000e+03 8.714437484741210938e+00 -3.944993495941162109e+00 3.517493314575403929e-05 2.691451845748815686e-05 1.862683529907371849e-05 2.119872624462004751e-05
5.864000000000000000e+03 7.313477325439453125e+01 1.988344192504882812e+01 5.514506250619888306e-02 2.068763732910156250e+00 6.371726393699645996e-01 -7.292755879461765289e-03
5.865000000000000000e+03 1.647396278381347656e+01 -1.096702289581298828e+01 6.766935985069721937e-05 1.772262112353928387e-05 2.561759538366459310e-05 -1.769363552739378065e-05
5.866000000000000000e+03 7.584921264648437500e+01 3.256039428710937500e+01 -3.012159466743469238e-02 -2.709768339991569519e-02 -1.716578379273414612e-02 4.444625973701477051e-01
5.867000000000000000e+03 1.278284931182861328e+01 -1.244566726684570312e+01 1.112783138523809612e-04 6.660513463430106640e-05 5.336503454600460827e-05 -6.533187388413352892e-06
5.868000000000000000e+03 1.073402595520019531e+01 -1.228822517395019531e+01 -1.825020299293100834e-04 -1.970211997104343027e-05 -6.066124478820711374e-05 1.869548555077926721e-06
5.869000000000000000e+03 6.653041839599609375e+01 -1.676321983337402344e+01 -6.555273532867431641e-01 1.244118571281433105e+00 1.765773594379425049e-01 5.133581161499023438e-01
5.870000000000000000e+03 7.084008026123046875e+01 -9.033446311950683594e+00 -3.495922312140464783e-02 1.402077674865722656e+00 4.101355373859405518e-01 -1.921084523200988770e-02
5.871000000000000000e+03 4.022779846191406250e+01 -1.473224067687988281e+01 -3.772898708120919764e-06 -2.518623659852892160e-06 -1.887456733129511122e-06 6.214449399521981832e-07
5.872000000000000000e+03 1.496366500854492188e+01 3.791766405105590820e+00 4.258854460204020143e-06 -2.195158913309569471e-06 6.191086185936001129e-07 -3.250906729590496980e-06
5.873000000000000000e+03 8.530394554138183594e+00 -2.967769622802734375e+01 7.319099386222660542e-04 -4.729287466034293175e-04 7.769434887450188398e-05 3.428459749557077885e-04
5.874000000000000000e+03 5.153904724121093750e+01 -2.849328422546386719e+01 1.648367285728454590e+00 7.008301615715026855e-01 7.047592401504516602e-01 -1.953862234950065613e-02
5.875000000000000000e+03 8.523015022277832031e+00 -2.891115379333496094e+01 9.989349637180566788e-04 2.469957689754664898e-04 3.737792139872908592e-04 -3.480352461338043213e-04
5.876000000000000000e+03 5.179863739013671875e+01 -2.781882476806640625e+01 1.712701082229614258e+00 7.117270827293395996e-01 7.273284792900085449e-01 -1.214991882443428040e-01
5.877000000000000000e+03 5.284603881835937500e+01 -2.520204353332519531e+01 1.088725805282592773e+00 3.946178257465362549e-01 4.450031220912933350e-01 -6.733055710792541504e-01
5.878000000000000000e+03 1.594173526763916016e+01 -1.036692333221435547e+01 4.016592720290645957e-05 -3.251297675888054073e-05 2.295884314662544057e-06 1.299320865655317903e-05
5.879000000000000000e+03 6.820764160156250000e+01 -1.699209785461425781e+01 -3.916715681552886963e-01 9.398267865180969238e-01 1.644465774297714233e-01 4.159807860851287842e-01
5.880000000000000000e+03 7.026331329345703125e+01 -1.197136878967285156e+01 -1.509095877408981323e-01 1.134269714355468750e+00 2.950080335140228271e-01 -2.393409237265586853e-02
5.881000000000000000e+03 6.217115402221679688e+00 -2.154580688476562500e+01 2.695959992706775665e-04 1.624556171009317040e-04 1.296154805459082127e-04 -5.190799129195511341e-06
5.882000000000000000e+03 7.543181610107421875e+01 -1.745219421386718750e+01 -6.990060955286026001e-02 5.351947620511054993e-02 -4.914341028779745102e-03 -1.762892603874206543e-01
5.883000000000000000e+03 1.268877410888671875e+01 6.708559989929199219e+00 -3.251830776207498275e-06 -4.405112576932879165e-06 -2.297083028679480776e-06 -1.409317405887122732e-06
5.884000000000000000e+03 4.371714115142822266e+00 -2.459374046325683594e+01 -8.231960819102823734e-04 1.812003756640478969e-04 -1.925987162394449115e-04 -2.106939646182581782e-04
5.885000000000000000e+03 4.567612075805664062e+01 -8.610169410705566406e+00 -1.428428913641255349e-05 -6.883708920213393867e-06 -6.350399416987784207e-06 -4.368338068161392584e-06
5.886000000000000000e+03 4.628784179687500000e+01 -1.097026443481445312e+01 -1.508880814071744680e-05 -2.873717619422677672e-07 -4.612853899743640795e-06 -6.967826266190968454e-06
5.887000000000000000e+03 6.637864112854003906e+00 -1.781221389770507812e+01 -1.998056104639545083e-04 1.408337993780151010e-04 -1.769154187059029937e-05 2.414879127172753215e-04
5.888000000000000000e+03 1.501227951049804688e+01 -1.107198715209960938e+01 2.013166886172257364e-05 -4.211614577798172832e-05 -6.595343165827216581e-06 -1.069576956069795415e-05
5.889000000000000000e+03 4.395100402832031250e+01 -1.432070541381835938e+01 -7.543180345237487927e-06 1.110680500460148323e-06 -1.929749942064518109e-06 -3.238304998376406729e-06
5.890000000000000000e+03 1.602000045776367188e+01 -9.161767959594726562e+00 -5.025502468924969435e-05 2.685650179046206176e-05 -7.019556960585759953e-06 -6.252949788176920265e-06
5.891000000000000000e+03 7.242892456054687500e+01 -9.159223556518554688e+00 -6.333908438682556152e-02 1.005291819572448730e+00 2.825857996940612793e-01 -2.216725796461105347e-01
5.892000000000000000e+03 7.460676574707031250e+01 -1.845723628997802734e+00 1.497974246740341187e-01 7.161031961441040039e-01 2.597701847553253174e-01 -3.085332810878753662e-01
5.893000000000000000e+03 7.504975128173828125e+01 6.075713157653808594e+00 9.964988380670547485e-02 5.920847058296203613e-01 2.075203657150268555e-01 6.414294987916946411e-02
5.894000000000000000e+03 1.207255077362060547e+01 -8.849363327026367188e+00 -8.907545270631089807e-05 -9.234064236807171255e-06 -2.949285408249124885e-05 4.030718264402821660e-05
5.895000000000000000e+03 4.375119400024414062e+01 -1.314511966705322266e+01 -3.129001242996309884e-06 -6.179232059366768226e-06 -2.792470013446290977e-06 -1.433755755897436757e-06
5.896000000000000000e+03 3.818006515502929688e+01 2.429911422729492188e+01 -4.599017847795039415e-04 1.175231591332703829e-04 -1.027135876938700676e-04 6.929913797648623586e-05
5.897000000000000000e+03 4.029272079467773438e+01 -1.405935764312744141e+01 6.129133907961659133e-06 2.306444002897478640e-06 2.530673327783006243e-06 2.311159050805144943e-07
5.898000000000000000e+03 4.627904891967773438e+01 -1.149799537658691406e+01 1.376313593937084079e-05 1.946761130966478959e-06 4.712968802778050303e-06 7.735296094324439764e-06
5.899000000000000000e+03 2.338721466064453125e+01 2.200374984741210938e+01 -3.075793210882693529e-05 2.047171255981083959e-05 -3.085866183027974330e-06 -5.061860520072514191e-06
5.900000000000000000e+03 1.662166404724121094e+01 2.540826416015625000e+01 3.682111855596303940e-05 -5.862629768671467900e-05 -6.541553830174962059e-06 3.826135434792377055e-05
5.901000000000000000e+03 3.649674224853515625e+01 -1.460421466827392578e+01 6.009175194776616991e-06 -6.474655265265027992e-07 1.608513002793188207e-06 1.587105316502857022e-06
5.902000000000000000e+03 7.364517974853515625e+01 2.141504287719726562e+01 9.255182743072509766e-02 1.633374333381652832e+00 5.177778601646423340e-01 -5.669869016855955124e-03
5.903000000000000000e+03 4.727430725097656250e+01 -2.769411849975585938e+01 2.924179732799530029e-01 -6.696259379386901855e-01 -1.131623834371566772e-01 -8.928080797195434570e-01
5.904000000000000000e+03 3.066853332519531250e+01 -1.080668735504150391e+01 1.278071431443095207e-05 2.047771204161108471e-06 4.448545496416045353e-06 2.557035941208596341e-06
5.905000000000000000e+03 4.420135879516601562e+01 -1.233625507354736328e+01 2.234991825389442965e-06 -9.790288459043949842e-06 -2.266589035571087152e-06 -4.086755325261037797e-06
5.906000000000000000e+03 4.518210983276367188e+01 -1.049630451202392578e+01 9.644555575505364686e-06 6.485649009846383706e-06 4.839061602979199961e-06 3.649240909453510540e-07
5.907000000000000000e+03 1.447332477569580078e+01 -1.049878787994384766e+01 -7.170798198785632849e-06 -8.094759687082841992e-05 -2.643551852088421583e-05 -7.610292959725484252e-05
5.908000000000000000e+03 6.041064262390136719e+00 -1.712365531921386719e+01 1.137454528361558914e-04 1.750521332724019885e-04 8.663927292218431830e-05 2.085948217427358031e-04
5.909000000000000000e+03 7.335596466064453125e+01 2.793501472473144531e+01 2.757162153720855713e-01 1.362642526626586914e+00 4.915076494216918945e-01 2.116142958402633667e-01
5.910000000000000000e+03 3.509112930297851562e+01 -1.511247253417968750e+01 -3.900991316641011508e-07 -2.997928959302953444e-06 -1.016408418763603549e-06 -3.800285412580706179e-06
5.911000000000000000e+03 5.927515506744384766e+00 -1.656567573547363281e+01 -1.535952906124293804e-04 -1.650352060096338391e-04 -9.558915189700201154e-05 -1.751082018017768860e-04
5.912000000000000000e+03 5.891866207122802734e+00 -1.587962722778320312e+01 2.127239567926153541e-04 1.105033734347671270e-04 9.696820052340626717e-05 1.687832118477672338e-04
5.913000000000000000e+03 6.498432636260986328e+00 -1.709190559387207031e+01 -2.592181845102459192e-04 2.306104761373717338e-06 -7.707362237852066755e-05 2.228648736490868032e-05
5.914000000000000000e+03 4.165723037719726562e+01 -1.315316104888916016e+01 5.951535968051757663e-06 -1.922022875078255311e-06 1.208853859679948073e-06 -3.393271072127390653e-06
5.915000000000000000e+03 1.235932064056396484e+01 -8.399858474731445312e+00 6.659342761849984527e-05 1.701765359030105174e-05 2.508332363504450768e-05 -5.739539483329281211e-05
5.916000000000000000e+03 7.396985626220703125e+01 2.785290336608886719e+01 2.099569588899612427e-01 9.284575581550598145e-01 3.415243625640869141e-01 2.884185016155242920e-01
5.917000000000000000e+03 6.483964443206787109e+00 7.757397651672363281e+00 1.508549667050829157e-05 1.505315161409725988e-08 4.530164915195200592e-06 -3.284789727331371978e-06
5.918000000000000000e+03 1.713701248168945312e+01 5.742097377777099609e+00 1.595147523403284140e-06 -9.276996024709660560e-06 -2.304554755028220825e-06 3.393538918317062780e-06
5.919000000000000000e+03 1.293672275543212891e+01 -8.712629318237304688e+00 -1.057288100128062069e-04 -1.821896830733749084e-06 -3.226521221222355962e-05 3.801597267738543451e-05
5.920000000000000000e+03 4.480213928222656250e+01 -1.063025379180908203e+01 -2.962674670925480314e-06 -7.878804353822488338e-06 -3.252443775636493228e-06 -1.624354013074480463e-06
5.921000000000000000e+03 7.329103088378906250e+01 -1.415004920959472656e+01 -1.478838324546813965e-01 4.421690702438354492e-01 8.828557282686233521e-02 -2.059166282415390015e-01
5.922000000000000000e+03 4.454867172241210938e+01 -3.506537675857543945e+00 3.350089059495076071e-07 3.201737126801162958e-05 9.705714546726085246e-06 6.806619239796418697e-06
5.923000000000000000e+03 1.173744869232177734e+01 -7.473113536834716797e+00 -7.248362089740112424e-05 -2.468299135216511786e-05 -2.914998185588046908e-05 -1.595685353095177561e-05
5.924000000000000000e+03 3.514650344848632812e+01 -1.414721965789794922e+01 9.131128535955213010e-06 -4.643106876756064594e-07 2.600045263534411788e-06 3.070128968829521909e-06
5.925000000000000000e+03 7.285835266113281250e+01 -1.240484714508056641e+01 -1.440564095973968506e-01 6.303189992904663086e-01 1.458787769079208374e-01 -2.335109859704971313e-01
5.926000000000000000e+03 7.339275360107421875e+01 -1.230036449432373047e+01 -1.243401467800140381e-01 5.023337602615356445e-01 1.133980825543403625e-01 -2.731408476829528809e-01
5.927000000000000000e+03 3.455813598632812500e+01 -1.342152690887451172e+01 7.266330612765159458e-06 1.951695139723597094e-06 2.765407771221362054e-06 5.815201348013943061e-06
5.928000000000000000e+03 1.885319137573242188e+01 4.942026138305664062e+00 1.592352055013179779e-05 4.187590548099251464e-06 6.033333193045109510e-06 -1.405633793183369562e-05
5.929000000000000000e+03 4.456875610351562500e+01 -1.013185596466064453e+01 8.210069609049241990e-06 1.232858357980148867e-05 6.161596047604689375e-06 4.104312836261669872e-07
5.930000000000000000e+03 5.987221240997314453e+00 2.444981384277343750e+01 9.868045708572026342e-06 2.815541483869310468e-05 1.140703807323006913e-05 -1.559337943035643548e-05
5.931000000000000000e+03 4.350725173950195312e+01 -7.514194250106811523e-01 -1.876304668257944286e-05 -2.845887320290785283e-05 -1.416657596564618871e-05 1.171729581983527169e-05
5.932000000000000000e+03 1.891521453857421875e+01 5.963881015777587891e+00 1.195515596918994561e-05 6.113922609074506909e-06 5.420723482529865578e-06 -1.739643812470603734e-05
5.933000000000000000e+03 7.740193843841552734e+00 -9.818308830261230469e+00 1.566671708133071661e-04 6.641860636591445655e-06 4.899270788882859051e-05 4.403006096254102886e-05
5.934000000000000000e+03 8.764899253845214844e+00 -1.039942836761474609e+01 7.575804943371622358e-07 -9.202767250826582313e-05 -2.738102739385794848e-05 -2.999879143317230046e-05
5.935000000000000000e+03 6.381712436676025391e+00 2.353671455383300781e+01 7.907835424703080207e-06 -1.760508325787668582e-06 1.844198209255409893e-06 4.671117949328618124e-06
5.936000000000000000e+03 9.959493637084960938e+00 -6.701690196990966797e+00 -5.695027721230871975e-05 -3.325404759380035102e-05 -2.706129635043907911e-05 -3.903640390490181744e-05
5.937000000000000000e+03 3.700879287719726562e+01 1.725910949707031250e+01 7.723624730715528131e-05 1.776765930117107928e-05 2.850117198249790817e-05 8.579816494602710009e-06
5.938000000000000000e+03 4.295981597900390625e+01 -6.566375494003295898e-01 3.515497155603952706e-05 3.457725688349455595e-05 2.091966962325386703e-05 -6.957931418583029881e-06
5.939000000000000000e+03 3.408854675292968750e+01 -1.278310012817382812e+01 7.532261861342703924e-06 2.486721541572478600e-06 3.005694907187717035e-06 5.567012067331233993e-06
5.940000000000000000e+03 3.404692459106445312e+01 -1.232108306884765625e+01 8.951962513492617290e-07 -2.467456397425848991e-06 -4.716780210856086342e-07 -3.669964144137338735e-06
5.941000000000000000e+03 3.430414962768554688e+01 -1.155739593505859375e+01 1.143692202276724856e-06 -3.282031912021921016e-06 -6.415019129235588480e-07 -6.153138656372902915e-06
5.942000000000000000e+03 2.075642776489257812e+01 4.453041076660156250e+00 -6.129504527052631602e-06 -1.454785160603933036e-05 -6.203206794452853501e-06 3.924166321667144075e-06
5.943000000000000000e+03 5.981804370880126953e+00 -1.059025096893310547e+01 -6.316175858955830336e-05 -1.992849684029351920e-05 -2.492707608325872570e-05 -9.228855196852236986e-05
5.944000000000000000e+03 4.191202926635742188e+01 -7.649233818054199219e+00 -2.131067230948247015e-05 1.455696633456682321e-06 -5.956492714176420122e-06 4.896704012935515493e-06
5.945000000000000000e+03 1.608094406127929688e+01 1.158594799041748047e+01 -2.517074608476832509e-05 2.070605478365905583e-05 -1.339406935585429892e-06 -2.975334973598364741e-05
5.946000000000000000e+03 1.922919082641601562e+01 7.727427482604980469e+00 9.896527444652747363e-06 2.300584583281306550e-06 3.659133653854951262e-06 -2.030771247518714517e-05
5.947000000000000000e+03 1.902086257934570312e+01 8.196525573730468750e+00 1.438298477296484634e-05 -1.032655109156621620e-05 1.216930058944853954e-06 -6.138856406323611736e-06
5.948000000000000000e+03 1.793532943725585938e+01 9.477514266967773438e+00 -2.581474473117850721e-05 2.022593980655074120e-05 -1.676641886660945602e-06 -9.488104296906385571e-06
5.949000000000000000e+03 4.137477493286132812e+01 -8.244620323181152344e+00 -2.042647065536584705e-05 4.809255187865346670e-06 -4.685164640250150114e-06 1.665671675254998263e-06
5.950000000000000000e+03 2.742991256713867188e+01 1.404347229003906250e+01 2.717119969020131975e-05 -2.759185190370772034e-05 -1.261955020481764222e-07 -4.114343937544617802e-06
5.951000000000000000e+03 1.572589111328125000e+01 1.213557338714599609e+01 -5.237148070591501892e-05 4.549549430521437898e-06 -1.434657951904227957e-05 3.098621164099313319e-05
5.952000000000000000e+03 3.978536987304687500e+01 9.646747708320617676e-01 5.599620180873898789e-06 -2.629635673656594008e-05 -6.209021194081287831e-06 -1.773779274572007125e-07
5.953000000000000000e+03 4.001855087280273438e+01 4.168888032436370850e-01 1.446048008801881224e-05 2.513781873858533800e-05 1.187948964798124507e-05 3.560760887921787798e-05
5.954000000000000000e+03 1.620348548889160156e+01 1.274117851257324219e+01 3.652375380625016987e-05 -1.248240732820704579e-05 7.212403943412937224e-06 -3.549379835021682084e-05
5.955000000000000000e+03 3.077544975280761719e+01 -6.150223731994628906e+00 1.329089286628004629e-06 -9.178511959362367634e-07 1.233714499448979041e-07 6.655964625679189339e-06
5.956000000000000000e+03 4.031227493286132812e+01 -3.992239236831665039e+00 1.715874896035529673e-05 2.452012267895042896e-06 5.883228368475101888e-06 -4.907876700599445030e-06
5.957000000000000000e+03 2.119388771057128906e+01 5.740381717681884766e+00 -2.196700052081723697e-06 9.200296517519745976e-06 2.101078962368774228e-06 -1.184661232400685549e-05
5.958000000000000000e+03 1.068744754791259766e+01 1.748890304565429688e+01 -3.136863961117342114e-05 1.968558763110195287e-06 -8.820024049782659858e-06 -1.323122614849125966e-05
5.959000000000000000e+03 1.582128429412841797e+01 1.384428024291992188e+01 4.939227073919028044e-05 -3.109684621449559927e-05 5.488627721206285059e-06 -1.277977935387752950e-05
5.960000000000000000e+03 1.774677848815917969e+01 1.543062782287597656e+01 3.700536399264819920e-05 -2.150904401787556708e-05 4.648895810532849282e-06 -1.294049070565961301e-05
5.961000000000000000e+03 3.841143417358398438e+01 -7.901891231536865234e+00 2.422918896627379581e-06 2.555683806804154301e-07 8.035461860345094465e-07 5.371951829147292301e-06
5.962000000000000000e+03 3.961861801147460938e+01 4.573837295174598694e-02 1.124428399634780362e-05 8.726152032068057451e-07 3.635069560914416797e-06 1.816656549635808915e-05
5.963000000000000000e+03 3.796083831787109375e+01 -8.256897926330566406e+00 -4.365306551790126832e-07 -3.581185637813177891e-06 -1.205314902108511887e-06 -6.616312020923942327e-06
5.964000000000000000e+03 1.771582984924316406e+01 1.460318946838378906e+01 -5.237868026597425342e-05 2.958317782031372190e-05 -6.838651188445510343e-06 -2.294288788107223809e-05
5.965000000000000000e+03 2.155856323242187500e+01 8.834540367126464844e+00 -1.819618410081602633e-05 -2.530542224121745676e-05 -1.305048226640792564e-05 1.842723941081203520e-05
5.966000000000000000e+03 4.009946823120117188e+01 -1.244628801941871643e-01 -3.711400495376437902e-05 -1.431352393410634249e-05 -1.542825884826015681e-05 -2.294807927682995796e-05
5.967000000000000000e+03 3.044027900695800781e+01 -4.425379753112792969e+00 4.977659955329727381e-06 -1.382007576467003673e-05 -2.652724560903152451e-06 -8.222466931329108775e-06
5.968000000000000000e+03 3.720878219604492188e+01 -7.233879089355468750e+00 -6.377743375196587294e-06 -1.271393216484284494e-06 -2.294741079822415486e-06 -1.318227987212594599e-05
5.969000000000000000e+03 3.733934402465820312e+01 -6.044592380523681641e+00 1.972395511984359473e-05 8.799231181910727173e-06 8.556955435778945684e-06 2.035660600085975602e-06
5.970000000000000000e+03 2.346767425537109375e+01 8.545786857604980469e+00 6.941440915397834033e-07 -3.888686478603631258e-05 -1.145781607192475349e-05 -1.067804623744450510e-05
5.971000000000000000e+03 3.803849792480468750e+01 -4.230961322784423828e+00 2.565086469985544682e-05 5.819690045427705627e-07 7.869850378483533859e-06 -5.755079655500594527e-06
5.972000000000000000e+03 3.730570983886718750e+01 -5.422876358032226562e+00 -1.504765987192513421e-05 -9.711440725368447602e-06 -7.427730452036485076e-06 7.508499493269482628e-06
5.973000000000000000e+03 3.592045593261718750e+01 -5.615993499755859375e+00 -1.769323534972500056e-05 -5.494755441759480163e-06 -6.956397101021138951e-06 -3.439281272221705876e-06
5.974000000000000000e+03 3.214774703979492188e+01 -3.709958791732788086e-01 1.023777895170496777e-05 -2.483814751030877233e-05 -4.380110567581141368e-06 2.106896090481313877e-06
5.975000000000000000e+03 3.244305419921875000e+01 6.893815994262695312e+00 1.783454717951826751e-05 6.982415015954757109e-06 7.445088613167172298e-06 1.622355739527847618e-05
5.976000000000000000e+03 2.946758842468261719e+01 4.453379154205322266e+00 4.333771357778459787e-05 -4.527931196207646281e-06 1.164293462352361530e-05 2.286879407620290294e-06
5.977000000000000000e+03 7.206779479980468750e+01 -2.797376441955566406e+01 4.602202214300632477e-03 2.720172517001628876e-03 2.196712419390678406e-03 7.972095772856846452e-05
5.978000000000000000e+03 7.163449096679687500e+01 -2.849675369262695312e+01 -2.470333361998200417e-03 -1.159597537480294704e-03 -1.088979304768145084e-03 1.759207807481288910e-03
5.979000000000000000e+03 7.278516387939453125e+01 -2.773463439941406250e+01 -3.625201352406293154e-04 -8.907252340577542782e-04 -3.759736136998981237e-04 1.024640165269374847e-03
5.980000000000000000e+03 7.154833221435546875e+01 -2.768790435791015625e+01 -1.468824339099228382e-03 -5.790193099528551102e-04 -6.143531063571572304e-04 -8.343616500496864319e-04
5.981000000000000000e+03 7.119051361083984375e+01 -2.841368675231933594e+01 3.892724402248859406e-03 -1.879085757536813617e-04 1.111444667913019657e-03 9.160476038232445717e-04
5.982000000000000000e+03 7.284385681152343750e+01 -2.847771072387695312e+01 5.829532747156918049e-04 -3.766235604416579008e-04 6.189891428221017122e-05 -9.736593347042798996e-04
5.983000000000000000e+03 7.219528198242187500e+01 -2.851841163635253906e+01 -2.854546764865517616e-03 1.215579453855752945e-03 -4.916901816613972187e-04 -1.497457153163850307e-03
5.984000000000000000e+03 7.886897277832031250e+01 -2.760441207885742188e+01 3.788236062973737717e-04 -1.698336272966116667e-04 6.269699224503710866e-05 -1.447802060283720493e-04
5.985000000000000000e+03 7.737269592285156250e+01 -2.844452857971191406e+01 -7.222882704809308052e-04 7.660988194402307272e-05 -1.937035121954977512e-04 3.439160063862800598e-04
5.986000000000000000e+03 7.662137603759765625e+01 -2.849273109436035156e+01 -6.311720790108665824e-05 -3.430728975217789412e-04 -1.218570323544554412e-04 -1.721053558867424726e-04
5.987000000000000000e+03 7.962478637695312500e+01 -2.830734443664550781e+01 5.764186498709022999e-04 1.235908130183815956e-04 2.100028505083173513e-04 -1.446866081096231937e-04
5.988000000000000000e+03 7.887425231933593750e+01 -2.835246086120605469e+01 -5.403854302130639553e-04 1.373838604195043445e-04 -1.209004694828763604e-04 -3.361282870173454285e-05
5.989000000000000000e+03 7.812364959716796875e+01 -2.839767646789550781e+01 4.920178325846791267e-04 -3.203497035428881645e-04 5.150044307811185718e-05 -3.928934165742248297e-04
5.990000000000000000e+03 7.736037445068359375e+01 -2.770089721679687500e+01 7.031352142803370953e-04 -1.438477484043687582e-04 1.677862310316413641e-04 -1.329370425082743168e-04
5.991000000000000000e+03 7.962302398681640625e+01 -2.755708694458007812e+01 -1.229921617778018117e-04 1.105809496948495507e-04 -3.723363988683559000e-06 -3.456661215750500560e-05
5.992000000000000000e+03 7.811484527587890625e+01 -2.765183639526367188e+01 2.262755588162690401e-04 1.436346501577645540e-04 1.109730656025931239e-04 3.256619675084948540e-05
5.993000000000000000e+03 7.660552978515625000e+01 -2.775131034851074219e+01 4.079218197148293257e-04 -7.658995855308603495e-06 1.200788465212099254e-04 1.865341619122773409e-04
5.994000000000000000e+03 4.454376983642578125e+01 -2.153533744812011719e+01 -7.382307052612304688e-01 -1.551241725683212280e-01 -2.680064737796783447e-01 -3.887985348701477051e-01
5.995000000000000000e+03 4.525796890258789062e+01 -2.133341026306152344e+01 -1.066999316215515137e+00 -1.853389441967010498e-01 -3.757014572620391846e-01 -4.757023155689239502e-01
5.996000000000000000e+03 4.405188369750976562e+01 -2.244241142272949219e+01 -4.265225827693939209e-01 -3.289208710193634033e-01 -2.266330420970916748e-01 -5.575613379478454590e-01
5.997000000000000000e+03 4.615114593505859375e+01 -2.184869003295898438e+01 -1.193231701850891113e+00 -3.112680613994598389e-01 -4.513499438762664795e-01 -8.342445492744445801e-01
5.998000000000000000e+03 4.545270156860351562e+01 -2.204736137390136719e+01 -8.797424435615539551e-01 -3.439277708530426025e-01 -3.671010732650756836e-01 -7.541375756263732910e-01
5.999000000000000000e+03 4.475288772583007812e+01 -2.224522018432617188e+01 -6.337161064147949219e-01 -3.449815809726715088e-01 -2.936093211174011230e-01 -6.582763791084289551e-01
6.000000000000000000e+03 4.597079086303710938e+01 -2.113067054748535156e+01 -1.377474308013916016e+00 -1.686865389347076416e-01 -4.638482630252838135e-01 -5.445407032966613770e-01
6.001000000000000000e+03 4.382838821411132812e+01 -2.173659515380859375e+01 -4.302864968776702881e-01 -1.459090262651443481e-01 -1.728586554527282715e-01 -2.779114544391632080e-01
6.002000000000000000e+03 4.742242813110351562e+01 -2.080677986145019531e+01 -2.237677097320556641e+00 -1.847390383481979370e-01 -7.267248630523681641e-01 -6.792653203010559082e-01
6.003000000000000000e+03 4.815383148193359375e+01 -2.066137695312500000e+01 -2.697186470031738281e+00 -1.986383199691772461e-01 -8.687474131584167480e-01 -7.723806500434875488e-01
6.004000000000000000e+03 4.686201095581054688e+01 -2.167665290832519531e+01 -1.496174454689025879e+00 -3.198927640914916992e-01 -5.448201298713684082e-01 -9.341987967491149902e-01
6.005000000000000000e+03 4.830693054199218750e+01 -2.138541984558105469e+01 -2.160428285598754883e+00 -3.548699021339416504e-01 -7.545894384384155273e-01 -1.085882544517517090e+00
6.006000000000000000e+03 4.888698577880859375e+01 -2.051945686340332031e+01 -3.149939298629760742e+00 -2.197604328393936157e-01 -1.010909914970397949e+00 -8.607490062713623047e-01
6.007000000000000000e+03 4.903206253051757812e+01 -2.124509811401367188e+01 -2.518860816955566406e+00 -3.486120402812957764e-01 -8.602418899536132812e-01 -1.164434075355529785e+00
6.008000000000000000e+03 4.758355331420898438e+01 -2.152922821044921875e+01 -1.809650540351867676e+00 -3.310248553752899170e-01 -6.422026157379150391e-01 -1.013989567756652832e+00
6.009000000000000000e+03 4.669285964965820312e+01 -2.095580101013183594e+01 -1.767138600349426270e+00 -1.562048196792602539e-01 -5.770030617713928223e-01 -5.987111926078796387e-01
6.010000000000000000e+03 5.036022949218750000e+01 -2.024225044250488281e+01 -4.118852615356445312e+00 -2.577346861362457275e-01 -1.312976241111755371e+00 -1.042082786560058594e+00
6.011000000000000000e+03 5.123764038085937500e+01 -2.082924842834472656e+01 -3.590135812759399414e+00 -4.066476523876190186e-01 -1.199035048484802246e+00 -1.376017093658447266e+00
6.012000000000000000e+03 4.976291656494140625e+01 -2.110580253601074219e+01 -2.876304864883422852e+00 -3.781774938106536865e-01 -9.763447046279907227e-01 -1.242268323898315430e+00
6.013000000000000000e+03 5.197274780273437500e+01 -2.068717575073242188e+01 -3.936494112014770508e+00 -3.949886262416839600e-01 -1.299444794654846191e+00 -1.433885335922241211e+00
6.014000000000000000e+03 5.050101470947265625e+01 -2.096874237060546875e+01 -3.228956460952758789e+00 -3.746333420276641846e-01 -1.081076860427856445e+00 -1.315276861190795898e+00
6.015000000000000000e+03 5.183234024047851562e+01 -1.996061325073242188e+01 -5.107036590576171875e+00 -2.983576059341430664e-01 -1.621618270874023438e+00 -1.236801862716674805e+00
6.016000000000000000e+03 4.962194442749023438e+01 -2.037934684753417969e+01 -3.623544692993164062e+00 -2.224986106157302856e-01 -1.153813004493713379e+00 -9.495201110839843750e-01
6.017000000000000000e+03 5.109704208374023438e+01 -2.010272216796875000e+01 -4.608989715576171875e+00 -2.605095505714416504e-01 -1.460849761962890625e+00 -1.141509175300598145e+00
6.018000000000000000e+03 5.405023574829101562e+01 -1.952743339538574219e+01 -6.449732780456542969e+00 -3.445283174514770508e-01 -2.038278341293334961e+00 -1.525845527648925781e+00
6.019000000000000000e+03 5.331044006347656250e+01 -1.967299842834472656e+01 -6.008043766021728516e+00 -3.433999419212341309e-01 -1.905433177947998047e+00 -1.428545117378234863e+00
6.020000000000000000e+03 5.271442794799804688e+01 -2.054370307922363281e+01 -4.274567604064941406e+00 -4.255972504615783691e-01 -1.410049438476562500e+00 -1.475511670112609863e+00
6.021000000000000000e+03 5.495590972900390625e+01 -2.010264968872070312e+01 -4.963410854339599609e+00 -5.305509567260742188e-01 -1.648188591003417969e+00 -1.541352987289428711e+00
6.022000000000000000e+03 5.478977203369140625e+01 -1.938115119934082031e+01 -6.950454711914062500e+00 -5.163221359252929688e-01 -2.240032911300659180e+00 -1.701125979423522949e+00
6.023000000000000000e+03 5.420899581909179688e+01 -2.025038337707519531e+01 -4.867535591125488281e+00 -4.926175475120544434e-01 -1.608045935630798340e+00 -1.574090361595153809e+00
6.024000000000000000e+03 5.257042312622070312e+01 -1.981785011291503906e+01 -5.573045253753662109e+00 -3.075713217258453369e-01 -1.764184951782226562e+00 -1.337750434875488281e+00
6.025000000000000000e+03 5.346182250976562500e+01 -2.039739990234375000e+01 -4.591967582702636719e+00 -3.971631824970245361e-01 -1.496739268302917480e+00 -1.514587044715881348e+00
6.026000000000000000e+03 5.553008651733398438e+01 -1.920907402038574219e+01 -7.118691921234130859e+00 -5.749002695083618164e-01 -2.308077812194824219e+00 -1.905576109886169434e+00
6.027000000000000000e+03 5.725695419311523438e+01 -1.950564956665039062e+01 -5.118014335632324219e+00 -6.110073924064636230e-01 -1.718706488609313965e+00 -1.521592020988464355e+00
6.028000000000000000e+03 5.571527862548828125e+01 -1.992561912536621094e+01 -5.110424995422363281e+00 -5.594642758369445801e-01 -1.700966715812683105e+00 -1.467172384262084961e+00
6.029000000000000000e+03 5.802567672729492188e+01 -1.928994750976562500e+01 -4.672049522399902344e+00 -6.746510267257690430e-01 -1.604010224342346191e+00 -1.193867802619934082e+00
6.030000000000000000e+03 5.701029205322265625e+01 -1.880601882934570312e+01 -7.076624393463134766e+00 -5.490654110908508301e-01 -2.287706851959228516e+00 -2.050639390945434570e+00
6.031000000000000000e+03 5.627075195312500000e+01 -1.900946998596191406e+01 -7.020404815673828125e+00 -6.213236451148986816e-01 -2.292518377304077148e+00 -1.992589950561523438e+00
6.032000000000000000e+03 5.774827575683593750e+01 -1.859877204895019531e+01 -7.269268989562988281e+00 -1.088622808456420898e+00 -2.507367372512817383e+00 -2.269433498382568359e+00
6.033000000000000000e+03 5.648667907714843750e+01 -1.971755790710449219e+01 -5.238240718841552734e+00 -4.160199165344238281e-01 -1.696278214454650879e+00 -1.453286767005920410e+00
6.034000000000000000e+03 5.914070129394531250e+01 -1.790256118774414062e+01 -4.585140705108642578e+00 -1.025622844696044922e+00 -1.683229088783264160e+00 -2.218150854110717773e+00
6.035000000000000000e+03 5.952583312988281250e+01 -1.853448677062988281e+01 -4.271815299987792969e+00 3.967059776186943054e-02 -1.269643425941467285e+00 -9.347733259201049805e-01
6.036000000000000000e+03 6.026574707031250000e+01 -1.809379196166992188e+01 -3.370094299316406250e+00 -3.408983722329139709e-02 -1.021255254745483398e+00 -8.240081667900085449e-01
6.037000000000000000e+03 5.878223419189453125e+01 -1.896722793579101562e+01 -4.642385005950927734e+00 -2.622121572494506836e-01 -1.471379041671752930e+00 -7.885737419128417969e-01
6.038000000000000000e+03 6.099867248535156250e+01 -1.764663124084472656e+01 -2.747856855392456055e+00 3.009807765483856201e-01 -7.340627908706665039e-01 -3.846288919448852539e-01
6.039000000000000000e+03 6.048994827270507812e+01 -1.708762741088867188e+01 -3.063812732696533203e+00 -9.561376571655273438e-01 -1.205985069274902344e+00 -1.508739233016967773e+00
6.040000000000000000e+03 5.845867919921875000e+01 -1.829862213134765625e+01 -6.202364921569824219e+00 -1.358412265777587891e+00 -2.268233060836791992e+00 -2.483676195144653320e+00
6.041000000000000000e+03 5.981904220581054688e+01 -1.749854469299316406e+01 -3.789503574371337891e+00 -8.685453534126281738e-01 -1.397414684295654297e+00 -1.785480260848999023e+00
6.042000000000000000e+03 6.402727508544921875e+01 -1.271552276611328125e+01 1.895738095045089722e-01 8.574374318122863770e-01 3.141033649444580078e-01 4.451808631420135498e-01
6.043000000000000000e+03 6.380668258666992188e+01 -1.227172660827636719e+01 4.242179393768310547e-01 7.449873089790344238e-01 3.507615923881530762e-01 5.642593502998352051e-01
6.044000000000000000e+03 6.272046661376953125e+01 -1.348059082031250000e+01 8.843169361352920532e-02 3.776008486747741699e-01 1.398097574710845947e-01 2.501885890960693359e-01
6.045000000000000000e+03 6.233646774291992188e+01 -1.424217128753662109e+01 -1.741883531212806702e-02 3.438940942287445068e-01 9.794258326292037964e-02 1.029331460595130920e-01
6.046000000000000000e+03 6.320759963989257812e+01 -1.283876991271972656e+01 2.844798266887664795e-01 4.579776525497436523e-01 2.227372527122497559e-01 3.497878015041351318e-01
6.047000000000000000e+03 6.191486740112304688e+01 -1.504099369049072266e+01 -2.486230432987213135e-01 1.586232930421829224e-01 -2.699992433190345764e-02 -7.215919345617294312e-02
6.048000000000000000e+03 6.146208190917968750e+01 -1.579368782043457031e+01 -4.634461104869842529e-01 -1.664810329675674438e-01 -1.889781504869461060e-01 -4.310955405235290527e-01
6.049000000000000000e+03 6.157229995727539062e+01 -1.706605529785156250e+01 -2.245094776153564453e+00 5.978926420211791992e-01 -4.941606223583221436e-01 -4.258193373680114746e-01
6.050000000000000000e+03 6.103482818603515625e+01 -1.651921463012695312e+01 -1.667635202407836914e+00 -7.839468717575073242e-01 -7.354746460914611816e-01 -9.928333759307861328e-01
6.051000000000000000e+03 6.333194351196289062e+01 -1.445269775390625000e+01 -2.978357076644897461e-01 7.235500812530517578e-01 1.277143061161041260e-01 1.628959774971008301e-01
6.052000000000000000e+03 6.292004776000976562e+01 -1.500307941436767578e+01 -4.488136172294616699e-01 5.779708623886108398e-01 3.874718397855758667e-02 1.687840558588504791e-02
6.053000000000000000e+03 6.244241333007812500e+01 -1.561077976226806641e+01 -6.486183404922485352e-01 4.723477065563201904e-01 -5.288119614124298096e-02 -2.176549434661865234e-01
6.054000000000000000e+03 6.199459075927734375e+01 -1.635200119018554688e+01 -1.442261457443237305e+00 3.920806348323822021e-01 -3.150542378425598145e-01 -5.242738127708435059e-01
6.055000000000000000e+03 6.320372772216796875e+01 -1.367209625244140625e+01 3.762390837073326111e-02 5.641367435455322266e-01 1.805281937122344971e-01 2.786047160625457764e-01
6.056000000000000000e+03 6.398506927490234375e+01 -1.320908164978027344e+01 3.555871918797492981e-02 8.781313300132751465e-01 2.741070091724395752e-01 4.012472331523895264e-01
6.057000000000000000e+03 6.356098175048828125e+01 -1.309696006774902344e+01 1.156683191657066345e-01 6.698958873748779297e-01 2.356692701578140259e-01 3.867467641830444336e-01
6.058000000000000000e+03 6.368701171875000000e+01 -1.380088424682617188e+01 -1.638242006301879883e-01 7.803347706794738770e-01 1.849531829357147217e-01 2.522552013397216797e-01
6.059000000000000000e+03 6.288738632202148438e+01 -1.437610435485839844e+01 -2.172489017248153687e-01 4.877266287803649902e-01 8.114331960678100586e-02 8.534251898527145386e-02
6.060000000000000000e+03 5.989504241943359375e+01 -1.551336479187011719e+01 1.306285753344127443e-06 2.505304792066453956e-06 1.143477220466593280e-06 8.826595490063482430e-07
6.061000000000000000e+03 6.046890640258789062e+01 -1.599821758270263672e+01 -1.269898007194569800e-06 -1.078136392607120797e-06 -7.044102972031396348e-07 9.495711594809108647e-08
6.062000000000000000e+03 6.105422210693359375e+01 -1.447091579437255859e+01 -3.613921535361441784e-07 -7.686577987442433368e-07 -3.390149743154324824e-07 6.805712473578751087e-07
6.063000000000000000e+03 6.223260879516601562e+01 -1.352114868164062500e+01 -1.138582433668489102e-06 -3.255597960105660604e-07 -4.392426831145712640e-07 4.699713542777317343e-07
6.064000000000000000e+03 6.169067382812500000e+01 -1.393711185455322266e+01 7.826892556295206305e-07 5.439706001197919250e-07 3.979979510404518805e-07 -8.418062407145043835e-07
6.065000000000000000e+03 6.092002868652343750e+01 -1.535791873931884766e+01 1.970741777768125758e-06 -1.657302846069796942e-07 5.415034820543951355e-07 -5.214054681346169673e-07
6.066000000000000000e+03 6.189405059814453125e+01 -1.406194686889648438e+01 2.131125938831246458e-06 4.486897182687243912e-07 7.739446914456493687e-07 -6.521124191749549937e-07
6.067000000000000000e+03 6.140942001342773438e+01 -1.470139122009277344e+01 -2.163792487408500165e-06 -2.145574455880705500e-07 -7.135049600037746131e-07 7.602750997648399789e-07
6.068000000000000000e+03 6.039819717407226562e+01 -1.499867916107177734e+01 -4.181506199074647157e-07 7.053477020235732198e-07 8.615911895049066516e-08 -3.257929677147330949e-07
6.069000000000000000e+03 5.787326049804687500e+01 -1.679512977600097656e+01 2.875283939829387236e-07 -1.128118583437753841e-06 -2.521770454677607631e-07 1.299855853176268283e-06
6.070000000000000000e+03 5.864776611328125000e+01 -1.639934539794921875e+01 -2.823961438025435200e-07 1.231613396157626994e-06 2.847651785486959852e-07 -1.027889311444596387e-06
6.071000000000000000e+03 5.936615371704101562e+01 -1.597429561614990234e+01 3.875595382396568311e-07 -1.387710426570265554e-06 -3.000452579726697877e-07 7.111467539289151318e-07
6.072000000000000000e+03 5.866613388061523438e+01 -1.735568428039550781e+01 2.672497657840722241e-06 1.811641254789719824e-06 1.345241685157816391e-06 -1.575043825141619891e-06
6.073000000000000000e+03 5.803774261474609375e+01 -1.729933929443359375e+01 -1.129342521721810044e-07 -8.351759106517420150e-07 -2.844330424522922840e-07 -1.387539896313683130e-06
6.074000000000000000e+03 5.816012954711914062e+01 -1.773177146911621094e+01 -1.677608452155254781e-06 -8.438582881353795528e-07 -7.564399879811389837e-07 2.022141188717796467e-06
6.075000000000000000e+03 5.991773223876953125e+01 -1.650707054138183594e+01 4.322187976413260913e-07 1.191357569041429088e-06 4.870728957939718384e-07 -9.628304269426735118e-07
6.076000000000000000e+03 5.922435760498046875e+01 -1.691722106933593750e+01 -1.453178697374823969e-06 -8.824053452372027095e-07 -7.006751729932148010e-07 1.376937348140927497e-06
6.077000000000000000e+03 5.541037368774414062e+01 -1.842636871337890625e+01 -7.703585538365587126e-07 1.549094349684310146e-06 2.336207529651801451e-07 2.685906395072379382e-07
6.078000000000000000e+03 5.528024673461914062e+01 -1.769467163085937500e+01 5.103154308017110452e-06 1.173282612398907077e-06 1.882931087493489031e-06 -1.065927335730521008e-06
6.079000000000000000e+03 5.680945968627929688e+01 -1.820807456970214844e+01 -1.260617750631354284e-06 5.847698503202991560e-07 -2.027543928306840826e-07 -3.064593840917950729e-07
6.080000000000000000e+03 5.653432083129882812e+01 -1.784011840820312500e+01 6.531006874865852296e-06 -2.459903498674975708e-07 1.885504957499506418e-06 4.974784815203747712e-07
6.081000000000000000e+03 5.749586105346679688e+01 -1.798945617675781250e+01 1.974722636077785864e-06 -2.334860056407705997e-07 5.223709536039677914e-07 -9.400085332345042843e-07
6.082000000000000000e+03 5.704250335693359375e+01 -1.709250259399414062e+01 3.999616637884173542e-07 1.701089786365628242e-06 6.303154123088461347e-07 -1.930501184688182548e-06
6.083000000000000000e+03 5.727741241455078125e+01 -1.754523468017578125e+01 -3.029517301911255345e-06 7.076786232573795132e-07 -6.965515808587952051e-07 2.062159182969480753e-06
6.084000000000000000e+03 5.618411636352539062e+01 -1.738935279846191406e+01 -5.476725618791533634e-06 -1.584929918863053899e-06 -2.118496695402427576e-06 1.768906713550677523e-06
6.085000000000000000e+03 5.616222381591796875e+01 -1.831321144104003906e+01 -7.989335699676303193e-07 -1.099659129977226257e-06 -5.695778213521407451e-07 -4.446189336704264861e-07
6.086000000000000000e+03 5.241899490356445312e+01 -1.905364608764648438e+01 -1.396652038465617807e-07 8.177589734259527177e-07 2.034281436635865248e-07 -2.674328527518810006e-07
6.087000000000000000e+03 5.315275955200195312e+01 -1.891308021545410156e+01 7.305072102781196008e-08 -9.384231702824763488e-07 -2.596117383291129954e-07 3.630045739555498585e-07
6.088000000000000000e+03 5.388480377197265625e+01 -1.876910972595214844e+01 2.569696277987532085e-07 1.318597014687838964e-06 4.726699955881485948e-07 -6.987285132709075697e-07
6.089000000000000000e+03 5.372604370117187500e+01 -1.804615974426269531e+01 3.669335342237900477e-07 9.155349403044965584e-07 3.847405309898022097e-07 3.110841717557377706e-08
6.090000000000000000e+03 5.461503982543945312e+01 -1.862159919738769531e+01 6.110682875259954017e-07 -1.839432570704957470e-06 -3.685092622163210763e-07 6.516697794722858816e-07
6.091000000000000000e+03 5.444890213012695312e+01 -1.790010070800781250e+01 -1.724870344332884997e-06 -1.722569095363724045e-06 -1.034231786434247624e-06 5.417748738523187058e-08
6.092000000000000000e+03 5.227499008178710938e+01 -1.832779121398925781e+01 4.898388397123198956e-07 -8.711634791325195692e-08 1.208167503818913247e-07 8.658206951395186479e-08
6.093000000000000000e+03 5.300137710571289062e+01 -1.818867683410644531e+01 -3.357226319167239126e-07 -2.362229452046449296e-07 -1.715836788207525387e-07 -2.728820049924252089e-07
6.094000000000000000e+03 5.021003341674804688e+01 -1.947287559509277344e+01 1.109421248202124843e-07 -1.090834416572761256e-06 -2.939677017366193468e-07 1.953060575488052564e-07
6.095000000000000000e+03 5.094702148437500000e+01 -1.933323669433593750e+01 -2.778748751097737113e-07 9.605940931578516029e-07 2.048157625722524244e-07 -2.179058640194853069e-07
6.096000000000000000e+03 4.947301483154296875e+01 -1.961274909973144531e+01 -3.402815877961984370e-07 1.117899728342308663e-06 2.332854336373202386e-07 -3.289919732196722180e-07
6.097000000000000000e+03 5.168397521972656250e+01 -1.919383239746093750e+01 1.290898836714404752e-07 -8.633036259197979234e-07 -2.202641127269089338e-07 1.661860693502603681e-07
6.098000000000000000e+03 5.154356384277343750e+01 -1.846726989746093750e+01 -6.384809125847823452e-07 2.919159385328384815e-07 -1.039694907944976876e-07 -1.218151766124719870e-07
6.099000000000000000e+03 4.933204269409179688e+01 -1.888629341125488281e+01 6.824063802923774347e-07 -5.810650804960459936e-07 3.040238638618575351e-08 2.666628802217019256e-07
6.100000000000000000e+03 5.080642700195312500e+01 -1.860671043395996094e+01 6.716145435348153114e-07 -4.913600832878728397e-07 5.407634517951009911e-08 4.903731110061926302e-08
6.101000000000000000e+03 5.006925201416015625e+01 -1.874638557434082031e+01 -8.406440201724763028e-07 5.374437819227750879e-07 -9.096007858033772209e-08 -2.462555812599021010e-07
6.102000000000000000e+03 4.725450897216796875e+01 -2.004898452758789062e+01 -8.376381543939714902e-08 -7.899977845227112994e-07 -2.621284806991752703e-07 2.972013248836447019e-07
6.103000000000000000e+03 4.709337997436523438e+01 -1.932653617858886719e+01 -6.950925808268948458e-07 1.442081725144817028e-07 -1.652653196515529999e-07 -6.494601052509096917e-07
6.104000000000000000e+03 4.651494979858398438e+01 -2.019693183898925781e+01 -3.845438527605438139e-07 5.492823333952401299e-07 4.942153708498153719e-08 -3.982519558576314012e-07
6.105000000000000000e+03 4.799435043334960938e+01 -1.990183448791503906e+01 -3.538438591021986213e-07 9.384244776811101474e-07 1.753741827315025148e-07 -4.153874328949314076e-07
6.106000000000000000e+03 4.873443222045898438e+01 -1.975547790527343750e+01 2.218011907473282918e-08 -1.090492673938570078e-06 -3.204937399914342677e-07 2.887880157231847988e-07
6.107000000000000000e+03 4.858935928344726562e+01 -1.902983856201171875e+01 -8.278083214463549666e-07 4.553812118501809891e-07 -1.117281271945103072e-07 -5.241228677732578944e-07
6.108000000000000000e+03 4.634579849243164062e+01 -1.947607994079589844e+01 3.404943811347038718e-07 -1.030014651348665211e-08 9.905827624834273593e-08 5.006990022593527101e-07
6.109000000000000000e+03 4.784125137329101562e+01 -1.917778968811035156e+01 5.029338012718653772e-07 -3.570020226106862538e-07 4.377953644052468007e-08 4.869691565545508638e-07
6.110000000000000000e+03 4.432126998901367188e+01 -2.078344535827636719e+01 -7.187976791556138778e-08 -9.635260767026920803e-08 -5.046971196520644298e-08 1.030565002224648197e-07
6.111000000000000000e+03 4.505051040649414062e+01 -2.057725715637207031e+01 -3.710060809680726379e-07 1.722997353681421373e-07 -5.961190652215009322e-08 -2.621712269501585979e-07
6.112000000000000000e+03 4.359247589111328125e+01 -2.099166297912597656e+01 -3.616627566316310549e-07 1.292746354408791376e-08 -1.046205895249840978e-07 -1.648894141226264765e-07
6.113000000000000000e+03 4.411215209960937500e+01 -2.007356262207031250e+01 -6.567792070200084709e-07 -2.207171121426654281e-07 -2.632488929066312267e-07 -3.078676513723621611e-07
6.114000000000000000e+03 4.578023910522460938e+01 -2.037289810180664062e+01 -1.523906405509478645e-07 -3.554873444500117330e-07 -1.523633983424588223e-07 2.129280147755707731e-07
6.115000000000000000e+03 4.559988403320312500e+01 -1.965488052368164062e+01 -5.577986144089663867e-07 -1.410389671718803584e-07 -2.096512758953394950e-07 -5.287473641146789305e-07
6.116000000000000000e+03 4.336897659301757812e+01 -2.028584671020507812e+01 4.020513415525783785e-07 3.392981682281970279e-07 2.224048643029163941e-07 2.890861878768191673e-07
6.117000000000000000e+03 4.485577392578125000e+01 -1.986330604553222656e+01 2.537810530611750437e-07 2.087319757038130774e-07 1.387539185770947370e-07 3.501284311369090574e-07
6.118000000000000000e+03 4.104784393310546875e+01 -2.109504699707031250e+01 -4.343265231909754220e-07 2.407175543339690194e-07 -5.808269065710192081e-08 1.916513809874231811e-07
6.119000000000000000e+03 4.266473007202148438e+01 -2.049994087219238281e+01 -1.082664994100923650e-06 -7.660644740781208384e-08 -3.477814232155651553e-07 -5.034411287851980887e-07
6.120000000000000000e+03 4.164785385131835938e+01 -2.166072845458984375e+01 3.550480585090554086e-07 8.551404917511717940e-09 1.090798349423494074e-07 -1.782301097819072311e-07
6.121000000000000000e+03 4.282600402832031250e+01 -2.122967720031738281e+01 1.419506503452794277e-07 3.674829258670797572e-07 1.528300686004513409e-07 2.835954830970877083e-07
6.122000000000000000e+03 4.148378753662109375e+01 -2.086083030700683594e+01 -1.390569792647511349e-07 3.596275064410292543e-07 6.617116099505437887e-08 2.641605689746029384e-08
6.123000000000000000e+03 4.205922317504882812e+01 -2.122107124328613281e+01 -1.168671701634593774e-06 -6.424367029467248358e-07 -5.433325327430793550e-07 -8.871299428392376285e-08
6.124000000000000000e+03 4.202204132080078125e+01 -2.066273307800292969e+01 1.327501649939222261e-06 -4.970497684553265572e-07 2.491355814981943695e-07 3.659502283426263602e-07
6.125000000000000000e+03 4.182039642333984375e+01 -2.331437301635742188e+01 -7.454040460288524628e-03 -1.515899896621704102e-01 -4.771320894360542297e-02 3.743617609143257141e-02
6.126000000000000000e+03 4.184820938110351562e+01 -2.269850349426269531e+01 2.443713694810867310e-02 -6.756595522165298462e-02 -1.293864566832780838e-02 -2.378167025744915009e-02
6.127000000000000000e+03 4.258674240112304688e+01 -2.282795143127441406e+01 -7.415378093719482422e-02 -3.149521350860595703e-01 -1.167317703366279602e-01 -2.249607294797897339e-01
6.128000000000000000e+03 4.327194595336914062e+01 -2.268540954589843750e+01 -2.197962701320648193e-01 -3.308674693107604980e-01 -1.651991158723831177e-01 -4.005101621150970459e-01
6.129000000000000000e+03 4.303801345825195312e+01 -2.198284149169921875e+01 -1.834732294082641602e-01 -1.059627309441566467e-01 -8.683078736066818237e-02 -1.644295603036880493e-01
6.130000000000000000e+03 4.236244201660156250e+01 -2.325310325622558594e+01 -6.824724376201629639e-02 -3.645081520080566406e-01 -1.298266202211380005e-01 -2.408647537231445312e-01
6.131000000000000000e+03 4.224109268188476562e+01 -2.226788902282714844e+01 -3.709365427494049072e-02 -6.332468986511230469e-02 -3.012550249695777893e-02 -5.358757451176643372e-02
6.132000000000000000e+03 4.198795318603515625e+01 -2.336278915405273438e+01 2.586311660706996918e-02 -4.053312540054321289e-01 -1.138404384255409241e-01 -5.228018760681152344e-02
6.133000000000000000e+03 4.218284988403320312e+01 -2.297873306274414062e+01 -2.745065838098526001e-02 -1.510428786277770996e-01 -5.354806035757064819e-02 -1.154304891824722290e-01
6.134000000000000000e+03 1.605741500854492188e+01 -3.611289262771606445e+00 -1.650135527597740293e-05 -2.651507020345889032e-05 -1.290492764383088797e-05 -1.899267772387247533e-05
6.135000000000000000e+03 1.562254238128662109e+01 -4.210125446319580078e+00 1.990670534723903984e-05 2.452344779158011079e-05 1.332904594164574519e-05 1.668279583100229502e-05
6.136000000000000000e+03 1.505074691772460938e+01 -3.785051584243774414e+00 -1.949315446836408228e-05 -2.659820711414795369e-05 -1.382740811095573008e-05 -1.638078720134217292e-05
6.137000000000000000e+03 1.676181221008300781e+01 -5.065579891204833984e+00 2.195712295360863209e-05 2.222451257694046944e-05 1.325449011346790940e-05 1.678591979725752026e-05
6.138000000000000000e+03 1.619318008422851562e+01 -4.636556148529052734e+00 -2.068894173135049641e-05 -2.302445318491663784e-05 -1.311401865677908063e-05 -1.676963802310638130e-05
6.139000000000000000e+03 1.723610115051269531e+01 -4.496263980865478516e+00 -1.850688022386748344e-05 -2.376250631641596556e-05 -1.268081632588291541e-05 -1.903991869767196476e-05
6.140000000000000000e+03 1.546591091156005859e+01 -3.171455383300781250e+00 1.543833423056639731e-05 2.826844138326123357e-05 1.311203322984511033e-05 1.851194974733516574e-05
6.141000000000000000e+03 1.664776039123535156e+01 -4.052479743957519531e+00 1.742714994179550558e-05 2.523742114135529846e-05 1.279937077924842015e-05 1.912708648887928575e-05
6.142000000000000000e+03 1.831977081298828125e+01 -5.492505550384521484e+00 -1.987473660847172141e-05 -2.049440445262007415e-05 -1.211074231832753867e-05 -1.850163062044885010e-05
6.143000000000000000e+03 1.780974006652832031e+01 -6.028855800628662109e+00 2.199505979660898447e-05 1.983386391657404602e-05 1.254867675015702844e-05 1.599973620614036918e-05
6.144000000000000000e+03 1.730055999755859375e+01 -5.529824733734130859e+00 -2.163605677196756005e-05 -2.139501884812489152e-05 -1.290932323172455654e-05 -1.646802775212563574e-05
6.145000000000000000e+03 1.831691551208496094e+01 -6.530111789703369141e+00 -2.265705188619904220e-05 -1.850063381425570697e-05 -1.234730552823748440e-05 -1.558669828227721155e-05
6.146000000000000000e+03 1.882190132141113281e+01 -7.033396244049072266e+00 2.447800761729013175e-05 1.738068021950311959e-05 1.255760616913903505e-05 1.482970583310816437e-05
6.147000000000000000e+03 1.936644935607910156e+01 -6.531159877777099609e+00 -2.141049299098085612e-05 -1.723281275189947337e-05 -1.159299154096515849e-05 -1.732620876282453537e-05
6.148000000000000000e+03 1.779333305358886719e+01 -4.976417064666748047e+00 1.923705349327065051e-05 2.217172186647076160e-05 1.242263260792242363e-05 1.882843207567930222e-05
6.149000000000000000e+03 1.884420585632324219e+01 -6.010818481445312500e+00 2.047381713055074215e-05 1.891738611448090523e-05 1.181736115540843457e-05 1.793360024748835713e-05
6.150000000000000000e+03 2.031454658508300781e+01 -7.659852027893066406e+00 -2.271169978484977037e-05 -1.436324419046286494e-05 -1.112248264689696953e-05 -1.650824560783803463e-05
6.151000000000000000e+03 2.077073287963867188e+01 -8.240385055541992188e+00 2.303847759321797639e-05 1.332209285465069115e-05 1.090817113436060026e-05 1.598777271283324808e-05
6.152000000000000000e+03 1.929654693603515625e+01 -7.565644741058349609e+00 -2.452779335726518184e-05 -1.569326195749454200e-05 -1.206631623063003644e-05 -1.468712798669002950e-05
6.153000000000000000e+03 2.062350273132324219e+01 -9.254287719726562500e+00 2.580214822955895215e-05 1.328009057033341378e-05 1.172467182186665013e-05 1.404650538461282849e-05
6.154000000000000000e+03 2.018299865722656250e+01 -8.690117835998535156e+00 -2.521237547625787556e-05 -1.343408530374290422e-05 -1.159393832494970411e-05 -1.432608951290603727e-05
6.155000000000000000e+03 1.974063491821289062e+01 -8.127175331115722656e+00 2.506674536562059075e-05 1.435824469808721915e-05 1.182749747385969386e-05 1.433127454220084473e-05
6.156000000000000000e+03 2.122505760192871094e+01 -8.822144508361816406e+00 -2.281341585330665112e-05 -1.221094680659007281e-05 -1.050730861607007682e-05 -1.525027255411259830e-05
6.157000000000000000e+03 1.985663604736328125e+01 -7.080731868743896484e+00 2.210545244452077895e-05 1.566959508636500686e-05 1.133251407736679539e-05 1.688564225332811475e-05
6.158000000000000000e+03 2.203341293334960938e+01 -1.005728912353515625e+01 -2.061232771666254848e-05 -9.971799954655580223e-06 -9.175238119496498257e-06 -1.226667882292531431e-05
6.159000000000000000e+03 2.140859222412109375e+01 -1.045394611358642578e+01 2.253250931971706450e-05 1.440600954083492979e-05 1.108155538531718776e-05 1.336728564638178796e-05
6.160000000000000000e+03 2.103163337707519531e+01 -9.842617988586425781e+00 -2.459977986291050911e-05 -1.284721656702458858e-05 -1.123409856518264860e-05 -1.489942587795667350e-05
6.161000000000000000e+03 2.178438568115234375e+01 -1.106581783294677734e+01 -2.277915700688026845e-05 -1.244696522917365655e-05 -1.056783639796776697e-05 -9.850874448602553457e-06
6.162000000000000000e+03 2.215780448913574219e+01 -1.167914867401123047e+01 2.297019091201946139e-05 9.233709533873479813e-06 9.661170224717352539e-06 7.699749403400346637e-06
6.163000000000000000e+03 2.280443191528320312e+01 -1.131808185577392578e+01 -2.140367905667517334e-05 -7.127719072741456330e-06 -8.559419256926048547e-06 -9.344600584881845862e-06
6.164000000000000000e+03 2.164555168151855469e+01 -9.428166389465332031e+00 2.146927545254584402e-05 1.111611527448985726e-05 9.775617400009650737e-06 1.421390243194764480e-05
6.165000000000000000e+03 2.242011070251464844e+01 -1.068695640563964844e+01 1.992421493923757225e-05 7.960268703754991293e-06 8.365344910998828709e-06 1.102989972423529252e-05
6.166000000000000000e+03 2.317627334594726562e+01 -1.198854827880859375e+01 2.022003536694683135e-05 4.543976501736324281e-06 7.429203378706006333e-06 8.614874786871951073e-06
6.167000000000000000e+03 2.249586677551269531e+01 -1.228262519836425781e+01 -2.377150849497411400e-05 -6.777702765248250216e-06 -9.164763469016179442e-06 -6.751407909177942201e-06
6.168000000000000000e+03 2.472507476806640625e+01 -1.492280006408691406e+01 9.202004548569675535e-06 1.595927074049541261e-06 3.239379566366551444e-06 3.510491524139069952e-06
6.169000000000000000e+03 2.432830429077148438e+01 -1.420704555511474609e+01 -1.145597252616425976e-05 -3.428573791097733192e-06 -4.465363872441230342e-06 -3.624289092840626836e-06
6.170000000000000000e+03 2.347621726989746094e+01 -1.372449684143066406e+01 -3.261569190726731904e-06 -6.637378078266920056e-07 -1.177592139356420375e-06 5.278426669974578544e-06
6.171000000000000000e+03 2.353110694885253906e+01 -1.271993827819824219e+01 -1.649136720516253263e-05 -4.245759100740542635e-06 -6.221137937245657668e-06 -7.518785878346534446e-06
6.172000000000000000e+03 2.444098472595214844e+01 -1.518375492095947266e+01 2.056125140370568261e-06 6.092993316997308284e-06 2.444735628159833141e-06 2.795019099721685052e-06
6.173000000000000000e+03 2.503612327575683594e+01 -1.553747558593750000e+01 -3.876259142998605967e-06 -2.708879264901042916e-06 -1.975541408683056943e-06 -2.280147100464091636e-06
6.174000000000000000e+03 2.393114471435546875e+01 -1.346158027648925781e+01 1.348467776551842690e-05 4.070516297360882163e-06 5.266558218863792717e-06 5.063432126917177811e-06
6.175000000000000000e+03 2.295725822448730469e+01 -1.346156215667724609e+01 -3.020901749550830573e-05 -5.361528565117623657e-06 -1.067116409103618935e-05 -9.021246114571113139e-06
6.176000000000000000e+03 2.310306739807128906e+01 -1.394699954986572266e+01 1.160045758297201246e-05 1.125808375945780426e-05 6.857562766526825726e-06 6.113763220128021203e-07
6.177000000000000000e+03 2.333634757995605469e+01 -1.442708492279052734e+01 2.591487600511754863e-06 -1.048725880536949262e-05 -2.368731429669423960e-06 1.005830745270941406e-05
6.178000000000000000e+03 2.279407119750976562e+01 -1.289781570434570312e+01 2.476146983099170029e-05 4.102524599147727713e-06 8.659198101668152958e-06 4.162106051808223128e-06
6.179000000000000000e+03 2.378209495544433594e+01 -1.479918479919433594e+01 -9.155742191069293767e-06 -7.019934855634346604e-06 -4.852703114011092111e-06 -3.358077265147585422e-06
6.180000000000000000e+03 2.380115509033203125e+01 -1.430604076385498047e+01 8.421619895671028644e-06 4.674579031416215003e-06 3.928859769075643271e-06 -4.550155153992818668e-06
6.181000000000000000e+03 2.414904594421386719e+01 -1.225111293792724609e+01 2.247273869215860032e-06 1.510467313892149832e-06 1.127322434513189364e-06 4.882360737923363558e-09
6.182000000000000000e+03 2.445840454101562500e+01 -1.291014575958251953e+01 -1.362997409160016105e-06 1.975818690880259965e-07 -3.496246563372551464e-07 -1.291911189582606312e-06
6.183000000000000000e+03 2.665409660339355469e+01 -1.626477622985839844e+01 -2.168836772398208268e-06 -6.796834895794745535e-06 -2.689701432245783508e-06 -3.097249646089039743e-06
6.184000000000000000e+03 2.664365005493164062e+01 -1.577785682678222656e+01 9.005656806948536541e-07 -3.297314833616837859e-06 -7.190247401922533754e-07 6.509062018267286476e-07
6.185000000000000000e+03 2.383864784240722656e+01 -1.159224033355712891e+01 -4.536832705070992233e-07 1.039250491885468364e-06 1.756701664135107421e-07 -2.006020849876222201e-06
6.186000000000000000e+03 2.512674713134765625e+01 -1.258413887023925781e+01 2.551576017140178010e-06 1.078570903700892814e-06 1.089044076252321247e-06 -2.699778178794076666e-07
6.187000000000000000e+03 2.508015632629394531e+01 -1.422547531127929688e+01 -1.683958885223546531e-06 -2.668513161552255042e-07 -5.852430717823153827e-07 -9.692274716144311242e-07
6.188000000000000000e+03 2.576146316528320312e+01 -1.392042350769042969e+01 2.333632892259629443e-06 8.370508908228657674e-07 9.512051519777742215e-07 8.018876940241170814e-08
6.189000000000000000e+03 2.569825172424316406e+01 -1.550395488739013672e+01 -2.524410547266597860e-06 -1.817339807530515827e-06 -1.302525106439134106e-06 -1.866609522949147504e-06
6.190000000000000000e+03 2.449402427673339844e+01 -1.124528026580810547e+01 2.548905285948421806e-06 1.616856479813577607e-06 1.249728484253864735e-06 -8.132320203912968282e-07
6.191000000000000000e+03 2.481090354919433594e+01 -1.191462898254394531e+01 -2.431794321466895781e-08 2.516501069749210728e-07 6.819965392423910089e-08 -1.826953734962444287e-06
6.192000000000000000e+03 2.544330024719238281e+01 -1.325331687927246094e+01 -1.126334041146037634e-06 1.842259500506315817e-08 -3.323734176774451043e-07 -1.206845468004758004e-06
6.193000000000000000e+03 2.607990264892578125e+01 -1.458190250396728516e+01 -1.277636897611955646e-06 -7.288907681868295185e-07 -6.019582770022680052e-07 -7.560359449598763604e-07
6.194000000000000000e+03 2.639252471923828125e+01 -1.521985816955566406e+01 9.926583288688561879e-07 2.397175649093696848e-06 1.016950136545347050e-06 1.144648109629997634e-07
6.195000000000000000e+03 2.608785629272460938e+01 -1.599215316772460938e+01 3.379126383151742630e-06 5.598222742264624685e-06 2.693204578463337384e-06 2.954210685857106000e-06
6.196000000000000000e+03 2.476847457885742188e+01 -1.356884574890136719e+01 2.067357172563788481e-06 7.831963557691778988e-07 8.551660357625223696e-07 4.260453181359480368e-07
6.197000000000000000e+03 2.539211463928222656e+01 -1.487647628784179688e+01 2.101003246934851632e-06 8.270924354292219505e-07 8.784287501839571632e-07 8.896572012417891528e-07
6.198000000000000000e+03 2.269077491760253906e+01 -9.641036033630371094e+00 2.612885964481392875e-06 3.857979663735022768e-06 1.941259824889129959e-06 -2.410668685115524568e-06
6.199000000000000000e+03 2.348543930053710938e+01 -1.093805503845214844e+01 2.261796907987445593e-06 2.728469098656205460e-06 1.497079779255727772e-06 -1.011034100883989595e-06
6.200000000000000000e+03 2.229273414611816406e+01 -8.991255760192871094e+00 3.269936541983042844e-06 3.981394002039451152e-06 2.175399231418850832e-06 -3.792276856984244660e-06
6.201000000000000000e+03 2.308835411071777344e+01 -1.029005146026611328e+01 9.795867299544624984e-07 2.112702759404783137e-06 9.276868695451412350e-07 -2.536365855121403001e-06
6.202000000000000000e+03 2.413209533691406250e+01 -1.057697391510009766e+01 1.519311354059027508e-06 4.128878003939462360e-07 5.796597406515502371e-07 -2.396724539721617475e-06
6.203000000000000000e+03 2.290665245056152344e+01 -8.576805114746093750e+00 3.995186034444486722e-06 3.619324843384674750e-06 2.284353286086115986e-06 -3.557485797500703484e-06
6.204000000000000000e+03 2.331559562683105469e+01 -9.244379997253417969e+00 3.732202230821712874e-06 1.363204319204669446e-06 1.528621965007914696e-06 -3.355884246047935449e-06
6.205000000000000000e+03 2.372407913208007812e+01 -9.911190032958984375e+00 3.151562168568489142e-06 2.879161684177233838e-06 1.809217224035819527e-06 -2.102054168062750250e-06
6.206000000000000000e+03 2.091797065734863281e+01 -7.169854164123535156e+00 5.087224053568206728e-06 6.707327429467113689e-06 3.538365490385331213e-06 -7.199011633929330856e-06
6.207000000000000000e+03 2.044657707214355469e+01 -6.570147991180419922e+00 9.591544767317827791e-06 8.513438842783216387e-06 5.431495083030313253e-06 -6.754036348866065964e-06
6.208000000000000000e+03 2.138868331909179688e+01 -7.768980979919433594e+00 5.751419394073309377e-06 5.749141109845368192e-06 3.450168151175603271e-06 -4.813030500372406095e-06
6.209000000000000000e+03 2.185866355895996094e+01 -8.367236137390136719e+00 3.736888174898922443e-06 5.574437182076508179e-06 2.793397698042099364e-06 -4.795622317033121362e-06
6.210000000000000000e+03 2.246022033691406250e+01 -7.935092449188232422e+00 6.184850008139619604e-06 2.051951014436781406e-06 2.471040261298185214e-06 -3.978951554017839953e-06
6.211000000000000000e+03 2.100666618347167969e+01 -6.085235118865966797e+00 7.909227861091494560e-06 5.505191438714973629e-06 4.024325789941940457e-06 -7.939526767586357892e-06
6.212000000000000000e+03 2.149188232421875000e+01 -6.702531337738037109e+00 9.520569619780872017e-06 3.716866558534093201e-06 3.971230853494489565e-06 -5.265276286081643775e-06
6.213000000000000000e+03 2.197641754150390625e+01 -7.319247722625732422e+00 5.645847977575613186e-06 5.073698957858141512e-06 3.215864126104861498e-06 -5.895666163269197568e-06
6.214000000000000000e+03 1.885587120056152344e+01 -4.930348396301269531e+00 1.100340341508854181e-05 8.369372153538279235e-06 5.811832579638576135e-06 -1.330361919826827943e-05
6.215000000000000000e+03 1.831238174438476562e+01 -4.393686294555664062e+00 1.818818236642982811e-05 1.292202614422421902e-05 9.333062735095154494e-06 -1.027049893309595063e-05
6.216000000000000000e+03 1.939846801757812500e+01 -5.466702461242675781e+00 1.305143814533948898e-05 1.013064047583611682e-05 6.954623586352681741e-06 -8.082104614004492760e-06
6.217000000000000000e+03 1.994004440307617188e+01 -6.002428531646728516e+00 8.426867680100258440e-06 8.118066034512594342e-06 4.963480023434385657e-06 -1.067294306267285720e-05
6.218000000000000000e+03 2.048459243774414062e+01 -5.500192165374755859e+00 1.246596002602018416e-05 5.078176855022320524e-06 5.263240836939075962e-06 -5.782930657005636021e-06
6.219000000000000000e+03 1.880515289306640625e+01 -3.840278863906860352e+00 1.424553647666471079e-05 6.370946721290238202e-06 6.184945050335954875e-06 -1.251132925972342491e-05
6.220000000000000000e+03 1.936590194702148438e+01 -4.393997669219970703e+00 1.649888690735679120e-05 6.957866844459204003e-06 7.037026080070063472e-06 -7.305621693376451731e-06
6.221000000000000000e+03 1.992575645446777344e+01 -4.947409152984619141e+00 1.082400103769032285e-05 6.654423486907035112e-06 5.243527084530796856e-06 -1.087360033125150949e-05
6.222000000000000000e+03 1.695117187500000000e+01 -2.380243301391601562e+00 2.244283859909046441e-05 9.837011020863428712e-06 9.683954885986167938e-06 -8.672099284012801945e-06
6.223000000000000000e+03 1.651630020141601562e+01 -2.979079723358154297e+00 1.916449036798439920e-05 6.965743523323908448e-06 7.839070349291432649e-06 -1.781107675924431533e-05
6.224000000000000000e+03 1.590384101867675781e+01 -2.523920059204101562e+00 2.627146204758901149e-05 1.484504809923237190e-05 1.233495277119800448e-05 -1.212835923070088029e-05
6.225000000000000000e+03 1.712716102600097656e+01 -3.436568260192871094e+00 2.166623016819357872e-05 1.308649098064051941e-05 1.042581607180181891e-05 -1.094828894565580413e-05
6.226000000000000000e+03 1.758174324035644531e+01 -2.852491855621337891e+00 1.749455259414389729e-05 6.660341114184120670e-06 7.246467703225789592e-06 -1.510108268121257424e-05
6.227000000000000000e+03 1.773609352111816406e+01 -3.896142244338989258e+00 1.668425466050393879e-05 8.434315532213076949e-06 7.535571057815104723e-06 -1.647982026042882353e-05
6.228000000000000000e+03 1.821038436889648438e+01 -3.326825857162475586e+00 1.888452970888465643e-05 8.667806469020433724e-06 8.265700671472586691e-06 -7.453120815625879914e-06
6.229000000000000000e+03 1.631900405883789062e+01 -1.910323858261108398e+00 2.043128733930643648e-05 5.605306341749383137e-06 7.810977876943070441e-06 -1.543583675811532885e-05
6.230000000000000000e+03 1.460399055480957031e+01 -1.730789542198181152e+00 2.792063969536684453e-05 1.364996660413453355e-05 1.247118143510306254e-05 -1.118631007557269186e-05
6.231000000000000000e+03 1.394003677368164062e+01 -1.356149435043334961e+00 2.505986958567518741e-05 2.709681439228006639e-06 8.330865057359915227e-06 -1.842954407038632780e-05
6.232000000000000000e+03 1.327490711212158203e+01 -9.841976165771484375e-01 2.995342401845846325e-05 1.454602988815167919e-05 1.334983608103357255e-05 -1.074496231012744829e-05
6.233000000000000000e+03 1.429506587982177734e+01 -7.068015336990356445e-01 2.503426730982027948e-05 1.120991237257840112e-05 1.087325381377013400e-05 -8.597317901148926467e-06
6.234000000000000000e+03 1.497913169860839844e+01 -1.092790365219116211e+00 2.246904296043794602e-05 4.823456947633530945e-06 8.187749699573032558e-06 -1.684022936387918890e-05
6.235000000000000000e+03 1.526644039154052734e+01 -2.107936620712280273e+00 2.463805867591872811e-05 5.442477231554221362e-06 9.024161045090295374e-06 -1.900474853755440563e-05
6.236000000000000000e+03 1.566169452667236328e+01 -1.481285929679870605e+00 2.316538484592456371e-05 1.125597736972849816e-05 1.032640830089803785e-05 -8.418806828558444977e-06
6.237000000000000000e+03 1.360982322692871094e+01 -3.235010504722595215e-01 2.350765134906396270e-05 3.203290816600201651e-06 8.013282240426633507e-06 -1.588733175594825298e-05
6.238000000000000000e+03 1.136861705780029297e+01 6.672526597976684570e-01 2.198487891291733831e-05 1.173173495772061870e-05 1.011498443403979763e-05 -6.341161679301876575e-06
6.239000000000000000e+03 1.043688488006591797e+01 2.462611943483352661e-01 2.859299456758890301e-05 1.469097696826793253e-05 1.298519146075705066e-05 -7.379061116807861254e-06
6.240000000000000000e+03 1.187135696411132812e+01 -3.428127467632293701e-01 2.826935997291002423e-05 1.314294513576896861e-05 1.242369125975528732e-05 -8.667173460707999766e-06
6.241000000000000000e+03 1.258574008941650391e+01 -6.459255814552307129e-01 2.817936729115899652e-05 2.732998609644710086e-07 8.535800589015707374e-06 -1.718605926726013422e-05
6.242000000000000000e+03 1.288842964172363281e+01 2.964896708726882935e-02 2.330320967303123325e-05 1.204688396683195606e-05 1.060502836480736732e-05 -7.693289262533653527e-06
6.243000000000000000e+03 1.060655117034912109e+01 9.770575761795043945e-01 2.423068144707940519e-05 -1.981251216420787387e-07 7.209767318272497505e-06 -1.088651515601668507e-05
6.244000000000000000e+03 1.212970542907714844e+01 3.511690795421600342e-01 2.408260479569435120e-05 1.280402671000047121e-06 7.608902251377003267e-06 -1.563841033203061670e-05
6.245000000000000000e+03 1.115460968017578125e+01 -4.513646289706230164e-02 2.679118006199132651e-05 -3.386753405720810406e-06 7.021327746770111844e-06 -1.468408936489140615e-05
6.246000000000000000e+03 9.832606315612792969e+00 1.131396770477294922e+00 1.540898483654018492e-05 1.280577544093830511e-05 8.464427992294076830e-06 -9.574060641170945019e-06
6.247000000000000000e+03 8.916216850280761719e+00 3.932431936264038086e-01 1.815651376091409475e-05 6.753947218385292217e-06 7.473138339264551178e-06 -2.261344889120664448e-06
6.248000000000000000e+03 6.686530590057373047e+00 1.133687853813171387e+00 7.246599125210195780e-06 3.655168256955221295e-06 3.270530214649625123e-06 -3.917176854884019122e-06
6.249000000000000000e+03 7.365533351898193359e+00 3.937827348709106445e-01 1.011591211863560602e-05 3.578874611775972880e-06 4.108435859961900860e-06 -1.403213900630362332e-06
6.250000000000000000e+03 5.113072872161865234e+00 1.133639335632324219e+00 3.474710410955594853e-06 2.254025275760795921e-06 1.718620637802814599e-06 -2.478520173099241219e-06
6.251000000000000000e+03 4.263494968414306641e+00 3.934068977832794189e-01 1.737851221150776837e-06 9.078775065063382499e-07 7.937186410345020704e-07 -5.682770165549300145e-07
6.252000000000000000e+03 2.752517938613891602e+00 1.133095502853393555e+00 2.343652340641710907e-06 -3.043660967705363873e-07 6.117859356891131029e-07 -1.154858068730391096e-06
6.253000000000000000e+03 3.487796306610107422e+00 3.931239545345306396e-01 1.412996311955794226e-06 -4.701498994563735323e-07 2.828539038546296069e-07 -5.407235903476248495e-07
6.254000000000000000e+03 1.937440633773803711e+00 3.930502235889434814e-01 3.389934875031030970e-07 -2.480493321854737587e-07 2.728324766110290511e-08 -2.347772607436127146e-07
6.255000000000000000e+03 2.712807416915893555e+00 3.930954933166503906e-01 -7.735823004395570024e-08 4.947696652379818261e-07 1.252234369530924596e-07 -1.405243210683693178e-07
6.256000000000000000e+03 1.179242849349975586e+00 1.132586002349853516e+00 1.536246827527065761e-06 -6.498220272987964563e-08 4.413793988078396069e-07 -3.684018565763835795e-07
6.257000000000000000e+03 1.162224054336547852e+00 3.925859630107879639e-01 -5.446797786134993657e-07 3.039191653897432843e-07 -7.222818254604135291e-08 1.516443006721601705e-07
6.258000000000000000e+03 3.932089805603027344e-01 1.131153583526611328e+00 -1.422786453986191191e-06 -7.217928033043108371e-09 -4.290013180252572056e-07 1.694351396963611478e-07
6.259000000000000000e+03 3.875360786914825439e-01 3.911535739898681641e-01 4.143998353356437292e-07 -1.468504677859527874e-07 8.026481168599275406e-08 -4.516226947970380934e-09
6.260000000000000000e+03 3.538852453231811523e+00 1.133123993873596191e+00 9.366782478537061252e-07 1.408125285706773866e-06 7.034410600681439973e-07 -1.199419216391106602e-06
6.261000000000000000e+03 4.325896739959716797e+00 1.133406877517700195e+00 4.364916094345971942e-06 -9.400741305398696568e-07 1.027452526614069939e-06 -1.939363983183284290e-06
6.262000000000000000e+03 5.039324760437011719e+00 3.936392962932586670e-01 4.015273134427843615e-06 -1.112982204176660161e-06 8.706872449693037197e-07 -8.683089731675863732e-07
6.263000000000000000e+03 6.590091228485107422e+00 3.936878144741058350e-01 8.212108696170616895e-06 -2.342550487810513005e-06 1.760867348821193445e-06 -1.308417722611920908e-06
6.264000000000000000e+03 5.899841785430908203e+00 1.133722305297851562e+00 7.698619810980744660e-06 -1.932366558321518824e-06 1.729875862110930029e-06 -2.756228923317394219e-06
6.265000000000000000e+03 8.140919685363769531e+00 3.937848508358001709e-01 1.455564688512822613e-05 -4.415509465616196394e-06 3.042041043954668567e-06 -2.150913132936693728e-06
6.266000000000000000e+03 8.260050773620605469e+00 1.133784890174865723e+00 1.251586490980116650e-05 5.971559858153341338e-06 5.546227384911617264e-06 -6.103601663198787719e-06
6.267000000000000000e+03 9.046693801879882812e+00 1.133243203163146973e+00 1.965322189789731055e-05 -3.240505975554697216e-06 4.923814685753313825e-06 -6.815046617703046650e-06
6.268000000000000000e+03 9.690783500671386719e+00 3.913968205451965332e-01 2.729809420998208225e-05 -5.291750767355551943e-06 6.601902896363753825e-06 -6.434650458686519414e-06
6.269000000000000000e+03 7.473318576812744141e+00 1.133782744407653809e+00 1.249038268724689260e-05 -3.154048044962109998e-06 2.800900347210699692e-06 -3.867905434162821621e-06
6.270000000000000000e+03 1.965805172920227051e+00 1.133050203323364258e+00 -5.955259325673978310e-07 8.365510666408226825e-07 7.230754306419839850e-08 -9.277871981794305611e-08
6.271000000000000000e+03 5.814747810363769531e+00 3.937222361564636230e-01 5.057064754510065541e-06 1.841464722929231357e-06 2.069558831863105297e-06 -9.671011866885237396e-07
6.272000000000000000e+03 1.356510353088378906e+01 -2.044676303863525391e+00 -1.222864739247597754e-05 -3.265488703618757427e-05 -1.346506087429588661e-05 -1.762235478963702917e-05
6.273000000000000000e+03 1.321007442474365234e+01 -2.694024085998535156e+00 1.699487438600044698e-05 3.011004446307197213e-05 1.413147583662066609e-05 1.592241278558503836e-05
6.274000000000000000e+03 1.258673477172851562e+01 -2.342205762863159180e+00 -1.666518801357597113e-05 -3.157772152917459607e-05 -1.447287286282517016e-05 -1.481477102061035112e-05
6.275000000000000000e+03 1.420777034759521484e+01 -2.407426834106445312e+00 1.335442175331991166e-05 3.139879481750540435e-05 1.342596442555077374e-05 1.809142850106582046e-05
6.276000000000000000e+03 1.383262920379638672e+01 -3.045426130294799805e+00 -1.772526593413203955e-05 -2.854770536941941828e-05 -1.388189139106543735e-05 -1.643862742639612406e-05
6.277000000000000000e+03 1.445424365997314453e+01 -3.396085023880004883e+00 1.876240094134118408e-05 2.747402140812482685e-05 1.387092652294086292e-05 1.664742012508213520e-05
6.278000000000000000e+03 1.484949779510498047e+01 -2.769434452056884766e+00 -1.426259314030176029e-05 -2.982972910103853792e-05 -1.322769730904838070e-05 -1.846388113335706294e-05
6.279000000000000000e+03 1.292164993286132812e+01 -1.681509137153625488e+00 1.162306307378457859e-05 3.521216785884462297e-05 1.405056900694034994e-05 1.687040821707341820e-05
6.280000000000000000e+03 7.509584808349609375e+01 -2.776388549804687500e+01 2.912188938353210688e-04 -2.246189251309260726e-04 1.997999606828670949e-05 1.445735542802140117e-04
6.281000000000000000e+03 7.434091949462890625e+01 -2.775419616699218750e+01 5.871254252269864082e-04 3.382832801435142756e-04 2.776226028800010681e-04 -1.323170145042240620e-04
6.282000000000000000e+03 7.585069274902343750e+01 -2.777251052856445312e+01 6.606443785130977631e-04 1.431218406651169062e-04 2.411298628430813551e-04 -1.047042460413649678e-04
6.283000000000000000e+03 7.358595275878906250e+01 -2.774346733093261719e+01 5.043550045229494572e-04 -1.874000590760260820e-04 9.508647781331092119e-05 -1.265015889657661319e-04
6.284000000000000000e+03 7.357056427001953125e+01 -2.848333168029785156e+01 -1.402230001986026764e-03 -5.749975098296999931e-04 -5.931682535447180271e-04 1.273091493203537539e-05
6.285000000000000000e+03 7.586358642578125000e+01 -2.851275062561035156e+01 -1.328882062807679176e-03 2.795764594338834286e-04 -3.147916868329048157e-04 6.047674687579274178e-04
6.286000000000000000e+03 7.509931945800781250e+01 -2.850399208068847656e+01 -7.286178879439830780e-04 -2.032130287261679769e-04 -2.795492764562368393e-04 -1.384624774800613523e-04
6.287000000000000000e+03 7.433495330810546875e+01 -2.849417877197265625e+01 -1.702282926999032497e-03 5.653016851283609867e-04 -3.410943609196692705e-04 2.230728423455730081e-04
6.288000000000000000e+03 1.092935180664062500e+01 -7.962761521339416504e-01 -7.572574759251438081e-06 -3.844169987132772803e-05 -1.380428238917374983e-05 -1.391903879266465083e-05
6.289000000000000000e+03 1.134075260162353516e+01 -1.768451571464538574e+00 -1.479614638810744509e-05 -3.202427251380868256e-05 -1.404612521582748741e-05 -1.391477871948154643e-05
6.290000000000000000e+03 1.008855438232421875e+01 -1.254853606224060059e+00 -1.770607377693522722e-05 -3.765611108974553645e-05 -1.660865564190316945e-05 -9.456590305489953607e-06
6.291000000000000000e+03 1.196391296386718750e+01 -2.033531188964843750e+00 1.596464608155656606e-05 3.254240800742991269e-05 1.455211622669594362e-05 1.513573624833952636e-05
6.292000000000000000e+03 1.226660156250000000e+01 -1.357956767082214355e+00 -1.037118363456102088e-05 -3.825022577075287700e-05 -1.458642236684681848e-05 -1.684157541603781283e-05
6.293000000000000000e+03 1.159910106658935547e+01 -1.074469685554504395e+00 9.469781616644468158e-06 3.964555799029767513e-05 1.473460179113317281e-05 1.543471444165334105e-05
6.294000000000000000e+03 1.025822067260742188e+01 -5.240572094917297363e-01 8.093352334981318563e-06 3.972175545641221106e-05 1.434453224646858871e-05 8.939848157751839608e-06
6.295000000000000000e+03 1.071534442901611328e+01 -1.508665204048156738e+00 1.351456012343987823e-05 3.435492544667795300e-05 1.436084494343958795e-05 1.336349487246479839e-05
6.296000000000000000e+03 8.682801246643066406e+00 -3.869477510452270508e-01 5.114272425998933613e-06 3.305028803879395127e-05 1.144936868513468653e-05 8.593189704697579145e-06
6.297000000000000000e+03 9.509228706359863281e+00 -3.886404335498809814e-01 -2.540536343076382764e-06 -3.544461287674494088e-05 -1.139554478868376464e-05 -8.077255188254639506e-06
6.298000000000000000e+03 7.855910301208496094e+00 -3.864668607711791992e-01 -4.165360223851166666e-06 -2.928702997451182455e-05 -1.003571742330677807e-05 -7.561167421954451129e-06
6.299000000000000000e+03 7.028375625610351562e+00 -3.863845765590667725e-01 4.273288141121156514e-06 2.498345020285341889e-05 8.777021321293432266e-06 7.062792064971290529e-06
6.300000000000000000e+03 6.201150894165039062e+00 -3.866374790668487549e-01 -4.237302619003457949e-06 -1.997542858589440584e-05 -7.263819043146213517e-06 -6.412572474800981581e-06
6.301000000000000000e+03 5.374573707580566406e+00 -3.869005739688873291e-01 4.292485755286179483e-06 1.446881469746585935e-05 5.628389772027730942e-06 5.600748409051448107e-06
6.302000000000000000e+03 4.547731399536132812e+00 -3.869262635707855225e-01 -4.326081125327618793e-06 -9.085067176783923060e-06 -4.023344445158727467e-06 -4.608679773809853941e-06
6.303000000000000000e+03 3.720758199691772461e+00 -3.867077231407165527e-01 4.292558060114970431e-06 4.420471668709069490e-06 2.613908918647211976e-06 3.557146783350617625e-06
6.304000000000000000e+03 2.893651485443115234e+00 -3.863704204559326172e-01 -4.342106876720208675e-06 -9.420795663572789636e-07 -1.585255972713639494e-06 -2.489602593414019793e-06
6.305000000000000000e+03 2.066607236862182617e+00 -3.863114714622497559e-01 4.291312052373541519e-06 -1.039279595715925097e-06 9.756097369972849265e-07 1.475775093240372371e-06
6.306000000000000000e+03 1.239985346794128418e+00 -3.869007229804992676e-01 -4.287856427254155278e-06 1.449938736186595634e-06 -8.513753755323705263e-07 -5.988021598568593618e-07
6.307000000000000000e+03 4.134095907211303711e-01 -3.886900842189788818e-01 4.002832156402291730e-06 -6.317270617728354409e-07 1.011331505651469342e-06 1.125439013094364782e-07
6.308000000000000000e+03 4.072639346122741699e-01 -1.128690123558044434e+00 -1.260731914953794330e-05 2.410466777291730978e-07 -3.709881639224477112e-06 -6.761731015103578102e-07
6.309000000000000000e+03 9.367878913879394531e+00 -1.128640413284301758e+00 7.144913979573175311e-06 2.937153294624295086e-05 1.095493371394695714e-05 1.111146684706909582e-05
6.310000000000000000e+03 8.553742408752441406e+00 -1.126947760581970215e+00 -1.083083589037414640e-05 -2.688403401407413185e-05 -1.131446060753660277e-05 -1.152756158262491226e-05
6.311000000000000000e+03 7.739142894744873047e+00 -1.126466870307922363e+00 1.060335398506140336e-05 2.464600220264401287e-05 1.057480676536215469e-05 1.234280625794781372e-05
6.312000000000000000e+03 6.923899650573730469e+00 -1.126384615898132324e+00 -1.070984126272378489e-05 -2.100308483932167292e-05 -9.513877557765226811e-06 -1.257626900041941553e-05
6.313000000000000000e+03 6.108965873718261719e+00 -1.126637458801269531e+00 1.146525391959585249e-05 1.709224670776166022e-05 8.567250006308313459e-06 1.276863349630730227e-05
6.314000000000000000e+03 5.294679641723632812e+00 -1.126900553703308105e+00 -1.213575978908920661e-05 -1.299524501519044861e-05 -7.539301350334426388e-06 -1.223409708472900093e-05
6.315000000000000000e+03 4.480128765106201172e+00 -1.126926302909851074e+00 1.280727792618563399e-05 9.102149306272622198e-06 6.572828169737476856e-06 1.107642037823097780e-05
6.316000000000000000e+03 3.665447235107421875e+00 -1.126707673072814941e+00 -1.323301785305375233e-05 -5.649575996358180419e-06 -5.664778200298314914e-06 -9.188367585011292249e-06
6.317000000000000000e+03 2.850631713867187500e+00 -1.126370429992675781e+00 1.340285507467342541e-05 2.948356723209144548e-06 4.905363311991095543e-06 6.935809324204456061e-06
6.318000000000000000e+03 2.035878896713256836e+00 -1.126311421394348145e+00 -1.346915723843267187e-05 -1.016508008433447685e-06 -4.345699380792211741e-06 -4.603852175932843238e-06
6.319000000000000000e+03 1.221548438072204590e+00 -1.126900672912597656e+00 1.341625556960934773e-05 -1.229473269859227003e-07 3.987992386100813746e-06 2.356776349188294262e-06
