# el_label, x, y, sXX, sYY, sZZ, sXY
1.000000000000000000e+00 5.264690780639648438e+01 -2.624933815002441406e+01 1.603103756904602051e+00 8.628125190734863281e-01 7.397748827934265137e-01 -2.163813114166259766e+00
2.000000000000000000e+00 5.282735061645507812e+01 -2.633335113525390625e+01 3.510614633560180664e+00 9.335167407989501953e-01 1.333239436149597168e+00 -1.443629145622253418e+00
3.000000000000000000e+00 5.300778961181640625e+01 -2.641736412048339844e+01 2.523852825164794922e+00 6.340295672416687012e-01 9.473646879196166992e-01 -1.429303050041198730e+00
4.000000000000000000e+00 5.318823242187500000e+01 -2.650137710571289062e+01 2.351046562194824219e+00 6.155221462249755859e-01 8.899706602096557617e-01 -1.146007895469665527e+00
5.000000000000000000e+00 5.266626358032226562e+01 -2.619423484802246094e+01 6.480204582214355469e+00 6.291821599006652832e-01 2.132816076278686523e+00 -3.378647089004516602e+00
6.000000000000000000e+00 5.285960769653320312e+01 -2.624151039123535156e+01 4.345324516296386719e+00 7.775632739067077637e-01 1.536866307258605957e+00 -1.742773890495300293e+00
7.000000000000000000e+00 5.305295181274414062e+01 -2.628878593444824219e+01 4.285977840423583984e+00 5.267769694328308105e-01 1.443826436996459961e+00 -1.370927214622497559e+00
8.000000000000000000e+00 5.324629974365234375e+01 -2.633606338500976562e+01 3.440188884735107422e+00 3.908095359802246094e-01 1.149299502372741699e+00 -1.244624972343444824e+00
9.000000000000000000e+00 5.267451858520507812e+01 -2.613641548156738281e+01 9.955005645751953125e+00 7.674247771501541138e-02 3.009524583816528320e+00 -2.066694736480712891e+00
1.000000000000000000e+01 5.287337112426757812e+01 -2.614514541625976562e+01 6.745113372802734375e+00 3.446012139320373535e-01 2.126914501190185547e+00 -1.600770711898803711e+00
1.100000000000000000e+01 5.307221984863281250e+01 -2.615387725830078125e+01 5.375920772552490234e+00 3.417251110076904297e-01 1.715293884277343750e+00 -1.073591113090515137e+00
1.200000000000000000e+01 5.327106857299804688e+01 -2.616260910034179688e+01 4.900531291961669922e+00 1.643625497817993164e-01 1.519468069076538086e+00 -8.329674601554870605e-01
1.300000000000000000e+01 5.267136383056640625e+01 -2.607809638977050781e+01 1.223725223541259766e+01 3.144248127937316895e-01 3.765502929687500000e+00 -2.209508568048477173e-01
1.400000000000000000e+01 5.286810684204101562e+01 -2.604794692993164062e+01 8.416199684143066406e+00 2.135517150163650513e-01 2.588925361633300781e+00 -4.471614062786102295e-01
1.500000000000000000e+01 5.306484985351562500e+01 -2.601779937744140625e+01 6.868712902069091797e+00 2.154307365417480469e-01 2.125242948532104492e+00 -3.309545814990997314e-01
1.600000000000000000e+01 5.326159667968750000e+01 -2.598764991760253906e+01 5.749202728271484375e+00 9.860654920339584351e-02 1.754342794418334961e+00 -2.021472752094268799e-01
1.700000000000000000e+01 5.265691375732421875e+01 -2.602150726318359375e+01 1.314688491821289062e+01 1.234453320503234863e+00 4.314401149749755859e+00 1.916399598121643066e+00
1.800000000000000000e+01 5.284402084350585938e+01 -2.595363235473632812e+01 9.517189025878906250e+00 7.559112310409545898e-01 3.081929922103881836e+00 9.848877191543579102e-01
1.900000000000000000e+01 5.303113174438476562e+01 -2.588575744628906250e+01 7.624618530273437500e+00 4.596559703350067139e-01 2.425282239913940430e+00 7.612444162368774414e-01
2.000000000000000000e+01 5.321824264526367188e+01 -2.581788253784179688e+01 6.572495460510253906e+00 3.325151205062866211e-01 2.071503162384033203e+00 7.860895991325378418e-01
2.100000000000000000e+01 5.263172149658203125e+01 -2.596881484985351562e+01 1.308869743347167969e+01 3.049670934677124023e+00 4.841510295867919922e+00 3.753063440322875977e+00
2.200000000000000000e+01 5.280203628540039062e+01 -2.586581039428710938e+01 9.697290420532226562e+00 1.769630551338195801e+00 3.440076351165771484e+00 2.386012792587280273e+00
2.300000000000000000e+01 5.297235107421875000e+01 -2.576280784606933594e+01 7.938668727874755859e+00 1.311854839324951172e+00 2.775157213211059570e+00 1.934477925300598145e+00
2.400000000000000000e+01 5.314266967773437500e+01 -2.565980529785156250e+01 6.743136405944824219e+00 8.850565552711486816e-01 2.288457870483398438e+00 1.691415429115295410e+00
2.500000000000000000e+01 5.259675216674804688e+01 -2.592203521728515625e+01 1.218078994750976562e+01 5.199810028076171875e+00 5.214179992675781250e+00 4.996187686920166016e+00
2.600000000000000000e+01 5.274375915527343750e+01 -2.578784370422363281e+01 9.315063476562500000e+00 3.423018455505371094e+00 3.821424722671508789e+00 3.463665246963500977e+00
2.700000000000000000e+01 5.289076232910156250e+01 -2.565365409851074219e+01 7.607487201690673828e+00 2.443773984909057617e+00 3.015378475189208984e+00 2.826166391372680664e+00
2.800000000000000000e+01 5.303776550292968750e+01 -2.551946449279785156e+01 6.492271423339843750e+00 1.996938943862915039e+00 2.546763181686401367e+00 2.499048471450805664e+00
2.900000000000000000e+01 5.255334854125976562e+01 -2.588295745849609375e+01 1.092695045471191406e+01 7.714852809906005859e+00 5.592540740966796875e+00 5.412989139556884766e+00
3.000000000000000000e+01 5.267141342163085938e+01 -2.572271537780761719e+01 8.491531372070312500e+00 5.109960556030273438e+00 4.080447673797607422e+00 4.041459560394287109e+00
3.100000000000000000e+01 5.278948211669921875e+01 -2.556247329711914062e+01 6.911410331726074219e+00 4.081884860992431641e+00 3.297988414764404297e+00 3.339956760406494141e+00
3.200000000000000000e+01 5.290754699707031250e+01 -2.540223312377929688e+01 5.830478191375732422e+00 3.177428245544433594e+00 2.702371835708618164e+00 2.870730161666870117e+00
3.300000000000000000e+01 5.250316238403320312e+01 -2.585307693481445312e+01 9.647937774658203125e+00 9.866434097290039062e+00 5.854311466217041016e+00 5.119352817535400391e+00
3.400000000000000000e+01 5.258777618408203125e+01 -2.567291641235351562e+01 7.530935287475585938e+00 6.971970558166503906e+00 4.350871562957763672e+00 3.963730335235595703e+00
3.500000000000000000e+01 5.267238616943359375e+01 -2.549275398254394531e+01 6.129321575164794922e+00 5.487183094024658203e+00 3.484951496124267578e+00 3.422794103622436523e+00
3.600000000000000000e+01 5.275699996948242188e+01 -2.531259346008300781e+01 4.935667514801025391e+00 4.826108455657958984e+00 2.928532838821411133e+00 2.941509485244750977e+00
3.700000000000000000e+01 5.244812393188476562e+01 -2.583353996276855469e+01 8.660453796386718750e+00 1.161714744567871094e+01 6.083280563354492188e+00 4.152607917785644531e+00
3.800000000000000000e+01 5.249604034423828125e+01 -2.564035224914550781e+01 6.730871677398681641e+00 8.469676017761230469e+00 4.560164451599121094e+00 3.442952632904052734e+00
3.900000000000000000e+01 5.254396057128906250e+01 -2.544716644287109375e+01 5.369039058685302734e+00 6.838303089141845703e+00 3.662202596664428711e+00 2.896132469177246094e+00
4.000000000000000000e+01 5.259188079833984375e+01 -2.525397872924804688e+01 4.457910537719726562e+00 5.845173358917236328e+00 3.090925216674804688e+00 2.819572687149047852e+00
4.100000000000000000e+01 5.239033126831054688e+01 -2.582509040832519531e+01 8.252450942993164062e+00 1.269419956207275391e+01 6.283995628356933594e+00 2.911663770675659180e+00
4.200000000000000000e+01 5.239972305297851562e+01 -2.562627220153808594e+01 6.165412425994873047e+00 9.530054092407226562e+00 4.708639621734619141e+00 2.458711624145507812e+00
4.300000000000000000e+01 5.240911865234375000e+01 -2.542745208740234375e+01 4.973285675048828125e+00 7.831625938415527344e+00 3.841473579406738281e+00 2.144426822662353516e+00
4.400000000000000000e+01 5.241850662231445312e+01 -2.522863197326660156e+01 4.154067993164062500e+00 6.405934333801269531e+00 3.168000698089599609e+00 1.880620002746582031e+00
4.500000000000000000e+01 5.233200454711914062e+01 -2.582805442810058594e+01 8.300384521484375000e+00 1.305602550506591797e+01 6.406922817230224609e+00 1.550337195396423340e+00
4.600000000000000000e+01 5.230250930786132812e+01 -2.563121032714843750e+01 6.113728046417236328e+00 1.009239196777343750e+01 4.861835956573486328e+00 1.389045357704162598e+00
4.700000000000000000e+01 5.227301406860351562e+01 -2.543436622619628906e+01 4.874226093292236328e+00 8.222968101501464844e+00 3.929158210754394531e+00 1.099114894866943359e+00
4.800000000000000000e+01 5.224351882934570312e+01 -2.523752403259277344e+01 4.060282230377197266e+00 7.065909862518310547e+00 3.337857723236083984e+00 8.760684132575988770e-01
4.900000000000000000e+01 5.227536773681640625e+01 -2.584231567382812500e+01 8.849167823791503906e+00 1.287516880035400391e+01 6.517300605773925781e+00 3.962604105472564697e-01
5.000000000000000000e+01 5.220811462402343750e+01 -2.565498161315917969e+01 6.507725715637207031e+00 9.991163253784179688e+00 4.949666976928710938e+00 3.570108413696289062e-01
5.100000000000000000e+01 5.214086151123046875e+01 -2.546764564514160156e+01 5.100903511047363281e+00 8.316916465759277344e+00 4.025345802307128906e+00 1.361182332038879395e-01
5.200000000000000000e+01 5.207360839843750000e+01 -2.528031158447265625e+01 4.336256027221679688e+00 7.041034698486328125e+00 3.413187026977539062e+00 -2.357554389163851738e-03
5.300000000000000000e+01 5.222259140014648438e+01 -2.586733245849609375e+01 9.654120445251464844e+00 1.224324893951416016e+01 6.569211006164550781e+00 -3.704003393650054932e-01
5.400000000000000000e+01 5.212015533447265625e+01 -2.569667434692382812e+01 7.295109272003173828e+00 9.482626914978027344e+00 5.033320903778076172e+00 -4.935085177421569824e-01
5.500000000000000000e+01 5.201771926879882812e+01 -2.552601623535156250e+01 5.732265949249267578e+00 7.860425949096679688e+00 4.077807426452636719e+00 -4.427882432937622070e-01
5.600000000000000000e+01 5.191528320312500000e+01 -2.535535812377929688e+01 4.691625118255615234e+00 6.680456638336181641e+00 3.411624431610107422e+00 -7.617983222007751465e-01
5.700000000000000000e+01 5.217569351196289062e+01 -2.590214538574218750e+01 1.073221111297607422e+01 1.132832717895507812e+01 6.618161678314208984e+00 -7.158092260360717773e-01
5.800000000000000000e+01 5.204199218750000000e+01 -2.575469398498535156e+01 8.119095802307128906e+00 8.729349136352539062e+00 5.054533481597900391e+00 -8.975229263305664062e-01
5.900000000000000000e+01 5.190829467773437500e+01 -2.560724449157714844e+01 6.810830116271972656e+00 7.025187015533447266e+00 4.150804996490478516e+00 -8.370331525802612305e-01
6.000000000000000000e+01 5.177459335327148438e+01 -2.545979499816894531e+01 5.250888824462890625e+00 6.026547431945800781e+00 3.383230924606323242e+00 -8.123549818992614746e-01
6.100000000000000000e+01 5.213647460937500000e+01 -2.594542121887207031e+01 1.174744415283203125e+01 1.040466499328613281e+01 6.645632743835449219e+00 -6.147000789642333984e-01
6.200000000000000000e+01 5.197662353515625000e+01 -2.582682037353515625e+01 9.036807060241699219e+00 7.769773483276367188e+00 5.041974067687988281e+00 -7.879493236541748047e-01
6.300000000000000000e+01 5.181677627563476562e+01 -2.570822143554687500e+01 7.601186275482177734e+00 6.269228935241699219e+00 4.161124706268310547e+00 -8.881790041923522949e-01
6.400000000000000000e+01 5.165692901611328125e+01 -2.558962249755859375e+01 6.671430110931396484e+00 5.174444198608398438e+00 3.553762435913085938e+00 -7.480758428573608398e-01
6.500000000000000000e+01 5.210642623901367188e+01 -2.599550437927246094e+01 1.236148357391357422e+01 9.315914154052734375e+00 6.503219127655029297e+00 -1.655572950839996338e-01
6.600000000000000000e+01 5.192654800415039062e+01 -2.591029357910156250e+01 9.918792724609375000e+00 7.170859813690185547e+00 5.126895427703857422e+00 -1.792197823524475098e-01
6.700000000000000000e+01 5.174666976928710938e+01 -2.582508277893066406e+01 8.075893402099609375e+00 5.435647010803222656e+00 4.053462028503417969e+00 -5.174837708473205566e-01
6.800000000000000000e+01 5.156678771972656250e+01 -2.573987197875976562e+01 7.410723686218261719e+00 4.736500740051269531e+00 3.644167423248291016e+00 -5.522042512893676758e-01
6.900000000000000000e+01 5.208670425415039062e+01 -2.605047798156738281e+01 1.291324424743652344e+01 9.110627174377441406e+00 6.607161521911621094e+00 7.994860410690307617e-01
7.000000000000000000e+01 5.189368057250976562e+01 -2.600191879272460938e+01 1.018792915344238281e+01 6.207521438598632812e+00 4.918635368347167969e+00 5.493795275688171387e-01
7.100000000000000000e+01 5.170065307617187500e+01 -2.595335769653320312e+01 8.522162437438964844e+00 5.494182109832763672e+00 4.204903125762939453e+00 4.358801841735839844e-01
7.200000000000000000e+01 5.150762557983398438e+01 -2.590479660034179688e+01 7.049198150634765625e+00 3.873105525970458984e+00 3.276691198348999023e+00 6.105898693203926086e-02
7.300000000000000000e+01 5.207806396484375000e+01 -2.610824012756347656e+01 1.281295394897460938e+01 8.521306991577148438e+00 6.400278091430664062e+00 2.021857976913452148e+00
7.400000000000000000e+01 5.187927627563476562e+01 -2.609818840026855469e+01 1.000267887115478516e+01 6.468187332153320312e+00 4.941259860992431641e+00 1.486381053924560547e+00
7.500000000000000000e+01 5.168049240112304688e+01 -2.608813667297363281e+01 8.443041801452636719e+00 4.921559810638427734e+00 4.009380340576171875e+00 1.399508357048034668e+00
7.600000000000000000e+01 5.148170089721679688e+01 -2.607808303833007812e+01 7.240577220916748047e+00 4.368697166442871094e+00 3.482782363891601562e+00 1.075098752975463867e+00
7.700000000000000000e+01 5.208083724975585938e+01 -2.616658020019531250e+01 1.215837097167968750e+01 8.637294769287109375e+00 6.238699436187744141e+00 3.037274599075317383e+00
7.800000000000000000e+01 5.188389205932617188e+01 -2.619542121887207031e+01 9.296383857727050781e+00 6.887511730194091797e+00 4.855168819427490234e+00 2.622182607650756836e+00
7.900000000000000000e+01 5.168695449829101562e+01 -2.622426033020019531e+01 7.801208972930908203e+00 5.094028472900390625e+00 3.868571281433105469e+00 2.026123762130737305e+00
8.000000000000000000e+01 5.149001312255859375e+01 -2.625310134887695312e+01 7.071443080902099609e+00 4.640568733215332031e+00 3.513603687286376953e+00 1.912866830825805664e+00
8.100000000000000000e+01 5.209490966796875000e+01 -2.622326278686523438e+01 1.094881439208984375e+01 9.721697807312011719e+00 6.201153755187988281e+00 4.066044807434082031e+00
8.200000000000000000e+01 5.190735244750976562e+01 -2.628989410400390625e+01 8.115743637084960938e+00 7.130377292633056641e+00 4.573836326599121094e+00 3.332431316375732422e+00
8.300000000000000000e+01 5.171979522705078125e+01 -2.635652351379394531e+01 6.756623744964599609e+00 6.270709037780761719e+00 3.908199787139892578e+00 2.622301340103149414e+00
8.400000000000000000e+01 5.153223800659179688e+01 -2.642315292358398438e+01 5.643217563629150391e+00 4.581131458282470703e+00 3.067304849624633789e+00 2.240148782730102539e+00
8.500000000000000000e+01 5.211975097656250000e+01 -2.627612304687500000e+01 9.034255981445312500e+00 1.046882247924804688e+01 5.850923538208007812e+00 4.718906402587890625e+00
8.600000000000000000e+01 5.194875335693359375e+01 -2.637799263000488281e+01 6.674981117248535156e+00 8.359086036682128906e+00 4.510220050811767578e+00 3.499698162078857422e+00
8.700000000000000000e+01 5.177775573730468750e+01 -2.647986030578613281e+01 5.316279888153076172e+00 6.733002185821533203e+00 3.614784717559814453e+00 3.000915050506591797e+00
8.800000000000000000e+01 5.160675811767578125e+01 -2.658172988891601562e+01 4.478728294372558594e+00 5.944224834442138672e+00 3.126885890960693359e+00 2.495656728744506836e+00
8.900000000000000000e+01 5.215440750122070312e+01 -2.632313537597656250e+01 7.011729717254638672e+00 1.179388427734375000e+01 5.641684055328369141e+00 4.624375343322753906e+00
9.000000000000000000e+01 5.200651550292968750e+01 -2.645634460449218750e+01 4.946023941040039062e+00 9.169803619384765625e+00 4.234748363494873047e+00 3.288781166076660156e+00
9.100000000000000000e+01 5.185861968994140625e+01 -2.658955383300781250e+01 3.920774936676025391e+00 7.569949150085449219e+00 3.447217226028442383e+00 2.755126476287841797e+00
9.200000000000000000e+01 5.171072769165039062e+01 -2.672276496887207031e+01 3.565760850906372070e+00 6.571633338928222656e+00 3.041218280792236328e+00 2.443295478820800781e+00
9.300000000000000000e+01 5.219755172729492188e+01 -2.636249923706054688e+01 4.909409046173095703e+00 1.285615062713623047e+01 5.329667568206787109e+00 3.826277017593383789e+00
9.400000000000000000e+01 5.207842254638671875e+01 -2.652195358276367188e+01 3.336649417877197266e+00 9.851339340209960938e+00 3.956396579742431641e+00 2.558054208755493164e+00
9.500000000000000000e+01 5.195929336547851562e+01 -2.668140602111816406e+01 2.771028280258178711e+00 8.087787628173828125e+00 3.257644891738891602e+00 2.067362070083618164e+00
9.600000000000000000e+01 5.184016418457031250e+01 -2.684086036682128906e+01 2.182771444320678711e+00 6.886248588562011719e+00 2.720705986022949219e+00 1.674153566360473633e+00
9.700000000000000000e+01 5.224753570556640625e+01 -2.639271163940429688e+01 3.052129507064819336e+00 1.347941780090332031e+01 4.959464073181152344e+00 2.376699924468994141e+00
9.800000000000000000e+01 5.216172790527343750e+01 -2.657230758666992188e+01 2.152526617050170898e+00 9.994993209838867188e+00 3.644256114959716797e+00 1.408333301544189453e+00
9.900000000000000000e+01 5.207592010498046875e+01 -2.675190162658691406e+01 1.710704207420349121e+00 8.208477020263671875e+00 2.975754261016845703e+00 9.830312728881835938e-01
1.000000000000000000e+02 5.199011230468750000e+01 -2.693149757385253906e+01 1.298105239868164062e+00 7.088563919067382812e+00 2.516000747680664062e+00 9.125851988792419434e-01
1.010000000000000000e+02 5.230244445800781250e+01 -2.641261482238769531e+01 1.747045874595642090e+00 1.320081043243408203e+01 4.484356880187988281e+00 5.855572223663330078e-01
1.020000000000000000e+02 5.225324249267578125e+01 -2.660548019409179688e+01 1.480234980583190918e+00 9.597310066223144531e+00 3.323263406753540039e+00 -3.467824682593345642e-02
1.030000000000000000e+02 5.220404052734375000e+01 -2.679834365844726562e+01 9.878439903259277344e-01 7.773475646972656250e+00 2.628395795822143555e+00 -1.037774160504341125e-01
1.040000000000000000e+02 5.215483856201171875e+01 -2.699120712280273438e+01 1.069145441055297852e+00 6.630448818206787109e+00 2.309878349304199219e+00 -1.087431311607360840e-01
1.050000000000000000e+02 5.236017608642578125e+01 -2.642144775390625000e+01 1.437484502792358398e+00 1.210098743438720703e+01 4.061541557312011719e+00 -1.341483712196350098e+00
1.060000000000000000e+02 5.234946441650390625e+01 -2.662020111083984375e+01 1.022763371467590332e+00 8.453097343444824219e+00 2.842758178710937500e+00 -1.328330159187316895e+00
1.070000000000000000e+02 5.233875274658203125e+01 -2.681895256042480469e+01 1.069743633270263672e+00 6.800738334655761719e+00 2.361144542694091797e+00 -1.163864731788635254e+00
1.080000000000000000e+02 5.232803726196289062e+01 -2.701770591735839844e+01 7.133224010467529297e-01 5.675961971282958984e+00 1.916785359382629395e+00 -1.104719877243041992e+00
1.090000000000000000e+02 5.241852569580078125e+01 -2.641887092590332031e+01 1.430171132087707520e+00 9.939804077148437500e+00 3.410992622375488281e+00 -2.897179603576660156e+00
1.100000000000000000e+02 5.244671249389648438e+01 -2.661590576171875000e+01 1.372284293174743652e+00 6.802516460418701172e+00 2.452440261840820312e+00 -2.279977560043334961e+00
1.110000000000000000e+02 5.247489547729492188e+01 -2.681294250488281250e+01 1.107591271400451660e+00 5.288508892059326172e+00 1.918830037117004395e+00 -1.944156408309936523e+00
1.120000000000000000e+02 5.250308227539062500e+01 -2.700997734069824219e+01 1.001002430915832520e+00 4.598992347717285156e+00 1.679998517036437988e+00 -1.653166890144348145e+00
1.130000000000000000e+02 5.247525405883789062e+01 -2.640498542785644531e+01 2.154167652130126953e+00 7.197050094604492188e+00 2.805365324020385742e+00 -3.719738483428955078e+00
1.140000000000000000e+02 5.254125976562500000e+01 -2.659276390075683594e+01 1.653195023536682129e+00 4.589488029479980469e+00 1.872804880142211914e+00 -2.667462587356567383e+00
1.150000000000000000e+02 5.260726928710937500e+01 -2.678054046630859375e+01 1.513542175292968750e+00 3.749888420104980469e+00 1.579029202461242676e+00 -2.156522274017333984e+00
1.160000000000000000e+02 5.267327499389648438e+01 -2.696831893920898438e+01 1.250532627105712891e+00 3.163672208786010742e+00 1.324261426925659180e+00 -1.829734086990356445e+00
1.170000000000000000e+02 5.252819824218750000e+01 -2.638032150268554688e+01 2.604197740554809570e+00 3.942826986312866211e+00 1.964107394218444824e+00 -3.555979728698730469e+00
1.180000000000000000e+02 5.262949752807617188e+01 -2.655165481567382812e+01 2.048172473907470703e+00 2.460995435714721680e+00 1.352750301361083984e+00 -2.362376928329467773e+00
1.190000000000000000e+02 5.273079681396484375e+01 -2.672299003601074219e+01 1.613778710365295410e+00 2.103187322616577148e+00 1.115089774131774902e+00 -1.736630916595458984e+00
1.200000000000000000e+02 5.283209991455078125e+01 -2.689432334899902344e+01 1.386303067207336426e+00 2.111827611923217773e+00 1.049439191818237305e+00 -1.614731669425964355e+00
1.210000000000000000e+02 5.257532501220703125e+01 -2.634582138061523438e+01 2.755457401275634766e+00 5.855748057365417480e-01 1.002309679985046387e+00 -2.368010282516479492e+00
1.220000000000000000e+02 5.270804214477539062e+01 -2.649415588378906250e+01 1.587982773780822754e+00 7.568672299385070801e-01 7.034549713134765625e-01 -1.120284557342529297e+00
1.230000000000000000e+02 5.284075927734375000e+01 -2.664249038696289062e+01 1.390811085700988770e+00 1.262425541877746582e+00 7.959709763526916504e-01 -1.246308565139770508e+00
1.240000000000000000e+02 5.297348022460937500e+01 -2.679082489013671875e+01 1.271417737007141113e+00 8.480502963066101074e-01 6.358404159545898438e-01 -1.047813653945922852e+00
1.250000000000000000e+02 5.261483001708984375e+01 -2.630280685424804688e+01 9.445462375879287720e-02 -1.738114476203918457e+00 -4.930979609489440918e-01 5.104435086250305176e-01
1.260000000000000000e+02 5.277388763427734375e+01 -2.642246437072753906e+01 7.956720590591430664e-01 6.845532059669494629e-01 4.440675973892211914e-01 -5.119744539260864258e-01
1.270000000000000000e+02 5.293294525146484375e+01 -2.654212379455566406e+01 7.623350024223327637e-01 1.605952829122543335e-01 2.768790721893310547e-01 -4.763335287570953369e-01
1.280000000000000000e+02 5.309200286865234375e+01 -2.666178131103515625e+01 7.319862246513366699e-01 3.288196027278900146e-01 3.182417452335357666e-01 -4.657955765724182129e-01
1.290000000000000000e+02 5.559600067138671875e+01 -2.683447456359863281e+01 1.236935019493103027e+00 -2.069167643785476685e-01 3.090054690837860107e-01 1.716808415949344635e-02
1.300000000000000000e+02 5.650584793090820312e+01 -2.721911239624023438e+01 6.151255965232849121e-01 -6.953003257513046265e-02 1.636786609888076782e-01 2.448940128087997437e-01
1.310000000000000000e+02 5.546916580200195312e+01 -2.743179893493652344e+01 6.630278229713439941e-01 -3.148550912737846375e-02 1.894627064466476440e-01 -8.438844233751296997e-02
1.320000000000000000e+02 5.694015884399414062e+01 -2.712095069885253906e+01 6.490284204483032227e-01 1.245145127177238464e-02 1.984439641237258911e-01 2.408457845449447632e-01
1.330000000000000000e+02 5.539158630371093750e+01 -2.771376228332519531e+01 2.438763827085494995e-01 -7.648149970918893814e-03 7.086846977472305298e-02 -5.529908835887908936e-02
1.340000000000000000e+02 5.552838516235351562e+01 -2.720558929443359375e+01 8.980452418327331543e-01 -8.990327268838882446e-02 2.424425929784774780e-01 -1.104412786662578583e-02
1.350000000000000000e+02 5.600814437866210938e+01 -2.703923606872558594e+01 1.076084017753601074e+00 -2.186570912599563599e-01 2.572280764579772949e-01 1.435428857803344727e-01
1.360000000000000000e+02 5.606693267822265625e+01 -2.765522956848144531e+01 3.586591780185699463e-01 -5.518024042248725891e-02 9.104368090629577637e-02 -3.900448977947235107e-02
1.370000000000000000e+02 5.566596984863281250e+01 -2.667575263977050781e+01 1.545030713081359863e+00 -3.200100660324096680e-01 3.675062060356140137e-01 4.397445917129516602e-02
1.380000000000000000e+02 5.554219818115234375e+01 -2.701149940490722656e+01 1.257678985595703125e+00 -1.878894716501235962e-01 3.209368586540222168e-01 -7.158644497394561768e-02
1.390000000000000000e+02 5.599368667602539062e+01 -2.678802108764648438e+01 1.313274383544921875e+00 -2.874927222728729248e-01 3.077344894409179688e-01 1.804063320159912109e-01
1.400000000000000000e+02 5.672411727905273438e+01 -2.785979843139648438e+01 1.279097646474838257e-01 2.978218160569667816e-02 4.730758443474769592e-02 6.168664991855621338e-02
1.410000000000000000e+02 5.721615219116210938e+01 -2.735643196105957031e+01 1.728493273258209229e-01 3.076544404029846191e-01 1.441511213779449463e-01 2.850178778171539307e-01
1.420000000000000000e+02 5.691268157958984375e+01 -2.735036849975585938e+01 2.665248513221740723e-01 -1.962805539369583130e-01 2.107328362762928009e-02 -3.627753630280494690e-02
1.430000000000000000e+02 5.591358566284179688e+01 -2.658102226257324219e+01 1.449174404144287109e+00 -3.291294872760772705e-01 3.360134661197662354e-01 1.810910850763320923e-01
1.440000000000000000e+02 5.725071716308593750e+01 -2.727113914489746094e+01 5.331884026527404785e-01 4.605405628681182861e-01 2.981186807155609131e-01 5.854529738426208496e-01
1.450000000000000000e+02 5.428989410400390625e+01 -2.863356971740722656e+01 3.443169593811035156e-01 7.525871396064758301e-01 3.290712237358093262e-01 -6.223724484443664551e-01
1.460000000000000000e+02 5.147731781005859375e+01 -2.711037445068359375e+01 2.194309473037719727e+00 5.164554595947265625e+00 2.207659244537353516e+00 1.758211970329284668e+00
1.470000000000000000e+02 5.131983566284179688e+01 -2.646747779846191406e+01 5.777742862701416016e+00 4.134882450103759766e+00 2.973787546157836914e+00 2.350248575210571289e+00
1.480000000000000000e+02 5.130170822143554688e+01 -2.584310722351074219e+01 7.196712493896484375e+00 3.361047267913818359e+00 3.167327880859375000e+00 -1.636211425065994263e-01
1.490000000000000000e+02 5.183808517456054688e+01 -2.521714591979980469e+01 4.164630413055419922e+00 6.440428733825683594e+00 3.181517839431762695e+00 -7.028904557228088379e-01
1.500000000000000000e+02 5.310758972167968750e+01 -2.496585655212402344e+01 3.856611728668212891e+00 2.266346931457519531e+00 1.836887598037719727e+00 2.239353179931640625e+00
1.510000000000000000e+02 5.364412307739257812e+01 -2.573894309997558594e+01 5.027853965759277344e+00 -4.460516571998596191e-02 1.494974613189697266e+00 6.163901686668395996e-01
1.520000000000000000e+02 5.409109115600585938e+01 -2.675277709960937500e+01 1.730610132217407227e+00 1.497521996498107910e-01 5.641086697578430176e-01 -5.832742452621459961e-01
1.530000000000000000e+02 5.492160034179687500e+01 -2.750316810607910156e+01 5.096896886825561523e-01 7.539421319961547852e-02 1.755251735448837280e-01 -2.281284183263778687e-01
1.540000000000000000e+02 5.120013427734375000e+01 -2.604013061523437500e+01 5.696279525756835938e+00 3.220723628997802734e+00 2.675101041793823242e+00 4.387077391147613525e-01
1.550000000000000000e+02 5.146519470214843750e+01 -2.685462570190429688e+01 2.863439083099365234e+00 5.145074367523193359e+00 2.402554035186767578e+00 1.918868303298950195e+00
1.560000000000000000e+02 5.480272293090820312e+01 -2.772706794738769531e+01 1.684704422950744629e-01 3.543357551097869873e-02 6.117120385169982910e-02 -2.341332137584686279e-01
1.570000000000000000e+02 5.451174545288085938e+01 -2.825639724731445312e+01 3.566944599151611328e-01 4.999919235706329346e-01 2.570059001445770264e-01 -4.617184698581695557e-01
1.580000000000000000e+02 5.461657714843750000e+01 -2.810406684875488281e+01 3.732159137725830078e-01 2.893606722354888916e-01 1.987729817628860474e-01 -4.099062085151672363e-01
1.590000000000000000e+02 5.342046737670898438e+01 -2.689408302307128906e+01 5.996666550636291504e-01 2.795927226543426514e-01 2.637778222560882568e-01 -4.353536367416381836e-01
1.600000000000000000e+02 5.325358200073242188e+01 -2.677964973449707031e+01 6.847276091575622559e-01 2.798051238059997559e-01 2.893598377704620361e-01 -4.524689316749572754e-01
1.610000000000000000e+02 5.131719970703125000e+01 -2.561033630371093750e+01 5.701847553253173828e+00 3.434375762939453125e+00 2.740866899490356445e+00 -4.026450812816619873e-01
1.620000000000000000e+02 5.133312988281250000e+01 -2.667670440673828125e+01 4.098678112030029297e+00 4.280236721038818359e+00 2.513674259185791016e+00 1.857254266738891602e+00
1.630000000000000000e+02 5.276138305664062500e+01 -2.721411514282226562e+01 9.878385066986083984e-01 2.834684371948242188e+00 1.146756887435913086e+00 -1.577404141426086426e+00
1.640000000000000000e+02 5.311803436279296875e+01 -2.693954658508300781e+01 1.070396900177001953e+00 8.388183116912841797e-01 5.727645754814147949e-01 -9.772846102714538574e-01
1.650000000000000000e+02 5.337565231323242188e+01 -2.658823013305664062e+01 2.046395540237426758e+00 4.624797701835632324e-01 7.526625394821166992e-01 -1.035207152366638184e+00
1.660000000000000000e+02 5.387697982788085938e+01 -2.690704917907714844e+01 1.332480907440185547e+00 3.440244793891906738e-01 5.029516220092773438e-01 -6.854805350303649902e-01
1.670000000000000000e+02 5.349892425537109375e+01 -2.617767143249511719e+01 4.114427089691162109e+00 4.538095369935035706e-02 1.247942328453063965e+00 -6.759375929832458496e-01
1.680000000000000000e+02 5.349384307861328125e+01 -2.517233467102050781e+01 4.699596405029296875e+00 8.848751187324523926e-01 1.675341486930847168e+00 1.893440604209899902e+00
1.690000000000000000e+02 5.336537170410156250e+01 -2.532419776916503906e+01 5.119072437286376953e+00 1.033828616142272949e+00 1.845870256423950195e+00 2.062331676483154297e+00
1.700000000000000000e+02 5.247531890869140625e+01 -2.505331993103027344e+01 3.632917165756225586e+00 5.567872047424316406e+00 2.760236740112304688e+00 2.078227996826171875e+00
1.710000000000000000e+02 5.417972946166992188e+01 -2.557926177978515625e+01 3.841092348098754883e+00 -3.371045589447021484e-01 1.051196336746215820e+00 6.853777170181274414e-01
1.720000000000000000e+02 5.405978012084960938e+01 -2.697650337219238281e+01 1.195943593978881836e+00 2.694267034530639648e-01 4.396111071109771729e-01 -5.947383046150207520e-01
1.730000000000000000e+02 5.410071945190429688e+01 -2.623070716857910156e+01 3.069152832031250000e+00 -2.000433355569839478e-01 8.607328534126281738e-01 -3.344291150569915771e-01
1.740000000000000000e+02 5.503274917602539062e+01 -2.607221221923828125e+01 2.424022436141967773e+00 -4.674325883388519287e-01 5.869769454002380371e-01 2.465321868658065796e-01
1.750000000000000000e+02 5.502038192749023438e+01 -2.731300735473632812e+01 7.953246831893920898e-01 -1.168443709611892700e-01 2.035440951585769653e-01 -1.794906705617904663e-01
1.760000000000000000e+02 5.552983856201171875e+01 -2.639062118530273438e+01 1.935195326805114746e+00 -3.601396381855010986e-01 4.725167155265808105e-01 1.763846725225448608e-01
1.770000000000000000e+02 5.535686492919921875e+01 -2.628677749633789062e+01 1.952317595481872559e+00 -3.997812569141387939e-01 4.657609164714813232e-01 1.685165762901306152e-01
1.780000000000000000e+02 5.474791717529296875e+01 -2.739925003051757812e+01 6.394065618515014648e-01 1.334991157054901123e-01 2.318717092275619507e-01 -2.709036469459533691e-01
1.790000000000000000e+02 5.298902130126953125e+01 -2.523227500915527344e+01 4.952743053436279297e+00 2.840327739715576172e+00 2.337921142578125000e+00 2.483789920806884766e+00
1.800000000000000000e+02 5.318314361572265625e+01 -2.526037216186523438e+01 5.250083923339843750e+00 1.732431650161743164e+00 2.094754695892333984e+00 2.473084449768066406e+00
1.810000000000000000e+02 5.383582687377929688e+01 -2.537903594970703125e+01 4.428611755371093750e+00 5.183834582567214966e-02 1.344135046005249023e+00 1.292421102523803711e+00
1.820000000000000000e+02 5.401058959960937500e+01 -2.547729110717773438e+01 4.151730060577392578e+00 -1.927585452795028687e-01 1.187691450119018555e+00 9.672793149948120117e-01
1.830000000000000000e+02 5.433890151977539062e+01 -2.569198989868164062e+01 3.485831499099731445e+00 -3.965563178062438965e-01 9.267825484275817871e-01 4.964041709899902344e-01
1.840000000000000000e+02 5.419115829467773438e+01 -2.883271026611328125e+01 3.958992958068847656e-01 9.186482429504394531e-01 3.943642675876617432e-01 -7.523396015167236328e-01
1.850000000000000000e+02 5.401476287841796875e+01 -2.872095108032226562e+01 3.732270002365112305e-01 9.724162817001342773e-01 4.036929905414581299e-01 -7.519802451133728027e-01
1.860000000000000000e+02 5.366600799560546875e+01 -2.851207351684570312e+01 4.517390727996826172e-01 1.259078979492187500e+00 5.132454037666320801e-01 -8.796938657760620117e-01
1.870000000000000000e+02 5.384047317504882812e+01 -2.861636161804199219e+01 4.077535271644592285e-01 1.103410482406616211e+00 4.533492326736450195e-01 -8.305417895317077637e-01
1.880000000000000000e+02 5.296563720703125000e+01 -2.808052062988281250e+01 5.355598926544189453e-01 2.220233201980590820e+00 8.267379403114318848e-01 -1.084512829780578613e+00
1.890000000000000000e+02 5.288050842285156250e+01 -2.774618530273437500e+01 6.731395721435546875e-01 2.370680093765258789e+00 9.131458997726440430e-01 -1.175451397895812988e+00
1.900000000000000000e+02 5.210422134399414062e+01 -2.720599555969238281e+01 6.620090603828430176e-01 5.635953903198242188e+00 1.889388799667358398e+00 -3.011181652545928955e-01
1.910000000000000000e+02 5.272486114501953125e+01 -2.483620452880859375e+01 3.073407173156738281e+00 4.244982242584228516e+00 2.195516824722290039e+00 2.300204038619995117e+00
1.920000000000000000e+02 5.264392852783203125e+01 -2.510808372497558594e+01 3.928987503051757812e+00 5.404861927032470703e+00 2.800154924392700195e+00 2.568749904632568359e+00
1.930000000000000000e+02 5.333628463745117188e+01 -2.556977653503417969e+01 5.898662567138671875e+00 6.252021193504333496e-01 1.957159399986267090e+00 1.548332333564758301e+00
1.940000000000000000e+02 5.174314880371093750e+01 -2.513410377502441406e+01 4.262940883636474609e+00 5.448729515075683594e+00 2.913501024246215820e+00 -6.831309795379638672e-01
1.950000000000000000e+02 5.152162170410156250e+01 -2.509285736083984375e+01 4.036489009857177734e+00 4.170796394348144531e+00 2.462185621261596680e+00 -1.127914547920227051e+00
1.960000000000000000e+02 5.167872619628906250e+01 -2.530851936340332031e+01 4.681665897369384766e+00 5.048015117645263672e+00 2.918904304504394531e+00 -9.437292814254760742e-01
1.970000000000000000e+02 5.267354202270507812e+01 -2.500045394897460938e+01 3.518407106399536133e+00 5.093828678131103516e+00 2.583670854568481445e+00 2.507730722427368164e+00
1.980000000000000000e+02 5.198468399047851562e+01 -2.482229995727539062e+01 2.443971872329711914e+00 5.212889671325683594e+00 2.297058582305908203e+00 1.793031543493270874e-01
1.990000000000000000e+02 5.365353012084960938e+01 -2.642609977722167969e+01 2.831849575042724609e+00 1.882043331861495972e-01 9.060161709785461426e-01 -8.596692681312561035e-01
2.000000000000000000e+02 5.392481994628906250e+01 -2.675171661376953125e+01 1.737214088439941406e+00 2.474333494901657104e-01 5.953942537307739258e-01 -6.937130093574523926e-01
2.010000000000000000e+02 5.342805862426757812e+01 -2.575780868530273438e+01 5.634090900421142578e+00 1.281989812850952148e-01 1.728686928749084473e+00 7.177978754043579102e-01
2.020000000000000000e+02 5.145183563232421875e+01 -2.541104507446289062e+01 5.060492038726806641e+00 4.161984920501708984e+00 2.766742944717407227e+00 -1.017528295516967773e+00
2.030000000000000000e+02 5.108775711059570312e+01 -2.576530456542968750e+01 5.911405563354492188e+00 2.851438522338867188e+00 2.628853082656860352e+00 -2.391109168529510498e-01
2.040000000000000000e+02 5.189038085937500000e+01 -2.713752555847167969e+01 1.409456729888916016e+00 5.920344352722167969e+00 2.198940277099609375e+00 7.971547842025756836e-01
2.050000000000000000e+02 5.207655715942382812e+01 -2.759407043457031250e+01 3.224259316921234131e-01 4.468981266021728516e+00 1.437422275543212891e+00 -4.355225563049316406e-01
2.060000000000000000e+02 5.232027435302734375e+01 -2.723576736450195312e+01 6.499554514884948730e-01 5.107142925262451172e+00 1.727129578590393066e+00 -9.714347720146179199e-01
2.070000000000000000e+02 5.170026779174804688e+01 -2.700540924072265625e+01 1.867902040481567383e+00 6.182052135467529297e+00 2.414986133575439453e+00 1.747451066970825195e+00
2.080000000000000000e+02 5.295976257324218750e+01 -2.709358978271484375e+01 1.169039130210876465e+00 1.643848538398742676e+00 8.438662886619567871e-01 -1.390901803970336914e+00
2.090000000000000000e+02 5.120919799804687500e+01 -2.625003623962402344e+01 5.260583877563476562e+00 3.442728757858276367e+00 2.610993862152099609e+00 1.477551460266113281e+00
2.100000000000000000e+02 5.351832580566406250e+01 -2.544768714904785156e+01 5.145948410034179688e+00 4.283894002437591553e-01 1.672301411628723145e+00 1.491479635238647461e+00
2.110000000000000000e+02 5.370620346069335938e+01 -2.555691909790039062e+01 4.837194442749023438e+00 6.647804379463195801e-02 1.471101760864257812e+00 1.029337286949157715e+00
2.120000000000000000e+02 5.450050735473632812e+01 -2.581437301635742188e+01 3.205703496932983398e+00 -4.447189867496490479e-01 8.282953500747680664e-01 3.696047961711883545e-01
2.130000000000000000e+02 5.542351531982421875e+01 -2.657349205017089844e+01 1.546610951423645020e+00 -2.785829603672027588e-01 3.804083764553070068e-01 9.488090872764587402e-02
2.140000000000000000e+02 5.423968505859375000e+01 -2.707368087768554688e+01 1.089185595512390137e+00 1.805457025766372681e-01 3.809193968772888184e-01 -5.100982785224914551e-01
2.150000000000000000e+02 5.506282043457031250e+01 -2.633832359313964844e+01 2.091852426528930664e+00 -3.675619661808013916e-01 5.172871351242065430e-01 3.342051431536674500e-02
2.160000000000000000e+02 5.450961303710937500e+01 -2.701269340515136719e+01 1.149713873863220215e+00 7.706765830516815186e-02 3.680344820022583008e-01 -4.092351198196411133e-01
2.170000000000000000e+02 5.493480682373046875e+01 -2.700781250000000000e+01 1.222282648086547852e+00 -1.170984059572219849e-01 3.315552771091461182e-01 -1.876405328512191772e-01
2.180000000000000000e+02 5.394263839721679688e+01 -2.721206283569335938e+01 4.664447605609893799e-01 2.541354596614837646e-01 2.161740660667419434e-01 -2.969204485416412354e-01
2.190000000000000000e+02 5.376633834838867188e+01 -2.711138725280761719e+01 4.930228590965270996e-01 2.140953689813613892e-01 2.121354639530181885e-01 -3.705065250396728516e-01
2.200000000000000000e+02 5.358992767333984375e+01 -2.819942283630371094e+01 5.659568309783935547e-01 1.232171058654785156e+00 5.394383668899536133e-01 -9.032502770423889160e-01
2.210000000000000000e+02 5.359161758422851562e+01 -2.700615882873535156e+01 5.674708485603332520e-01 2.856490910053253174e-01 2.559359669685363770e-01 -3.673842549324035645e-01
2.220000000000000000e+02 5.453231048583984375e+01 -2.783678054809570312e+01 2.814623117446899414e-01 2.404577881097793579e-01 1.565760374069213867e-01 -3.401480317115783691e-01
2.230000000000000000e+02 5.417509078979492188e+01 -2.764154815673828125e+01 4.592038989067077637e-01 3.151226043701171875e-01 2.322979420423507690e-01 -4.400436580181121826e-01
2.240000000000000000e+02 5.411647415161132812e+01 -2.731713867187500000e+01 3.796040117740631104e-01 1.588279306888580322e-01 1.615295857191085815e-01 -3.115142285823822021e-01
2.250000000000000000e+02 5.328242874145507812e+01 -2.707609367370605469e+01 9.905875325202941895e-01 7.189113497734069824e-01 5.128496289253234863e-01 -8.337034583091735840e-01
2.260000000000000000e+02 5.314181518554687500e+01 -2.818919754028320312e+01 5.125804543495178223e-01 1.865667343139648438e+00 7.134743332862854004e-01 -1.093223452568054199e+00
2.270000000000000000e+02 5.383647918701171875e+01 -2.740610694885253906e+01 5.754754543304443359e-01 3.806467354297637939e-01 2.868366539478302002e-01 -5.310134291648864746e-01
2.280000000000000000e+02 5.349140167236328125e+01 -2.840581321716308594e+01 4.714493155479431152e-01 1.428915858268737793e+00 5.701095461845397949e-01 -9.708036780357360840e-01
2.290000000000000000e+02 5.368957138061523438e+01 -2.800819778442382812e+01 6.057053804397583008e-01 9.862735271453857422e-01 4.775936603546142578e-01 -8.728547096252441406e-01
2.300000000000000000e+02 5.306572723388671875e+01 -2.784377861022949219e+01 6.365236639976501465e-01 1.969906449317932129e+00 7.819290161132812500e-01 -1.188038825988769531e+00
2.310000000000000000e+02 5.243237686157226562e+01 -2.776747322082519531e+01 3.495202362537384033e-01 3.595647096633911133e+00 1.183550238609313965e+00 -9.493511915206909180e-01
2.320000000000000000e+02 5.278838729858398438e+01 -2.797758293151855469e+01 4.969935417175292969e-01 2.545719385147094727e+00 9.128139019012451172e-01 -1.169938802719116211e+00
2.330000000000000000e+02 5.251402664184570312e+01 -2.752483940124511719e+01 5.901301503181457520e-01 3.777201652526855469e+00 1.310199618339538574e+00 -1.174395680427551270e+00
2.340000000000000000e+02 5.192870712280273438e+01 -2.748642921447753906e+01 5.781816840171813965e-01 5.079678058624267578e+00 1.697357892990112305e+00 2.105188369750976562e-01
2.350000000000000000e+02 5.531974792480468750e+01 -2.675478172302246094e+01 1.547344326972961426e+00 -2.405759394168853760e-01 3.920305073261260986e-01 -1.093404889106750488e-01
2.360000000000000000e+02 5.521824264526367188e+01 -2.693774795532226562e+01 1.243185281753540039e+00 -2.008356899023056030e-01 3.127048909664154053e-01 -7.268563657999038696e-02
2.370000000000000000e+02 5.446255111694335938e+01 -2.806100845336914062e+01 3.787638545036315918e-01 4.780243933200836182e-01 2.570364773273468018e-01 -4.722723960876464844e-01
2.380000000000000000e+02 5.435142898559570312e+01 -2.775847434997558594e+01 4.227343797683715820e-01 3.648762702941894531e-01 2.362831979990005493e-01 -3.602758049964904785e-01
2.390000000000000000e+02 5.439273834228515625e+01 -2.842578125000000000e+01 4.315893650054931641e-01 5.877284407615661621e-01 3.057953417301177979e-01 -6.264535784721374512e-01
2.400000000000000000e+02 5.345297241210937500e+01 -2.638825225830078125e+01 3.101724624633789062e+00 3.040432929992675781e-01 1.021730303764343262e+00 -1.007658004760742188e+00
2.410000000000000000e+02 5.355161666870117188e+01 -2.669963836669921875e+01 1.848179578781127930e+00 4.496321082115173340e-01 6.893435120582580566e-01 -8.763712048530578613e-01
2.420000000000000000e+02 5.445895767211914062e+01 -2.753160476684570312e+01 2.845726609230041504e-01 1.011678650975227356e-01 1.157221570611000061e-01 -2.456401288509368896e-01
2.430000000000000000e+02 5.313506698608398438e+01 -2.724944496154785156e+01 1.002258062362670898e+00 1.395009756088256836e+00 7.191803455352783203e-01 -1.179279804229736328e+00
2.440000000000000000e+02 5.108592605590820312e+01 -2.647664642333984375e+01 4.998290061950683594e+00 3.295637845993041992e+00 2.488178253173828125e+00 1.727700591087341309e+00
2.450000000000000000e+02 5.487079238891601562e+01 -2.600393676757812500e+01 2.683904409408569336e+00 -4.600934386253356934e-01 6.671432852745056152e-01 2.259397208690643311e-01
2.460000000000000000e+02 5.348719406127929688e+01 -2.596726989746093750e+01 5.040957927703857422e+00 -5.309684202075004578e-02 1.496358275413513184e+00 -9.596199542284011841e-02
2.470000000000000000e+02 5.467055130004882812e+01 -2.710346221923828125e+01 1.067425012588500977e+00 7.127489894628524780e-02 3.416099548339843750e-01 -3.153087794780731201e-01
2.480000000000000000e+02 5.457654571533203125e+01 -2.729838752746582031e+01 7.424932122230529785e-01 1.317975372076034546e-01 2.622872292995452881e-01 -3.633866310119628906e-01
2.490000000000000000e+02 5.484254074096679688e+01 -2.720316314697265625e+01 9.070900082588195801e-01 2.740647457540035248e-02 2.803489565849304199e-01 -2.941430211067199707e-01
2.500000000000000000e+02 5.483427810668945312e+01 -2.669997596740722656e+01 1.699608564376831055e+00 -1.937369406223297119e-01 4.517614841461181641e-01 -1.814394295215606689e-01
2.510000000000000000e+02 5.358150482177734375e+01 -2.754389381408691406e+01 7.459192276000976562e-01 7.520396113395690918e-01 4.493876695632934570e-01 -8.084625005722045898e-01
2.520000000000000000e+02 5.385353851318359375e+01 -2.811311912536621094e+01 5.659735798835754395e-01 8.961664438247680664e-01 4.386419951915740967e-01 -7.540810704231262207e-01
2.530000000000000000e+02 5.368033218383789062e+01 -2.658069419860839844e+01 2.232566833496093750e+00 3.283498585224151611e-01 7.682749629020690918e-01 -8.718342781066894531e-01
2.540000000000000000e+02 5.389943695068359375e+01 -2.564318466186523438e+01 4.312134265899658203e+00 -2.382630705833435059e-01 1.222161412239074707e+00 6.326570510864257812e-01
2.550000000000000000e+02 5.253629302978515625e+01 -2.725264358520507812e+01 7.425969839096069336e-01 3.904118061065673828e+00 1.394014477729797363e+00 -1.446266770362854004e+00
2.560000000000000000e+02 5.428396224975585938e+01 -2.668100547790527344e+01 1.846725583076477051e+00 -2.602817257866263390e-03 5.532368421554565430e-01 -5.135947465896606445e-01
2.570000000000000000e+02 5.418061065673828125e+01 -2.586476707458496094e+01 3.667179107666015625e+00 -3.821306824684143066e-01 9.855145215988159180e-01 2.029526382684707642e-01
2.580000000000000000e+02 5.524002838134765625e+01 -2.646091270446777344e+01 1.937140345573425293e+00 -3.444941639900207520e-01 4.777938425540924072e-01 3.125398233532905579e-02
2.590000000000000000e+02 5.431813430786132812e+01 -2.604479026794433594e+01 3.146875381469726562e+00 -3.183384537696838379e-01 8.485610485076904297e-01 5.775464698672294617e-03
2.600000000000000000e+02 5.345544052124023438e+01 -2.721217155456542969e+01 8.173112869262695312e-01 6.274809241294860840e-01 4.334376454353332520e-01 -7.550703883171081543e-01
2.610000000000000000e+02 5.335259246826171875e+01 -2.777610397338867188e+01 6.790805459022521973e-01 1.332234501838684082e+00 6.033945083618164062e-01 -1.059115171432495117e+00
2.620000000000000000e+02 5.428786849975585938e+01 -2.742664909362792969e+01 3.554411530494689941e-01 2.316658794879913330e-01 1.761321127414703369e-01 -2.215824276208877563e-01
2.630000000000000000e+02 5.379389572143554688e+01 -2.783788299560546875e+01 6.512162089347839355e-01 7.969118356704711914e-01 4.344384074211120605e-01 -7.588334679603576660e-01
2.640000000000000000e+02 5.409074783325195312e+01 -2.798178672790527344e+01 5.271738171577453613e-01 6.429494619369506836e-01 3.510369956493377686e-01 -5.892782211303710938e-01
2.650000000000000000e+02 5.427744293212890625e+01 -2.802176856994628906e+01 4.337157309055328369e-01 4.329553246498107910e-01 2.600013315677642822e-01 -5.384795665740966797e-01
2.660000000000000000e+02 5.399191284179687500e+01 -2.589353561401367188e+01 3.920130252838134766e+00 -2.695642709732055664e-01 1.095169782638549805e+00 1.885686814785003662e-01
2.670000000000000000e+02 5.319823074340820312e+01 -2.765920639038085938e+01 8.435347080230712891e-01 1.638134360313415527e+00 7.445006966590881348e-01 -1.168877482414245605e+00
2.680000000000000000e+02 5.381820297241210938e+01 -2.579739379882812500e+01 4.303076744079589844e+00 -1.793827563524246216e-01 1.237108230590820312e+00 3.497526645660400391e-01
2.690000000000000000e+02 5.420837402343750000e+01 -2.828391075134277344e+01 4.562115371227264404e-01 6.911757588386535645e-01 3.442161977291107178e-01 -6.213951110839843750e-01
2.700000000000000000e+02 5.470355987548828125e+01 -2.791761207580566406e+01 2.037054747343063354e-01 2.132850587368011475e-01 1.250971555709838867e-01 -2.746829092502593994e-01
2.710000000000000000e+02 5.411059188842773438e+01 -2.850847053527832031e+01 4.341540634632110596e-01 8.287109136581420898e-01 3.788594901561737061e-01 -7.385336160659790039e-01
2.720000000000000000e+02 5.463072967529296875e+01 -2.762904167175292969e+01 3.000826835632324219e-01 1.993966698646545410e-01 1.498438119888305664e-01 -1.504802256822586060e-01
2.730000000000000000e+02 5.393584823608398438e+01 -2.840673446655273438e+01 4.831835031509399414e-01 9.368415474891662598e-01 4.260075092315673828e-01 -7.655432224273681641e-01
2.740000000000000000e+02 5.376208877563476562e+01 -2.830683326721191406e+01 4.994661211967468262e-01 1.055134534835815430e+00 4.663802087306976318e-01 -8.646509051322937012e-01
2.750000000000000000e+02 5.341846466064453125e+01 -2.808580207824707031e+01 5.824204087257385254e-01 1.403955101966857910e+00 5.959126353263854980e-01 -1.011366844177246094e+00
2.760000000000000000e+02 5.331695175170898438e+01 -2.829803848266601562e+01 5.199550390243530273e-01 1.632546901702880859e+00 6.457505822181701660e-01 -1.007238864898681641e+00
2.770000000000000000e+02 5.270467758178710938e+01 -2.763938713073730469e+01 6.165688037872314453e-01 2.981884717941284180e+00 1.079536080360412598e+00 -1.340613603591918945e+00
2.780000000000000000e+02 5.261092758178710938e+01 -2.787231063842773438e+01 4.481011927127838135e-01 3.195156574249267578e+00 1.092977285385131836e+00 -1.024177432060241699e+00
2.790000000000000000e+02 5.225129699707031250e+01 -2.767458534240722656e+01 3.668453991413116455e-01 4.249176502227783203e+00 1.384806513786315918e+00 -6.549034118652343750e-01
2.800000000000000000e+02 5.176281356811523438e+01 -2.735792732238769531e+01 8.451353311538696289e-01 5.040877819061279297e+00 1.765803933143615723e+00 3.724040985107421875e-01
2.810000000000000000e+02 5.209461593627929688e+01 -2.742020606994628906e+01 5.358561873435974121e-01 5.167976856231689453e+00 1.711149930953979492e+00 -2.965568006038665771e-01
2.820000000000000000e+02 5.400931167602539062e+01 -2.751039505004882812e+01 5.352905392646789551e-01 3.896271586418151855e-01 2.774753272533416748e-01 -4.243538379669189453e-01
2.830000000000000000e+02 5.364431381225585938e+01 -2.732247924804687500e+01 7.302052378654479980e-01 5.603022575378417969e-01 3.871522545814514160e-01 -6.009343266487121582e-01
2.840000000000000000e+02 5.511908721923828125e+01 -2.712403678894042969e+01 1.017046332359313965e+00 -1.172758787870407104e-01 2.699311375617980957e-01 -2.545757591724395752e-01
2.850000000000000000e+02 5.502804946899414062e+01 -2.681671905517578125e+01 1.519176840782165527e+00 -1.972148418426513672e-01 3.965886235237121582e-01 -1.884807646274566650e-01
2.860000000000000000e+02 5.512909698486328125e+01 -2.663408088684082031e+01 1.651418805122375488e+00 -2.662332952022552490e-01 4.155556559562683105e-01 -4.488909244537353516e-02
2.870000000000000000e+02 5.440694427490234375e+01 -2.719413185119628906e+01 9.240410327911376953e-01 2.237587720155715942e-01 3.443399369716644287e-01 -3.889421820640563965e-01
2.880000000000000000e+02 5.379482650756835938e+01 -2.669523239135742188e+01 1.887485861778259277e+00 3.208881318569183350e-01 6.625121831893920898e-01 -7.753244638442993164e-01
2.890000000000000000e+02 5.371082305908203125e+01 -2.681739234924316406e+01 1.535092234611511230e+00 4.043590724468231201e-01 5.818353891372680664e-01 -7.773250341415405273e-01
2.900000000000000000e+02 5.373556137084960938e+01 -2.624206352233886719e+01 3.524185657501220703e+00 -9.832688607275485992e-03 1.054305911064147949e+00 -5.855685472488403320e-01
2.910000000000000000e+02 5.518798446655273438e+01 -2.617971038818359375e+01 2.248037815093994141e+00 -4.350934624671936035e-01 5.438833236694335938e-01 2.051401585340499878e-01
2.920000000000000000e+02 5.468326568603515625e+01 -2.593273544311523438e+01 2.893993377685546875e+00 -4.513327777385711670e-01 7.327981591224670410e-01 2.515395879745483398e-01
2.930000000000000000e+02 5.490318298339843750e+01 -2.619344711303710938e+01 2.435653209686279297e+00 -4.097238183021545410e-01 6.077788472175598145e-01 6.969509273767471313e-02
2.940000000000000000e+02 5.453423690795898438e+01 -2.620451545715332031e+01 2.703914403915405273e+00 -3.433465659618377686e-01 7.081704139709472656e-01 -7.449576258659362793e-02
2.950000000000000000e+02 5.406334304809570312e+01 -2.573569297790527344e+01 3.929330587387084961e+00 -2.706300318241119385e-01 1.097610235214233398e+00 4.938917160034179688e-01
2.960000000000000000e+02 5.366391754150390625e+01 -2.527695655822753906e+01 4.616038322448730469e+00 4.502205550670623779e-01 1.519877672195434570e+00 1.634966135025024414e+00
2.970000000000000000e+02 5.330741119384765625e+01 -2.507497215270996094e+01 4.396131992340087891e+00 1.769957065582275391e+00 1.849826693534851074e+00 2.453127861022949219e+00
2.980000000000000000e+02 5.228161239624023438e+01 -2.485413932800292969e+01 2.683326482772827148e+00 4.848783969879150391e+00 2.259633302688598633e+00 8.190413713455200195e-01
2.990000000000000000e+02 5.370059967041015625e+01 -2.591679954528808594e+01 4.571133136749267578e+00 -1.584693342447280884e-01 1.323799133300781250e+00 2.771247737109661102e-02
3.000000000000000000e+02 5.287142562866210938e+01 -2.749763107299804688e+01 8.226496577262878418e-01 2.407641172409057617e+00 9.690872430801391602e-01 -1.365286350250244141e+00
3.010000000000000000e+02 5.202651596069335938e+01 -2.511775779724121094e+01 3.665331602096557617e+00 6.126111507415771484e+00 2.937433004379272461e+00 -3.780756890773773193e-01
3.020000000000000000e+02 5.226959991455078125e+01 -2.504836463928222656e+01 3.526499509811401367e+00 5.752154350280761719e+00 2.783596277236938477e+00 1.119822859764099121e+00
3.030000000000000000e+02 5.197882843017578125e+01 -2.498787879943847656e+01 3.314481258392333984e+00 6.182015895843505859e+00 2.848949193954467773e+00 -9.511568397283554077e-02
3.040000000000000000e+02 5.321112060546875000e+01 -2.542255020141601562e+01 5.769220829010009766e+00 1.392472505569458008e+00 2.148508071899414062e+00 2.222329854965209961e+00
3.050000000000000000e+02 5.282357406616210938e+01 -2.517207908630371094e+01 4.517650604248046875e+00 4.430387020111083984e+00 2.684411287307739258e+00 2.822379589080810547e+00
3.060000000000000000e+02 5.291555404663085938e+01 -2.508296394348144531e+01 4.122350215911865234e+00 3.602404594421386719e+00 2.317426443099975586e+00 2.459244966506958008e+00
3.070000000000000000e+02 5.230168151855468750e+01 -2.746327781677246094e+01 4.471797943115234375e-01 4.491649627685546875e+00 1.481648802757263184e+00 -9.197372794151306152e-01
3.080000000000000000e+02 5.438476181030273438e+01 -2.687535667419433594e+01 1.486486673355102539e+00 1.033122688531875610e-01 4.769396781921386719e-01 -4.464347362518310547e-01
3.090000000000000000e+02 5.475234222412109375e+01 -2.690422630310058594e+01 1.430173993110656738e+00 -6.298752874135971069e-02 4.101559221744537354e-01 -3.109245598316192627e-01
3.100000000000000000e+02 5.493878555297851562e+01 -2.650531387329101562e+01 1.978203415870666504e+00 -2.926287651062011719e-01 5.056723952293395996e-01 -9.017965942621231079e-02
3.110000000000000000e+02 5.462537002563476562e+01 -2.659429168701171875e+01 1.999508500099182129e+00 -1.719821393489837646e-01 5.482579469680786133e-01 -2.563985586166381836e-01
3.120000000000000000e+02 5.352557754516601562e+01 -2.788001441955566406e+01 6.975926756858825684e-01 1.162591338157653809e+00 5.580552220344543457e-01 -9.301981329917907715e-01
3.130000000000000000e+02 5.324444198608398438e+01 -2.797239303588867188e+01 6.538292169570922852e-01 1.632847070693969727e+00 6.860029101371765137e-01 -1.064345240592956543e+00
3.140000000000000000e+02 5.380029296875000000e+01 -2.649168395996093750e+01 2.638174533843994141e+00 1.432787328958511353e-01 8.344359993934631348e-01 -6.958375573158264160e-01
3.150000000000000000e+02 5.403431701660156250e+01 -2.654501152038574219e+01 2.402223825454711914e+00 1.755509153008460999e-02 7.259336709976196289e-01 -5.788251757621765137e-01
3.160000000000000000e+02 5.389588165283203125e+01 -2.661266899108886719e+01 2.189980745315551758e+00 1.818623989820480347e-01 7.115529179573059082e-01 -7.116113901138305664e-01
3.170000000000000000e+02 5.421338653564453125e+01 -2.645736503601074219e+01 2.455209255218505859e+00 -7.253029197454452515e-02 7.148036360740661621e-01 -3.988443613052368164e-01
3.180000000000000000e+02 5.388179397583007812e+01 -2.606463813781738281e+01 3.800791501998901367e+00 -1.713082492351531982e-01 1.088845014572143555e+00 -1.956216990947723389e-01
3.190000000000000000e+02 5.402561187744140625e+01 -2.819845008850097656e+01 4.790957868099212646e-01 7.335271835327148438e-01 3.637868762016296387e-01 -7.342327833175659180e-01
3.200000000000000000e+02 5.474871063232421875e+01 -2.635322380065917969e+01 2.273025035858154297e+00 -3.088873624801635742e-01 5.892413258552551270e-01 -7.411892712116241455e-02
3.210000000000000000e+02 5.338224029541015625e+01 -2.757225036621093750e+01 8.657656311988830566e-01 1.117097496986389160e+00 5.948589444160461426e-01 -9.848570227622985840e-01
3.220000000000000000e+02 5.309653472900390625e+01 -2.745540618896484375e+01 9.281094074249267578e-01 1.754651427268981934e+00 8.048282265663146973e-01 -1.286651372909545898e+00
3.230000000000000000e+02 5.391902923583984375e+01 -2.637174606323242188e+01 2.840933799743652344e+00 1.737040281295776367e-02 8.574912548065185547e-01 -5.787327885627746582e-01
3.240000000000000000e+02 5.441470336914062500e+01 -2.647679519653320312e+01 2.250914335250854492e+00 -1.506371945142745972e-01 6.300831437110900879e-01 -3.389018177986145020e-01
3.250000000000000000e+02 5.456771087646484375e+01 -2.682549285888671875e+01 1.585794806480407715e+00 -3.486766293644905090e-02 4.652781188488006592e-01 -3.908735215663909912e-01
3.260000000000000000e+02 5.393551254272460938e+01 -2.793670272827148438e+01 5.977492928504943848e-01 6.763560175895690918e-01 3.822315931320190430e-01 -7.220563292503356934e-01
3.270000000000000000e+02 5.404441452026367188e+01 -2.780169486999511719e+01 5.256533026695251465e-01 5.218431353569030762e-01 3.142489492893218994e-01 -5.539336204528808594e-01
3.280000000000000000e+02 5.390188217163085938e+01 -2.768047523498535156e+01 5.930770635604858398e-01 5.211050510406494141e-01 3.342546224594116211e-01 -6.017748117446899414e-01
3.290000000000000000e+02 5.375290298461914062e+01 -2.758255767822265625e+01 6.609271764755249023e-01 6.160570979118347168e-01 3.830952644348144531e-01 -6.368789076805114746e-01
3.300000000000000000e+02 5.364987945556640625e+01 -2.772137069702148438e+01 7.238005399703979492e-01 8.675608038902282715e-01 4.774083793163299561e-01 -8.347961306571960449e-01
3.310000000000000000e+02 5.329502105712890625e+01 -2.737620162963867188e+01 8.846618533134460449e-01 1.014431595802307129e+00 5.697280168533325195e-01 -9.688341021537780762e-01
3.320000000000000000e+02 5.612791061401367188e+01 -3.056291961669921875e+01 8.681695163249969482e-02 9.802023172378540039e-01 3.201057612895965576e-01 -2.488637715578079224e-01
3.330000000000000000e+02 5.496108627319335938e+01 -3.101781654357910156e+01 2.090279459953308105e-01 1.006401062011718750e+00 3.646287322044372559e-01 -6.233959794044494629e-01
3.340000000000000000e+02 5.405929565429687500e+01 -3.257735824584960938e+01 8.767247200012207031e-02 1.158695578575134277e+00 3.739103972911834717e-01 -3.714513182640075684e-01
3.350000000000000000e+02 5.090175247192382812e+01 -3.138610458374023438e+01 -1.826845556497573853e-01 1.612688422203063965e+00 4.290011525154113770e-01 1.209311559796333313e-01
3.360000000000000000e+02 4.988857269287109375e+01 -3.150422859191894531e+01 -9.438840299844741821e-02 1.332990169525146484e+00 3.715805411338806152e-01 4.066308736801147461e-01
3.370000000000000000e+02 4.659361648559570312e+01 -3.322824478149414062e+01 1.686553470790386200e-02 1.515773683786392212e-01 5.053287371993064880e-02 5.615775585174560547e-01
3.380000000000000000e+02 4.542712020874023438e+01 -3.080174636840820312e+01 1.263676285743713379e-01 -4.365542829036712646e-01 -9.305599331855773926e-02 4.736443459987640381e-01
3.390000000000000000e+02 4.313600540161132812e+01 -3.100438499450683594e+01 -1.022228822112083435e-01 -1.375911951065063477e+00 -4.434404671192169189e-01 1.570841670036315918e-01
3.400000000000000000e+02 4.341981887817382812e+01 -3.309131240844726562e+01 1.400538533926010132e-01 -8.476449847221374512e-01 -2.122773528099060059e-01 3.063980937004089355e-01
3.410000000000000000e+02 4.081441879272460938e+01 -3.141042709350585938e+01 -4.750759601593017578e-01 -1.002312183380126953e+00 -4.432164430618286133e-01 -6.011508703231811523e-01
3.420000000000000000e+02 4.037628173828125000e+01 -3.421530532836914062e+01 3.150741010904312134e-02 -6.481409072875976562e-01 -1.849900484085083008e-01 -1.998386681079864502e-01
3.430000000000000000e+02 3.805932235717773438e+01 -3.287392807006835938e+01 -2.659022510051727295e-01 -1.772076487541198730e-01 -1.329329758882522583e-01 -2.042329162359237671e-01
3.440000000000000000e+02 3.657513046264648438e+01 -3.326700210571289062e+01 -1.399163603782653809e-01 -7.498177140951156616e-02 -6.446944177150726318e-02 -1.088267490267753601e-01
3.450000000000000000e+02 3.877017211914062500e+01 -3.460261535644531250e+01 -7.737153768539428711e-02 -4.164707958698272705e-01 -1.481526941061019897e-01 -2.766044735908508301e-01
3.460000000000000000e+02 3.231227874755859375e+01 -4.095308303833007812e+01 6.235716398805379868e-03 -1.028478741645812988e-01 -2.898364700376987457e-02 -1.532017719000577927e-02
3.470000000000000000e+02 4.323997879028320312e+01 -4.115367889404296875e+01 1.328886002302169800e-01 -1.872708201408386230e-01 -1.631466671824455261e-02 3.335340693593025208e-02
3.480000000000000000e+02 3.719171524047851562e+01 -3.529266357421875000e+01 -5.978798121213912964e-02 -2.305859923362731934e-01 -8.711218833923339844e-02 -1.933022439479827881e-01
3.490000000000000000e+02 3.995574951171875000e+01 -3.600916671752929688e+01 1.276984065771102905e-01 -5.214459896087646484e-01 -1.181242838501930237e-01 -1.171266734600067139e-01
3.500000000000000000e+02 5.553664779663085938e+01 -3.018963241577148438e+01 1.449114829301834106e-01 7.732844352722167969e-01 2.754587829113006592e-01 -4.958222806453704834e-01
3.510000000000000000e+02 5.382483291625976562e+01 -2.902344322204589844e+01 3.540060818195343018e-01 1.236768364906311035e+00 4.772323071956634521e-01 -8.478376269340515137e-01
3.520000000000000000e+02 5.180447006225585938e+01 -2.802939987182617188e+01 2.873353064060211182e-01 3.996753454208374023e+00 1.285226583480834961e+00 -1.293341745622456074e-03
3.530000000000000000e+02 5.039921569824218750e+01 -3.071019554138183594e+01 -2.703560050576925278e-03 1.762333750724792480e+00 5.278890728950500488e-01 3.997795283794403076e-01
3.540000000000000000e+02 4.677458572387695312e+01 -2.997329330444335938e+01 3.466790020465850830e-01 6.615769118070602417e-02 1.238510161638259888e-01 6.141456365585327148e-01
3.550000000000000000e+02 4.407582855224609375e+01 -2.969978332519531250e+01 -1.596861332654953003e-01 -1.087213397026062012e+00 -3.740698397159576416e-01 1.537961065769195557e-01
3.560000000000000000e+02 4.247177505493164062e+01 -2.885908699035644531e+01 -4.187524616718292236e-01 -2.805217027664184570e+00 -9.671908020973205566e-01 -5.521312355995178223e-01
3.570000000000000000e+02 4.179383468627929688e+01 -3.017064476013183594e+01 -5.682572126388549805e-01 -2.082129240036010742e+00 -7.951158881187438965e-01 -7.685161828994750977e-01
3.580000000000000000e+02 5.150162124633789062e+01 -2.821560287475585938e+01 4.538337886333465576e-01 3.873779058456420898e+00 1.298283934593200684e+00 4.185801148414611816e-01
3.590000000000000000e+02 4.967363357543945312e+01 -2.587866401672363281e+01 3.259053707122802734e+00 6.328496336936950684e-01 1.167570948600769043e+00 -1.518202424049377441e-01
3.600000000000000000e+02 4.745911788940429688e+01 -2.378363227844238281e+01 2.206431925296783447e-01 -7.427889704704284668e-01 -1.566437482833862305e-01 -1.626892328262329102e+00
3.610000000000000000e+02 4.633160781860351562e+01 -2.259691047668457031e+01 -9.655865430831909180e-01 -7.081293463706970215e-01 -5.021147727966308594e-01 -1.539696335792541504e+00
3.620000000000000000e+02 4.562870788574218750e+01 -2.281699752807617188e+01 -6.810052394866943359e-01 -7.452466487884521484e-01 -4.278755784034729004e-01 -1.411539673805236816e+00
3.630000000000000000e+02 4.492025756835937500e+01 -2.301486587524414062e+01 -4.585075080394744873e-01 -7.980567216873168945e-01 -3.769692480564117432e-01 -1.241706609725952148e+00
3.640000000000000000e+02 4.420714569091796875e+01 -2.320541763305664062e+01 -2.538198828697204590e-01 -7.917479872703552246e-01 -3.136703670024871826e-01 -1.040552020072937012e+00
3.650000000000000000e+02 4.478800201416015625e+01 -2.460556983947753906e+01 1.541717499494552612e-01 -1.174993634223937988e+00 -3.062465488910675049e-01 -1.159562945365905762e+00
3.660000000000000000e+02 4.400702285766601562e+01 -2.639499282836914062e+01 1.735041290521621704e-01 -1.645275831222534180e+00 -4.415315091609954834e-01 -8.278758525848388672e-01
3.670000000000000000e+02 4.483044815063476562e+01 -2.854323387145996094e+01 9.637469798326492310e-02 -1.006727695465087891e+00 -2.731059193611145020e-01 -8.273507654666900635e-02
3.680000000000000000e+02 4.622814559936523438e+01 -2.878021621704101562e+01 3.916474580764770508e-01 -4.151144921779632568e-01 -7.040113676339387894e-03 2.250954359769821167e-01
3.690000000000000000e+02 4.516866302490234375e+01 -2.750766372680664062e+01 5.003317594528198242e-01 -9.917927384376525879e-01 -1.474382877349853516e-01 -3.087713718414306641e-01
3.700000000000000000e+02 4.600065612792968750e+01 -2.623169517517089844e+01 7.986357808113098145e-01 -9.145754575729370117e-01 -3.478191047906875610e-02 -6.852032542228698730e-01
3.710000000000000000e+02 4.579930114746093750e+01 -2.364739990234375000e+01 -8.634849637746810913e-02 -9.335074424743652344e-01 -3.059567809104919434e-01 -1.455841302871704102e+00
3.720000000000000000e+02 4.567177963256835938e+01 -2.499346542358398438e+01 4.204635024070739746e-01 -1.107767105102539062e+00 -2.061910629272460938e-01 -1.200532078742980957e+00
3.730000000000000000e+02 4.344182586669921875e+01 -2.340241813659667969e+01 -2.001827657222747803e-01 -7.369186282157897949e-01 -2.811304032802581787e-01 -8.153367042541503906e-01
3.740000000000000000e+02 5.033401489257812500e+01 -2.735474777221679688e+01 2.391735553741455078e+00 2.444063186645507812e+00 1.450739622116088867e+00 1.386106729507446289e+00
3.750000000000000000e+02 5.049571990966796875e+01 -2.651997756958007812e+01 3.985131502151489258e+00 2.126791477203369141e+00 1.833576917648315430e+00 1.146174311637878418e+00
3.760000000000000000e+02 5.052716827392578125e+01 -2.578252220153808594e+01 4.575916290283203125e+00 1.732509493827819824e+00 1.892527699470520020e+00 -1.897095292806625366e-01
3.770000000000000000e+02 5.123205184936523438e+01 -2.479056167602539062e+01 3.103250503540039062e+00 3.330927610397338867e+00 1.930253386497497559e+00 -1.207235574722290039e+00
3.780000000000000000e+02 5.165494537353515625e+01 -2.398820304870605469e+01 9.941650629043579102e-01 3.134326457977294922e+00 1.238547444343566895e+00 -3.702989816665649414e-01
3.790000000000000000e+02 5.212476348876953125e+01 -2.332789230346679688e+01 -1.396947205066680908e-01 2.478531360626220703e+00 7.016509771347045898e-01 3.018432259559631348e-01
3.800000000000000000e+02 5.239600372314453125e+01 -2.428651046752929688e+01 1.484462141990661621e+00 3.997915506362915039e+00 1.644713282585144043e+00 1.124412894248962402e+00
3.810000000000000000e+02 5.320527648925781250e+01 -2.466427040100097656e+01 3.170916795730590820e+00 2.437977790832519531e+00 1.682668328285217285e+00 2.547366380691528320e+00
3.820000000000000000e+02 5.278165054321289062e+01 -2.419110298156738281e+01 1.597770333290100098e+00 2.615105390548706055e+00 1.263862729072570801e+00 1.492000341415405273e+00
3.830000000000000000e+02 5.700953674316406250e+01 -2.676253509521484375e+01 1.048978328704833984e+00 4.908653441816568375e-03 3.161660730838775635e-01 4.445407390594482422e-01
3.840000000000000000e+02 5.842097854614257812e+01 -2.417503166198730469e+01 1.433336853981018066e+00 3.153222501277923584e-01 5.245977640151977539e-01 1.017852902412414551e+00
3.850000000000000000e+02 5.775503158569335938e+01 -2.347678947448730469e+01 1.071092605590820312e+00 8.671936392784118652e-02 3.473435938358306885e-01 1.046735405921936035e+00
3.860000000000000000e+02 5.739367675781250000e+01 -2.035823249816894531e+01 -1.600285410881042480e+00 1.669152528047561646e-01 -4.300110638141632080e-01 4.343391656875610352e-01
3.870000000000000000e+02 5.660429763793945312e+01 -2.133689117431640625e+01 -1.020944833755493164e+00 8.729859441518783569e-02 -2.800938785076141357e-01 8.245138525962829590e-01
3.880000000000000000e+02 5.506972503662109375e+01 -2.078560256958007812e+01 -2.418853282928466797e+00 1.198762878775596619e-01 -6.896930932998657227e-01 5.182487964630126953e-01
3.890000000000000000e+02 5.511442184448242188e+01 -2.208966636657714844e+01 -7.291228771209716797e-01 1.657830923795700073e-01 -1.690019369125366211e-01 1.188589692115783691e+00
3.900000000000000000e+02 5.629591369628906250e+01 -2.637561798095703125e+01 1.505909681320190430e+00 -3.406699597835540771e-01 3.495718836784362793e-01 3.534611463546752930e-01
3.910000000000000000e+02 5.727146148681640625e+01 -2.623348045349121094e+01 1.368275165557861328e+00 -6.773497909307479858e-02 3.901620507240295410e-01 6.238246560096740723e-01
3.920000000000000000e+02 5.741446304321289062e+01 -2.701693534851074219e+01 5.723814368247985840e-01 1.890221089124679565e-01 2.284210622310638428e-01 5.600533485412597656e-01
3.930000000000000000e+02 5.998608016967773438e+01 -2.431332206726074219e+01 1.857848167419433594e+00 1.082281947135925293e+00 8.820390701293945312e-01 1.435552954673767090e+00
3.940000000000000000e+02 5.941310882568359375e+01 -2.340054512023925781e+01 1.145716786384582520e+00 6.787632107734680176e-01 5.473440289497375488e-01 1.004025459289550781e+00
3.950000000000000000e+02 6.047261810302734375e+01 -2.259705162048339844e+01 5.693518519401550293e-01 9.485818147659301758e-01 4.553801119327545166e-01 9.038982987403869629e-01
3.960000000000000000e+02 6.038728332519531250e+01 -2.035945510864257812e+01 -6.987242698669433594e-01 9.285027980804443359e-01 6.893356144428253174e-02 7.152767777442932129e-01
3.970000000000000000e+02 6.084896087646484375e+01 -1.869093894958496094e+01 -8.817511200904846191e-01 7.963047027587890625e-01 -2.563391812145709991e-02 3.561861217021942139e-01
3.980000000000000000e+02 6.280002975463867188e+01 -1.798700714111328125e+01 -4.452376961708068848e-01 8.368961811065673828e-01 1.174975410103797913e-01 3.667262494564056396e-01
3.990000000000000000e+02 6.468226623535156250e+01 -1.706623458862304688e+01 -2.383969724178314209e-01 7.270213365554809570e-01 1.465873122215270996e-01 3.522436022758483887e-01
4.000000000000000000e+02 6.701352691650390625e+01 -1.823661041259765625e+01 -2.166886329650878906e-01 3.654241859912872314e-01 4.462066665291786194e-02 2.304213792085647583e-01
4.010000000000000000e+02 6.857221984863281250e+01 -1.795029449462890625e+01 -1.819600462913513184e-01 2.622708082199096680e-01 2.409322932362556458e-02 2.672288939356803894e-02
4.020000000000000000e+02 7.026531982421875000e+01 -1.764249992370605469e+01 -1.741898208856582642e-01 2.353463321924209595e-01 1.834695599973201752e-02 -1.311115324497222900e-01
4.030000000000000000e+02 7.201695251464843750e+01 -1.741449356079101562e+01 -1.568058133125305176e-01 1.780045181512832642e-01 6.359610240906476974e-03 -2.218210250139236450e-01
4.040000000000000000e+02 7.317243194580078125e+01 -1.811351776123046875e+01 -1.567066311836242676e-01 1.026316583156585693e-01 -1.622249372303485870e-02 -2.395181953907012939e-01
4.050000000000000000e+02 7.456464385986328125e+01 -1.729399490356445312e+01 -9.791434556245803833e-02 1.670413464307785034e-02 -2.436306327581405640e-02 -2.662881314754486084e-01
4.060000000000000000e+02 7.573210906982421875e+01 -1.704558944702148438e+01 -7.294380664825439453e-02 -7.685827463865280151e-02 -4.494062438607215881e-02 -2.548456192016601562e-01
4.070000000000000000e+02 7.914797973632812500e+01 -1.794257164001464844e+01 -7.588178385049104691e-03 -2.329656779766082764e-01 -7.216615229845046997e-02 -6.478094309568405151e-02
4.080000000000000000e+02 7.926220703125000000e+01 -1.652431488037109375e+01 6.202372722327709198e-03 -3.396744132041931152e-01 -1.000416129827499390e-01 -6.824742257595062256e-02
4.090000000000000000e+02 7.945162200927734375e+01 -1.518286323547363281e+01 7.260258309543132782e-03 -4.946888387203216553e-01 -1.462285816669464111e-01 -5.345498025417327881e-02
4.100000000000000000e+02 7.946678161621093750e+01 -1.386614322662353516e+01 -4.616772057488560677e-04 -6.406215429306030273e-01 -1.923249661922454834e-01 -4.543059691786766052e-02
4.110000000000000000e+02 7.666758728027343750e+01 -1.256991577148437500e+01 -1.686740107834339142e-02 -3.166087269783020020e-01 -1.000428348779678345e-01 -3.019761741161346436e-01
4.120000000000000000e+02 7.567050933837890625e+01 -1.041985893249511719e+01 -1.263156812638044357e-02 -2.057056128978729248e-01 -6.550115346908569336e-02 -3.414146602153778076e-01
4.130000000000000000e+02 7.379131317138671875e+01 -8.549403190612792969e+00 -6.893013138324022293e-03 3.498332798480987549e-01 1.028820723295211792e-01 -2.975583970546722412e-01
4.140000000000000000e+02 7.319790649414062500e+01 -7.056782722473144531e+00 1.341754850000143051e-02 6.217451095581054688e-01 1.905488073825836182e-01 -2.474007755517959595e-01
4.150000000000000000e+02 7.170996856689453125e+01 -5.272605419158935547e+00 1.114451885223388672e-01 1.340660810470581055e+00 4.356317818164825439e-01 6.519619375467300415e-03
4.160000000000000000e+02 6.940759277343750000e+01 -6.344152450561523438e+00 1.647170633077621460e-01 1.788623809814453125e+00 5.860022902488708496e-01 3.823680877685546875e-01
4.170000000000000000e+02 6.760539245605468750e+01 -6.621469974517822266e+00 3.301014602184295654e-01 1.913665175437927246e+00 6.731299757957458496e-01 7.734758853912353516e-01
4.180000000000000000e+02 6.863543701171875000e+01 -7.482497692108154297e+00 2.242590337991714478e-01 1.634837269783020020e+00 5.577288866043090820e-01 4.760941267013549805e-01
4.190000000000000000e+02 7.078132629394531250e+01 -9.385897636413574219e+00 5.609661340713500977e-02 9.439836144447326660e-01 3.000240623950958252e-01 -1.765363290905952454e-02
4.200000000000000000e+02 7.240402984619140625e+01 -1.186661052703857422e+01 -1.319714728742837906e-02 4.302581548690795898e-01 1.251183003187179565e-01 -2.412161231040954590e-01
4.210000000000000000e+02 7.446986389160156250e+01 -1.488156414031982422e+01 -6.054143235087394714e-02 2.421270683407783508e-02 -1.089861802756786346e-02 -3.085192143917083740e-01
4.220000000000000000e+02 7.705519104003906250e+01 -1.668861007690429688e+01 -2.795311622321605682e-02 -1.957918852567672729e-01 -6.712350249290466309e-02 -2.099105417728424072e-01
4.230000000000000000e+02 7.808904266357421875e+01 -1.604574584960937500e+01 -3.737804945558309555e-03 -3.150707185268402100e-01 -9.564255923032760620e-02 -1.658304929733276367e-01
4.240000000000000000e+02 7.754287719726562500e+01 -1.517622280120849609e+01 -1.025629788637161255e-02 -3.240305781364440918e-01 -1.002860665321350098e-01 -2.168166339397430420e-01
4.250000000000000000e+02 7.462541198730468750e+01 -1.244982051849365234e+01 -2.582794800400733948e-02 1.742991432547569275e-02 -2.519409637898206711e-03 -3.259017169475555420e-01
4.260000000000000000e+02 7.328746032714843750e+01 -9.602413177490234375e+00 -3.700718050822615623e-03 4.095775783061981201e-01 1.217630580067634583e-01 -2.729137539863586426e-01
4.270000000000000000e+02 7.135392761230468750e+01 -8.593053817749023438e+00 4.109115898609161377e-02 9.406608939170837402e-01 2.945256233215332031e-01 -8.432585746049880981e-02
4.280000000000000000e+02 7.059046173095703125e+01 -7.104879379272460938e+00 1.055850982666015625e-01 1.338986992835998535e+00 4.333716332912445068e-01 1.102285310626029968e-01
4.290000000000000000e+02 6.887406158447265625e+01 -4.096311569213867188e+00 3.165972828865051270e-01 2.491503477096557617e+00 8.424302339553833008e-01 7.285807132720947266e-01
4.300000000000000000e+02 6.824732971191406250e+01 -5.400585174560546875e+00 3.383214771747589111e-01 2.167107582092285156e+00 7.516287565231323242e-01 7.870637178421020508e-01
4.310000000000000000e+02 6.259752273559570312e+01 -2.298540687561035156e+01 9.408118128776550293e-01 4.174953401088714600e-01 4.074921607971191406e-01 5.852924585342407227e-01
4.320000000000000000e+02 6.120567703247070312e+01 -2.346427345275878906e+01 1.671465754508972168e+00 9.273229837417602539e-01 7.796366214752197266e-01 1.178203344345092773e+00
4.330000000000000000e+02 6.163396072387695312e+01 -1.933531379699707031e+01 -7.339259386062622070e-01 9.289708733558654785e-01 5.851347371935844421e-02 5.420776605606079102e-01
4.340000000000000000e+02 6.400628662109375000e+01 -2.268608283996582031e+01 2.541729211807250977e-01 8.968355506658554077e-02 1.031569391489028931e-01 2.649648189544677734e-01
4.350000000000000000e+02 6.326527404785156250e+01 -2.051979255676269531e+01 -3.401423692703247070e-01 8.023468255996704102e-01 1.386613398790359497e-01 6.700173616409301758e-01
4.360000000000000000e+02 6.302927017211914062e+01 -1.912959480285644531e+01 -5.137459635734558105e-01 8.569387197494506836e-01 1.029578298330307007e-01 5.113541483879089355e-01
4.370000000000000000e+02 6.256562042236328125e+01 -1.985983657836914062e+01 -5.206448435783386230e-01 8.859192132949829102e-01 1.095823049545288086e-01 6.456156373023986816e-01
4.380000000000000000e+02 6.591117095947265625e+01 -2.049452209472656250e+01 -3.496880531311035156e-01 3.193597197532653809e-01 -9.098497219383716583e-03 3.686231374740600586e-01
4.390000000000000000e+02 6.656794738769531250e+01 -2.153621864318847656e+01 -5.315154790878295898e-01 3.153179213404655457e-02 -1.499951034784317017e-01 4.960215836763381958e-02
4.400000000000000000e+02 6.531282806396484375e+01 -1.954311561584472656e+01 -3.077403008937835693e-01 4.484606385231018066e-01 4.221609979867935181e-02 3.887184262275695801e-01
4.410000000000000000e+02 6.390240859985351562e+01 -1.913752555847167969e+01 -4.475397765636444092e-01 7.762241363525390625e-01 9.860531240701675415e-02 5.066914558410644531e-01
4.420000000000000000e+02 6.967270660400390625e+01 -2.036054992675781250e+01 -3.828869760036468506e-01 3.669967129826545715e-02 -1.038561910390853882e-01 -8.456948399543762207e-02
4.430000000000000000e+02 7.000843811035156250e+01 -2.209244537353515625e+01 -4.792529940605163574e-01 -8.069656044244766235e-02 -1.679848581552505493e-01 1.688299626111984253e-01
4.440000000000000000e+02 7.104343414306640625e+01 -2.304631614685058594e+01 -1.578204333782196045e-01 -3.284601494669914246e-02 -5.719993636012077332e-02 7.456555217504501343e-02
4.450000000000000000e+02 7.192751312255859375e+01 -2.375982666015625000e+01 -8.122000098228454590e-02 1.445352938026189804e-02 -2.002994157373905182e-02 3.155377879738807678e-02
4.460000000000000000e+02 7.372611236572265625e+01 -2.545903968811035156e+01 -2.202769368886947632e-02 7.522070081904530525e-04 -6.382646039128303528e-03 -1.164493034593760967e-03
4.470000000000000000e+02 7.442386627197265625e+01 -2.550557899475097656e+01 -2.061642333865165710e-02 -1.735379919409751892e-03 -6.705541163682937622e-03 -3.578685689717531204e-03
4.480000000000000000e+02 7.514029693603515625e+01 -2.550772285461425781e+01 -1.747172698378562927e-02 1.360975671559572220e-03 -4.833225626498460770e-03 -1.027721795253455639e-03
4.490000000000000000e+02 7.585685729980468750e+01 -2.551698875427246094e+01 -1.429452747106552124e-02 -1.279682968743145466e-03 -4.672263283282518387e-03 -3.528272034600377083e-03
4.500000000000000000e+02 7.661182403564453125e+01 -2.485459899902343750e+01 -2.344426885247230530e-02 -3.029117826372385025e-03 -7.942016236484050751e-03 -6.306684110313653946e-03
4.510000000000000000e+02 7.494234466552734375e+01 -2.208133888244628906e+01 -1.194241344928741455e-01 2.134568803012371063e-02 -2.942353300750255585e-02 -6.540481001138687134e-02
4.520000000000000000e+02 7.465216064453125000e+01 -1.966500091552734375e+01 -1.453613489866256714e-01 3.167783096432685852e-02 -3.410505503416061401e-02 -1.823690086603164673e-01
4.530000000000000000e+02 7.600105285644531250e+01 -1.827031326293945312e+01 -7.454811781644821167e-02 -6.672608107328414917e-02 -4.238225892186164856e-02 -2.087398469448089600e-01
4.540000000000000000e+02 7.453604125976562500e+01 -1.841181564331054688e+01 -1.344803720712661743e-01 2.403926476836204529e-02 -3.313233330845832825e-02 -2.350231111049652100e-01
4.550000000000000000e+02 7.335930633544921875e+01 -2.004425239562988281e+01 -2.090582847595214844e-01 7.804522663354873657e-02 -3.930392116308212280e-02 -1.817166358232498169e-01
4.560000000000000000e+02 7.360417175292968750e+01 -2.110398101806640625e+01 -2.094344943761825562e-01 7.138140499591827393e-02 -4.141592234373092651e-02 -1.049893051385879517e-01
4.570000000000000000e+02 7.343714141845703125e+01 -2.444114112854003906e+01 -5.028788372874259949e-02 6.112928967922925949e-03 -1.325248647481203079e-02 1.623952761292457581e-03
4.580000000000000000e+02 7.454702758789062500e+01 -2.482291412353515625e+01 -3.653148934245109558e-02 2.204816788434982300e-03 -1.029800157994031906e-02 -5.105314310640096664e-03
4.590000000000000000e+02 7.596101379394531250e+01 -2.476029586791992188e+01 -2.596395462751388550e-02 -1.023677643388509750e-03 -8.096289820969104767e-03 -4.513461608439683914e-03
4.600000000000000000e+02 7.157839202880859375e+01 -2.508138847351074219e+01 -6.802296731621026993e-03 2.061144448816776276e-03 -1.422345638275146484e-03 7.072799373418092728e-03
4.610000000000000000e+02 7.236602783203125000e+01 -2.521934127807617188e+01 -2.381761372089385986e-02 -2.661616308614611626e-03 -7.943768985569477081e-03 7.434351835399866104e-03
4.620000000000000000e+02 7.656648254394531250e+01 -2.552296066284179688e+01 -1.060189586132764816e-02 -2.155180322006344795e-03 -3.827122971415519714e-03 -1.433838042430579662e-03
4.630000000000000000e+02 7.727535247802734375e+01 -2.548199081420898438e+01 -6.938250735402107239e-03 -3.648285521194338799e-03 -3.175960853695869446e-03 -5.280264886096119881e-04
4.640000000000000000e+02 7.754733276367187500e+01 -2.390942955017089844e+01 -2.585648186504840851e-02 -7.602135650813579559e-03 -1.003758516162633896e-02 -1.430123206228017807e-02
4.650000000000000000e+02 7.753937530517578125e+01 -2.309731674194335938e+01 -2.905106917023658752e-02 -1.601165533065795898e-02 -1.351881772279739380e-02 -2.748426608741283417e-02
4.660000000000000000e+02 7.615757751464843750e+01 -1.952117347717285156e+01 -8.316899836063385010e-02 -4.928608983755111694e-02 -3.973652794957160950e-02 -1.677525639533996582e-01
4.670000000000000000e+02 7.871606445312500000e+01 -2.532190132141113281e+01 -2.053240081295371056e-03 8.850057492963969707e-04 -3.504703345242887735e-04 2.013322198763489723e-03
4.680000000000000000e+02 7.934181976318359375e+01 -2.348744392395019531e+01 -3.960983362048864365e-03 -5.737635656259953976e-04 -1.360424095764756203e-03 -6.925928872078657150e-03
4.690000000000000000e+02 7.832984924316406250e+01 -2.362725257873535156e+01 -1.232232246547937393e-02 -1.167305093258619308e-02 -7.198612205684185028e-03 -1.299535296857357025e-02
4.700000000000000000e+02 7.924285888671875000e+01 -2.214817810058593750e+01 -6.599599961191415787e-03 -2.157465182244777679e-02 -8.452275767922401428e-03 -1.656053029000759125e-02
4.710000000000000000e+02 7.921235656738281250e+01 -1.937877655029296875e+01 -1.222949847579002380e-02 -1.350400596857070923e-01 -4.418086633086204529e-02 -4.692743718624114990e-02
4.720000000000000000e+02 7.766516113281250000e+01 -1.940601539611816406e+01 -3.492813184857368469e-02 -1.085485368967056274e-01 -4.304300248622894287e-02 -1.172615364193916321e-01
4.730000000000000000e+02 7.938667297363281250e+01 -1.254806900024414062e+01 -2.560888417065143585e-03 -7.766231298446655273e-01 -2.337552011013031006e-01 -5.055588856339454651e-02
4.740000000000000000e+02 7.691573333740234375e+01 -1.091364479064941406e+01 -1.272203959524631500e-02 -4.709373116493225098e-01 -1.450978070497512817e-01 -2.876011133193969727e-01
4.750000000000000000e+02 7.532204437255859375e+01 -7.985019207000732422e+00 -3.955044783651828766e-03 -1.099984273314476013e-01 -3.418603911995887756e-02 -3.492407500743865967e-01
4.760000000000000000e+02 7.480672454833984375e+01 -6.717414379119873047e+00 2.198328962549567223e-03 1.309674829244613647e-01 3.994974493980407715e-02 -3.309360444545745850e-01
4.770000000000000000e+02 7.073140716552734375e+01 -3.045643329620361328e+00 1.735194921493530273e-01 2.130878210067749023e+00 6.913192868232727051e-01 2.900810837745666504e-01
4.780000000000000000e+02 7.134064483642578125e+01 -5.218160748481750488e-01 1.918642520904541016e-01 2.584285020828247070e+00 8.328447937965393066e-01 1.416346728801727295e-01
4.790000000000000000e+02 6.935454559326171875e+01 -2.684957504272460938e+00 2.428830862045288086e-01 2.792673587799072266e+00 9.106670022010803223e-01 6.980253458023071289e-01
4.800000000000000000e+02 7.920137023925781250e+01 -1.119232749938964844e+01 -2.294636704027652740e-02 -9.345434308052062988e-01 -2.872469425201416016e-01 -8.251346647739410400e-02
4.810000000000000000e+02 7.914839172363281250e+01 -9.759105682373046875e+00 -3.790463088080286980e-03 -1.087716341018676758e+00 -3.274520337581634521e-01 -1.007874906063079834e-01
4.820000000000000000e+02 7.651661682128906250e+01 -8.227641105651855469e+00 -6.491160951554775238e-03 -4.665956497192382812e-01 -1.419260501861572266e-01 -3.123928308486938477e-01
4.830000000000000000e+02 7.560398864746093750e+01 -6.283091068267822266e+00 1.201825332827866077e-03 -1.731858402490615845e-01 -5.159520357847213745e-02 -3.498382866382598877e-01
4.840000000000000000e+02 7.188836669921875000e+01 -3.162065505981445312e+00 1.046002879738807678e-01 1.587792992591857910e+00 5.077179670333862305e-01 -2.140247728675603867e-03
4.850000000000000000e+02 7.004434967041015625e+01 8.102133125066757202e-02 2.023392319679260254e-01 3.571717023849487305e+00 1.132216811180114746e+00 6.306726932525634766e-01
4.860000000000000000e+02 7.925221252441406250e+01 -8.327973365783691406e+00 1.076737139374017715e-02 -1.277932286262512207e+00 -3.801494836807250977e-01 -9.484579414129257202e-02
4.870000000000000000e+02 7.668665313720703125e+01 -7.130310058593750000e+00 1.380668394267559052e-02 -5.787269473075866699e-01 -1.694760769605636597e-01 -3.083750605583190918e-01
4.880000000000000000e+02 7.529266357421875000e+01 -5.440421104431152344e+00 2.956605330109596252e-02 -5.962655693292617798e-02 -9.018151089549064636e-03 -3.239033818244934082e-01
4.890000000000000000e+02 7.271929931640625000e+01 -3.615196228027343750e+00 9.305836260318756104e-02 1.183906435966491699e+00 3.830894231796264648e-01 -1.233751997351646423e-01
4.900000000000000000e+02 7.273953247070312500e+01 -1.149236440658569336e+00 1.815962642431259155e-01 1.402630090713500977e+00 4.752679169178009033e-01 -7.345702499151229858e-02
4.910000000000000000e+02 7.929007720947265625e+01 -6.950937747955322266e+00 7.764413021504878998e-03 -1.465414643287658691e+00 -4.372950494289398193e-01 -7.855090498924255371e-02
4.920000000000000000e+02 7.664064788818359375e+01 -6.044529438018798828e+00 2.086501009762287140e-02 -6.071497201919555664e-01 -1.758854091167449951e-01 -3.289257884025573730e-01
4.930000000000000000e+02 7.483947753906250000e+01 -4.577461242675781250e+00 5.388640984892845154e-02 1.650432497262954712e-01 6.567890197038650513e-02 -3.067919015884399414e-01
4.940000000000000000e+02 7.411382293701171875e+01 -1.966460943222045898e+00 9.457791596651077271e-02 6.053630113601684570e-01 2.099822759628295898e-01 -2.085850387811660767e-01
4.950000000000000000e+02 7.039006805419921875e+01 1.428242444992065430e+00 2.240366339683532715e-01 3.803375720977783203e+00 1.208223700523376465e+00 3.523815572261810303e-01
4.960000000000000000e+02 7.767123413085937500e+01 -4.534890651702880859e+00 1.137161813676357269e-02 -1.146160125732421875e+00 -3.404365479946136475e-01 -2.549288272857666016e-01
4.970000000000000000e+02 7.727161407470703125e+01 -3.250098943710327148e+00 3.244082676246762276e-03 -9.667335152626037598e-01 -2.890468239784240723e-01 -2.811566591262817383e-01
4.980000000000000000e+02 7.506356811523437500e+01 -1.108544230461120605e+00 1.148594468832015991e-01 1.811624616384506226e-01 8.880656957626342773e-02 -2.441427409648895264e-01
4.990000000000000000e+02 7.053948974609375000e+01 2.886212348937988281e+00 1.629366427659988403e-01 3.753802537918090820e+00 1.175021767616271973e+00 9.336321800947189331e-02
5.000000000000000000e+02 7.918796539306640625e+01 -4.209348678588867188e+00 3.117002081125974655e-03 -1.772065281867980957e+00 -5.306844711303710938e-01 -6.122972816228866577e-02
5.010000000000000000e+02 7.901651000976562500e+01 -2.790373802185058594e+00 -3.032559342682361603e-02 -1.916201591491699219e+00 -5.839581489562988281e-01 -8.882351964712142944e-02
5.020000000000000000e+02 7.636344146728515625e+01 -2.105438470840454102e+00 4.575528949499130249e-02 -5.772800445556640625e-01 -1.594574302434921265e-01 -2.598752379417419434e-01
5.030000000000000000e+02 7.501782226562500000e+01 4.139150381088256836e-01 1.748599559068679810e-01 2.007724344730377197e-01 1.126897186040878296e-01 -1.828845292329788208e-01
5.040000000000000000e+02 7.048247528076171875e+01 4.394049644470214844e+00 1.406596042215824127e-02 3.671247243881225586e+00 1.105593919754028320e+00 -2.225451543927192688e-02
5.050000000000000000e+02 7.902068328857421875e+01 -1.311119437217712402e+00 -1.980312634259462357e-03 -2.060075998306274414e+00 -6.186168789863586426e-01 -1.089368015527725220e-01
5.060000000000000000e+02 7.642665863037109375e+01 7.556322216987609863e-01 7.976480573415756226e-02 -5.997282862663269043e-01 -1.559890359640121460e-01 -1.502710133790969849e-01
5.070000000000000000e+02 7.458978271484375000e+01 1.210493087768554688e+00 1.995564401149749756e-01 5.209627747535705566e-01 2.161557674407958984e-01 -1.016365438699722290e-01
5.080000000000000000e+02 7.413233947753906250e+01 3.030803442001342773e+00 2.038690447807312012e-01 9.564024209976196289e-01 3.480814397335052490e-01 -4.162633046507835388e-02
5.090000000000000000e+02 7.030310821533203125e+01 7.266854763031005859e+00 1.247103065252304077e-01 3.816891670227050781e+00 1.182480573654174805e+00 -2.776480317115783691e-01
5.100000000000000000e+02 7.041609954833984375e+01 5.844614982604980469e+00 7.091690599918365479e-02 3.788342952728271484e+00 1.157778024673461914e+00 -1.063085347414016724e-01
5.110000000000000000e+02 7.919200897216796875e+01 1.406567990779876709e-01 3.246802464127540588e-02 -2.242410421371459961e+00 -6.629827022552490234e-01 -8.744249492883682251e-02
5.120000000000000000e+02 7.659518432617187500e+01 1.917702078819274902e+00 9.806304425001144409e-02 -7.656391859054565430e-01 -2.002728432416915894e-01 -1.093813180923461914e-01
5.130000000000000000e+02 7.640972900390625000e+01 4.387434482574462891e+00 8.357596397399902344e-02 -6.644494533538818359e-01 -1.742620617151260376e-01 -1.367962732911109924e-02
5.140000000000000000e+02 7.366085815429687500e+01 4.237785816192626953e+00 2.053494453430175781e-01 1.257387995719909668e+00 4.388212263584136963e-01 4.326124489307403564e-02
5.150000000000000000e+02 7.011495971679687500e+01 8.668753623962402344e+00 7.197681069374084473e-02 3.432464838027954102e+00 1.051332473754882812e+00 -3.718151748180389404e-01
5.160000000000000000e+02 7.926704406738281250e+01 1.537462592124938965e+00 1.607009768486022949e-02 -2.393291473388671875e+00 -7.131664156913757324e-01 -4.208192974328994751e-02
5.170000000000000000e+02 7.787963867187500000e+01 3.033448457717895508e+00 4.910597205162048340e-02 -1.592812299728393555e+00 -4.631118774414062500e-01 -5.114424228668212891e-02
5.180000000000000000e+02 7.779032897949218750e+01 4.388987541198730469e+00 3.885251283645629883e-02 -1.528458833694458008e+00 -4.468818902969360352e-01 1.239146571606397629e-03
5.190000000000000000e+02 7.617751312255859375e+01 5.676692962646484375e+00 6.269503384828567505e-02 -5.073185563087463379e-01 -1.333870589733123779e-01 6.416474934667348862e-03
5.200000000000000000e+02 7.343365478515625000e+01 5.719825744628906250e+00 1.405904144048690796e-01 1.452713608741760254e+00 4.779911935329437256e-01 5.780327320098876953e-02
5.210000000000000000e+02 7.276158142089843750e+01 8.494812965393066406e+00 1.572711206972599030e-02 1.811322093009948730e+00 5.481147766113281250e-01 5.864683538675308228e-02
5.220000000000000000e+02 7.145424652099609375e+01 1.268484210968017578e+01 -1.152630075812339783e-01 2.429280281066894531e+00 6.942051649093627930e-01 -1.587700247764587402e-01
5.230000000000000000e+02 6.992227935791015625e+01 1.005741500854492188e+01 -5.111403390765190125e-02 2.929611921310424805e+00 8.635493516921997070e-01 -2.708449661731719971e-01
5.240000000000000000e+02 7.928016662597656250e+01 2.918238401412963867e+00 1.830658875405788422e-02 -2.474905967712402344e+00 -7.369797825813293457e-01 -9.254140779376029968e-03
5.250000000000000000e+02 7.925259399414062500e+01 4.307146072387695312e+00 -7.888304535299539566e-04 -2.504019737243652344e+00 -7.514425516128540039e-01 8.648391813039779663e-03
5.260000000000000000e+02 7.759897613525390625e+01 5.828364372253417969e+00 3.022912703454494476e-02 -1.371992468833923340e+00 -4.025289714336395264e-01 4.399437457323074341e-02
5.270000000000000000e+02 7.534416198730468750e+01 6.669917583465576172e+00 8.058447390794754028e-02 1.169659867882728577e-01 5.926514044404029846e-02 8.211742341518402100e-02
5.280000000000000000e+02 7.264563751220703125e+01 9.799839019775390625e+00 -1.090023815631866455e-01 1.929135918617248535e+00 5.460400581359863281e-01 3.707644715905189514e-02
5.290000000000000000e+02 7.135050201416015625e+01 1.129926490783691406e+01 -2.428524792194366455e-01 2.575492382049560547e+00 6.997919678688049316e-01 -7.539622485637664795e-02
5.300000000000000000e+02 7.920757293701171875e+01 5.711603641510009766e+00 1.373984385281801224e-02 -2.504373073577880859e+00 -7.471899986267089844e-01 1.926868781447410583e-02
5.310000000000000000e+02 7.756816864013671875e+01 7.299329757690429688e+00 2.699620090425014496e-02 -1.331109166145324707e+00 -3.912338912487030029e-01 5.449899658560752869e-02
5.320000000000000000e+02 7.484133911132812500e+01 8.299166679382324219e+00 1.159640494734048843e-03 4.465202689170837402e-01 1.343039721250534058e-01 8.816020935773849487e-02
5.330000000000000000e+02 7.292028045654296875e+01 1.247653865814208984e+01 -1.149950698018074036e-01 1.615322113037109375e+00 4.500980973243713379e-01 -2.021710574626922607e-02
5.340000000000000000e+02 7.007308197021484375e+01 1.423908901214599609e+01 8.622428774833679199e-02 3.494243144989013672e+00 1.074140191078186035e+00 9.991323947906494141e-02
5.350000000000000000e+02 7.919697570800781250e+01 7.113804817199707031e+00 9.176972322165966034e-03 -2.478384256362915039e+00 -7.407621741294860840e-01 3.935878351330757141e-02
5.360000000000000000e+02 7.771266174316406250e+01 8.716888427734375000e+00 -2.023296058177947998e-02 -1.415269970893859863e+00 -4.306508898735046387e-01 6.360311061143875122e-02
5.370000000000000000e+02 7.643421173095703125e+01 1.031717014312744141e+01 -5.231633782386779785e-02 -6.063394546508789062e-01 -1.975967288017272949e-01 6.837365031242370605e-02
5.380000000000000000e+02 7.415778350830078125e+01 1.202192783355712891e+01 -9.465171396732330322e-02 9.215069413185119629e-01 2.480565607547760010e-01 -4.980518482625484467e-03
5.390000000000000000e+02 7.309250640869140625e+01 1.395928573608398438e+01 -4.134799167513847351e-02 1.495013356208801270e+00 4.360996186733245850e-01 -7.640612870454788208e-02
5.400000000000000000e+02 7.008908843994140625e+01 1.711126327514648438e+01 1.173591893166303635e-02 3.447029352188110352e+00 1.037629604339599609e+00 -1.069999882020056248e-03
5.410000000000000000e+02 7.922209167480468750e+01 8.511201858520507812e+00 -7.440404500812292099e-03 -2.427487373352050781e+00 -7.304783463478088379e-01 4.285800084471702576e-02
5.420000000000000000e+02 7.778165435791015625e+01 1.013141155242919922e+01 -3.348137438297271729e-02 -1.468404412269592285e+00 -4.505657255649566650e-01 3.787582367658615112e-02
5.430000000000000000e+02 7.522777557373046875e+01 1.167922687530517578e+01 -7.014376670122146606e-02 1.635145395994186401e-01 2.801123261451721191e-02 5.948324501514434814e-02
5.440000000000000000e+02 7.457411193847656250e+01 1.396628570556640625e+01 -3.254121914505958557e-02 5.709883570671081543e-01 1.615341454744338989e-01 -4.414776805788278580e-03
5.450000000000000000e+02 7.318704986572265625e+01 1.547613620758056641e+01 6.845571566373109818e-03 1.393722414970397949e+00 4.201703965663909912e-01 -4.178927093744277954e-02
5.460000000000000000e+02 7.923824310302734375e+01 9.928228378295898438e+00 -6.681495346128940582e-03 -2.380055427551269531e+00 -7.160210609436035156e-01 3.014132194221019745e-02
5.470000000000000000e+02 7.777619171142578125e+01 1.162528228759765625e+01 -1.898334361612796783e-02 -1.452097058296203613e+00 -4.413241147994995117e-01 2.740390598773956299e-02
5.480000000000000000e+02 7.592527008056640625e+01 1.419923973083496094e+01 -4.056269302964210510e-02 -2.847773134708404541e-01 -9.760199487209320068e-02 -2.652423456311225891e-03
5.490000000000000000e+02 7.368852233886718750e+01 1.671786308288574219e+01 4.334728419780731201e-02 1.187656521797180176e+00 3.693011403083801270e-01 -5.870996974408626556e-03
5.500000000000000000e+02 7.002510070800781250e+01 1.853202819824218750e+01 1.742906169965863228e-04 3.440365076065063477e+00 1.032161831855773926e+00 -1.341046951711177826e-02
5.510000000000000000e+02 7.923834991455078125e+01 1.141168689727783203e+01 -1.618393696844577789e-02 -2.357513189315795898e+00 -7.121091485023498535e-01 1.104818563908338547e-02
5.520000000000000000e+02 7.711145782470703125e+01 1.452431201934814453e+01 -1.678686961531639099e-02 -1.036638379096984863e+00 -3.160275816917419434e-01 -1.701143942773342133e-02
5.530000000000000000e+02 7.473731231689453125e+01 1.642521095275878906e+01 7.283552084118127823e-03 4.277673065662384033e-01 1.305152624845504761e-01 -3.736803308129310608e-02
5.540000000000000000e+02 7.260749816894531250e+01 1.893774795532226562e+01 1.785418577492237091e-02 1.840440273284912109e+00 5.574883222579956055e-01 9.889910143101587892e-05
5.550000000000000000e+02 6.997445678710937500e+01 1.993721389770507812e+01 9.748981334269046783e-03 3.458564281463623047e+00 1.040493965148925781e+00 -2.351901121437549591e-02
5.560000000000000000e+02 7.940750885009765625e+01 1.275608730316162109e+01 -7.321002893149852753e-03 -2.368850946426391602e+00 -7.128515839576721191e-01 -1.358362380415201187e-02
5.570000000000000000e+02 7.859001922607421875e+01 1.359368228912353516e+01 1.729716174304485321e-02 -1.954822421073913574e+00 -5.812575817108154297e-01 3.739163652062416077e-02
5.580000000000000000e+02 7.591481018066406250e+01 1.639602661132812500e+01 1.054874155670404434e-02 -2.706845998764038086e-01 -7.804075628519058228e-02 -4.939426202327013016e-03
5.590000000000000000e+02 7.376885986328125000e+01 1.926807022094726562e+01 5.792345106601715088e-02 1.087068319320678711e+00 3.434975445270538330e-01 -8.277317509055137634e-03
5.600000000000000000e+02 7.244886016845703125e+01 2.023195457458496094e+01 5.251582711935043335e-02 1.944610834121704102e+00 5.991380214691162109e-01 -3.333866223692893982e-02
5.610000000000000000e+02 6.990207672119140625e+01 2.409797096252441406e+01 5.317583307623863220e-02 3.697905063629150391e+00 1.125324249267578125e+00 -1.988844424486160278e-01
5.620000000000000000e+02 6.992751312255859375e+01 2.271294021606445312e+01 5.773851275444030762e-02 3.607565641403198242e+00 1.099591255187988281e+00 -7.570970058441162109e-02
5.630000000000000000e+02 7.951376342773437500e+01 1.395889472961425781e+01 1.219607330858707428e-02 -2.436275005340576172e+00 -7.272236943244934082e-01 -8.287838660180568695e-03
5.640000000000000000e+02 7.822949981689453125e+01 1.494413566589355469e+01 6.977232638746500015e-03 -1.669866919517517090e+00 -4.988669157028198242e-01 6.438600365072488785e-03
5.650000000000000000e+02 7.767746734619140625e+01 1.777554321289062500e+01 3.729932475835084915e-03 -1.357087135314941406e+00 -4.060071706771850586e-01 -8.257164736278355122e-04
5.660000000000000000e+02 7.616177368164062500e+01 1.913847923278808594e+01 9.458752349019050598e-03 -4.087598621845245361e-01 -1.197903305292129517e-01 -2.992463065311312675e-03
5.670000000000000000e+02 7.368625640869140625e+01 2.042646217346191406e+01 4.526724666357040405e-02 1.151403427124023438e+00 3.590011894702911377e-01 -2.871460281312465668e-03
5.680000000000000000e+02 7.230957031250000000e+01 2.279545021057128906e+01 1.265110075473785400e-01 1.996596932411193848e+00 6.369323730468750000e-01 -7.340074330568313599e-02
5.690000000000000000e+02 6.974411773681640625e+01 2.682708740234375000e+01 1.703470200300216675e-01 3.330857753753662109e+00 1.050361394882202148e+00 -5.445801019668579102e-01
5.700000000000000000e+02 7.789298248291015625e+01 1.632026863098144531e+01 -1.661938265897333622e-03 -1.454872369766235352e+00 -4.369603097438812256e-01 -2.043200656771659851e-03
5.710000000000000000e+02 7.923049926757812500e+01 1.803857803344726562e+01 8.697017095983028412e-03 -2.375547885894775391e+00 -7.100552916526794434e-01 2.324941195547580719e-02
5.720000000000000000e+02 7.768115997314453125e+01 1.925543785095214844e+01 1.098390109837055206e-02 -1.360361337661743164e+00 -4.048132300376892090e-01 2.291014045476913452e-02
5.730000000000000000e+02 7.353059387207031250e+01 2.295590019226074219e+01 1.237029433250427246e-01 1.107414126396179199e+00 3.693351447582244873e-01 -1.163011882454156876e-02
5.740000000000000000e+02 7.224518585205078125e+01 2.399331665039062500e+01 1.961299329996109009e-01 1.954860925674438477e+00 6.452972292900085449e-01 -6.040095910429954529e-02
5.750000000000000000e+02 7.131489562988281250e+01 2.663039398193359375e+01 3.099671304225921631e-01 2.246905088424682617e+00 7.670616507530212402e-01 -2.048693746328353882e-01
5.760000000000000000e+02 6.984838867187500000e+01 2.547568702697753906e+01 1.675702780485153198e-01 3.631527423858642578e+00 1.139729380607604980e+00 -3.886780440807342529e-01
5.770000000000000000e+02 7.922007751464843750e+01 1.944692039489746094e+01 -1.391542702913284302e-02 -2.353770971298217773e+00 -7.103058695793151855e-01 1.519906986504793167e-02
5.780000000000000000e+02 7.627054595947265625e+01 2.058156013488769531e+01 2.907087653875350952e-02 -5.056326389312744141e-01 -1.429685354232788086e-01 1.228955760598182678e-02
5.790000000000000000e+02 7.480467224121093750e+01 2.317742919921875000e+01 1.111492738127708435e-01 3.543682396411895752e-01 1.396552473306655884e-01 6.312263756990432739e-02
5.800000000000000000e+02 7.330535888671875000e+01 2.423857688903808594e+01 1.890411823987960815e-01 1.210692763328552246e+00 4.199201762676239014e-01 -7.472816854715347290e-03
5.810000000000000000e+02 7.249330139160156250e+01 2.506707382202148438e+01 2.252369523048400879e-01 1.642495393753051758e+00 5.603197216987609863e-01 -2.424415014684200287e-02
5.820000000000000000e+02 6.960160827636718750e+01 2.813192176818847656e+01 3.565306067466735840e-01 2.967433452606201172e+00 9.971892237663269043e-01 -6.931253671646118164e-01
5.830000000000000000e+02 7.922422790527343750e+01 2.085526084899902344e+01 1.521774660795927048e-02 -2.332620859146118164e+00 -6.952209472656250000e-01 2.012841776013374329e-02
5.840000000000000000e+02 7.618283081054687500e+01 2.336300659179687500e+01 8.688616752624511719e-02 -4.643658697605133057e-01 -1.132439076900482178e-01 7.863046228885650635e-02
5.850000000000000000e+02 7.441316223144531250e+01 2.605694580078125000e+01 1.693790405988693237e-01 5.391150116920471191e-01 2.125482112169265747e-01 1.521721631288528442e-01
5.860000000000000000e+02 7.285869598388671875e+01 2.626340484619140625e+01 2.782590985298156738e-01 1.267085790634155273e+00 4.636034369468688965e-01 4.434449970722198486e-02
5.870000000000000000e+02 7.175207519531250000e+01 2.918381690979003906e+01 2.275125682353973389e-01 1.490564584732055664e+00 5.154231190681457520e-01 6.447399407625198364e-02
5.880000000000000000e+02 6.860909271240234375e+01 3.013146209716796875e+01 6.758437156677246094e-01 2.361768960952758789e+00 9.112838506698608398e-01 -9.299951791763305664e-01
5.890000000000000000e+02 6.998285675048828125e+01 2.948164367675781250e+01 4.802006185054779053e-01 2.277033329010009766e+00 8.271701931953430176e-01 -4.951203167438507080e-01
5.900000000000000000e+02 7.922079467773437500e+01 2.225920295715332031e+01 -1.938123954460024834e-03 -2.295083761215209961e+00 -6.891065239906311035e-01 3.028176352381706238e-02
5.910000000000000000e+02 7.757015991210937500e+01 2.494062423706054688e+01 4.898852109909057617e-02 -1.258051514625549316e+00 -3.627189099788665771e-01 1.269728243350982666e-01
5.920000000000000000e+02 7.592603302001953125e+01 2.618701362609863281e+01 1.041402295231819153e-01 -3.998007178306579590e-01 -8.869814872741699219e-02 1.673280894756317139e-01
5.930000000000000000e+02 7.444618988037109375e+01 2.736130332946777344e+01 2.052422910928726196e-01 4.058641493320465088e-01 1.833319365978240967e-01 1.962459832429885864e-01
5.940000000000000000e+02 7.332987976074218750e+01 2.886697196960449219e+01 1.829811930656433105e-01 8.445765972137451172e-01 3.082673251628875732e-01 1.825415492057800293e-01
5.950000000000000000e+02 6.958212280273437500e+01 3.125445175170898438e+01 1.466723382472991943e-01 1.748853921890258789e+00 5.686578750610351562e-01 -1.835021674633026123e-01
5.960000000000000000e+02 6.792198944091796875e+01 3.316360092163085938e+01 1.994610279798507690e-01 1.219485759735107422e+00 4.256840348243713379e-01 -5.226761102676391602e-01
5.970000000000000000e+02 6.708692932128906250e+01 3.461193466186523438e+01 1.009256243705749512e-01 9.776253700256347656e-01 3.235653042793273926e-01 -3.344586789608001709e-01
5.980000000000000000e+02 6.665165710449218750e+01 3.640190887451171875e+01 -1.093306019902229309e-01 8.836086392402648926e-01 2.322834134101867676e-01 -2.406336814165115356e-01
5.990000000000000000e+02 6.164854812622070312e+01 4.098225402832031250e+01 -7.334255427122116089e-02 3.335733711719512939e-01 7.806924730539321899e-02 -4.936811700463294983e-02
6.000000000000000000e+02 5.971363067626953125e+01 3.835464859008789062e+01 1.757216639816761017e-02 1.215095072984695435e-01 4.172450304031372070e-02 -9.438169002532958984e-02
6.010000000000000000e+02 5.735395812988281250e+01 4.138573074340820312e+01 3.994162380695343018e-02 4.130404815077781677e-02 2.437370084226131439e-02 6.057059392333030701e-03
6.020000000000000000e+02 5.464810562133789062e+01 3.486532974243164062e+01 -2.957228943705558777e-02 6.029819138348102570e-03 -7.062741089612245560e-03 -1.174674089998006821e-02
6.030000000000000000e+02 5.811984252929687500e+01 3.619249343872070312e+01 -5.019729956984519958e-02 -1.085217669606208801e-02 -1.831484213471412659e-02 -7.773626130074262619e-04
6.040000000000000000e+02 5.971149063110351562e+01 3.583251190185546875e+01 -5.035478621721267700e-02 1.223038136959075928e-02 -1.143732201308012009e-02 1.781463623046875000e-02
6.050000000000000000e+02 5.682202529907226562e+01 3.918543243408203125e+01 1.770171523094177246e-02 4.231802001595497131e-02 1.800592057406902313e-02 5.384355783462524414e-03
6.060000000000000000e+02 7.770013427734375000e+01 2.211184501647949219e+01 3.310516849160194397e-02 -1.363939285278320312e+00 -3.992502391338348389e-01 4.627323150634765625e-02
6.070000000000000000e+02 7.917191314697265625e+01 2.506465911865234375e+01 4.073516931384801865e-03 -2.138748168945312500e+00 -6.404023766517639160e-01 6.699585914611816406e-02
6.080000000000000000e+02 7.745674896240234375e+01 2.638322067260742188e+01 4.570968449115753174e-02 -1.132425665855407715e+00 -3.260147869586944580e-01 1.845490485429763794e-01
6.090000000000000000e+02 7.571622467041015625e+01 2.756296157836914062e+01 1.023080125451087952e-01 -2.104025185108184814e-01 -3.242835402488708496e-02 2.540302276611328125e-01
6.100000000000000000e+02 7.482859039306640625e+01 2.846897506713867188e+01 1.054576560854911804e-01 1.234125420451164246e-01 6.866105645895004272e-02 2.844866216182708740e-01
6.110000000000000000e+02 7.221035766601562500e+01 3.065146255493164062e+01 1.680884212255477905e-01 1.179757356643676758e+00 4.043537080287933350e-01 1.418025195598602295e-01
6.120000000000000000e+02 6.969587707519531250e+01 3.285005950927734375e+01 -4.508343525230884552e-03 1.263230800628662109e+00 3.776167631149291992e-01 -9.104072302579879761e-02
6.130000000000000000e+02 6.873101806640625000e+01 3.501470184326171875e+01 -1.315324008464813232e-01 1.040824651718139648e+00 2.727876603603363037e-01 -1.703055351972579956e-01
6.140000000000000000e+02 6.524303436279296875e+01 3.965591430664062500e+01 -1.989770829677581787e-01 6.308646798133850098e-01 1.295662820339202881e-01 -1.236798316240310669e-01
6.150000000000000000e+02 7.912816619873046875e+01 2.648436355590820312e+01 1.717862114310264587e-02 -2.018050909042358398e+00 -6.002616882324218750e-01 8.527170121669769287e-02
6.160000000000000000e+02 7.723526763916015625e+01 2.791000747680664062e+01 4.195277765393257141e-02 -9.610028862953186035e-01 -2.757150232791900635e-01 2.279068529605865479e-01
6.170000000000000000e+02 7.532444763183593750e+01 2.969278717041015625e+01 7.553718239068984985e-02 -3.193260356783866882e-02 1.308137364685535431e-02 3.288118243217468262e-01
6.180000000000000000e+02 7.373096466064453125e+01 3.014958572387695312e+01 1.169719249010086060e-01 5.433190464973449707e-01 1.980872899293899536e-01 2.887477576732635498e-01
6.190000000000000000e+02 7.056379699707031250e+01 3.205398178100585938e+01 8.718090504407882690e-02 1.296725869178771973e+00 4.151720404624938965e-01 -2.882557176053524017e-02
6.200000000000000000e+02 6.835893249511718750e+01 3.651980972290039062e+01 -1.696853339672088623e-01 9.281604886054992676e-01 2.275425344705581665e-01 -1.364003419876098633e-01
6.210000000000000000e+02 7.907173156738281250e+01 2.793201065063476562e+01 1.236096955835819244e-02 -1.871449589729309082e+00 -5.577265620231628418e-01 1.083368211984634399e-01
6.220000000000000000e+02 7.712555694580078125e+01 2.953921890258789062e+01 1.731087826192378998e-02 -8.160806298255920410e-01 -2.396309226751327515e-01 2.819738984107971191e-01
6.230000000000000000e+02 7.546812438964843750e+01 3.102833938598632812e+01 2.692295797169208527e-02 -1.597916781902313232e-01 -3.986061364412307739e-02 3.537406325340270996e-01
6.240000000000000000e+02 7.433734130859375000e+01 3.337145233154296875e+01 -8.807425945997238159e-02 2.564781308174133301e-01 5.052115768194198608e-02 3.436129093170166016e-01
6.250000000000000000e+02 7.037207031250000000e+01 3.515189743041992188e+01 -1.720076799392700195e-01 9.614558219909667969e-01 2.368344366550445557e-01 3.909805044531822205e-02
6.260000000000000000e+02 7.904312896728515625e+01 2.944046211242675781e+01 -1.248580496758222580e-02 -1.715846538543701172e+00 -5.184996724128723145e-01 1.103438362479209900e-01
6.270000000000000000e+02 7.693418884277343750e+01 3.116804695129394531e+01 2.726750820875167847e-02 -6.493408083915710449e-01 -1.866219937801361084e-01 3.178153932094573975e-01
6.280000000000000000e+02 7.014454650878906250e+01 3.686248779296875000e+01 -2.593044042587280273e-01 7.972196936607360840e-01 1.613745838403701782e-01 3.391575813293457031e-02
6.290000000000000000e+02 7.218447113037109375e+01 3.682032775878906250e+01 -2.108953148126602173e-01 5.076228976249694824e-01 8.901828527450561523e-02 1.761160343885421753e-01
6.300000000000000000e+02 6.953591918945312500e+01 3.881626892089843750e+01 -2.869575917720794678e-01 7.063406705856323242e-01 1.258149296045303345e-01 -2.296059951186180115e-02
6.310000000000000000e+02 7.925150299072265625e+01 3.081905937194824219e+01 -4.441438987851142883e-02 -1.573255419731140137e+00 -4.853009283542633057e-01 7.687179744243621826e-02
6.320000000000000000e+02 7.779291534423828125e+01 3.310207366943359375e+01 2.153269201517105103e-02 -8.152980804443359375e-01 -2.381296157836914062e-01 2.674644291400909424e-01
6.330000000000000000e+02 7.380319976806640625e+01 3.481926727294921875e+01 -1.200023591518402100e-01 3.429378867149353027e-01 6.688065826892852783e-02 2.904611229896545410e-01
6.340000000000000000e+02 7.244192504882812500e+01 4.121224212646484375e+01 -2.751321196556091309e-01 3.883012235164642334e-01 3.395073115825653076e-02 4.964175447821617126e-02
6.350000000000000000e+02 7.938099670410156250e+01 3.205435180664062500e+01 3.320575132966041565e-02 -1.405668377876281738e+00 -4.117387831211090088e-01 5.500328540802001953e-02
6.360000000000000000e+02 7.923280334472656250e+01 3.338890075683593750e+01 3.456461057066917419e-02 -1.220709800720214844e+00 -3.558435738086700439e-01 1.232826113700866699e-01
6.370000000000000000e+02 7.736825561523437500e+01 3.458644485473632812e+01 -3.380346670746803284e-02 -6.367003321647644043e-01 -2.011511325836181641e-01 2.464759051799774170e-01
6.380000000000000000e+02 7.231787109375000000e+01 3.885778427124023438e+01 -2.570348680019378662e-01 4.043083488941192627e-01 4.418203979730606079e-02 1.274609565734863281e-01
6.390000000000000000e+02 7.906556701660156250e+01 3.483992767333984375e+01 -9.951852262020111084e-03 -1.001800775527954102e+00 -3.035258054733276367e-01 1.401066184043884277e-01
6.400000000000000000e+02 7.675169372558593750e+01 3.628274536132812500e+01 -8.495621383190155029e-02 -3.722346127033233643e-01 -1.371572464704513550e-01 2.108095735311508179e-01
6.410000000000000000e+02 7.881308746337890625e+01 3.649822616577148438e+01 -2.457603625953197479e-02 -8.268257975578308105e-01 -2.554205656051635742e-01 1.177769526839256287e-01
6.420000000000000000e+02 7.900057220458984375e+01 3.793443679809570312e+01 -5.575642734766006470e-02 -7.103891968727111816e-01 -2.298436760902404785e-01 8.702080696821212769e-02
6.430000000000000000e+02 7.936346435546875000e+01 3.904029083251953125e+01 -1.159532368183135986e-02 -5.952660441398620605e-01 -1.820584088563919067e-01 6.417535245418548584e-03
6.440000000000000000e+02 7.603759765625000000e+01 4.009850692749023438e+01 -9.322115033864974976e-02 -2.261600345373153687e-01 -9.581435471773147583e-02 7.445292174816131592e-02
6.450000000000000000e+02 7.912393188476562500e+01 4.016386032104492188e+01 7.086206227540969849e-02 -4.783669710159301758e-01 -1.222514733672142029e-01 8.643721044063568115e-02
6.460000000000000000e+02 7.818272399902343750e+01 4.160428619384765625e+01 -8.441170305013656616e-02 -4.323855042457580566e-01 -1.550391614437103271e-01 2.354078367352485657e-02
6.470000000000000000e+02 5.316257476806640625e+01 4.126402664184570312e+01 1.897692680358886719e-02 -5.027667153626680374e-03 4.184777848422527313e-03 2.835967577993869781e-03
6.480000000000000000e+02 5.622084045410156250e+01 3.580427169799804688e+01 -4.292839020490646362e-02 -1.075381785631179810e-02 -1.610466279089450836e-02 -1.004692725837230682e-02
6.490000000000000000e+02 5.339892578125000000e+01 3.400617980957031250e+01 -2.303010784089565277e-02 -1.154349092394113541e-02 -1.037207990884780884e-02 8.304605726152658463e-04
6.500000000000000000e+02 4.935593032836914062e+01 3.291172027587890625e+01 -9.958837181329727173e-03 9.398472029715776443e-04 -2.705696970224380493e-03 -2.032399177551269531e-03
6.510000000000000000e+02 4.238817977905273438e+01 4.069746398925781250e+01 1.760809216648340225e-03 -7.765631889924407005e-04 2.952738141175359488e-04 5.493209755513817072e-05
6.520000000000000000e+02 3.754855346679687500e+01 4.065065765380859375e+01 8.443872211501002312e-04 -1.221966231241822243e-03 -1.132737088482826948e-04 6.641809013672173023e-04
6.530000000000000000e+02 4.049680709838867188e+01 3.571887207031250000e+01 4.329674629843793809e-05 -1.469353446736931801e-03 -4.278170235920697451e-04 5.174949183128774166e-04
6.540000000000000000e+02 3.953216552734375000e+01 3.283776092529296875e+01 -1.291331573156639934e-04 7.018849137239158154e-04 1.718255225569009781e-04 1.076341839507222176e-03
6.550000000000000000e+02 3.890003585815429688e+01 3.040214157104492188e+01 -1.106878509745001793e-03 -1.749939401634037495e-04 -3.845617175102233887e-04 8.871910540619865060e-05
6.560000000000000000e+02 3.938092041015625000e+01 2.665859413146972656e+01 -7.588827866129577160e-04 5.815724762214813381e-06 -2.259201137349009514e-04 -1.016741589410230517e-04
6.570000000000000000e+02 3.779896926879882812e+01 2.461566734313964844e+01 -3.298794617876410484e-04 -7.555771298939362168e-05 -1.216311575262807310e-04 8.382752275792881846e-05
6.580000000000000000e+02 3.696775817871093750e+01 2.380480957031250000e+01 6.987738015595823526e-05 1.588765735505148768e-04 6.862618465675041080e-05 -1.679247907304670662e-05
6.590000000000000000e+02 3.739233398437500000e+01 2.159168243408203125e+01 1.553782640257850289e-04 1.880909258034080267e-04 1.030407584039494395e-04 1.805716965463943779e-05
6.600000000000000000e+02 3.742712402343750000e+01 1.955426788330078125e+01 -3.589819925764459185e-06 3.008140774909406900e-04 8.916727529140189290e-05 1.145415626524481922e-05
6.610000000000000000e+02 3.782618331909179688e+01 1.708537864685058594e+01 1.510159345343708992e-04 -3.395634994376450777e-04 -5.656426583300344646e-05 -2.702184247027616948e-05
6.620000000000000000e+02 3.704178237915039062e+01 1.637984848022460938e+01 1.230829366249963641e-04 2.332296571694314480e-04 1.068937781383283436e-04 1.217725002788938582e-04
6.630000000000000000e+02 3.711757278442382812e+01 1.444257068634033203e+01 8.907715528039261699e-05 1.781561877578496933e-04 8.017000072868540883e-05 2.133456655428744853e-05
6.640000000000000000e+02 3.654657363891601562e+01 1.266061115264892578e+01 4.958606950822286308e-05 1.621196279302239418e-04 6.351171032292768359e-05 5.323025470715947449e-05
6.650000000000000000e+02 3.871089553833007812e+01 1.028056335449218750e+01 -6.940960884094238281e-05 1.326842902926728129e-05 -1.684235394350253046e-05 -7.834619464119896293e-05
6.660000000000000000e+02 3.865536880493164062e+01 7.763475418090820312e+00 -1.778168552846182138e-05 6.842113361926749349e-05 1.519183479103958234e-05 -1.700202301435638219e-05
6.670000000000000000e+02 3.968637466430664062e+01 6.253191471099853516e+00 4.259728666511364281e-05 3.999432738055475056e-05 2.477748421370051801e-05 -2.210162165283691138e-05
6.680000000000000000e+02 3.913819122314453125e+01 5.159054279327392578e+00 -3.218085112166590989e-05 -2.082552964566275477e-05 -1.590191459399648011e-05 3.855376053252257407e-05
6.690000000000000000e+02 3.955437850952148438e+01 3.545369148254394531e+00 -1.427625375072238967e-05 -4.482611984713003039e-05 -1.773071198840625584e-05 4.113823524676263332e-05
6.700000000000000000e+02 3.938259506225585938e+01 1.740378618240356445e+00 8.693599738762713969e-06 -2.909888644353486598e-05 -6.121586011431645602e-06 -5.433846126834396273e-06
6.710000000000000000e+02 4.007936859130859375e+01 -5.372645258903503418e-01 -9.781035259948112071e-06 -1.852998138929251581e-05 -8.493305358570069075e-06 4.245157924742670730e-06
6.720000000000000000e+02 3.956342315673828125e+01 -1.521473050117492676e+00 8.861753485689405352e-06 2.138468516932334751e-05 9.073931323655415326e-06 3.632233074313262478e-06
6.730000000000000000e+02 3.893685150146484375e+01 -4.266405582427978516e+00 -1.464922115701483563e-05 -8.968921065388713032e-06 -7.085442575771594420e-06 3.929197191610001028e-06
6.740000000000000000e+02 4.004516983032226562e+01 -4.979502677917480469e+00 1.157615042757242918e-05 1.571051143400836736e-05 8.185998012777417898e-06 -3.360714117661700584e-06
6.750000000000000000e+02 4.012445068359375000e+01 -9.206466674804687500e+00 8.998231351142749190e-07 -1.419773184352379758e-06 -1.559850204557733377e-07 2.322942464161315002e-06
6.760000000000000000e+02 3.921320724487304688e+01 -1.028056049346923828e+01 -9.922571280185366049e-07 1.963522180403742823e-07 -2.387714914675598266e-07 4.447967512533068657e-06
6.770000000000000000e+02 3.956115341186523438e+01 -1.220350074768066406e+01 6.170829237817088142e-06 4.501805506151868030e-06 3.201790377715951763e-06 -1.526537403151451144e-06
6.780000000000000000e+02 3.864201736450195312e+01 -1.362237644195556641e+01 5.570533176069147885e-06 4.354733846412273124e-06 2.977580152219161391e-06 -9.518298043076356407e-07
6.790000000000000000e+02 3.938034439086914062e+01 -1.496857452392578125e+01 1.980341266971663572e-06 3.729188620127388276e-06 1.712858988867083099e-06 -2.332202029720065184e-06
6.800000000000000000e+02 3.818153762817382812e+01 -1.710757637023925781e+01 -1.188424562315049116e-06 -4.097141300007933751e-06 -1.585669679116108455e-06 1.600404971213720273e-06
6.810000000000000000e+02 3.811206436157226562e+01 -1.827372932434082031e+01 2.202841358212026535e-07 4.236183485772926360e-06 1.336940272267383989e-06 -6.391568518893109285e-08
6.820000000000000000e+02 4.081234741210937500e+01 -2.035996055603027344e+01 1.681232561168144457e-06 8.194283509510569274e-07 7.501982963731279597e-07 -2.955192030640318990e-06
6.830000000000000000e+02 4.183568572998046875e+01 -2.009757804870605469e+01 6.741856850567273796e-07 -8.553765269425639417e-07 -5.435726535552021232e-08 -1.971738129213918000e-06
6.840000000000000000e+02 4.360191726684570312e+01 -1.866654968261718750e+01 -2.002012024604482576e-06 8.340005024365382269e-07 -3.504034964407765074e-07 -1.002396672333816241e-07
6.850000000000000000e+02 4.201716613769531250e+01 -1.735127639770507812e+01 -8.842131933306518476e-07 -2.735865109571022913e-06 -1.086023530660895631e-06 2.871892661460151430e-07
6.860000000000000000e+02 4.246051025390625000e+01 -1.524312305450439453e+01 5.809587264593574218e-07 9.248111609849729575e-07 4.517309832863247721e-07 -2.047638190560974181e-06
6.870000000000000000e+02 4.314743423461914062e+01 -1.413688468933105469e+01 -1.729971359054616187e-06 3.516398464853409678e-06 5.359281090022705030e-07 -3.182958153047366068e-06
6.880000000000000000e+02 4.234368133544921875e+01 -1.190515804290771484e+01 2.142502580682048574e-06 8.020311724976636469e-06 3.048844291697605513e-06 -1.614930511095735710e-06
6.890000000000000000e+02 4.321326828002929688e+01 -1.038966751098632812e+01 -6.880422915855888277e-06 2.774388121906667948e-06 -1.231810415447398555e-06 2.369392404943937436e-06
6.900000000000000000e+02 4.267358398437500000e+01 -6.932100296020507812e+00 -5.596802566287806258e-06 -6.213572305568959564e-06 -3.543112370607559569e-06 5.701622740161838010e-06
6.910000000000000000e+02 4.198094177246093750e+01 -4.381920814514160156e+00 5.749363936047302559e-06 1.906296165543608367e-05 7.443697541020810604e-06 -5.212284577282844111e-06
6.920000000000000000e+02 4.328043746948242188e+01 -1.647447466850280762e+00 -1.511922960162337404e-06 -2.262210000480990857e-05 -7.240206741698784754e-06 1.206193519465159625e-05
6.930000000000000000e+02 4.254499435424804688e+01 -1.097539067268371582e+00 9.467867698731424753e-07 3.361192648299038410e-05 1.036761386785656214e-05 -1.246169449586886913e-05
6.940000000000000000e+02 4.259136199951171875e+01 2.679908871650695801e-01 -2.477468797223991714e-06 4.159026502748019993e-05 1.173383861896581948e-05 -1.979171975108329207e-05
6.950000000000000000e+02 4.205120849609375000e+01 1.726305842399597168e+00 8.372481715923640877e-06 3.325151919852942228e-05 1.248720036528538913e-05 -9.602928003005217761e-06
6.960000000000000000e+02 4.214797973632812500e+01 4.102746009826660156e+00 -1.277354749618098140e-05 2.361064252909272909e-05 3.251128191550378688e-06 -2.644369124027434736e-05
6.970000000000000000e+02 4.259829711914062500e+01 5.672338962554931641e+00 -2.918960126407910138e-05 -6.211704658198868856e-06 -1.062039154930971563e-05 -2.160322765121236444e-05
6.980000000000000000e+02 4.165160369873046875e+01 6.745515823364257812e+00 3.476941856206394732e-05 1.095405968953855336e-04 4.329300281824544072e-05 7.269160050782375038e-06
6.990000000000000000e+02 4.235459136962890625e+01 9.012537002563476562e+00 6.778815532015869394e-06 2.091391979774925858e-05 8.307820280606392771e-06 1.406140017934376374e-05
7.000000000000000000e+02 4.205590057373046875e+01 1.048576164245605469e+01 -2.847949326678644866e-05 3.796677628997713327e-05 2.846185452654026449e-06 -6.312886853265808895e-06
7.010000000000000000e+02 3.845898056030273438e+01 1.164475727081298828e+01 9.651873551774770021e-05 9.946592035703361034e-05 5.879539821762591600e-05 1.452386495657265186e-04
7.020000000000000000e+02 3.796895599365234375e+01 1.305212402343750000e+01 -6.347433372866362333e-05 -1.911621657200157642e-04 -7.639094837941229343e-05 -6.126777589088305831e-05
7.030000000000000000e+02 5.016821670532226562e+01 3.964590835571289062e+01 1.148167811334133148e-02 2.842820249497890472e-03 4.297349601984024048e-03 7.136394269764423370e-03
7.040000000000000000e+02 5.212623214721679688e+01 3.785047149658203125e+01 -2.597919898107647896e-03 -2.512907376512885094e-03 -1.533248228952288628e-03 7.940952666103839874e-03
7.050000000000000000e+02 5.356599807739257812e+01 3.637343215942382812e+01 -1.324535533785820007e-02 2.492355881258845329e-03 -3.225899999961256981e-03 1.259822398424148560e-02
7.060000000000000000e+02 5.235246658325195312e+01 3.312842941284179688e+01 -6.206879392266273499e-03 4.326113034039735794e-03 -5.642299074679613113e-04 -1.262029726058244705e-02
7.070000000000000000e+02 4.875757980346679688e+01 3.683964538574218750e+01 -5.632878746837377548e-03 -2.103422535583376884e-03 -2.320890547707676888e-03 5.681863054633140564e-03
7.080000000000000000e+02 5.079560089111328125e+01 3.609336090087890625e+01 -7.012329995632171631e-03 8.114931173622608185e-03 3.307803708594292402e-04 5.863143131136894226e-03
7.090000000000000000e+02 4.688379287719726562e+01 4.075443267822265625e+01 5.366145167499780655e-03 -5.437023937702178955e-03 -2.126372783095575869e-05 2.102899132296442986e-03
7.100000000000000000e+02 5.140388488769531250e+01 3.372519302368164062e+01 -1.114212535321712494e-02 4.818557295948266983e-03 -1.897070324048399925e-03 -3.503659507259726524e-03
7.110000000000000000e+02 3.708636856079101562e+01 2.849520301818847656e+01 -8.584139286540448666e-04 -2.273632562719285488e-04 -3.257331554777920246e-04 -5.159394640941172838e-05
7.120000000000000000e+02 3.590061950683593750e+01 2.514361953735351562e+01 -5.931242485530674458e-04 -1.241791323991492391e-04 -2.151910157408565283e-04 -6.745583050360437483e-06
7.130000000000000000e+02 3.602480316162109375e+01 2.315689277648925781e+01 -4.510259313974529505e-04 -1.627687888685613871e-04 -1.841384073486551642e-04 -1.254778471775352955e-04
7.140000000000000000e+02 3.635314941406250000e+01 2.102035903930664062e+01 -1.954940962605178356e-04 -2.329818089492619038e-04 -1.285427715629339218e-04 -6.768817547708749771e-05
7.150000000000000000e+02 3.690658950805664062e+01 1.805545043945312500e+01 -1.664366573095321655e-04 4.674802476074546576e-04 9.031307854456827044e-05 5.077052992419339716e-05
7.160000000000000000e+02 3.585633850097656250e+01 1.770920372009277344e+01 -1.073063467629253864e-04 -2.664537169039249420e-04 -1.121280220104381442e-04 -7.848989480407908559e-05
7.170000000000000000e+02 3.598925399780273438e+01 1.576363849639892578e+01 -8.913991041481494904e-05 -1.812457630876451731e-04 -8.111570059554651380e-05 -1.132895886257756501e-05
7.180000000000000000e+02 3.581660079956054688e+01 1.390868282318115234e+01 -4.687898399424739182e-05 -1.734814723022282124e-04 -6.610813579754903913e-05 2.475974724802654237e-05
7.190000000000000000e+02 3.462049102783203125e+01 1.336754608154296875e+01 9.411583050678018481e-06 1.514199975645169616e-04 4.824947245651856065e-05 -4.015784361399710178e-05
7.200000000000000000e+02 3.708755111694335938e+01 1.019306087493896484e+01 6.464160833274945617e-05 4.787693251273594797e-05 3.375556116225197911e-05 1.484667882323265076e-04
7.210000000000000000e+02 3.711703109741210938e+01 7.842549800872802734e+00 4.508411075221374631e-05 -2.224616946477908641e-05 6.851381840533576906e-06 6.200319330673664808e-05
7.220000000000000000e+02 3.811800765991210938e+01 5.584858417510986328e+00 2.383268110861536115e-05 1.709488424239680171e-05 1.227826942340470850e-05 -1.183735821541631594e-05
7.230000000000000000e+02 3.759028625488281250e+01 4.777734279632568359e+00 -3.513658521114848554e-05 -2.044440770987421274e-05 -1.667429751250892878e-05 2.808698980061308248e-07
7.240000000000000000e+02 3.787250900268554688e+01 3.361701011657714844e+00 -3.615451305449823849e-06 -4.943510793964378536e-05 -1.591516775079071522e-05 9.367014172312337905e-06
7.250000000000000000e+02 3.793405914306640625e+01 1.742171287536621094e+00 4.149015921939280815e-07 -4.177306982455775142e-05 -1.240745041286572814e-05 3.891929736710153520e-05
7.260000000000000000e+02 3.802107620239257812e+01 2.840260565280914307e-01 -8.968593647296074778e-06 -2.919204416684806347e-05 -1.144819088949589059e-05 1.711188633635174483e-05
7.270000000000000000e+02 3.825959777832031250e+01 -3.417106628417968750e+00 7.349060524575179443e-07 1.299359973927494138e-05 4.118551714782370254e-06 1.170455198007402942e-05
7.280000000000000000e+02 3.805459976196289062e+01 -4.986685752868652344e+00 1.495111064286902547e-05 1.069700829248176888e-05 7.694436135352589190e-06 5.246160071692429483e-06
7.290000000000000000e+02 3.891885757446289062e+01 -8.403695106506347656e+00 5.629393399431137368e-06 4.267384099421178689e-07 1.816839471757702995e-06 7.068807008181465790e-06
7.300000000000000000e+02 3.719193267822265625e+01 -8.822819709777832031e+00 -1.813345647860842291e-06 -6.139800461824052036e-06 -2.385943844274152070e-06 1.168230028270045295e-05
7.310000000000000000e+02 3.840515518188476562e+01 -1.056542396545410156e+01 -8.041045020945603028e-07 -6.515485438285395503e-06 -2.195876959376619197e-06 -4.407403139339294285e-06
7.320000000000000000e+02 3.691390228271484375e+01 -1.186695671081542969e+01 -6.129680514277424663e-07 -7.994858606252819300e-06 -2.582348088253638707e-06 5.523239906324306503e-06
7.330000000000000000e+02 3.776014328002929688e+01 -1.325061035156250000e+01 -2.705195811358862557e-06 -4.580473614623770118e-06 -2.185700850532157347e-06 1.169272081824601628e-06
7.340000000000000000e+02 3.716892242431640625e+01 -1.558118057250976562e+01 -2.443579887767555192e-06 -4.511807219387264922e-06 -2.086616177621181123e-06 -6.559270673278660979e-07
7.350000000000000000e+02 3.677508163452148438e+01 -1.799435043334960938e+01 -1.245697092144837370e-07 -3.654960892163217068e-06 -1.133859200308506843e-06 -2.525981699363910593e-07
7.360000000000000000e+02 3.689262390136718750e+01 -1.683066940307617188e+01 7.622167004228685983e-07 4.054109012940898538e-06 1.444897634428343736e-06 -2.008093105132502387e-07
7.370000000000000000e+02 3.294700241088867188e+01 3.719885635375976562e+01 3.513596020638942719e-04 -8.731756242923438549e-04 -1.565448037581518292e-04 2.765918907243758440e-04
7.380000000000000000e+02 3.721938323974609375e+01 3.702132415771484375e+01 4.211566701997071505e-04 3.458237042650580406e-04 2.300941123394295573e-04 7.434403523802757263e-04
7.390000000000000000e+02 3.365868759155273438e+01 3.387439727783203125e+01 -1.832163206927361898e-06 2.784583193715661764e-04 8.298784086946398020e-05 4.551307065412402153e-04
7.400000000000000000e+02 3.554185867309570312e+01 2.642602539062500000e+01 2.008373994613066316e-04 1.503661769675090909e-04 1.053610685630701482e-04 3.099712193943560123e-04
7.410000000000000000e+02 3.480505752563476562e+01 2.478859901428222656e+01 1.722407905617728829e-04 2.258833555970340967e-04 1.194372453028336167e-04 1.748755748849362135e-04
7.420000000000000000e+02 3.502178955078125000e+01 2.249429893493652344e+01 -2.637615943967830390e-05 2.385002444498240948e-04 6.363722786772996187e-05 7.547986024292185903e-05
7.430000000000000000e+02 3.536678695678710938e+01 2.036219787597656250e+01 -1.265973551198840141e-04 2.287384268129244447e-04 3.064232078031636775e-05 2.307354225195012987e-05
7.440000000000000000e+02 3.511270904541015625e+01 1.922037124633789062e+01 -2.117017174896318465e-06 2.199374866904690862e-04 6.534613930853083730e-05 7.081572402967140079e-05
7.450000000000000000e+02 3.476206588745117188e+01 1.715074157714843750e+01 2.103461520164273679e-05 1.612691557966172695e-04 5.469113239087164402e-05 8.570721547584980726e-06
7.460000000000000000e+02 3.483168029785156250e+01 1.514456081390380859e+01 3.104276038357056677e-05 1.300022559007629752e-04 4.831350452150218189e-05 -2.427377694402821362e-05
7.470000000000000000e+02 3.367904281616210938e+01 1.448725032806396484e+01 -2.804756695695687085e-05 -1.471326249884441495e-04 -5.255405631032772362e-05 4.158464071224443614e-05
7.480000000000000000e+02 3.356538009643554688e+01 1.274010181427001953e+01 1.491451530455378816e-05 -1.732980599626898766e-04 -4.751506276079453528e-05 5.212060568737797439e-05
7.490000000000000000e+02 3.545233535766601562e+01 1.014562988281250000e+01 -2.393380600551608950e-05 -8.091693598544225097e-05 -3.145522350678220391e-05 -1.141290122177451849e-04
7.500000000000000000e+02 3.558202362060546875e+01 7.774808406829833984e+00 -4.333928154665045440e-05 1.449089268135139719e-06 -1.256705763807985932e-05 -4.885323141934350133e-05
7.510000000000000000e+02 3.567964553833007812e+01 6.615743160247802734e+00 4.139682278037071228e-05 9.698524650048057083e-08 1.244814302481245250e-05 4.026547685498371720e-05
7.520000000000000000e+02 3.584199142456054688e+01 5.382388114929199219e+00 -2.963592669402714819e-05 7.907194230938330293e-06 -6.518620011775055900e-06 5.728863357035152148e-07
7.530000000000000000e+02 3.702339553833007812e+01 3.946601152420043945e+00 8.378230631933547556e-06 3.073974221479147673e-05 1.173539112642174587e-05 1.502058148616924882e-05
7.540000000000000000e+02 3.605109405517578125e+01 1.785150766372680664e+00 7.470295713574159890e-06 1.789195630408357829e-05 7.608675332448910922e-06 1.602429620106704533e-05
7.550000000000000000e+02 3.652658081054687500e+01 -4.147980213165283203e-01 -3.156260163450497203e-06 -4.715303020930150524e-06 -2.361468887102091685e-06 1.980535489565227181e-05
7.560000000000000000e+02 3.617010116577148438e+01 -1.285423517227172852e+00 1.164399236586177722e-05 2.687699998205062002e-05 1.155629797722212970e-05 8.876145329850260168e-06
7.570000000000000000e+02 3.624123764038085938e+01 -2.911812543869018555e+00 1.381693073199130595e-05 2.269822653033770621e-05 1.095454717869870365e-05 3.751904614546219818e-06
7.580000000000000000e+02 3.707690429687500000e+01 -5.778370857238769531e+00 -7.817850018909666687e-06 -1.435511239833431318e-05 -6.651888725173193961e-06 -3.337765122068958590e-07
7.590000000000000000e+02 3.634563064575195312e+01 -7.646630287170410156e+00 -9.877039701677858829e-06 1.120681008615065366e-05 3.989311210261803353e-07 6.597659648832632229e-06
7.600000000000000000e+02 3.633281707763671875e+01 -8.716138839721679688e+00 1.010313280858099461e-05 -2.223352566943503916e-06 2.363934072491247207e-06 -5.384927135310135782e-06
7.610000000000000000e+02 3.471442031860351562e+01 -1.257728576660156250e+01 -3.901046056853374466e-06 3.119806251561385579e-06 -2.343718676911521470e-07 -9.816973260967643000e-07
7.620000000000000000e+02 3.552199935913085938e+01 -1.270073986053466797e+01 -2.579497277110931464e-06 -6.770881554984953254e-06 -2.805113581416662782e-06 2.703921154534327798e-06
7.630000000000000000e+02 3.436213302612304688e+01 -1.418220233917236328e+01 -3.348607833686401136e-06 -5.101712758914800361e-06 -2.535096200517727993e-06 -6.657822950728586875e-07
7.640000000000000000e+02 3.454864501953125000e+01 -1.559471607208251953e+01 -2.119052851412561722e-06 -2.893596956710098311e-06 -1.503794919699430466e-06 1.099508040169894230e-06
7.650000000000000000e+02 3.544063568115234375e+01 -1.789919281005859375e+01 7.380318134408980768e-09 3.803913159572402947e-06 1.143388089985819533e-06 3.299677473478368483e-07
7.660000000000000000e+02 3.150294685363769531e+01 3.281209945678710938e+01 1.379027380608022213e-04 -7.917606853879988194e-05 1.761799831001553684e-05 4.863363574258983135e-04
7.670000000000000000e+02 3.444482803344726562e+01 3.103251075744628906e+01 -3.848291235044598579e-04 -4.484889504965394735e-04 -2.499954134691506624e-04 3.496848148643039167e-05
7.680000000000000000e+02 3.591910552978515625e+01 2.784337425231933594e+01 -8.111640345305204391e-04 2.925837179645895958e-04 -1.555741037009283900e-04 -1.719194115139544010e-04
7.690000000000000000e+02 3.426350021362304688e+01 2.663575172424316406e+01 -6.805905140936374664e-04 -1.125427079387009144e-04 -2.379399666097015142e-04 -1.788200170267373323e-04
7.700000000000000000e+02 3.365377044677734375e+01 2.414570236206054688e+01 -1.931135047925636172e-04 -2.449979074299335480e-04 -1.314334222115576267e-04 -5.745123417000286281e-05
7.710000000000000000e+02 3.261510467529296875e+01 2.324891662597656250e+01 -9.940437303157523274e-05 1.927700504893437028e-04 2.800970105454325676e-05 4.895330857834778726e-05
7.720000000000000000e+02 3.284539794921875000e+01 2.100486183166503906e+01 -2.890613723138812929e-05 1.749812799971550703e-04 4.382254337542690337e-05 1.591528962308075279e-05
7.730000000000000000e+02 3.349007034301757812e+01 1.829614639282226562e+01 5.076387878943933174e-06 -1.990838209167122841e-04 -5.820222941110841930e-05 -1.905914723465684801e-05
7.740000000000000000e+02 3.254585266113281250e+01 1.756311035156250000e+01 -1.039744802255881950e-05 1.268288324354216456e-04 3.492941323202103376e-05 -2.018433769990224391e-05
7.750000000000000000e+02 3.256366729736328125e+01 1.566409778594970703e+01 9.211126780428458005e-06 9.318778757005929947e-05 3.071967512369155884e-05 -2.712946479732636362e-05
7.760000000000000000e+02 3.257570266723632812e+01 1.376957988739013672e+01 1.361461841042910237e-07 1.066319673554971814e-04 3.203043161192908883e-05 -3.839979035547003150e-05
7.770000000000000000e+02 3.260948944091796875e+01 1.201097106933593750e+01 -9.116381988860666752e-06 7.877848111093044281e-05 2.089862937282305211e-05 -3.065479177166707814e-05
7.780000000000000000e+02 3.382142639160156250e+01 1.001333618164062500e+01 1.734540774123161100e-06 1.221234269905835390e-04 3.715739148901775479e-05 1.143669942393898964e-04
7.790000000000000000e+02 3.395252990722656250e+01 7.586786270141601562e+00 4.443183570401743054e-05 1.149516992882126942e-05 1.677810178080108017e-05 7.491546421078965068e-05
7.800000000000000000e+02 3.421376419067382812e+01 6.398936748504638672e+00 -3.162859502481296659e-05 -3.221766746719367802e-05 -1.915387838380411267e-05 -1.775014970917254686e-05
7.810000000000000000e+02 3.347760391235351562e+01 4.997178077697753906e+00 -2.451138607284519821e-05 -7.745784387225285172e-06 -9.677150956122204661e-06 -3.869865031447261572e-05
7.820000000000000000e+02 3.344123840332031250e+01 2.668436527252197266e+00 -8.504257493768818676e-06 1.061458715412300080e-05 6.330989776870410424e-07 -1.223246908921282738e-05
7.830000000000000000e+02 3.378376007080078125e+01 -6.857582181692123413e-02 1.281584331991325598e-06 -4.077712674188660458e-06 -8.388384458157815970e-07 2.336457691853865981e-05
7.840000000000000000e+02 3.489298248291015625e+01 -9.218728542327880859e-01 8.509691724611911923e-06 1.879103547253180295e-05 8.190218068193644285e-06 2.512701030354946852e-05
7.850000000000000000e+02 3.395505523681640625e+01 -1.250695228576660156e+00 6.129057510406710207e-07 -1.811490255931857973e-05 -5.250599315331783146e-06 -3.879044015775434673e-06
7.860000000000000000e+02 3.507097244262695312e+01 -3.718549489974975586e+00 -5.291053184919292107e-06 -2.017761289607733488e-05 -7.640599505975842476e-06 8.141590228660788853e-07
7.870000000000000000e+02 3.473085784912109375e+01 -6.636277675628662109e+00 1.423931098543107510e-05 -6.167869742057519034e-06 2.421432100163656287e-06 -1.227459597430424765e-05
7.880000000000000000e+02 3.424152374267578125e+01 -8.191961288452148438e+00 8.841568160278256983e-06 9.314269846072420478e-06 5.446751401905203238e-06 -1.153494622485595755e-06
7.890000000000000000e+02 3.522753524780273438e+01 -9.616560935974121094e+00 6.346519057842670009e-06 7.747640665911603719e-06 4.228247689752606675e-06 -5.840350354446854908e-07
7.900000000000000000e+02 3.380408477783203125e+01 -1.263929462432861328e+01 2.554452066760859452e-06 -1.600897462594730314e-06 2.860663812498387415e-07 1.076856051440699957e-06
7.910000000000000000e+02 3.324575042724609375e+01 -1.466794776916503906e+01 -1.353917468804866076e-06 -3.140604576401528902e-06 -1.348356704511388671e-06 -4.310831627662992105e-06
7.920000000000000000e+02 3.311364364624023438e+01 -1.553112888336181641e+01 8.396484645345481113e-07 1.367014448305781116e-07 2.929049571775976801e-07 1.215720317304658238e-06
7.930000000000000000e+02 3.411854934692382812e+01 -1.785771751403808594e+01 -2.483274386122502619e-08 -3.800450485869077966e-06 -1.147584953287150711e-06 -3.124190470771281980e-07
7.940000000000000000e+02 2.781995964050292969e+01 4.075173187255859375e+01 1.493245799792930484e-04 -2.931482740677893162e-04 -4.314710895414464176e-05 2.339846105314791203e-04
7.950000000000000000e+02 3.101096343994140625e+01 3.094170570373535156e+01 -3.662924063974060118e-05 -3.622533113230019808e-04 -1.196647644974291325e-04 2.312502765562385321e-04
7.960000000000000000e+02 3.116412162780761719e+01 2.913001060485839844e+01 -2.001931134145706892e-04 3.770469047594815493e-04 5.305613740347325802e-05 2.311776624992489815e-04
7.970000000000000000e+02 3.220027923583984375e+01 2.555252456665039062e+01 -3.162800276186317205e-04 2.352363808313384652e-04 -2.431309076200705022e-05 1.350526872556656599e-04
7.980000000000000000e+02 3.125182342529296875e+01 2.455262947082519531e+01 -1.207022141898050904e-04 -1.905164972413331270e-04 -9.336561197414994240e-05 -4.771420208271592855e-05
7.990000000000000000e+02 3.157728004455566406e+01 2.243176460266113281e+01 -1.084734831238165498e-04 -1.983496913453564048e-04 -9.204695379594340920e-05 -2.107796899508684874e-05
8.000000000000000000e+02 3.154022026062011719e+01 1.870039749145507812e+01 -2.136578405043110251e-05 -2.209289668826386333e-04 -7.268842455232515931e-05 2.364510510233230889e-05
8.010000000000000000e+02 3.140330886840820312e+01 1.687423706054687500e+01 -4.596260987455025315e-05 -1.402216876158490777e-04 -5.585528560914099216e-05 3.603653385653160512e-05
8.020000000000000000e+02 3.142758560180664062e+01 1.490884590148925781e+01 -2.016547114180866629e-05 -1.256190589629113674e-04 -4.373535921331495047e-05 4.143958722124807537e-05
8.030000000000000000e+02 3.153160285949707031e+01 1.294753456115722656e+01 8.476605017904148553e-08 -1.262058940483257174e-04 -3.783634019782766700e-05 6.545327050844207406e-05
8.040000000000000000e+02 3.229742813110351562e+01 9.873353958129882812e+00 2.207420766353607178e-05 -1.384125935146585107e-04 -3.490151357254944742e-05 -6.051827585906721652e-05
8.050000000000000000e+02 3.224907684326171875e+01 7.505014896392822266e+00 -1.951581725734286010e-05 -1.832928501244168729e-05 -1.135353068093536422e-05 -4.899692794424481690e-05
8.060000000000000000e+02 3.198803710937500000e+01 6.359212398529052734e+00 1.701095789030659944e-05 -2.874956589948851615e-05 -3.521582357279839925e-06 3.206057226634584367e-05
8.070000000000000000e+02 3.218015670776367188e+01 2.810424804687500000e+00 2.116119685524608940e-05 -2.560248321969993412e-05 -1.332385750174580608e-06 2.771963772829622030e-05
8.080000000000000000e+02 3.198163986206054688e+01 1.553443312644958496e+00 -1.036965477396734059e-05 1.119579792430158705e-05 2.478430189967184560e-07 -1.375895590172149241e-05
8.090000000000000000e+02 3.293828964233398438e+01 -1.623051643371582031e+00 1.115345457947114483e-05 1.689506279944907874e-05 8.414554940827656537e-06 8.115403034025803208e-06
8.100000000000000000e+02 3.371191024780273438e+01 -4.279300689697265625e+00 9.430561476619914174e-06 1.130383679992519319e-05 6.220319392014062032e-06 5.161924946150975302e-06
8.110000000000000000e+02 3.266891860961914062e+01 -5.887330532073974609e+00 9.141838745563291013e-06 3.147385541524272412e-06 3.686767286126269028e-06 1.456496465834788978e-05
8.120000000000000000e+02 3.220624542236328125e+01 -8.434046745300292969e+00 -1.123197421293298248e-06 -1.250457899004686624e-05 -4.088332843821262941e-06 -2.113391246894025244e-06
8.130000000000000000e+02 3.212551116943359375e+01 -9.869001388549804688e+00 1.604585918357770424e-06 -1.345793498330749571e-05 -3.556004912752541713e-06 5.416150088422000408e-07
8.140000000000000000e+02 3.262845611572265625e+01 -1.058883953094482422e+01 3.099147079410613514e-06 1.080632318917196244e-05 4.171641194261610508e-06 -2.269079999450696050e-07
8.150000000000000000e+02 3.254239654541015625e+01 -1.196006202697753906e+01 3.502495019347406924e-06 8.229828381445258856e-06 3.519697202136740088e-06 -3.998435147423151648e-07
8.160000000000000000e+02 3.288136672973632812e+01 -1.356710720062255859e+01 2.185312723668175749e-06 -4.805898242921102792e-06 -7.861756330385105684e-07 -2.925721673818770796e-06
8.170000000000000000e+02 3.217175292968750000e+01 -1.538907814025878906e+01 -4.966720439369964879e-07 -3.261402071075281128e-06 -1.127422251556708943e-06 -5.742037387790333014e-07
8.180000000000000000e+02 3.153582954406738281e+01 -1.763165855407714844e+01 -5.608752644548076205e-07 -3.642205911091878079e-06 -1.260924364032689482e-06 -9.730250667416839860e-07
8.190000000000000000e+02 3.188276100158691406e+01 -1.646277999877929688e+01 1.348996534034085926e-06 3.332736241645761766e-06 1.404519821335270535e-06 2.151350315671152202e-07
8.200000000000000000e+02 2.918431091308593750e+01 3.110356903076171875e+01 2.317432972631650046e-06 1.557371288072317839e-04 4.741636803373694420e-05 2.432773908367380500e-04
8.210000000000000000e+02 3.124619293212890625e+01 2.758532142639160156e+01 -2.108238841174170375e-04 -2.744966186583042145e-04 -1.455961464671418071e-04 -6.878363637952134013e-05
8.220000000000000000e+02 3.025342941284179688e+01 2.365599441528320312e+01 -1.306901394855231047e-04 1.886881073005497456e-04 1.739938852551858872e-05 7.608244777657091618e-05
8.230000000000000000e+02 3.071966743469238281e+01 1.984832572937011719e+01 -1.425063965143635869e-04 2.204974298365414143e-04 2.339731145184487104e-05 -4.194361827103421092e-05
8.240000000000000000e+02 3.039518928527832031e+01 1.814250755310058594e+01 -3.116255538770928979e-05 1.372984988847747445e-04 3.184078377671539783e-05 -3.061831739614717662e-05
8.250000000000000000e+02 2.903161239624023438e+01 1.520677089691162109e+01 -1.997700564970728010e-05 -5.103632429381832480e-05 -2.130399843736086041e-05 6.631096766795963049e-05
8.260000000000000000e+02 2.948560905456542969e+01 1.327828407287597656e+01 -2.443246194161474705e-05 -6.284486880758777261e-05 -2.618319740577135235e-05 6.396339449565857649e-05
8.270000000000000000e+02 3.042457580566406250e+01 1.222431468963623047e+01 1.228817836818052456e-06 8.894432539818808436e-05 2.705194310692604631e-05 -4.840812835027463734e-05
8.280000000000000000e+02 3.091502761840820312e+01 9.846029281616210938e+00 -9.442939699511043727e-06 9.629550186218693852e-05 2.605576810310594738e-05 6.197376933414489031e-05
8.290000000000000000e+02 3.058645057678222656e+01 7.533734321594238281e+00 3.047305290238000453e-05 -2.685075742192566395e-06 8.336392966157291085e-06 6.709835724905133247e-05
8.300000000000000000e+02 3.052112579345703125e+01 6.399382591247558594e+00 -1.142855217040050775e-05 -3.859096250380389392e-05 -1.500585494795814157e-05 -2.960158781206700951e-05
8.310000000000000000e+02 3.041601943969726562e+01 4.505468845367431641e+00 -2.700679715417209081e-06 2.509313344489783049e-05 6.717736141581553966e-06 3.869201464112848043e-06
8.320000000000000000e+02 3.092212486267089844e+01 3.022481203079223633e+00 -7.970261322043370456e-06 2.310710078745614737e-05 4.541052021522773430e-06 -5.452317964227404445e-06
8.330000000000000000e+02 3.066083908081054688e+01 1.704399347305297852e+00 1.761451130732893944e-05 -1.730834628688171506e-05 9.184932991956884507e-08 2.523924922570586205e-05
8.340000000000000000e+02 3.038861465454101562e+01 -4.062780439853668213e-01 6.255536845856113359e-06 1.078331024473300204e-05 5.111654445499880239e-06 3.959476089221425354e-06
8.350000000000000000e+02 3.085136795043945312e+01 -2.413236618041992188e+00 6.622804448852548376e-06 1.524544859421439469e-05 6.560475867445347831e-06 9.062222488864790648e-06
8.360000000000000000e+02 3.046923828125000000e+01 -4.104197978973388672e+00 1.123197125707520172e-05 1.284023437619907781e-05 7.221661689982283860e-06 -3.010124601132702082e-06
8.370000000000000000e+02 3.113432884216308594e+01 -4.634668827056884766e+00 -4.675544460042146966e-06 -1.477173009334364906e-05 -5.834182047692593187e-06 1.614938582861213945e-06
8.380000000000000000e+02 2.995912361145019531e+01 -7.373842239379882812e+00 7.357154572673607618e-06 1.255241477338131517e-05 5.972870894765947014e-06 -1.852122977652470581e-06
8.390000000000000000e+02 2.978241157531738281e+01 -8.733505249023437500e+00 4.153158897679531947e-06 1.380356297886464745e-05 5.387016699387459084e-06 3.798711759372963570e-06
8.400000000000000000e+02 2.980279159545898438e+01 -1.096163463592529297e+01 2.718322093642200343e-06 -1.296139180340105668e-05 -3.072920890190289356e-06 6.471467486335313879e-07
8.410000000000000000e+02 3.020635223388671875e+01 -1.171455192565917969e+01 1.774994302650156897e-06 9.273535397369414568e-06 3.314558853162452579e-06 1.703244265627290588e-07
8.420000000000000000e+02 3.112542152404785156e+01 -1.335076904296875000e+01 2.879511839637416415e-06 7.210807780211325735e-06 3.027095999641460367e-06 -5.918232091062236577e-07
8.430000000000000000e+02 2.994621276855468750e+01 -1.577787208557128906e+01 3.170545141983893700e-06 4.370008809928549454e-06 2.262166162836365402e-06 1.253767209163925145e-06
8.440000000000000000e+02 2.922072982788085938e+01 -1.685442161560058594e+01 -2.550984163462999277e-06 -3.449846644798526540e-06 -1.800249265215825289e-06 -2.258394033560762182e-06
8.450000000000000000e+02 3.032463455200195312e+01 -1.731316184997558594e+01 1.037833044392755255e-06 3.655073442132561468e-06 1.407871877745492384e-06 1.498981077929784078e-06
8.460000000000000000e+02 2.738035011291503906e+01 3.071852493286132812e+01 8.470745524391531944e-05 -4.310252552386373281e-04 -1.038953414536081254e-04 8.593888196628540754e-05
8.470000000000000000e+02 3.004397392272949219e+01 2.757991600036621094e+01 -2.417772921035066247e-04 3.988303651567548513e-04 4.711592555395327508e-05 1.991271710721775889e-04
8.480000000000000000e+02 2.926134681701660156e+01 2.273311424255371094e+01 -3.870950604323297739e-05 -1.672164216870442033e-04 -6.177777686389163136e-05 2.647797373356297612e-05
8.490000000000000000e+02 2.969772338867187500e+01 2.070444869995117188e+01 3.604886660468764603e-05 -1.185175860882736742e-04 -2.474061511748004705e-05 8.436439384240657091e-05
8.500000000000000000e+02 2.832005310058593750e+01 1.919997215270996094e+01 -4.480453571886755526e-05 1.451197022106498480e-04 3.009454849234316498e-05 1.204195905302185565e-05
8.510000000000000000e+02 2.737580871582031250e+01 1.732083129882812500e+01 -2.771154868241865188e-05 1.036466492223553360e-04 2.278052852489054203e-05 9.929076441039796919e-06
8.520000000000000000e+02 2.734313583374023438e+01 1.591205024719238281e+01 -3.785762237384915352e-05 -6.305560964392498136e-05 -3.027396996913012117e-05 -5.002560283173806965e-05
8.530000000000000000e+02 2.649646949768066406e+01 1.352294540405273438e+01 -7.641573574801441282e-06 -5.090144986752420664e-05 -1.756290657795034349e-05 -1.731808879412710667e-05
8.540000000000000000e+02 2.867243385314941406e+01 1.253882598876953125e+01 2.823028808052185923e-05 -3.139775117233511992e-06 7.527153684350196272e-06 -6.359317194437608123e-05
8.550000000000000000e+02 2.966286277770996094e+01 1.079817295074462891e+01 -3.389744233572855592e-05 1.290692162001505494e-04 2.855153434211388230e-05 1.734239594952668995e-05
8.560000000000000000e+02 2.793221664428710938e+01 8.068889617919921875e+00 1.572878136357758194e-05 -2.973438313347287476e-05 -4.201680894766468555e-06 4.342461761552840471e-05
8.570000000000000000e+02 2.931043624877929688e+01 5.897129535675048828e+00 -9.319479431724175811e-06 7.242682477226480842e-05 1.893220360216218978e-05 2.673333437996916473e-05
8.580000000000000000e+02 2.980162048339843750e+01 5.077822208404541016e+00 1.854211404861416668e-05 -6.697268690913915634e-05 -1.452917240385431796e-05 -3.024276884389109910e-05
8.590000000000000000e+02 2.980413055419921875e+01 3.565850257873535156e+00 1.956451342266518623e-05 -5.941356721450574696e-05 -1.195471577375428751e-05 2.473938138791709207e-06
8.600000000000000000e+02 2.937213706970214844e+01 1.648018598556518555e+00 -1.713681399451161269e-06 -2.229460369562730193e-05 -7.202485448942752555e-06 -2.233381383121013641e-05
8.610000000000000000e+02 2.944993019104003906e+01 -5.570712089538574219e-01 1.377200874230766203e-06 -1.404426984663587064e-05 -3.800120566666009836e-06 -1.231686837854795158e-06
8.620000000000000000e+02 2.973887252807617188e+01 -2.662213802337646484e+00 8.947405149228870869e-06 -1.698041342024225742e-05 -2.409902208455605432e-06 -4.957230430591152981e-06
8.630000000000000000e+02 2.806178855895996094e+01 -5.251057147979736328e+00 1.447407839805237018e-06 5.486587269842857495e-06 2.080198555631795898e-06 1.517374386139636044e-07
8.640000000000000000e+02 2.807899284362792969e+01 -6.058327198028564453e+00 9.542380212224088609e-06 5.440860149974469095e-06 4.494972017710097134e-06 -8.764962444729462732e-07
8.650000000000000000e+02 2.800843620300292969e+01 -8.933802604675292969e+00 1.132863417296903208e-05 7.842580998840276152e-06 5.751364824391203001e-06 -4.949645699525717646e-06
8.660000000000000000e+02 2.772063636779785156e+01 -1.082732295989990234e+01 2.755227114903391339e-06 -3.844222646876005456e-06 -3.266987107508612098e-07 -2.459143843225319870e-06
8.670000000000000000e+02 2.948144531250000000e+01 -1.220488643646240234e+01 1.968092647075536661e-06 -6.914255209267139435e-06 -1.483848791394848377e-06 -2.830485357208090136e-07
8.680000000000000000e+02 2.920708847045898438e+01 -1.377672290802001953e+01 -1.275257545785279945e-06 -7.094795364537276328e-06 -2.511015736672561616e-06 1.861674718384165317e-06
8.690000000000000000e+02 2.847099876403808594e+01 -1.609890937805175781e+01 4.481229552766308188e-06 3.895687314070528373e-06 2.513075060051050968e-06 1.775265786818636116e-06
8.700000000000000000e+02 2.923343086242675781e+01 -1.523203754425048828e+01 -1.094940444090752862e-06 -6.034165380697231740e-06 -2.138731815648498014e-06 -4.102708999198512174e-07
8.710000000000000000e+02 2.645659255981445312e+01 3.299476623535156250e+01 -1.338681904599070549e-04 6.162827048683539033e-05 -2.167197817470878363e-05 -8.993314258987084031e-05
8.720000000000000000e+02 2.809803581237792969e+01 2.873192596435546875e+01 -1.309973740717396140e-04 2.558880660217255354e-04 3.746720540220849216e-05 1.746002380969002843e-04
8.730000000000000000e+02 2.891358184814453125e+01 2.706758117675781250e+01 -1.055517168424557894e-05 -3.327694721519947052e-04 -1.029973936965689063e-04 7.804805136402137578e-06
8.740000000000000000e+02 2.769320297241210938e+01 2.636253547668457031e+01 -1.274904207093641162e-04 1.863109500845894217e-04 1.764615808497183025e-05 1.024236044031567872e-04
8.750000000000000000e+02 2.785387992858886719e+01 2.399969482421875000e+01 -1.381183974444866180e-04 1.459329068893566728e-04 2.344352651562076062e-06 3.738207669812254608e-05
8.760000000000000000e+02 2.686239051818847656e+01 2.297754669189453125e+01 9.215304089593701065e-06 -1.252392976311966777e-04 -3.480719897197559476e-05 8.566086034988984466e-05
8.770000000000000000e+02 2.833979225158691406e+01 2.166792678833007812e+01 -1.187733068945817649e-04 9.807004244066774845e-05 -6.210978426679503173e-06 -4.050209099659696221e-05
8.780000000000000000e+02 2.692538452148437500e+01 1.878011894226074219e+01 -3.559552715159952641e-05 -1.304267789237201214e-04 -4.980669109500013292e-05 3.397328327991999686e-05
8.790000000000000000e+02 2.566800689697265625e+01 1.739357948303222656e+01 -1.360790338367223740e-05 -1.272470108233392239e-04 -4.225647353450767696e-05 -7.540393653471255675e-06
8.800000000000000000e+02 2.559091567993164062e+01 1.617790222167968750e+01 -1.255717961612390354e-05 5.029448948334902525e-05 1.132119268731912598e-05 5.584303653449751437e-05
8.810000000000000000e+02 2.536856079101562500e+01 1.497525501251220703e+01 -2.637416400830261409e-05 -5.684770803782157600e-05 -2.496656270523089916e-05 -2.743018740147817880e-05
8.820000000000000000e+02 2.624355888366699219e+01 1.240657806396484375e+01 -7.023726993793388829e-06 2.709480577323120087e-05 6.021323770255548880e-06 4.119819550396641716e-06
8.830000000000000000e+02 2.745722579956054688e+01 1.016036605834960938e+01 5.415541454567573965e-05 -1.088525168597698212e-04 -1.640913069422822446e-05 -6.051532182027585804e-05
8.840000000000000000e+02 2.693719482421875000e+01 8.462767601013183594e+00 -7.545464995928341523e-06 1.211459129990544170e-05 1.370737777506292332e-06 -2.563922498666215688e-05
8.850000000000000000e+02 2.770539665222167969e+01 5.473226547241210938e+00 -4.699149940279312432e-06 1.607307603990193456e-05 3.412177875361521728e-06 -1.540966695756651461e-05
8.860000000000000000e+02 2.711445045471191406e+01 3.268472433090209961e+00 -5.539072844840120524e-07 -9.341284567199181765e-06 -2.968557510030223057e-06 -1.045243061525980011e-05
8.870000000000000000e+02 2.704053306579589844e+01 1.136741757392883301e+00 4.301606622902909294e-06 -2.057824167422950268e-05 -4.882990197074832395e-06 -1.181763582280836999e-05
8.880000000000000000e+02 2.596938514709472656e+01 -1.555508077144622803e-01 3.641899638751056045e-06 -2.405099075986072421e-05 -6.122727427282370627e-06 -8.357229489774908870e-06
8.890000000000000000e+02 2.748608207702636719e+01 -2.042161703109741211e+00 1.113946746045257896e-05 8.205296580854337662e-06 5.803429303341545165e-06 1.192187937704147771e-05
8.900000000000000000e+02 2.706612205505371094e+01 -4.274079322814941406e+00 1.315126610279548913e-06 -1.172456813947064802e-05 -3.122832367807859555e-06 -7.997836291906423867e-06
8.910000000000000000e+02 2.609380912780761719e+01 -5.969620227813720703e+00 2.681247678992804140e-06 -1.358188637823332101e-05 -3.270191655246890150e-06 -2.892402108045644127e-06
8.920000000000000000e+02 2.723778343200683594e+01 -6.981936931610107422e+00 1.098155917134135962e-05 -5.401719590736320242e-06 1.673951828706776723e-06 5.357131271921389271e-07
8.930000000000000000e+02 2.714004135131835938e+01 -8.523336410522460938e+00 9.646567377785686404e-06 -3.305286554677877575e-06 1.902384269669710193e-06 1.219905016114353202e-06
8.940000000000000000e+02 2.637158012390136719e+01 -1.364610195159912109e+01 -8.651851203467231244e-06 1.755763832989032380e-06 -2.068826233880827203e-06 -1.643376549509412143e-06
8.950000000000000000e+02 2.675741004943847656e+01 -1.273440837860107422e+01 -3.787816694966750219e-06 -1.166301785815448966e-06 -1.486235532865975983e-06 -2.317769713044981472e-06
8.960000000000000000e+02 2.667214965820312500e+01 -1.430591106414794922e+01 9.895937182591296732e-06 -1.985794369829818606e-06 2.373042661929503083e-06 9.950468893293873407e-07
8.970000000000000000e+02 2.749967765808105469e+01 -1.644380760192871094e+01 -2.533100200707849581e-07 8.194767815439263359e-07 1.698500255997714703e-07 1.773575718289066572e-06
8.980000000000000000e+02 2.845398712158203125e+01 3.709719467163085938e+01 3.017696508322842419e-05 1.223526196554303169e-04 4.575887578539550304e-05 4.791183164343237877e-05
8.990000000000000000e+02 2.451275825500488281e+01 3.420208358764648438e+01 4.880634878645651042e-05 1.641033013584092259e-04 6.387289613485336304e-05 2.177643473260104656e-04
9.000000000000000000e+02 2.574043846130371094e+01 3.005178451538085938e+01 -8.471884939353913069e-05 1.290240907110273838e-04 1.329157475993270054e-05 4.118088327231816947e-05
9.010000000000000000e+02 2.664987564086914062e+01 2.810465049743652344e+01 2.159397263312712312e-05 -2.989901404362171888e-04 -8.321884524775668979e-05 5.989797500660642982e-05
9.020000000000000000e+02 2.639477920532226562e+01 2.551164245605468750e+01 -7.932934749987907708e-06 -1.944232353707775474e-04 -6.070685049053281546e-05 4.851107951253652573e-05
9.030000000000000000e+02 2.520563125610351562e+01 2.431761169433593750e+01 -1.255662500625476241e-04 4.531737795332446694e-05 -2.407466126896906644e-05 -3.149907934130169451e-05
9.040000000000000000e+02 2.602488136291503906e+01 2.189073562622070312e+01 -8.274339779745787382e-05 2.471104926371481270e-05 -1.740970401442609727e-05 -3.416575418668799102e-05
9.050000000000000000e+02 2.633671379089355469e+01 2.003435707092285156e+01 -3.349085454829037189e-05 6.342321285046637058e-05 8.979706763057038188e-06 -4.718667332781478763e-05
9.060000000000000000e+02 2.425957107543945312e+01 1.756344795227050781e+01 -3.500625825836323202e-05 7.054303569020703435e-05 1.066103322955314070e-05 3.116893276455812156e-05
9.070000000000000000e+02 2.398958587646484375e+01 1.645372200012207031e+01 -1.146790691564092413e-05 -8.121797873172909021e-05 -2.780576505756471306e-05 -4.444348451215773821e-05
9.080000000000000000e+02 2.496676445007324219e+01 1.248411464691162109e+01 -1.046296256390633062e-05 -5.924229844822548330e-05 -2.091157875838689506e-05 -6.808072612329851836e-06
9.090000000000000000e+02 2.630420112609863281e+01 1.033437538146972656e+01 -3.284149715909734368e-05 8.493706263834610581e-05 1.562866964377462864e-05 1.424807214789325371e-05
9.100000000000000000e+02 2.564290237426757812e+01 8.161347389221191406e+00 -1.937383603944908828e-05 3.038066097360569984e-05 3.302047161923837848e-06 3.767946282096090727e-06
9.110000000000000000e+02 2.661436653137207031e+01 5.853644371032714844e+00 1.760480517987161875e-05 -2.110069908667355776e-05 -1.048768126565846615e-06 2.101364771078806370e-05
9.120000000000000000e+02 2.533639335632324219e+01 4.473052978515625000e+00 2.048509668384213001e-05 9.222600056091323495e-06 8.912309567676857114e-06 2.052914351224899292e-05
9.130000000000000000e+02 2.493680191040039062e+01 2.253927469253540039e+00 1.605726538400631398e-05 -8.407985660596750677e-06 2.294784053447074257e-06 1.726898153719957918e-05
9.140000000000000000e+02 2.526896858215332031e+01 -1.444266557693481445e+00 1.905423232528846711e-06 -2.448839040880557150e-06 -1.630247510320259607e-07 -1.797952972992789000e-05
9.150000000000000000e+02 2.449102592468261719e+01 -3.448194742202758789e+00 9.031955414684489369e-06 -1.435945068806177005e-05 -1.598248672962654382e-06 -8.580033863836433738e-06
9.160000000000000000e+02 2.492168235778808594e+01 -7.055502414703369141e+00 4.941393399349180982e-06 -1.348929617961402982e-05 -2.564370788604719564e-06 -6.532603947562165558e-06
9.170000000000000000e+02 2.483653450012207031e+01 -1.018915653228759766e+01 6.246132670639781281e-06 5.231403974903514609e-06 3.443260993662988767e-06 2.595015757833607495e-06
9.180000000000000000e+02 2.518293762207031250e+01 -1.089304542541503906e+01 -2.357766334171174094e-06 -3.261806796217570081e-06 -1.685872007328725886e-06 -5.310580490913707763e-06
9.190000000000000000e+02 2.579511070251464844e+01 -1.227770137786865234e+01 -3.675490461318986490e-06 -2.406053908998728730e-06 -1.824463311095314566e-06 -2.405997520327218808e-06
9.200000000000000000e+02 2.609174346923828125e+01 -1.296709156036376953e+01 7.934384484542533755e-06 1.486823521190672182e-06 2.826362333507859148e-06 4.658311354432953522e-07
9.210000000000000000e+02 2.483603286743164062e+01 3.205116271972656250e+01 -6.416086398530751467e-05 -1.622935087652876973e-04 -6.793631473556160927e-05 6.313668563961982727e-05
9.220000000000000000e+02 2.419569396972656250e+01 2.939418601989746094e+01 -1.385055202263174579e-05 -2.217103610746562481e-04 -7.066827674861997366e-05 3.474847835605032742e-05
9.230000000000000000e+02 2.518510627746582031e+01 2.737576484680175781e+01 -8.405202243011444807e-05 1.650210469961166382e-04 2.429070627840701491e-05 7.178930536611005664e-05
9.240000000000000000e+02 2.374290466308593750e+01 2.695621109008789062e+01 -4.182122211204841733e-05 -2.025093563133850694e-04 -7.329917571041733027e-05 2.998004492837935686e-05
9.250000000000000000e+02 2.367291450500488281e+01 2.544117546081542969e+01 8.080045517999678850e-05 -1.052410952979698777e-04 -7.332190307351993397e-06 1.370188547298312187e-04
9.260000000000000000e+02 2.442429924011230469e+01 2.282024383544921875e+01 -1.094762956199701875e-05 8.049144526012241840e-06 -8.695453743712278083e-07 7.622226257808506489e-05
9.270000000000000000e+02 2.538749694824218750e+01 2.086630058288574219e+01 -4.736269329441711307e-05 2.060915676338481717e-06 -1.359053294436307624e-05 3.280542296124622226e-05
9.280000000000000000e+02 2.314904212951660156e+01 1.812740325927734375e+01 5.370268354454310611e-06 -5.341391806723549962e-05 -1.441309450456174091e-05 -7.089796417858451605e-05
9.290000000000000000e+02 2.239554023742675781e+01 1.518124771118164062e+01 -1.813729613786563277e-05 -8.893790800357237458e-05 -3.212255978723987937e-05 -4.439388021637569182e-07
9.300000000000000000e+02 2.359225845336914062e+01 1.251546192169189453e+01 3.335207793497829698e-06 2.236665932286996394e-05 7.710560566920321435e-06 1.168331255030352622e-05
9.310000000000000000e+02 2.508460807800292969e+01 1.014683532714843750e+01 7.596752311656018719e-06 -9.980874892789870501e-05 -2.766359830275177956e-05 6.878225121909053996e-06
9.320000000000000000e+02 2.330176353454589844e+01 7.744953632354736328e+00 5.698358563677174971e-06 4.402553895488381386e-05 1.491716921009356156e-05 2.098117147397715598e-05
9.330000000000000000e+02 2.356063842773437500e+01 5.825934886932373047e+00 1.516108932264614850e-05 -5.397618224378675222e-05 -1.164452714874641970e-05 4.268304110155440867e-06
9.340000000000000000e+02 2.417394065856933594e+01 5.496973037719726562e+00 -1.649346086196601391e-05 1.633055944694206119e-05 -4.887031934686092427e-08 -1.507699835201492533e-06
9.350000000000000000e+02 2.424264144897460938e+01 3.491894006729125977e+00 1.617166708456352353e-05 -1.458513634133851156e-05 4.759588705383066554e-07 1.824072023737244308e-05
9.360000000000000000e+02 2.393306350708007812e+01 2.451422214508056641e+00 7.797102057338634040e-07 1.481848812545649707e-06 6.784676997995120473e-07 -2.022726221184711903e-05
9.370000000000000000e+02 2.319105339050292969e+01 -5.572097375988960266e-02 3.851436758850468323e-06 -1.454372795706149191e-05 -3.207687313988571987e-06 -1.233609509654343128e-05
9.380000000000000000e+02 2.430583763122558594e+01 -2.053354263305664062e+00 2.873628773158998229e-06 4.039208306494401768e-06 2.073851192108122632e-06 -8.389308277401141822e-06
9.390000000000000000e+02 2.362906455993652344e+01 -3.724831581115722656e+00 1.135360980697441846e-05 5.662932380801066756e-06 5.104962838231585920e-06 4.771637577505316585e-06
9.400000000000000000e+02 2.384998321533203125e+01 -5.207196712493896484e+00 9.555976248520892113e-06 4.827490556635893881e-06 4.315039859648095444e-06 4.826451458939118311e-06
9.410000000000000000e+02 2.263747215270996094e+01 -6.811381340026855469e+00 4.009717940789414570e-06 -4.949139110976830125e-06 -2.818263737935922109e-07 -8.684729436936322600e-06
9.420000000000000000e+02 2.338181686401367188e+01 -6.301994800567626953e+00 8.562476978113409132e-06 7.372343134193215519e-06 4.780446033691987395e-06 2.410070919722784311e-06
9.430000000000000000e+02 2.427845764160156250e+01 -7.611683845520019531e+00 8.248040103353559971e-06 8.285913281724788249e-06 4.960186288371914998e-06 2.764470991678535938e-06
9.440000000000000000e+02 2.357334136962890625e+01 -8.124057769775390625e+00 3.157533399189560441e-07 -4.556293788482435048e-06 -1.272162194254633505e-06 -6.818683232268085703e-06
9.450000000000000000e+02 2.444747543334960938e+01 -9.482850074768066406e+00 -4.098157830867421580e-07 -5.594907634076662362e-06 -1.801417056412901729e-06 -6.386988388840109110e-06
9.460000000000000000e+02 2.310413932800292969e+01 4.069561004638671875e+01 7.327539788093417883e-05 -1.592475455254316330e-04 -2.579164538474287838e-05 -1.224806910613551736e-04
9.470000000000000000e+02 2.417748832702636719e+01 3.712526321411132812e+01 9.876970580080524087e-05 -3.399456036277115345e-04 -7.235277007566764951e-05 1.400556939188390970e-04
9.480000000000000000e+02 2.207972145080566406e+01 3.383489990234375000e+01 1.172546180896461010e-04 -3.092431579716503620e-04 -5.759656414738856256e-05 9.911219967762008309e-05
9.490000000000000000e+02 2.313124084472656250e+01 3.146919822692871094e+01 -6.895962724229320884e-05 1.390808611176908016e-04 2.103636870742775500e-05 9.599977784091606736e-05
9.500000000000000000e+02 2.278896713256835938e+01 2.874238395690917969e+01 -7.764998736092820764e-05 1.005052326945587993e-04 6.856573236291296780e-06 2.133257657987996936e-05
9.510000000000000000e+02 2.257787132263183594e+01 2.652292060852050781e+01 -1.329350343439728022e-04 8.759420597925782204e-05 -1.360224996460601687e-05 -4.552415339276194572e-05
9.520000000000000000e+02 2.248565864562988281e+01 2.469115257263183594e+01 -5.373877866077236831e-05 1.302583987126126885e-04 2.295588456036057323e-05 4.565502968034707010e-05
9.530000000000000000e+02 2.218991661071777344e+01 2.024451637268066406e+01 -2.736038004513829947e-05 -8.908972813514992595e-05 -3.493503390927799046e-05 5.748298917751526460e-06
9.540000000000000000e+02 2.268888664245605469e+01 1.705120658874511719e+01 -4.405413346830755472e-05 1.997291656152810901e-05 -7.224364708235953003e-06 7.237153477035462856e-05
9.550000000000000000e+02 2.082318305969238281e+01 1.591877079010009766e+01 -1.797009645088110119e-05 -6.239801587071269751e-05 -2.411043351457919925e-05 4.620890467776916921e-05
9.560000000000000000e+02 2.114556884765625000e+01 1.305411720275878906e+01 -8.843033356242813170e-06 1.824975879571866244e-05 2.822017677317489870e-06 2.726851016632281244e-05
9.570000000000000000e+02 2.168249320983886719e+01 1.146770954132080078e+01 -4.165532573097152635e-06 -3.280329838162288070e-05 -1.109064942284021527e-05 6.613983259740052745e-06
9.580000000000000000e+02 2.229715156555175781e+01 9.732816696166992188e+00 6.565696367033524439e-06 3.773554635699838400e-05 1.329037331743165851e-05 1.424420224793720990e-05
9.590000000000000000e+02 2.298246765136718750e+01 6.382973194122314453e+00 9.652436574469902553e-07 3.112064587185159326e-05 9.625766324461437762e-06 1.641640920979625662e-07
9.600000000000000000e+02 2.299581336975097656e+01 5.055338859558105469e+00 -6.979769295867299661e-06 2.629579284985084087e-05 5.794806838821386918e-06 -1.096548749046633020e-05
9.610000000000000000e+02 2.245090675354003906e+01 4.102411270141601562e+00 1.812019763747230172e-05 -3.377774555701762438e-05 -4.697264103015186265e-06 1.524669278296642005e-05
9.620000000000000000e+02 2.226499176025390625e+01 -3.439299464225769043e-01 1.080022047972306609e-05 1.419353611709084362e-05 7.498127160943113267e-06 8.280139809357933700e-06
9.630000000000000000e+02 2.225925827026367188e+01 -1.670383095741271973e+00 1.675708881521131843e-05 -1.367037657473701984e-05 9.260139677280676551e-07 -1.804076532607723493e-06
9.640000000000000000e+02 2.200231170654296875e+01 -3.321602106094360352e+00 8.913033525459468365e-06 9.467607014812529087e-06 5.514192253031069413e-06 -9.062983735930174589e-06
9.650000000000000000e+02 2.045311164855957031e+01 -4.350747108459472656e+00 1.291261105507146567e-05 -7.292266673175618052e-06 1.686103246356651653e-06 -6.373409178195288405e-06
9.660000000000000000e+02 2.105081558227539062e+01 -4.886437416076660156e+00 7.526409262936795130e-06 1.263311150978552178e-05 6.047856459190370515e-06 -3.876539722114102915e-06
9.670000000000000000e+02 2.165388488769531250e+01 -5.449837207794189453e+00 9.477443200012203306e-06 -9.352806955575942993e-06 3.739074116992924246e-08 -6.843177288828883320e-06
9.680000000000000000e+02 2.020254707336425781e+01 3.289721298217773438e+01 -4.269522105460055172e-05 -3.339183967909775674e-05 -2.282611785631161183e-05 -7.669618207728490233e-05
9.690000000000000000e+02 2.159354209899902344e+01 3.067332649230957031e+01 5.393283208832144737e-05 -1.652887003729119897e-04 -3.340675903018563986e-05 1.294838293688371778e-04
9.700000000000000000e+02 2.152891349792480469e+01 2.795586776733398438e+01 7.628531875525368378e-06 -8.599446300650015473e-05 -2.350977956666611135e-05 1.237929682247340679e-04
9.710000000000000000e+02 2.166551208496093750e+01 2.581027984619140625e+01 9.358490387967322022e-06 -7.236549572553485632e-05 -1.890210114652290940e-05 5.103880175738595426e-05
9.720000000000000000e+02 2.106333541870117188e+01 2.491631317138671875e+01 -4.055522367707453668e-06 -1.390370744047686458e-04 -4.292778248782269657e-05 -5.265783784125233069e-06
9.730000000000000000e+02 2.082187461853027344e+01 2.363669013977050781e+01 -4.167911538388580084e-05 8.561045251553878188e-05 1.317940223088953644e-05 5.876265277038328350e-05
9.740000000000000000e+02 2.064286994934082031e+01 2.216202163696289062e+01 -3.539866884239017963e-05 -8.734577568247914314e-05 -3.682333408505655825e-05 -1.076548414857825264e-05
9.750000000000000000e+02 2.029563140869140625e+01 1.920490264892578125e+01 -2.852945908671244979e-05 -6.530147948069497943e-05 -2.814928120642434806e-05 -1.337699086434440687e-05
9.760000000000000000e+02 1.866395759582519531e+01 1.796657180786132812e+01 -3.014119465660769492e-05 -5.102255454403348267e-05 -2.434912494209129363e-05 -1.740251718729268759e-05
9.770000000000000000e+02 2.019888496398925781e+01 1.298122692108154297e+01 9.539915026834933087e-07 -8.033256017370149493e-05 -2.381357080594170839e-05 -1.902341500681359321e-05
9.780000000000000000e+02 2.000605010986328125e+01 1.167849540710449219e+01 -1.373688519379356876e-05 -5.744335794588550925e-05 -2.135407339665107429e-05 -9.881907317321747541e-06
9.790000000000000000e+02 1.956875801086425781e+01 1.012445545196533203e+01 -3.639926035248208791e-06 9.656410838942974806e-06 1.804945441108429804e-06 -2.358067649765871465e-05
9.800000000000000000e+02 1.991783332824707031e+01 7.513762950897216797e+00 -1.086648921955202240e-06 2.176588532165624201e-05 6.203771135915303603e-06 -1.347264424111926928e-05
9.810000000000000000e+02 1.981010055541992188e+01 6.140996932983398438e+00 3.504669393805670552e-06 3.934744745492935181e-05 1.285563575947890058e-05 -1.035170771501725540e-05
9.820000000000000000e+02 2.021967506408691406e+01 4.027743816375732422e+00 2.070075197480036877e-06 1.524386243545450270e-05 5.194181085244053975e-06 -1.788707049854565412e-05
9.830000000000000000e+02 1.958702659606933594e+01 3.098569869995117188e+00 1.144598627433879301e-05 -2.001970096898730844e-05 -2.572114681242965162e-06 6.650861905654892325e-06
9.840000000000000000e+02 2.036526298522949219e+01 2.597035646438598633e+00 2.758630671451101080e-06 1.944455289049074054e-05 6.660955023107817397e-06 -9.324291568191256374e-06
9.850000000000000000e+02 1.999758720397949219e+01 -1.408382654190063477e-01 4.900726708001457155e-06 2.430326276225969195e-05 8.761197022977285087e-06 -4.880717369815101847e-06
9.860000000000000000e+02 1.977323150634765625e+01 -1.392842888832092285e+00 5.722860350942937657e-06 1.928257916006259620e-05 7.501631898776395246e-06 -3.778712653002003208e-06
9.870000000000000000e+02 1.928564453125000000e+01 -3.252047777175903320e+00 1.695158789516426623e-05 -7.319359610846731812e-06 2.889668621719465591e-06 -5.728859377995831892e-06
9.880000000000000000e+02 1.986619567871093750e+01 -3.805876493453979492e+00 7.083387117745587602e-06 1.325440280197653919e-05 6.101337021391373128e-06 -5.103207968204515055e-06
9.890000000000000000e+02 1.584463882446289062e+01 3.871630096435546875e+01 2.241110087197739631e-05 -1.938391942530870438e-04 -5.142842928762547672e-05 1.548878458379476797e-06
9.900000000000000000e+02 1.875349998474121094e+01 4.042665863037109375e+01 2.040936851699370891e-05 -1.467434344704088289e-06 5.682580194843467325e-06 9.298641089117154479e-05
9.910000000000000000e+02 2.024222946166992188e+01 2.966723442077636719e+01 -2.464164754201192409e-05 -4.667296889238059521e-05 -2.139438583981245756e-05 -4.637036909116432071e-05
9.920000000000000000e+02 2.044488716125488281e+01 2.699638175964355469e+01 -3.218658457626588643e-05 -4.839888060814701021e-05 -2.417563882772810757e-05 -2.349988062633201480e-05
9.930000000000000000e+02 1.950949859619140625e+01 2.581036567687988281e+01 -3.308058876427821815e-05 3.596383612602949142e-05 8.649741403132793494e-07 5.837743447045795619e-05
9.940000000000000000e+02 1.899368476867675781e+01 2.425628280639648438e+01 -4.839312168769538403e-06 -1.130751843447797000e-04 -3.537434895406477153e-05 2.207375928264809772e-06
9.950000000000000000e+02 1.886604309082031250e+01 2.256934928894042969e+01 -2.424427475489210337e-05 6.032245801179669797e-05 1.082345443137455732e-05 2.947003486042376608e-05
9.960000000000000000e+02 1.879893493652343750e+01 2.099037742614746094e+01 -2.720400152611546218e-05 -7.555551565019413829e-05 -3.082785406149923801e-05 -7.955653927638195455e-06
9.970000000000000000e+02 1.722882270812988281e+01 1.958524131774902344e+01 -2.377910459472332150e-05 -5.981477079330943525e-05 -2.507816134311724454e-05 -1.080660331354010850e-05
9.980000000000000000e+02 1.730164337158203125e+01 1.807245254516601562e+01 -1.539800905447918922e-06 3.069278682232834399e-05 8.745895684114657342e-06 1.280779815715504810e-05
9.990000000000000000e+02 1.888843536376953125e+01 1.506715965270996094e+01 -2.413459151284769177e-05 -5.687480370397679508e-05 -2.430281892884522676e-05 1.622901663722586818e-06
1.000000000000000000e+03 1.869509124755859375e+01 1.327338027954101562e+01 -1.478419790146290325e-06 -5.453316043713130057e-05 -1.680347486399114132e-05 5.895615231565898284e-06
1.001000000000000000e+03 1.872101974487304688e+01 1.176343727111816406e+01 5.578487616730853915e-06 -4.091258597327396274e-05 -1.060022987076081336e-05 1.539653021609410644e-05
1.002000000000000000e+03 1.897027587890625000e+01 9.406931877136230469e+00 2.246665644634049386e-06 -3.484863555058836937e-05 -9.780590517038945109e-06 1.109758704842533916e-05
1.003000000000000000e+03 1.908678436279296875e+01 8.089240074157714844e+00 8.920267646317370236e-06 -3.201207800884731114e-05 -6.927542926860041916e-06 4.995908966520801187e-06
1.004000000000000000e+03 1.711806488037109375e+01 3.184665918350219727e+00 1.643764221626042854e-06 -1.191925912280566990e-05 -3.082648390773101710e-06 -1.419016825821017846e-06
1.005000000000000000e+03 1.906305122375488281e+01 9.725024700164794922e-01 1.037379843182861805e-05 1.260895896848523989e-05 6.894827038195217028e-06 -8.692195478943176568e-06
1.006000000000000000e+03 1.821783828735351562e+01 -2.894816398620605469e-01 1.555758535687346011e-05 -4.249568064551567659e-06 3.392405233171302825e-06 -1.431812779628671706e-05
1.007000000000000000e+03 1.674676132202148438e+01 -1.292959690093994141e+00 1.678495937085244805e-05 1.578511160005291458e-06 5.509040875040227547e-06 -3.751119038497563452e-06
1.008000000000000000e+03 1.859328842163085938e+01 -1.488846421241760254e+00 8.389839422306977212e-06 1.625922777748201042e-05 7.394720341835636646e-06 -1.121363220590865240e-05
1.009000000000000000e+03 1.805541229248046875e+01 -2.218992948532104492e+00 1.681719004409387708e-05 -3.818228378804633394e-06 3.899688181263627484e-06 -2.250847956020152196e-06
1.010000000000000000e+03 1.872211837768554688e+01 3.165454101562500000e+01 -1.426224298484157771e-05 8.587478987465146929e-06 -1.702429131000826601e-06 1.017385511659085751e-04
1.011000000000000000e+03 1.907195091247558594e+01 2.851271247863769531e+01 -2.784726711979601532e-05 3.077950850638444535e-06 -7.430794539686758071e-06 8.640789747005328536e-05
1.012000000000000000e+03 1.799925231933593750e+01 2.724010658264160156e+01 -1.050166974891908467e-05 -4.954704490955919027e-05 -1.801461439754348248e-05 -2.516892163839656860e-05
1.013000000000000000e+03 1.674537849426269531e+01 2.634327316284179688e+01 -1.901927862490992993e-05 -5.533061630558222532e-05 -2.230496829724870622e-05 4.871846977039240301e-05
1.014000000000000000e+03 1.706233978271484375e+01 2.283421897888183594e+01 -1.346626140730222687e-05 -8.703610365046188235e-05 -3.015070979017764330e-05 2.604584210530447308e-07
1.015000000000000000e+03 1.712288093566894531e+01 2.117801666259765625e+01 -1.495177275501191616e-05 4.786330100614577532e-05 9.873458111542277038e-06 1.487297777202911675e-05
1.016000000000000000e+03 1.575862979888916016e+01 1.951025581359863281e+01 -8.850285666994750500e-06 4.086728222318924963e-05 9.605098966858349741e-06 1.713424535410013050e-05
1.017000000000000000e+03 1.602292442321777344e+01 1.807358551025390625e+01 -1.719956162560265511e-05 -5.807877823826856911e-05 -2.258350286865606904e-05 -8.495981091982685030e-06
1.018000000000000000e+03 1.673868751525878906e+01 1.509104824066162109e+01 4.374010586616350338e-06 -2.397619573457632214e-05 -5.880655407963786274e-06 1.246649935637833551e-05
1.019000000000000000e+03 1.700912094116210938e+01 1.311024188995361328e+01 -3.044829099962953478e-06 -2.968642183986958116e-05 -9.819375009101349860e-06 1.504954070696840063e-05
1.020000000000000000e+03 1.729755973815917969e+01 1.130385684967041016e+01 8.808755751488206442e-07 -2.223018782387953252e-05 -6.404793566616717726e-06 1.850360422395169735e-05
1.021000000000000000e+03 1.748720359802246094e+01 9.415653228759765625e+00 5.425103154266253114e-06 -3.925902274204418063e-05 -1.015017642203019932e-05 5.861761565029155463e-06
1.022000000000000000e+03 1.668455886840820312e+01 8.458177566528320312e+00 -3.101356696788570844e-06 2.198761103500146419e-05 5.665876415150705725e-06 -1.891035935841500759e-05
1.023000000000000000e+03 1.751926040649414062e+01 7.839057445526123047e+00 8.511637133779004216e-06 -2.649653833941556513e-05 -5.395470907387789339e-06 5.462928129418287426e-06
1.024000000000000000e+03 1.736003494262695312e+01 5.629104137420654297e+00 1.210160803566395771e-06 -3.004016889462945983e-06 -5.381568257689650636e-07 -2.240956928289961070e-05
1.025000000000000000e+03 1.671457481384277344e+01 3.862809658050537109e+00 9.469806173001416028e-06 2.487525489414110780e-05 1.030351813824381679e-05 -2.208736077591311187e-06
1.026000000000000000e+03 1.737278366088867188e+01 1.057748079299926758e+00 1.267154493689304218e-05 -3.479299493847065605e-06 2.757673655651160516e-06 -5.868620860383089166e-07
1.027000000000000000e+03 1.606791687011718750e+01 -8.690831661224365234e-01 1.290243199036922306e-05 7.390882274194154888e-06 6.087994279369013384e-06 -1.081122718460392207e-05
1.028000000000000000e+03 1.649015235900878906e+01 -2.517880797386169434e-01 1.556045572215225548e-05 3.931874914542277111e-07 4.786092631547944620e-06 -2.887087021008483134e-06
1.029000000000000000e+03 1.215021800994873047e+01 4.068075180053710938e+01 9.709234291221946478e-06 1.709183743514586240e-05 8.040321517910342664e-06 -3.192362419213168323e-05
1.030000000000000000e+03 1.844102287292480469e+01 3.553404617309570312e+01 1.604629142093472183e-05 2.402681457169819623e-05 1.202193197968881577e-05 1.269417989533394575e-04
1.031000000000000000e+03 1.683943176269531250e+01 3.383874893188476562e+01 2.065231637971010059e-05 -1.310247171204537153e-04 -3.311172258690930903e-05 1.284254722122568637e-06
1.032000000000000000e+03 1.753109931945800781e+01 3.026312255859375000e+01 4.544833700492745265e-06 -8.604734466644003987e-05 -2.445075369905680418e-05 -7.807660040271002799e-06
1.033000000000000000e+03 1.653903007507324219e+01 2.888002204895019531e+01 -1.348094792774645612e-05 4.482908479985781014e-06 -2.699411879802937619e-06 4.498673661146312952e-05
1.034000000000000000e+03 1.567981147766113281e+01 2.765035247802734375e+01 -9.490151569480076432e-06 -4.547443313640542328e-05 -1.648937541176564991e-05 1.350999627902638167e-05
1.035000000000000000e+03 1.525704479217529297e+01 2.634469604492187500e+01 -1.856219569162931293e-05 2.856082210200838745e-05 2.999587877638987266e-06 -5.394053459895076230e-06
1.036000000000000000e+03 1.520253086090087891e+01 2.474866867065429688e+01 -8.593164579906442668e-07 -7.531434675911441445e-05 -2.285209848196245730e-05 1.547795363876502961e-05
1.037000000000000000e+03 1.518024921417236328e+01 2.298253440856933594e+01 -2.042739288299344480e-05 4.917544720228761435e-05 8.624416295788250864e-06 9.509250958217307925e-06
1.038000000000000000e+03 1.543919372558593750e+01 2.119482994079589844e+01 -1.647884710109792650e-05 -6.116781878517940640e-05 -2.329400012968108058e-05 5.011331268178764731e-06
1.039000000000000000e+03 1.443830776214599609e+01 1.946751785278320312e+01 -8.231258107116445899e-06 -4.905079549644142389e-05 -1.718461498967371881e-05 -2.739940828178077936e-05
1.040000000000000000e+03 1.443627357482910156e+01 1.633046340942382812e+01 4.527599685388850048e-06 -2.106616921082604676e-05 -4.961570994055364281e-06 2.495130320312455297e-05
1.041000000000000000e+03 1.553493976593017578e+01 1.567523002624511719e+01 -2.733389374043326825e-05 1.026157769956625998e-05 -5.121694812260102481e-06 -2.772260268102400005e-05
1.042000000000000000e+03 1.530428600311279297e+01 1.265735721588134766e+01 2.212187411032573436e-07 -1.729410723783075809e-05 -5.121866706758737564e-06 1.272169538424350321e-05
1.043000000000000000e+03 1.470525360107421875e+01 1.157509899139404297e+01 -3.978148470196174458e-06 6.703606231894809753e-06 8.176372148227528669e-07 -2.323574335605371743e-05
1.044000000000000000e+03 1.496794700622558594e+01 9.883127212524414062e+00 -2.069777110591530800e-06 1.505215368524659425e-05 3.894712790497578681e-06 -1.646636337682139128e-05
1.045000000000000000e+03 1.507088756561279297e+01 8.178201675415039062e+00 -1.790751525732048322e-06 2.098394725180696696e-05 5.757958660979056731e-06 -1.545688974147196859e-05
1.046000000000000000e+03 1.588344287872314453e+01 7.396601676940917969e+00 5.603700174106052145e-06 -2.399570075795054436e-05 -5.517600129678612575e-06 5.884456186322495341e-06
1.047000000000000000e+03 1.538383293151855469e+01 5.457936763763427734e+00 4.625525889423443004e-06 -2.668780689418781549e-05 -6.618683983106166124e-06 -1.274167698284145445e-05
1.048000000000000000e+03 1.466328144073486328e+01 4.003446102142333984e+00 8.762140168983023614e-06 -2.171507549064699560e-05 -3.885880232701310888e-06 -8.575233550800476223e-06
1.049000000000000000e+03 1.518552684783935547e+01 2.581410646438598633e+00 1.014645658869994804e-05 -1.492091814725426957e-05 -1.432338422091561370e-06 -1.057186455000191927e-05
1.050000000000000000e+03 1.401049423217773438e+01 3.406276404857635498e-01 1.928853453136980534e-05 -5.580075139732798561e-07 5.619157946057384834e-06 -5.299377335177268833e-06
1.051000000000000000e+03 1.537997245788574219e+01 -4.724580645561218262e-01 1.857534880400635302e-05 2.020284455284127034e-06 6.178690000524511561e-06 -5.525153028429485857e-06
1.052000000000000000e+03 4.623355865478515625e+00 4.018568801879882812e+01 -1.067326775228139013e-05 -4.703844024334102869e-05 -1.731351221678778529e-05 -1.640254777157679200e-05
1.053000000000000000e+03 1.348980522155761719e+01 3.355626678466796875e+01 -8.646004062029533088e-06 -7.976733468240126967e-05 -2.652400326041970402e-05 1.842122765083331615e-05
1.054000000000000000e+03 1.481419754028320312e+01 3.027973175048828125e+01 -5.237272034719353542e-06 -6.846682663308456540e-05 -2.211122773587703705e-05 1.339213849860243499e-05
1.055000000000000000e+03 1.412969112396240234e+01 2.860296058654785156e+01 -5.582374797086231411e-06 1.209525635204045102e-05 1.953864511961000971e-06 1.115112445404520258e-05
1.056000000000000000e+03 1.366761207580566406e+01 2.691789054870605469e+01 -7.192947123257908970e-06 -5.083567157271318138e-05 -1.740858533594291657e-05 1.875185625976882875e-05
1.057000000000000000e+03 1.335511684417724609e+01 2.518282699584960938e+01 -1.791154318198096007e-05 3.438756903051398695e-05 4.942808118357788771e-06 6.943699190742336214e-06
1.058000000000000000e+03 1.325140476226806641e+01 2.334557151794433594e+01 1.525399170532182325e-06 -5.745469024986959994e-05 -1.677878753980621696e-05 3.196279067196883261e-06
1.059000000000000000e+03 1.409109210968017578e+01 2.079133987426757812e+01 -8.062816959863994271e-06 2.530130404920782894e-05 5.171546490601031110e-06 -2.018524537561461329e-05
1.060000000000000000e+03 1.281442546844482422e+01 1.882775306701660156e+01 -1.562016768730245531e-05 3.532455366439535283e-06 -3.626313628046773374e-06 -2.959997254947666079e-05
1.061000000000000000e+03 1.336245536804199219e+01 1.704923248291015625e+01 -1.645505471969954669e-05 8.369891475012991577e-06 -2.425549155304906890e-06 -3.036040288861840963e-05
1.062000000000000000e+03 1.376512145996093750e+01 1.518892478942871094e+01 -1.653553408687002957e-05 1.467690799472620711e-05 -5.575881232289248146e-07 -2.530508936615660787e-05
1.063000000000000000e+03 1.415305137634277344e+01 1.328964138031005859e+01 -1.233455077453982085e-05 7.753955287626013160e-06 -1.374178623336774763e-06 -2.197714275098405778e-05
1.064000000000000000e+03 1.322046756744384766e+01 1.122544765472412109e+01 -2.334881628485163674e-06 1.364461058983579278e-05 3.392918642930453643e-06 -7.201478183560539037e-06
1.065000000000000000e+03 1.271991634368896484e+01 8.861375808715820312e+00 3.034029532500426285e-06 -1.424810125172371045e-05 -3.364221356605412439e-06 -9.113953751693770755e-07
1.066000000000000000e+03 1.353586769104003906e+01 8.111663818359375000e+00 8.302139775651085074e-08 1.910831088025588542e-05 5.757399776484817266e-06 -1.338301990472245961e-05
1.067000000000000000e+03 1.427026176452636719e+01 7.316184043884277344e+00 2.123611920978873968e-06 -1.996142236748710275e-05 -5.351343133952468634e-06 -1.822136027840315364e-06
1.068000000000000000e+03 1.237056827545166016e+01 4.797516822814941406e+00 7.621130407642340288e-06 -1.911073195515200496e-05 -3.446880555202369578e-06 -3.348134669067803770e-06
1.069000000000000000e+03 1.376323318481445312e+01 3.486273527145385742e+00 3.842220849037403241e-06 2.764883902273140848e-05 9.447318007005378604e-06 -6.790074166929116473e-06
1.070000000000000000e+03 1.253429031372070312e+01 1.217862963676452637e+00 1.542193967907223850e-05 1.751852778397733346e-06 5.152137873665196821e-06 -9.568097993906121701e-07
1.071000000000000000e+03 1.186109638214111328e+01 2.643254518508911133e+00 8.613594218331854790e-06 2.244960887765046209e-05 9.318961019744165242e-06 -4.619474566425196826e-06
1.072000000000000000e+03 1.152687644958496094e+01 3.737699127197265625e+01 -1.722090019029565156e-05 -7.157701475080102682e-05 -2.663937448232900351e-05 5.453755420603556558e-06
1.073000000000000000e+03 1.441967487335205078e+01 3.595038986206054688e+01 1.896287903946358711e-05 2.158791357942391187e-05 1.216523833136307076e-05 6.062073680368484929e-06
1.074000000000000000e+03 1.106620025634765625e+01 3.464471817016601562e+01 2.135480281140189618e-05 1.375751890009269118e-05 1.053369578585261479e-05 6.903791472723241895e-06
1.075000000000000000e+03 1.284633541107177734e+01 3.142932319641113281e+01 9.703329851618036628e-06 1.256043833564035594e-05 6.679130365228047594e-06 9.804229193832725286e-06
1.076000000000000000e+03 1.236089897155761719e+01 2.947301673889160156e+01 -1.277656065212795511e-05 -4.419353354023769498e-05 -1.709102798486128449e-05 1.460039948142366484e-05
1.077000000000000000e+03 1.198424148559570312e+01 2.764486885070800781e+01 -3.516830474836751819e-06 1.660051202634349465e-05 3.925104465452022851e-06 6.088852842367487028e-06
1.078000000000000000e+03 1.160270118713378906e+01 2.597051429748535156e+01 -2.753448370640398934e-06 -3.545472645782865584e-05 -1.146245267591439188e-05 -4.165157861280022189e-06
1.079000000000000000e+03 1.087220001220703125e+01 2.481740188598632812e+01 -7.729992830718401819e-06 -1.085856092686299235e-05 -5.576565854426007718e-06 2.138434683729428798e-05
1.080000000000000000e+03 1.015750408172607422e+01 2.321818351745605469e+01 3.869414285873062909e-06 -3.167078102706000209e-05 -8.340410204255022109e-06 7.840826583560556173e-06
1.081000000000000000e+03 1.160786819458007812e+01 1.955994033813476562e+01 -3.082600869674934074e-06 -9.881180631055030972e-06 -3.889134404744254425e-06 1.771680581441614777e-05
1.082000000000000000e+03 1.098319339752197266e+01 1.856016540527343750e+01 -1.480933678976725787e-05 1.204665113618830219e-05 -8.288056960736867040e-07 -2.531608697609044611e-05
1.083000000000000000e+03 1.158014011383056641e+01 1.675531196594238281e+01 -1.391554997098864987e-05 1.387297379551455379e-05 -1.277290806456221617e-08 -2.496253910067025572e-05
1.084000000000000000e+03 1.193404197692871094e+01 1.492560482025146484e+01 -1.218871784658404067e-05 1.920782233355566859e-05 2.105731255142018199e-06 -2.069061520160175860e-05
1.085000000000000000e+03 1.201885032653808594e+01 1.304978752136230469e+01 -4.499581791606033221e-06 2.330439565412234515e-05 5.641444204229628667e-06 -1.124057962442748249e-05
1.086000000000000000e+03 1.099324798583984375e+01 1.218960952758789062e+01 -2.061886789306299761e-06 -1.094002982426900417e-05 -3.900574938597856089e-06 -5.831665475852787495e-06
1.087000000000000000e+03 1.175065517425537109e+01 9.568861007690429688e+00 -3.245351308578392491e-06 9.388516446051653475e-06 1.842949586716713384e-06 -1.722603519738186151e-05
1.088000000000000000e+03 1.084511852264404297e+01 6.295365333557128906e+00 -1.911098479467909783e-06 -4.784728389495285228e-06 -2.008747969739488326e-06 -7.915156857052352279e-06
1.089000000000000000e+03 1.149866008758544922e+01 5.374624729156494141e+00 5.607204457191983238e-06 -1.421181787009118125e-05 -2.581384023869759403e-06 -1.705536192275758367e-06
1.090000000000000000e+03 1.176298999786376953e+01 3.647682905197143555e+00 7.641637239430565387e-06 -1.420607623003888875e-05 -1.969331833606702276e-06 -6.999697689025197178e-06
1.091000000000000000e+03 1.000389003753662109e+01 1.887995719909667969e+00 1.032971522363368422e-05 -4.970245754520874470e-06 1.607840772521740291e-06 -1.118915224651573226e-05
1.092000000000000000e+03 1.080803871154785156e+01 1.770918488502502441e+00 1.197851906908908859e-05 1.294474532187450677e-05 7.476979135390138254e-06 -1.847251837716612499e-06
1.093000000000000000e+03 1.073607826232910156e+01 3.230031204223632812e+01 -1.663143666519317776e-05 -4.293106394470669329e-05 -1.786875145626254380e-05 8.751031600695569068e-06
1.094000000000000000e+03 1.021594810485839844e+01 2.834890174865722656e+01 -1.202388648380292580e-05 -2.653286173881497234e-05 -1.156702455773483962e-05 3.507229166643810458e-06
1.095000000000000000e+03 9.928879737854003906e+00 2.678062629699707031e+01 3.582115141398389824e-06 1.201795748784206808e-05 4.680021902458975092e-06 1.364640411338768899e-05
1.096000000000000000e+03 9.618084907531738281e+00 2.553093338012695312e+01 -1.569635423948056996e-05 -9.874823263089638203e-06 -7.671353159821592271e-06 -6.014479822624707595e-06
1.097000000000000000e+03 8.941620826721191406e+00 2.291421699523925781e+01 -6.648430371569702402e-06 2.755623609118629247e-05 6.272341579460771754e-06 2.480364173607085831e-06
1.098000000000000000e+03 9.451435089111328125e+00 2.157519340515136719e+01 4.115205229027196765e-06 -3.303341873106546700e-05 -8.675463504914660007e-06 -2.025553385465173051e-06
1.099000000000000000e+03 9.623422622680664062e+00 1.939455986022949219e+01 -6.013865316845112829e-08 -3.526867658365517855e-06 -1.076101852959254757e-06 1.703613088466227055e-05
1.100000000000000000e+03 9.124486923217773438e+00 1.824871063232421875e+01 -9.242804480891209096e-06 1.087351847672834992e-05 4.892141873824584763e-07 -2.046028566837776452e-05
1.101000000000000000e+03 9.816009521484375000e+00 1.653535079956054688e+01 -9.590021363692358136e-06 1.614157190488185734e-05 1.965465344255790114e-06 -2.025521462201140821e-05
1.102000000000000000e+03 1.012318038940429688e+01 1.480915737152099609e+01 -5.704377599613508210e-06 1.948722456290852278e-05 4.134854407311649993e-06 -1.615591099835000932e-05
1.103000000000000000e+03 1.005821418762207031e+01 1.299866104125976562e+01 1.333873569819843397e-06 1.804584280762355775e-05 5.813914867758285254e-06 -1.332134525000583380e-05
1.104000000000000000e+03 9.296413421630859375e+00 1.113823127746582031e+01 5.741739641962340102e-06 2.081876846204977483e-05 7.968152203829959035e-06 -6.215939720277674496e-06
1.105000000000000000e+03 9.323627471923828125e+00 9.116938591003417969e+00 1.007878108794102445e-05 1.014604367810534313e-05 6.067447429813910276e-06 -4.145411367062479258e-06
1.106000000000000000e+03 1.019459915161132812e+01 8.139127731323242188e+00 7.025789727777009830e-06 8.513538887200411409e-06 4.661798357119550928e-06 -1.193126627185847610e-05
1.107000000000000000e+03 9.979039192199707031e+00 6.428790092468261719e+00 4.120305220567388460e-06 1.047339628712506965e-05 4.378110588731942698e-06 -1.005293597700074315e-05
1.108000000000000000e+03 1.079784107208251953e+01 5.353120326995849609e+00 8.787754268269054592e-06 1.701127257547341287e-05 7.739708053122740239e-06 -1.231097212439635769e-05
1.109000000000000000e+03 1.017741584777832031e+01 3.516047954559326172e+00 7.437785825459286571e-06 -8.239205271820537746e-06 -2.404259760169225046e-07 -9.778241292224265635e-06
1.110000000000000000e+03 6.990270137786865234e+00 2.810600519180297852e+00 6.063533419364830479e-06 8.878170774551108479e-06 4.482511030801106244e-06 -2.956631760753225535e-06
1.111000000000000000e+03 9.242273330688476562e+00 1.903750300407409668e+00 1.011760286928620189e-05 1.275233989872504026e-05 6.860982466605491936e-06 -3.933720108761917800e-06
1.112000000000000000e+03 8.606394767761230469e+00 3.283953475952148438e+01 6.156531981105217710e-06 1.628997779334895313e-05 6.733952886861516163e-06 1.206425986310932785e-05
1.113000000000000000e+03 8.541136741638183594e+00 3.074295425415039062e+01 -8.131738468364346772e-06 -2.345913344470318407e-05 -9.477261301071848720e-06 -1.742548079164407682e-06
1.114000000000000000e+03 8.403672218322753906e+00 2.889198684692382812e+01 4.924070708511862904e-06 1.445124962629051879e-05 5.812596100440714508e-06 1.188967780763050541e-05
1.115000000000000000e+03 8.219970703125000000e+00 2.727211570739746094e+01 -1.041665200318675488e-05 -9.811200470721814781e-06 -6.068355560273630545e-06 -6.389459485944826156e-06
1.116000000000000000e+03 8.071877479553222656e+00 2.574225997924804688e+01 2.998175204993458465e-06 1.281809545616852120e-05 4.744881152873858809e-06 1.130392956838477403e-05
1.117000000000000000e+03 8.091934204101562500e+00 2.133710479736328125e+01 -7.072706011967966333e-06 2.665282227098941803e-05 5.874035196029581130e-06 7.147623364289756864e-06
1.118000000000000000e+03 8.052572250366210938e+00 1.999169731140136719e+01 -7.207660473795840517e-06 2.215190733068084228e-07 -2.095842319249641150e-06 -2.011997821682598442e-05
1.119000000000000000e+03 7.717186927795410156e+00 1.877964782714843750e+01 2.088848987114033662e-06 3.492612904665293172e-06 1.674438635745900683e-06 9.469747965340502560e-06
1.120000000000000000e+03 8.172068595886230469e+00 1.626937866210937500e+01 -5.791536750621162355e-06 1.642604001972358674e-05 3.190350980730727315e-06 -1.716415317787323147e-05
1.121000000000000000e+03 8.409357070922851562e+00 1.474076461791992188e+01 -4.879047423855809029e-07 1.926153709064237773e-05 5.632090051221894100e-06 -1.206446813739603385e-05
1.122000000000000000e+03 8.151800155639648438e+00 1.317072296142578125e+01 5.058057922724401578e-06 1.954672188730910420e-05 7.381433988484786823e-06 -1.095875086321029812e-05
1.123000000000000000e+03 7.590854644775390625e+00 1.166044712066650391e+01 5.420054549176711589e-06 2.211275750596541911e-05 8.259843525593169034e-06 -1.391978548781480640e-05
1.124000000000000000e+03 8.179253578186035156e+00 9.061141014099121094e+00 -7.235949851747136563e-06 -6.034094894857844338e-06 -3.981013378506759182e-06 -1.330986015091184527e-05
1.125000000000000000e+03 8.364495277404785156e+00 8.202057838439941406e+00 1.141243592428509146e-05 1.099706696550128981e-05 6.722851139784324914e-06 -8.028534466575365514e-06
1.126000000000000000e+03 7.772465229034423828e+00 7.303509712219238281e+00 1.186562531074741855e-05 1.084389805328100920e-05 6.812857009208528325e-06 -5.940362825640477240e-06
1.127000000000000000e+03 8.137250900268554688e+00 5.208650588989257812e+00 8.759378943068441004e-06 3.889674644597107545e-06 3.794715894400724210e-06 -6.337598733807681128e-06
1.128000000000000000e+03 8.730967521667480469e+00 4.342698574066162109e+00 6.192613000166602433e-06 1.067994708137121052e-05 5.061768206360284239e-06 -6.605219823541119695e-06
1.129000000000000000e+03 6.986223697662353516e+00 1.936757683753967285e+00 6.380133072525495663e-06 -5.470300038723507896e-06 2.729498191911261529e-07 -6.184464837133418769e-06
1.130000000000000000e+03 7.740942955017089844e+00 1.927214026451110840e+00 8.122178769554011524e-06 8.679152415425051004e-06 5.040399173594778404e-06 -3.121193685728940181e-06
1.131000000000000000e+03 5.620716094970703125e+00 3.763330841064453125e+01 2.997557385242544115e-05 -1.216745022247778252e-05 5.342437361832708120e-06 3.723102418007329106e-05
1.132000000000000000e+03 6.570155143737792969e+00 3.303483963012695312e+01 1.575984242663253099e-05 -2.262444468215107918e-05 -2.059380676655564457e-06 1.062543560692574829e-06
1.133000000000000000e+03 6.660483360290527344e+00 3.107056236267089844e+01 -7.820508471922948956e-06 2.259478242194745690e-05 4.432282366906292737e-06 9.654909263190347701e-06
1.134000000000000000e+03 6.606695175170898438e+00 2.929458427429199219e+01 1.191220121654623654e-06 -8.710707334103062749e-06 -2.255846084153745323e-06 -6.505374585685785860e-06
1.135000000000000000e+03 6.480391979217529297e+00 2.766395378112792969e+01 -1.353553216176806018e-06 1.513541246822569519e-05 4.134557912038872018e-06 1.141092525358544663e-05
1.136000000000000000e+03 6.327715396881103516e+00 2.607207107543945312e+01 -3.058727543248096481e-06 3.812346221820916981e-06 2.260856035718461499e-07 -8.693527888681273907e-06
1.137000000000000000e+03 5.933931827545166016e+00 2.460473632812500000e+01 -1.689854912001464982e-06 7.259826816152781248e-06 1.670991650826181285e-06 7.412983450194587931e-06
1.138000000000000000e+03 5.424204349517822266e+00 2.325520706176757812e+01 2.500926711945794523e-06 9.903940735966898501e-06 3.721460188899072818e-06 -8.683478881721384823e-06
1.139000000000000000e+03 4.962801933288574219e+00 2.053863716125488281e+01 4.757237093144794926e-06 -8.965994311438407749e-07 1.158191253125551157e-06 -1.301294287259224802e-05
1.140000000000000000e+03 6.222433567047119141e+00 1.910272216796875000e+01 -8.283872375614009798e-06 1.445671387045877054e-05 1.851852402978693135e-06 -1.602368502062745392e-05
1.141000000000000000e+03 7.088092327117919922e+00 1.676246833801269531e+01 1.122381263485294767e-06 3.896827365679200739e-06 1.505762611486716196e-06 6.790177849325118586e-06
1.142000000000000000e+03 7.596191406250000000e+00 1.543562889099121094e+01 -4.484630153456237167e-06 -2.452611397529835813e-06 -2.081172397083719261e-06 -1.198927066070609726e-06
1.143000000000000000e+03 6.424608707427978516e+00 1.343581485748291016e+01 8.748848813411314040e-06 1.701210931059904397e-05 7.728287528152577579e-06 -4.586126124195288867e-06
1.144000000000000000e+03 5.525662422180175781e+00 1.030176830291748047e+01 1.939105459314305335e-06 2.521850728953722864e-05 8.147283551807049662e-06 -1.319459533988265321e-05
1.145000000000000000e+03 6.098384857177734375e+00 8.005014419555664062e+00 -1.926336835822439753e-06 -9.665627658250741661e-06 -3.477589189060381614e-06 -4.478366918192477897e-06
1.146000000000000000e+03 5.834013938903808594e+00 5.860551357269287109e+00 3.114960009042988531e-06 7.912537512311246246e-06 3.308249461042578332e-06 -1.336334025836549699e-05
1.147000000000000000e+03 6.382250785827636719e+00 4.705445289611816406e+00 1.316814632446039468e-06 4.464380253921262920e-06 1.734358420435455628e-06 -1.113576036004815251e-05
1.148000000000000000e+03 5.509625911712646484e+00 1.886072397232055664e+00 3.661731625470565632e-06 -6.113325525802792981e-06 -7.354782383117708378e-07 -5.895842150493990630e-06
1.149000000000000000e+03 6.236505985260009766e+00 1.929078817367553711e+00 6.473371286119800061e-06 7.263722636707825586e-06 4.121128313272492960e-06 -1.811101469684217591e-06
1.150000000000000000e+03 1.943202972412109375e+00 4.163348007202148438e+01 -4.358112164482008666e-07 3.670145815704017878e-05 1.087969485524808988e-05 -2.024725063165533356e-07
1.151000000000000000e+03 7.920662879943847656e+00 4.089425277709960938e+01 9.028000022226478904e-06 -6.882588081680296455e-07 2.501922381270560436e-06 3.135145743726752698e-05
1.152000000000000000e+03 4.311297416687011719e+00 3.475020217895507812e+01 1.988033363886643201e-05 3.331045445520430803e-05 1.595723551872652024e-05 3.161498898407444358e-05
1.153000000000000000e+03 4.813336849212646484e+00 3.128180503845214844e+01 1.839346987253520638e-05 -4.061951585754286498e-06 4.299455213185865432e-06 2.933953453521098709e-07
1.154000000000000000e+03 4.792721748352050781e+00 2.963817787170410156e+01 -1.340854123554890975e-05 2.339810453122481704e-05 2.996869170601712540e-06 7.637331691512372345e-06
1.155000000000000000e+03 4.695904731750488281e+00 2.807782745361328125e+01 7.036142051219940186e-06 7.716397703916300088e-06 4.425762199389282614e-06 -8.000831257959362119e-06
1.156000000000000000e+03 4.536135196685791016e+00 2.659136199951171875e+01 -6.160448265291051939e-06 1.673986298555973917e-05 3.173824552504811436e-06 1.115719715016894042e-05
1.157000000000000000e+03 3.972340822219848633e+00 2.377358055114746094e+01 -5.344487362890504301e-06 1.650958620302844793e-05 3.349529606566647999e-06 8.056668775680009276e-06
1.158000000000000000e+03 3.609957933425903320e+00 2.237233924865722656e+01 1.877770728242467158e-06 2.277170278830453753e-05 7.394842214125674218e-06 -1.304854413319844753e-05
1.159000000000000000e+03 4.728629112243652344e+00 1.935346412658691406e+01 2.900894060076097958e-06 4.600401098286965862e-06 2.250388433822081424e-06 3.496885028653196059e-06
1.160000000000000000e+03 4.453406810760498047e+00 1.692714500427246094e+01 4.406251719046849757e-06 2.061458144453354180e-05 7.506249858124647290e-06 5.685944870492676273e-06
1.161000000000000000e+03 5.315217494964599609e+00 1.493174743652343750e+01 1.098919801734155044e-05 1.327185782429296523e-05 7.278316388692473993e-06 -5.738522304454818368e-06
1.162000000000000000e+03 5.981535434722900391e+00 1.419251918792724609e+01 -1.494496791565325111e-05 1.165939374914159998e-05 -9.856722726908628829e-07 -8.863159564498346299e-06
1.163000000000000000e+03 4.807465076446533203e+00 1.110801219940185547e+01 1.500692746958520729e-06 -1.148079263657564297e-05 -2.994029955516452901e-06 -1.139474761657766066e-06
1.164000000000000000e+03 4.434047222137451172e+00 7.878310203552246094e+00 -1.272232566407183185e-06 -6.939336344657931477e-06 -2.463470536895329133e-06 2.611240859096142231e-07
1.165000000000000000e+03 4.064610004425048828e+00 6.097728252410888672e+00 9.177932156489987392e-07 -1.128304757003206760e-05 -3.109576255155843683e-06 -7.646810445294249803e-06
1.166000000000000000e+03 4.677718162536621094e+00 5.371540546417236328e+00 4.565456492855446413e-06 7.554922376584727317e-06 3.636113660832052119e-06 -6.093642241467023268e-06
1.167000000000000000e+03 4.952488899230957031e+00 3.221621990203857422e+00 4.143883870710851625e-06 4.735628635899047367e-07 1.385234099871013314e-06 -2.795464979499229230e-06
1.168000000000000000e+03 1.902826428413391113e+00 2.014079570770263672e+00 -2.517170685223391047e-07 2.097858896377147175e-06 5.538425398299295921e-07 1.152272943727439269e-06
1.169000000000000000e+03 4.080911636352539062e+00 1.849352359771728516e+00 2.031242274824762717e-06 -3.484288072286290117e-06 -4.359137903975351946e-07 -3.786343768297228962e-06
1.170000000000000000e+03 3.495820522308349609e+00 2.606855630874633789e+00 5.766482331637234893e-07 3.668434658266050974e-07 2.830475125392695190e-07 -5.072528438176959753e-06
1.171000000000000000e+03 2.664194107055664062e+00 3.913624572753906250e+01 9.769886673893779516e-06 4.643607462639920413e-05 1.686178802629001439e-05 -3.737804718184634112e-06
1.172000000000000000e+03 3.210550069808959961e+00 3.739399337768554688e+01 -6.295224920904729515e-06 1.376437285216525197e-05 2.240744379378156736e-06 -2.824519833666272461e-05
1.173000000000000000e+03 3.015591621398925781e+00 3.579957199096679688e+01 6.222841420822078362e-06 -1.662891736486926675e-05 -3.121822828688891605e-06 -6.635308636759873480e-06
1.174000000000000000e+03 2.760458230972290039e+00 3.446739959716796875e+01 9.724343499328824691e-07 5.171168140805093572e-06 1.843080781327444129e-06 -6.173417546051496174e-07
1.175000000000000000e+03 2.874949932098388672e+00 3.301922225952148438e+01 1.865927697508595884e-05 1.859657095337752253e-05 1.117675401474116370e-05 1.001729469862766564e-05
1.176000000000000000e+03 2.929677486419677734e+00 3.149277877807617188e+01 -2.259410757687874138e-05 2.969173146993853152e-05 2.129287622665287927e-06 -1.589608814356324729e-06
1.177000000000000000e+03 2.919277667999267578e+00 2.997532844543457031e+01 1.888619954115711153e-05 1.445691304979845881e-05 1.000293377728667110e-05 -2.643869947860366665e-06
1.178000000000000000e+03 2.753507375717163086e+00 2.705397415161132812e+01 1.196037919726222754e-05 2.163481440220493823e-05 1.007855826173909009e-05 -9.293349648942239583e-06
1.179000000000000000e+03 2.610152959823608398e+00 2.564888954162597656e+01 -9.065006452146917582e-06 2.125165337929502130e-05 3.655993623397080228e-06 8.994518793770112097e-06
1.180000000000000000e+03 2.428455352783203125e+00 2.426091003417968750e+01 5.195159246795810759e-06 2.473500171618070453e-05 8.979048288892954588e-06 -9.290296475228387862e-06
1.181000000000000000e+03 2.376951694488525391e+00 1.943415451049804688e+01 -6.895363640069263056e-07 1.120637170970439911e-05 3.155050535497139208e-06 -6.227424364624312147e-06
1.182000000000000000e+03 3.475590705871582031e+00 1.532113838195800781e+01 9.350994332635309547e-06 2.643038351379800588e-05 1.073441308108158410e-05 1.456946051803242881e-06
1.183000000000000000e+03 4.392934799194335938e+00 1.431843185424804688e+01 -7.471036951756104827e-06 1.804568086072322330e-07 -2.187174004575354047e-06 -1.008268463920103386e-05
1.184000000000000000e+03 2.393163204193115234e+00 1.192105865478515625e+01 5.717462045140564442e-06 1.360602709610247985e-05 5.797046924271853641e-06 -4.414577233546879143e-06
1.185000000000000000e+03 2.374775409698486328e+00 1.053676509857177734e+01 -5.054027951700845733e-06 7.410154466924723238e-06 7.068379659358470235e-07 -4.085390628461027518e-06
1.186000000000000000e+03 2.330071687698364258e+00 9.184303283691406250e+00 7.032626854197587818e-06 1.009911466098856181e-05 5.139522272656904534e-06 -9.508851235295878723e-07
1.187000000000000000e+03 3.512730836868286133e+00 7.107613086700439453e+00 4.549878667603479698e-06 1.861556302173994482e-05 6.949632734176702797e-06 -7.284699222509516403e-06
1.188000000000000000e+03 1.581291675567626953e+00 5.103638648986816406e+00 -1.940376478160033002e-06 -7.776163357675613952e-08 -6.054414143363828771e-07 -5.168259576748823747e-06
1.189000000000000000e+03 3.078565835952758789e+00 3.467723608016967773e+00 2.128293346004284103e-07 5.985320058243814856e-06 1.859444751062255818e-06 -3.154899786750320345e-06
1.190000000000000000e+03 2.636595726013183594e+00 1.931413054466247559e+00 9.539542134007206187e-07 -9.614132068236358464e-07 -2.237717122710591866e-09 -3.269834223829093389e-06
1.191000000000000000e+03 1.123839974403381348e+00 4.015346908569335938e+01 -1.331442399532534182e-05 3.511341856210492551e-05 6.539698460983345285e-06 -3.961000857088947669e-06
1.192000000000000000e+03 9.415107369422912598e-01 3.887557220458984375e+01 2.128200503648258746e-05 2.979089731525164098e-05 1.532186979602556676e-05 -3.172646074744989164e-06
1.193000000000000000e+03 1.007033228874206543e+00 3.605807113647460938e+01 -1.630954830034170300e-05 3.914852641173638403e-05 6.851692887721583247e-06 -3.696048906931537203e-06
1.194000000000000000e+03 9.572022557258605957e-01 3.463577270507812500e+01 1.631719351280480623e-05 3.103620110778138041e-05 1.420601893187267706e-05 -5.979456545901484787e-06
1.195000000000000000e+03 9.697370529174804688e-01 3.319699859619140625e+01 -1.288978728553047404e-05 2.685566141735762358e-05 4.189762421447085217e-06 -6.564579280166071840e-07
1.196000000000000000e+03 9.854938983917236328e-01 3.175418090820312500e+01 2.090686029987409711e-05 2.549347118474543095e-05 1.392009926348691806e-05 9.242119745067611802e-07
1.197000000000000000e+03 9.822149276733398438e-01 3.031446075439453125e+01 -2.650028727657627314e-05 3.020270014530979097e-05 1.110724269892671145e-06 4.413794158608652651e-06
1.198000000000000000e+03 9.275999665260314941e-01 2.746269989013671875e+01 -2.130830398527905345e-05 2.904686880356166512e-05 2.321569127161637880e-06 6.774948360543930903e-06
1.199000000000000000e+03 8.788902163505554199e-01 2.605510520935058594e+01 1.507362594566075131e-05 3.079485395574010909e-05 1.376054387947078794e-05 -5.971956852590665221e-06
1.200000000000000000e+03 8.151394128799438477e-01 2.465645980834960938e+01 -8.955462362791877240e-06 2.889886491175275296e-05 5.983021310385083780e-06 4.511593033384997398e-06
1.201000000000000000e+03 7.333804965019226074e-01 2.328045272827148438e+01 4.089294179721036926e-06 3.032308450201526284e-05 1.032371346809668466e-05 -2.916308403655420989e-06
1.202000000000000000e+03 1.921109080314636230e+00 2.174895095825195312e+01 1.446628743906330783e-06 2.823170507326722145e-05 8.903500201995484531e-06 -2.039503442574641667e-06
1.203000000000000000e+03 7.799382805824279785e-01 1.921033859252929688e+01 -4.314816578698810190e-06 2.861965731426607817e-05 7.291452220670180395e-06 3.060450239900092129e-07
1.204000000000000000e+03 8.874927759170532227e-01 1.780597877502441406e+01 -8.181150974451156799e-07 2.397198477410711348e-05 6.946160738152684644e-06 -4.110180270799901336e-06
1.205000000000000000e+03 9.977619051933288574e-01 1.634095573425292969e+01 6.555648724315688014e-06 2.288383075210731477e-05 8.831843842926900834e-06 9.378114782521151938e-07
1.206000000000000000e+03 9.409983754158020020e-01 1.485209941864013672e+01 -9.176276762445922941e-06 2.259360735479276627e-05 4.025198904855642468e-06 -2.803641336868167855e-07
1.207000000000000000e+03 7.902311682701110840e-01 1.203075408935546875e+01 -3.825773092103190720e-06 1.421246906829765067e-05 3.116008656434132718e-06 -1.018304374156286940e-06
1.208000000000000000e+03 7.870638370513916016e-01 1.063481235504150391e+01 3.759372702916152775e-06 1.294395769946277142e-05 5.010999302612617612e-06 -1.395964090988854878e-06
1.209000000000000000e+03 7.997840642929077148e-01 9.197219848632812500e+00 -4.234694642946124077e-06 9.497420251136645675e-06 1.578817773406626657e-06 -1.534925445412227418e-06
1.210000000000000000e+03 6.879829764366149902e-01 7.764710426330566406e+00 3.778135578613728285e-06 6.572384791070362553e-06 3.105156110905227251e-06 -2.792762188619235530e-06
1.211000000000000000e+03 5.464829206466674805e-01 6.392420291900634766e+00 -1.547121541989326943e-06 2.196944251409149729e-06 1.949468213524596649e-07 5.425455924523703288e-07
1.212000000000000000e+03 4.742068648338317871e-01 3.592145919799804688e+00 -1.474748046348395292e-06 1.172123575088335201e-06 -9.078734564127444173e-08 -1.128388248616829515e-06
1.213000000000000000e+03 1.153244018554687500e+00 2.115157604217529297e+00 2.344826270928024314e-06 -1.416698069078847766e-06 2.784384776077786228e-07 -2.257025016660918482e-06
1.214000000000000000e+03 2.113874912261962891e+00 2.980042457580566406e+00 1.071479459824331570e-06 3.170507397953770123e-06 1.272596023227379192e-06 -3.829716206382727250e-06
1.215000000000000000e+03 3.869528472423553467e-01 2.187284469604492188e+00 2.401821575404028408e-06 1.350771299257758074e-06 1.125777885135903489e-06 5.095324127069034148e-07
1.216000000000000000e+03 4.317107009887695312e+01 -1.961353111267089844e+01 2.927975550903738622e-08 1.046364786816411652e-06 3.226933529276720947e-07 -1.367287836728792172e-06
1.217000000000000000e+03 4.427950286865234375e+01 -1.835553741455078125e+01 7.124963872229272965e-07 3.260028051954577677e-07 3.115497406724898610e-07 -1.018484454107237980e-06
1.218000000000000000e+03 4.391046142578125000e+01 -1.763891792297363281e+01 -5.324145604390650988e-07 -2.933242981839612185e-08 -1.685240960114242625e-07 1.210287337016779929e-06
1.219000000000000000e+03 4.429956817626953125e+01 -1.461717796325683594e+01 -2.592641521914629266e-06 -3.453841600276064128e-06 -1.813944891182472929e-06 -2.207644683949183673e-06
1.220000000000000000e+03 4.383905410766601562e+01 -1.314463615417480469e+01 -8.400764954785699956e-07 2.220234136984799989e-06 4.140472924518689979e-07 -3.624052169470814988e-06
1.221000000000000000e+03 4.526476669311523438e+01 -9.664220809936523438e+00 6.009669505147030577e-06 6.590783868887228891e-06 3.780136012210277840e-06 -4.208258360449690372e-06
1.222000000000000000e+03 4.476642990112304688e+01 -8.519390106201171875e+00 6.930823019501985982e-06 7.297944648598786443e-06 4.268630164006026462e-06 -3.709265001816675067e-06
1.223000000000000000e+03 4.401835632324218750e+01 -7.198562145233154297e+00 6.046057933417614549e-06 1.087810687749879435e-05 5.077249625173863024e-06 -2.999388925672974437e-06
1.224000000000000000e+03 4.344863891601562500e+01 -4.744349002838134766e+00 -3.103459903286420740e-06 -1.576664908498059958e-05 -5.661032901116413996e-06 4.087288743903627619e-06
1.225000000000000000e+03 4.413452529907226562e+01 -1.846031665802001953e+00 -1.236555021932872478e-06 1.121061450248816982e-05 2.992217787323170342e-06 -3.201328354407451116e-06
1.226000000000000000e+03 4.481787872314453125e+01 -6.580881476402282715e-01 -4.585900114761898294e-06 -3.389794528629863635e-06 -2.392708438492263667e-06 -1.103950012293353211e-06
1.227000000000000000e+03 4.418406677246093750e+01 2.992192804813385010e-01 8.774622983764857054e-07 2.530787060095462948e-05 7.855599506001453847e-06 4.505232027440797538e-06
1.228000000000000000e+03 4.442950057983398438e+01 2.072453022003173828e+00 3.166535407217452303e-06 2.154186222469434142e-05 7.412519607896683738e-06 5.466598850034642965e-06
1.229000000000000000e+03 4.515043258666992188e+01 3.938934564590454102e+00 5.410824996943119913e-06 5.933307420491473749e-06 3.403239588806172833e-06 7.476593054889235646e-06
1.230000000000000000e+03 4.448398208618164062e+01 5.144532680511474609e+00 -1.160855663329130039e-05 5.331187367119127885e-06 -1.883210870801121928e-06 -8.076131052803248167e-06
1.231000000000000000e+03 4.376832962036132812e+01 6.359086036682128906e+00 1.072726900019915774e-05 -2.115351435350021347e-06 2.583575451353681274e-06 -2.339887259950046428e-06
1.232000000000000000e+03 4.297220993041992188e+01 7.620939254760742188e+00 7.336770408983284142e-07 2.234688508906401694e-06 8.905096819944446906e-07 2.214011374235269614e-06
1.233000000000000000e+03 4.537246704101562500e+01 -1.881300926208496094e+01 4.455085900190169923e-07 -4.413582814777328167e-07 1.245091807433595932e-09 3.682824001316475915e-07
1.234000000000000000e+03 4.617396163940429688e+01 -1.860708808898925781e+01 6.087531119192135520e-07 1.378494630444038194e-06 5.961742886029242072e-07 -2.778994883101404412e-07
1.235000000000000000e+03 4.693501663208007812e+01 -1.761763572692871094e+01 3.524322380599187454e-07 2.517791926948120818e-06 8.610672352915571537e-07 4.694596782428561710e-07
1.236000000000000000e+03 4.669919204711914062e+01 -1.494753551483154297e+01 -2.537987256800988689e-06 -2.873648782042437233e-06 -1.623490788915660232e-06 9.384809231960389297e-07
1.237000000000000000e+03 4.574371337890625000e+01 -1.295944309234619141e+01 2.354312982788542286e-06 3.153305442538112402e-06 1.652285504860628862e-06 -4.802486728294752538e-06
1.238000000000000000e+03 4.531970977783203125e+01 -1.111969280242919922e+01 7.369472768914420158e-06 -1.013058408716460690e-05 -8.283334409497911111e-07 -3.112569174845702946e-06
1.239000000000000000e+03 4.642505645751953125e+01 -8.114173889160156250e+00 4.036643986182752997e-06 1.384257575409719720e-05 5.363765922083985060e-06 -2.675700443433015607e-06
1.240000000000000000e+03 4.503016281127929688e+01 -5.064331054687500000e+00 3.603286131692584604e-06 1.743410757626406848e-05 6.311217930488055572e-06 -1.769540290297300089e-06
1.241000000000000000e+03 4.536647415161132812e+01 -2.761228561401367188e+00 9.140875079083343735e-08 8.264993084594607353e-06 2.506920509404153563e-06 -1.432078079233178869e-06
1.242000000000000000e+03 4.642845916748046875e+01 -1.352374076843261719e+00 -3.234935093132662587e-06 4.012456884083803743e-06 2.332565145479748026e-07 5.456227540889813099e-07
1.243000000000000000e+03 4.525533676147460938e+01 9.476256370544433594e-01 -5.846668045705882832e-06 -2.665342663021874614e-06 -2.553603280830429867e-06 -3.755038733288529329e-06
1.244000000000000000e+03 4.582131958007812500e+01 2.740509986877441406e+00 1.043471343109558802e-06 -3.087626737396931276e-06 -6.132465841801604256e-07 -2.921718305515241809e-06
1.245000000000000000e+03 4.697022247314453125e+01 -1.851012611389160156e+01 -4.003680942332721315e-07 -1.481319486629217863e-06 -5.645062515213794541e-07 2.471956150884579984e-08
1.246000000000000000e+03 4.773201751708984375e+01 -1.839456939697265625e+01 7.712433216511271894e-07 8.570697218601708300e-07 4.884939244220731780e-07 -2.310470108568551950e-07
1.247000000000000000e+03 4.769550323486328125e+01 -1.754554748535156250e+01 -1.384093593514990062e-06 -1.228425844601588324e-06 -7.837558086976059712e-07 -4.308251391194062307e-07
1.248000000000000000e+03 4.888534927368164062e+01 -1.418620204925537109e+01 1.671474137765471824e-06 6.266676791710779071e-06 2.381445256105507724e-06 -4.979925165571330581e-07
1.249000000000000000e+03 4.793253707885742188e+01 -1.181626987457275391e+01 1.761393264132493641e-06 -6.360240149660967290e-06 -1.379654008815123234e-06 -1.670998358349606860e-06
1.250000000000000000e+03 4.756958007812500000e+01 -1.108069992065429688e+01 -3.639588157966500148e-06 1.159235034720040858e-05 2.385828793194377795e-06 5.043700184614863247e-06
1.251000000000000000e+03 4.738516616821289062e+01 -8.850452423095703125e+00 1.264192405869835056e-06 -1.649080695642624050e-05 -4.567983978631673381e-06 -1.440938035557337571e-06
1.252000000000000000e+03 4.722971725463867188e+01 -7.190000057220458984e+00 -5.019416221330175176e-06 -1.556724964757449925e-05 -6.175999715196667239e-06 -1.156717758021841291e-06
1.253000000000000000e+03 4.772393035888671875e+01 -6.117811679840087891e+00 1.763022851264395285e-06 1.240515121025964618e-05 4.250452093401690945e-06 -1.124244590755552053e-06
1.254000000000000000e+03 4.863867950439453125e+01 -3.455977678298950195e+00 7.473166760973981582e-07 5.632269903799169697e-07 3.931631056275364244e-07 1.850475996434397530e-06
1.255000000000000000e+03 4.821212005615234375e+01 -2.184526443481445312e+00 -3.212181582057382911e-06 1.459083023291896097e-06 -5.259295789983298164e-07 -1.494917114541749470e-06
1.256000000000000000e+03 4.772304916381835938e+01 -9.223321676254272461e-01 2.931286189777893014e-06 -3.520889038099994650e-07 7.737591545264876913e-07 -2.697194076972664334e-07
1.257000000000000000e+03 4.714073944091796875e+01 3.130744099617004395e-01 -6.539000878547085449e-07 2.327651600353419781e-06 5.021254310122458264e-07 5.614293741018627770e-07
1.258000000000000000e+03 4.922239685058593750e+01 -1.818595886230468750e+01 1.724643993838981260e-06 -4.590158084738504840e-07 3.796884300300007453e-07 -1.448292550776386634e-06
1.259000000000000000e+03 4.993657684326171875e+01 -1.808832168579101562e+01 -1.585059408171218820e-06 8.906660013963119127e-07 -2.083179992951045278e-07 1.864607725110545289e-06
1.260000000000000000e+03 5.038706207275390625e+01 -1.737997245788574219e+01 -1.347510760751902126e-06 2.545479219406843185e-06 3.593905546495079761e-07 1.473149950470542535e-06
1.261000000000000000e+03 5.131262969970703125e+01 -1.775108146667480469e+01 -1.161550358119711746e-06 1.402100451741716824e-06 7.216501529683228000e-08 1.682871243247063830e-06
1.262000000000000000e+03 5.161430740356445312e+01 -1.567828655242919922e+01 -1.592998387422994711e-06 5.976376996841281652e-06 1.315013605562853627e-06 -1.286359292862471193e-06
1.263000000000000000e+03 5.165331649780273438e+01 -1.253724956512451172e+01 3.782005478569772094e-06 1.143484610111045185e-06 1.477647060710296500e-06 -1.233909642905928195e-06
1.264000000000000000e+03 5.158002090454101562e+01 -1.362176036834716797e+01 -5.781348136224551126e-06 -7.355422440014081076e-06 -3.941031081922119483e-06 -5.650429102388443425e-07
1.265000000000000000e+03 5.023229598999023438e+01 -1.249792861938476562e+01 -1.905502131194225512e-06 -4.009407348348759115e-06 -1.774472821125527844e-06 1.679834213064168580e-06
1.266000000000000000e+03 5.131227874755859375e+01 -1.132746124267578125e+01 -1.927993025674368255e-06 -2.450884437621425604e-07 -6.519244948322011624e-07 -3.004901714120933320e-07
1.267000000000000000e+03 4.970066070556640625e+01 -1.033884429931640625e+01 1.280975965300967800e-07 1.269869130737788510e-06 4.193900338123057736e-07 1.862331259872007649e-06
1.268000000000000000e+03 5.091000747680664062e+01 -1.005587005615234375e+01 1.890302883111871779e-06 -3.023079671038431115e-07 4.763984691180667141e-07 -1.052485387731394439e-08
1.269000000000000000e+03 5.006283187866210938e+01 -1.145893955230712891e+01 1.631759687370504253e-06 -3.891506423769897083e-07 3.727827220245671924e-07 -8.828708359942538664e-07
1.270000000000000000e+03 4.903896331787109375e+01 -1.250290012359619141e+01 5.003699143912854197e-08 5.393494120653485879e-06 1.633059355299337767e-06 -1.111440496970317326e-06
1.271000000000000000e+03 5.036988830566406250e+01 -1.645147132873535156e+01 2.427984782116254792e-07 3.673879973575822078e-06 1.175003490061499178e-06 -9.491557193541666493e-07
1.272000000000000000e+03 5.200454711914062500e+01 -1.753693199157714844e+01 1.424480160494567826e-06 -1.422386162630573381e-06 6.282114273226113710e-10 -1.682293373050924856e-06
1.273000000000000000e+03 5.350367736816406250e+01 -1.703428459167480469e+01 8.851690154187963344e-07 1.978798991331132129e-06 8.591903792876109947e-07 -2.287104280185303651e-06
1.274000000000000000e+03 5.279618072509765625e+01 -1.421761417388916016e+01 1.425301661583944224e-06 6.345081146719167009e-06 2.331114956177771091e-06 1.637986088098841719e-06
1.275000000000000000e+03 5.520592498779296875e+01 -1.680496025085449219e+01 1.060389081430912483e-06 5.178292667551431805e-06 1.871604467851284426e-06 -1.021764148845250020e-07
1.276000000000000000e+03 5.432247543334960938e+01 -1.694606208801269531e+01 1.353016187977118534e-07 -5.562348633247893304e-06 -1.628114091545285191e-06 2.129107997461687773e-06
1.277000000000000000e+03 5.373053741455078125e+01 -1.520204448699951172e+01 1.526619399783157860e-07 -2.130833536284626462e-06 -5.934514319960726425e-07 -1.904073428704577964e-06
1.278000000000000000e+03 5.625132751464843750e+01 -1.654991340637207031e+01 -8.758316880630445667e-07 -3.449497853580396622e-06 -1.297598828386981040e-06 -6.463373551923723426e-07
1.279000000000000000e+03 5.849060440063476562e+01 -1.577657508850097656e+01 -1.609987748452113010e-06 2.252901225574532873e-07 -4.154092891894833883e-07 -1.223985009346506558e-06
1.280000000000000000e+03 5.910190200805664062e+01 -1.544296073913574219e+01 -7.117401992218219675e-07 -1.952089178303140216e-06 -7.991488359948561992e-07 -2.360645936505534337e-07
1.281000000000000000e+03 5.775817871093750000e+01 -1.632281303405761719e+01 -4.028196087801916292e-07 -6.400444476639677305e-07 -3.128592140910768649e-07 -1.123148877013591118e-06
1.282000000000000000e+03 4.916431045532226562e+01 -9.206613540649414062e+00 -1.660571456341131125e-06 -3.910888153768610209e-06 -1.671437871664238628e-06 -4.614619228959782049e-06
1.283000000000000000e+03 4.905069732666015625e+01 -4.739407539367675781e+00 -1.945475787579198368e-06 -1.326760525444115046e-06 -9.816708370635751635e-07 1.300718508900899906e-06
1.284000000000000000e+03 4.841495513916015625e+01 -8.071032524108886719e+00 2.736790975177427754e-06 1.282835182792041451e-05 4.669542704505147412e-06 5.175730620976537466e-06
1.285000000000000000e+03 4.186587142944335938e+01 1.196787738800048828e+01 2.614797813293989748e-05 2.777342160698026419e-05 1.617642010387498885e-05 -5.719321052310988307e-06
1.286000000000000000e+03 3.957733154296875000e+01 1.350498294830322266e+01 1.684994786046445370e-04 1.744800538290292025e-04 1.028938568197190762e-04 1.068961792043410242e-04
1.287000000000000000e+03 3.847184753417968750e+01 1.507646942138671875e+01 -1.732623350108042359e-04 -1.690472854534164071e-04 -1.026928875944577157e-04 -5.366328696254640818e-05
1.288000000000000000e+03 4.274747085571289062e+01 3.747443389892578125e+01 1.288175932131707668e-03 -1.823013881221413612e-03 -1.604513818165287375e-04 1.760154496878385544e-03
1.289000000000000000e+03 4.602232360839843750e+01 3.738480758666992188e+01 2.524889074265956879e-03 7.557619828730821609e-04 9.841952705755829811e-04 4.329696297645568848e-03
1.290000000000000000e+03 4.304549407958984375e+01 3.233497238159179688e+01 -2.356351818889379501e-03 -1.901640353025868535e-04 -7.639547693543136120e-04 3.561597550287842751e-04
1.291000000000000000e+03 4.354113769531250000e+01 2.844695854187011719e+01 -1.564673730172216892e-03 -5.542792496271431446e-04 -6.356858648359775543e-04 -3.632964799180626869e-04
1.292000000000000000e+03 4.155504989624023438e+01 2.634969520568847656e+01 -6.734268390573561192e-04 1.163082051789388061e-04 -1.671356003498658538e-04 6.247116834856569767e-05
1.293000000000000000e+03 4.223448944091796875e+01 2.364958190917968750e+01 -3.054773842450231314e-04 -9.233930904883891344e-05 -1.193450079881586134e-04 3.311130740257794969e-06
1.294000000000000000e+03 4.152401351928710938e+01 2.247721290588378906e+01 3.173140430590137839e-05 9.530555689707398415e-05 3.811108763329684734e-05 -1.306548219872638583e-04
1.295000000000000000e+03 4.213441467285156250e+01 1.835243415832519531e+01 -4.409376197145320475e-05 1.886998506961390376e-05 -7.567133707198081538e-06 3.440162254264578223e-05
1.296000000000000000e+03 4.271494674682617188e+01 1.964437294006347656e+01 9.442734153708443046e-05 6.950531678739935160e-05 4.917979822494089603e-05 -3.468161958153359592e-05
1.297000000000000000e+03 4.180894470214843750e+01 1.682338333129882812e+01 1.558970325277186930e-05 1.797495315258856863e-05 1.006939692160813138e-05 1.732857708702795208e-05
1.298000000000000000e+03 4.167403411865234375e+01 1.515993976593017578e+01 2.588593633845448494e-05 1.728948336676694453e-05 1.295262609346536919e-05 -9.288494766224175692e-06
1.299000000000000000e+03 4.167103576660156250e+01 1.354349327087402344e+01 -2.201186907768715173e-05 2.693656279006972909e-05 1.477407977290567942e-06 -2.298069574635519530e-07
1.300000000000000000e+03 4.381377792358398438e+01 2.219382667541503906e+01 1.379973400617018342e-04 1.395836297888308764e-04 8.327428804477676749e-05 -1.161349355243146420e-04
1.301000000000000000e+03 4.295685958862304688e+01 2.486952018737792969e+01 -1.204042273457162082e-04 6.554138963110744953e-05 -1.645885276957415044e-05 -2.870428143069148064e-04
1.302000000000000000e+03 4.441568374633789062e+01 2.345692634582519531e+01 -1.885528618004173040e-04 -1.017602116917259991e-04 -8.709392568562179804e-05 1.206885353894904256e-04
1.303000000000000000e+03 4.447430038452148438e+01 2.702095985412597656e+01 1.792338734958320856e-04 9.653071901993826032e-05 8.272937702713534236e-05 -7.925104000605642796e-05
1.304000000000000000e+03 4.496389389038085938e+01 2.824993324279785156e+01 -1.140889944508671761e-03 6.539889727719128132e-04 -1.460702915210276842e-04 -3.956740838475525379e-04
1.305000000000000000e+03 4.490372085571289062e+01 3.217113876342773438e+01 -9.107706137001514435e-04 1.390660763718187809e-03 1.439670595573261380e-04 1.389321114402264357e-04
1.306000000000000000e+03 4.715613174438476562e+01 3.339501571655273438e+01 -4.051501862704753876e-03 1.456471858546137810e-03 -7.785090710967779160e-04 1.026925281621515751e-03
1.307000000000000000e+03 4.295710754394531250e+01 3.474495315551757812e+01 -2.379484649281948805e-04 1.337202731519937515e-03 3.297762887086719275e-04 3.077058121562004089e-03
1.308000000000000000e+03 4.507829666137695312e+01 2.467106056213378906e+01 4.627378075383603573e-05 1.387076626997441053e-04 5.549443449126556516e-05 -1.822154008550569415e-04
1.309000000000000000e+03 4.577119827270507812e+01 2.586788749694824219e+01 -6.019327556714415550e-04 -1.912394218379631639e-04 -2.379516663495451212e-04 -7.300962352019269019e-06
1.310000000000000000e+03 4.643035507202148438e+01 2.718843269348144531e+01 1.662800350459292531e-04 -2.747777398326434195e-05 4.164068013778887689e-05 -7.040030905045568943e-04
1.311000000000000000e+03 4.496274948120117188e+01 3.006243896484375000e+01 -1.958691515028476715e-03 -6.306522409431636333e-04 -7.768031209707260132e-04 1.303777826251462102e-04
1.312000000000000000e+03 4.636500930786132812e+01 3.170201301574707031e+01 -2.891686279326677322e-03 -4.092979070264846087e-04 -9.902952006086707115e-04 4.942638915963470936e-04
1.313000000000000000e+03 4.536407852172851562e+01 3.450357437133789062e+01 -4.903996363282203674e-03 4.433694703038781881e-04 -1.338188070803880692e-03 1.935444306582212448e-03
1.314000000000000000e+03 4.728311920166015625e+01 2.838687705993652344e+01 -1.782086794264614582e-03 -9.740567766129970551e-04 -8.268430829048156738e-04 3.804441075772047043e-04
1.315000000000000000e+03 4.830463027954101562e+01 2.939843177795410156e+01 -4.426088999025523663e-04 7.836377480998635292e-04 1.023086588247679174e-04 -2.151438267901539803e-03
1.316000000000000000e+03 5.026058959960937500e+01 3.156428527832031250e+01 -1.584014971740543842e-03 7.936719339340925217e-04 -2.371029113419353962e-04 -3.973200451582670212e-03
1.317000000000000000e+03 5.135285568237304688e+01 3.237808990478515625e+01 -1.031415443867444992e-02 -7.371894549578428268e-03 -5.305814556777477264e-03 2.531226491555571556e-03
1.318000000000000000e+03 4.856744384765625000e+01 3.447636413574218750e+01 -1.839826232753694057e-03 2.964915707707405090e-03 3.375268715899437666e-04 2.845661714673042297e-03
1.319000000000000000e+03 4.830157852172851562e+01 3.186764717102050781e+01 -3.358946647495031357e-03 1.621367293410003185e-03 -5.212738178670406342e-04 -1.433945843018591404e-03
1.320000000000000000e+03 4.925440979003906250e+01 3.046487617492675781e+01 -3.196183824911713600e-03 -2.847718307748436928e-03 -1.813170616514980793e-03 -1.213487994391471148e-04
1.321000000000000000e+03 6.286679458618164062e+01 3.494376754760742188e+01 2.036963403224945068e-01 1.158450394868850708e-01 9.586241096258163452e-02 -1.361326724290847778e-01
1.322000000000000000e+03 6.577713012695312500e+01 3.353649902343750000e+01 4.514768719673156738e-01 8.069372773170471191e-01 3.775242567062377930e-01 -5.349611639976501465e-01
1.323000000000000000e+03 6.680867004394531250e+01 3.224798202514648438e+01 4.991989433765411377e-01 1.083870649337768555e+00 4.749208986759185791e-01 -7.376614212989807129e-01
1.324000000000000000e+03 6.695840454101562500e+01 -7.783633232116699219e+00 3.843584060668945312e-01 1.734382510185241699e+00 6.356222629547119141e-01 7.557373046875000000e-01
1.325000000000000000e+03 6.935096740722656250e+01 -8.668602943420410156e+00 1.267195045948028564e-01 1.333090186119079590e+00 4.379428923130035400e-01 2.299471348524093628e-01
1.326000000000000000e+03 7.055532836914062500e+01 -1.115700626373291016e+01 3.040693700313568115e-02 7.639042735099792480e-01 2.382933646440505981e-01 -5.799164250493049622e-02
1.327000000000000000e+03 7.217964172363281250e+01 -1.291888141632080078e+01 -3.359841182827949524e-02 3.686122298240661621e-01 1.005041450262069702e-01 -2.384419888257980347e-01
1.328000000000000000e+03 7.348859405517578125e+01 -1.564105224609375000e+01 -8.204482495784759521e-02 1.143508404493331909e-01 9.691806510090827942e-03 -2.823520004749298096e-01
1.329000000000000000e+03 7.526049041748046875e+01 -1.585632133483886719e+01 -5.734026432037353516e-02 -5.175434425473213196e-02 -3.272838145494461060e-02 -2.890118062496185303e-01
1.330000000000000000e+03 6.740731048583984375e+01 -9.254277229309082031e+00 2.963268458843231201e-01 1.410256981849670410e+00 5.119751691818237305e-01 5.404869914054870605e-01
1.331000000000000000e+03 6.705393218994140625e+01 -1.221986484527587891e+01 1.968417614698410034e-01 1.001636743545532227e+00 3.595435321331024170e-01 3.069249391555786133e-01
1.332000000000000000e+03 6.611766815185546875e+01 -1.473789119720458984e+01 1.925611682236194611e-02 7.571544051170349121e-01 2.329231649637222290e-01 2.809790670871734619e-01
1.333000000000000000e+03 6.592792510986328125e+01 -1.659472084045410156e+01 -1.634692549705505371e-01 6.534132957458496094e-01 1.469832062721252441e-01 2.838886082172393799e-01
1.334000000000000000e+03 6.765014648437500000e+01 -1.736996078491210938e+01 -1.818381994962692261e-01 3.686313927173614502e-01 5.603795871138572693e-02 1.347487270832061768e-01
1.335000000000000000e+03 6.578993225097656250e+01 -1.124900817871093750e+01 4.325684010982513428e-01 1.209545969963073730e+00 4.926342964172363281e-01 6.119351387023925781e-01
1.336000000000000000e+03 6.541034698486328125e+01 -1.345648765563964844e+01 1.600182801485061646e-01 8.899767398834228516e-01 3.149985074996948242e-01 4.049877822399139404e-01
1.337000000000000000e+03 6.432715606689453125e+01 -1.400844573974609375e+01 1.820218563079833984e-01 8.342801332473754883e-01 3.048906028270721436e-01 4.799340665340423584e-01
1.338000000000000000e+03 6.261974334716796875e+01 -1.685242271423339844e+01 -2.212710231542587280e-01 7.843765616416931152e-01 1.689316481351852417e-01 2.856443226337432861e-01
1.339000000000000000e+03 6.335497283935546875e+01 -1.730262947082519531e+01 -3.092399835586547852e-01 8.087614178657531738e-01 1.498564183712005615e-01 3.522863388061523438e-01
1.340000000000000000e+03 5.945925521850585938e+01 -1.969098854064941406e+01 -1.098484516143798828e+00 5.436126589775085449e-01 -1.664615422487258911e-01 4.335927963256835938e-01
1.341000000000000000e+03 6.006667327880859375e+01 -2.108784866333007812e+01 -3.634044528007507324e-01 8.626452684402465820e-01 1.497722417116165161e-01 7.763157486915588379e-01
1.342000000000000000e+03 5.812479400634765625e+01 -2.139507102966308594e+01 -5.840960144996643066e-01 3.630601763725280762e-01 -6.631074845790863037e-02 8.083399534225463867e-01
1.343000000000000000e+03 5.807070541381835938e+01 -2.248388862609863281e+01 3.536322414875030518e-01 2.843882143497467041e-01 1.914061307907104492e-01 9.457724094390869141e-01
1.344000000000000000e+03 5.358256530761718750e+01 -2.107962608337402344e+01 -2.962157249450683594e+00 3.923944532871246338e-01 -7.709288597106933594e-01 3.588698804378509521e-01
1.345000000000000000e+03 5.283848571777343750e+01 -2.124300384521484375e+01 -3.138408422470092773e+00 5.285826325416564941e-01 -7.829477787017822266e-01 1.146680265665054321e-01
1.346000000000000000e+03 5.295446777343750000e+01 -2.192113304138183594e+01 -2.023885011672973633e+00 9.028519392013549805e-01 -3.363099396228790283e-01 5.153719186782836914e-01
1.347000000000000000e+03 5.209152984619140625e+01 -2.139092445373535156e+01 -3.206047058105468750e+00 5.542083382606506348e-01 -7.955515980720520020e-01 -2.518519759178161621e-01
1.348000000000000000e+03 5.061006546020507812e+01 -2.165517997741699219e+01 -2.955333709716796875e+00 3.127694725990295410e-01 -7.927692532539367676e-01 -1.111341238021850586e+00
1.349000000000000000e+03 5.218333053588867188e+01 -2.207826232910156250e+01 -2.056717395782470703e+00 1.093423843383789062e+00 -2.889880537986755371e-01 4.561825096607208252e-02
1.350000000000000000e+03 4.856803131103515625e+01 -2.270564651489257812e+01 -9.723406434059143066e-01 -2.744969725608825684e-01 -3.740513026714324951e-01 -1.779963493347167969e+00
1.351000000000000000e+03 4.936291503906250000e+01 -2.390681648254394531e+01 9.021398425102233887e-01 2.614575028419494629e-01 3.490791916847229004e-01 -1.629609107971191406e+00
1.352000000000000000e+03 4.915878677368164062e+01 -2.193091011047363281e+01 -2.312631130218505859e+00 -1.704289913177490234e-01 -7.449180483818054199e-01 -1.617409586906433105e+00
1.353000000000000000e+03 4.773961639404296875e+01 -2.222999572753906250e+01 -1.597867846488952637e+00 -5.308578014373779297e-01 -6.386176943778991699e-01 -1.739396929740905762e+00
1.354000000000000000e+03 4.809867095947265625e+01 -2.349753570556640625e+01 1.312125623226165771e-01 -4.900294244289398193e-01 -1.076450571417808533e-01 -1.735080480575561523e+00
1.355000000000000000e+03 4.964649581909179688e+01 -2.521931648254394531e+01 2.935052871704101562e+00 5.043970346450805664e-01 1.031834959983825684e+00 -8.854711055755615234e-01
1.356000000000000000e+03 4.892121887207031250e+01 -2.591613388061523438e+01 2.516357421875000000e+00 6.825284659862518311e-02 7.753830552101135254e-01 -3.456412553787231445e-01
1.357000000000000000e+03 4.722697448730468750e+01 -2.310029983520507812e+01 -4.764762818813323975e-01 -7.319633364677429199e-01 -3.625319004058837891e-01 -1.711940050125122070e+00
1.358000000000000000e+03 4.262845611572265625e+01 -2.740705299377441406e+01 -1.148847490549087524e-01 -2.546427249908447266e+00 -7.983936071395874023e-01 -3.204665780067443848e-01
1.359000000000000000e+03 3.677865219116210938e+01 -4.097221755981445312e+01 1.007349938154220581e-01 -2.588629722595214844e-01 -4.743839427828788757e-02 -3.507050871849060059e-02
1.360000000000000000e+03 3.502986145019531250e+01 -3.338833618164062500e+01 -4.636440798640251160e-02 -2.254078537225723267e-02 -2.067155763506889343e-02 -5.709182471036911011e-02
1.361000000000000000e+03 3.574038696289062500e+01 -3.817042541503906250e+01 3.056990168988704681e-02 -1.997405141592025757e-01 -5.075118318200111389e-02 -1.016515791416168213e-01
1.362000000000000000e+03 3.254908752441406250e+01 -3.810902023315429688e+01 -8.427538909018039703e-03 -8.093267679214477539e-02 -2.680806629359722137e-02 -4.807760193943977356e-02
1.363000000000000000e+03 3.198056602478027344e+01 -3.283613586425781250e+01 3.129096329212188721e-02 -2.833662787452340126e-03 8.537190034985542297e-03 -1.600923761725425720e-02
1.364000000000000000e+03 2.983846092224121094e+01 -3.464392089843750000e+01 6.356296129524707794e-03 -9.846966713666915894e-03 -1.047201105393469334e-03 1.021802192553877831e-03
1.365000000000000000e+03 2.846364402770996094e+01 -3.417094802856445312e+01 1.076508406549692154e-02 -4.874191712588071823e-03 1.767267705872654915e-03 2.121652010828256607e-03
1.366000000000000000e+03 3.012699890136718750e+01 -3.677782440185546875e+01 -1.158105395734310150e-02 -2.991425059735774994e-02 -1.244859118014574051e-02 -1.067756116390228271e-02
1.367000000000000000e+03 2.748243713378906250e+01 -4.086796951293945312e+01 -1.813340000808238983e-02 -2.249683998525142670e-02 -1.218907255679368973e-02 -9.211971191689372063e-04
1.368000000000000000e+03 3.139922142028808594e+01 -3.500265502929687500e+01 -5.763649009168148041e-03 -2.919483184814453125e-02 -1.048754435032606125e-02 -1.965033635497093201e-02
1.369000000000000000e+03 3.056525993347167969e+01 -3.247419357299804688e+01 3.813562914729118347e-02 -5.426975432783365250e-03 9.812596254050731659e-03 -7.929877378046512604e-03
1.370000000000000000e+03 2.786479187011718750e+01 -3.187721252441406250e+01 3.481039032340049744e-02 -2.827519165293779224e-05 1.043463405221700668e-02 -1.226175576448440552e-03
1.371000000000000000e+03 2.726181030273437500e+01 -3.352389907836914062e+01 2.028149925172328949e-02 2.745948731899261475e-04 6.166828330606222153e-03 4.929866641759872437e-03
1.372000000000000000e+03 2.651837921142578125e+01 -3.163625144958496094e+01 3.140629082918167114e-02 3.677853965200483799e-04 9.532223455607891083e-03 -1.191485556773841381e-03
1.373000000000000000e+03 2.603036499023437500e+01 -3.310398864746093750e+01 2.008529193699359894e-02 -1.765596796758472919e-03 5.495908670127391815e-03 3.224044339731335640e-03
1.374000000000000000e+03 2.248681831359863281e+01 -4.078892135620117188e+01 -1.343107875436544418e-02 3.077982226386666298e-03 -3.105928888544440269e-03 3.838104894384741783e-03
1.375000000000000000e+03 2.391375732421875000e+01 -3.125637817382812500e+01 2.460450865328311920e-02 -5.647195503115653992e-04 7.211937103420495987e-03 8.532972424291074276e-04
1.376000000000000000e+03 2.518785095214843750e+01 -3.144790077209472656e+01 2.824002131819725037e-02 -9.613315924070775509e-04 8.183606900274753571e-03 -7.871567504480481148e-04
1.377000000000000000e+03 2.480207824707031250e+01 -3.286640930175781250e+01 1.860874705016613007e-02 -2.725463127717375755e-03 4.764985293149948120e-03 4.262868314981460571e-03
1.378000000000000000e+03 2.322277450561523438e+01 -3.501469802856445312e+01 3.702265908941626549e-03 -1.871923450380563736e-03 5.491027259267866611e-04 8.218190632760524750e-03
1.379000000000000000e+03 2.293406105041503906e+01 -3.755408096313476562e+01 -6.522637326270341873e-03 -1.908254635054618120e-04 -2.014038851484656334e-03 7.037868257611989975e-03
1.380000000000000000e+03 2.273627471923828125e+01 -3.129489326477050781e+01 2.062435820698738098e-02 1.044775126501917839e-04 6.218650843948125839e-03 1.369902864098548889e-03
1.381000000000000000e+03 2.352182197570800781e+01 -3.242835235595703125e+01 1.853828132152557373e-02 -4.204903962090611458e-04 5.435337312519550323e-03 3.752939170226454735e-03
1.382000000000000000e+03 2.242201232910156250e+01 -3.328120803833007812e+01 1.443417929112911224e-02 -1.287179067730903625e-03 3.944099880754947662e-03 5.580667871981859207e-03
1.383000000000000000e+03 2.147934722900390625e+01 -3.162048530578613281e+01 1.707107201218605042e-02 -1.301013748161494732e-03 4.731017164885997772e-03 3.074853448197245598e-03
1.384000000000000000e+03 1.788575744628906250e+01 -3.470653533935546875e+01 2.838247688487172127e-03 1.825807848945260048e-03 1.399216707795858383e-03 4.902540706098079681e-03
1.385000000000000000e+03 1.988639640808105469e+01 -3.615525436401367188e+01 -5.370042053982615471e-04 3.551753237843513489e-03 9.044246980920433998e-04 6.095898337662220001e-03
1.386000000000000000e+03 1.742350959777832031e+01 -4.063326644897460938e+01 -6.133225280791521072e-03 4.634122364223003387e-03 -4.497309564612805843e-04 1.555507653392851353e-03
1.387000000000000000e+03 2.003029251098632812e+01 -3.202965545654296875e+01 1.287989504635334015e-02 -1.329081278527155519e-04 3.824096173048019409e-03 3.690408542752265930e-03
1.388000000000000000e+03 1.838783264160156250e+01 -3.211321640014648438e+01 1.007003057748079300e-02 1.641176524572074413e-03 3.513362258672714233e-03 2.809291239827871323e-03
1.389000000000000000e+03 1.676157569885253906e+01 -3.171850204467773438e+01 7.024198304861783981e-03 6.745056598447263241e-04 2.309611300006508827e-03 1.268512220121920109e-03
1.390000000000000000e+03 1.460445880889892578e+01 -3.293795776367187500e+01 3.351313760504126549e-03 -4.336305719334632158e-04 8.753049769438803196e-04 2.212526509538292885e-03
1.391000000000000000e+03 1.532914924621582031e+01 -3.123141288757324219e+01 4.263223614543676376e-03 5.391011363826692104e-04 1.440697466023266315e-03 2.516652748454362154e-04
1.392000000000000000e+03 1.395390987396240234e+01 -3.072228813171386719e+01 2.502239309251308441e-03 -4.578013904392719269e-04 6.133313290774822235e-04 -2.047308516921475530e-04
1.393000000000000000e+03 1.171757030487060547e+01 -3.188055992126464844e+01 1.835178351029753685e-03 -1.503533567301928997e-04 5.054475041106343269e-04 8.824118413031101227e-05
1.394000000000000000e+03 7.000598430633544922e+00 -3.173464965820312500e+01 6.653857417404651642e-04 3.975740110035985708e-04 3.188879345543682575e-04 2.225991775048896670e-04
1.395000000000000000e+03 5.398779869079589844e+00 -3.189231872558593750e+01 -1.695889077382162213e-04 4.947601701132953167e-05 -3.603387085604481399e-05 3.246613487135618925e-04
1.396000000000000000e+03 3.922725677490234375e+00 -3.194826889038085938e+01 3.745796275325119495e-04 2.715685113798826933e-04 1.938444474944844842e-04 -5.633247201330959797e-05
1.397000000000000000e+03 1.724536776542663574e+00 -3.265668487548828125e+01 1.855990194599144161e-05 1.005877784336917102e-04 3.574430593289434910e-05 -5.590880755335092545e-05
1.398000000000000000e+03 4.342691302299499512e-01 -3.336146163940429688e+01 -1.690801000222563744e-04 -9.912023961078375578e-05 -8.046010771067813039e-05 -2.773008964140899479e-05
1.399000000000000000e+03 1.236253857612609863e+00 -3.380414199829101562e+01 1.487935264776751865e-06 -9.414532541995868087e-06 -2.377979171797051094e-06 8.173973037628456950e-05
1.400000000000000000e+03 5.421739101409912109e+00 -3.776842117309570312e+01 -1.660793932387605309e-04 1.036361791193485260e-03 2.610847004689276218e-04 3.164120716974139214e-04
1.401000000000000000e+03 1.249083423614501953e+01 -4.077059555053710938e+01 -2.489632461220026016e-03 2.993643982335925102e-03 1.512034214101731777e-04 1.155326841399073601e-03
1.402000000000000000e+03 7.933055400848388672e+00 -4.091451644897460938e+01 -5.804877146147191525e-04 1.390746212564408779e-03 2.430775348329916596e-04 1.045027893269434571e-04
1.403000000000000000e+03 1.183943557739257812e+01 -3.737264251708984375e+01 -2.951248898170888424e-04 2.180448267608880997e-03 5.655970307998359203e-04 1.581320539116859436e-03
1.404000000000000000e+03 8.293287277221679688e+00 -3.778262710571289062e+01 -7.772641838528215885e-04 9.926834609359502792e-04 6.462578312493860722e-05 1.072254613973200321e-03
1.405000000000000000e+03 1.334245395660400391e+01 -3.405721282958984375e+01 3.202499356120824814e-03 8.507483289577066898e-04 1.215974334627389908e-03 2.350403927266597748e-03
1.406000000000000000e+03 1.140166950225830078e+01 -2.920542144775390625e+01 2.432346373097971082e-04 -9.957584552466869354e-05 4.309763971832580864e-05 -5.043800410930998623e-05
1.407000000000000000e+03 1.038515949249267578e+01 -2.804274749755859375e+01 6.469776417361572385e-05 -4.839989196625538170e-05 4.889361662208102643e-06 9.364356083096936345e-05
1.408000000000000000e+03 8.430395126342773438e+00 -2.746655464172363281e+01 3.351708000991493464e-04 3.871713124681264162e-05 1.121663808589801192e-04 1.682331494521349669e-04
1.409000000000000000e+03 7.847551822662353516e+00 -2.603616905212402344e+01 -3.337770467624068260e-04 -6.312471668934449553e-05 -1.190705297631211579e-04 -8.936841186368837953e-05
1.410000000000000000e+03 5.108323574066162109e+00 -2.424411582946777344e+01 -4.661317216232419014e-04 -9.907436469802632928e-05 -1.695618266239762306e-04 2.336018951609730721e-04
1.411000000000000000e+03 4.598357200622558594e+00 -2.273862266540527344e+01 -1.292020024266093969e-04 -9.498021972831338644e-05 -6.725466664647683501e-05 3.009919309988617897e-04
1.412000000000000000e+03 2.107995033264160156e+00 -2.079521942138671875e+01 -4.348298825789242983e-04 2.553888407419435680e-05 -1.227872999152168632e-04 -2.393429099356580991e-07
1.413000000000000000e+03 7.507175207138061523e-01 -1.927522277832031250e+01 -4.567813302855938673e-04 5.791170679003698751e-06 -1.352970430161803961e-04 3.482442843960598111e-05
1.414000000000000000e+03 7.224603295326232910e-01 -2.066979026794433594e+01 5.065841251052916050e-04 -3.549310122252791189e-06 1.509104477008804679e-04 -5.752868310082703829e-05
1.415000000000000000e+03 7.651496529579162598e-01 -2.206854248046875000e+01 -4.884490626864135265e-04 -8.257303534264792688e-07 -1.467824331484735012e-04 7.578562508570030332e-05
1.416000000000000000e+03 2.417150020599365234e+00 -2.359711647033691406e+01 -4.309387004468590021e-04 -2.457346636219881475e-05 -1.366536598652601242e-04 1.123105830629356205e-04
1.417000000000000000e+03 3.800123214721679688e+00 -2.675864601135253906e+01 3.378078399691730738e-04 1.150843527284450829e-04 1.358676672680303454e-04 -2.687292580958455801e-04
1.418000000000000000e+03 7.907028675079345703e+00 -2.959743499755859375e+01 1.082503120414912701e-03 -5.474962108564795926e-06 3.231084265280514956e-04 -2.195747038058470935e-05
1.419000000000000000e+03 8.721531867980957031e+00 -3.149972343444824219e+01 6.456896517192944884e-05 -1.553765177959576249e-04 -2.724226578720845282e-05 7.012555142864584923e-04
1.420000000000000000e+03 1.260534763336181641e+01 -3.012363624572753906e+01 1.334910397417843342e-03 1.685709430603310466e-04 4.510444123297929764e-04 2.874444762710481882e-04
1.421000000000000000e+03 9.495277404785156250e+00 -2.684711074829101562e+01 -8.745781815377995372e-05 -1.105770716094411910e-04 -5.941046765656210482e-05 3.138315878459252417e-05
1.422000000000000000e+03 8.381157875061035156e+00 -2.293905830383300781e+01 1.652959035709500313e-04 5.560731733567081392e-05 6.627096445299685001e-05 1.350559323327615857e-04
1.423000000000000000e+03 8.846859931945800781e+00 -2.556327819824218750e+01 -7.166427735683100764e-07 -4.327202259446494281e-05 -1.319659986620536074e-05 9.547817171551287174e-05
1.424000000000000000e+03 5.555809020996093750e+00 -2.339312362670898438e+01 1.508576824562624097e-04 3.195291355950757861e-05 5.484317807713523507e-05 -3.124703362118452787e-04
1.425000000000000000e+03 3.732313394546508789e+00 -2.179831886291503906e+01 -2.228040539193898439e-04 1.039905400830321014e-04 -3.564405415090732276e-05 -1.204148138640448451e-04
1.426000000000000000e+03 2.146398067474365234e+00 -1.953657531738281250e+01 3.882604069076478481e-04 -3.200766741429106332e-06 1.155178906628862023e-04 -1.673710721661336720e-05
1.427000000000000000e+03 8.925832509994506836e-01 -1.785853195190429688e+01 3.542089252732694149e-04 -1.850780427048448473e-05 1.007103346637450159e-04 -6.686004780931398273e-07
1.428000000000000000e+03 7.089272975921630859e+00 -2.359458923339843750e+01 -1.225071464432403445e-04 -9.337165829492732882e-05 -6.476364069385454059e-05 -1.517407654318958521e-04
1.429000000000000000e+03 5.654375076293945312e+00 -2.186119461059570312e+01 4.505646575125865638e-05 7.074381574057042599e-05 3.474008553894236684e-05 -2.514754887670278549e-04
1.430000000000000000e+03 4.665091514587402344e+00 -1.961114692687988281e+01 -2.444793644826859236e-04 3.923897747881710529e-05 -6.157211464596912265e-05 4.345790330262389034e-06
1.431000000000000000e+03 3.302700757980346680e+00 -1.736307907104492188e+01 7.630304025951772928e-05 -2.833088547049555928e-05 1.439164589100982994e-05 -1.783190527930855751e-04
1.432000000000000000e+03 9.217229485511779785e-01 -1.638644218444824219e+01 -2.473962667863816023e-04 -6.780021067243069410e-06 -7.625288708368316293e-05 -1.560419877932872623e-05
1.433000000000000000e+03 7.371497154235839844e+00 -2.003490829467773438e+01 2.604133042041212320e-04 5.406117998063564301e-05 9.434234380023553967e-05 -1.251799985766410828e-04
1.434000000000000000e+03 7.725442886352539062e+00 -2.185404396057128906e+01 4.100828664377331734e-05 2.071343988063745201e-05 1.851651722972746938e-05 -2.118290576618164778e-04
1.435000000000000000e+03 5.616619110107421875e+00 -2.026187324523925781e+01 1.893957814900204539e-04 -4.864296442974591628e-06 5.535944728762842715e-05 -1.196107696159742773e-04
1.436000000000000000e+03 4.315266609191894531e+00 -1.822232627868652344e+01 -1.060400682035833597e-04 1.079192370525561273e-04 5.637508593281381764e-07 8.896484359866008162e-05
1.437000000000000000e+03 6.961302757263183594e-01 -1.351217269897460938e+01 -2.239595778519287705e-04 -2.223329147454933263e-06 -6.785487494198605418e-05 6.289063549047568813e-06
1.438000000000000000e+03 7.934640049934387207e-01 -1.492115879058837891e+01 2.188948710681870580e-04 6.441935965995071456e-06 6.760103860870003700e-05 1.606253931640821975e-06
1.439000000000000000e+03 8.656056404113769531e+00 -2.081342315673828125e+01 -2.790029684547334909e-04 -9.154040162684395909e-05 -1.111630117520689964e-04 1.613932545296847820e-04
1.440000000000000000e+03 6.623368740081787109e+00 -2.099004173278808594e+01 -1.592592016095295548e-04 -4.569624252326320857e-06 -4.914864621241576970e-05 2.037079248111695051e-04
1.441000000000000000e+03 5.345652103424072266e+00 -1.802082443237304688e+01 -2.962581056635826826e-04 -5.274079012451693416e-05 -1.046996694640256464e-04 4.798751251655630767e-05
1.442000000000000000e+03 4.557405471801757812e+00 -1.541583919525146484e+01 7.765453483443707228e-05 1.309843210037797689e-04 6.259165820665657520e-05 -9.429476631339639425e-05
1.443000000000000000e+03 2.055157184600830078e+00 -1.342025947570800781e+01 1.807958760764449835e-04 2.700212644413113594e-05 6.233940075617283583e-05 2.408022555755451322e-05
1.444000000000000000e+03 6.332572102546691895e-01 -1.213555335998535156e+01 2.409656299278140068e-04 1.881722346297465265e-05 7.793485565343871713e-05 -2.483008029230404645e-05
1.445000000000000000e+03 9.196175575256347656e+00 -1.961639595031738281e+01 2.819630317389965057e-04 9.173309081234037876e-05 1.121088353102095425e-04 -1.323227479588240385e-04
1.446000000000000000e+03 6.633669853210449219e+00 -1.842182731628417969e+01 2.643010520841926336e-04 8.064302528509870172e-05 1.034832239383831620e-04 -8.703889761818572879e-05
1.447000000000000000e+03 5.757399082183837891e+00 -1.605361747741699219e+01 -1.741220912663266063e-04 -1.496007607784122229e-04 -9.711685561342164874e-05 6.883437163196504116e-05
1.448000000000000000e+03 3.695292949676513672e+00 -1.438938522338867188e+01 7.520627696067094803e-05 -1.288945441046962515e-05 1.869504558271728456e-05 4.130711749894544482e-05
1.449000000000000000e+03 1.880953073501586914e+00 -1.214375305175781250e+01 -1.584050478413701057e-04 -4.809133315575309098e-05 -6.194891466293483973e-05 6.428587767004501075e-06
1.450000000000000000e+03 6.297913789749145508e-01 -1.077691173553466797e+01 -2.474945213180035353e-04 -3.859419848595280200e-06 -7.540618389612063766e-05 3.885125624947249889e-05
1.451000000000000000e+03 1.403964424133300781e+01 -4.037403106689453125e+00 -2.875001518987119198e-05 -1.160081774287391454e-05 -1.210524987982353196e-05 -6.929455139470519498e-06
1.452000000000000000e+03 1.519317150115966797e+01 -4.785182476043701172e+00 -3.671906961244530976e-05 -6.891048542456701398e-06 -1.308303581026848406e-05 -9.856180440692696720e-06
1.453000000000000000e+03 1.498381996154785156e+01 -6.211236476898193359e+00 5.162554589333012700e-05 4.441395958565408364e-06 1.682008223724551499e-05 4.030927357234759256e-06
1.454000000000000000e+03 1.660333824157714844e+01 -7.822450160980224609e+00 3.320771793369203806e-05 3.638527687144232914e-06 1.105387309507932514e-05 -1.400567271048203111e-05
1.455000000000000000e+03 1.933636665344238281e+01 -1.022687339782714844e+01 3.562824349501170218e-05 3.027304592251311988e-05 1.977038664335850626e-05 4.957186320098116994e-06
1.456000000000000000e+03 1.978597068786621094e+01 -1.074463272094726562e+01 -6.255110201891511679e-05 1.430761074061592808e-07 -1.872240864031482488e-05 -5.259616955299861729e-06
1.457000000000000000e+03 2.120303726196289062e+01 -1.148919677734375000e+01 1.290356522076763213e-05 3.459647268755361438e-05 1.425001210009213537e-05 1.248839907930232584e-05
1.458000000000000000e+03 2.077803802490234375e+01 -1.093418121337890625e+01 -2.665091233211569488e-05 -3.134515645797364414e-05 -1.739882100082468241e-05 -2.174596556869801134e-05
1.459000000000000000e+03 1.362719821929931641e+01 -4.689604282379150391e+00 3.614109300542622805e-05 1.603146483830641955e-05 1.565176717122085392e-05 5.783586402685614303e-06
1.460000000000000000e+03 1.219499683380126953e+01 -3.005088806152343750e+00 1.829955726861953735e-05 2.339103775739204139e-05 1.250717832590453327e-05 1.225333221555047203e-06
1.461000000000000000e+03 1.151562881469726562e+01 -2.648886680603027344e+00 -1.461060583096696064e-05 -2.820418740157037973e-05 -1.284443806071067229e-05 -2.655100495019269147e-08
1.462000000000000000e+03 1.077394390106201172e+01 -2.299768686294555664e+00 1.557021460030227900e-05 3.374418520252220333e-05 1.479432012274628505e-05 -3.025404339496162720e-06
1.463000000000000000e+03 9.633144378662109375e+00 -3.079079627990722656e+00 -5.991935540805570781e-05 1.640073242015205324e-05 -1.305558635067427531e-05 -4.903856734017608687e-06
1.464000000000000000e+03 9.897515296936035156e+00 -5.160356998443603516e+00 -5.146629700902849436e-05 -2.322246109542902559e-05 -2.240662797703407705e-05 -6.810360900999512523e-06
1.465000000000000000e+03 1.081229877471923828e+01 -6.974927902221679688e+00 6.582970672752708197e-05 3.956590444431640208e-05 3.161868153256364167e-05 -1.871836502687074244e-05
1.466000000000000000e+03 9.321888923645019531e+00 -9.510380744934082031e+00 -1.473636220907792449e-04 1.793885076040169224e-06 -4.367091969470493495e-05 -4.830935722566209733e-06
1.467000000000000000e+03 9.299057006835937500e+00 -1.044265270233154297e+01 1.463147054892033339e-04 2.727082028286531568e-05 5.207565845921635628e-05 -1.420959779352415353e-05
1.468000000000000000e+03 9.942267417907714844e+00 -1.213169288635253906e+01 3.726817885763011873e-05 5.814777614432387054e-05 2.862478686438407749e-05 -5.859955490450374782e-05
1.469000000000000000e+03 9.993256568908691406e+00 -1.474733924865722656e+01 1.381621405016630888e-04 -6.478849536506459117e-05 2.201209463237319142e-05 8.692265691934153438e-05
1.470000000000000000e+03 9.148064613342285156e+00 -1.600978279113769531e+01 2.094186202157288790e-04 2.937407407443970442e-05 7.163780537666752934e-05 -9.060089359991252422e-05
1.471000000000000000e+03 9.780703544616699219e+00 -1.843390464782714844e+01 -3.220833023078739643e-04 -5.630639498122036457e-05 -1.135169077315367758e-04 1.025772216962650418e-04
1.472000000000000000e+03 1.035589504241943359e+01 -1.730090522766113281e+01 4.196437366772443056e-04 3.784040745813399553e-05 1.372452388750389218e-04 -5.816385964863002300e-05
1.473000000000000000e+03 8.403154373168945312e+00 -1.787936019897460938e+01 2.653619740158319473e-04 1.014635417959652841e-04 1.100476583815179765e-04 -6.303814006969332695e-05
1.474000000000000000e+03 1.658148384094238281e+01 -1.029611110687255859e+01 -2.829392906278371811e-05 -1.188749411085154861e-05 -1.205442640639375895e-05 -3.636620385805144906e-05
1.475000000000000000e+03 2.059462356567382812e+01 -1.315113925933837891e+01 2.861906614270992577e-05 7.682941213715821505e-05 3.163454312016256154e-05 -2.397637035755906254e-05
1.476000000000000000e+03 1.926576805114746094e+01 -1.222342205047607422e+01 -1.031734541356854606e-06 2.263854366901796311e-05 6.482042863353854045e-06 1.521990634500980377e-05
1.477000000000000000e+03 2.139113807678222656e+01 -1.387199020385742188e+01 -1.623812568141147494e-05 1.968313154065981507e-05 1.033501234815048520e-06 1.589180669725465123e-06
1.478000000000000000e+03 2.221655845642089844e+01 -1.320826339721679688e+01 -1.148727733379928395e-05 -8.130928108585067093e-06 -5.885461632715305313e-06 1.247581258212449029e-05
1.479000000000000000e+03 2.252753639221191406e+01 -1.428322219848632812e+01 -1.055013672157656401e-05 -2.325997957086656243e-05 -1.014303506963187829e-05 1.678516923675488215e-06
1.480000000000000000e+03 1.662608337402343750e+01 -1.233013534545898438e+01 -1.379961304337484762e-06 6.482852313638431951e-06 1.530867393739754334e-06 3.543635216374241281e-07
1.481000000000000000e+03 1.955921554565429688e+01 -1.329388141632080078e+01 -1.231706210091942921e-05 -8.601440640632063150e-05 -2.949944064312148839e-05 1.932803388626780361e-05
1.482000000000000000e+03 1.677227592468261719e+01 -1.336697387695312500e+01 -5.414242423285031691e-06 -1.022016658680513501e-04 -3.228477362426929176e-05 1.215360225614858791e-05
1.483000000000000000e+03 1.513689136505126953e+01 -1.234352207183837891e+01 6.029164069332182407e-05 2.093814327963627875e-05 2.436893555568531156e-05 1.418670217390172184e-05
1.484000000000000000e+03 1.233943557739257812e+01 -1.102420330047607422e+01 5.810145376017317176e-05 1.202672792715020478e-04 5.351061918190680444e-05 -2.333590964553877711e-05
1.485000000000000000e+03 1.029310607910156250e+01 -9.635639190673828125e+00 9.110073006013408303e-05 1.848765532486140728e-05 3.287651634309440851e-05 4.951959999743849039e-05
1.486000000000000000e+03 9.533561706542968750e+00 -8.708022117614746094e+00 1.356320135528221726e-04 1.028399856295436621e-05 4.377480581752024591e-05 -2.942286300822161138e-06
1.487000000000000000e+03 2.158422470092773438e+01 -1.199124908447265625e+01 -2.969440629385644570e-06 -2.549076089053414762e-05 -8.538060683349613100e-06 -2.069966512863175012e-06
1.488000000000000000e+03 2.027105903625488281e+01 -1.217462158203125000e+01 -2.492912426532711834e-05 -4.475109017221257091e-05 -2.090406451316084713e-05 -3.027099228347651660e-05
1.489000000000000000e+03 1.999047279357910156e+01 -9.718115806579589844e+00 -3.672487218864262104e-05 -1.408271145919570699e-05 -1.524227536719990894e-05 -9.801741725823376328e-06
1.490000000000000000e+03 1.912190818786621094e+01 -8.605306625366210938e+00 -3.096682485193014145e-05 -1.574485577293671668e-05 -1.401350436935899779e-05 -1.096240703191142529e-05
1.491000000000000000e+03 1.846572303771972656e+01 -9.090449333190917969e+00 4.958387580700218678e-05 7.530039511038921773e-06 1.713417441351339221e-05 1.066507775249192491e-05
1.492000000000000000e+03 1.823601913452148438e+01 -7.527717590332031250e+00 -2.825181945809163153e-05 -1.292672459385357797e-05 -1.235356285178568214e-05 -7.617742994625587016e-06
1.493000000000000000e+03 1.728588104248046875e+01 -6.516243457794189453e+00 -3.068518344662152231e-05 -1.071319366019451991e-05 -1.241951304109534249e-05 -9.365274308947846293e-06
1.494000000000000000e+03 1.632316589355468750e+01 -6.454777240753173828e+00 -3.395335079403594136e-05 -9.622740435588639230e-06 -1.307282673224108294e-05 -8.175950824806932360e-06
1.495000000000000000e+03 1.674844932556152344e+01 -6.929907798767089844e+00 3.167089744238182902e-05 9.926519851433113217e-06 1.247922500624554232e-05 2.271111952723003924e-06
1.496000000000000000e+03 1.479368114471435547e+01 -5.344214916229248047e+00 4.353532494860701263e-05 8.370919204025994986e-06 1.557187351863831282e-05 5.601771135843591765e-06
1.497000000000000000e+03 1.534354782104492188e+01 -5.680709362030029297e+00 -4.612566772266291082e-05 -2.869645868486259133e-06 -1.469859489588998258e-05 -9.850581591308582574e-06
1.498000000000000000e+03 1.003015995025634766e+01 -1.983067989349365234e+00 -1.550956767459865659e-05 -3.441996523179113865e-05 -1.497886023571481928e-05 5.951284038019366562e-06
1.499000000000000000e+03 7.768849849700927734e+00 -1.983543992042541504e+00 -8.595463441452011466e-06 2.148807834601029754e-05 3.867784471367485821e-06 1.320970568485790864e-06
1.500000000000000000e+03 7.780202865600585938e+00 -3.403703927993774414e+00 -4.426715895533561707e-05 -4.350315793999470770e-05 -2.633109579619485885e-05 -8.334316589753143489e-06
1.501000000000000000e+03 7.459297657012939453e+00 -4.943693161010742188e+00 -4.091638038516975939e-05 -6.402136932592839003e-05 -3.148132600472308695e-05 -3.931912942789494991e-06
1.502000000000000000e+03 7.554887771606445312e+00 -6.315387725830078125e+00 7.665247721888590604e-06 4.159520176472142339e-05 1.477813475503353402e-05 -2.423861042188946158e-05
1.503000000000000000e+03 6.913261413574218750e+00 -8.980576515197753906e+00 -1.111054007196798921e-04 1.451368825655663386e-05 -2.897751255659386516e-05 -7.083639843585842755e-07
1.504000000000000000e+03 7.955793380737304688e+00 -1.015141296386718750e+01 -1.577083603478968143e-04 -1.946400152519345284e-05 -5.315171074471436441e-05 -1.468679602112388238e-05
1.505000000000000000e+03 8.917250633239746094e+00 -1.267442417144775391e+01 4.823035123990848660e-05 -8.020330278668552637e-05 -9.591886737325694412e-06 1.079657376976683736e-04
1.506000000000000000e+03 8.156055450439453125e+00 -1.620996665954589844e+01 -6.844761082902550697e-05 -1.122494577430188656e-04 -5.420912202680483460e-05 -4.224012286613287870e-07
1.507000000000000000e+03 6.943195819854736328e+00 -1.739599800109863281e+01 -2.581282169558107853e-04 -1.415301667293533683e-04 -1.198975151055492461e-04 1.048135709424968809e-05
1.508000000000000000e+03 6.930082321166992188e+00 -2.051146268844604492e+00 -2.178891554649453610e-05 -1.812395566958002746e-05 -1.197386154672130942e-05 -1.103204795072088018e-05
1.509000000000000000e+03 6.040755748748779297e+00 -2.969076395034790039e+00 -2.755213972704950720e-05 -3.622375152190215886e-05 -1.913276719278655946e-05 -2.722727185755502433e-05
1.510000000000000000e+03 5.951708316802978516e+00 -4.656340122222900391e+00 -2.386752021266147494e-05 -7.117949280655011535e-05 -2.851410499715711921e-05 -4.048691698699258268e-05
1.511000000000000000e+03 5.937890529632568359e+00 -7.141306877136230469e+00 -6.207375008671078831e-06 -4.547008302324684337e-06 -3.226314902349258773e-06 -3.250634836149401963e-05
1.512000000000000000e+03 5.919517517089843750e+00 -9.261371612548828125e+00 -1.922151750477496535e-05 -1.404407885274849832e-05 -9.979678907257039100e-06 1.276901457458734512e-05
1.513000000000000000e+03 6.945794105529785156e+00 -1.351027679443359375e+01 8.774232992436736822e-05 -8.398066711379215121e-05 1.128499548030958977e-06 1.196915400214493275e-04
1.514000000000000000e+03 6.670097351074218750e+00 -1.471260166168212891e+01 9.646800754126161337e-05 -1.009852931019850075e-04 -1.355187350782216527e-06 1.322318858001381159e-04
1.515000000000000000e+03 7.040304660797119141e+00 -1.635955429077148438e+01 2.207583456765860319e-04 1.110960074583999813e-04 9.955630230251699686e-05 -1.189180511573795229e-05
1.516000000000000000e+03 1.994723558425903320e+00 -1.805715203285217285e+00 -2.046446024905890226e-05 -3.762532742257462814e-06 -7.268097760970704257e-06 1.233213424711721018e-05
1.517000000000000000e+03 4.748437106609344482e-01 -2.069434165954589844e+00 -2.957519063784275204e-05 -9.764939932210836560e-06 -1.180203889816766605e-05 -1.004140267468756065e-05
1.518000000000000000e+03 1.741313457489013672e+00 -2.377439498901367188e+00 2.082406172121409327e-05 1.079211051546735689e-05 9.484851943852845579e-06 -1.659572444623336196e-05
1.519000000000000000e+03 3.298655271530151367e+00 -3.657887935638427734e+00 -7.987347635207697749e-05 -3.339487420817022212e-06 -2.496388879080768675e-05 -2.920916449511423707e-05
1.520000000000000000e+03 5.474569320678710938e+00 -6.300643920898437500e+00 7.930019819468725473e-06 3.791190829360857606e-05 1.375257852487266064e-05 4.300858563510701060e-05
1.521000000000000000e+03 5.209544181823730469e+00 -5.473727703094482422e+00 -1.603195778443478048e-05 -6.526353536173701286e-05 -2.438864794385153800e-05 -5.580031574936583638e-05
1.522000000000000000e+03 5.121270179748535156e+00 -4.635896682739257812e+00 3.247278073104098439e-05 6.120200851000845432e-05 2.810243859130423516e-05 5.846807471243664622e-05
1.523000000000000000e+03 4.246492862701416016e+00 -3.744884014129638672e+00 5.939172842772677541e-05 2.300975029356777668e-05 2.472044434398412704e-05 4.376913420855998993e-05
1.524000000000000000e+03 2.557028293609619141e+00 -2.664415121078491211e+00 -4.803617412107996643e-05 3.889451818395173177e-06 -1.324401728197699413e-05 1.031584270094754174e-05
1.525000000000000000e+03 3.448130846023559570e+00 -2.802270650863647461e+00 5.817312558065168560e-05 -2.588752977317199111e-06 1.667531250859610736e-05 1.158338000095682219e-05
1.526000000000000000e+03 7.185880541801452637e-01 -3.907146930694580078e+00 7.688329060329124331e-05 7.527940852014580742e-06 2.532336839067284018e-05 -1.470253846491687000e-05
1.527000000000000000e+03 6.728162765502929688e-01 -5.178124427795410156e+00 -1.069025383912958205e-04 -5.495146069733891636e-06 -3.371930506546050310e-05 8.278352652268949896e-06
1.528000000000000000e+03 3.185226917266845703e+00 -5.527786254882812500e+00 -7.753835961921140552e-05 -2.826650597853586078e-05 -3.174145967932417989e-05 -5.222702384344302118e-05
1.529000000000000000e+03 4.859334468841552734e+00 -7.441886425018310547e+00 2.295006015629041940e-05 1.688795055088121444e-05 1.195140339405043051e-05 3.670584919746033847e-05
1.530000000000000000e+03 2.044779062271118164e+00 -4.339591979980468750e+00 -9.941634925780817866e-05 -4.828747478313744068e-06 -3.127352829324081540e-05 -1.817757402022834867e-05
1.531000000000000000e+03 7.115327119827270508e-01 -6.543602466583251953e+00 1.366077485727146268e-04 1.064786488313984592e-06 4.130175875616259873e-05 -3.857305728161009029e-06
1.532000000000000000e+03 2.357087135314941406e+00 -7.969608783721923828e+00 1.096001433325000107e-04 2.338936064916197211e-05 3.989685137639753520e-05 6.478073919424787164e-05
1.533000000000000000e+03 5.015993118286132812e+00 -9.888551712036132812e+00 4.589986565406434238e-05 -1.016317492030793801e-05 1.072100712917745113e-05 -5.649781451211310923e-05
1.534000000000000000e+03 4.236306190490722656e+00 -8.809685707092285156e+00 1.075802629202371463e-05 1.153915673057781532e-05 6.689154815830988809e-06 4.847556920140050352e-05
1.535000000000000000e+03 8.272218108177185059e-01 -7.980768203735351562e+00 -1.696093822829425335e-04 1.349939452666149009e-06 -5.047783270129002631e-05 5.344256805983604863e-06
1.536000000000000000e+03 3.030126810073852539e+00 -9.256603240966796875e+00 -1.990992313949391246e-05 -1.332134070253232494e-05 -9.969378879759460688e-06 -1.029130507959052920e-04
1.537000000000000000e+03 4.419160366058349609e+00 -1.174146175384521484e+01 -1.027022881316952407e-04 -5.452945697470568120e-05 -4.716952389571815729e-05 -3.653675958048552275e-05
1.538000000000000000e+03 7.762833237648010254e-01 -9.409576416015625000e+00 2.213574334746226668e-04 -8.396719749725889415e-06 6.388821202563121915e-05 -2.427850267849862576e-05
1.539000000000000000e+03 2.806689262390136719e+00 -1.087977695465087891e+01 -1.495805918239057064e-05 -5.418935324996709824e-05 -2.074422445730306208e-05 -3.088961238972842693e-05
1.540000000000000000e+03 4.494444847106933594e+00 -1.291652774810791016e+01 1.269216591026633978e-04 8.372437150683254004e-05 6.319380918284878135e-05 2.631967436172999442e-05
1.541000000000000000e+03 7.921832799911499023e-01 -2.348008918762207031e+01 4.099094076082110405e-04 8.804150638752616942e-06 1.256140676559880376e-04 -8.154383249348029494e-05
1.542000000000000000e+03 2.319499015808105469e+00 -2.507567024230957031e+01 3.717151412274688482e-04 1.555468588776420802e-05 1.161809414043091238e-04 -1.790083479136228561e-04
1.543000000000000000e+03 5.317555427551269531e+00 -2.680331420898437500e+01 -5.087057943455874920e-04 5.145754403201863170e-05 -1.371744729112833738e-04 1.050518330885097384e-04
1.544000000000000000e+03 5.821109771728515625e+00 -2.838000297546386719e+01 6.230101571418344975e-04 3.312924263809691183e-07 1.870024279924109578e-04 -1.035429813782684505e-04
1.545000000000000000e+03 7.770631313323974609e-01 -2.490168952941894531e+01 -3.593788424041122198e-04 -3.492739051580429077e-05 -1.182918713311664760e-04 4.921180516248568892e-05
1.546000000000000000e+03 7.518024444580078125e-01 -2.631546592712402344e+01 3.166145470459014177e-04 -4.552173777483403683e-05 8.132783841574564576e-05 -7.971461309352889657e-05
1.547000000000000000e+03 2.255910634994506836e+00 -2.649392700195312500e+01 -3.329367900732904673e-04 -4.921416984871029854e-05 -1.146452923421747983e-04 1.134286358137615025e-04
1.548000000000000000e+03 3.582546234130859375e+00 -2.807135009765625000e+01 -1.777953439159318805e-04 -4.213573265587911010e-05 -6.597932224394753575e-05 2.371553855482488871e-04
1.549000000000000000e+03 6.492329120635986328e+00 -3.000945663452148438e+01 -1.985686103580519557e-04 -1.280784772461629473e-06 -5.995481842546723783e-05 2.749084960669279099e-04
1.550000000000000000e+03 7.272968292236328125e-01 -2.771782875061035156e+01 -2.580394793767482042e-04 -8.987454930320382118e-05 -1.043742013280279934e-04 5.162322122487239540e-05
1.551000000000000000e+03 3.691205739974975586e+00 -3.053876304626464844e+01 -1.607160666026175022e-04 -1.371473263134248555e-05 -5.232924013398587704e-05 2.637581492308527231e-04
1.552000000000000000e+03 5.082517147064208984e+00 -3.033732032775878906e+01 5.170505028218030930e-04 1.892144791781902313e-04 2.118794945999979973e-04 -3.930741513613611460e-05
1.553000000000000000e+03 7.642796635627746582e-01 -3.060463523864746094e+01 -9.059381409315392375e-05 -1.322911994066089392e-04 -6.686550477752462029e-05 6.556786684086546302e-05
1.554000000000000000e+03 2.257638692855834961e+00 -3.065902137756347656e+01 2.287794632138684392e-04 9.233133459929376841e-05 9.633324225433170795e-05 -9.914005931932479143e-05
1.555000000000000000e+03 4.905764460563659668e-01 -3.454337692260742188e+01 2.236233558505773544e-04 8.624006113677751273e-06 6.967420631553977728e-05 6.902791210450232029e-05
1.556000000000000000e+03 8.698136806488037109e-01 -3.579790878295898438e+01 -1.251681969733908772e-04 9.417727414984256029e-05 -9.297277756559196860e-06 3.021624979737680405e-05
1.557000000000000000e+03 1.061119198799133301e+00 -3.731778717041015625e+01 2.079378027701750398e-04 2.735422749537974596e-04 1.444440276827663183e-04 1.737238198984414339e-04
1.558000000000000000e+03 4.567288875579833984e+00 -4.020191955566406250e+01 3.525599458953365684e-05 9.239315986633300781e-04 2.877562947105616331e-04 1.882192445918917656e-04
1.559000000000000000e+03 9.283128380775451660e-01 -3.883544921875000000e+01 -4.342553438618779182e-04 3.486139466986060143e-04 -2.569241951277945191e-05 -3.215947799617424607e-05
1.560000000000000000e+03 1.110074639320373535e+00 -4.013811111450195312e+01 4.658534016925841570e-04 4.557796928565949202e-04 2.764899400062859058e-04 1.260077260667458177e-04
1.561000000000000000e+03 1.937274456024169922e+00 -4.162812042236328125e+01 -2.605572226457297802e-04 5.505790468305349350e-04 8.700654871063306928e-05 7.997002103365957737e-05
1.562000000000000000e+03 1.735967826843261719e+01 -3.732310867309570312e+01 -2.611815230920910835e-03 3.504262305796146393e-03 2.677341690286993980e-04 5.103062372654676437e-03
1.563000000000000000e+03 1.331686401367187500e+01 -3.234659576416015625e+01 1.882832380943000317e-03 4.400657780934125185e-04 6.968694506213068962e-04 1.213566749356687069e-03
1.564000000000000000e+03 1.459541130065917969e+01 -3.608000946044921875e+01 -1.347076846286654472e-03 1.833021058700978756e-03 1.457832695450633764e-04 3.581510158255696297e-03
1.565000000000000000e+03 3.316241455078125000e+01 -3.559325790405273438e+01 -3.268128633499145508e-02 -4.277017712593078613e-02 -2.263543941080570221e-02 -5.729088187217712402e-02
1.566000000000000000e+03 3.346707916259765625e+01 -3.320972061157226562e+01 7.935251109302043915e-03 -8.739600889384746552e-03 -2.413050387986004353e-04 -3.045497275888919830e-02
1.567000000000000000e+03 4.452249145507812500e+01 -3.866574859619140625e+01 9.617882221937179565e-02 -1.050583124160766602e-01 -2.663848921656608582e-03 1.712502539157867432e-01
1.568000000000000000e+03 4.191070175170898438e+01 -3.740189361572265625e+01 1.740233302116394043e-01 -4.166685044765472412e-01 -7.279355078935623169e-02 3.622664883732795715e-02
1.569000000000000000e+03 3.953676986694335938e+01 -3.233102035522460938e+01 -3.982806503772735596e-01 -5.512127876281738281e-01 -2.848480343818664551e-01 -3.688358962535858154e-01
1.570000000000000000e+03 4.211958312988281250e+01 -3.394679260253906250e+01 1.280214488506317139e-01 -8.332883715629577637e-01 -2.115800827741622925e-01 -3.198066726326942444e-02
1.571000000000000000e+03 4.221215438842773438e+01 -3.233200836181640625e+01 1.320974435657262802e-02 -1.179742097854614258e+00 -3.499597012996673584e-01 -9.257193654775619507e-02
1.572000000000000000e+03 4.340040206909179688e+01 -3.554588699340820312e+01 1.702924221754074097e-01 -4.818812608718872070e-01 -9.347665309906005859e-02 2.044799327850341797e-01
1.573000000000000000e+03 4.459884262084960938e+01 -3.408186340332031250e+01 1.055401116609573364e-01 -4.378351867198944092e-01 -9.968852251768112183e-02 3.991653621196746826e-01
1.574000000000000000e+03 4.436498641967773438e+01 -3.190531539916992188e+01 2.851770259439945221e-02 -6.907758116722106934e-01 -1.986774355173110962e-01 4.077743887901306152e-01
1.575000000000000000e+03 5.183163070678710938e+01 -4.126889419555664062e+01 -2.313536256551742554e-01 6.718719601631164551e-01 1.321555078029632568e-01 9.719234891235828400e-03
1.576000000000000000e+03 4.541405868530273438e+01 -3.279947662353515625e+01 1.038553789258003235e-01 -2.909919917583465576e-01 -5.614098533987998962e-02 5.302354097366333008e-01
1.577000000000000000e+03 4.790185928344726562e+01 -3.699948883056640625e+01 -9.126394987106323242e-02 4.080765545368194580e-01 9.504378587007522583e-02 3.002007603645324707e-01
1.578000000000000000e+03 4.633166122436523438e+01 -3.195829391479492188e+01 9.445314109325408936e-02 2.480323240160942078e-02 3.577691316604614258e-02 6.228157877922058105e-01
1.579000000000000000e+03 4.754808807373046875e+01 -4.140282821655273438e+01 -7.217252999544143677e-02 2.979470491409301758e-01 6.773235648870468140e-02 6.334237754344940186e-02
1.580000000000000000e+03 5.078550720214843750e+01 -3.898132324218750000e+01 -2.045193910598754883e-01 6.645246744155883789e-01 1.380015909671783447e-01 7.923744618892669678e-02
1.581000000000000000e+03 5.029336166381835938e+01 -3.691535568237304688e+01 -1.919265687465667725e-01 7.371263504028320312e-01 1.635599285364151001e-01 1.670155674219131470e-01
1.582000000000000000e+03 4.813781356811523438e+01 -3.311019897460937500e+01 -5.645269900560379028e-02 6.495955586433410645e-01 1.779428571462631226e-01 5.344539284706115723e-01
1.583000000000000000e+03 4.768323516845703125e+01 -3.136375999450683594e+01 8.202211558818817139e-02 5.578643679618835449e-01 1.919659525156021118e-01 6.295435428619384766e-01
1.584000000000000000e+03 4.993158340454101562e+01 -3.297455978393554688e+01 -1.738908439874649048e-01 1.118624567985534668e+00 2.834201157093048096e-01 3.273576200008392334e-01
1.585000000000000000e+03 5.143831253051757812e+01 -3.250042724609375000e+01 -1.487772017717361450e-01 1.404029726982116699e+00 3.765757679939270020e-01 2.648252993822097778e-02
1.586000000000000000e+03 5.308251571655273438e+01 -3.812699890136718750e+01 -2.325889319181442261e-01 8.454460501670837402e-01 1.838571280241012573e-01 -1.079921331256628036e-02
1.587000000000000000e+03 5.229652023315429688e+01 -3.658685302734375000e+01 -2.093224972486495972e-01 8.835457563400268555e-01 2.022669762372970581e-01 2.623096853494644165e-02
1.588000000000000000e+03 5.219839477539062500e+01 -3.490634536743164062e+01 -1.886659860610961914e-01 1.068891406059265137e+00 2.640676498413085938e-01 8.688449859619140625e-03
1.589000000000000000e+03 5.314121627807617188e+01 -3.235216903686523438e+01 4.346492886543273926e-02 1.324846506118774414e+00 4.104934334754943848e-01 -3.220811784267425537e-01
1.590000000000000000e+03 5.508635711669921875e+01 -3.977866363525390625e+01 -2.290674895048141479e-01 7.328177690505981445e-01 1.511250883340835571e-01 -6.799324601888656616e-02
1.591000000000000000e+03 5.624426651000976562e+01 -3.710612106323242188e+01 -1.238277629017829895e-01 7.372791767120361328e-01 1.840354204177856445e-01 -1.767147779464721680e-01
1.592000000000000000e+03 5.407844161987304688e+01 -3.504011917114257812e+01 -9.408272802829742432e-02 9.553103446960449219e-01 2.583682835102081299e-01 -1.482822000980377197e-01
1.593000000000000000e+03 5.531672286987304688e+01 -3.334135055541992188e+01 1.863656044006347656e-01 9.724134206771850586e-01 3.476337194442749023e-01 -3.457295894622802734e-01
1.594000000000000000e+03 5.443505477905273438e+01 -3.045677566528320312e+01 2.006686329841613770e-01 1.141825556755065918e+00 4.027482569217681885e-01 -6.776019930839538574e-01
1.595000000000000000e+03 5.725000381469726562e+01 -3.380155181884765625e+01 3.068795204162597656e-01 7.132157683372497559e-01 3.060285747051239014e-01 -4.420785605907440186e-01
1.596000000000000000e+03 5.588254165649414062e+01 -3.485911178588867188e+01 4.323926195502281189e-02 8.835577964782714844e-01 2.780391275882720947e-01 -2.687290906906127930e-01
1.597000000000000000e+03 5.636904525756835938e+01 -3.250511932373046875e+01 3.671643137931823730e-01 1.102557778358459473e+00 4.409166276454925537e-01 -5.721094608306884766e-01
1.598000000000000000e+03 5.564836502075195312e+01 -3.160575675964355469e+01 4.168149828910827637e-01 1.197264790534973145e+00 4.842239320278167725e-01 -5.066339969635009766e-01
1.599000000000000000e+03 5.855353927612304688e+01 -4.102838134765625000e+01 -1.153707876801490784e-01 5.009320974349975586e-01 1.156683862209320068e-01 -4.647034406661987305e-02
1.600000000000000000e+03 5.871848297119140625e+01 -3.682773590087890625e+01 -1.964402617886662483e-04 4.492483735084533691e-01 1.347155869007110596e-01 -2.453359812498092651e-01
1.601000000000000000e+03 6.011370468139648438e+01 -3.475341415405273438e+01 1.372172776609659195e-02 1.548502128571271896e-02 8.762024343013763428e-03 -5.710022896528244019e-02
1.602000000000000000e+03 5.858090972900390625e+01 -3.466554260253906250e+01 2.083712071180343628e-01 4.193116426467895508e-01 1.883048564195632935e-01 -2.865102887153625488e-01
1.603000000000000000e+03 6.061800003051757812e+01 -3.858829116821289062e+01 -1.495121978223323822e-02 2.795562744140625000e-01 7.938151806592941284e-02 -1.282626092433929443e-01
1.604000000000000000e+03 6.046808624267578125e+01 -3.607906723022460938e+01 8.643380552530288696e-02 8.728479593992233276e-02 5.211558192968368530e-02 -1.345966458320617676e-01
1.605000000000000000e+03 6.151271820068359375e+01 -3.466567993164062500e+01 -8.385980874300003052e-02 1.870811358094215393e-02 -1.954550668597221375e-02 -2.051313221454620361e-02
1.606000000000000000e+03 6.402226257324218750e+01 -3.449024963378906250e+01 -1.174393594264984131e-01 2.211842872202396393e-02 -2.859627828001976013e-02 -1.146589219570159912e-02
1.607000000000000000e+03 6.691107177734375000e+01 -3.395332336425781250e+01 -5.958709120750427246e-02 -3.004359314218163490e-04 -1.796625927090644836e-02 -1.031234487891197205e-02
1.608000000000000000e+03 6.836569213867187500e+01 -3.332874679565429688e+01 -3.643712028861045837e-02 -2.779556903988122940e-03 -1.176500320434570312e-02 -5.660783965140581131e-03
1.609000000000000000e+03 7.073855590820312500e+01 -3.547059631347656250e+01 -9.163809008896350861e-03 4.008485935628414154e-03 -1.546596875414252281e-03 1.352737937122583389e-02
1.610000000000000000e+03 7.347164154052734375e+01 -3.824206542968750000e+01 4.445079714059829712e-03 -4.189661238342523575e-03 7.662557618459686637e-05 1.396050676703453064e-02
1.611000000000000000e+03 7.497183990478515625e+01 -4.049620437622070312e+01 7.276762276887893677e-03 -1.205641496926546097e-02 -1.433895900845527649e-03 5.052942782640457153e-03
1.612000000000000000e+03 7.797346496582031250e+01 -4.167060852050781250e+01 7.819313905201852322e-04 -1.463042851537466049e-02 -4.154548980295658112e-03 1.851628185249865055e-04
1.613000000000000000e+03 6.318122863769531250e+01 -3.539246368408203125e+01 -3.736901283264160156e-02 1.110353972762823105e-03 -1.087759807705879211e-02 -2.174057625234127045e-02
1.614000000000000000e+03 6.732883453369140625e+01 -3.761847686767578125e+01 1.177507732063531876e-02 1.463860739022493362e-02 7.924105040729045868e-03 1.842514239251613617e-02
1.615000000000000000e+03 6.718867492675781250e+01 -3.575757980346679688e+01 -3.208969160914421082e-02 4.404479637742042542e-03 -8.305563591420650482e-03 1.673012226819992065e-02
1.616000000000000000e+03 6.491141510009765625e+01 -3.754466247558593750e+01 1.725496351718902588e-02 3.163554146885871887e-02 1.466715056449174881e-02 -7.097438443452119827e-03
1.617000000000000000e+03 6.536842346191406250e+01 -3.598160934448242188e+01 -2.752448804676532745e-02 5.755408783443272114e-04 -8.084684610366821289e-03 7.440547458827495575e-03
1.618000000000000000e+03 6.390918731689453125e+01 -3.939819335937500000e+01 3.309154137969017029e-02 9.396674484014511108e-02 3.811748698353767395e-02 -2.176452241837978363e-02
1.619000000000000000e+03 7.072257232666015625e+01 -3.903413009643554688e+01 1.456425152719020844e-02 -2.009118441492319107e-03 3.766539972275495529e-03 1.414142549037933350e-02
1.620000000000000000e+03 7.865928649902343750e+01 -4.016422653198242188e+01 1.918538473546504974e-03 -1.419721916317939758e-02 -3.683604067191481590e-03 1.293990644626319408e-03
1.621000000000000000e+03 7.649533843994140625e+01 -3.932856750488281250e+01 8.030841127038002014e-04 -9.998304769396781921e-03 -2.758566290140151978e-03 6.575488485395908356e-03
1.622000000000000000e+03 7.550696563720703125e+01 -3.792383956909179688e+01 2.514613734092563391e-04 -7.627598010003566742e-03 -2.212840830907225609e-03 7.042772136628627777e-03
1.623000000000000000e+03 7.282666015625000000e+01 -3.591397857666015625e+01 -5.444092676043510437e-03 1.922385767102241516e-03 -1.056512002833187580e-03 1.169487461447715759e-02
1.624000000000000000e+03 7.271417236328125000e+01 -3.395603942871093750e+01 -8.593251928687095642e-03 3.139185952022671700e-03 -1.636219909414649010e-03 8.834368549287319183e-03
1.625000000000000000e+03 7.149082183837890625e+01 -3.200722503662109375e+01 -1.081660017371177673e-02 1.895626308396458626e-03 -2.676292089745402336e-03 -2.576493890956044197e-03
1.626000000000000000e+03 6.953762817382812500e+01 -3.230957794189453125e+01 -1.907546445727348328e-02 -8.542780415154993534e-04 -5.978922359645366669e-03 -4.468224477022886276e-03
1.627000000000000000e+03 7.896356964111328125e+01 -3.881393814086914062e+01 -1.616702764295041561e-03 -1.224691886454820633e-02 -4.159086383879184723e-03 2.133208094164729118e-03
1.628000000000000000e+03 7.740528106689453125e+01 -3.705176925659179688e+01 -1.336479908786714077e-03 -8.197477087378501892e-03 -2.860187087208032608e-03 4.667084664106369019e-03
1.629000000000000000e+03 7.616239166259765625e+01 -3.537501144409179688e+01 -2.956231590360403061e-03 -3.508518682792782784e-03 -1.939425012096762657e-03 6.734164897352457047e-03
1.630000000000000000e+03 7.429689025878906250e+01 -3.389236068725585938e+01 -6.274498533457517624e-03 1.452483586035668850e-03 -1.446604495868086815e-03 6.643335334956645966e-03
1.631000000000000000e+03 7.190114593505859375e+01 -3.089956855773925781e+01 -5.771587602794170380e-03 -5.024015554226934910e-04 -1.882196753285825253e-03 -2.281984634464606643e-04
1.632000000000000000e+03 7.147212219238281250e+01 -2.932326889038085938e+01 -1.986214425414800644e-03 -2.792477898765355349e-04 -6.796386442147195339e-04 3.680571971926838160e-04
1.633000000000000000e+03 7.034832763671875000e+01 -3.107899665832519531e+01 -6.359862629324197769e-03 -1.862483448348939419e-03 -2.466703765094280243e-03 -1.167033216916024685e-03
1.634000000000000000e+03 7.922425842285156250e+01 -3.614847183227539062e+01 -1.485048560425639153e-03 -7.221195846796035767e-03 -2.611873438581824303e-03 1.458849175833165646e-03
1.635000000000000000e+03 7.768134307861328125e+01 -3.582429504394531250e+01 1.449897419661283493e-03 -6.138838827610015869e-03 -1.406682422384619713e-03 4.041561391204595566e-03
1.636000000000000000e+03 7.656496429443359375e+01 -3.418646240234375000e+01 -3.025021578650921583e-04 -2.728233579546213150e-03 -9.092207183130085468e-04 4.488294478505849838e-03
1.637000000000000000e+03 7.403700256347656250e+01 -3.246243286132812500e+01 -6.034514401108026505e-03 1.910400111228227615e-03 -1.237234217114746571e-03 4.403217229992151260e-03
1.638000000000000000e+03 7.220032501220703125e+01 -2.936846733093261719e+01 -7.204315625131130219e-04 -6.087338551878929138e-04 -3.987496311310678720e-04 1.301479005633154884e-05
1.639000000000000000e+03 7.246601104736328125e+01 -3.032415580749511719e+01 -3.049325663596391678e-03 8.645565249025821686e-04 -6.554307183250784874e-04 -1.633460284210741520e-03
1.640000000000000000e+03 7.931806945800781250e+01 -3.481210708618164062e+01 1.407388830557465553e-03 -4.777565598487854004e-03 -1.011052983812987804e-03 1.102305832318961620e-03
1.641000000000000000e+03 7.795129394531250000e+01 -3.458740615844726562e+01 -1.997818937525153160e-03 -4.125135950744152069e-03 -1.836886513046920300e-03 3.572203451767563820e-03
1.642000000000000000e+03 7.579830932617187500e+01 -3.119758796691894531e+01 -3.349612234160304070e-03 1.064299503923393786e-04 -9.729546727612614632e-04 2.024919958785176277e-03
1.643000000000000000e+03 7.385965728759765625e+01 -2.979090118408203125e+01 -2.535337349399924278e-03 7.653739303350448608e-04 -5.309890257194638252e-04 -6.055451231077313423e-04
1.644000000000000000e+03 7.412966156005859375e+01 -3.134979629516601562e+01 -7.451149635016918182e-03 1.848614425398409367e-03 -1.680760644376277924e-03 8.420091471634805202e-04
1.645000000000000000e+03 7.940106964111328125e+01 -3.346580505371093750e+01 -1.612611580640077591e-03 -2.443792298436164856e-03 -1.216921140439808369e-03 9.923852048814296722e-04
1.646000000000000000e+03 7.736853790283203125e+01 -3.209832000732421875e+01 -2.400985249551013112e-04 -1.289687352254986763e-03 -4.589357704389840364e-04 1.550614018924534321e-03
1.647000000000000000e+03 7.583203887939453125e+01 -2.934812736511230469e+01 -1.647960976697504520e-03 8.647749200463294983e-05 -4.684450395870953798e-04 2.712580317165702581e-04
1.648000000000000000e+03 7.578944396972656250e+01 -3.028398895263671875e+01 -1.551153953187167645e-03 1.400658948114141822e-04 -4.233264189679175615e-04 8.690162794664502144e-04
1.649000000000000000e+03 7.502342987060546875e+01 -2.935417747497558594e+01 -6.677620112895965576e-04 -3.081976683461107314e-05 -2.095745294354856014e-04 1.830927940318360925e-04
1.650000000000000000e+03 7.953318023681640625e+01 -3.067536735534667969e+01 -1.031295512802898884e-03 -5.105264790472574532e-05 -3.247044514864683151e-04 3.710494202096015215e-04
1.651000000000000000e+03 7.736538696289062500e+01 -2.929303169250488281e+01 -9.937791619449853897e-04 -7.608437590533867478e-05 -3.209590504411607981e-04 2.400685916654765606e-04
1.652000000000000000e+03 7.806390380859375000e+01 -3.020756149291992188e+01 -1.082357135601341724e-03 -3.394263912923634052e-04 -4.265350289642810822e-04 3.500107559375464916e-04
1.653000000000000000e+03 7.961756896972656250e+01 -2.934022140502929688e+01 7.228204049170017242e-04 3.100514004472643137e-04 3.098615561611950397e-04 -1.597886293893679976e-04
1.654000000000000000e+03 7.873609924316406250e+01 -3.040377235412597656e+01 4.140010059927590191e-05 -1.209727633977308869e-05 8.790847459749784321e-06 -4.350569270172854885e-06
1.655000000000000000e+03 6.538763427734375000e+01 -3.439319992065429688e+01 -8.915771543979644775e-02 -1.019430626183748245e-02 -2.980560809373855591e-02 -6.736468523740768433e-03
1.656000000000000000e+03 6.282788467407226562e+01 -3.452282714843750000e+01 -1.241158694028854370e-01 -2.312790043652057648e-02 -4.417312890291213989e-02 -1.814658008515834808e-02
1.657000000000000000e+03 4.788193130493164062e+01 -2.915737533569335938e+01 6.973986029624938965e-01 5.159325599670410156e-01 3.639993369579315186e-01 6.835368275642395020e-01
1.658000000000000000e+03 4.899567794799804688e+01 -3.065883636474609375e+01 1.420800238847732544e-01 1.179857730865478516e+00 3.965813219547271729e-01 6.520180106163024902e-01
1.659000000000000000e+03 5.094046020507812500e+01 -3.015403747558593750e+01 -3.134903684258460999e-02 2.105207443237304688e+00 6.221575140953063965e-01 2.643972635269165039e-01
1.660000000000000000e+03 5.494996261596679688e+01 -2.979420471191406250e+01 2.045612037181854248e-01 7.912721633911132812e-01 2.987500131130218506e-01 -5.556769371032714844e-01
1.661000000000000000e+03 4.941403961181640625e+01 -2.737821197509765625e+01 2.189405918121337891e+00 1.074590325355529785e+00 9.791988730430603027e-01 8.919904828071594238e-01
1.662000000000000000e+03 4.914280319213867188e+01 -2.828373718261718750e+01 1.362454175949096680e+00 1.232812047004699707e+00 7.785798907279968262e-01 9.750750660896301270e-01
1.663000000000000000e+03 4.828408813476562500e+01 -2.820723724365234375e+01 1.269433498382568359e+00 5.209816694259643555e-01 5.371245741844177246e-01 6.563699245452880859e-01
1.664000000000000000e+03 4.820804595947265625e+01 -2.584610939025878906e+01 1.965442061424255371e+00 -3.347498476505279541e-01 4.892076551914215088e-01 -5.458744764328002930e-01
1.665000000000000000e+03 4.879937744140625000e+01 -2.657699584960937500e+01 2.322452068328857422e+00 1.815295368432998657e-01 7.511944770812988281e-01 1.166107952594757080e-01
1.666000000000000000e+03 4.425924301147460938e+01 -2.542783164978027344e+01 2.924629747867584229e-01 -1.431858539581298828e+00 -3.418186604976654053e-01 -9.616253972053527832e-01
1.667000000000000000e+03 4.258852767944335938e+01 -2.602192115783691406e+01 6.965555250644683838e-02 -1.951752781867980957e+00 -5.646291375160217285e-01 -3.248271048069000244e-01
1.668000000000000000e+03 5.888826370239257812e+01 -2.516642761230468750e+01 1.686804294586181641e+00 8.927308917045593262e-01 7.738605141639709473e-01 1.254761934280395508e+00
1.669000000000000000e+03 5.630912780761718750e+01 -2.289944076538085938e+01 5.150319337844848633e-01 -7.735318690538406372e-02 1.313036233186721802e-01 1.247132539749145508e+00
1.670000000000000000e+03 5.446621704101562500e+01 -2.216562080383300781e+01 -8.958192467689514160e-01 4.412026405334472656e-01 -1.363849788904190063e-01 1.223236203193664551e+00
1.671000000000000000e+03 5.758485794067382812e+01 -2.488363647460937500e+01 1.755526065826416016e+00 -1.980693452060222626e-02 5.207157135009765625e-01 9.778404235839843750e-01
1.672000000000000000e+03 7.627656555175781250e+01 -2.077820396423339844e+01 -8.067696541547775269e-02 -2.372736670076847076e-02 -3.132129833102226257e-02 -1.132258176803588867e-01
1.673000000000000000e+03 7.630030059814453125e+01 -2.301490402221679688e+01 -5.575585737824440002e-02 -6.379828788340091705e-03 -1.864070631563663483e-02 -3.782637789845466614e-02
1.674000000000000000e+03 7.255362701416015625e+01 -2.086691474914550781e+01 -2.793457806110382080e-01 9.831525385379791260e-02 -5.430915951728820801e-02 -1.213445514440536499e-01
1.675000000000000000e+03 7.246784210205078125e+01 -1.914857864379882812e+01 -2.175707519054412842e-01 1.143557652831077576e-01 -3.096449561417102814e-02 -1.951657086610794067e-01
1.676000000000000000e+03 7.157701110839843750e+01 -2.012501716613769531e+01 -2.916990816593170166e-01 1.091031283140182495e-01 -5.477878451347351074e-02 -1.453606635332107544e-01
1.677000000000000000e+03 7.184633636474609375e+01 -2.192792320251464844e+01 -3.133929967880249023e-01 8.376574516296386719e-02 -6.888817995786666870e-02 -1.107216812670230865e-03
1.678000000000000000e+03 6.693081665039062500e+01 -1.977565002441406250e+01 -3.002154827117919922e-01 1.866801232099533081e-01 -3.406060487031936646e-02 2.483166307210922241e-01
1.679000000000000000e+03 6.877231597900390625e+01 -2.140874099731445312e+01 -8.073428273200988770e-01 -8.376616984605789185e-02 -2.673327028751373291e-01 1.212858483195304871e-01
1.680000000000000000e+03 6.869761657714843750e+01 -1.963166809082031250e+01 -3.135789334774017334e-01 5.958551913499832153e-02 -7.619801908731460571e-02 2.614833973348140717e-02
1.681000000000000000e+03 6.530494689941406250e+01 -2.214013099670410156e+01 -3.926864638924598694e-02 1.767920553684234619e-01 4.125702008605003357e-02 1.255812942981719971e-01
1.682000000000000000e+03 6.361716079711914062e+01 -2.152942085266113281e+01 1.353532522916793823e-01 4.849675893783569336e-01 1.860962659120559692e-01 6.141145229339599609e-01
1.683000000000000000e+03 6.110200881958007812e+01 -2.161380195617675781e+01 -3.740031644701957703e-02 9.860243797302246094e-01 2.845872342586517334e-01 8.407474160194396973e-01
1.684000000000000000e+03 5.816120910644531250e+01 -2.024874687194824219e+01 -1.307015895843505859e+00 2.802053987979888916e-01 -3.080431222915649414e-01 4.923737049102783203e-01
1.685000000000000000e+03 5.649842453002929688e+01 -2.215336227416992188e+01 -2.153438478708267212e-01 1.363199949264526367e-02 -6.051355600357055664e-02 1.101608037948608398e+00
1.686000000000000000e+03 7.783949279785156250e+01 -2.465550422668457031e+01 -9.364417754113674164e-03 -7.021580822765827179e-03 -4.915799479931592941e-03 -4.768206737935543060e-03
1.687000000000000000e+03 7.053609466552734375e+01 -1.935741043090820312e+01 -2.867668271064758301e-01 1.286617368459701538e-01 -4.743152856826782227e-02 -1.267206221818923950e-01
1.688000000000000000e+03 6.781995391845703125e+01 -1.890414428710937500e+01 -2.930844128131866455e-01 1.624512523412704468e-01 -3.918994963169097900e-02 1.285430043935775757e-01
1.689000000000000000e+03 5.964817810058593750e+01 -2.189307403564453125e+01 -5.035354569554328918e-02 7.394052147865295410e-01 2.067154943943023682e-01 8.365440964698791504e-01
1.690000000000000000e+03 7.924503326416015625e+01 -2.076796340942382812e+01 -6.660634651780128479e-03 -6.455501914024353027e-02 -2.136469632387161255e-02 -2.922099269926548004e-02
1.691000000000000000e+03 7.132476043701171875e+01 -1.837827682495117188e+01 -2.109912484884262085e-01 1.696823239326477051e-01 -1.239267643541097641e-02 -1.913907825946807861e-01
1.692000000000000000e+03 7.423205566406250000e+01 -1.641181564331054688e+01 -9.256020188331604004e-02 4.795379564166069031e-02 -1.338192168623209000e-02 -2.850411236286163330e-01
1.693000000000000000e+03 7.257441711425781250e+01 -1.478118515014648438e+01 -7.525357604026794434e-02 2.268470078706741333e-01 4.547803103923797607e-02 -2.619598805904388428e-01
1.694000000000000000e+03 7.046307373046875000e+01 -1.307956218719482422e+01 -1.266644150018692017e-02 5.991376638412475586e-01 1.759413629770278931e-01 -1.112399995326995850e-01
1.695000000000000000e+03 6.857448577880859375e+01 -1.034077644348144531e+01 1.352066397666931152e-01 1.132725834846496582e+00 3.803797364234924316e-01 2.251125574111938477e-01
1.696000000000000000e+03 6.637233734130859375e+01 -8.948847770690917969e+00 3.842826783657073975e-01 1.536727666854858398e+00 5.763030648231506348e-01 7.560295462608337402e-01
1.697000000000000000e+03 7.065510559082031250e+01 -1.491322231292724609e+01 -7.699846476316452026e-02 4.080218374729156494e-01 9.930700808763504028e-02 -1.533964425325393677e-01
1.698000000000000000e+03 6.792065429687500000e+01 -1.248373699188232422e+01 1.139807775616645813e-01 8.934998512268066406e-01 3.022441864013671875e-01 1.803564727306365967e-01
1.699000000000000000e+03 6.713720703125000000e+01 -1.129745388031005859e+01 2.323754876852035522e-01 1.130413055419921875e+00 4.088365435600280762e-01 3.863942921161651611e-01
1.700000000000000000e+03 7.096191406250000000e+01 -1.667153358459472656e+01 -1.410636901855468750e-01 2.707469761371612549e-01 3.890498727560043335e-02 -1.790150403976440430e-01
1.701000000000000000e+03 6.873175811767578125e+01 -1.523064899444580078e+01 -6.952432543039321899e-02 5.463305711746215820e-01 1.430418789386749268e-01 2.748685330152511597e-02
1.702000000000000000e+03 6.633979797363281250e+01 -1.328371047973632812e+01 9.311582148075103760e-02 8.895333409309387207e-01 2.947947382926940918e-01 3.125305175781250000e-01
1.703000000000000000e+03 6.922776794433593750e+01 -1.695394515991210938e+01 -1.568539291620254517e-01 3.453009128570556641e-01 5.653409287333488464e-02 -4.249509051442146301e-02
1.704000000000000000e+03 6.815570068359375000e+01 -1.636364936828613281e+01 -1.038901433348655701e-01 4.548347294330596924e-01 1.052833795547485352e-01 7.325643301010131836e-02
1.705000000000000000e+03 6.632438659667968750e+01 -1.589018249511718750e+01 -8.113691210746765137e-02 6.564776301383972168e-01 1.726022064685821533e-01 2.603465020656585693e-01
1.706000000000000000e+03 6.554545593261718750e+01 -1.736823081970214844e+01 -2.089230269193649292e-01 6.256107687950134277e-01 1.250063180923461914e-01 3.433217704296112061e-01
1.707000000000000000e+03 6.511298370361328125e+01 -1.623791885375976562e+01 -1.065891012549400330e-01 7.090353965759277344e-01 1.807338893413543701e-01 3.279260098934173584e-01
1.708000000000000000e+03 6.430969238281250000e+01 -1.584159183502197266e+01 -6.828615814447402954e-02 7.549858689308166504e-01 2.060099095106124878e-01 3.567982017993927002e-01
1.709000000000000000e+03 7.565425109863281250e+01 -1.279045009613037109e+01 -2.872548997402191162e-02 -1.510718762874603271e-01 -5.393920838832855225e-02 -3.251784741878509521e-01
1.710000000000000000e+03 7.353852081298828125e+01 -1.408198642730712891e+01 -4.680059850215911865e-02 1.608625352382659912e-01 3.421857953071594238e-02 -2.992027103900909424e-01
1.711000000000000000e+03 7.171090698242187500e+01 -1.570995807647705078e+01 -9.598276019096374512e-02 2.704765796661376953e-01 5.234814435243606567e-02 -2.230791598558425903e-01
1.712000000000000000e+03 6.557819366455078125e+01 -1.547628593444824219e+01 -6.083980202674865723e-02 7.367935776710510254e-01 2.027861326932907104e-01 3.124610781669616699e-01
1.713000000000000000e+03 6.459911346435546875e+01 -1.324984169006347656e+01 2.105392366647720337e-01 9.481959342956542969e-01 3.476205468177795410e-01 5.093383193016052246e-01
1.714000000000000000e+03 7.819811248779296875e+01 -1.287700843811035156e+01 -4.300257656723260880e-03 -6.031558513641357422e-01 -1.822368353605270386e-01 -1.860039234161376953e-01
1.715000000000000000e+03 7.354508209228515625e+01 -1.212718200683593750e+01 -2.545173652470111847e-02 2.283740192651748657e-01 6.087668240070343018e-02 -3.083757758140563965e-01
1.716000000000000000e+03 7.151144409179687500e+01 -1.391693496704101562e+01 -4.158434271812438965e-02 3.882873654365539551e-01 1.040109097957611084e-01 -2.091916948556900024e-01
1.717000000000000000e+03 6.952413940429687500e+01 -1.216886997222900391e+01 5.125675350427627563e-02 7.891972064971923828e-01 2.521362006664276123e-01 1.375231519341468811e-02
1.718000000000000000e+03 6.512180328369140625e+01 -1.263971042633056641e+01 2.320763021707534790e-01 9.860369563102722168e-01 3.654339909553527832e-01 4.728089869022369385e-01
1.719000000000000000e+03 7.779197692871093750e+01 -1.176555538177490234e+01 -8.707096800208091736e-03 -5.983691215515136719e-01 -1.821228712797164917e-01 -2.357024103403091431e-01
1.720000000000000000e+03 7.608337402343750000e+01 -1.188868522644042969e+01 -1.473332196474075317e-02 -2.502218782901763916e-01 -7.948656380176544189e-02 -3.234093189239501953e-01
1.721000000000000000e+03 7.225387573242187500e+01 -9.118085861206054688e+00 1.151572261005640030e-02 6.710210442543029785e-01 2.047610282897949219e-01 -1.906093508005142212e-01
1.722000000000000000e+03 7.270552825927734375e+01 -1.073379707336425781e+01 -9.308869950473308563e-03 4.547584354877471924e-01 1.336348652839660645e-01 -2.478962540626525879e-01
1.723000000000000000e+03 6.980326080322265625e+01 -1.000986957550048828e+01 8.746396005153656006e-02 1.003444194793701172e+00 3.272724449634552002e-01 7.148402929306030273e-02
1.724000000000000000e+03 7.158158111572265625e+01 -1.018591403961181641e+01 1.876409910619258881e-02 7.130970358848571777e-01 2.195583283901214600e-01 -1.474734246730804443e-01
1.725000000000000000e+03 6.587023925781250000e+01 -1.009620952606201172e+01 4.265137016773223877e-01 1.369048118591308594e+00 5.386685132980346680e-01 7.185074687004089355e-01
1.726000000000000000e+03 6.461606597900390625e+01 -1.170711135864257812e+01 5.642022490501403809e-01 1.131183147430419922e+00 5.086156129837036133e-01 7.291027903556823730e-01
1.727000000000000000e+03 7.756524658203125000e+01 -9.676993370056152344e+00 -1.160381175577640533e-02 -6.896460652351379395e-01 -2.103749662637710571e-01 -2.442549020051956177e-01
1.728000000000000000e+03 7.492470550537109375e+01 -8.979145050048828125e+00 -2.251181984320282936e-03 2.874166239053010941e-03 1.868952822405844927e-04 -3.441395163536071777e-01
1.729000000000000000e+03 7.172615051269531250e+01 -7.597037315368652344e+00 3.133071586489677429e-02 9.418477416038513184e-01 2.919535338878631592e-01 -1.040268018841743469e-01
1.730000000000000000e+03 7.039643859863281250e+01 -8.339889526367187500e+00 8.676811307668685913e-02 1.193670272827148438e+00 3.841315209865570068e-01 8.614522218704223633e-02
1.731000000000000000e+03 6.837480163574218750e+01 -9.187360763549804688e+00 2.068958133459091187e-01 1.341934680938720703e+00 4.646491408348083496e-01 3.734150826930999756e-01
1.732000000000000000e+03 7.792713928222656250e+01 -7.068589687347412109e+00 1.609561778604984283e-02 -1.005911231040954590e+00 -2.969446778297424316e-01 -2.282675653696060181e-01
1.733000000000000000e+03 7.561967468261718750e+01 -7.093140125274658203e+00 6.756513379514217377e-03 -1.912791728973388672e-01 -5.535679683089256287e-02 -3.474962115287780762e-01
1.734000000000000000e+03 7.424444580078125000e+01 -7.538792610168457031e+00 8.389194495975971222e-03 2.697807848453521729e-01 8.345098793506622314e-02 -3.215470016002655029e-01
1.735000000000000000e+03 7.275321960449218750e+01 -8.080911636352539062e+00 1.002231333404779434e-02 6.476247906684875488e-01 1.972941160202026367e-01 -2.136528789997100830e-01
1.736000000000000000e+03 7.788191986083984375e+01 -5.795561790466308594e+00 2.328859269618988037e-02 -1.103870153427124023e+00 -3.241744637489318848e-01 -2.234433293342590332e-01
1.737000000000000000e+03 7.393473052978515625e+01 -5.192138671875000000e+00 5.870816856622695923e-02 5.520594716072082520e-01 1.832302957773208618e-01 -2.625325620174407959e-01
1.738000000000000000e+03 7.112808227539062500e+01 -6.037745475769042969e+00 9.488708525896072388e-02 1.372668743133544922e+00 4.402667582035064697e-01 6.014701724052429199e-02
1.739000000000000000e+03 7.592214965820312500e+01 -3.945871829986572266e+00 4.056271910667419434e-02 -2.910888195037841797e-01 -7.515783607959747314e-02 -3.030729889869689941e-01
1.740000000000000000e+03 7.332770538330078125e+01 -4.422874450683593750e+00 7.428590953350067139e-02 8.254449367523193359e-01 2.699192464351654053e-01 -2.168584614992141724e-01
1.741000000000000000e+03 7.198585510253906250e+01 -4.034761428833007812e+00 9.591577947139739990e-02 1.447210431098937988e+00 4.629378616809844971e-01 -1.684303581714630127e-02
1.742000000000000000e+03 7.518691253662109375e+01 -2.963020563125610352e+00 4.890188202261924744e-02 2.724054828286170959e-02 2.284272946417331696e-02 -2.932491004467010498e-01
1.743000000000000000e+03 7.336305999755859375e+01 -2.867764711380004883e+00 1.051606312394142151e-01 9.260096549987792969e-01 3.093510866165161133e-01 -1.875976175069808960e-01
1.744000000000000000e+03 7.225025939941406250e+01 -2.196356773376464844e+00 1.395862549543380737e-01 1.569449067115783691e+00 5.127106308937072754e-01 -4.895213618874549866e-02
1.745000000000000000e+03 7.098741149902343750e+01 -1.727979540824890137e+00 1.524258404970169067e-01 2.429253339767456055e+00 7.745037674903869629e-01 2.800242602825164795e-01
1.746000000000000000e+03 7.728472137451171875e+01 -9.599800109863281250e-01 3.808487579226493835e-02 -1.065004587173461914e+00 -3.080759048461914062e-01 -1.825047731399536133e-01
1.747000000000000000e+03 7.414836120605468750e+01 -2.424528449773788452e-02 2.026527822017669678e-01 7.498630285263061523e-01 2.857547402381896973e-01 -1.594084352254867554e-01
1.748000000000000000e+03 7.294731140136718750e+01 -5.224079638719558716e-02 1.852136254310607910e-01 1.428933501243591309e+00 4.842441380023956299e-01 -7.507430016994476318e-02
1.749000000000000000e+03 6.969407653808593750e+01 -1.261560201644897461e+00 1.929048895835876465e-01 3.169223785400390625e+00 1.008638620376586914e+00 6.981613039970397949e-01
1.750000000000000000e+03 7.542369079589843750e+01 1.118166685104370117e+00 1.260282099246978760e-01 -3.767637535929679871e-02 2.650555223226547241e-02 -1.367129087448120117e-01
1.751000000000000000e+03 7.255747985839843750e+01 1.144414663314819336e+00 2.849712073802947998e-01 1.879611730575561523e+00 6.493749022483825684e-01 5.563978571444749832e-03
1.752000000000000000e+03 7.656077575683593750e+01 3.133152246475219727e+00 1.159960702061653137e-01 -7.330172061920166016e-01 -1.851063370704650879e-01 -6.829729676246643066e-02
1.753000000000000000e+03 7.546489715576171875e+01 2.086363315582275391e+00 1.414910107851028442e-01 1.201791316270828247e-02 4.605267941951751709e-02 -1.000692620873451233e-01
1.754000000000000000e+03 7.448257446289062500e+01 2.112323284149169922e+00 1.602566093206405640e-01 6.064482331275939941e-01 2.300114631652832031e-01 -6.080461293458938599e-02
1.755000000000000000e+03 7.221853637695312500e+01 2.584967613220214844e+00 2.715909481048583984e-01 2.222850561141967773e+00 7.483324408531188965e-01 1.045814752578735352e-01
1.756000000000000000e+03 7.506570434570312500e+01 4.364515304565429688e+00 1.284413188695907593e-01 3.225256502628326416e-01 1.352900862693786621e-01 -1.983714662492275238e-02
1.757000000000000000e+03 7.488523101806640625e+01 5.626523494720458984e+00 1.334117203950881958e-01 4.486405849456787109e-01 1.746156811714172363e-01 5.359792709350585938e-02
1.758000000000000000e+03 7.311092376708984375e+01 7.150366783142089844e+00 5.786768719553947449e-02 1.577297329902648926e+00 4.905495047569274902e-01 2.649705298244953156e-02
1.759000000000000000e+03 7.504009246826171875e+01 9.370140075683593750e+00 -4.081011563539505005e-02 3.289339840412139893e-01 8.643715828657150269e-02 8.788368850946426392e-02
1.760000000000000000e+03 7.384608459472656250e+01 9.640830993652343750e+00 -5.687867105007171631e-02 1.152770876884460449e+00 3.287676572799682617e-01 6.844150274991989136e-02
1.761000000000000000e+03 7.643312072753906250e+01 1.164560317993164062e+01 -2.952077053487300873e-02 -5.431125164031982422e-01 -1.717899888753890991e-01 4.383841902017593384e-02
1.762000000000000000e+03 7.393016815185546875e+01 1.082429885864257812e+01 -1.007650345563888550e-01 1.112141609191894531e+00 3.034129738807678223e-01 3.941747546195983887e-02
1.763000000000000000e+03 7.269538879394531250e+01 1.110260868072509766e+01 -1.376438885927200317e-01 1.819871902465820312e+00 5.046684145927429199e-01 -5.222707055509090424e-03
1.764000000000000000e+03 6.984458160400390625e+01 1.144094371795654297e+01 -1.586447060108184814e-01 2.726801872253417969e+00 7.704471945762634277e-01 -3.823278099298477173e-02
1.765000000000000000e+03 7.751106262207031250e+01 1.314098358154296875e+01 7.165563758462667465e-03 -1.277131319046020508e+00 -3.809897303581237793e-01 2.329749241471290588e-02
1.766000000000000000e+03 7.622364044189453125e+01 1.295498943328857422e+01 -1.420776639133691788e-02 -4.506723284721374512e-01 -1.394640356302261353e-01 1.661626622080802917e-02
1.767000000000000000e+03 7.495148468017578125e+01 1.275040531158447266e+01 -4.796612635254859924e-02 4.016649425029754639e-01 1.061096489429473877e-01 2.563729649409651756e-03
1.768000000000000000e+03 6.994417572021484375e+01 1.282808876037597656e+01 -3.060070797801017761e-02 3.090002775192260742e+00 9.178206324577331543e-01 1.363055557012557983e-01
1.769000000000000000e+03 7.454246520996093750e+01 1.528317737579345703e+01 -2.446871250867843628e-02 5.360604524612426758e-01 1.534775197505950928e-01 -3.008268028497695923e-02
1.770000000000000000e+03 7.011489105224609375e+01 1.567647075653076172e+01 8.883249945938587189e-03 3.480618476867675781e+00 1.046850562095642090e+00 1.777979172766208649e-02
1.771000000000000000e+03 7.673717498779296875e+01 1.575480175018310547e+01 1.250625681132078171e-02 -7.803801894187927246e-01 -2.303621917963027954e-01 -3.486808761954307556e-02
1.772000000000000000e+03 7.167889404296875000e+01 1.566793441772460938e+01 6.284262239933013916e-02 2.360478639602661133e+00 7.269963622093200684e-01 3.863984718918800354e-02
1.773000000000000000e+03 7.611490631103515625e+01 1.766130638122558594e+01 2.432380989193916321e-02 -3.656654357910156250e-01 -1.024024859070777893e-01 -1.592500339029356837e-04
1.774000000000000000e+03 7.486183166503906250e+01 1.926921081542968750e+01 2.060912176966667175e-02 3.558686375617980957e-01 1.129433289170265198e-01 5.580088123679161072e-03
1.775000000000000000e+03 7.296414947509765625e+01 1.766217994689941406e+01 2.940049581229686737e-02 1.580590724945068359e+00 4.829973578453063965e-01 8.291970938444137573e-03
1.776000000000000000e+03 7.770774841308593750e+01 2.069556427001953125e+01 3.568314248695969582e-03 -1.366115212440490723e+00 -4.087640643119812012e-01 3.302777186036109924e-02
1.777000000000000000e+03 7.494211578369140625e+01 2.053066635131835938e+01 4.983210191130638123e-02 2.777680158615112305e-01 9.828003495931625366e-02 2.165311574935913086e-02
1.778000000000000000e+03 7.121855163574218750e+01 2.005446815490722656e+01 3.305876161903142929e-03 2.710668325424194336e+00 8.141922354698181152e-01 -1.860555447638034821e-02
1.779000000000000000e+03 7.626107788085937500e+01 2.196736907958984375e+01 5.057050660252571106e-02 -5.085189342498779297e-01 -1.373845338821411133e-01 4.721342399716377258e-02
1.780000000000000000e+03 7.491001892089843750e+01 2.182997131347656250e+01 7.663717120885848999e-02 3.007499873638153076e-01 1.132161542773246765e-01 3.690721839666366577e-02
1.781000000000000000e+03 7.362401580810546875e+01 2.167619323730468750e+01 8.807823807001113892e-02 1.137705326080322266e+00 3.677350580692291260e-01 -7.251009810715913773e-03
1.782000000000000000e+03 7.237066650390625000e+01 2.152144622802734375e+01 5.553534626960754395e-02 1.973890185356140137e+00 6.088276505470275879e-01 -5.259660258889198303e-02
1.783000000000000000e+03 6.994370269775390625e+01 2.132802391052246094e+01 -1.159091293811798096e-02 3.492839813232421875e+00 1.044374585151672363e+00 -2.267461083829402924e-02
1.784000000000000000e+03 7.765040588378906250e+01 2.352106666564941406e+01 3.891623020172119141e-02 -1.326504826545715332e+00 -3.862765729427337646e-01 8.322568237781524658e-02
1.785000000000000000e+03 7.605536651611328125e+01 2.477960777282714844e+01 9.633804857730865479e-02 -4.092617630958557129e-01 -9.387711435556411743e-02 1.276625692844390869e-01
1.786000000000000000e+03 7.456390380859375000e+01 2.460601425170898438e+01 1.488615423440933228e-01 4.512997567653656006e-01 1.800483912229537964e-01 9.298072010278701782e-02
1.787000000000000000e+03 7.304021453857421875e+01 2.759647750854492188e+01 1.984356641769409180e-01 1.075851678848266602e+00 3.822862207889556885e-01 1.362661570310592651e-01
1.788000000000000000e+03 7.146232604980468750e+01 2.788936614990234375e+01 3.257817029953002930e-01 1.796199798583984375e+00 6.365944147109985352e-01 -9.294927120208740234e-02
1.789000000000000000e+03 7.824385833740234375e+01 3.167034149169921875e+01 3.321333229541778564e-02 -1.137654900550842285e+00 -3.313324749469757080e-01 2.756812870502471924e-01
1.790000000000000000e+03 7.513223266601562500e+01 3.219198989868164062e+01 2.428522333502769470e-03 -1.057515013962984085e-02 -2.443988341838121414e-03 3.649906218051910400e-01
1.791000000000000000e+03 7.161763763427734375e+01 3.316742324829101562e+01 -7.303767651319503784e-02 9.572182297706604004e-01 2.652541697025299072e-01 1.687253266572952271e-01
1.792000000000000000e+03 6.773175048828125000e+01 3.114859771728515625e+01 6.474025249481201172e-01 1.490780353546142578e+00 6.414548754692077637e-01 -9.450020194053649902e-01
1.793000000000000000e+03 6.874177551269531250e+01 3.208239746093750000e+01 1.434548646211624146e-01 1.699500083923339844e+00 5.528864860534667969e-01 -4.631232023239135742e-01
1.794000000000000000e+03 7.524836730957031250e+01 3.537026214599609375e+01 -1.153925135731697083e-01 -2.348543517291545868e-02 -4.166338592767715454e-02 3.074701428413391113e-01
1.795000000000000000e+03 6.909283447265625000e+01 3.374113845825195312e+01 -4.533445835113525391e-02 1.251438021659851074e+00 3.618310689926147461e-01 -1.440888941287994385e-01
1.796000000000000000e+03 6.429518890380859375e+01 3.462542343139648438e+01 3.949909508228302002e-01 5.090254545211791992e-01 2.712049186229705811e-01 -4.138725101947784424e-01
1.797000000000000000e+03 7.407433319091796875e+01 3.635973739624023438e+01 -1.665143519639968872e-01 2.300481498241424561e-01 1.906014047563076019e-02 2.747526466846466064e-01
1.798000000000000000e+03 7.029120635986328125e+01 3.377783966064453125e+01 -7.385937124490737915e-02 1.044008851051330566e+00 2.910448312759399414e-01 2.316606114618480206e-04
1.799000000000000000e+03 6.163357162475585938e+01 3.693269729614257812e+01 7.222770154476165771e-02 1.530549377202987671e-01 6.758479028940200806e-02 -1.770687252283096313e-01
1.800000000000000000e+03 6.075602340698242188e+01 3.528942871093750000e+01 -6.641396135091781616e-02 1.379148196429014206e-02 -1.578674465417861938e-02 -1.638515852391719818e-02
1.801000000000000000e+03 6.176644897460937500e+01 3.495676040649414062e+01 4.571561142802238464e-02 -6.400480866432189941e-03 1.179453916847705841e-02 -2.478866651654243469e-02
1.802000000000000000e+03 4.085004806518554688e+01 2.929646110534667969e+01 -5.584785249084234238e-04 3.972566046286374331e-04 -4.836658263229764998e-05 3.949470992665737867e-04
1.803000000000000000e+03 4.016995620727539062e+01 2.770093917846679688e+01 -4.423696955200284719e-04 -9.369431063532829285e-05 -1.608191960258409381e-04 -9.246153786079958081e-05
1.804000000000000000e+03 4.076045989990234375e+01 2.515133857727050781e+01 -1.274598325835540891e-04 1.221697166329249740e-04 -1.587031533745175693e-06 -1.045798198902048171e-04
1.805000000000000000e+03 3.997999191284179688e+01 2.408847045898437500e+01 -3.171052958350628614e-04 -8.833493484416976571e-05 -1.216320670209825039e-04 -1.138238985731732100e-06
1.806000000000000000e+03 3.918710327148437500e+01 2.309646415710449219e+01 -5.360292198020033538e-05 1.164125860668718815e-04 1.884289849840570241e-05 -1.601697731530293822e-04
1.807000000000000000e+03 3.833834838867187500e+01 2.225207328796386719e+01 -3.276352072134613991e-04 -1.779087615432217717e-04 -1.516631891718134284e-04 -1.586052349011879414e-05
1.808000000000000000e+03 3.877622985839843750e+01 1.974021148681640625e+01 -2.513651852495968342e-04 -2.061569539364427328e-04 -1.372566475765779614e-04 5.039084044256014749e-06
1.809000000000000000e+03 3.954370880126953125e+01 1.777238845825195312e+01 1.221669517690315843e-04 1.851916604209691286e-04 9.220758511219173670e-05 2.668836168595589697e-05
1.810000000000000000e+03 3.939294433593750000e+01 1.614542770385742188e+01 -5.306917046254966408e-06 1.992342877201735973e-04 5.817821511300280690e-05 2.702345773286651820e-05
1.811000000000000000e+03 2.888585662841796875e+01 3.370505905151367188e+01 8.474963578919414431e-06 -4.857924941461533308e-04 -1.431952696293592453e-04 5.460040119942277670e-05
1.812000000000000000e+03 2.079022026062011719e+01 3.673336410522460938e+01 -3.451991506153717637e-05 -1.566188802826218307e-05 -1.505454019934404641e-05 -9.090146340895444155e-05
1.813000000000000000e+03 8.449434280395507812e+00 3.785897827148437500e+01 -1.605155557626858354e-05 2.874215897463727742e-05 3.807180974035873078e-06 -1.210648861160734668e-06
1.814000000000000000e+03 6.179635524749755859e+00 3.521672821044921875e+01 -2.271543053211644292e-05 2.117868098139297217e-05 -4.610247685832291609e-07 -7.508609542128397152e-06
1.815000000000000000e+03 8.587319374084472656e+00 3.518622207641601562e+01 5.294040192893589847e-07 -3.875486436299979687e-05 -1.146763770520919934e-05 1.526900405224296264e-06
1.816000000000000000e+03 3.675523757934570312e+01 3.375004196166992188e+01 -4.123243561480194330e-04 -6.650329451076686382e-04 -3.232072049286216497e-04 3.275005437899380922e-04
1.817000000000000000e+03 7.507223510742187500e+01 3.794416809082031250e+01 -1.448009610176086426e-01 -8.211410604417324066e-04 -4.368662834167480469e-02 2.225251942873001099e-01
1.818000000000000000e+03 6.743766021728515625e+01 3.797429656982421875e+01 -2.680513262748718262e-01 8.274886012077331543e-01 1.678311675786972046e-01 -1.518460512161254883e-01
1.819000000000000000e+03 6.427907562255859375e+01 3.696181869506835938e+01 -3.184527158737182617e-02 5.359578728675842285e-01 1.512337774038314819e-01 -2.548948526382446289e-01
1.820000000000000000e+03 5.537351608276367188e+01 3.753846359252929688e+01 -2.074714004993438721e-02 1.299169939011335373e-02 -2.326632384210824966e-03 9.703630581498146057e-03
1.821000000000000000e+03 7.812450408935546875e+01 3.907572555541992188e+01 1.492835953831672668e-02 -6.146121621131896973e-01 -1.799051314592361450e-01 1.994204670190811157e-01
1.822000000000000000e+03 6.830314636230468750e+01 4.117246627807617188e+01 -3.122537136077880859e-01 6.725780367851257324e-01 1.080972999334335327e-01 -2.250060252845287323e-02
1.823000000000000000e+03 1.039582729339599609e+00 3.748657608032226562e+01 -4.747564616991439834e-06 3.321370604680851102e-05 8.539842383470386267e-06 9.819719707593321800e-06
1.824000000000000000e+03 3.265385437011718750e+01 4.076400375366210938e+01 2.341340004932135344e-04 -1.961275993380695581e-04 1.140192125603789464e-05 -2.155527909053489566e-04
1.825000000000000000e+03 1.568688488006591797e+01 3.202313613891601562e+01 -4.767604877997655421e-06 1.923806667036842555e-05 4.341138264862820506e-06 3.302224649814888835e-05
1.826000000000000000e+03 4.163673782348632812e+01 3.125122070312500000e+01 -1.448867726139724255e-03 1.394493592670187354e-04 -3.928254882339388132e-04 -7.150568126235157251e-05
1.827000000000000000e+03 1.046725749969482422e+01 3.020846939086914062e+01 1.028866881824797019e-05 1.073033308784943074e-05 6.305700480879750103e-06 8.962048013927415013e-06
1.828000000000000000e+03 2.958510017395019531e+01 2.911200904846191406e+01 -4.969003202859312296e-05 -3.646799596026539803e-04 -1.243110018549486995e-04 8.759849879425019026e-05
1.829000000000000000e+03 3.260133743286132812e+01 3.089659881591796875e+01 -3.220138605684041977e-04 5.645701312460005283e-04 7.276687392732128501e-05 3.047920181415975094e-04
1.830000000000000000e+03 3.670081710815429688e+01 3.088788223266601562e+01 -6.471682809205958620e-06 4.816843138542026281e-04 1.425637892680242658e-04 6.249889265745878220e-04
1.831000000000000000e+03 4.330541610717773438e+01 3.028656768798828125e+01 -3.685627598315477371e-04 8.717302116565406322e-04 1.509502326371148229e-04 6.032793899066746235e-04
1.832000000000000000e+03 4.637433242797851562e+01 3.004273414611816406e+01 -8.024708367884159088e-04 1.346857286989688873e-03 1.633159263292327523e-04 -1.397777814418077469e-03
1.833000000000000000e+03 2.858150005340576172e+00 2.849243736267089844e+01 -1.664642877585720271e-05 2.378801946179009974e-05 2.142477342204074375e-06 8.133077244565356523e-06
1.834000000000000000e+03 3.278631591796875000e+01 2.893070220947265625e+01 -2.864745329134166241e-04 -3.779776161536574364e-04 -1.993356563616544008e-04 -5.878333104192279279e-05
1.835000000000000000e+03 3.446560287475585938e+01 2.865151786804199219e+01 1.521984813734889030e-04 2.460344112478196621e-04 1.194698706967756152e-04 5.269311368465423584e-04
1.836000000000000000e+03 3.870951843261718750e+01 2.834782981872558594e+01 4.726874976768158376e-05 4.468379484023898840e-04 1.482320076320320368e-04 2.732824650593101978e-04
1.837000000000000000e+03 9.620780944824218750e-01 2.888259887695312500e+01 2.537787077017128468e-05 2.945858614111784846e-05 1.645093652768991888e-05 -5.936772140557877719e-06
1.838000000000000000e+03 3.662216186523437500e+01 2.578822708129882812e+01 -3.620228089857846498e-04 1.462617074139416218e-04 -6.472833047155290842e-05 -1.211325434269383550e-04
1.839000000000000000e+03 3.715778350830078125e+01 2.686222457885742188e+01 1.998475345317274332e-04 -1.001007767627015710e-04 2.992402733070775867e-05 2.253647544421255589e-04
1.840000000000000000e+03 4.370782470703125000e+01 2.603008270263671875e+01 -4.866551898885518312e-04 -3.104908391833305359e-04 -2.391438029007986188e-04 -6.034358739270828664e-05
1.841000000000000000e+03 4.287784099578857422e+00 2.517184066772460938e+01 1.915257371365441941e-06 1.772656833054497838e-05 5.892547960684169084e-06 -1.043296015268424526e-05
1.842000000000000000e+03 8.361804008483886719e+00 2.427280616760253906e+01 -7.591186204081168398e-06 -1.154405435954686254e-05 -5.740571850765263662e-06 -6.873143547636573203e-07
1.843000000000000000e+03 9.713463783264160156e+00 2.440947723388671875e+01 -2.374419636907987297e-06 1.446099940949352458e-05 3.625973931775661185e-06 -5.308947493176674470e-06
1.844000000000000000e+03 1.708210182189941406e+01 2.460127067565917969e+01 -2.645736640261020511e-05 5.920777039136737585e-05 9.825121196627151221e-06 9.609023436496499926e-06
1.845000000000000000e+03 2.892719650268554688e+01 2.490441894531250000e+01 -5.361778312362730503e-05 -2.061432314803823829e-04 -7.792830001562833786e-05 5.132255864737089723e-06
1.846000000000000000e+03 3.852693557739257812e+01 2.570120429992675781e+01 -3.570356930140405893e-04 2.103403530782088637e-04 -4.400860052555799484e-05 -5.748178591602481902e-05
1.847000000000000000e+03 7.836428642272949219e+00 2.263794517517089844e+01 -2.884099330913159065e-06 -1.453724598832195625e-05 -5.226403573033167049e-06 -8.940229236031882465e-06
1.848000000000000000e+03 2.262566947937011719e+01 2.330002975463867188e+01 -6.709076842525973916e-05 -1.170774630736559629e-04 -5.525047163246199489e-05 -3.565836959751322865e-05
1.849000000000000000e+03 5.067333221435546875e+00 2.186552238464355469e+01 -5.895831691304920241e-06 1.993672594835516065e-05 4.212268777337158099e-06 9.910061635309830308e-06
1.850000000000000000e+03 1.035738182067871094e+01 2.041755485534667969e+01 -1.134628200816223398e-05 1.870189771580044180e-05 2.206684712291462347e-06 -1.361777867714408785e-05
1.851000000000000000e+03 1.162218952178955078e+01 2.219274330139160156e+01 -2.409689159321715124e-06 -3.751649273908697069e-05 -1.197785513795679435e-05 -1.212540792039362714e-05
1.852000000000000000e+03 1.295194053649902344e+01 2.176322555541992188e+01 -1.541592428111471236e-05 1.031547799357213080e-05 -1.530133999949612189e-06 1.967621210496872663e-05
1.853000000000000000e+03 2.400037574768066406e+01 2.136555480957031250e+01 -5.689525278285145760e-05 -6.482744356617331505e-05 -3.651680890470743179e-05 6.351248430291889235e-06
1.854000000000000000e+03 2.238025665283203125e+01 2.176277732849121094e+01 -1.039185917761642486e-05 3.740857937373220921e-05 8.105015695036854595e-06 2.868677074729930609e-05
1.855000000000000000e+03 3.056552124023437500e+01 2.162223434448242188e+01 -1.147639995906502008e-04 1.627441815799102187e-04 1.439405514247482643e-05 1.725707420519029256e-06
1.856000000000000000e+03 3.399536514282226562e+01 2.168614387512207031e+01 -1.038408372551202774e-04 -2.092350041493773460e-04 -9.392275387654080987e-05 -7.687598554184660316e-06
1.857000000000000000e+03 4.326036834716796875e+01 2.091796302795410156e+01 -1.365048519801348448e-04 -1.975206578208599240e-05 -4.687707769335247576e-05 1.011088606901466846e-04
1.858000000000000000e+03 4.078076171875000000e+01 2.136485099792480469e+01 -1.961758971447125077e-04 -5.194720506551675498e-05 -7.443693175446242094e-05 7.820939936209470034e-05
1.859000000000000000e+03 3.720270156860351562e+00 2.013029479980468750e+01 -7.315112725336803123e-06 4.352273754193447530e-05 1.086228712665615603e-05 1.746323619045142550e-08
1.860000000000000000e+03 6.444015026092529297e+00 2.029413032531738281e+01 -3.816124717559432611e-06 1.877340400824323297e-05 4.487183559831464663e-06 1.097811400541104376e-05
1.861000000000000000e+03 1.874081611633300781e+01 1.946217346191406250e+01 -8.889312994142528623e-06 3.715156708494760096e-05 8.478676136292051524e-06 1.784592132025863975e-05
1.862000000000000000e+03 2.382750129699707031e+01 1.995689392089843750e+01 -2.814221807057037950e-05 6.116780423326417804e-05 9.907675121212378144e-06 -1.326157052972121164e-05
1.863000000000000000e+03 2.522542190551757812e+01 1.983044624328613281e+01 -3.001198456331621855e-05 -1.089006473193876445e-04 -4.167378938291221857e-05 5.044450881541706622e-05
1.864000000000000000e+03 2.963566398620605469e+01 1.950424957275390625e+01 -6.120523903518915176e-05 -1.824289211072027683e-04 -7.309024658752605319e-05 -3.733811695383337792e-07
1.865000000000000000e+03 3.251476287841796875e+01 1.926405715942382812e+01 -1.606606674613431096e-04 3.050533705390989780e-04 4.331781383370980620e-05 7.212106083898106590e-06
1.866000000000000000e+03 3.368533325195312500e+01 1.944697189331054688e+01 -1.180713225039653480e-04 -2.155544643756002188e-04 -1.000877382466569543e-04 -6.128296081442385912e-05
1.867000000000000000e+03 3.995467758178710938e+01 2.031953811645507812e+01 8.224723569583147764e-05 1.925322576425969601e-04 8.243384945672005415e-05 -7.877026655478402972e-05
1.868000000000000000e+03 6.577836871147155762e-01 2.192801284790039062e+01 -2.927310333689092658e-06 2.829443474183790386e-05 7.610137345182010904e-06 -2.752640568814967992e-07
1.869000000000000000e+03 4.409156322479248047e+00 1.814143943786621094e+01 -6.808564648963510990e-06 1.649901969358325005e-05 2.907136376961716451e-06 -1.700807479210197926e-05
1.870000000000000000e+03 5.985507965087890625e+00 1.799277877807617188e+01 4.580615041049895808e-06 6.700030553474789485e-06 3.384193860256345943e-06 9.413826774107292295e-06
1.871000000000000000e+03 7.387229919433593750e+00 1.770550346374511719e+01 -8.985045496956445277e-06 1.395481922372709960e-05 1.490932163505931385e-06 -1.894791421364061534e-05
1.872000000000000000e+03 1.403439235687255859e+01 1.819985389709472656e+01 6.615870802306744736e-07 -1.094021263270406052e-05 -3.083587671426357701e-06 2.794711326714605093e-05
1.873000000000000000e+03 2.011943817138671875e+01 1.775736427307128906e+01 -1.141099346568807960e-05 2.967180080304387957e-05 5.478242655954090878e-06 1.882820652099326253e-05
1.874000000000000000e+03 2.548321533203125000e+01 1.864990425109863281e+01 -3.206579640391282737e-05 7.538955105701461434e-05 1.299712766922311857e-05 -3.734119673026725650e-05
1.875000000000000000e+03 2.903793334960937500e+01 1.759730339050292969e+01 -3.895753980032168329e-05 -1.741442392813041806e-04 -6.393053627107292414e-05 7.154411832743790001e-06
1.876000000000000000e+03 3.799554443359375000e+01 1.812756156921386719e+01 -8.399833313887938857e-05 -3.433904785197228193e-04 -1.282166485907509923e-04 -1.366849610349163413e-04
1.877000000000000000e+03 2.851438283920288086e+00 1.658425903320312500e+01 -1.034711567626800388e-05 1.087915461539523676e-05 1.596117016333664651e-07 -1.313280972681241110e-05
1.878000000000000000e+03 5.859118938446044922e+00 1.698898124694824219e+01 -6.410820788005366921e-06 7.776606253173667938e-06 4.097357475529861404e-07 -1.721854459901805967e-05
1.879000000000000000e+03 1.268773651123046875e+01 1.596227741241455078e+01 2.871906417567515746e-06 -1.779345802788157016e-05 -4.476465619518421590e-06 1.609232822374906391e-05
1.880000000000000000e+03 1.507479190826416016e+01 1.746631050109863281e+01 -2.680488069017883390e-05 2.731381755438633263e-05 1.526811104213265935e-07 -3.341165938763879240e-05
1.881000000000000000e+03 1.602725219726562500e+01 1.686324310302734375e+01 1.053071719070430845e-05 -8.021802386792842299e-06 7.526743388552858960e-07 2.558049163781106472e-05
1.882000000000000000e+03 1.858079147338867188e+01 1.645742225646972656e+01 4.327917849877849221e-06 2.681255500647239387e-05 9.342141311208251864e-06 1.860361226135864854e-05
1.883000000000000000e+03 1.989320182800292969e+01 1.648057365417480469e+01 -2.030543873843271285e-05 -4.166525832260958850e-05 -1.859120857261586934e-05 -1.928999517986085266e-05
1.884000000000000000e+03 2.184688377380371094e+01 1.637712669372558594e+01 5.484773282660171390e-06 3.702030517160892487e-05 1.275152408197754994e-05 -2.933913674496579915e-05
1.885000000000000000e+03 3.010921669006347656e+01 1.615635871887207031e+01 -4.598431132762925699e-06 7.804458437021821737e-05 2.203384610766079277e-05 -3.308039595140144229e-05
1.886000000000000000e+03 3.369971084594726562e+01 1.639029884338378906e+01 -5.202083411859348416e-05 -1.433223806088790298e-04 -5.860296369064599276e-05 2.638422120071481913e-05
1.887000000000000000e+03 6.203824996948242188e+00 1.540123939514160156e+01 -1.378665820084279403e-05 8.798694580036681145e-06 -1.496389018029731233e-06 -5.946795226918766275e-06
1.888000000000000000e+03 6.845263004302978516e+00 1.474210834503173828e+01 7.520909548475174233e-06 1.313062875851755962e-05 6.195461537572555244e-06 -5.597507879429031163e-06
1.889000000000000000e+03 1.487117004394531250e+01 1.448219394683837891e+01 4.218715275783324614e-06 -1.930949474626686424e-05 -4.527233613771386445e-06 1.014853660308290273e-05
1.890000000000000000e+03 2.131971359252929688e+01 1.402958488464355469e+01 -1.477152545703575015e-05 -3.825647945632226765e-05 -1.590840111020952463e-05 -3.500170350889675319e-05
1.891000000000000000e+03 2.829903411865234375e+01 1.412141895294189453e+01 9.622470315662212670e-06 -2.822285932779777795e-05 -5.580116976489080116e-06 -4.205249570077285171e-05
1.892000000000000000e+03 3.524362325668334961e+00 1.355051708221435547e+01 1.112346012632769998e-06 3.205994653399102390e-05 9.951687388820573688e-06 2.882488558952900348e-07
1.893000000000000000e+03 5.332035541534423828e+00 1.353359985351562500e+01 3.064211568926111795e-06 1.311152209382271394e-05 4.852719939663074911e-06 -6.874806786072440445e-06
1.894000000000000000e+03 6.900646686553955078e+00 1.255328941345214844e+01 -9.691772902442608029e-06 -4.289277057978324592e-06 -4.194314897176809609e-06 -5.081519702798686922e-06
1.895000000000000000e+03 1.368876838684082031e+01 1.214593887329101562e+01 -2.169947947550099343e-06 7.887528227001894265e-06 1.715274038360803388e-06 8.418023753620218486e-06
1.896000000000000000e+03 2.246035003662109375e+01 1.394057273864746094e+01 -4.543025866610150842e-08 2.671679612831212580e-05 8.001409696589689702e-06 1.954741856025066227e-05
1.897000000000000000e+03 2.374767684936523438e+01 1.386186027526855469e+01 -2.381533886364195496e-05 -4.837437518290244043e-05 -2.165691330446861684e-05 -1.057102690538158640e-05
1.898000000000000000e+03 2.513862037658691406e+01 1.373561763763427734e+01 -1.762533088367490564e-06 1.643034011067356914e-05 4.400341822474729270e-06 9.708572179079055786e-06
1.899000000000000000e+03 3.039982414245605469e+01 1.409597110748291016e+01 -1.416371014784090221e-05 6.831189239164814353e-05 1.624445576453581452e-05 -5.791012154077179730e-05
1.900000000000000000e+03 8.063050508499145508e-01 1.342078876495361328e+01 6.535189186251955107e-06 2.018924169533420354e-05 8.017329491849523038e-06 -4.292556241125566885e-06
1.901000000000000000e+03 3.840072631835937500e+00 1.169398880004882812e+01 -3.920990366168553010e-06 1.627056371944490820e-05 3.704872142407111824e-06 -7.078564976836787537e-06
1.902000000000000000e+03 5.716794490814208984e+00 1.187105274200439453e+01 2.782183855742914602e-06 2.469505125191062689e-05 8.243170668720267713e-06 -8.921868356992490590e-06
1.903000000000000000e+03 6.514017581939697266e+00 1.102296447753906250e+01 -2.719578560572699644e-06 -1.245788280357373878e-05 -4.553238341031828895e-06 -2.142361609003273770e-06
1.904000000000000000e+03 9.359012603759765625e+00 1.005927085876464844e+01 -1.125235303334193304e-05 -2.191248995586647652e-06 -4.033080585941206664e-06 -1.589063322171568871e-05
1.905000000000000000e+03 1.058595752716064453e+01 1.000176906585693359e+01 7.222116892080521211e-06 8.096782948996406049e-06 4.595669906848343089e-06 -1.989818201764137484e-06
1.906000000000000000e+03 1.171326160430908203e+01 1.136403369903564453e+01 -8.293336577480658889e-06 3.628629929153248668e-05 8.397889359912369400e-06 -3.612841737776761875e-06
1.907000000000000000e+03 1.242104911804199219e+01 1.045205307006835938e+01 2.929123752437590156e-07 -1.847481871664058417e-05 -5.454572146845748648e-06 -6.777095677534816787e-06
1.908000000000000000e+03 1.566852283477783203e+01 1.090075397491455078e+01 4.314088926093972987e-07 -2.077485078189056367e-05 -6.103032774262828752e-06 9.672274245531298220e-06
1.909000000000000000e+03 1.892302703857421875e+01 1.057448196411132812e+01 1.517438340670196339e-05 -4.131216701352968812e-05 -7.841334991098847240e-06 2.412079993519000709e-05
1.910000000000000000e+03 2.006298065185546875e+01 1.090066814422607422e+01 2.156256596208550036e-05 -2.287531788169872016e-05 -3.938257293611968635e-07 2.087250868498813361e-05
1.911000000000000000e+03 2.359894371032714844e+01 1.125062942504882812e+01 -6.602178928005741909e-06 -7.013382128207013011e-05 -2.302080065419431776e-05 -1.492819228587904945e-05
1.912000000000000000e+03 2.490803718566894531e+01 1.124916362762451172e+01 -9.911558663588948548e-06 5.509510447154752910e-05 1.355506446998333558e-05 6.932079031685134396e-06
1.913000000000000000e+03 2.623512840270996094e+01 1.132612609863281250e+01 1.759439692250452936e-05 -1.057867339113727212e-04 -2.645770109666045755e-05 1.566593527968507260e-05
1.914000000000000000e+03 2.800700759887695312e+01 1.191803550720214844e+01 -3.609208579291589558e-05 -3.133037898805923760e-05 -2.022674016188830137e-05 1.028323749778792262e-04
1.915000000000000000e+03 2.934705924987792969e+01 1.171928691864013672e+01 -5.853625680174445733e-06 -1.061733710230328143e-04 -3.360809932928532362e-05 7.307714986382052302e-05
1.916000000000000000e+03 3.088168525695800781e+01 1.102941513061523438e+01 2.138755735359154642e-05 -1.619097456568852067e-04 -4.215665467199869454e-05 -1.641541348362807184e-05
1.917000000000000000e+03 3.220686340332031250e+01 1.103652858734130859e+01 -4.077473568031564355e-05 1.307589263888075948e-04 2.699525612115394324e-05 4.932840965921059251e-05
1.918000000000000000e+03 3.442303085327148438e+01 1.176123619079589844e+01 -6.420601857826113701e-05 2.010383614106103778e-04 4.104970503249205649e-05 -7.588422886328771710e-05
1.919000000000000000e+03 3.532007980346679688e+01 1.231769180297851562e+01 -1.219081877934513614e-05 -1.745691406540572643e-04 -5.602798773907124996e-05 2.480135481164325029e-05
1.920000000000000000e+03 3.693259811401367188e+01 1.141363334655761719e+01 -5.058401075075380504e-05 -9.847079491009935737e-05 -4.471644206205382943e-05 -1.153384728240780532e-04
1.921000000000000000e+03 4.007483673095703125e+01 1.187956237792968750e+01 -1.146133581642061472e-04 2.731086169660557061e-05 -2.619074984977487475e-05 -4.878488834947347641e-05
1.922000000000000000e+03 4.432579517364501953e+00 9.603599548339843750e+00 -4.171273303654743358e-06 -4.680108759202994406e-06 -2.655414618857321329e-06 -2.576500037321238779e-06
1.923000000000000000e+03 6.357952117919921875e+00 9.499059677124023438e+00 -3.569080718079931103e-06 -8.414315743721090257e-06 -3.595019052227144130e-06 -4.884895133727695793e-06
1.924000000000000000e+03 1.037000656127929688e+01 9.010280609130859375e+00 -8.690479262440931052e-06 2.665424290171358734e-06 -1.807516582630341873e-06 -9.730706551636103541e-06
1.925000000000000000e+03 1.584615802764892578e+01 9.161439895629882812e+00 1.737391244205355179e-06 -2.346286782994866371e-05 -6.517643214465351775e-06 6.200671577971661463e-06
1.926000000000000000e+03 2.073112678527832031e+01 8.446397781372070312e+00 1.244946906808763742e-05 -3.279957672930322587e-05 -6.105032298364676535e-06 1.389364570059115067e-05
1.927000000000000000e+03 2.277668190002441406e+01 8.664463996887207031e+00 -3.381757551323971711e-06 -6.893331737956032157e-05 -2.169452272937633097e-05 1.575525175212533213e-06
1.928000000000000000e+03 2.395821762084960938e+01 9.473863601684570312e+00 -8.191401320800650865e-06 5.759137275163084269e-05 1.481999152019852772e-05 -1.840489676396828145e-05
1.929000000000000000e+03 2.474087715148925781e+01 8.653157234191894531e+00 7.759886102576274425e-06 -5.579535718425177038e-05 -1.441064159735105932e-05 1.351913306280039251e-05
1.930000000000000000e+03 2.725861167907714844e+01 9.306272506713867188e+00 -1.773170333763118833e-05 2.967122782138176262e-05 3.581857299650437199e-06 4.715781324193812907e-05
1.931000000000000000e+03 2.831834602355957031e+01 9.027667999267578125e+00 1.535627598059363663e-05 -5.873573172721080482e-05 -1.301383690588409081e-05 -5.763945955550298095e-05
1.932000000000000000e+03 2.967042350769042969e+01 9.832597732543945312e+00 2.208663136116228998e-05 -1.209078982356004417e-04 -2.964638042612932622e-05 -5.792437877971678972e-05
1.933000000000000000e+03 3.081555557250976562e+01 8.708026885986328125e+00 -1.064584353116515558e-06 -7.216024096123874187e-05 -2.196744753746315837e-05 -6.120141188148409128e-05
1.934000000000000000e+03 3.230897903442382812e+01 8.704435348510742188e+00 2.367977685935329646e-05 3.632559310062788427e-05 1.800161044229753315e-05 8.461087418254464865e-05
1.935000000000000000e+03 3.552413940429687500e+01 8.937680244445800781e+00 5.261552723823115230e-05 1.533732029201928526e-05 2.038585444097407162e-05 1.024623343255370855e-04
1.936000000000000000e+03 3.714017868041992188e+01 9.001593589782714844e+00 -5.134626553626731038e-05 1.627498750167433172e-05 -1.052138304658001289e-05 -7.118515350157395005e-05
1.937000000000000000e+03 3.877761459350585938e+01 8.985890388488769531e+00 4.060445280629210174e-05 -1.861609234765637666e-05 6.596507773792836815e-06 7.921847281977534294e-05
1.938000000000000000e+03 4.052817153930664062e+01 8.878633499145507812e+00 4.999404154659714550e-06 4.901732609141618013e-05 1.620501825527753681e-05 -3.659773574327118695e-05
1.939000000000000000e+03 2.684974193572998047e+00 8.068078994750976562e+00 -8.928021088649984449e-06 1.580736352480016649e-06 -2.204185420850990340e-06 -3.120438805126468651e-06
1.940000000000000000e+03 6.194240093231201172e+00 6.680472850799560547e+00 2.860667791537707672e-06 -6.831896826042793691e-06 -1.191368824038363528e-06 -2.240278263343498111e-06
1.941000000000000000e+03 8.475878715515136719e+00 7.418673038482666016e+00 -9.360187505080830306e-06 1.968917558770044707e-06 -2.217381052105338313e-06 -8.671113391756080091e-06
1.942000000000000000e+03 9.270417213439941406e+00 7.403299331665039062e+00 9.040820259542670101e-06 8.778333722148090601e-06 5.345746103557758033e-06 -1.118117961595999077e-05
1.943000000000000000e+03 1.284456443786621094e+01 7.394859790802001953e+00 2.741823266205756227e-07 -1.214842177432728931e-05 -3.562271785995108075e-06 -1.001039777293044608e-06
1.944000000000000000e+03 1.836675643920898438e+01 7.296826839447021484e+00 -4.589712716551730409e-06 1.879882256616838276e-05 4.262733000359730795e-06 -1.425065875082509592e-05
1.945000000000000000e+03 2.067256736755371094e+01 6.819969654083251953e+00 1.011894255498191342e-05 -5.122910442878492177e-05 -1.233304919878719375e-05 1.081573918781941757e-05
1.946000000000000000e+03 2.232233238220214844e+01 7.049523353576660156e+00 1.164012974186334759e-05 -6.302123802015557885e-05 -1.541433266538660973e-05 1.120130832532595377e-06
1.947000000000000000e+03 2.383207511901855469e+01 6.990664958953857422e+00 -1.011192580335773528e-05 -3.988609387306496501e-05 -1.499940572102786973e-05 -1.964736156878643669e-06
1.948000000000000000e+03 2.536835861206054688e+01 6.206501483917236328e+00 -1.912908146550762467e-06 -1.844755206548143178e-05 -6.108138222771231085e-06 -1.435326248611090705e-05
1.949000000000000000e+03 2.727352523803710938e+01 7.046869754791259766e+00 -9.042028978001326323e-06 2.393113391008228064e-05 4.466731297725345939e-06 -8.366846486751455814e-06
1.950000000000000000e+03 2.844407653808593750e+01 6.570045948028564453e+00 2.097409014822915196e-05 -5.974826854071579874e-05 -1.163225442724069580e-05 1.577207876835018396e-05
1.951000000000000000e+03 3.307609558105468750e+01 5.877977371215820312e+00 1.459219765820307657e-05 7.020858902251347899e-05 2.544023482187185436e-05 1.790546957636252046e-05
1.952000000000000000e+03 3.706259155273437500e+01 6.708556175231933594e+00 -3.012509660038631409e-05 2.762940493994392455e-05 -7.487071798095712438e-07 -1.195068944070953876e-05
1.953000000000000000e+03 3.840163803100585938e+01 6.611895084381103516e+00 -8.811229236016515642e-06 -1.949849320226348937e-05 -8.492916094837710261e-06 2.323517583135981113e-05
1.954000000000000000e+03 4.027265548706054688e+01 7.478311061859130859e+00 -3.570764238247647882e-05 -5.985434472677297890e-05 -2.866859540517907590e-05 1.632486601010896266e-05
1.955000000000000000e+03 2.570807218551635742e+00 6.491657733917236328e+00 -3.700290562846930698e-07 -8.095302291621919721e-06 -2.539599563533556648e-06 -5.312975190463475883e-06
1.956000000000000000e+03 4.325885772705078125e+00 4.526360511779785156e+00 2.072208644676720724e-06 1.545605186947796028e-06 1.085344138118671253e-06 -1.651688648962590378e-06
1.957000000000000000e+03 6.915206432342529297e+00 6.304438114166259766e+00 -1.738056312206026632e-06 1.481089748267550021e-05 3.921852567145833746e-06 -1.129803240473847836e-05
1.958000000000000000e+03 8.311766624450683594e+00 5.957399368286132812e+00 -5.048027560405898839e-06 7.329508207476465032e-06 6.844442737019562628e-07 -9.005019819596782327e-06
1.959000000000000000e+03 9.501918792724609375e+00 5.053686141967773438e+00 3.054656872336636297e-06 1.370712925563566387e-05 5.028535724704852328e-06 -1.027788584906375036e-05
1.960000000000000000e+03 1.314190673828125000e+01 5.215128421783447266e+00 1.851799765972828027e-06 2.823758586600888520e-05 9.026815860124770552e-06 -1.181972493213834241e-05
1.961000000000000000e+03 1.495121765136718750e+01 6.461509227752685547e+00 3.803231948040775023e-06 2.680456600501202047e-05 9.182339454127941281e-06 -1.048381363943917677e-05
1.962000000000000000e+03 1.867916870117187500e+01 4.847277641296386719e+00 -4.081873612449271604e-07 1.645909651415422559e-05 4.815272859559627250e-06 -2.540485547797288746e-05
1.963000000000000000e+03 1.990424919128417969e+01 5.331586360931396484e+00 -4.169831754552433267e-06 -1.672368625804665498e-06 -1.752660182319232263e-06 -2.898108141380362213e-05
1.964000000000000000e+03 2.224291610717773438e+01 5.548462867736816406e+00 1.806509317248128355e-05 -4.826822259929031134e-05 -9.060939191840589046e-06 1.073871953849447891e-05
1.965000000000000000e+03 2.495567512512207031e+01 5.223497390747070312e+00 2.924630052802967839e-06 -2.903056520153768361e-05 -7.831780749256722629e-06 -6.267607659538043663e-06
1.966000000000000000e+03 3.062771606445312500e+01 5.400101184844970703e+00 2.178963404730893672e-05 -8.869393241184297949e-06 3.876072241837391630e-06 2.050689545285422355e-05
1.967000000000000000e+03 3.164008712768554688e+01 5.279376983642578125e+00 1.264938237000023946e-05 -1.569183223182335496e-05 -9.127350608650885988e-07 -1.621420324227074161e-06
1.968000000000000000e+03 4.013839340209960938e+01 4.625774383544921875e+00 2.670258254511281848e-05 5.061069896328262985e-05 2.319398481631651521e-05 -3.773454227484762669e-05
1.969000000000000000e+03 4.167220306396484375e+01 4.973584651947021484e+00 1.008408344205236062e-05 7.193068449851125479e-05 2.460443101881537586e-05 1.518366275377047714e-06
1.970000000000000000e+03 4.079537582397460938e+01 5.673826217651367188e+00 -2.809109173540491611e-05 -5.268257882562465966e-05 -2.423210207780357450e-05 4.684156010625883937e-05
1.971000000000000000e+03 1.862311601638793945e+00 7.326088905334472656e+00 4.632055606634821743e-06 1.139794767368584871e-05 4.809000984096201137e-06 -2.626208924993989058e-06
1.972000000000000000e+03 2.473700046539306641e+00 3.771989107131958008e+00 1.682475527786664315e-07 -3.776392077270429581e-06 -1.082443418454204220e-06 -5.550203923121443950e-07
1.973000000000000000e+03 5.244875907897949219e+00 4.060366630554199219e+00 2.215625045209890231e-06 3.516838205541716889e-06 1.719738975225482136e-06 -8.459235687041655183e-06
1.974000000000000000e+03 7.863421916961669922e+00 3.601170539855957031e+00 6.598427262360928580e-06 9.247516572941094637e-06 4.753783287014812231e-06 -3.805690084845991805e-06
1.975000000000000000e+03 9.407549858093261719e+00 3.515947580337524414e+00 6.494180979643715546e-06 1.476250145060475916e-05 6.377004410751396790e-06 -5.535808213608106598e-06
1.976000000000000000e+03 1.162893009185791016e+01 4.557564735412597656e+00 4.572274974634638056e-06 2.380611113039776683e-05 8.513516149832867086e-06 -1.212756797031033784e-05
1.977000000000000000e+03 1.346510791778564453e+01 4.352849483489990234e+00 1.005030298983911052e-05 -2.195452179876156151e-05 -3.571265324353589676e-06 -6.002267127769300714e-06
1.978000000000000000e+03 1.559662628173828125e+01 4.431041240692138672e+00 9.441279871680308133e-06 2.284520087414421141e-05 9.685943950898945332e-06 -6.537714511978265364e-07
1.979000000000000000e+03 1.737509346008300781e+01 4.890495300292968750e+00 1.973709458980010822e-06 3.020545227627735585e-05 9.653748747950885445e-06 -5.561287252930924296e-06
1.980000000000000000e+03 2.375530433654785156e+01 4.693731784820556641e+00 1.685300230747088790e-05 -2.810560363286640495e-05 -3.375780579517595470e-06 8.421612619713414460e-06
1.981000000000000000e+03 2.910914802551269531e+01 4.401265621185302734e+00 -1.332676765741780400e-05 5.660486931446939707e-05 1.298343067901441827e-05 3.902677417499944568e-05
1.982000000000000000e+03 3.133296585083007812e+01 4.190534591674804688e+00 1.161606542154913768e-05 -2.375483200012240559e-05 -3.641629973571980372e-06 1.955987681867554784e-05
1.983000000000000000e+03 3.238968276977539062e+01 3.977273941040039062e+00 -3.063029225813806988e-06 5.881967808818444610e-06 8.456815976387588307e-07 -1.367911227134754881e-05
1.984000000000000000e+03 3.350002288818359375e+01 3.909178733825683594e+00 2.472328560543246567e-05 -1.412589335814118385e-05 3.179217628712649457e-06 3.502146500977687538e-05
1.985000000000000000e+03 3.588472366333007812e+01 4.109336853027343750e+00 2.520769339753314853e-05 -1.815091491152998060e-05 2.117033545800950378e-06 1.328694816038478166e-05
1.986000000000000000e+03 3.854996490478515625e+01 4.195854663848876953e+00 2.167936145269777626e-05 4.785215787705965340e-05 2.085945561702828854e-05 -7.700814421696122736e-06
1.987000000000000000e+03 4.111933517456054688e+01 4.153747558593750000e+00 -1.862263707153033465e-05 -2.547824988141655922e-05 -1.323026572208618745e-05 5.139303175383247435e-05
1.988000000000000000e+03 5.341400504112243652e-01 5.014085292816162109e+00 8.817144134809495881e-07 3.775190180022036657e-06 1.397071400788263418e-06 -1.758287453412776813e-07
1.989000000000000000e+03 1.325605392456054688e+01 2.097584724426269531e+00 9.713568033475894481e-06 1.878351577033754438e-05 8.549125595891382545e-06 -9.796699487196747214e-06
1.990000000000000000e+03 1.453557872772216797e+01 2.104573726654052734e+00 8.666250323585700244e-06 1.723161767586134374e-05 7.769360308884643018e-06 -4.685502972279209644e-06
1.991000000000000000e+03 1.656852722167968750e+01 2.525658369064331055e+00 1.015713405649876222e-05 5.435424554889323190e-06 4.677767719840630889e-06 -1.281696859223302454e-05
1.992000000000000000e+03 1.784383010864257812e+01 1.737455487251281738e+00 7.014096354396315292e-06 6.683209903712850064e-06 4.109191650059074163e-06 -8.198217074095737189e-06
1.993000000000000000e+03 1.968407440185546875e+01 1.734678626060485840e+00 1.265709488507127389e-05 -1.995859383896458894e-05 -2.190449777117464691e-06 4.056000761920586228e-06
1.994000000000000000e+03 2.613527679443359375e+01 3.322783708572387695e+00 2.024356035690288991e-05 -6.797896730859065428e-06 4.033699042338412255e-06 1.512102426204364747e-05
1.995000000000000000e+03 2.702195930480957031e+01 2.197484254837036133e+00 1.574756061017978936e-05 -1.134089870902244002e-06 4.384040948934853077e-06 1.463689022784819826e-05
1.996000000000000000e+03 3.320119094848632812e+01 1.397603631019592285e+00 1.061038346961140633e-05 -2.782368756015785038e-05 -5.163990863366052508e-06 1.926067307067569345e-05
1.997000000000000000e+03 4.060721969604492188e+01 1.879867076873779297e+00 -1.496790173405315727e-05 7.694573866956488928e-08 -4.467286998988129199e-06 2.113712434947956353e-05
1.998000000000000000e+03 1.889244651794433594e+01 -1.574528664350509644e-01 7.326549621211597696e-06 2.272519668622408062e-05 9.015523573907557875e-06 -2.115942379532498308e-06
1.999000000000000000e+03 2.076198577880859375e+01 5.389305353164672852e-01 1.657575376157183200e-05 -3.090270547545515001e-05 -4.298085514164995402e-06 -3.519095571391517296e-06
2.000000000000000000e+03 2.115588569641113281e+01 -1.383754760026931763e-01 5.877565399714512751e-06 2.175027839257381856e-05 8.288353456009645015e-06 3.171363914589164779e-06
2.001000000000000000e+03 2.422985267639160156e+01 -7.073830068111419678e-02 1.151281685451976955e-05 -1.316429188591428101e-05 -4.954423502567806281e-07 9.548693924443796277e-06
2.002000000000000000e+03 2.584383201599121094e+01 9.966377615928649902e-01 1.691404395387507975e-05 -6.840027708676643670e-07 4.869012627750635147e-06 1.693377271294593811e-05
2.003000000000000000e+03 2.714304924011230469e+01 7.686181366443634033e-02 1.177550802822224796e-05 8.707936103746760637e-06 6.145033239590702578e-06 1.519340003142133355e-05
2.004000000000000000e+03 2.819092941284179688e+01 1.340757012367248535e+00 8.261501534434501082e-06 1.307343336520716548e-05 6.400480287993559614e-06 2.175761801481712610e-05
2.005000000000000000e+03 3.412969970703125000e+01 9.117316007614135742e-01 7.581428690173197538e-06 3.898267459589987993e-05 1.396923107677139342e-05 1.077966226148419082e-05
2.006000000000000000e+03 3.637791061401367188e+01 6.728795766830444336e-01 2.384590516157913953e-06 -1.836243791331071407e-05 -4.793354037246899679e-06 3.444321521328674862e-07
2.007000000000000000e+03 3.729589462280273438e+01 1.022718071937561035e+00 3.458128276179195382e-06 3.730430034920573235e-05 1.222872833750443533e-05 -7.507063628509058617e-07
2.008000000000000000e+03 3.860840988159179688e+01 1.132224559783935547e+00 -6.678644695057300851e-06 5.758286715717986226e-05 1.527126551081892103e-05 -1.093198625312652439e-05
2.009000000000000000e+03 3.901062011718750000e+01 -1.748649775981903076e-01 6.741522611264372244e-06 2.808253702824003994e-05 1.044721830112393945e-05 4.077885023434646428e-06
2.010000000000000000e+03 4.183805084228515625e+01 -3.994260132312774658e-01 -1.491993089075549506e-06 -2.382913407927844673e-05 -7.596338491566712037e-06 1.496200729889096692e-05
2.011000000000000000e+03 4.048054885864257812e+01 6.284984350204467773e-01 1.158256964117754251e-05 1.432774206477915868e-05 7.773093784635420889e-06 7.904303629402420484e-07
2.012000000000000000e+03 4.330142211914062500e+01 1.200648665428161621e+00 -1.233220018548308872e-06 -3.709226075443439186e-05 -1.149764375441009179e-05 3.722548171936068684e-06
2.013000000000000000e+03 2.239775085449218750e+01 -1.029859781265258789e+00 6.831069185864180326e-06 -8.438161785306874663e-06 -4.821277457267569844e-07 -1.177279318653745577e-05
2.014000000000000000e+03 2.310082817077636719e+01 -9.894797205924987793e-01 1.566917308082338423e-05 -4.910157258564140648e-06 3.227704837627243251e-06 3.480980922176968306e-06
2.015000000000000000e+03 2.455042648315429688e+01 -1.288127303123474121e+00 1.135666843765648082e-05 -1.331581825070315972e-05 -5.877448643332172651e-07 1.601491931069176644e-05
2.016000000000000000e+03 2.729955101013183594e+01 -1.000631690025329590e+00 3.516433253025752492e-06 -1.635242369957268238e-05 -3.850796929327771068e-06 -8.507050551997963339e-06
2.017000000000000000e+03 2.959130096435546875e+01 -1.600806117057800293e+00 7.192193152150139213e-06 1.039334711094852537e-05 5.275662260828539729e-06 6.733010195603128523e-06
2.018000000000000000e+03 3.061007118225097656e+01 -1.367193222045898438e+00 5.922086984355701134e-06 -2.373014831391628832e-05 -5.342418717191321775e-06 -4.450597828054014826e-07
2.019000000000000000e+03 3.191969680786132812e+01 -2.030892372131347656e+00 4.323162556829629466e-06 -2.433364716125652194e-05 -6.003145699651213363e-06 1.785128915798850358e-06
2.020000000000000000e+03 3.750221633911132812e+01 -7.531889677047729492e-01 1.473363681725459173e-05 1.753361539158504456e-05 9.680175935500301421e-06 -9.808217328099999577e-06
2.021000000000000000e+03 4.034365844726562500e+01 -2.071583271026611328e+00 5.908776529395254329e-06 -3.726144859683699906e-05 -9.405801392858847976e-06 2.849038310159812681e-06
2.022000000000000000e+03 4.103403472900390625e+01 -1.143056273460388184e+00 1.525802417745580897e-06 3.694963379530236125e-05 1.154263009084388614e-05 -4.378451194497756660e-06
2.023000000000000000e+03 4.389472579956054688e+01 -1.088142633438110352e+00 1.226719177793711424e-06 1.795869684428907931e-05 5.755624897574307397e-06 -2.656265110090316739e-07
2.024000000000000000e+03 4.592115402221679688e+01 -1.858343333005905151e-01 4.456521310203243047e-06 1.681281901255715638e-06 1.841340917962952517e-06 7.108869226613023784e-07
2.025000000000000000e+03 2.140728569030761719e+01 -2.957741022109985352e+00 1.513841289124684408e-05 -1.409811375197023153e-05 3.120898099950863980e-07 -3.421970177441835403e-06
2.026000000000000000e+03 2.241325187683105469e+01 -2.644703388214111328e+00 7.822793122613802552e-06 -1.195002550957724452e-05 -1.238169602402194869e-06 -3.721276243595639244e-06
2.027000000000000000e+03 2.429023551940917969e+01 -2.737222909927368164e+00 1.129753582063131034e-05 8.496701411786489189e-06 5.938270987826399505e-06 9.585528459865599871e-07
2.028000000000000000e+03 2.675548553466796875e+01 -3.350321054458618164e+00 1.160236934083513916e-05 9.838047844823449850e-06 6.432124791899695992e-06 1.056416658684611320e-05
2.029000000000000000e+03 2.769195938110351562e+01 -3.001520633697509766e+00 4.544549028651090339e-06 -1.674292980169411749e-05 -3.659514050013967790e-06 -1.005743797577451915e-05
2.030000000000000000e+03 3.330020904541015625e+01 -2.935625314712524414e+00 -3.025734031325555407e-06 -1.467184756620554253e-05 -5.309274456521961838e-06 3.766475060729135294e-07
2.031000000000000000e+03 3.542185211181640625e+01 -1.937923669815063477e+00 -5.951703315076883882e-06 -2.243995731987524778e-05 -8.517497917637228966e-06 -3.539281806297367439e-06
2.032000000000000000e+03 3.820946884155273438e+01 -2.314955472946166992e+00 1.054769836628111079e-05 8.649997653265018016e-06 5.759308805863838643e-06 -7.297837782971328124e-06
2.033000000000000000e+03 3.942039489746093750e+01 -2.442130565643310547e+00 -1.267270363314310089e-05 1.006394631986040622e-05 -7.826273531463812105e-07 1.773889198375400156e-05
2.034000000000000000e+03 4.189179229736328125e+01 -1.885658144950866699e+00 -2.356988716201158240e-06 -2.740192940109409392e-05 -8.927675480663310736e-06 1.431850068911444396e-05
2.035000000000000000e+03 4.122980499267578125e+01 -2.802260398864746094e+00 2.774232370938989334e-06 3.033743269043043256e-05 9.933499313774518669e-06 -7.735840881650801748e-06
2.036000000000000000e+03 4.403814315795898438e+01 -2.731469154357910156e+00 -2.521160695323487744e-06 -1.050991249940125272e-05 -3.909322003892157227e-06 7.265399744937894866e-06
2.037000000000000000e+03 2.292178153991699219e+01 -4.761371612548828125e+00 1.265043465537019074e-05 -4.789335889654466882e-06 2.358329766138922423e-06 2.701281800909782760e-06
2.038000000000000000e+03 2.637340354919433594e+01 -5.338182449340820312e+00 6.611318895011208951e-06 -6.148460215626982972e-06 1.388576578165157116e-07 -1.039747530739987269e-05
2.039000000000000000e+03 2.843194770812988281e+01 -4.454882144927978516e+00 6.880027740407967940e-06 -1.578668707225006074e-05 -2.671998117875773460e-06 -2.916142420872347429e-06
2.040000000000000000e+03 3.245012664794921875e+01 -4.784581184387207031e+00 -1.269717017748916987e-06 -1.768337642715778202e-05 -5.685928044840693474e-06 -4.423066002345876768e-06
2.041000000000000000e+03 3.389387512207031250e+01 -5.543376922607421875e+00 2.968889134535857011e-07 1.692377850304183085e-06 5.967800120743049774e-07 -3.261525762354722247e-06
2.042000000000000000e+03 3.597582626342773438e+01 -4.854202747344970703e+00 1.248803437192691490e-05 1.698302912700455636e-05 8.841318958729971200e-06 2.570720880612498149e-06
2.043000000000000000e+03 3.713226699829101562e+01 -3.968712329864501953e+00 -6.489399311249144375e-06 -1.880584750324487686e-05 -7.588574135297676548e-06 9.242770033779379446e-07
2.044000000000000000e+03 4.063256835937500000e+01 -3.859583616256713867e+00 -7.056827598717063665e-06 -1.715044345473870635e-05 -7.262181497935671359e-06 1.636710476304870099e-05
2.045000000000000000e+03 4.381060791015625000e+01 -3.706269264221191406e+00 2.712318746489472687e-06 1.820714169298298657e-05 6.275838131841737777e-06 -6.484411642304621637e-06
2.046000000000000000e+03 4.537254714965820312e+01 -3.903419017791748047e+00 -3.045196535822469741e-06 -7.828756679373327643e-06 -3.262185828134533949e-06 6.297212166828103364e-06
2.047000000000000000e+03 4.704549789428710938e+01 -3.798807382583618164e+00 -1.180114054477598984e-06 2.239857849417603575e-06 3.179231384820013773e-07 -4.080161033925833181e-06
2.048000000000000000e+03 2.721219635009765625e+01 -6.171769142150878906e+00 1.378349679725943133e-06 -7.036726856313180178e-06 -1.697513084764068481e-06 -1.468398409087967593e-06
2.049000000000000000e+03 2.812051963806152344e+01 -6.879722595214843750e+00 2.241904439870268106e-06 8.897851557776448317e-07 9.395068332196387928e-07 -2.773086407614755444e-06
2.050000000000000000e+03 3.045403671264648438e+01 -6.350351810455322266e+00 3.259547838752041571e-06 -1.095262450689915568e-05 -2.307922841282561421e-06 1.007230366667499766e-05
2.051000000000000000e+03 3.308530807495117188e+01 -7.874273300170898438e+00 7.413005278067430481e-06 7.843829735065810382e-06 4.577050276566296816e-06 3.508555437292670831e-06
2.052000000000000000e+03 3.799563598632812500e+01 -6.613702774047851562e+00 7.301514870050596073e-06 1.606967271072790027e-05 7.011356046859873459e-06 4.434596576174953952e-06
2.053000000000000000e+03 3.976140213012695312e+01 -6.963922500610351562e+00 4.325481768319150433e-06 5.177131697564618662e-06 2.850784085239865817e-06 5.532622708415146917e-06
2.054000000000000000e+03 4.119911575317382812e+01 -6.763676166534423828e+00 6.044664132787147537e-06 3.237222472307621501e-06 2.784565822366857901e-06 -2.362662826271844096e-06
2.055000000000000000e+03 4.446986770629882812e+01 -6.159569740295410156e+00 -4.342807642387924716e-06 -1.409568176313769072e-05 -5.531546776182949543e-06 3.699453600347624160e-06
2.056000000000000000e+03 4.582895278930664062e+01 -6.612534046173095703e+00 3.484023636701749638e-06 1.955728839675430208e-05 6.912393928359961137e-06 -1.167024151982332114e-06
2.057000000000000000e+03 2.483984375000000000e+01 -8.257343292236328125e+00 -8.609081447730204673e-08 -8.450531822745688260e-06 -2.560986786193097942e-06 -5.872151632502209395e-06
2.058000000000000000e+03 2.838523483276367188e+01 -8.448439598083496094e+00 -4.408548647916177288e-06 -5.870493623660877347e-06 -3.083712726947851479e-06 6.086929715820588171e-06
2.059000000000000000e+03 2.932915115356445312e+01 -8.162312507629394531e+00 -2.834559381881263107e-06 -1.253384380106581375e-05 -4.610521045833593234e-06 3.687324351631104946e-06
2.060000000000000000e+03 3.277044296264648438e+01 -9.229248046875000000e+00 6.384799235092941672e-06 9.310575478593818843e-06 4.708612323156557977e-06 2.668421302587375976e-06
2.061000000000000000e+03 3.468481445312500000e+01 -8.896077156066894531e+00 6.892541364322823938e-07 -1.188206533697666600e-05 -3.357843297635554336e-06 -1.493969648436177522e-06
2.062000000000000000e+03 3.799825668334960938e+01 -8.742687225341796875e+00 -2.894212002502172254e-06 -5.147621351397901890e-08 -8.837064342515077442e-07 -9.292985851061530411e-06
2.063000000000000000e+03 4.000268173217773438e+01 -8.109299659729003906e+00 -1.521692183814593591e-06 2.001191205636132509e-06 1.438496752825813019e-07 -1.180486151497461833e-06
2.064000000000000000e+03 4.120397186279296875e+01 -7.976557254791259766e+00 -2.941181492133182473e-06 -3.787729099258285714e-07 -9.959862836694810539e-07 1.671267909841844812e-06
2.065000000000000000e+03 2.733765029907226562e+01 -9.266016006469726562e+00 5.316121587384259328e-07 -6.517638212244492024e-06 -1.795807861526554916e-06 5.700164606992075278e-08
2.066000000000000000e+03 2.848842620849609375e+01 -1.070196247100830078e+01 1.083227289200294763e-06 2.243806193291675299e-06 9.981100674849585630e-07 1.044879013534227852e-06
2.067000000000000000e+03 3.005136299133300781e+01 -9.526646614074707031e+00 1.586496296113182325e-06 -9.825856068346183747e-06 -2.471808102200157009e-06 -7.850765541661530733e-06
2.068000000000000000e+03 3.373325729370117188e+01 -1.072407913208007812e+01 4.977028311259346083e-06 7.073860615491867065e-06 3.615266678025363944e-06 -6.969655714783584699e-07
2.069000000000000000e+03 3.613378524780273438e+01 -1.001526069641113281e+01 -3.837263648165389895e-06 -3.128692696918733418e-06 -2.089786903525236994e-06 4.771485237142769620e-06
2.070000000000000000e+03 3.814238739013671875e+01 -9.653375625610351562e+00 1.865662284217250999e-06 1.728867232486663852e-06 1.078358877748542000e-06 1.019669798552058637e-05
2.071000000000000000e+03 4.017948150634765625e+01 -1.031687641143798828e+01 2.888245717258541845e-06 2.232720817119115964e-06 1.536290028525399975e-06 2.349458725348085864e-07
2.072000000000000000e+03 4.332046508789062500e+01 -1.143763732910156250e+01 5.286290615913458169e-06 -7.246460882015526295e-06 -5.880510798306204379e-07 1.316901148129545618e-06
2.073000000000000000e+03 4.119655609130859375e+01 -1.023367881774902344e+01 1.765068532222358044e-06 -1.151541027866187505e-06 1.840582370959964464e-07 2.020913143496727571e-06
2.074000000000000000e+03 4.440401840209960938e+01 -9.445399284362792969e+00 -7.424589966831263155e-06 -9.039251267495274078e-07 -2.498554522389895283e-06 3.928959813492838293e-06
2.075000000000000000e+03 4.575177764892578125e+01 -8.936403274536132812e+00 -3.666735210572369397e-06 -1.098973007174208760e-05 -4.396939402795396745e-06 3.687034677568590268e-06
2.076000000000000000e+03 2.647543334960937500e+01 -1.200470066070556641e+01 5.661256636813050136e-06 2.526384378143120557e-06 2.456292349961586297e-06 1.653635422371735331e-06
2.077000000000000000e+03 3.294253921508789062e+01 -1.274140834808349609e+01 -3.893345876804232830e-07 -4.319364052207674831e-06 -1.412609663020703010e-06 -1.370950144519156311e-06
2.078000000000000000e+03 3.386031723022460938e+01 -1.156482028961181641e+01 -5.538071263799793087e-07 2.446506186970509589e-06 5.678097636518941727e-07 -1.329511633230140433e-06
2.079000000000000000e+03 3.587468338012695312e+01 -1.147222805023193359e+01 4.357354100648080930e-06 4.493163487495621666e-06 2.655155412867316045e-06 -3.142155719615402631e-06
2.080000000000000000e+03 3.753994369506835938e+01 -1.102892971038818359e+01 4.249452103977091610e-06 6.212626431079115719e-06 3.138623469567392021e-06 7.294328270290861838e-07
2.081000000000000000e+03 3.996294021606445312e+01 -1.135543823242187500e+01 -4.316222657507751137e-06 -5.127399163029622287e-06 -2.833086682585417293e-06 -1.084931909645092674e-06
2.082000000000000000e+03 4.085683822631835938e+01 -1.191583347320556641e+01 5.187478564039338380e-06 7.271026333910413086e-06 3.737551423910190351e-06 -9.399207669957831968e-07
2.083000000000000000e+03 4.513302993774414062e+01 -1.035934543609619141e+01 -8.730254194233566523e-06 8.689702553965616971e-06 -1.216552103500134763e-08 4.281597284716553986e-06
2.084000000000000000e+03 3.175157356262207031e+01 -1.403285884857177734e+01 -1.611941343071521260e-06 -5.917401267652167007e-06 -2.258802851429209113e-06 -3.266866883677721489e-07
2.085000000000000000e+03 3.230367279052734375e+01 -1.323062419891357422e+01 2.587354856586898677e-06 7.333208031923277304e-06 2.976168843815685250e-06 -3.665843735234375345e-07
2.086000000000000000e+03 3.496404266357421875e+01 -1.344137668609619141e+01 8.381349289265926927e-06 3.660988795672892593e-06 3.612701448219013400e-06 2.413446509308414534e-07
2.087000000000000000e+03 3.685438537597656250e+01 -1.304641723632812500e+01 4.408448148751631379e-06 6.741609013261040673e-07 1.524782646811218001e-06 -2.911988531195675023e-06
2.088000000000000000e+03 4.014167404174804688e+01 -1.394312381744384766e+01 -5.453074436445604078e-07 -1.937093202286632732e-06 -7.447201824106741697e-07 -1.496662775934964884e-06
2.089000000000000000e+03 4.223690795898437500e+01 -1.423799610137939453e+01 -1.100478129956172779e-06 -1.872946768344263546e-06 -8.920274581214471254e-07 3.501032097119605169e-06
2.090000000000000000e+03 4.129774856567382812e+01 -1.447065448760986328e+01 -2.584741878308705054e-07 -8.520727874383737799e-07 -3.331641096337989438e-07 -3.631619392763241194e-06
2.091000000000000000e+03 4.661874008178710938e+01 -1.159682655334472656e+01 4.361612809589132667e-06 -1.304169563809409738e-05 -2.604024757602019235e-06 -4.478087248571682721e-06
2.092000000000000000e+03 4.789247131347656250e+01 -1.326402187347412109e+01 -8.202326284845185000e-07 9.768067684490233660e-06 2.684350420167902485e-06 -2.250641500722849742e-06
2.093000000000000000e+03 5.019465255737304688e+01 -1.343031120300292969e+01 2.043845597654581070e-06 7.780146916047669947e-06 2.947197799585410394e-06 4.910027655569138005e-07
2.094000000000000000e+03 5.001649475097656250e+01 -1.431717872619628906e+01 -3.925986220565391704e-06 -4.803461251867702231e-06 -2.618834287204663269e-06 -5.426718985290790442e-07
2.095000000000000000e+03 3.126638412475585938e+01 -1.505178165435791016e+01 2.711386969167506322e-06 3.978869244747329503e-06 2.007077000598656014e-06 -1.526279191921275924e-07
2.096000000000000000e+03 3.250711822509765625e+01 -1.442661190032958984e+01 1.900816300803853665e-06 3.868699877784820274e-06 1.730854933157388587e-06 2.898297452702536248e-06
2.097000000000000000e+03 3.363158416748046875e+01 -1.374140644073486328e+01 1.873404812613443937e-06 4.097668352187611163e-06 1.791322006283735391e-06 3.478274948065518402e-06
2.098000000000000000e+03 3.500136947631835938e+01 -1.481446838378906250e+01 6.660590770479757339e-06 1.978252612389042042e-06 2.591653128547477536e-06 8.951366226028767414e-07
2.099000000000000000e+03 3.753266525268554688e+01 -1.440588092803955078e+01 5.535003765544388443e-06 3.303487574157770723e-06 2.651547447385382839e-06 1.284301873738513677e-07
2.100000000000000000e+03 3.942881393432617188e+01 -1.399711704254150391e+01 -3.912745341949630529e-06 -2.628933543746825308e-06 -1.962503802133142017e-06 2.462010115777957253e-06
2.101000000000000000e+03 4.035595703125000000e+01 -1.487553882598876953e+01 4.071801242844230728e-07 3.943540605177986436e-08 1.339846562586899381e-07 3.836933956335997209e-06
2.102000000000000000e+03 4.778792572021484375e+01 -1.409176635742187500e+01 -1.572302721797314007e-06 -5.871849225513869897e-06 -2.233245595562038943e-06 1.782133494998561218e-06
2.103000000000000000e+03 5.100128173828125000e+01 -1.605764007568359375e+01 2.424572357995202765e-06 -3.728017645698855631e-06 -3.910335522050445434e-07 4.377853599635272985e-07
2.104000000000000000e+03 3.281118011474609375e+01 -1.779381370544433594e+01 3.202770244570274372e-07 3.688687456815387122e-06 1.202689304591331165e-06 5.190744900573918130e-07
2.105000000000000000e+03 4.118027114868164062e+01 -1.746262168884277344e+01 7.958662422424822580e-07 4.724407062894897535e-06 1.656081963119504508e-06 -5.721691422877484001e-07
2.106000000000000000e+03 4.286824798583984375e+01 -1.712787818908691406e+01 -1.036003254739625845e-06 2.301680979144293815e-06 3.797032945840328466e-07 -8.992569178190024104e-08
2.107000000000000000e+03 3.994733047485351562e+01 -1.647185707092285156e+01 -2.506520331735373475e-06 7.719591849308926612e-06 1.563921500746801030e-06 3.155416834488278255e-06
2.108000000000000000e+03 4.366220855712890625e+01 -1.686316871643066406e+01 -1.489030694301618496e-07 -2.201948063884628937e-06 -7.052553883113432676e-07 -2.301491974776581628e-07
2.109000000000000000e+03 4.609925079345703125e+01 -1.613982582092285156e+01 1.800276436370040756e-06 1.969043978533591144e-06 1.130796135839773342e-06 1.675339689199972781e-07
2.110000000000000000e+03 4.769329833984375000e+01 -1.668487739562988281e+01 2.077931867461302318e-06 1.192922240988991689e-06 9.812562211664044298e-07 3.079656210047687637e-07
2.111000000000000000e+03 2.732168006896972656e+01 -1.563709163665771484e+01 3.256732043155352585e-06 1.511685127297823783e-06 1.430525117029901594e-06 -2.530835672587272711e-06
2.112000000000000000e+03 4.054433441162109375e+01 -1.856341934204101562e+01 -1.836719548009568825e-06 -5.163981768419034779e-06 -2.100210394928581081e-06 -3.153308398395893164e-06
2.113000000000000000e+03 4.388861083984375000e+01 -1.937012672424316406e+01 5.909773221901559737e-07 -1.133480168391542975e-06 -1.627508652290998725e-07 5.545018098018772434e-07
2.114000000000000000e+03 4.616464996337890625e+01 -1.764675140380859375e+01 -9.065014410225558095e-07 -3.532237087711109780e-06 -1.331621547251415905e-06 -5.962951377114222851e-07
2.115000000000000000e+03 4.919425964355468750e+01 -1.749011230468750000e+01 -2.191208295698743314e-06 -1.768288768744241679e-07 -7.104111432454374153e-07 1.191492742691480089e-06
2.116000000000000000e+03 4.146400833129882812e+01 -1.970799446105957031e+01 3.203220103387138806e-06 2.194123226217925549e-06 1.619202976144151762e-06 -2.247102628416541847e-07
2.117000000000000000e+03 2.132147789001464844e+00 -3.467798995971679688e+01 8.463574340566992760e-05 2.914544020313769579e-04 1.128270450863055885e-04 1.067792472895234823e-04
2.118000000000000000e+03 2.678650379180908203e+00 -3.325714874267578125e+01 2.885269350372254848e-05 3.276838979218155146e-04 1.069609716068953276e-04 1.572859182488173246e-04
2.119000000000000000e+03 2.585546731948852539e+00 -3.200780487060546875e+01 -1.458067854400724173e-04 -4.287574120098724961e-05 -5.660476017510518432e-05 2.503970754332840443e-04
2.120000000000000000e+03 3.595312118530273438e+00 -3.534742736816406250e+01 7.745419861748814583e-05 4.695735115092247725e-04 1.641083072172477841e-04 1.885312376543879509e-04
2.121000000000000000e+03 3.949767589569091797e+00 -3.351836013793945312e+01 -4.850625919061712921e-05 5.446362774819135666e-05 1.787210180737019982e-06 4.183629644103348255e-04
2.122000000000000000e+03 3.162450313568115234e+00 -3.731822967529296875e+01 -7.498847844544798136e-05 4.011429846286773682e-04 9.784635039977729321e-05 9.843775478657335043e-05
2.123000000000000000e+03 5.535353183746337891e+00 -3.364073562622070312e+01 6.498072762042284012e-04 3.319671959616243839e-04 2.945323649328202009e-04 2.237828739453107119e-04
2.124000000000000000e+03 7.734842777252197266e+00 -3.534936904907226562e+01 1.086839823983609676e-03 6.238418864086270332e-04 5.132045480422675610e-04 8.974503143690526485e-04
2.125000000000000000e+03 7.229726791381835938e+00 -3.354887771606445312e+01 -7.586792344227433205e-05 2.013878256548196077e-04 3.765596920857205987e-05 3.274276677984744310e-04
2.126000000000000000e+03 9.007860183715820312e+00 -3.380362701416015625e+01 6.901693413965404034e-04 6.515557179227471352e-04 4.025175294373184443e-04 7.460554479621350765e-04
2.127000000000000000e+03 1.122601985931396484e+01 -3.427484893798828125e+01 8.173234527930617332e-04 2.155569382011890411e-04 3.098641172982752323e-04 2.113008173182606697e-03
2.128000000000000000e+03 1.599496650695800781e+01 -3.392591094970703125e+01 4.337731748819351196e-03 1.472744159400463104e-03 1.743142725899815559e-03 4.154090769588947296e-03
2.129000000000000000e+03 2.511424446105957031e+01 -3.438646316528320312e+01 9.738051332533359528e-03 -3.907327540218830109e-03 1.749217044562101364e-03 7.003912702202796936e-03
2.130000000000000000e+03 5.017206192016601562e+01 -3.491193389892578125e+01 -1.853369325399398804e-01 8.817813992500305176e-01 2.089333534240722656e-01 2.319872826337814331e-01
2.131000000000000000e+03 5.401651000976562500e+01 -3.363571166992187500e+01 3.024705313146114349e-02 1.066877484321594238e+00 3.291373550891876221e-01 -2.556800842285156250e-01
2.132000000000000000e+03 9.214214324951171875e+00 -2.896294021606445312e+01 -2.078984543913975358e-04 -6.647560076089575887e-05 -8.231221727328374982e-05 -1.787720830179750919e-04
2.133000000000000000e+03 7.201909542083740234e+00 -2.797147369384765625e+01 -5.329544655978679657e-04 1.111284291255287826e-04 -1.265478058485314250e-04 -3.963090057368390262e-05
2.134000000000000000e+03 2.165889739990234375e+00 -2.785337829589843750e+01 3.079045563936233521e-04 -5.301557166603743099e-07 9.221232176059857011e-05 -1.741072046570479870e-04
2.135000000000000000e+03 6.329442977905273438e+00 -2.517575836181640625e+01 -4.170640895608812571e-04 -5.002934994990937412e-05 -1.401280314894393086e-04 -2.682022750377655029e-05
2.136000000000000000e+03 6.672260284423828125e+00 -2.648613929748535156e+01 4.251501231919974089e-04 8.092087227851152420e-05 1.518212957307696342e-04 2.685334220586810261e-05
2.137000000000000000e+03 5.125195980072021484e+00 -2.538906860351562500e+01 4.479286144487559795e-04 8.195189002435654402e-05 1.589641469763591886e-04 -1.781542086973786354e-04
2.138000000000000000e+03 3.930121183395385742e+00 -2.389332580566406250e+01 3.380315029062330723e-04 1.397787564201280475e-04 1.433430734323337674e-04 -2.827173739206045866e-04
2.139000000000000000e+03 2.326923847198486328e+00 -2.213878822326660156e+01 4.564252740237861872e-04 -6.945603672647848725e-05 1.160907704615965486e-04 -5.604801117442548275e-05
2.140000000000000000e+03 4.091921329498291016e+00 -2.032363510131835938e+01 8.990499918581917882e-05 2.132601139237522148e-06 2.761128052952699363e-05 5.012926067138323560e-06
2.141000000000000000e+03 3.276211977005004883e+00 -1.983631324768066406e+01 -3.530561225488781929e-04 5.642079941026167944e-06 -1.042242147377692163e-04 -5.054122448200359941e-05
2.142000000000000000e+03 7.923951625823974609e+00 -1.898631286621093750e+01 -2.435966889606788754e-04 -9.717102511785924435e-05 -1.022303113131783903e-04 1.081444570445455611e-04
2.143000000000000000e+03 5.157555103302001953e+00 -1.886854553222656250e+01 3.098689485341310501e-04 -1.014398440020158887e-04 6.252872844925150275e-05 -5.751727439928799868e-05
2.144000000000000000e+03 2.478610754013061523e+00 -1.831951713562011719e+01 -3.276241186540573835e-04 2.501273411326110363e-05 -9.078341099666431546e-05 4.421068297233432531e-05
2.145000000000000000e+03 5.447528362274169922e+00 -1.702166557312011719e+01 2.161128359148278832e-04 1.631756749702617526e-04 1.137865547207184136e-04 -3.895598638337105513e-05
2.146000000000000000e+03 4.022439956665039062e+00 -1.642527389526367188e+01 -1.341718452749773860e-04 -1.981384557439014316e-04 -9.969309030566364527e-05 6.982380728004500270e-05
2.147000000000000000e+03 2.592025279998779297e+00 -1.622567558288574219e+01 2.040993858827278018e-04 1.125947601394727826e-04 9.500824671704322100e-05 1.015634843497537076e-04
2.148000000000000000e+03 1.359202098846435547e+01 -1.193447589874267578e+01 -1.175518191303126514e-04 -7.160497625591233373e-05 -5.674703788827173412e-05 3.856635157717391849e-05
2.149000000000000000e+03 1.394394779205322266e+01 -1.416700649261474609e+01 -2.806192242132965475e-05 -1.348426594631746411e-04 -4.887137401965446770e-05 4.928891212330199778e-05
2.150000000000000000e+03 1.168602085113525391e+01 -1.569244480133056641e+01 -4.229100886732339859e-05 -1.076757034752517939e-04 -4.499001443036831915e-05 1.060778231476433575e-04
2.151000000000000000e+03 1.043365097045898438e+01 -1.604078483581542969e+01 -2.944367297459393740e-04 3.452504461165517569e-05 -7.797350554028525949e-05 -1.904371492855716497e-05
2.152000000000000000e+03 1.054920101165771484e+01 -1.322221279144287109e+01 -9.204218258673790842e-06 -1.692055593593977392e-05 -7.837432349333539605e-06 7.017340976744890213e-05
2.153000000000000000e+03 1.118338394165039062e+01 -1.163155364990234375e+01 1.222649075316439848e-06 -5.058166425442323089e-05 -1.480770424677757546e-05 4.443671059561893344e-05
2.154000000000000000e+03 1.055513668060302734e+01 -1.050018501281738281e+01 -4.232372521073557436e-05 -6.874592145322822034e-06 -1.475949466112069786e-05 -3.462320091784931719e-05
2.155000000000000000e+03 9.485729217529296875e+00 -1.364085578918457031e+01 -6.974994903430342674e-05 4.331427044235169888e-05 -7.930702849989756942e-06 -8.167087071342393756e-05
2.156000000000000000e+03 7.876974582672119141e+00 -1.525355625152587891e+01 1.377542212139815092e-04 2.929525726358406246e-05 5.011484245187602937e-05 5.808377682114951313e-05
2.157000000000000000e+03 5.340575695037841797e+00 -1.464121150970458984e+01 4.072316733072511852e-05 -1.761810417519882321e-04 -4.063736196258105338e-05 1.228110340889543295e-04
2.158000000000000000e+03 1.278116893768310547e+01 -1.496764087677001953e+01 2.482968739059288055e-05 1.673130173003301024e-04 5.764281013398431242e-05 -7.542368257418274879e-05
2.159000000000000000e+03 1.529599761962890625e+01 -1.359857082366943359e+01 -9.786260307009797543e-06 1.022366050165146589e-04 2.773510277620516717e-05 -3.456299236859194934e-05
2.160000000000000000e+03 1.801229476928710938e+01 -1.223835659027099609e+01 -8.102541869448032230e-06 -2.001737266255076975e-05 -8.435974450549110770e-06 -6.405801286746282130e-06
2.161000000000000000e+03 1.448561096191406250e+01 -9.898885726928710938e+00 -9.056641283677890897e-05 -2.822100395860616118e-05 -3.563622522051446140e-05 2.611242598504759371e-05
2.162000000000000000e+03 1.443483543395996094e+01 -5.935919761657714844e+00 -4.721624281955882907e-05 -1.511095706518972293e-05 -1.869815969257615507e-05 -3.105995460828125942e-07
2.163000000000000000e+03 1.354129219055175781e+01 -6.273459434509277344e+00 -3.436786209931597114e-05 -4.298250496503897011e-05 -2.320510975550860167e-05 3.132333631583605893e-06
2.164000000000000000e+03 1.325635051727294922e+01 -5.341765880584716797e+00 -4.087301203981041908e-05 -2.291619603056460619e-05 -1.913676169351674616e-05 -5.972712642687838525e-06
2.165000000000000000e+03 1.262272071838378906e+01 -5.036951065063476562e+00 4.194309804006479681e-05 2.367154775129165500e-05 1.968439391930587590e-05 4.213443389744497836e-06
2.166000000000000000e+03 1.020497226715087891e+01 -4.531625270843505859e+00 3.825968815363012254e-05 3.926775025320239365e-05 2.325823152204975486e-05 5.470169071486452594e-06
2.167000000000000000e+03 1.046668910980224609e+01 -5.619025707244873047e+00 2.113660048053134233e-05 5.027189399697817862e-05 2.142254925274755806e-05 -4.154747159645921784e-07
2.168000000000000000e+03 1.189481544494628906e+01 -7.273027896881103516e+00 -6.762520206393674016e-05 -2.306935857632197440e-05 -2.720836891967337579e-05 1.667630385782103986e-05
2.169000000000000000e+03 9.680994033813476562e+00 -6.637880802154541016e+00 -6.800817936891689897e-05 -4.325971167418174446e-05 -3.338036913191899657e-05 2.452597982482984662e-05
2.170000000000000000e+03 1.212141323089599609e+01 -1.388699245452880859e+01 -6.417310214601457119e-05 -5.474089994095265865e-05 -3.567420208128169179e-05 9.312005568062886596e-05
2.171000000000000000e+03 9.048105239868164062e+00 -1.130718326568603516e+01 -1.355191343463957310e-04 -6.306094292085617781e-05 -5.957402026979252696e-05 5.294068978400900960e-05
2.172000000000000000e+03 7.489286422729492188e+00 -1.435873413085937500e+01 -1.354133273707702756e-04 7.190506585175171494e-05 -1.905247700051404536e-05 -1.117212959798052907e-04
2.173000000000000000e+03 3.104410886764526367e+00 -1.199236106872558594e+01 7.979727524798363447e-05 8.078471728367730975e-05 4.817459921468980610e-05 2.455213325447402894e-05
2.174000000000000000e+03 1.754364204406738281e+01 -1.030645751953125000e+01 1.773336771293543279e-05 2.383864011790137738e-05 1.247160253114998341e-05 2.192967804148793221e-05
2.175000000000000000e+03 1.153468322753906250e+01 -1.008499145507812500e+01 -5.737899482483044267e-05 -6.029596988810226321e-05 -3.530248795868828893e-05 -1.578182673256378621e-05
2.176000000000000000e+03 1.270649147033691406e+01 -8.664730072021484375e+00 -5.586903716903179884e-05 -7.989518780959770083e-05 -4.072926822118461132e-05 4.262456423020921648e-05
2.177000000000000000e+03 1.323498535156250000e+01 -6.874069213867187500e+00 1.044301916408585384e-05 8.009174052858725190e-05 2.716042945394292474e-05 -6.548792953253723681e-06
2.178000000000000000e+03 8.303764343261718750e+00 -1.184896183013916016e+01 -3.228223431506194174e-05 4.103755054529756308e-05 2.626595232868567109e-06 -1.191255068988539279e-04
2.179000000000000000e+03 6.855320453643798828e+00 -1.132667350769042969e+01 -7.088473466865252703e-06 -4.538338544080033898e-05 -1.574155794514808804e-05 -3.628278864198364317e-05
2.180000000000000000e+03 1.760776710510253906e+01 -7.992160797119140625e+00 3.308916348032653332e-05 8.026751856959890574e-06 1.233477541973115876e-05 3.559648803275194950e-06
2.181000000000000000e+03 1.651443099975585938e+01 -9.405710220336914062e+00 7.388834546873113140e-06 5.973424777039326727e-06 4.008677933597937226e-06 3.875856782542541623e-05
2.182000000000000000e+03 1.481210708618164062e+01 -9.158563613891601562e+00 9.140561451204121113e-05 1.739454819471575320e-05 3.264004772063344717e-05 -2.797431261569727212e-05
2.183000000000000000e+03 1.076369762420654297e+01 -7.795437812805175781e+00 -7.594296766910701990e-05 -1.466878711653407663e-05 -2.718352698138915002e-05 -1.248217884608493478e-08
2.184000000000000000e+03 1.142331504821777344e+01 -8.821932792663574219e+00 -9.588045941200107336e-05 -4.617022568709217012e-05 -4.261520371073856950e-05 -1.167772916232934222e-05
2.185000000000000000e+03 6.734295845031738281e+00 -9.851705551147460938e+00 1.674344239290803671e-04 -2.606439693408901803e-06 4.944839383824728429e-05 -7.857220225560013205e-06
2.186000000000000000e+03 1.410023212432861328e+01 -1.082197952270507812e+01 1.072304876288399100e-04 2.718124778766650707e-05 4.032352080685086548e-05 -3.950039535993710160e-05
2.187000000000000000e+03 6.537957191467285156e+00 -8.048196792602539062e+00 3.373288927832618356e-05 -3.358490721439011395e-05 4.439374379217042588e-08 3.847100015264004469e-05
2.188000000000000000e+03 2.079313278198242188e+00 -6.641690254211425781e+00 -1.131605313275940716e-04 -1.429315125278662890e-05 -3.823610677500255406e-05 -4.247694596415385604e-05
2.189000000000000000e+03 7.329795837402343750e+00 -5.654521942138671875e+00 3.317560549476183951e-05 7.624924182891845703e-05 3.282745456090196967e-05 1.166917718364857137e-05
2.190000000000000000e+03 1.978074908256530762e+00 -5.411473751068115234e+00 9.994349238695576787e-05 1.060018257703632116e-05 3.316310176160186529e-05 2.646401844685897231e-05
2.191000000000000000e+03 1.342963600158691406e+01 -3.697533369064331055e+00 2.528414916014298797e-05 1.429643907613353804e-05 1.187417637993348762e-05 4.801656814379384741e-06
2.192000000000000000e+03 1.175179767608642578e+01 -3.665807485580444336e+00 -2.651880822668317705e-05 -2.589344694570172578e-05 -1.572367727931123227e-05 1.977286046894732863e-06
2.193000000000000000e+03 1.008898258209228516e+01 -3.425267696380615234e+00 2.908136957557871938e-05 7.283143077074782923e-06 1.090935347747290507e-05 3.142924015264725313e-06
2.194000000000000000e+03 8.385288238525390625e+00 -4.517282485961914062e+00 -3.859916614601388574e-05 -4.597896258928813040e-05 -2.537343789299484342e-05 3.286268110969103873e-06
2.195000000000000000e+03 6.720335483551025391e+00 -4.760247707366943359e+00 4.002594141638837755e-05 6.777009548386558890e-05 3.233880852349102497e-05 1.672638609306886792e-05
2.196000000000000000e+03 8.713720321655273438e+00 -2.452606916427612305e+00 -6.629890322074061260e-06 -6.004726856190245599e-06 -3.790385108004556969e-06 7.918353730929084122e-06
2.197000000000000000e+03 6.916506767272949219e+00 -3.078447103500366211e+00 3.958445449825376272e-05 4.067204281454905868e-05 2.407694955763872713e-05 2.495302760507911444e-05
2.198000000000000000e+03 5.134233474731445312e+00 -3.790332794189453125e+00 -3.859972275677137077e-05 -4.134863047511316836e-05 -2.398450669716112316e-05 -4.466224345378577709e-05
2.199000000000000000e+03 4.409413814544677734e+00 -1.961871027946472168e+00 3.319345705676823854e-05 2.011219066844205372e-06 1.056140263244742528e-05 1.441523272660560906e-05
2.200000000000000000e+03 5.186991214752197266e+00 -2.910632610321044922e+00 3.553658461896702647e-05 2.375478652538731694e-05 1.778740988811478019e-05 3.017729250132106245e-05
2.201000000000000000e+03 5.569005012512207031e+00 -3.558799362182617188e+01 -2.849718439392745495e-04 3.827621985692530870e-04 2.933711039077024907e-05 7.278954144567251205e-04
2.202000000000000000e+03 2.711797523498535156e+01 -3.764615631103515625e+01 -1.209850981831550598e-02 -1.321854535490274429e-02 -7.595116738229990005e-03 1.850423286668956280e-03
2.203000000000000000e+03 4.548931121826171875e+01 -3.656895446777343750e+01 5.220174044370651245e-02 -3.271842747926712036e-02 5.844994913786649704e-03 3.266046047210693359e-01
2.204000000000000000e+03 4.811662673950195312e+01 -3.500594329833984375e+01 -1.170573458075523376e-01 5.435260534286499023e-01 1.279406100511550903e-01 4.032527208328247070e-01
2.205000000000000000e+03 5.404475402832031250e+01 -3.668432235717773438e+01 -1.938520073890686035e-01 9.461911916732788086e-01 2.257017493247985840e-01 -7.376997917890548706e-02
2.206000000000000000e+03 6.895155334472656250e+01 -3.525429916381835938e+01 -2.355922386050224304e-02 1.069256011396646500e-02 -3.859999356791377068e-03 1.521574612706899643e-02
2.207000000000000000e+03 7.102191925048828125e+01 -3.350738906860351562e+01 -2.015959285199642181e-02 5.426933523267507553e-03 -4.419798031449317932e-03 6.045919377356767654e-03
2.208000000000000000e+03 6.964710235595703125e+01 -3.702813720703125000e+01 -2.457130234688520432e-03 3.337564878165721893e-03 2.641304163262248039e-04 2.403573505580425262e-02
2.209000000000000000e+03 7.468788909912109375e+01 -3.547726821899414062e+01 -1.522122183814644814e-03 -2.078686840832233429e-03 -1.080242684110999107e-03 1.010366063565015793e-02
2.210000000000000000e+03 7.572241973876953125e+01 -3.655434417724609375e+01 2.308795927092432976e-03 -5.761950276792049408e-03 -1.035946421325206757e-03 7.946200668811798096e-03
2.211000000000000000e+03 6.747319793701171875e+01 -4.156569290161132812e+01 4.167909175157546997e-02 9.573227725923061371e-03 1.537569612264633179e-02 3.813794115558266640e-03
2.212000000000000000e+03 7.185285949707031250e+01 -4.136497497558593750e+01 1.657609827816486359e-02 -6.085521075874567032e-03 3.147172974422574043e-03 5.631559994071722031e-03
2.213000000000000000e+03 7.713294982910156250e+01 -3.825592803955078125e+01 1.288444269448518753e-03 -8.729284629225730896e-03 -2.232252154499292374e-03 4.454544279724359512e-03
2.214000000000000000e+03 2.614261627197265625e+00 -3.910237884521484375e+01 -5.777148908236995339e-05 3.296831564512103796e-04 8.157350384863093495e-05 1.478213962400332093e-04
2.215000000000000000e+03 3.823311233520507812e+01 -3.737221145629882812e+01 8.044403046369552612e-02 -3.491659760475158691e-01 -8.061657845973968506e-02 -1.328558325767517090e-01
2.216000000000000000e+03 7.821403503417968750e+01 -3.335483169555664062e+01 6.302417605184018612e-04 -2.657199045643210411e-03 -6.080872262828052044e-04 2.114044269546866417e-03
2.217000000000000000e+03 7.711382293701171875e+01 -3.312227249145507812e+01 -2.795158419758081436e-03 -1.809839974157512188e-03 -1.381499459967017174e-03 3.706197487190365791e-03
2.218000000000000000e+03 7.276364898681640625e+01 -3.120136260986328125e+01 -5.469252821058034897e-03 4.192327323835343122e-04 -1.515005948022007942e-03 -4.725269682239741087e-04
2.219000000000000000e+03 5.402946472167968750e+01 -2.918328285217285156e+01 3.124515116214752197e-01 1.117661833763122559e+00 4.290339946746826172e-01 -7.786966562271118164e-01
2.220000000000000000e+03 5.339728164672851562e+01 -2.860289573669433594e+01 4.206002950668334961e-01 1.570358395576477051e+00 5.972875952720642090e-01 -9.623858332633972168e-01
2.221000000000000000e+03 5.286424255371093750e+01 -2.834419822692871094e+01 3.741481006145477295e-01 2.298261642456054688e+00 8.017228841781616211e-01 -1.017083048820495605e+00
2.222000000000000000e+03 5.197891616821289062e+01 -2.780969429016113281e+01 2.807215452194213867e-01 4.350735187530517578e+00 1.389437079429626465e+00 -1.991202980279922485e-01
2.223000000000000000e+03 5.416638565063476562e+01 -2.525242424011230469e+01 3.737790107727050781e+00 -1.796841323375701904e-01 1.067431807518005371e+00 1.198523998260498047e+00
2.224000000000000000e+03 5.555143737792968750e+01 -2.601147270202636719e+01 2.197080850601196289e+00 -4.868926405906677246e-01 5.130565166473388672e-01 3.811731040477752686e-01
2.225000000000000000e+03 5.793059158325195312e+01 -2.576366043090820312e+01 1.453611254692077637e+00 3.571577072143554688e-01 5.432306528091430664e-01 8.949599862098693848e-01
2.226000000000000000e+03 7.305530548095703125e+01 -2.535134887695312500e+01 -2.753192558884620667e-02 -1.292416942305862904e-03 -8.647303096950054169e-03 1.477754994994029403e-04
2.227000000000000000e+03 7.799249267578125000e+01 -2.540224075317382812e+01 -4.807634744793176651e-03 -1.835435163229703903e-03 -1.992920879274606705e-03 1.983179245144128799e-03
2.228000000000000000e+03 7.941690063476562500e+01 -2.527182769775390625e+01 -1.986180897802114487e-03 3.841768018901348114e-03 5.566761246882379055e-04 1.779845566488802433e-03
2.229000000000000000e+03 7.920265197753906250e+01 2.365985870361328125e+01 1.942544989287853241e-02 -2.232713222503662109e+00 -6.639863848686218262e-01 4.783548042178153992e-02
2.230000000000000000e+03 7.929615783691406250e+01 1.664183807373046875e+01 -1.034093089401721954e-02 -2.403091430664062500e+00 -7.240297198295593262e-01 2.119774743914604187e-02
2.231000000000000000e+03 7.927164459228515625e+01 -5.580769538879394531e+00 5.058349575847387314e-03 -1.630875468254089355e+00 -4.877451360225677490e-01 -6.745129078626632690e-02
2.232000000000000000e+03 8.491635322570800781e+00 1.916026353836059570e+00 9.734337254485581070e-06 -5.768696610175538808e-06 1.189692170555645134e-06 -9.067755854630377144e-06
2.233000000000000000e+03 4.795449733734130859e+00 1.849271178245544434e+00 3.040077444893540815e-06 6.923648015799699351e-06 2.989117547258501872e-06 -3.669378543236234691e-07
2.234000000000000000e+03 3.362513780593872070e+00 1.876304149627685547e+00 2.411877858321531676e-06 3.200042101525468752e-06 1.683575987954100128e-06 4.885955036115774419e-07
2.235000000000000000e+03 1.168564987182617188e+01 1.563582897186279297e+00 1.127752784668700770e-05 -1.249390066959676915e-07 3.345776576679782011e-06 -1.296517439186573029e-05
2.236000000000000000e+03 1.329524326324462891e+01 7.614546418190002441e-01 1.082322432921500877e-05 1.163853721664054319e-05 6.738528554706135765e-06 -1.213542600453365594e-05
2.237000000000000000e+03 1.469596958160400391e+01 -7.198625802993774414e-02 1.202290786750381812e-05 9.409522135683801025e-06 6.429728728107875213e-06 -1.019346018438227475e-05
2.238000000000000000e+03 1.741101264953613281e+01 -1.745838522911071777e+00 1.263146350538590923e-05 8.673880074638873339e-06 6.391603164956904948e-06 -1.162406897492473945e-05
2.239000000000000000e+03 1.868205642700195312e+01 -2.719468116760253906e+00 8.255090506281703711e-06 1.405801140208495781e-05 6.693930572509998456e-06 -9.532984222460072488e-06
2.240000000000000000e+03 2.218211174011230469e+01 -6.112751960754394531e+00 6.931953066668938845e-06 9.674185093899723142e-06 4.981841357221128419e-06 1.981353761948412284e-06
2.241000000000000000e+03 2.310657501220703125e+01 -7.466420650482177734e+00 8.111339411698281765e-06 7.491031283279880881e-06 4.680711299442918971e-06 1.532031319584348239e-06
2.242000000000000000e+03 2.402447319030761719e+01 -8.795273780822753906e+00 7.240820650622481480e-06 7.586771062051411718e-06 4.448277650226373225e-06 1.258300585504912306e-06
2.243000000000000000e+03 2.549185180664062500e+01 -1.158712959289550781e+01 5.206865353102330118e-06 4.183177679806249216e-06 2.817012727973633446e-06 2.109599563482333906e-06
2.244000000000000000e+03 2.701713752746582031e+01 -1.496264743804931641e+01 -6.094782747823046520e-06 -9.031477361531869974e-07 -2.099379116771160625e-06 -7.303512461476202589e-07
2.245000000000000000e+03 3.928219985961914062e+01 -1.891167259216308594e+01 2.846163340564089594e-07 -7.467428076779469848e-06 -2.154843514290405437e-06 -4.878068580183025915e-07
2.246000000000000000e+03 4.246432113647460938e+01 -1.982450675964355469e+01 -1.209417405334534124e-06 -6.789796316297724843e-07 -5.665191338266595267e-07 8.272595550806727260e-07
2.247000000000000000e+03 4.461559295654296875e+01 -1.911172485351562500e+01 -5.271814984553202521e-07 4.899099508293147665e-07 -1.118146464307301358e-08 -2.167289352428269922e-07
2.248000000000000000e+03 5.063012313842773438e+01 -1.794471549987792969e+01 1.467092943130410276e-06 -1.525342440800159238e-06 -1.747485534053794254e-08 -2.018615759880049154e-06
2.249000000000000000e+03 5.272279357910156250e+01 -1.730279731750488281e+01 -9.546404271532082930e-07 2.542494428325881017e-07 -2.101172782431603991e-07 2.481667479514726438e-06
2.250000000000000000e+03 5.472322463989257812e+01 -1.599626159667968750e+01 -6.654967705799208488e-07 1.980989054573001340e-06 3.946476851979241474e-07 5.613988207642250927e-08
2.251000000000000000e+03 5.711889648437500000e+01 -1.648642158508300781e+01 -5.335981541065848432e-07 2.368576360822771676e-06 5.504934392774885055e-07 2.185802486565080471e-06
2.252000000000000000e+03 5.838986587524414062e+01 -1.602180290222167969e+01 6.428989536289009266e-07 2.395178626102278940e-06 9.114232284446188714e-07 -6.058637040950998198e-07
2.253000000000000000e+03 4.938687896728515625e+01 -6.090314865112304688e+00 2.380468004048452713e-06 -2.843319180101389065e-06 -1.388553840797612793e-07 1.095928041650040541e-06
2.254000000000000000e+03 6.392725753784179688e+01 -1.472848033905029297e+01 9.789469838142395020e-02 7.957230806350708008e-01 2.680853307247161865e-01 4.408092796802520752e-01
2.255000000000000000e+03 6.306611633300781250e+01 -1.615342712402343750e+01 -6.192080304026603699e-02 7.628043293952941895e-01 2.102650552988052368e-01 3.353051543235778809e-01
2.256000000000000000e+03 6.214791107177734375e+01 -1.754772949218750000e+01 -4.422851502895355225e-01 8.433580994606018066e-01 1.203218847513198853e-01 3.105507194995880127e-01
2.257000000000000000e+03 6.012897109985351562e+01 -1.918633270263671875e+01 -1.043365955352783203e+00 6.930534243583679199e-01 -1.050937622785568237e-01 3.977592587471008301e-01
2.258000000000000000e+03 5.583336639404296875e+01 -2.064010047912597656e+01 -2.124069690704345703e+00 9.047351032495498657e-02 -6.100788116455078125e-01 5.024785995483398438e-01
2.259000000000000000e+03 5.432435226440429688e+01 -2.092580413818359375e+01 -2.689278125762939453e+00 2.325261235237121582e-01 -7.370256185531616211e-01 4.958051443099975586e-01
2.260000000000000000e+03 5.134725570678710938e+01 -2.152145576477050781e+01 -3.135118007659912109e+00 5.218896269798278809e-01 -7.839685082435607910e-01 -6.966353654861450195e-01
2.261000000000000000e+03 4.987949752807617188e+01 -2.179237747192382812e+01 -2.648989915847778320e+00 6.398516893386840820e-02 -7.755014300346374512e-01 -1.428468465805053711e+00
2.262000000000000000e+03 4.703501510620117188e+01 -2.240017127990722656e+01 -1.269718170166015625e+00 -6.263323426246643066e-01 -5.688151717185974121e-01 -1.661330819129943848e+00
2.263000000000000000e+03 4.844666671752929688e+01 -2.207398796081542969e+01 -1.946592450141906738e+00 -3.601240813732147217e-01 -6.920149922370910645e-01 -1.739884018898010254e+00
2.264000000000000000e+03 4.270121765136718750e+01 -2.372651100158691406e+01 5.508129019290208817e-03 -9.183188080787658691e-01 -2.738431990146636963e-01 -5.531019568443298340e-01
2.265000000000000000e+03 2.243543052673339844e+01 -1.375499629974365234e+01 9.816773854254279286e-06 -6.514486813102848828e-06 9.906862032948993146e-07 -8.998830708151217550e-06
2.266000000000000000e+03 2.188129234313964844e+01 -1.260151290893554688e+01 1.125913604482775554e-05 1.870281994342803955e-05 8.988587069325149059e-06 -5.744821010011946782e-06
2.267000000000000000e+03 2.040155982971191406e+01 -1.029239845275878906e+01 3.718640073202550411e-05 1.432679709978401661e-05 1.545395934954285622e-05 1.949350553331896663e-05
2.268000000000000000e+03 1.955813217163085938e+01 -9.161736488342285156e+00 3.028551873285323381e-05 1.744813926052302122e-05 1.432009685231605545e-05 9.591576599632389843e-06
2.269000000000000000e+03 1.868719291687011719e+01 -8.056134223937988281e+00 3.002270750585012138e-05 1.313710254180477932e-05 1.294794310524594039e-05 8.950409210228826851e-06
2.270000000000000000e+03 1.680680465698242188e+01 -6.029745578765869141e+00 3.290759559604339302e-05 9.962973308574873954e-06 1.286117094423389062e-05 1.084547329810447991e-05
2.271000000000000000e+03 1.776219558715820312e+01 -7.018200874328613281e+00 2.874817619158420712e-05 1.117980264098150656e-05 1.197839355882024392e-05 8.895024620869662613e-06
2.272000000000000000e+03 1.575125980377197266e+01 -5.178864955902099609e+00 3.800771446549333632e-05 6.319311069091781974e-06 1.329810766037553549e-05 1.267113384528784081e-05
2.273000000000000000e+03 1.462726783752441406e+01 -4.398624420166015625e+00 3.232120434404350817e-05 9.555651558912359178e-06 1.256305768038146198e-05 7.315423772524809465e-06
2.274000000000000000e+03 8.537642478942871094e+00 -1.844587802886962891e+00 -9.307016739512619097e-07 -1.568379593663848937e-05 -4.984349288861267269e-06 9.927422070177271962e-06
2.275000000000000000e+03 6.067699432373046875e+00 -2.005305528640747070e+00 2.265469811391085386e-05 1.515420717623783275e-05 1.134267131419619545e-05 1.554964001115877181e-05
2.276000000000000000e+03 5.236071109771728516e+00 -1.980210423469543457e+00 -2.602299900900106877e-05 -1.051778417604509741e-05 -1.096223513741279021e-05 -1.812736991269048303e-05
2.277000000000000000e+03 3.581703186035156250e+00 -1.937482118606567383e+00 -3.473267861409112811e-05 1.644789563215454109e-06 -9.926367056323215365e-06 -4.792128493136260659e-06
2.278000000000000000e+03 2.761258363723754883e+00 -1.889984726905822754e+00 3.022096279892139137e-05 1.295946105983603047e-07 9.105167009693104774e-06 -4.847487616643775254e-06
2.279000000000000000e+03 1.292090415954589844e+00 -1.842831015586853027e+00 3.252667511333129369e-06 9.884143764793407172e-06 3.941043360100593418e-06 -3.989083779742941260e-06
2.280000000000000000e+03 7.944691467285156250e+01 -3.207007598876953125e+01 1.000871532596647739e-03 -9.062981116585433483e-04 2.837202737282495946e-05 2.729583065956830978e-04
2.281000000000000000e+03 7.911642456054687500e+01 -3.747911834716796875e+01 1.209930866025388241e-03 -9.571104310452938080e-03 -2.508352044969797134e-03 1.323128584772348404e-03
2.282000000000000000e+03 7.886251068115234375e+01 -2.929809188842773438e+01 -3.821679565589874983e-04 -2.865150454454123974e-04 -2.006048889597877860e-04 1.951447775354608893e-04
2.283000000000000000e+03 7.811514282226562500e+01 -2.927267646789550781e+01 6.619393388973549008e-05 -8.619410800747573376e-05 -6.000052962917834520e-06 8.962202286966203246e-07
2.284000000000000000e+03 7.660866546630859375e+01 -2.932710266113281250e+01 -3.353536885697394609e-04 -9.626685641705989838e-05 -1.294861722271889448e-04 2.248125529149547219e-04
2.285000000000000000e+03 7.359867858886718750e+01 -2.918396377563476562e+01 -1.249080873094499111e-03 -1.045815661200322211e-04 -4.060987266711890697e-04 -1.447042013751342893e-04
2.286000000000000000e+03 7.291944122314453125e+01 -2.926738739013671875e+01 -1.775445765815675259e-03 3.184451488777995110e-04 -4.371001559775322676e-04 -3.248070424888283014e-04
2.287000000000000000e+03 7.108367919921875000e+01 -3.018898200988769531e+01 -1.417335472069680691e-03 1.346847391687333584e-03 -2.114641938533168286e-05 -1.889191451482474804e-03
2.288000000000000000e+03 5.751465225219726562e+01 -2.668992805480957031e+01 1.154921650886535645e+00 3.538322150707244873e-01 4.526261687278747559e-01 6.648980379104614258e-01
2.289000000000000000e+03 7.987833404541015625e+01 -2.511046218872070312e+01 -7.261168793775141239e-04 1.009584031999111176e-02 2.810917096212506294e-03 4.161383549217134714e-04
2.290000000000000000e+03 5.432980728149414062e+01 -2.536054229736328125e+01 3.581363439559936523e+00 -3.172618746757507324e-01 9.792304635047912598e-01 9.976056218147277832e-01
2.291000000000000000e+03 5.449394226074218750e+01 -2.546419143676757812e+01 3.357275247573852539e+00 -4.056915044784545898e-01 8.854751586914062500e-01 8.002472519874572754e-01
2.292000000000000000e+03 5.342372894287109375e+01 -2.474718093872070312e+01 3.385050058364868164e+00 1.568719029426574707e+00 1.486130714416503906e+00 2.235331058502197266e+00
2.293000000000000000e+03 5.384461975097656250e+01 -2.495911788940429688e+01 3.652877807617187500e+00 4.752218425273895264e-01 1.238429903984069824e+00 1.776360988616943359e+00
2.294000000000000000e+03 5.499396896362304688e+01 -2.577523612976074219e+01 2.730857849121093750e+00 -5.220020413398742676e-01 6.626567244529724121e-01 4.384443461894989014e-01
2.295000000000000000e+03 5.579890823364257812e+01 -2.612848091125488281e+01 1.952209115028381348e+00 -4.480155110359191895e-01 4.512580931186676025e-01 3.901383876800537109e-01
2.296000000000000000e+03 5.615750885009765625e+01 -2.572976303100585938e+01 2.012386560440063477e+00 -5.194690823554992676e-01 4.478752315044403076e-01 6.188054680824279785e-01
2.297000000000000000e+03 5.532710647583007812e+01 -2.595152664184570312e+01 2.327248096466064453e+00 -5.027341842651367188e-01 5.473541617393493652e-01 3.765994310379028320e-01
2.298000000000000000e+03 4.018010711669921875e+01 -1.941830825805664062e+01 5.851347850693855435e-07 1.040421011566650122e-05 3.296803470220766030e-06 4.026687747682444751e-07
2.299000000000000000e+03 4.127622985839843750e+01 -2.031885528564453125e+01 -1.527858444205776323e-06 -1.776257249730406329e-06 -9.912347422869061120e-07 1.429349936188373249e-06
2.300000000000000000e+03 5.354002761840820312e+01 -2.870081138610839844e+01 3.980211317539215088e-01 1.442656874656677246e+00 5.522034168243408203e-01 -9.344424009323120117e-01
2.301000000000000000e+03 5.340755081176757812e+01 -2.899523353576660156e+01 2.995184957981109619e-01 1.608280062675476074e+00 5.723395347595214844e-01 -8.890942931175231934e-01
2.302000000000000000e+03 5.322359848022460938e+01 -2.852977943420410156e+01 4.065624773502349854e-01 1.769572138786315918e+00 6.528403759002685547e-01 -9.928431510925292969e-01
2.303000000000000000e+03 5.258153915405273438e+01 -2.854128646850585938e+01 2.287295609712600708e-01 2.654567956924438477e+00 8.649892210960388184e-01 -8.201631307601928711e-01
2.304000000000000000e+03 5.304299545288085938e+01 -2.844402694702148438e+01 3.960895538330078125e-01 2.057624101638793945e+00 7.361140847206115723e-01 -9.944344758987426758e-01
2.305000000000000000e+03 5.214537048339843750e+01 -2.793279647827148438e+01 2.425023466348648071e-01 3.873153924942016602e+00 1.234696865081787109e+00 -4.882692992687225342e-01
2.306000000000000000e+03 5.180117034912109375e+01 -2.773393821716308594e+01 4.433583915233612061e-01 4.364803791046142578e+00 1.442448616027832031e+00 1.689993292093276978e-01
2.307000000000000000e+03 5.109788894653320312e+01 -2.753306770324707031e+01 1.662538886070251465e+00 3.837647676467895508e+00 1.650056004524230957e+00 1.353554606437683105e+00
2.308000000000000000e+03 5.316608047485351562e+01 -2.920156288146972656e+01 2.311817705631256104e-01 1.834446191787719727e+00 6.196883916854858398e-01 -8.889023065567016602e-01
2.309000000000000000e+03 5.372887039184570312e+01 -2.962384223937988281e+01 2.127016186714172363e-01 1.361798882484436035e+00 4.723501503467559814e-01 -8.109544515609741211e-01
2.310000000000000000e+03 4.206866073608398438e+01 -2.415848541259765625e+01 -1.734042726457118988e-02 -1.121555924415588379e+00 -3.416689038276672363e-01 -1.497625559568405151e-01
2.311000000000000000e+03 4.298140335083007812e+01 -2.496413421630859375e+01 1.100935041904449463e-03 -1.404956579208374023e+00 -4.211566746234893799e-01 -6.060391664505004883e-01
2.312000000000000000e+03 7.084458923339843750e+01 -2.928501129150390625e+01 -3.542233898770064116e-04 3.614432644098997116e-04 2.165961404898553155e-06 -9.600406046956777573e-04
2.313000000000000000e+03 2.802069854736328125e+01 -1.523386001586914062e+01 -5.035274170950287953e-06 -2.349349415453616530e-06 -2.215386984971701168e-06 -9.995668506235233508e-07
2.314000000000000000e+03 2.757901763916015625e+01 -1.456330108642578125e+01 6.760150426998734474e-06 1.869243988039670512e-06 2.588818233562051319e-06 -1.094581989491416607e-06
2.315000000000000000e+03 7.427309417724609375e+01 -2.924889564514160156e+01 -2.154352609068155289e-03 9.447379852645099163e-05 -6.179636111482977867e-04 5.291399429552257061e-04
2.316000000000000000e+03 7.276129913330078125e+01 -2.411872863769531250e+01 -6.881821900606155396e-02 5.741307046264410019e-03 -1.892307400703430176e-02 3.990118857473134995e-03
2.317000000000000000e+03 5.028006744384765625e+01 -2.440384101867675781e+01 1.880019664764404297e+00 1.338791370391845703e+00 9.656432867050170898e-01 -1.427971243858337402e+00
2.318000000000000000e+03 5.047719955444335938e+01 -2.507411766052246094e+01 3.456975460052490234e+00 1.671697974205017090e+00 1.538602113723754883e+00 -1.056853890419006348e+00
2.319000000000000000e+03 5.358762359619140625e+01 -3.031238365173339844e+01 1.452040821313858032e-01 1.446176290512084961e+00 4.774141013622283936e-01 -7.185005545616149902e-01
2.320000000000000000e+03 5.440570831298828125e+01 -2.943285560607910156e+01 2.537805736064910889e-01 9.453756213188171387e-01 3.597468435764312744e-01 -6.980777382850646973e-01
2.321000000000000000e+03 1.629675865173339844e+01 -5.584428787231445312e+00 -3.687520074890926480e-05 -7.678941074118483812e-06 -1.336624245595885441e-05 -1.295800757361575961e-05
2.322000000000000000e+03 1.586224460601806641e+01 -6.039779186248779297e+00 4.177805749350227416e-05 4.239469944877782837e-06 1.380525827698875219e-05 1.248149601451586932e-05
2.323000000000000000e+03 1.718104934692382812e+01 -7.446306705474853516e+00 -3.253728937124833465e-05 -6.074669272493338212e-06 -1.158358736574882641e-05 -1.418164629285456613e-06
2.324000000000000000e+03 1.802606391906738281e+01 -8.546932220458984375e+00 -3.865206963382661343e-05 -1.065889046003576368e-05 -1.479328784625977278e-05 -2.487169012965750881e-06
2.325000000000000000e+03 1.301246738433837891e+01 -4.364830017089843750e+00 -3.399602064746432006e-05 -1.827593041525688022e-05 -1.568158586451318115e-05 -4.472189630178036168e-06
2.326000000000000000e+03 1.281345367431640625e+01 -3.354910612106323242e+00 -2.222502007498405874e-05 -1.754649747454095632e-05 -1.193145544675644487e-05 -2.804712721626856364e-06
2.327000000000000000e+03 1.238540077209472656e+01 -4.026584148406982422e+00 3.082944385823793709e-05 2.196340028604026884e-05 1.583785342518240213e-05 1.393187403664342128e-06
2.328000000000000000e+03 2.128439140319824219e+01 -1.283770275115966797e+01 -1.143879671872127801e-05 -2.929913534899242222e-05 -1.222137962031411007e-05 2.629399023135192692e-05
2.329000000000000000e+03 5.889600372314453125e+01 -2.149632644653320312e+01 -3.963957130908966064e-01 5.055403113365173340e-01 3.274338692426681519e-02 8.510442376136779785e-01
2.330000000000000000e+03 5.906899642944335938e+01 -2.049882316589355469e+01 -9.502204656600952148e-01 5.268497467041015625e-01 -1.270112246274948120e-01 5.694874525070190430e-01
2.331000000000000000e+03 4.652923583984375000e+01 -2.333469009399414062e+01 -2.574476599693298340e-01 -8.197414875030517578e-01 -3.231567442417144775e-01 -1.615675210952758789e+00
2.332000000000000000e+03 4.429188156127929688e+01 -2.403234481811523438e+01 -2.702904120087623596e-02 -1.058597564697265625e+00 -3.256879746913909912e-01 -1.074648499488830566e+00
2.333000000000000000e+03 7.446623229980468750e+01 -2.422342872619628906e+01 -5.079753696918487549e-02 3.080125665292143822e-03 -1.431522332131862640e-02 -1.183337252587080002e-02
2.334000000000000000e+03 7.719158172607421875e+01 -2.482680511474609375e+01 -1.642939820885658264e-02 -4.205429460853338242e-03 -6.190448533743619919e-03 -6.319581530988216400e-03
2.335000000000000000e+03 4.789768218994140625e+01 -2.288290214538574219e+01 -7.061100602149963379e-01 -5.397822856903076172e-01 -3.737677037715911865e-01 -1.799349188804626465e+00
2.336000000000000000e+03 4.926086807250976562e+01 -2.257402038574218750e+01 -1.235104799270629883e+00 -1.834218017756938934e-02 -3.760341107845306396e-01 -1.690732717514038086e+00
2.337000000000000000e+03 5.154528427124023438e+01 -1.674711799621582031e+01 -1.776258500285621267e-06 2.708995452849194407e-06 2.798210516630206257e-07 6.663383373961551115e-07
2.338000000000000000e+03 1.011964607238769531e+01 2.685149192810058594e+00 8.117300239973701537e-06 1.671388781687710434e-05 7.449356417055241764e-06 -4.226880719215841964e-06
2.339000000000000000e+03 9.332233428955078125e+00 2.709613561630249023e+00 8.470649845548905432e-06 -6.305066108325263485e-06 6.496749733742035460e-07 -1.084153154806699604e-05
2.340000000000000000e+03 8.560904502868652344e+00 2.738110542297363281e+00 7.377128895313944668e-06 1.195209006255026907e-05 5.798765414510853589e-06 -4.112800525035709143e-06
2.341000000000000000e+03 7.785831451416015625e+00 2.772856235504150391e+00 6.764181307516992092e-06 -4.954251835442846641e-06 5.429788529909274075e-07 -9.833399417402688414e-06
2.342000000000000000e+03 4.164293289184570312e+00 2.553546428680419922e+00 4.995501058147056028e-06 3.250465397286461666e-06 2.473789891155320220e-06 -1.218846705342002679e-06
2.343000000000000000e+03 2.812844991683959961e+00 2.749560832977294922e+00 1.723788273011450656e-06 9.065409471986640710e-07 7.890987490100087598e-07 4.318357298416231060e-07
2.344000000000000000e+03 6.156339168548583984e+00 2.835419654846191406e+00 3.698504315252648667e-06 -5.343626071407925338e-06 -4.935365041092154570e-07 -7.549213478341698647e-06
2.345000000000000000e+03 5.423436164855957031e+00 2.677867650985717773e+00 3.405656570976134390e-06 1.210387745231855661e-05 4.652859843190526590e-06 -2.814258550642989576e-06
2.346000000000000000e+03 4.805559635162353516e+00 2.533641576766967773e+00 3.851852397929178551e-06 -3.947495315514970571e-06 -2.869291293450260127e-08 -3.221137831133091822e-06
2.347000000000000000e+03 1.352683186531066895e+00 3.341545343399047852e+00 -1.137487856794905383e-06 -7.975036169227678329e-07 -5.804974421153019648e-07 1.655585606386011932e-06
2.348000000000000000e+03 2.716888999938964844e+01 -1.400556659698486328e+01 -7.908180123195052147e-06 5.094230459690152202e-07 -2.219627049271366559e-06 7.534794832508850959e-08
2.349000000000000000e+03 2.694356346130371094e+01 -1.342774963378906250e+01 7.913786248536780477e-06 -3.276936240581562743e-06 1.391055093336035497e-06 2.964903274005337153e-07
2.350000000000000000e+03 2.798143768310546875e+01 -1.232747364044189453e+01 4.429777618497610092e-06 -2.545379629736999050e-06 5.653193397847644519e-07 -2.421737690383451991e-06
2.351000000000000000e+03 2.593232536315917969e+01 -1.055742931365966797e+01 5.559760211326647550e-06 3.842878868454135954e-06 2.820791905833175406e-06 1.600137579771399032e-06
2.352000000000000000e+03 5.141827392578125000e+01 -2.217643165588378906e+01 -2.055743694305419922e+00 1.005616307258605957e+00 -3.150382041931152344e-01 -5.872959494590759277e-01
2.353000000000000000e+03 5.068745803833007812e+01 -2.230506896972656250e+01 -1.826086282730102539e+00 7.133905887603759766e-01 -3.338087201118469238e-01 -1.096676826477050781e+00
2.354000000000000000e+03 4.984411239624023438e+01 -1.751031303405761719e+01 2.179735247409553267e-06 -6.062929287509177811e-07 4.720326955975906458e-07 -2.180646788474405184e-06
2.355000000000000000e+03 5.222951507568359375e+01 -1.637565040588378906e+01 2.591346174085629173e-06 -4.408408130984753370e-06 -5.451185529636859428e-07 -1.294308731303317472e-06
2.356000000000000000e+03 5.091976928710937500e+01 -1.707322311401367188e+01 1.140193489845842123e-06 -2.800275296976906247e-06 -4.980245194019516930e-07 -1.056708583746512886e-06
2.357000000000000000e+03 7.734629821777343750e+01 -3.022989654541015625e+01 -8.533207437722012401e-05 -4.554878105409443378e-04 -1.622459676582366228e-04 4.930163850076496601e-04
2.358000000000000000e+03 5.511284255981445312e+01 -2.143775367736816406e+01 -1.578337073326110840e+00 1.839574277400970459e-01 -4.183139204978942871e-01 9.075137972831726074e-01
2.359000000000000000e+03 5.584757995605468750e+01 -2.136598205566406250e+01 -1.312709212303161621e+00 8.027853816747665405e-02 -3.697291910648345947e-01 8.593679666519165039e-01
2.360000000000000000e+03 5.439636993408203125e+01 -2.155348777770996094e+01 -1.819948792457580566e+00 3.416474759578704834e-01 -4.434903860092163086e-01 8.684881925582885742e-01
2.361000000000000000e+03 5.368583679199218750e+01 -2.171314239501953125e+01 -1.957434296607971191e+00 5.976861119270324707e-01 -4.079244732856750488e-01 7.887632250785827637e-01
2.362000000000000000e+03 4.845917510986328125e+01 -1.749473571777343750e+01 1.983687070605810732e-06 4.154471753281541169e-07 7.197402851488732267e-07 -6.051558898434450384e-07
2.363000000000000000e+03 4.848499679565429688e+01 -1.828298950195312500e+01 -1.289021838601911440e-06 -2.296630441378511023e-07 -4.556054591375868767e-07 4.863168783231230918e-07
2.364000000000000000e+03 7.497085571289062500e+01 -3.033595848083496094e+01 -3.599461866542696953e-03 6.780737312510609627e-04 -8.764164522290229797e-04 3.814079973381012678e-04
2.365000000000000000e+03 7.417763519287109375e+01 -3.048917388916015625e+01 -2.410357119515538216e-03 -1.091846424969844520e-04 -7.558625657111406326e-04 8.461559191346168518e-04
2.366000000000000000e+03 7.658128356933593750e+01 -3.024998092651367188e+01 -1.972410129383206367e-03 -1.342070900136604905e-04 -6.319851381704211235e-04 1.001016120426356792e-03
2.367000000000000000e+03 1.977160072326660156e+01 -2.613996982574462891e+00 5.881039669475285336e-06 1.616599183762446046e-05 6.614109224756248295e-06 -4.721271579910535365e-06
2.368000000000000000e+03 5.188243484497070312e+01 -2.448689842224121094e+01 1.794820666313171387e+00 4.274147510528564453e+00 1.820690512657165527e+00 -5.060523375868797302e-02
2.369000000000000000e+03 5.086050033569335938e+01 -2.358382034301757812e+01 3.475425839424133301e-01 1.708491206169128418e+00 6.168101429939270020e-01 -1.132241010665893555e+00
2.370000000000000000e+03 5.311114120483398438e+01 -2.372747993469238281e+01 9.035374522209167480e-01 1.847934961318969727e+00 8.254417181015014648e-01 1.522421240806579590e+00
2.371000000000000000e+03 5.280487442016601562e+01 -2.456118965148925781e+01 2.551491975784301758e+00 3.298338413238525391e+00 1.754949092864990234e+00 1.857294917106628418e+00
2.372000000000000000e+03 4.496691513061523438e+01 -1.799300003051757812e+01 -1.091782905859872699e-06 -1.828735435083217453e-06 -8.761555250202945899e-07 4.228319312460371293e-07
2.373000000000000000e+03 4.261607360839843750e+01 -1.846365165710449219e+01 -3.457254706518142484e-06 -3.137218527626828291e-06 -1.978341970243491232e-06 -6.362012072713696398e-07
2.374000000000000000e+03 2.625363349914550781e+01 -8.680773735046386719e+00 9.874194120129686780e-07 -2.616927758936071768e-07 2.177179680984409060e-07 -4.088755304110236466e-06
2.375000000000000000e+03 2.379945564270019531e+01 -6.967111587524414062e+00 3.503457946862909012e-06 -7.867835847719106823e-06 -1.309313347519491799e-06 -7.951412953843828291e-06
2.376000000000000000e+03 2.302941703796386719e+01 -5.572406768798828125e+00 6.551411843247478828e-06 -4.451145741768414155e-06 6.300797963376680855e-07 -1.045663702825549990e-05
2.377000000000000000e+03 2.223558425903320312e+01 -4.609311103820800781e+00 4.767371592606650665e-06 1.692058867774903774e-05 6.506388217530911788e-06 -4.317937055020593107e-06
2.378000000000000000e+03 2.284010696411132812e+01 -4.011970043182373047e+00 8.486430488119367510e-06 -1.065166452463017777e-05 -6.495700404229864944e-07 -8.016067113203462213e-06
2.379000000000000000e+03 1.755996131896972656e+01 2.344232425093650818e-02 1.220768717757891864e-05 -3.732953146595718863e-08 3.651107363111805171e-06 1.572893552292953245e-06
2.380000000000000000e+03 1.582071208953857422e+01 1.441202908754348755e-01 1.160432202595984563e-05 8.089227776508778334e-06 5.908064849791117013e-06 -8.859159606799948961e-06
2.381000000000000000e+03 1.516220283508300781e+01 5.515599846839904785e-01 1.684177914285100996e-05 -1.390073180118633900e-06 4.635511686501558870e-06 -5.987325039313873276e-06
2.382000000000000000e+03 2.095845031738281250e+01 -3.658936500549316406e+00 6.559605481015751138e-06 1.338173206022474915e-05 5.982401034998474643e-06 -4.008583346148952842e-06
2.383000000000000000e+03 1.790536689758300781e+01 -1.023681759834289551e+00 1.504071951785590500e-05 -2.534092118366970681e-06 3.751988288058782928e-06 1.202830617330619134e-06
2.384000000000000000e+03 1.717332077026367188e+01 -6.468303799629211426e-01 1.216954933624947444e-05 7.259469839482335374e-06 5.828705980093218386e-06 -1.165425510407658294e-05
2.385000000000000000e+03 1.139759540557861328e+00 -2.974070549011230469e+00 -3.088702214881777763e-05 -6.692098253324729740e-08 -9.286183740186970681e-06 3.005860344273969531e-05
2.386000000000000000e+03 8.174592018127441406e+00 -2.783160448074340820e+00 4.679979247157461941e-05 1.126559982367325574e-05 1.741961750667542219e-05 -4.909272320219315588e-06
2.387000000000000000e+03 9.284743309020996094e+00 -1.819986581802368164e+00 9.088419574254658073e-06 2.479639624652918428e-05 1.016544501908356324e-05 -7.436314263031817973e-06
2.388000000000000000e+03 9.860586166381835938e+00 -2.577922105789184570e+00 3.197329715476371348e-05 1.406850151397520676e-05 1.381253969157114625e-05 -7.038767648737120908e-07
2.389000000000000000e+03 6.385179901123046875e+01 -1.658695602416992188e+01 -1.600979119539260864e-01 7.645499110221862793e-01 1.813355982303619385e-01 3.399490714073181152e-01
2.390000000000000000e+03 6.350158691406250000e+01 -1.544557476043701172e+01 6.114701926708221436e-02 7.618600130081176758e-01 2.469021081924438477e-01 3.961863517761230469e-01
2.391000000000000000e+03 5.661376953125000000e+01 -2.049076080322265625e+01 -1.850825786590576172e+00 1.006590053439140320e-01 -5.250500440597534180e-01 4.288760125637054443e-01
2.392000000000000000e+03 5.737163925170898438e+01 -2.134982681274414062e+01 -7.386735081672668457e-01 1.954788118600845337e-01 -1.629584133625030518e-01 7.899184823036193848e-01
2.393000000000000000e+03 1.095209789276123047e+01 2.651917934417724609e+00 1.111097844841424376e-05 -8.853893632476683706e-06 6.771253424631140660e-07 -1.114044152927817777e-05
2.394000000000000000e+03 1.387698173522949219e+01 1.493887901306152344e+00 1.610456456546671689e-05 -6.295086677710060030e-06 2.942843366326997057e-06 -6.541045422636670992e-06
2.395000000000000000e+03 6.092961502075195312e+01 -1.986111831665039062e+01 -7.762714028358459473e-01 9.081490039825439453e-01 3.956328704953193665e-02 6.134993433952331543e-01
2.396000000000000000e+03 6.155441284179687500e+01 -1.816606903076171875e+01 -6.442788839340209961e-01 8.416824340820312500e-01 5.922105908393859863e-02 3.310886621475219727e-01
2.397000000000000000e+03 3.558164978027343750e+01 -1.671359634399414062e+01 1.303001340602349956e-06 -3.479864062683191150e-06 -6.530588052555685863e-07 5.866442052138154395e-07
2.398000000000000000e+03 5.669708251953125000e+01 -2.587234497070312500e+01 1.656912922859191895e+00 -2.703586518764495850e-01 4.159663021564483643e-01 6.426218748092651367e-01
2.399000000000000000e+03 5.633133697509765625e+01 -2.529350280761718750e+01 2.011080026626586914e+00 -5.013694167137145996e-01 4.529131948947906494e-01 7.881695628166198730e-01
2.400000000000000000e+03 1.110643863677978516e+01 -3.277645349502563477e+00 2.157559902116190642e-05 2.757038782874587923e-05 1.474379587307339534e-05 -5.237881850916892290e-06
2.401000000000000000e+03 1.062910270690917969e+01 -3.894925832748413086e+00 -3.377373286639340222e-05 -2.252787271572742611e-05 -1.689048258413095027e-05 1.682024617366550956e-06
2.402000000000000000e+03 5.489805221557617188e+01 -3.234226226806640625e+01 2.736401259899139404e-01 1.024796843528747559e+00 3.895311057567596436e-01 -4.597795605659484863e-01
2.403000000000000000e+03 1.819566154479980469e+01 -1.326069450378417969e+01 5.617618626274634153e-06 9.064534970093518496e-05 2.887888877012301236e-05 -1.333384807367110625e-05
2.404000000000000000e+03 4.327071666717529297e+00 -2.867147207260131836e+00 -4.726995030068792403e-05 -1.101235648093279451e-05 -1.748469185258727521e-05 -2.625789966259617358e-05
2.405000000000000000e+03 2.161338043212890625e+01 -4.114877700805664062e+00 1.266182698600459844e-05 -1.240786150447092950e-05 7.618959330102370586e-08 -2.718272980928304605e-06
2.406000000000000000e+03 1.108260154724121094e+01 -1.437834548950195312e+01 2.202523501182440668e-05 7.964385076775215566e-06 8.996886208478827029e-06 -1.086564589058980346e-04
2.407000000000000000e+03 6.521283721923828125e+01 -1.429736518859863281e+01 6.723593920469284058e-02 8.492719531059265137e-01 2.749523818492889404e-01 3.807576894760131836e-01
2.408000000000000000e+03 3.430198669433593750e+01 -1.667058563232421875e+01 9.016316653287503868e-07 2.960121491923928261e-06 1.158525947175803594e-06 -7.573387961201660801e-07
2.409000000000000000e+03 3.305701065063476562e+01 -1.658292198181152344e+01 -4.194605551788299636e-08 -2.829033064699615352e-06 -8.612937563157174736e-07 -6.386031259353330825e-08
2.410000000000000000e+03 3.083756065368652344e+01 -1.617250823974609375e+01 -1.311358118982752785e-06 -3.619142262323293835e-06 -1.479150114391813986e-06 -1.165530306934670079e-06
2.411000000000000000e+03 8.539461135864257812e+00 -2.421699523925781250e+01 -9.163830691250041127e-05 -9.731495811138302088e-05 -5.668598168995231390e-05 -6.940207094885408878e-05
2.412000000000000000e+03 7.450729370117187500e+00 -2.471412467956542969e+01 1.710083743091672659e-04 1.315462577622383833e-04 9.076639253180474043e-05 1.696973049547523260e-04
2.413000000000000000e+03 7.840777587890625000e+01 -1.398252773284912109e+01 4.098535049706697464e-03 -5.056305527687072754e-01 -1.504596024751663208e-01 -1.515267193317413330e-01
2.414000000000000000e+03 7.774755859375000000e+01 -2.074254035949707031e+01 -3.385439515113830566e-02 -6.645011901855468750e-02 -3.009135462343692780e-02 -8.267915993928909302e-02
2.415000000000000000e+03 7.774934387207031250e+01 -2.202852439880371094e+01 -2.922381274402141571e-02 -3.250608593225479126e-02 -1.851896941661834717e-02 -4.821406677365303040e-02
2.416000000000000000e+03 1.297000789642333984e+01 -1.308214282989501953e+01 1.150555108324624598e-04 1.205809385282918811e-04 7.069093408063054085e-05 -6.835448584752157331e-05
2.417000000000000000e+03 6.504688262939453125e+00 -2.267341423034667969e+01 -4.744578109239228070e-05 -2.596862213977146894e-05 -2.202432187914382666e-05 2.661666367202997208e-04
2.418000000000000000e+03 2.920455741882324219e+01 -3.216321563720703125e+01 3.838022053241729736e-02 -2.131497458321973681e-04 1.145012117922306061e-02 -1.686802832409739494e-03
2.419000000000000000e+03 8.928840637207031250e+00 -1.691335296630859375e+01 -2.902213018387556076e-04 -5.843015969730913639e-05 -1.045954340952448547e-04 5.917049929848872125e-05
2.420000000000000000e+03 5.213703918457031250e+01 -1.505492305755615234e+01 -4.606424042208345782e-08 -7.260510301421163604e-06 -2.191972271248232573e-06 1.068905817191989627e-06
2.421000000000000000e+03 5.043003082275390625e+01 -8.775563240051269531e+00 -1.118051500270667020e-06 -6.687931204396591056e-07 -5.360533918974397238e-07 3.284553713456261903e-07
2.422000000000000000e+03 5.011250686645507812e+01 3.426718139648437500e+01 -6.889253854751586914e-03 -3.147262148559093475e-03 -3.010954707860946655e-03 2.920345636084675789e-03
2.423000000000000000e+03 7.157581329345703125e+01 1.413154792785644531e+01 2.827877365052700043e-02 2.317735910415649414e+00 7.038044333457946777e-01 -4.009929299354553223e-02
2.424000000000000000e+03 7.135908508300781250e+01 9.934504508972167969e+00 -1.502182483673095703e-01 2.573029518127441406e+00 7.268433570861816406e-01 1.337831374257802963e-02
2.425000000000000000e+03 7.109132385253906250e+01 2.405960273742675781e+01 1.834431886672973633e-01 2.717870473861694336e+00 8.703941106796264648e-01 -1.628664135932922363e-01
2.426000000000000000e+03 7.117518615722656250e+01 2.535459518432617188e+01 2.206095308065414429e-01 2.498961448669433594e+00 8.158712983131408691e-01 -1.807724684476852417e-01
2.427000000000000000e+03 7.172582244873046875e+01 6.092447638511657715e-01 2.708321213722229004e-01 2.376748323440551758e+00 7.942741513252258301e-01 7.534674555063247681e-02
2.428000000000000000e+03 7.009674835205078125e+01 -5.098024368286132812e+00 1.658350080251693726e-01 1.872171640396118164e+00 6.114019751548767090e-01 2.919428646564483643e-01
2.429000000000000000e+03 7.110102081298828125e+01 2.273797798156738281e+01 8.621826767921447754e-02 2.797630071640014648e+00 8.651545047760009766e-01 -9.692212939262390137e-02
2.430000000000000000e+03 7.158638000488281250e+01 1.721294593811035156e+01 1.277794875204563141e-02 2.434113979339599609e+00 7.340675592422485352e-01 4.187212791293859482e-03
2.431000000000000000e+03 1.841664552688598633e+00 4.237254619598388672e+00 6.045974259905051440e-06 8.231790161516983062e-06 4.283329417376080528e-06 -3.831393314612796530e-06
2.432000000000000000e+03 2.270685434341430664e+00 -3.452958822250366211e+00 8.290570258395746350e-05 -9.710010090202558786e-06 2.195870729337912053e-05 -2.600761490612057969e-06
2.433000000000000000e+03 2.402770757675170898e+00 4.919584751129150391e+00 -1.645636530156480148e-06 -3.394762643438298255e-06 -1.512119752078433521e-06 4.815620286535704508e-06
2.434000000000000000e+03 4.375920486450195312e+01 3.287587165832519531e+00 -6.036413196852663532e-06 5.503596639755414799e-06 -1.598449870243712212e-07 -1.961367706826422364e-05
2.435000000000000000e+03 6.772246551513671875e+01 -2.068569183349609375e+01 -6.190878748893737793e-01 -3.997061401605606079e-02 -1.977175474166870117e-01 9.996262937784194946e-02
2.436000000000000000e+03 7.266341400146484375e+01 -2.265555572509765625e+01 -1.924688071012496948e-01 4.183351621031761169e-02 -4.519058763980865479e-02 2.950890047941356897e-04
2.437000000000000000e+03 7.751050567626953125e+01 -1.802006340026855469e+01 -3.410818800330162048e-02 -1.620628982782363892e-01 -5.885132774710655212e-02 -1.620244681835174561e-01
2.438000000000000000e+03 7.170529174804687500e+01 7.146259307861328125e+00 1.469727605581283569e-01 2.571823835372924805e+00 8.156389594078063965e-01 -3.585074096918106079e-02
2.439000000000000000e+03 2.195214033126831055e+00 2.293113327026367188e+01 -3.210690692867501639e-06 2.008782030316069722e-05 5.063138814875856042e-06 5.393168976297602057e-06
2.440000000000000000e+03 2.672149658203125000e+00 1.802656555175781250e+01 5.327600320015335456e-06 2.124174534401390702e-05 7.970803380885627121e-06 7.200018444564193487e-06
2.441000000000000000e+03 4.756680488586425781e+00 1.585175704956054688e+01 -8.911821169022005051e-06 3.258849119447404519e-06 -1.695891569397645071e-06 -8.631182026874739677e-06
2.442000000000000000e+03 2.358780384063720703e+00 -1.480431747436523438e+01 -1.956218329723924398e-04 -1.515635540272342041e-05 -6.323345587588846684e-05 -3.537166048772633076e-05
2.443000000000000000e+03 7.617772674560546875e+01 -9.336260795593261719e+00 -5.380056682042777538e-04 -3.367981612682342529e-01 -1.012008562684059143e-01 -3.318105041980743408e-01
2.444000000000000000e+03 4.036508941650390625e+01 1.036765861511230469e+01 3.949612073483876884e-05 1.746483940223697573e-05 1.708828676783014089e-05 3.997714884462766349e-05
2.445000000000000000e+03 7.594664001464843750e+01 -2.707785964012145996e-01 1.031952425837516785e-01 -2.972576916217803955e-01 -5.821873620152473450e-02 -2.161877453327178955e-01
2.446000000000000000e+03 7.211972045898437500e+01 4.177661895751953125e+00 1.561723798513412476e-01 2.471807479858398438e+00 7.883939146995544434e-01 2.383040264248847961e-02
2.447000000000000000e+03 7.191792297363281250e+01 5.705416679382324219e+00 1.209200173616409302e-01 2.541930675506591797e+00 7.988551855087280273e-01 -9.036358445882797241e-02
2.448000000000000000e+03 3.533585786819458008e+00 8.790684700012207031e+00 2.770719675027066842e-06 1.741912092256825417e-05 6.056952315702801570e-06 -1.299045652558561414e-05
2.449000000000000000e+03 4.640391540527343750e+01 -5.613627433776855469e+00 -4.600164515977667179e-07 -2.442487675580196083e-05 -7.465467660949798301e-06 1.699094127616262995e-06
2.450000000000000000e+03 4.403840637207031250e+01 -2.753844833374023438e+01 -3.982267528772354126e-02 -1.502379655838012695e+00 -4.626607000827789307e-01 -5.735412240028381348e-01
2.451000000000000000e+03 6.216031551361083984e+00 -1.938458061218261719e+01 -2.811415470205247402e-04 2.208335445175180212e-06 -8.367995906155556440e-05 1.075332329492084682e-04
2.452000000000000000e+03 5.155742263793945312e+01 -3.065126419067382812e+01 -1.086989119648933411e-01 1.961677312850952148e+00 5.558935403823852539e-01 -7.047253102064132690e-02
2.453000000000000000e+03 7.552810668945312500e+01 -3.339507675170898438e+01 -3.406124422326683998e-03 -1.225595129653811455e-03 -1.389515935443341732e-03 5.988657474517822266e-03
2.454000000000000000e+03 3.924245071411132812e+01 -1.704277992248535156e+01 1.175134116238041315e-06 -2.223506214704684680e-07 2.858350285350752529e-07 -3.124304612356354482e-06
2.455000000000000000e+03 3.922516250610351562e+01 -1.602782630920410156e+01 -6.647391046499251388e-07 -6.049534931662492454e-06 -2.014282244999776594e-06 4.432853017988236388e-07
2.456000000000000000e+03 5.238313674926757812e+01 -3.179275131225585938e+01 -1.063769385218620300e-01 1.550945878028869629e+00 4.333706796169281006e-01 -2.814968228340148926e-01
2.457000000000000000e+03 4.738588333129882812e+01 -2.838517951965332031e+01 9.534606933593750000e-01 3.170089051127433777e-02 2.955484688282012939e-01 3.985073566436767578e-01
2.458000000000000000e+03 5.447354507446289062e+01 -2.475805664062500000e+01 3.053430795669555664e+00 -1.304089725017547607e-01 8.769065141677856445e-01 1.503304481506347656e+00
2.459000000000000000e+03 5.514873504638671875e+01 -2.588868141174316406e+01 2.536185741424560547e+00 -5.156803131103515625e-01 6.061515808105468750e-01 3.638345897197723389e-01
2.460000000000000000e+03 5.466069030761718750e+01 -2.521397972106933594e+01 3.209849834442138672e+00 -3.839114904403686523e-01 8.477814793586730957e-01 1.061219692230224609e+00
2.461000000000000000e+03 5.466260910034179688e+01 -2.556269073486328125e+01 3.119920492172241211e+00 -4.592752158641815186e-01 7.981935739517211914e-01 6.379257440567016602e-01
2.462000000000000000e+03 5.525733566284179688e+01 -2.516119766235351562e+01 2.605891227722167969e+00 -5.272753238677978516e-01 6.235848069190979004e-01 9.056105613708496094e-01
2.463000000000000000e+03 5.482986068725585938e+01 -2.566282272338867188e+01 2.959683656692504883e+00 -4.993161559104919434e-01 7.381102442741394043e-01 5.538203716278076172e-01
2.464000000000000000e+03 5.364595794677734375e+01 -2.482886314392089844e+01 3.530397653579711914e+00 9.560244083404541016e-01 1.345926642417907715e+00 2.084190607070922852e+00
2.465000000000000000e+03 5.239539337158203125e+01 -2.845322227478027344e+01 2.025474458932876587e-01 2.977690935134887695e+00 9.540715217590332031e-01 -6.999349594116210938e-01
2.466000000000000000e+03 5.534349060058593750e+01 -2.537285423278808594e+01 2.664332866668701172e+00 -5.789315104484558105e-01 6.256204247474670410e-01 7.472096681594848633e-01
2.467000000000000000e+03 5.067211914062500000e+01 -2.834056472778320312e+01 7.991044521331787109e-01 2.748941898345947266e+00 1.064413905143737793e+00 8.694611787796020508e-01
2.468000000000000000e+03 5.366494369506835938e+01 -2.885644912719726562e+01 3.710256814956665039e-01 1.326252341270446777e+00 5.091834068298339844e-01 -8.874178528785705566e-01
2.469000000000000000e+03 4.036253356933593750e+01 -2.039363670349121094e+01 -3.904023060385952704e-07 1.698913138170610182e-06 3.925532610082882456e-07 3.008497060363879427e-06
2.470000000000000000e+03 4.110696029663085938e+01 -1.887212181091308594e+01 2.551251554905320518e-06 4.162137884122785181e-06 2.014016899920534343e-06 3.677668246382381767e-06
2.471000000000000000e+03 1.890664291381835938e+01 -9.651738166809082031e+00 -3.866696351906284690e-05 -2.017014412558637559e-05 -1.765113302099052817e-05 -2.064255386358126998e-05
2.472000000000000000e+03 1.697022438049316406e+01 -8.404595375061035156e+00 -3.722250403370708227e-05 4.529143552645109594e-06 -9.808008144318591803e-06 1.088482804334489629e-05
2.473000000000000000e+03 1.732937431335449219e+01 -9.060206413269042969e+00 4.770065788761712611e-05 1.974356791833997704e-06 1.490250451752217487e-05 -6.411397407646290958e-06
2.474000000000000000e+03 3.662321567535400391e+00 3.267199039459228516e+00 1.666697130531247240e-06 2.231515509265591390e-06 1.169463757833000273e-06 -1.897709012155246455e-06
2.475000000000000000e+03 4.675597763061523438e+01 -2.397471237182617188e+01 2.431631237268447876e-01 -8.581011295318603516e-01 -1.844814121723175049e-01 -1.565393209457397461e+00
2.476000000000000000e+03 1.422119140625000000e+01 -5.014252185821533203e+00 -3.930942330043762922e-05 -1.356017492071259767e-05 -1.586087819305248559e-05 -5.151501227373955771e-06
2.477000000000000000e+03 5.578495025634765625e+01 -2.209325027465820312e+01 -5.023604035377502441e-01 5.854340270161628723e-02 -1.331450939178466797e-01 1.153578042984008789e+00
2.478000000000000000e+03 7.408576965332031250e+01 -2.362312889099121094e+01 -9.025655686855316162e-02 1.170808169990777969e-02 -2.356454171240329742e-02 -1.195093523710966110e-02
2.479000000000000000e+03 7.340045928955078125e+01 -2.315299606323242188e+01 -1.031199023127555847e-01 2.022518590092658997e-02 -2.486841566860675812e-02 -8.187149651348590851e-04
2.480000000000000000e+03 4.117798995971679688e+01 -1.820445060729980469e+01 -1.894923684631066862e-06 -2.328561095055192709e-06 -1.267045490749296732e-06 1.053996129485312849e-06
2.481000000000000000e+03 1.781781578063964844e+01 -9.604206085205078125e+00 -8.148766210069879889e-05 1.400592736899852753e-06 -2.402612153673544526e-05 -1.848081228672526777e-05
2.482000000000000000e+03 1.618753242492675781e+01 -7.302531242370605469e+00 -2.927987588918767869e-05 -1.215906195284333080e-05 -1.243168117071036249e-05 1.034095112117938697e-05
2.483000000000000000e+03 2.086761283874511719e+01 -1.338972687721252441e+00 4.547478511085500941e-06 1.906998841150198132e-05 7.085240213200449944e-06 7.710386853432282805e-07
2.484000000000000000e+03 1.918794631958007812e+01 -2.057024478912353516e+00 1.867319770099129528e-05 -1.336681270913686603e-05 1.591915633980534039e-06 -3.445150241532246582e-06
2.485000000000000000e+03 9.511591911315917969e+00 -3.574607133865356445e+00 5.279200195218436420e-05 1.178128604806261137e-05 1.937198612722568214e-05 1.035616423905594274e-05
2.486000000000000000e+03 4.850910568237304688e+01 -1.668069648742675781e+01 -2.699919377846526913e-06 -9.305585422225703951e-07 -1.089143324861652218e-06 2.567364845162956044e-07
2.487000000000000000e+03 1.451336574554443359e+01 9.923643469810485840e-01 9.596041309123393148e-06 1.263912599824834615e-05 6.670550192211521789e-06 -7.609527528984472156e-06
2.488000000000000000e+03 1.410650539398193359e+01 2.724439620971679688e+00 1.094685558200580999e-05 -1.608356251381337643e-05 -1.541012125017005019e-06 -5.552346465265145525e-06
2.489000000000000000e+03 2.716278457641601562e+01 -1.176402854919433594e+01 -5.246964178695634473e-07 -3.047973223146982491e-06 -1.071800852514570579e-06 -3.657075467344839126e-06
2.490000000000000000e+03 1.197413349151611328e+01 -4.702087879180908203e+00 -3.926433782908134162e-05 -2.750759449554607272e-05 -2.003157896979246289e-05 -2.482909451373416232e-07
2.491000000000000000e+03 4.692667388916015625e+01 -1.674979209899902344e+01 -8.157937259056780022e-07 -2.186151505156885833e-06 -9.005835863717948087e-07 -1.399496227350027766e-06
2.492000000000000000e+03 4.867410278320312500e+01 -2.330272865295410156e+01 -1.068173497915267944e-01 -2.024870514869689941e-01 -9.279131889343261719e-02 -1.786885142326354980e+00
2.493000000000000000e+03 4.680998229980468750e+01 -2.461242675781250000e+01 7.335689663887023926e-01 -9.177644252777099609e-01 -5.525865405797958374e-02 -1.354772448539733887e+00
2.494000000000000000e+03 4.933945083618164062e+01 -2.322954559326171875e+01 -2.282463610172271729e-01 1.436091810464859009e-01 -2.539115585386753082e-02 -1.693710446357727051e+00
2.495000000000000000e+03 5.005351638793945312e+01 -2.310087394714355469e+01 -4.297259151935577393e-01 6.770407557487487793e-01 7.419445365667343140e-02 -1.502330541610717773e+00
2.496000000000000000e+03 4.996886825561523438e+01 -2.244281578063964844e+01 -1.544344663619995117e+00 3.482389748096466064e-01 -3.588317334651947021e-01 -1.466712117195129395e+00
2.497000000000000000e+03 7.615489196777343750e+01 -2.394155883789062500e+01 -4.253029823303222656e-02 -2.653411589562892914e-03 -1.355511229485273361e-02 -1.757794618606567383e-02
2.498000000000000000e+03 5.300725173950195312e+01 -2.326200294494628906e+01 8.778338320553302765e-03 1.799835443496704102e+00 5.425841212272644043e-01 1.285814285278320312e+00
2.499000000000000000e+03 5.273032760620117188e+01 -2.288254356384277344e+01 -7.126290798187255859e-01 1.642355918884277344e+00 2.789180576801300049e-01 7.764660716056823730e-01
2.500000000000000000e+03 2.782872772216796875e+01 -1.295810508728027344e+01 -3.034248265976202674e-06 -4.402469585329527035e-06 -2.231015287179616280e-06 -2.444946403556969017e-06
2.501000000000000000e+03 2.808489608764648438e+01 -1.400016117095947266e+01 -4.548321157926693559e-06 -4.043336502945749089e-06 -2.577497298261732794e-06 -3.644409218850341858e-08
2.502000000000000000e+03 2.752261543273925781e+01 -1.354297733306884766e+01 4.521579739957815036e-06 4.245291165716480464e-06 2.630061089803348295e-06 -2.327404473589922418e-07
2.503000000000000000e+03 5.146538925170898438e+01 -2.281229782104492188e+01 -1.038030505180358887e+00 1.524594783782958984e+00 1.459692865610122681e-01 -5.423525571823120117e-01
2.504000000000000000e+03 5.216676712036132812e+01 -2.273861312866210938e+01 -1.114748597145080566e+00 1.698715925216674805e+00 1.751902103424072266e-01 1.839470416307449341e-01
2.505000000000000000e+03 4.996689224243164062e+01 -1.697950553894042969e+01 -9.870911981124663725e-07 -3.053998625546228141e-06 -1.212326992572343443e-06 1.471532527830277104e-06
2.506000000000000000e+03 5.076426315307617188e+01 -2.295017242431640625e+01 -7.682635188102722168e-01 1.199754595756530762e+00 1.294473409652709961e-01 -1.097554683685302734e+00
2.507000000000000000e+03 5.152621841430664062e+01 -2.342291069030761719e+01 -4.985449090600013733e-02 2.244645595550537109e+00 6.584373116493225098e-01 -4.854411184787750244e-01
2.508000000000000000e+03 7.688265991210937500e+01 -2.424728012084960938e+01 -2.543659135699272156e-02 -3.898750990629196167e-03 -8.800602518022060394e-03 -1.219674572348594666e-02
2.509000000000000000e+03 4.998516082763671875e+01 -2.826844978332519531e+01 1.015939593315124512e+00 2.092613697052001953e+00 9.325659871101379395e-01 9.921650290489196777e-01
2.510000000000000000e+03 7.498878479003906250e+01 -3.131291770935058594e+01 -3.757656551897525787e-03 9.837347315624356270e-04 -8.321765344589948654e-04 2.441202057525515556e-03
2.511000000000000000e+03 5.220932769775390625e+01 -2.384077072143554688e+01 5.684400200843811035e-01 3.218474626541137695e+00 1.136074304580688477e+00 4.583585262298583984e-01
2.512000000000000000e+03 2.531115722656250000e+01 -8.999875068664550781e+00 7.687650395382661372e-06 4.524119049165165052e-06 3.663530833364347927e-06 3.149504891553078778e-06
2.513000000000000000e+03 2.628398132324218750e+01 -7.826627254486083984e+00 8.355504178325645626e-06 -1.079856701835524291e-05 -7.329189770644006785e-07 -1.244180452886212151e-06
2.514000000000000000e+03 1.691964721679687500e+01 3.921404182910919189e-01 1.150893513113260269e-05 6.353963271976681426e-06 5.358869657356990501e-06 -9.849255548033397645e-06
2.515000000000000000e+03 4.504573440551757812e+01 -2.383563232421875000e+01 -1.272537000477313995e-02 -9.952485561370849609e-01 -3.023921847343444824e-01 -1.322180747985839844e+00
2.516000000000000000e+03 4.174636840820312500e+01 -1.903037834167480469e+01 -2.724033720369334333e-06 -3.038448312508990057e-06 -1.728744678075599950e-06 2.755474497462273575e-07
2.517000000000000000e+03 4.298421478271484375e+01 -1.898390579223632812e+01 1.399506345478584990e-06 -9.484826932748546824e-07 1.353071041876319214e-07 1.951350441231625155e-06
2.518000000000000000e+03 5.297183990478515625e+01 -1.589412021636962891e+01 -2.567579031165223569e-06 3.403256414458155632e-06 2.507031808818283025e-07 2.346796236452064477e-06
2.519000000000000000e+03 4.626733016967773438e+01 -1.682759284973144531e+01 -1.989436384519649437e-07 3.768270062209921889e-06 1.070797907232190482e-06 3.187690822414879221e-07
2.520000000000000000e+03 4.571663665771484375e+01 -1.668342590332031250e+01 9.096899589167151134e-08 -5.811435130453901365e-06 -1.716139877316891216e-06 6.836238526375382207e-07
2.521000000000000000e+03 2.647986030578613281e+01 -9.504244804382324219e+00 5.846482508786721155e-06 3.372104401933029294e-06 2.765576027741190046e-06 -4.634281935977924149e-07
2.522000000000000000e+03 8.586171150207519531e+00 -3.851056098937988281e+00 4.436575909494422376e-05 4.174051355221308768e-05 2.583188324933871627e-05 1.095673997042467818e-05
2.523000000000000000e+03 3.189861774444580078e+00 -4.546860694885253906e+00 8.592945960117504001e-05 1.776139106368646026e-05 3.110725447186268866e-05 4.479802737478166819e-05
2.524000000000000000e+03 6.227719116210937500e+01 -2.070123291015625000e+01 -3.655276298522949219e-01 8.927945494651794434e-01 1.581800729036331177e-01 7.097923755645751953e-01
2.525000000000000000e+03 4.451130676269531250e+01 -1.737939071655273438e+01 3.014081357832765207e-07 1.479924435443535913e-06 5.343997599993599579e-07 -7.340617571571783628e-07
2.526000000000000000e+03 4.853325653076171875e+01 -2.734100723266601562e+01 1.781177520751953125e+00 3.761651217937469482e-01 6.472027897834777832e-01 4.499995112419128418e-01
2.527000000000000000e+03 4.959868240356445312e+01 -2.658611297607421875e+01 2.920690298080444336e+00 8.690007328987121582e-01 1.136907339096069336e+00 4.746101498603820801e-01
2.528000000000000000e+03 7.937374877929687500e+01 -2.449846839904785156e+01 -2.691046101972460747e-03 4.832021426409482956e-03 6.422925507649779320e-04 -6.100095924921333790e-04
2.529000000000000000e+03 3.984935760498046875e+01 -1.793749427795410156e+01 -4.931007424602285028e-07 5.236806373432045802e-06 1.423111598342075013e-06 1.452934611734235659e-06
2.530000000000000000e+03 5.982253074645996094e+00 -3.849036216735839844e+00 3.379639383638277650e-05 5.015286660636775196e-05 2.518477958801668137e-05 3.963258495787158608e-05
2.531000000000000000e+03 6.798075675964355469e+00 -3.969772100448608398e+00 -4.444588557817041874e-05 -4.993508264306001365e-05 -2.831429083016701043e-05 -2.429000232950784266e-05
2.532000000000000000e+03 4.991024398803710938e+01 -3.005044555664062500e+01 1.366742849349975586e-01 1.814637303352355957e+00 5.853934884071350098e-01 5.989719033241271973e-01
2.533000000000000000e+03 7.316842651367187500e+01 -3.007944869995117188e+01 -2.478229114785790443e-03 -6.324732094071805477e-04 -9.332107147201895714e-04 2.157140552299097180e-04
2.534000000000000000e+03 4.780582809448242188e+01 -2.705634689331054688e+01 1.501255035400390625e+00 -1.716600507497787476e-01 3.988785147666931152e-01 5.288344249129295349e-02
2.535000000000000000e+03 1.925991249084472656e+01 -7.898885607719421387e-01 1.712300036160741001e-05 -1.994438935071229935e-05 -8.464164125143724959e-07 -1.990085593206458725e-06
2.536000000000000000e+03 7.857282257080078125e+01 -2.450652122497558594e+01 -6.191425491124391556e-03 -1.991491764783859253e-03 -2.454875269904732704e-03 -6.540471804328262806e-04
2.537000000000000000e+03 1.047705173492431641e+01 -2.890114307403564453e+00 -2.055588993243873119e-05 -2.708152715058531612e-05 -1.429122494300827384e-05 2.324097749806242064e-06
2.538000000000000000e+03 1.131728076934814453e+01 -4.323564052581787109e+00 3.544725404935888946e-05 2.856461651390418410e-05 1.920356044138316065e-05 -1.162153466793824919e-06
2.539000000000000000e+03 6.476377105712890625e+01 -1.508446884155273438e+01 2.861401624977588654e-02 7.699753642082214355e-01 2.395768016576766968e-01 3.758969306945800781e-01
2.540000000000000000e+03 5.626301574707031250e+01 -2.431492614746093750e+01 1.799507975578308105e+00 -3.845458328723907471e-01 4.244886338710784912e-01 1.134235739707946777e+00
2.541000000000000000e+03 7.523297882080078125e+01 -2.475819015502929688e+01 -3.063770011067390442e-02 -1.402882277034223080e-03 -9.612174704670906067e-03 -8.680804632604122162e-03
2.542000000000000000e+03 2.101889610290527344e+01 -1.210175609588623047e+01 -2.578875410108594224e-06 4.578198786475695670e-05 1.296093432756606489e-05 7.264821306307567284e-06
2.543000000000000000e+03 2.010155296325683594e+01 -1.133888626098632812e+01 5.268971290206536651e-05 -5.356792371458141133e-06 1.419987620465690270e-05 2.338180274819023907e-05
2.544000000000000000e+03 6.479314422607421875e+01 -2.106780052185058594e+01 -2.465050518512725830e-01 3.513644039630889893e-01 3.145780414342880249e-02 3.753945827484130859e-01
2.545000000000000000e+03 6.223290634155273438e+01 -1.866099739074707031e+01 -6.255117058753967285e-01 8.954284787178039551e-01 8.097502589225769043e-02 4.500348567962646484e-01
2.546000000000000000e+03 2.083861351013183594e+01 -2.495721578598022461e+00 5.058541319158393890e-06 1.554397931613493711e-05 6.180756372486939654e-06 -1.877935119409812614e-06
2.547000000000000000e+03 2.035559082031250000e+01 -3.153298139572143555e+00 1.657804386923089623e-05 -1.201456871058326215e-05 1.369042252008512150e-06 -5.769193649030057713e-06
2.548000000000000000e+03 1.531924152374267578e+01 -1.119955348968505859e+01 -7.884369551902636886e-05 -5.632093234453350306e-06 -2.534273698984179646e-05 -2.341851541132200509e-05
2.549000000000000000e+03 1.565010833740234375e+01 1.168901801109313965e+00 1.052632978826295584e-05 8.512507520208600909e-06 5.711651283490937203e-06 -6.269327968766447157e-06
2.550000000000000000e+03 5.014454650878906250e+01 -2.375596237182617188e+01 7.085531353950500488e-01 1.036337018013000488e+00 5.234670042991638184e-01 -1.475730061531066895e+00
2.551000000000000000e+03 5.100594711303710938e+01 -2.419755744934082031e+01 1.482682704925537109e+00 2.401202678680419922e+00 1.165165662765502930e+00 -1.127377271652221680e+00
2.552000000000000000e+03 6.412789916992187500e+01 -1.785354042053222656e+01 -3.326663076877593994e-01 7.501880526542663574e-01 1.252565234899520874e-01 3.763228356838226318e-01
2.553000000000000000e+03 3.842214584350585938e+01 -1.472556877136230469e+01 -2.593193357824929990e-06 -4.279984295862959698e-06 -2.061953182419529185e-06 1.577446141709515359e-06
2.554000000000000000e+03 3.823446273803710938e+01 -1.588168048858642578e+01 2.311886191819212399e-06 4.443774741957895458e-06 2.026698439294705167e-06 -2.266499450342962518e-07
2.555000000000000000e+03 1.932779312133789062e+01 -1.132698440551757812e+01 3.363212817930616438e-05 3.798214311245828867e-05 2.148428029613569379e-05 3.505686891003279015e-06
2.556000000000000000e+03 4.649754714965820312e+01 1.533544063568115234e+00 -1.040567440213635564e-06 1.336908553639659658e-06 8.890233260672175675e-08 -1.394289370182377752e-06
2.557000000000000000e+03 2.549754142761230469e+01 -7.585073471069335938e+00 5.987922122585587204e-06 1.329658243776066229e-05 5.785351277154404670e-06 -4.718993977803620510e-07
2.558000000000000000e+03 2.447536468505859375e+01 -6.476659297943115234e+00 7.419240773742785677e-06 1.005971807899186388e-05 5.243687610345659778e-06 3.168486500726430677e-06
2.559000000000000000e+03 5.894704818725585938e+01 -2.244092941284179688e+01 3.235643804073333740e-01 5.179702043533325195e-01 2.524603605270385742e-01 8.673744797706604004e-01
2.560000000000000000e+03 5.360882949829101562e+01 -3.150084877014160156e+01 1.069597676396369934e-01 1.317620992660522461e+00 4.273742139339447021e-01 -5.584844350814819336e-01
2.561000000000000000e+03 5.435997772216796875e+01 -3.177167129516601562e+01 3.021973371505737305e-01 1.163149237632751465e+00 4.396039843559265137e-01 -5.387340188026428223e-01
2.562000000000000000e+03 7.737879943847656250e+01 -3.114072799682617188e+01 -2.171807689592242241e-03 -4.795666318386793137e-04 -7.954122847877442837e-04 1.582191325724124908e-03
2.563000000000000000e+03 1.282897186279296875e+01 2.935975313186645508e+00 1.140167751145781949e-05 -1.598628841747995466e-05 -1.375383476442948449e-06 -7.863906830607447773e-06
2.564000000000000000e+03 7.820330047607421875e+01 -3.103866577148437500e+01 5.737467436119914055e-04 -1.105838455259799957e-03 -1.596275105839595199e-04 1.062592258676886559e-03
2.565000000000000000e+03 4.984702301025390625e+01 -7.461316108703613281e+00 -2.276314319260563934e-07 -1.877744580269791186e-06 -6.316128065009252168e-07 -1.014983126879087649e-06
2.566000000000000000e+03 6.725782012939453125e+01 -1.027791786193847656e+01 2.815364301204681396e-01 1.247832417488098145e+00 4.588106572628021240e-01 4.737939834594726562e-01
2.567000000000000000e+03 2.521784782409667969e+00 1.442149925231933594e+01 -7.974147706590883899e-07 4.231606908433604985e-06 1.030257635648013093e-06 -6.283525635808473453e-06
2.568000000000000000e+03 6.606803131103515625e+01 -1.232673168182373047e+01 2.649419009685516357e-01 1.016983509063720703e+00 3.845776021480560303e-01 4.115239381790161133e-01
2.569000000000000000e+03 7.075981903076171875e+01 -2.113748359680175781e+01 -4.426963031291961670e-01 8.506906777620315552e-02 -1.072881668806076050e-01 -6.711077690124511719e-02
2.570000000000000000e+03 5.114367294311523438e+01 -1.455404376983642578e+01 4.459787305677309632e-06 4.011706550954841077e-06 2.541448111514910124e-06 -1.164516334029030986e-06
2.571000000000000000e+03 7.277450561523437500e+01 -3.239744949340820312e+01 -1.243663858622312546e-02 3.889983985573053360e-03 -2.563996473327279091e-03 2.153659705072641373e-03
2.572000000000000000e+03 7.214912414550781250e+01 -6.632461547851562500e+00 6.062841787934303284e-02 9.690330624580383301e-01 3.088984489440917969e-01 -1.142546012997627258e-01
2.573000000000000000e+03 7.366208648681640625e+01 -2.218237686157226562e+01 -1.839486807584762573e-01 5.212409421801567078e-02 -3.954737260937690735e-02 -4.665755107998847961e-02
2.574000000000000000e+03 7.487458801269531250e+01 -2.090495491027832031e+01 -1.462932825088500977e-01 2.433640696108341217e-02 -3.658706322312355042e-02 -1.229771226644515991e-01
2.575000000000000000e+03 5.868161678314208984e+00 1.611360931396484375e+01 4.677523065765853971e-06 1.613201311556622386e-05 6.242861218197504058e-06 -1.001921646093251184e-06
2.576000000000000000e+03 6.110136508941650391e+00 -1.524850082397460938e+01 9.891117224469780922e-05 1.147697839769534767e-04 6.410428613889962435e-05 -1.274739042855799198e-04
2.577000000000000000e+03 4.977779388427734375e+01 -2.918108940124511719e+01 5.301652550697326660e-01 1.858190298080444336e+00 7.165066599845886230e-01 7.766362428665161133e-01
2.578000000000000000e+03 4.884099578857421875e+01 -2.937062072753906250e+01 5.076392889022827148e-01 1.096490502357482910e+00 4.812389314174652100e-01 7.443484663963317871e-01
2.579000000000000000e+03 7.515348815917968750e+01 1.053934860229492188e+01 -4.962444677948951721e-02 2.197936028242111206e-01 5.105074495077133179e-02 7.009057700634002686e-02
2.580000000000000000e+03 7.471916198730468750e+01 1.745001602172851562e+01 4.640306904911994934e-02 5.143098831176757812e-01 1.682138890027999878e-01 -1.104036252945661545e-02
2.581000000000000000e+03 3.550201416015625000e+01 1.128711318969726562e+01 7.316013216041028500e-05 2.001275606744457036e-05 2.795186628645751625e-05 1.501540536992251873e-04
2.582000000000000000e+03 7.368449401855468750e+01 1.135104417800903320e+00 2.426338642835617065e-01 1.200484037399291992e+00 4.329353570938110352e-01 -1.142229661345481873e-01
2.583000000000000000e+03 4.330422973632812500e+01 -3.893398642539978027e-01 2.423128762529813685e-06 -2.856413811969105154e-05 -7.842302693461533636e-06 9.416849934495985508e-06
2.584000000000000000e+03 7.100364685058593750e+01 -4.323623657226562500e+00 1.397046744823455811e-01 1.759802460670471191e+00 5.698521137237548828e-01 1.659870445728302002e-01
2.585000000000000000e+03 7.531407165527343750e+01 3.174067258834838867e+00 1.653838157653808594e-01 1.180340498685836792e-01 8.502535521984100342e-02 -4.997095838189125061e-02
2.586000000000000000e+03 4.227038955688476562e+01 2.965754747390747070e+00 -6.251854756555985659e-06 -1.145617898146156222e-05 -5.312409939506324008e-06 2.725579906837083399e-05
2.587000000000000000e+03 5.331433773040771484e+00 8.733710289001464844e+00 3.815427589870523661e-06 2.109881643264088780e-05 7.474273388652363792e-06 -1.234435512742493302e-05
2.588000000000000000e+03 3.128243923187255859e+00 5.550903797149658203e+00 2.845298467946122400e-06 1.708373929432127625e-05 5.978711669740732759e-06 -5.364636308513581753e-06
2.589000000000000000e+03 3.673775196075439453e+00 -7.709641933441162109e+00 -4.158905721851624548e-05 -3.229969661333598197e-05 -2.216662687715142965e-05 -4.809666279470548034e-05
2.590000000000000000e+03 5.368881225585937500e+00 -8.393217086791992188e+00 -1.867741048044990748e-05 1.302830241911578923e-05 -1.694732418400235474e-06 -2.380439946136903018e-05
2.591000000000000000e+03 7.420858001708984375e+01 -3.714672803878784180e+00 5.974344164133071899e-02 4.874333143234252930e-01 1.641530245542526245e-01 -2.625045776367187500e-01
2.592000000000000000e+03 1.657382583618164062e+01 -1.129857063293457031e+01 2.003699046326801181e-05 1.450719901185948402e-05 1.036325738823506981e-05 2.856366154446732253e-05
2.593000000000000000e+03 1.170474624633789062e+01 -1.282131290435791016e+01 6.596462753805099055e-06 -5.649972445098683238e-05 -1.497097855462925509e-05 -5.012032488593831658e-05
2.594000000000000000e+03 4.712995910644531250e+01 -2.755499267578125000e+01 1.098508715629577637e+00 -2.911670804023742676e-01 2.422024756669998169e-01 5.005157366394996643e-02
2.595000000000000000e+03 4.622198104858398438e+01 -2.768575859069824219e+01 7.106037735939025879e-01 -7.509698867797851562e-01 -1.210985146462917328e-02 -1.958429962396621704e-01
2.596000000000000000e+03 7.627776336669921875e+01 -3.270559692382812500e+01 -1.798395300284028053e-03 -6.831760401837527752e-04 -7.444713846780359745e-04 2.734670182690024376e-03
2.597000000000000000e+03 6.783963775634765625e+01 -8.350628852844238281e+00 2.738556265830993652e-01 1.540897607803344727e+00 5.444259643554687500e-01 5.495570898056030273e-01
2.598000000000000000e+03 4.327343368530273438e+01 4.533505916595458984e+00 1.744533619785215706e-05 4.401771889206429478e-07 5.365654033084865659e-06 1.296713708143215626e-05
2.599000000000000000e+03 3.625817108154296875e+01 -1.495638370513916016e+01 3.708337089847191237e-06 4.841636382479919121e-06 2.564991973486030474e-06 2.392411261098459363e-06
2.600000000000000000e+03 3.384524917602539062e+01 -1.509997081756591797e+01 3.677720087580382824e-06 4.635799541574670002e-06 2.494055934221250936e-06 5.462753165375033859e-07
2.601000000000000000e+03 4.678596496582031250e+01 -2.554578781127929688e+00 2.088533165078843012e-06 -3.425530621825600974e-06 -4.010992142866598442e-07 1.179538912765565328e-06
2.602000000000000000e+03 4.520563888549804688e+01 -1.680140495300292969e+00 2.821182306433911435e-06 -2.566310968177276663e-06 7.646143274087080499e-08 1.950096248037880287e-06
2.603000000000000000e+03 6.953078460693359375e+01 -1.862877273559570312e+01 -2.515832781791687012e-01 1.786513477563858032e-01 -2.187958173453807831e-02 -8.084175735712051392e-02
2.604000000000000000e+03 3.043774604797363281e+01 -1.478222084045410156e+01 1.345476050573779503e-07 -3.967610155086731538e-06 -1.149918716691900045e-06 -1.231149866498526535e-07
2.605000000000000000e+03 1.954252004623413086e+00 2.065994453430175781e+01 -3.542360502706287662e-07 2.946282438642811030e-05 8.732576134207192808e-06 -2.840138904502964579e-06
2.606000000000000000e+03 3.793514251708984375e+00 1.061910724639892578e+01 4.063310825586086139e-06 2.233541999885346740e-05 7.919619747553952038e-06 -6.906519956828560680e-06
2.607000000000000000e+03 3.316899776458740234e+00 -1.316947746276855469e+01 -9.497415885562077165e-05 -7.651961641386151314e-05 -5.144813258084468544e-05 -5.257387238088995218e-05
2.608000000000000000e+03 3.906208753585815430e+00 -1.047005748748779297e+01 2.637612124090082943e-05 2.317766120540909469e-05 1.486613473389297724e-05 8.973439980763942003e-05
2.609000000000000000e+03 2.082554340362548828e+00 -9.944533348083496094e+00 -1.422757632099092007e-04 1.430634142707276624e-06 -4.225353768561035395e-05 7.251367787830531597e-05
2.610000000000000000e+03 2.989300966262817383e+00 2.121048355102539062e+01 1.414265682342374930e-07 3.753198598133167252e-06 1.168387598227127455e-06 2.347444024053402245e-06
2.611000000000000000e+03 3.680977821350097656e+00 -1.898993873596191406e+01 3.111566475126892328e-04 -4.966798223904334009e-05 7.844660285627469420e-05 6.975347787374630570e-06
2.612000000000000000e+03 3.337289810180664062e+00 -6.601496696472167969e+00 6.195971945999190211e-05 4.004230504506267607e-05 3.060060771531425416e-05 5.660702299792319536e-05
2.613000000000000000e+03 4.513475799560546875e+01 -2.655260467529296875e+01 4.753658771514892578e-01 -1.102498888969421387e+00 -1.881399005651473999e-01 -6.877254843711853027e-01
2.614000000000000000e+03 4.809460830688476562e+01 -2.646022605895996094e+01 1.857449293136596680e+00 -1.717034876346588135e-01 5.057237148284912109e-01 -2.451317906379699707e-01
2.615000000000000000e+03 7.646991729736328125e+01 -1.545691204071044922e+01 -2.898129075765609741e-02 -1.951398253440856934e-01 -6.723633408546447754e-02 -2.784399688243865967e-01
2.616000000000000000e+03 7.782390594482421875e+01 -8.348502159118652344e+00 5.230989772826433182e-03 -8.805298209190368652e-01 -2.625896632671356201e-01 -2.265541255474090576e-01
2.617000000000000000e+03 7.769159698486328125e+01 3.828812539577484131e-01 4.424131289124488831e-02 -1.420295715332031250e+00 -4.128163456916809082e-01 -1.274513900279998779e-01
2.618000000000000000e+03 7.149147033691406250e+01 8.551186561584472656e+00 1.975889503955841064e-02 2.594952344894409180e+00 7.844133973121643066e-01 1.790408603847026825e-02
2.619000000000000000e+03 7.604280853271484375e+01 7.720748901367187500e+00 1.587997749447822571e-02 -3.502962291240692139e-01 -1.003248766064643860e-01 6.840040534734725952e-02
2.620000000000000000e+03 7.637896728515625000e+01 -4.974536895751953125e+00 1.161342859268188477e-02 -4.950547516345977783e-01 -1.450324058532714844e-01 -3.431884348392486572e-01
2.621000000000000000e+03 7.352546691894531250e+01 2.307181596755981445e+00 2.063323259353637695e-01 1.303357720375061035e+00 4.529070258140563965e-01 -7.348552346229553223e-02
2.622000000000000000e+03 7.631211853027343750e+01 9.013210296630859375e+00 -2.567288279533386230e-02 -5.644163489341735840e-01 -1.770267635583877563e-01 5.951789021492004395e-02
2.623000000000000000e+03 7.135124969482421875e+01 1.866956138610839844e+01 2.247163280844688416e-02 2.608213663101196289e+00 7.892056107521057129e-01 -7.864659652113914490e-03
2.624000000000000000e+03 7.114506530761718750e+01 2.140462112426757812e+01 3.930139914155006409e-02 2.790984630584716797e+00 8.490858078002929688e-01 -6.566887348890304565e-02
2.625000000000000000e+03 5.486494064331054688e+01 -2.501846885681152344e+01 2.896937608718872070e+00 -3.913316428661346436e-01 7.516818046569824219e-01 1.163076519966125488e+00
2.626000000000000000e+03 5.452978134155273438e+01 -2.440412712097167969e+01 2.380419731140136719e+00 5.142056941986083984e-02 7.295520305633544922e-01 1.650907874107360840e+00
2.627000000000000000e+03 5.359891891479492188e+01 -2.402263450622558594e+01 1.727127432823181152e+00 1.557845711708068848e+00 9.854919314384460449e-01 2.066103696823120117e+00
2.628000000000000000e+03 5.316507720947265625e+01 -2.935616874694824219e+01 1.528979986906051636e-01 1.818438649177551270e+00 5.914009809494018555e-01 -8.174246549606323242e-01
2.629000000000000000e+03 5.371304702758789062e+01 -2.435844230651855469e+01 2.509748458862304688e+00 1.105191349983215332e+00 1.084481954574584961e+00 2.030490875244140625e+00
2.630000000000000000e+03 5.085322570800781250e+01 -2.922716903686523438e+01 2.115540504455566406e-01 2.508105278015136719e+00 8.158978223800659180e-01 5.227739810943603516e-01
2.631000000000000000e+03 5.318604660034179688e+01 -2.253881072998046875e+01 -1.033981919288635254e+00 1.230232715606689453e+00 5.887522920966148376e-02 9.501765370368957520e-01
2.632000000000000000e+03 5.268034744262695312e+01 -2.376978111267089844e+01 7.475289702415466309e-01 2.624781608581542969e+00 1.011693120002746582e+00 1.244079113006591797e+00
2.633000000000000000e+03 5.685706710815429688e+01 -2.522567367553710938e+01 1.855541944503784180e+00 -2.767489850521087646e-01 4.736378788948059082e-01 8.847492933273315430e-01
2.634000000000000000e+03 5.174869918823242188e+01 -2.859763908386230469e+01 1.656865626573562622e-01 3.214189291000366211e+00 1.013962745666503906e+00 -1.072883456945419312e-01
2.635000000000000000e+03 5.385352325439453125e+01 -2.378880500793457031e+01 1.315423369407653809e+00 1.008719801902770996e+00 6.972429752349853516e-01 1.830022335052490234e+00
2.636000000000000000e+03 5.316415786743164062e+01 -2.420554542541503906e+01 1.775986075401306152e+00 2.390229940414428711e+00 1.249864816665649414e+00 1.866406202316284180e+00
2.637000000000000000e+03 5.083389282226562500e+01 -1.535345363616943359e+01 -3.515657454045140184e-06 -3.716478659043787047e-06 -2.169640765714575537e-06 1.283206188418262172e-06
2.638000000000000000e+03 1.568052673339843750e+01 -8.810867309570312500e+00 6.235540786292403936e-05 -1.532619717181660235e-05 1.410876302543329075e-05 3.335089058964513242e-05
2.639000000000000000e+03 1.631875801086425781e+01 -8.697403907775878906e+00 5.860915280209155753e-06 -2.262522684759460390e-06 1.079517801372276153e-06 -4.212945350445806980e-05
2.640000000000000000e+03 1.584555912017822266e+01 -6.827756404876708984e+00 2.576079532445874065e-05 6.488336111942771822e-06 9.674738976173102856e-06 3.964380084653384984e-06
2.641000000000000000e+03 4.756447219848632812e+01 -2.449108314514160156e+01 9.044385552406311035e-01 -7.254644632339477539e-01 5.369222536683082581e-02 -1.428283572196960449e+00
2.642000000000000000e+03 4.828409957885742188e+01 -2.447446250915527344e+01 1.256433010101318359e+00 -4.237205982208251953e-01 2.498137056827545166e-01 -1.452323317527770996e+00
2.643000000000000000e+03 5.382450103759765625e+01 -2.232350730895996094e+01 -1.046826958656311035e+00 7.217329740524291992e-01 -9.752820432186126709e-02 1.150641083717346191e+00
2.644000000000000000e+03 5.505141448974609375e+01 -2.271118927001953125e+01 1.064591929316520691e-01 1.835828274488449097e-01 8.701261132955551147e-02 1.425630331039428711e+00
2.645000000000000000e+03 1.548806476593017578e+01 -6.471244812011718750e+00 -4.825789801543578506e-05 2.979008741021971218e-06 -1.358366716885939240e-05 -1.154381516244029626e-05
2.646000000000000000e+03 5.273544692993164062e+01 -3.030284309387207031e+01 9.146463125944137573e-03 1.839611411094665527e+00 5.546273589134216309e-01 -5.443462729454040527e-01
2.647000000000000000e+03 7.508081817626953125e+01 -2.311249923706054688e+01 -8.638461679220199585e-02 1.116557605564594269e-02 -2.256571315228939056e-02 -3.398562967777252197e-02
2.648000000000000000e+03 7.523854064941406250e+01 -2.397126579284667969e+01 -5.295739322900772095e-02 1.097320462577044964e-03 -1.555802114307880402e-02 -1.327352505177259445e-02
2.649000000000000000e+03 4.616179275512695312e+01 -2.432000923156738281e+01 3.547283113002777100e-01 -1.005807280540466309e+00 -1.953236907720565796e-01 -1.386617064476013184e+00
2.650000000000000000e+03 5.261350250244140625e+01 -2.332565498352050781e+01 -9.648757427930831909e-02 2.177006483078002930e+00 6.241556406021118164e-01 8.376826047897338867e-01
2.651000000000000000e+03 1.522194480895996094e+01 -7.442698955535888672e+00 -3.808533801930025220e-05 -6.766562364646233618e-06 -1.345557029708288610e-05 -3.005753796969656833e-06
2.652000000000000000e+03 1.530851745605468750e+01 -6.936797142028808594e+00 3.611442298279143870e-05 3.029987283298396505e-06 1.174332282971590757e-05 4.749122581415576860e-06
2.653000000000000000e+03 5.379114151000976562e+01 -3.079717254638671875e+01 1.062512025237083435e-01 1.309412956237792969e+00 4.246992468833923340e-01 -6.567633748054504395e-01
2.654000000000000000e+03 5.321652984619140625e+01 -3.067311859130859375e+01 2.954489924013614655e-02 1.527536273002624512e+00 4.671243727207183838e-01 -5.862823724746704102e-01
2.655000000000000000e+03 1.096031188964843750e+01 3.550079345703125000e+00 6.085696441004984081e-06 2.086871791107114404e-05 8.086323759926017374e-06 -7.956045919854659587e-06
2.656000000000000000e+03 9.462735176086425781e+00 4.313393592834472656e+00 5.537209744943538681e-06 -5.859887096448801458e-06 -9.680315571358732996e-08 -9.813459655561018735e-06
2.657000000000000000e+03 7.657230377197265625e+01 -3.198099708557128906e+01 -2.883489010855555534e-03 -8.915598737075924873e-04 -1.132514677010476589e-03 3.062869422137737274e-03
2.658000000000000000e+03 7.658433532714843750e+01 -3.114435386657714844e+01 -1.024514669552445412e-03 -4.951762384735047817e-04 -4.559072840493172407e-04 1.290426473133265972e-03
2.659000000000000000e+03 1.852541732788085938e+01 3.417188823223114014e-01 9.389184924657456577e-06 -6.831723112554755062e-06 7.672386459489644039e-07 -5.088823513688112143e-07
2.660000000000000000e+03 3.982445955276489258e+00 3.816019535064697266e+00 6.069177288736682385e-06 5.971015070826979354e-06 3.612057753343833610e-06 -2.044709617621265352e-06
2.661000000000000000e+03 4.068000030517578125e+01 -1.587598800659179688e+01 7.077312034198257606e-07 -2.761048790489439853e-06 -6.159953045425936580e-07 -2.989429958688560873e-06
2.662000000000000000e+03 2.563346099853515625e+01 -9.803108215332031250e+00 -1.323330366176378448e-06 -3.282594207121292129e-06 -1.381777337883249857e-06 -4.545651336229639128e-06
2.663000000000000000e+03 2.620902252197265625e+01 -1.128503608703613281e+01 -1.660839529904478695e-06 -3.052727606700500473e-06 -1.414070197824912611e-06 -3.937946985388407484e-06
2.664000000000000000e+03 2.757170867919921875e+01 -1.003736591339111328e+01 2.946916765722562559e-06 4.182798875262960792e-06 2.138914624083554372e-06 5.217605689722404350e-07
2.665000000000000000e+03 5.700194549560546875e+01 -2.311134147644042969e+01 7.291008830070495605e-01 -7.195627689361572266e-02 1.971433907747268677e-01 1.140036463737487793e+00
2.666000000000000000e+03 6.427576446533203125e+01 -2.004803276062011719e+01 -2.779006361961364746e-01 6.158849596977233887e-01 1.013952940702438354e-01 5.859715938568115234e-01
2.667000000000000000e+03 6.347007751464843750e+01 -1.847347068786621094e+01 -4.581952989101409912e-01 8.162475228309631348e-01 1.074156612157821655e-01 4.455055296421051025e-01
2.668000000000000000e+03 1.775891304016113281e+01 -1.121852874755859375e+01 1.363921637675957754e-05 7.380999250017339364e-06 6.306064733507810161e-06 -1.059098121913848445e-05
2.669000000000000000e+03 6.677003479003906250e+01 -1.693448829650878906e+01 -1.565805971622467041e-01 5.216367244720458984e-01 1.095168441534042358e-01 2.264770418405532837e-01
2.670000000000000000e+03 7.595294952392578125e+00 -4.198177337646484375e+00 4.316799822845496237e-05 4.947365596308372915e-05 2.779249552986584604e-05 4.012614226667210460e-06
2.671000000000000000e+03 2.411460685729980469e+01 -5.863962173461914062e+00 7.032394023553933948e-06 -1.105076898966217414e-05 -1.205512603519309778e-06 -8.430209163634572178e-06
2.672000000000000000e+03 2.270106887817382812e+01 -3.248145341873168945e+00 1.232687191077275202e-05 4.510530288825975731e-06 5.051220796303823590e-06 5.376150966185377911e-06
2.673000000000000000e+03 1.613350868225097656e+01 1.806837797164916992e+00 1.019673436530865729e-05 -3.610795999975380255e-07 2.950696398329455405e-06 -3.058248239540262148e-06
2.674000000000000000e+03 1.627810668945312500e+01 7.762139439582824707e-01 1.353548668703297153e-05 -8.805684501567156985e-07 3.796475539274979383e-06 -3.191400537616573274e-06
2.675000000000000000e+03 2.593450355529785156e+01 -6.904647350311279297e+00 5.129036253492813557e-06 -1.561938006489071995e-05 -3.147103143419371918e-06 3.477295251741452375e-07
2.676000000000000000e+03 2.550368881225585938e+01 -6.493135929107666016e+00 7.676082532270811498e-06 1.192626496049342677e-05 5.880704065930331126e-06 3.299579418580833590e-07
2.677000000000000000e+03 7.835483551025390625e+01 -3.208294677734375000e+01 -1.752866199240088463e-03 -1.164471614174544811e-03 -8.752013673074543476e-04 1.377461245283484459e-03
2.678000000000000000e+03 2.738327026367187500e+01 -1.247028064727783203e+01 4.480815277929650620e-06 4.292495759727898985e-06 2.631993311297264881e-06 2.826704758263076656e-06
2.679000000000000000e+03 2.042789459228515625e+01 -7.499952316284179688e-01 1.775629971234593540e-05 -2.370078800595365465e-05 -1.783346647243888583e-06 -4.768116468767402694e-06
2.680000000000000000e+03 4.545890426635742188e+01 -1.739624404907226562e+01 1.831129310403412092e-07 5.489997420227155089e-06 1.701933115327847190e-06 -3.296555632914532907e-07
2.681000000000000000e+03 6.563333892822265625e+01 -1.816914558410644531e+01 -2.709589600563049316e-01 5.485464334487915039e-01 8.327624946832656860e-02 3.316625654697418213e-01
2.682000000000000000e+03 1.493228149414062500e+01 3.215555906295776367e+00 7.073032975313253701e-06 2.559358472353778780e-05 9.799985491554252803e-06 -4.486084890231722966e-06
2.683000000000000000e+03 1.386000919342041016e+01 -5.641452789306640625e+00 4.183527562418021262e-05 2.202863652200903744e-05 1.915917346195783466e-05 2.013370021813898347e-06
2.684000000000000000e+03 1.260025215148925781e+01 3.908797502517700195e+00 4.288598574930801988e-06 2.607031638035550714e-05 9.107674486585892737e-06 -7.999888111953623593e-06
2.685000000000000000e+03 8.824763298034667969e+00 -3.289543867111206055e+00 -6.355946243274956942e-05 -1.349943795503349975e-05 -2.311767093488015234e-05 -6.987580491113476455e-06
2.686000000000000000e+03 9.399888038635253906e+00 -4.177730083465576172e+00 -4.676081152865663171e-05 -3.343402568134479225e-05 -2.405845225439406931e-05 -1.348236128251301125e-05
2.687000000000000000e+03 5.725286865234375000e+01 -2.228402519226074219e+01 7.353091239929199219e-02 8.460178971290588379e-02 4.743980988860130310e-02 1.035586237907409668e+00
2.688000000000000000e+03 4.184226989746093750e+01 -1.643839263916015625e+01 2.843883351033582585e-07 9.706227501737885177e-07 3.765033227409730898e-07 -7.490497182516264729e-07
2.689000000000000000e+03 6.234472656250000000e+01 -2.178911399841308594e+01 1.636390089988708496e-01 8.191908001899719238e-01 2.948489189147949219e-01 8.722172379493713379e-01
2.690000000000000000e+03 1.956368064880371094e+01 4.499054849147796631e-01 1.604614772077184170e-05 -2.485157347109634429e-05 -2.641627588673145510e-06 6.784045467611576896e-07
2.691000000000000000e+03 2.864296150207519531e+01 -1.457730770111083984e+01 3.190613369952188805e-06 5.836150194227229804e-06 2.708029114728560671e-06 -8.854498787513875868e-07
2.692000000000000000e+03 2.978141212463378906e+01 -1.442441654205322266e+01 1.154400251834886149e-06 7.387111054413253441e-06 2.562453346399706788e-06 -1.276793000215548091e-06
2.693000000000000000e+03 2.909327745437622070e+00 4.393292903900146484e+00 1.710657393516612501e-08 1.575262649566866457e-05 4.730919954454293475e-06 -4.911014002573210746e-06
2.694000000000000000e+03 5.717251586914062500e+01 -2.420621490478515625e+01 1.576791167259216309e+00 -1.646405756473541260e-01 4.236451983451843262e-01 1.043335318565368652e+00
2.695000000000000000e+03 5.598855972290039062e+01 -2.471050071716308594e+01 2.078503131866455078e+00 -4.587264358997344971e-01 4.859330356121063232e-01 1.082224965095520020e+00
2.696000000000000000e+03 9.258732795715332031e+00 -2.393489599227905273e+00 -3.120221663266420364e-05 -5.287257408781442791e-06 -1.094684193958528340e-05 4.889847105005173944e-07
2.697000000000000000e+03 4.662766647338867188e+01 -2.687121963500976562e+01 1.099345207214355469e+00 -7.951351404190063477e-01 9.126301109790802002e-02 -4.231722652912139893e-01
2.698000000000000000e+03 4.048558807373046875e+01 -1.719783973693847656e+01 2.000928816414671019e-06 -7.840638318157289177e-06 -1.751912805048050359e-06 -1.330233544649672695e-06
2.699000000000000000e+03 4.107590103149414062e+01 -1.670121765136718750e+01 -1.165910816780524328e-06 2.176200041503761895e-06 3.030867503639456118e-07 1.773820031303330325e-06
2.700000000000000000e+03 4.879764938354492188e+01 -2.484396934509277344e+01 1.787737250328063965e+00 -2.048978954553604126e-01 4.748517870903015137e-01 -1.210502147674560547e+00
2.701000000000000000e+03 4.947749328613281250e+01 -2.457422637939453125e+01 1.982050180435180664e+00 4.061986804008483887e-01 7.164746522903442383e-01 -1.438150644302368164e+00
2.702000000000000000e+03 1.866925811767578125e+01 -1.081480693817138672e+01 -3.346593075548298657e-05 -5.548190165427513421e-05 -2.668434899533167481e-05 -1.561747922096401453e-05
2.703000000000000000e+03 5.149163055419921875e+01 -2.901839256286621094e+01 7.340263575315475464e-02 2.919781923294067383e+00 8.979553580284118652e-01 3.978331014513969421e-02
2.704000000000000000e+03 5.051881027221679688e+01 -2.965979957580566406e+01 2.148548066616058350e-01 2.178540706634521484e+00 7.180186510086059570e-01 5.316479206085205078e-01
2.705000000000000000e+03 2.649528312683105469e+01 -7.063023090362548828e+00 3.844195930469140876e-07 5.373420208343304694e-06 1.727352014313510153e-06 -1.878391458376427181e-06
2.706000000000000000e+03 3.613828659057617188e+01 -1.336857032775878906e+01 1.678100829849427100e-06 7.701866707066074014e-06 2.813990477079642005e-06 1.854764263953256886e-06
2.707000000000000000e+03 3.674042892456054688e+01 -1.402461147308349609e+01 -3.253292788940598257e-06 -4.687763976107817143e-06 -2.382317006777157076e-06 -1.543668759040883742e-06
2.708000000000000000e+03 4.741853713989257812e+01 -2.568477058410644531e+01 1.389808177947998047e+00 -6.750695109367370605e-01 2.144216150045394897e-01 -8.367728590965270996e-01
2.709000000000000000e+03 3.039307403564453125e+01 -1.389126777648925781e+01 -7.021969850029563531e-07 -6.079225840949220583e-06 -2.034426870523020625e-06 1.002933913696324453e-06
2.710000000000000000e+03 5.563791275024414062e+01 -2.280362892150878906e+01 3.282377123832702637e-01 -2.791950851678848267e-02 9.009546041488647461e-02 1.347380995750427246e+00
2.711000000000000000e+03 6.179350376129150391e+00 3.790593624114990234e+00 6.067022695788182318e-06 4.986931799066951498e-06 3.316186393931275234e-06 -1.742540575833118055e-06
2.712000000000000000e+03 1.090720558166503906e+01 -4.979741096496582031e+00 -3.344938886584714055e-05 -4.548592187347821891e-05 -2.368059358559548855e-05 9.122506980929756537e-07
2.713000000000000000e+03 4.195869827270507812e+01 -1.822628974914550781e+01 2.936241344286827371e-06 3.878591087413951755e-06 2.044449729510233738e-06 9.171599799628893379e-07
2.714000000000000000e+03 4.319951629638671875e+01 -1.795819091796875000e+01 2.474975644872756675e-06 1.268236928808619268e-07 7.805397785887180362e-07 -5.756002110501867719e-07
2.715000000000000000e+03 2.869568824768066406e+01 -1.238117504119873047e+01 -2.887890786951174960e-06 3.045377297894447111e-06 4.724597957306286844e-08 6.114563966264086048e-09
2.716000000000000000e+03 4.957237243652343750e+01 -1.602950859069824219e+01 -3.181863348800106905e-06 -2.510186504878220148e-06 -1.707614956103498116e-06 1.003246438813221175e-06
2.717000000000000000e+03 4.930274200439453125e+01 -1.677102661132812500e+01 2.604869223432615399e-06 1.137839944931329228e-06 1.122812705034448300e-06 -1.599291977072425652e-06
2.718000000000000000e+03 4.875363540649414062e+01 -1.502983283996582031e+01 -2.988820369864697568e-06 -3.417517746129306033e-06 -1.921901457535568625e-06 7.029390758361842018e-07
2.719000000000000000e+03 4.862100219726562500e+01 -1.585995101928710938e+01 2.847915084203123115e-06 2.126598474205820821e-06 1.492354044785315637e-06 -6.499636242551787291e-07
2.720000000000000000e+03 6.714132690429687500e+01 -1.609586715698242188e+01 -1.141163110733032227e-01 5.681598186492919922e-01 1.362130492925643921e-01 1.696642935276031494e-01
2.721000000000000000e+03 4.525442886352539062e+01 -2.576677703857421875e+01 4.507620632648468018e-01 -1.221414804458618164e+00 -2.311958372592926025e-01 -1.049823999404907227e+00
2.722000000000000000e+03 7.436568450927734375e+01 -5.951361656188964844e+00 2.931549958884716034e-02 2.868597209453582764e-01 9.485257416963577271e-02 -3.187196552753448486e-01
2.723000000000000000e+03 7.631779479980468750e+01 -2.195755767822265625e+01 -7.278834283351898193e-02 -1.384109631180763245e-02 -2.598883025348186493e-02 -7.168827205896377563e-02
2.724000000000000000e+03 5.340716838836669922e+00 7.162982940673828125e+00 2.906914232880808413e-06 1.532641726953443140e-05 5.469998995977221057e-06 -1.306736976403044537e-05
2.725000000000000000e+03 4.526676559448242188e+01 -7.577867984771728516e+00 -5.817917553940787911e-06 -1.067259017872856930e-05 -4.947152319800807163e-06 3.072903609790955670e-06
2.726000000000000000e+03 6.959641933441162109e+00 -1.544100761413574219e+01 -2.089386834995821118e-04 -3.109002864221110940e-05 -7.200861000455915928e-05 -3.958450906793586910e-05
2.727000000000000000e+03 4.479143142700195312e+00 -6.484173774719238281e+00 -2.861950270016677678e-05 -4.525407712208107114e-05 -2.216207394667435437e-05 -4.592686309479176998e-05
2.728000000000000000e+03 5.756120681762695312e+00 -1.159721183776855469e+01 1.371588732581585646e-04 2.263551687065046281e-05 4.793831612914800644e-05 8.747524589125532657e-06
2.729000000000000000e+03 7.424108123779296875e+01 -1.338479995727539062e+01 -3.697213530540466309e-02 7.533354312181472778e-02 1.150842290371656418e-02 -3.264400362968444824e-01
2.730000000000000000e+03 7.528922271728515625e+01 -1.388402271270751953e+01 -2.783104591071605682e-02 -7.877032458782196045e-02 -3.198041021823883057e-02 -3.195723891258239746e-01
2.731000000000000000e+03 7.444935607910156250e+01 -1.001551246643066406e+01 -9.313441812992095947e-03 1.016281917691230774e-01 2.769442461431026459e-02 -3.269684910774230957e-01
2.732000000000000000e+03 7.426293182373046875e+01 7.501897811889648438e+00 2.155060134828090668e-02 8.751913309097290039e-01 2.690225839614868164e-01 7.745932787656784058e-02
2.733000000000000000e+03 6.707925796508789062e-01 2.057995605468750000e+01 4.220680239086505026e-06 2.649397538334596902e-05 9.214396413881331682e-06 3.273976290074642748e-07
2.734000000000000000e+03 8.444622993469238281e+00 -1.401259517669677734e+01 1.244380837306380272e-04 -6.724456034135073423e-05 1.715805774438194931e-05 9.851939103100448847e-05
2.735000000000000000e+03 8.881871223449707031e+00 -1.500300693511962891e+01 -1.728060451569035649e-04 2.913154457928612828e-05 -4.310235090088099241e-05 -1.699137828836683184e-05
2.736000000000000000e+03 7.245277404785156250e+01 -4.866240024566650391e+00 9.863612800836563110e-02 1.141422152519226074e+00 3.720174729824066162e-01 -9.729617089033126831e-02
2.737000000000000000e+03 7.046741962432861328e+00 8.693293571472167969e+00 4.699436885857721791e-06 2.400758239673450589e-05 8.612105375505052507e-06 -6.101160579419229180e-06
2.738000000000000000e+03 4.287713623046875000e+01 -2.434540033340454102e+00 3.503969082885305397e-06 2.440255775582045317e-05 8.371957846975419670e-06 -1.015245743474224582e-05
2.739000000000000000e+03 4.079717254638671875e+01 3.085897922515869141e+00 9.564594620314892381e-06 3.877739800373092294e-05 1.450259787816321477e-05 -2.610870251373853534e-05
2.740000000000000000e+03 4.581828117370605469e+00 1.267206001281738281e+01 -3.690960284075117670e-06 4.106286723981611431e-07 -9.840994152909843251e-07 -8.324470400111749768e-06
2.741000000000000000e+03 6.622590637207031250e+01 -1.895495033264160156e+01 -3.161170184612274170e-01 4.247801601886749268e-01 3.259894624352455139e-02 3.304155766963958740e-01
2.742000000000000000e+03 7.385063934326171875e+01 8.526652336120605469e+00 -7.137962616980075836e-03 1.196696639060974121e+00 3.568676114082336426e-01 6.663955748081207275e-02
2.743000000000000000e+03 7.573314666748046875e+01 1.533376026153564453e+01 1.862676697783172131e-03 -1.378975063562393188e-01 -4.081044718623161316e-02 1.660224236547946930e-02
2.744000000000000000e+03 1.304873561859130859e+01 -1.016981124877929688e+01 -5.794200842501595616e-05 -9.580310870660468936e-05 -4.612353586708195508e-05 5.547175533138215542e-05
2.745000000000000000e+03 3.275431156158447266e+00 -2.074825668334960938e+01 2.812187885865569115e-04 -6.195518835738766938e-06 8.250698010670021176e-05 6.663928070338442922e-05
2.746000000000000000e+03 4.706410408020019531e+00 -1.385473823547363281e+01 -1.193499410874210298e-04 1.327241625403985381e-04 4.012265435449080542e-06 -4.582350447890348732e-05
2.747000000000000000e+03 3.558098983764648438e+01 -1.414304828643798828e+01 -3.717061645147623494e-06 -4.604406512953573838e-06 -2.496440401955624111e-06 -1.899862468235369306e-06
2.748000000000000000e+03 4.858940887451171875e+01 -1.067893314361572266e+01 9.864930916592129506e-07 -5.805155979032861069e-06 -1.445598854843410663e-06 -4.281648216419853270e-06
2.749000000000000000e+03 7.939803314208984375e+01 1.526633262634277344e+01 1.269645895808935165e-02 -2.433378934860229492e+00 -7.262047529220581055e-01 2.329060062766075134e-02
2.750000000000000000e+03 7.786502075195312500e+01 1.708913803100585938e+00 6.846284866333007812e-02 -1.542217135429382324e+00 -4.421262741088867188e-01 -1.051330491900444031e-01
2.751000000000000000e+03 5.276082229614257812e+01 -2.863472175598144531e+01 2.473945617675781250e-01 2.417505502700805664e+00 7.994700074195861816e-01 -8.647125959396362305e-01
2.752000000000000000e+03 5.292107772827148438e+01 -2.902925109863281250e+01 2.120997309684753418e-01 2.055984497070312500e+00 6.804252862930297852e-01 -8.610775470733642578e-01
2.753000000000000000e+03 5.242615890502929688e+01 -2.898413658142089844e+01 8.712700754404067993e-02 2.577572107315063477e+00 7.994096875190734863e-01 -5.715830326080322266e-01
2.754000000000000000e+03 5.295172500610351562e+01 -2.873571777343750000e+01 2.818504273891448975e-01 2.101681709289550781e+00 7.150596380233764648e-01 -9.074078798294067383e-01
2.755000000000000000e+03 5.042179107666015625e+01 -2.907568550109863281e+01 3.795754015445709229e-01 2.317829608917236328e+00 8.092215061187744141e-01 7.227926850318908691e-01
2.756000000000000000e+03 5.470675277709960938e+01 -2.482855224609375000e+01 2.922646045684814453e+00 -2.568269968032836914e-01 7.997457385063171387e-01 1.375011324882507324e+00
2.757000000000000000e+03 5.412559509277343750e+01 -2.459803962707519531e+01 2.919649839401245117e+00 3.781256079673767090e-01 9.893326163291931152e-01 1.833023786544799805e+00
2.758000000000000000e+03 5.599665832519531250e+01 -2.522471618652343750e+01 2.237629413604736328e+00 -5.522335171699523926e-01 5.056187510490417480e-01 8.468419313430786133e-01
2.759000000000000000e+03 5.561899566650390625e+01 -2.463509750366210938e+01 2.215384960174560547e+00 -4.521501064300537109e-01 5.289704799652099609e-01 1.161337137222290039e+00
2.760000000000000000e+03 5.352161407470703125e+01 -2.365000534057617188e+01 9.370297789573669434e-01 1.456429123878479004e+00 7.180376648902893066e-01 1.695886015892028809e+00
2.761000000000000000e+03 5.315056610107421875e+01 -2.958836174011230469e+01 1.338007301092147827e-01 1.798686861991882324e+00 5.797462463378906250e-01 -7.672670483589172363e-01
2.762000000000000000e+03 5.352620315551757812e+01 -2.937579345703125000e+01 2.367036193609237671e-01 1.488780140876770020e+00 5.176451206207275391e-01 -8.261138200759887695e-01
2.763000000000000000e+03 1.605749320983886719e+01 -8.127105712890625000e+00 -1.624242577236145735e-05 -1.342386894975788891e-05 -8.899888598534744233e-06 3.666112024802714586e-05
2.764000000000000000e+03 1.563186550140380859e+01 -9.423616409301757812e+00 -7.418863242492079735e-05 2.991342171299038455e-06 -2.135918839485384524e-05 -1.944500763784162700e-05
2.765000000000000000e+03 1.572010421752929688e+01 -7.657280445098876953e+00 2.433973895676899701e-05 3.295669375802390277e-05 1.718892963253892958e-05 -2.971034700749441981e-05
2.766000000000000000e+03 4.680601119995117188e+01 -1.586981391906738281e+01 1.746501538946176879e-06 7.440497142852109391e-07 7.471653589163906872e-07 4.987397232980583794e-07
2.767000000000000000e+03 5.345067214965820312e+01 -2.310915946960449219e+01 9.268695116043090820e-02 1.328540802001953125e+00 4.263683259487152100e-01 1.417080402374267578e+00
2.768000000000000000e+03 1.412164402008056641e+01 -6.569447994232177734e+00 4.993908441974781454e-05 2.413742367934901267e-05 2.222295188403222710e-05 -1.358993358735460788e-05
2.769000000000000000e+03 4.858419036865234375e+01 -2.388417625427246094e+01 7.308679223060607910e-01 -2.814703881740570068e-01 1.348192542791366577e-01 -1.655409932136535645e+00
2.770000000000000000e+03 5.663353729248046875e+01 -2.378653717041015625e+01 1.377222299575805664e+00 -2.289237529039382935e-01 3.444895744323730469e-01 1.174750089645385742e+00
2.771000000000000000e+03 4.088390350341796875e+01 -1.347884845733642578e+01 2.562197323641157709e-06 5.585254257312044501e-06 2.444235406073858030e-06 1.386113922308140900e-06
2.772000000000000000e+03 4.769366073608398438e+01 -1.581711959838867188e+01 -2.662615997905959375e-06 -1.639049742152565159e-06 -1.290499767492292449e-06 1.913176390644366620e-07
2.773000000000000000e+03 2.924612426757812500e+01 -1.137086296081542969e+01 1.611447828508971725e-06 5.906616479478543624e-06 2.255419303764938377e-06 -2.781672492346842773e-06
2.774000000000000000e+03 2.858056449890136719e+01 -1.150067615509033203e+01 4.569085376715520397e-06 -4.884556346951285377e-06 -9.464136496717401315e-08 1.157318578748345317e-07
2.775000000000000000e+03 1.293668270111083984e+01 -5.991963386535644531e+00 4.297010673326440156e-05 3.572216883185319602e-05 2.360768303333315998e-05 1.349822923657484353e-05
2.776000000000000000e+03 2.784451675415039062e+01 -8.383475303649902344e+00 -1.701873884485394228e-06 2.859805590560426936e-06 3.473795402442192426e-07 -3.733865469257580116e-06
2.777000000000000000e+03 2.852890968322753906e+01 -1.326392173767089844e+01 6.075136298022698611e-06 3.647270432338700630e-06 2.916721996371052228e-06 -1.105310616367205512e-06
2.778000000000000000e+03 2.988287925720214844e+01 -1.308535766601562500e+01 3.595736870920518413e-06 7.037330306047806516e-06 3.189920107615762390e-06 -2.236657337562064640e-06
2.779000000000000000e+03 2.672778129577636719e+01 -1.027480602264404297e+01 7.257247602865390945e-07 -4.270443696441361681e-06 -1.063415766111575067e-06 -3.196595798726775683e-06
2.780000000000000000e+03 3.508390903472900391e+00 4.731977939605712891e+00 -2.927446985268034041e-06 -3.531661604938562959e-06 -1.937732577061979100e-06 -7.827267836546525359e-06
2.781000000000000000e+03 4.208605289459228516e+00 -4.622805118560791016e+00 -5.892505214433185756e-05 -3.825859312200918794e-05 -2.915509321610443294e-05 -5.820073420181870461e-05
2.782000000000000000e+03 4.840798187255859375e+01 -2.528793716430664062e+01 1.810505986213684082e+00 -3.716355264186859131e-01 4.316611289978027344e-01 -9.091728925704956055e-01
2.783000000000000000e+03 6.724169921875000000e+01 -1.299225997924804688e+01 1.076455339789390564e-01 8.768118619918823242e-01 2.953372299671173096e-01 2.264316976070404053e-01
2.784000000000000000e+03 6.762606048583984375e+01 -1.468082523345947266e+01 -1.864457689225673676e-02 6.718915700912475586e-01 1.959741115570068359e-01 1.326659619808197021e-01
2.785000000000000000e+03 6.691062164306640625e+01 -1.534756088256835938e+01 -5.994246527552604675e-02 6.461743116378784180e-01 1.758695691823959351e-01 2.058303654193878174e-01
2.786000000000000000e+03 4.654397583007812500e+01 -2.540900039672851562e+01 9.347164630889892578e-01 -9.489010572433471680e-01 -4.255374893546104431e-03 -1.029815673828125000e+00
2.787000000000000000e+03 2.573762893676757812e+01 -5.547324180603027344e+00 4.811251073988387361e-06 1.092003003577701747e-05 4.719384378404356539e-06 8.554937267035711557e-06
2.788000000000000000e+03 2.512438583374023438e+01 -5.992091655731201172e+00 7.218858627311419696e-06 -1.398305539623834193e-05 -2.029258894253871404e-06 -8.630951924715191126e-06
2.789000000000000000e+03 5.474092864990234375e+01 -2.316811180114746094e+01 6.536317467689514160e-01 2.559868097305297852e-01 2.728855609893798828e-01 1.583229899406433105e+00
2.790000000000000000e+03 4.433647918701171875e+01 -1.676852989196777344e+01 1.720839009067276493e-06 3.617442644099355675e-06 1.601484427737887017e-06 -6.735530178048065864e-07
2.791000000000000000e+03 1.018395805358886719e+01 4.355524063110351562e+00 6.664083230134565383e-06 1.747613168845418841e-05 7.242064384627155960e-06 -7.670334525755606592e-06
2.792000000000000000e+03 1.227215766906738281e+01 -5.725461959838867188e+00 -5.310442793415859342e-05 -2.416081770206801593e-05 -2.317957296327222139e-05 -7.097689831425668672e-06
2.793000000000000000e+03 2.350701332092285156e+01 -2.928742408752441406e+00 6.736789146088995039e-06 -9.820854756981134415e-06 -9.252195809494878631e-07 -6.781092452001757920e-06
2.794000000000000000e+03 1.797795867919921875e+01 6.958374977111816406e-01 1.265485479962080717e-05 5.201930889597861096e-06 5.357035661290865391e-06 -9.165957635559607297e-06
2.795000000000000000e+03 4.982702636718750000e+01 -1.520230770111083984e+01 3.221638280592742376e-06 2.999017169713624753e-06 1.866196612354542594e-06 -1.455781330150784925e-06
2.796000000000000000e+03 5.573475265502929688e+01 -2.500448417663574219e+01 2.324549913406372070e+00 -5.240925550460815430e-01 5.401372313499450684e-01 1.007483243942260742e+00
2.797000000000000000e+03 2.714997291564941406e+01 -7.763532161712646484e+00 -2.382726734140305780e-06 6.789229701098520309e-06 1.321950890087464359e-06 -2.799796220642747357e-06
2.798000000000000000e+03 4.771647644042968750e+01 -1.495129776000976562e+01 2.324461092939600348e-06 3.585692866181489080e-06 1.773046164998959284e-06 -9.573905117576941848e-07
2.799000000000000000e+03 1.199528598785400391e+01 -6.458678722381591797e+00 6.387841858668252826e-05 2.543478149164002389e-05 2.679395947779994458e-05 1.259899818251142278e-05
2.800000000000000000e+03 2.481307983398437500e+01 -5.433791160583496094e+00 4.425950919539900497e-06 1.328588587057311088e-05 5.313550900609698147e-06 4.892442120763007551e-06
2.801000000000000000e+03 2.455427169799804688e+01 -4.872862815856933594e+00 7.919614290585741401e-06 -1.259373857465106994e-05 -1.402237330694333650e-06 -5.258765213511651382e-06
2.802000000000000000e+03 4.157440185546875000e+01 -1.550621891021728516e+01 -1.340530531024342054e-07 8.563889650758937933e-07 2.167007693287814618e-07 2.528821596570196562e-06
2.803000000000000000e+03 7.053056240081787109e+00 3.679336071014404297e+00 3.502628260321216658e-06 -1.455608185096934903e-06 6.141059998299169820e-07 -1.129158590629231185e-05
2.804000000000000000e+03 2.183019828796386719e+01 -1.323173761367797852e+00 5.532565864996286109e-06 1.565817183291073889e-05 6.357221081998432055e-06 4.722368430520873517e-06
2.805000000000000000e+03 2.185217285156250000e+01 -2.295622348785400391e+00 6.371762992785079405e-06 1.179663831862853840e-05 5.450520347949350253e-06 -6.685277753604168538e-07
2.806000000000000000e+03 1.090116596221923828e+01 4.443799972534179688e+00 3.656305580079788342e-06 -1.018719831336056814e-05 -1.959267819984233938e-06 -5.619359853881178424e-06
2.807000000000000000e+03 9.165263175964355469e+00 -4.850437164306640625e+00 5.008455264032818377e-05 2.946954009530600160e-05 2.386622691119555384e-05 -3.758067805392784066e-06
2.808000000000000000e+03 8.961407661437988281e+00 -5.547374725341796875e+00 -4.418913886183872819e-05 -4.576213177642785013e-05 -2.698538264667149633e-05 3.347279925947077572e-05
2.809000000000000000e+03 7.982199192047119141e+00 4.414669036865234375e+00 1.812222762964665890e-06 7.257116294567822479e-07 7.613803063577506691e-07 -1.104373313864925876e-05
2.810000000000000000e+03 2.133139228820800781e+01 -1.868191123008728027e+00 1.742396307236049324e-05 -1.861303098849020898e-05 -3.567207329524535453e-07 -6.668388323305407539e-06
2.811000000000000000e+03 1.847504234313964844e+01 1.392731904983520508e+00 1.034955857903696597e-05 -7.009728051343699917e-06 1.001949158307979815e-06 5.492809691531874705e-07
2.812000000000000000e+03 4.268529415130615234e+00 -5.536334037780761719e+00 4.469745908863842487e-05 4.898504994343966246e-05 2.810475234582554549e-05 5.932334534008987248e-05
2.813000000000000000e+03 4.267951202392578125e+01 -1.618553924560546875e+01 4.601548653226927854e-07 -2.117558551617548801e-06 -4.972211513631918933e-07 1.183006816063425504e-06
2.814000000000000000e+03 1.587400054931640625e+01 2.766131401062011719e+00 1.280549986404366791e-05 1.158007580670528114e-05 7.315672519325744361e-06 1.293330171847628662e-07
2.815000000000000000e+03 1.582158470153808594e+01 3.544497013092041016e+00 4.493444976105820388e-06 -1.963166505447588861e-05 -4.541465841612080112e-06 -7.497767455788562074e-06
2.816000000000000000e+03 6.477842712402343750e+01 -1.862332344055175781e+01 -3.333898186683654785e-01 6.594627499580383301e-01 9.782187640666961670e-02 4.574373364448547363e-01
2.817000000000000000e+03 7.325249481201171875e+01 -1.315851974487304688e+01 -3.491742163896560669e-02 2.308036684989929199e-01 5.876587331295013428e-02 -2.890928387641906738e-01
2.818000000000000000e+03 7.253241729736328125e+01 -5.727256298065185547e+00 5.443113297224044800e-02 9.839904904365539551e-01 3.115264773368835449e-01 -1.460691541433334351e-01
2.819000000000000000e+03 8.656468391418457031e+00 1.720700645446777344e+01 1.498963911217288114e-06 -4.256085503584472463e-06 -8.271364890788390767e-07 9.104264790948946029e-06
2.820000000000000000e+03 6.777912616729736328e+00 1.596692085266113281e+01 -7.869560363360506017e-07 1.205052922159666196e-05 3.379071813469636254e-06 -1.208401681651594117e-05
2.821000000000000000e+03 9.170420646667480469e+00 1.559811687469482422e+01 -1.117960096053138841e-06 -9.457371561438776553e-06 -3.172599463141523302e-06 3.688424158099223860e-06
2.822000000000000000e+03 6.572415351867675781e+00 2.154060745239257812e+01 2.354850721530965529e-06 -4.219209586153738201e-06 -5.593076934928831179e-07 -1.509944286226527765e-05
2.823000000000000000e+03 7.497257232666015625e+00 1.400245380401611328e+01 -8.353835255547892302e-06 -5.732214958698023111e-06 -4.225815246172714978e-06 -6.566572210431331769e-06
2.824000000000000000e+03 8.175504684448242188e+00 9.963185310363769531e+00 8.812010491965338588e-06 7.185934919107239693e-06 4.799383532372303307e-06 -4.537310758223611629e-07
2.825000000000000000e+03 4.622385025024414062e+01 -1.079072570800781250e+01 -5.043364581069909036e-06 1.421424349246080965e-05 2.751263764366740361e-06 4.081945007783360779e-06
2.826000000000000000e+03 4.583966064453125000e+01 -1.010225486755371094e+01 4.206960056762909517e-06 -1.543781036161817610e-05 -3.369255409779725596e-06 -6.351635306600655895e-07
2.827000000000000000e+03 4.805526733398437500e+00 -2.106907463073730469e+01 6.675574695691466331e-06 -8.158465061569586396e-05 -2.247272277600131929e-05 1.242212892975658178e-04
2.828000000000000000e+03 6.063009262084960938e+00 -1.064586353302001953e+01 -1.865293743321672082e-04 3.922340329154394567e-05 -4.419179094838909805e-05 3.615268360590562224e-05
2.829000000000000000e+03 7.918247222900390625e+00 -1.104854011535644531e+01 1.170067553175613284e-04 3.816018215729855001e-05 4.655008160625584424e-05 6.732001929776743054e-05
2.830000000000000000e+03 6.104521751403808594e+00 -1.401184368133544922e+01 -6.632768781855702400e-05 1.398983877152204514e-04 2.207120996899902821e-05 -1.035054519888944924e-04
2.831000000000000000e+03 3.346682739257812500e+01 1.114001941680908203e+01 4.463750883587636054e-05 -2.118247066391631961e-04 -5.015616261516697705e-05 -1.272898771276231855e-05
2.832000000000000000e+03 4.301897811889648438e+01 -5.830840110778808594e+00 4.361245828476967290e-06 1.495484775659861043e-05 5.794828211946878582e-06 -2.277869270983501337e-06
2.833000000000000000e+03 4.244730758666992188e+01 -3.354834079742431641e+00 -3.810180032814969309e-06 -1.939302273967768997e-05 -6.960960490687284619e-06 9.374948604090604931e-06
2.834000000000000000e+03 4.365478515625000000e+01 -8.233241081237792969e+00 -7.282543720066314563e-06 -3.050665782211581245e-06 -3.099962896158103831e-06 4.488446847972227260e-06
2.835000000000000000e+03 8.134796142578125000e+00 -9.169316291809082031e+00 1.414448488503694534e-04 -6.496671630884520710e-06 4.048445043736137450e-05 -2.607341957627795637e-05
2.836000000000000000e+03 3.390222549438476562e+01 8.804248809814453125e+00 -3.214648677385412157e-05 -4.420653931447304785e-05 -2.290590782649815083e-05 -7.282113074325025082e-05
2.837000000000000000e+03 3.871508407592773438e+01 2.593746662139892578e+00 9.311701433034613729e-06 5.219882950768806040e-05 1.845316000981256366e-05 -8.113873263937421143e-06
2.838000000000000000e+03 7.321447372436523438e+00 -1.222147655487060547e+01 6.604751979466527700e-05 -4.273316517355851829e-05 6.994306659180438146e-06 1.008505350910127163e-04
2.839000000000000000e+03 7.346984863281250000e+01 -6.018072605133056641e+00 4.533686861395835876e-02 6.293829679489135742e-01 2.024159431457519531e-01 -2.472848445177078247e-01
2.840000000000000000e+03 6.988684844970703125e+01 -1.593380546569824219e+01 -1.001938208937644958e-01 3.874400556087493896e-01 8.617386966943740845e-02 -1.026696860790252686e-01
2.841000000000000000e+03 3.706624603271484375e+01 5.597169399261474609e+00 3.324917634017765522e-05 4.217012246954254806e-06 1.123985657613957301e-05 3.022078635694924742e-05
2.842000000000000000e+03 6.843211174011230469e+00 -6.734230995178222656e+00 -2.471532752679195255e-05 -1.253360187547514215e-05 -1.117467945732641965e-05 1.915732900670263916e-05
2.843000000000000000e+03 1.097234916687011719e+01 -9.386063575744628906e+00 1.059451606124639511e-04 -4.536118467513006181e-06 3.042271237063687295e-05 2.789079917420167476e-05
2.844000000000000000e+03 4.802154922485351562e+01 -1.251041221618652344e+01 1.289252168135135435e-06 -8.409369002038147300e-06 -2.136034936484065838e-06 1.939401670369989006e-07
2.845000000000000000e+03 3.940165710449218750e+01 7.894603610038757324e-01 1.140638445917829813e-07 -2.109451452270150185e-05 -6.294135346252005547e-06 6.194068646436790004e-06
2.846000000000000000e+03 4.891809463500976562e+01 -1.161224842071533203e+01 -8.029917353269411251e-07 1.536909053356794175e-06 2.201751811981011997e-07 2.110136392730055377e-06
2.847000000000000000e+03 5.219815063476562500e+01 -2.836938285827636719e+01 2.374975830316543579e-01 3.231214284896850586e+00 1.040613532066345215e+00 -4.982179701328277588e-01
2.848000000000000000e+03 5.266538238525390625e+01 -2.909589767456054688e+01 1.430838555097579956e-01 2.250546693801879883e+00 7.180891633033752441e-01 -6.796997785568237305e-01
2.849000000000000000e+03 5.200013351440429688e+01 -2.888795852661132812e+01 5.622100830078125000e-02 3.007807731628417969e+00 9.192086458206176758e-01 -2.936523556709289551e-01
2.850000000000000000e+03 5.336685562133789062e+01 -2.878691864013671875e+01 3.441654741764068604e-01 1.606373548507690430e+00 5.851616859436035156e-01 -9.340943098068237305e-01
2.851000000000000000e+03 5.402342987060546875e+01 -2.420915412902832031e+01 2.259582042694091797e+00 6.977319717407226562e-01 8.871942162513732910e-01 1.938508987426757812e+00
2.852000000000000000e+03 5.423043060302734375e+01 -2.346930313110351562e+01 1.014742851257324219e+00 6.494482755661010742e-01 4.992573559284210205e-01 1.705898404121398926e+00
2.853000000000000000e+03 5.227071380615234375e+01 -3.097924804687500000e+01 -8.624676614999771118e-02 1.734785914421081543e+00 4.945617318153381348e-01 -3.317955732345581055e-01
2.854000000000000000e+03 1.381583213806152344e+01 -7.275075435638427734e+00 -5.004061313229613006e-05 -3.785373701248317957e-05 -2.636830504343379289e-05 3.698631553561426699e-05
2.855000000000000000e+03 2.843102455139160156e+01 -9.922011375427246094e+00 7.377938345598522574e-06 -5.232261173659935594e-06 6.437031174755247775e-07 -4.480645202420419082e-06
2.856000000000000000e+03 7.394327163696289062e+00 5.334523677825927734e+00 -1.599503434590587858e-06 6.990123893046984449e-06 1.617186171642970294e-06 -1.148165483755292371e-05
2.857000000000000000e+03 7.199522972106933594e+00 4.526479244232177734e+00 7.221646683319704607e-06 4.211891337035922334e-06 3.430061497056158260e-06 -3.192601070622913539e-06
2.858000000000000000e+03 5.446680068969726562e+01 -2.394544601440429688e+01 1.794690728187561035e+00 2.993355691432952881e-01 6.282078623771667480e-01 1.757209181785583496e+00
2.859000000000000000e+03 5.550833129882812500e+01 -2.343365287780761719e+01 1.033536553382873535e+00 -9.552006423473358154e-02 2.814049422740936279e-01 1.455767035484313965e+00
2.860000000000000000e+03 4.784501647949218750e+01 -2.501679229736328125e+01 1.406883597373962402e+00 -6.019692420959472656e-01 2.414743006229400635e-01 -1.096431374549865723e+00
2.861000000000000000e+03 5.981055259704589844e+00 -5.387817859649658203e+00 -5.739232619816903025e-06 8.982040890259668231e-05 2.522435352148022503e-05 4.206045196042396128e-05
2.862000000000000000e+03 6.652555942535400391e+00 -5.500134944915771484e+00 -4.121271922485902905e-05 -8.258655725512653589e-05 -3.713978367159143090e-05 -2.916932771768188104e-06
2.863000000000000000e+03 6.628550529479980469e+00 5.546621322631835938e+00 5.391107606556033716e-06 -2.350692938080101158e-07 1.546811517982860096e-06 -2.962761527669499628e-06
2.864000000000000000e+03 8.199203491210937500e+00 -5.209270000457763672e+00 3.353785359649918973e-05 6.404310261132195592e-05 2.927428795373998582e-05 -1.365364278171909973e-05
2.865000000000000000e+03 5.606315231323242188e+01 -2.355098152160644531e+01 1.145732164382934570e+00 -2.127019464969635010e-01 2.799090743064880371e-01 1.325942516326904297e+00
2.866000000000000000e+03 1.157627010345458984e+01 -5.395020484924316406e+00 4.636328594642691314e-05 3.079762245761230588e-05 2.314827361260540783e-05 -6.440505330829182640e-06
2.867000000000000000e+03 2.923055267333984375e+01 -1.063608551025390625e+01 3.137017074550385587e-06 1.222878950102312956e-06 1.307968773289758246e-06 -2.609698412925354205e-06
2.868000000000000000e+03 2.645994567871093750e+01 -6.422779560089111328e+00 1.083798088075127453e-05 8.009225894056726247e-06 5.654162123391870409e-06 1.151579112956824247e-06
2.869000000000000000e+03 3.063435745239257812e+01 -1.251863288879394531e+01 5.118223498357110657e-07 -8.979787708085495979e-06 -2.540389459682046436e-06 8.886081559467129409e-07
2.870000000000000000e+03 1.398310947418212891e+01 5.774810314178466797e+00 4.969170277036027983e-06 -2.352247429371345788e-05 -5.565991159528493881e-06 -1.961041107279015705e-06
2.871000000000000000e+03 8.847749710083007812e+00 5.125093936920166016e+00 6.009403819007275160e-07 1.240191068063722923e-06 5.523394293049932458e-07 -7.949494829517789185e-06
2.872000000000000000e+03 2.357732200622558594e+01 -2.025453567504882812e+00 1.350895399809814990e-05 -4.916597845294745639e-06 2.577706709416816011e-06 3.225427917641354725e-06
2.873000000000000000e+03 3.972249603271484375e+01 -1.332772159576416016e+01 8.614883881818968803e-06 2.476843292242847383e-06 3.327518015794339590e-06 -1.855356458690948784e-06
2.874000000000000000e+03 4.553856658935546875e+01 -1.567604732513427734e+01 -4.424640337674645707e-06 -2.568144509496050887e-06 -2.097835476888576522e-06 -2.061884515569545329e-06
2.875000000000000000e+03 1.550391674041748047e+01 -1.022526931762695312e+01 7.416341395583003759e-05 5.483998393174260855e-06 2.389422479609493166e-05 1.320676892646588385e-05
2.876000000000000000e+03 1.436768722534179688e+01 4.894302845001220703e+00 1.579773424964514561e-06 3.018117058672942221e-05 9.528283044346608222e-06 -5.740837423218181357e-06
2.877000000000000000e+03 4.560648345947265625e+01 -1.198757171630859375e+01 -5.241241979092592373e-06 7.437127806042553857e-06 6.587657708223559894e-07 4.754195742862066254e-06
2.878000000000000000e+03 2.150649642944335938e+01 -7.758528590202331543e-01 1.499164409324293956e-05 -2.296227648912463337e-05 -2.391189582340302877e-06 -9.305970706918742508e-06
2.879000000000000000e+03 4.682794570922851562e+01 -1.306868362426757812e+01 -1.087925397769140545e-06 -9.061609489435795695e-06 -3.044860477530164644e-06 5.037881692260270938e-06
2.880000000000000000e+03 9.787275314331054688e+00 -5.825983047485351562e+00 6.744794518454000354e-05 -3.490748440526658669e-06 1.918716043292079121e-05 -2.206865065090823919e-05
2.881000000000000000e+03 8.520369529724121094e+00 -8.250411033630371094e+00 -1.109070144593715668e-04 -1.715213329589460045e-05 -3.841774378088302910e-05 3.371345519553869963e-05
2.882000000000000000e+03 1.827167320251464844e+01 -1.011973476409912109e+01 4.872776480624452233e-05 3.704541768456692807e-06 1.572969267726875842e-05 3.804263906204141676e-05
2.883000000000000000e+03 6.273027896881103516e+00 -6.028100013732910156e+00 4.438624819158576429e-05 -1.760839768394362181e-05 8.033354788494762033e-06 -2.936209239123854786e-05
2.884000000000000000e+03 1.554179286956787109e+01 -8.343034744262695312e+00 -9.929380212270189077e-06 3.625163662945851684e-05 7.896676834207028151e-06 -6.356058293022215366e-05
2.885000000000000000e+03 5.539452075958251953e+00 4.989629268646240234e+00 1.730688950374315027e-06 2.701457788134575821e-06 1.329644078396086115e-06 -3.192302756360732019e-06
2.886000000000000000e+03 2.548160552978515625e+01 -4.979411125183105469e+00 1.178577440441586077e-05 -2.095254967571236193e-05 -2.750032763287890702e-06 -9.310620953328907490e-06
2.887000000000000000e+03 4.962254047393798828e+00 6.226085186004638672e+00 -2.701670609894790687e-06 9.669159226177725941e-06 2.090246653096983209e-06 -3.863900985834334278e-07
2.888000000000000000e+03 4.245179367065429688e+01 -8.041810035705566406e+00 7.289281711564399302e-06 2.208457999586244114e-06 2.849321845133090392e-06 -1.960365352715598419e-06
2.889000000000000000e+03 1.040200996398925781e+01 1.753563308715820312e+01 8.985409181150316726e-07 -8.348835763172246516e-06 -2.235088459201506339e-06 1.389111639582552016e-05
2.890000000000000000e+03 1.089599227905273438e+01 1.575771045684814453e+01 8.666137887303193565e-07 -1.410795630363281816e-05 -3.972402737417723984e-06 8.634518962935544550e-06
2.891000000000000000e+03 9.220453262329101562e+00 1.392747688293457031e+01 -5.191678155824774876e-06 -1.084641917259432375e-05 -4.811429334949934855e-06 -2.329942844880861230e-06
2.892000000000000000e+03 7.230338573455810547e+00 1.025840282440185547e+01 5.327437406776880380e-07 2.407507054158486426e-05 7.382344392681261525e-06 -1.776546378096099943e-05
2.893000000000000000e+03 4.425914764404296875e+01 -1.037302303314208984e+01 8.303068170789629221e-06 -3.792045163208968006e-06 1.353306970486300997e-06 -3.196713578290655278e-06
2.894000000000000000e+03 4.338575363159179688e+01 -9.286331176757812500e+00 8.367916962015442550e-06 9.989818750000267755e-08 2.540344439694308676e-06 -2.352925321247312240e-06
2.895000000000000000e+03 3.587728881835937500e+01 2.906491041183471680e+00 -6.357848178595304489e-06 -4.681751306634396315e-06 -3.311879709144704975e-06 -1.205923808811348863e-06
2.896000000000000000e+03 3.697434997558593750e+01 2.965168952941894531e+00 -4.968014764017425478e-06 2.584596950327977538e-05 6.263386694627115503e-06 1.125922426581382751e-05
2.897000000000000000e+03 4.146886062622070312e+01 -5.527915477752685547e+00 -6.571667199750663713e-06 -1.116560270020272583e-05 -5.321181106410222128e-06 4.607007213053293526e-06
2.898000000000000000e+03 8.857428550720214844e+00 1.222532939910888672e+01 -1.075102409231476486e-05 -8.937756319937761873e-06 -5.906634214625228196e-06 -3.223703743060468696e-06
2.899000000000000000e+03 6.266045093536376953e+00 -1.262691116333007812e+01 -7.159356027841567993e-05 6.864577881060540676e-05 -8.843361456456477754e-07 -7.861323683755472302e-05
2.900000000000000000e+03 7.900238990783691406e+00 -1.309691333770751953e+01 -9.045349725056439638e-05 7.123739487724378705e-05 -5.764831257693003863e-06 -1.229704794241115451e-04
2.901000000000000000e+03 7.135011291503906250e+01 -1.215925121307373047e+01 -7.557321805506944656e-03 5.576952695846557617e-01 1.650413870811462402e-01 -1.660105884075164795e-01
2.902000000000000000e+03 7.268374633789062500e+01 -1.647632980346679688e+01 -1.181723624467849731e-01 1.624709516763687134e-01 1.328957825899124146e-02 -2.562671601772308350e-01
2.903000000000000000e+03 6.956221008300781250e+01 -1.411264133453369141e+01 -2.561399340629577637e-02 5.953856706619262695e-01 1.709315031766891479e-01 -4.557042941451072693e-02
2.904000000000000000e+03 3.907967758178710938e+01 -1.283323001861572266e+01 -8.166023690137080848e-06 -1.735990167617273983e-06 -2.970604100482887588e-06 3.691373876790748909e-06
2.905000000000000000e+03 3.454925918579101562e+01 5.221700668334960938e+00 4.174833884462714195e-05 -1.012047141557559371e-05 9.488360774412285537e-06 3.368677425896748900e-05
2.906000000000000000e+03 5.519581222534179688e+01 -2.480364990234375000e+01 2.494775533676147461e+00 -4.262449741363525391e-01 6.205592155456542969e-01 1.214098453521728516e+00
2.907000000000000000e+03 5.495593261718750000e+01 -2.445713996887207031e+01 2.343441724777221680e+00 -2.331339865922927856e-01 6.330923438072204590e-01 1.459887742996215820e+00
2.908000000000000000e+03 5.218872451782226562e+01 -2.923418998718261719e+01 4.244657978415489197e-02 2.568277597427368164e+00 7.832173109054565430e-01 -4.663110971450805664e-01
2.909000000000000000e+03 5.299317550659179688e+01 -2.927041816711425781e+01 1.438898146152496338e-01 1.965939402580261230e+00 6.329487562179565430e-01 -8.268728852272033691e-01
2.910000000000000000e+03 5.528937911987304688e+01 -2.397227287292480469e+01 1.779135704040527344e+00 -1.821680366992950439e-01 4.790903031826019287e-01 1.470209717750549316e+00
2.911000000000000000e+03 5.399380493164062500e+01 -2.292684364318847656e+01 2.004026807844638824e-02 8.190165758132934570e-01 2.517170608043670654e-01 1.483108639717102051e+00
2.912000000000000000e+03 5.498176956176757812e+01 -2.360692787170410156e+01 1.316949129104614258e+00 5.519801005721092224e-02 4.116441309452056885e-01 1.594128966331481934e+00
2.913000000000000000e+03 1.407296657562255859e+01 -8.614808082580566406e+00 -5.516941018868237734e-05 -5.304331716615706682e-05 -3.246382038923911750e-05 4.505338438320904970e-05
2.914000000000000000e+03 1.527320957183837891e+01 -7.912980556488037109e+00 2.917029269156046212e-05 -5.272249836707487702e-05 -7.065661520755384117e-06 4.438390533323399723e-05
2.915000000000000000e+03 2.385595321655273438e+01 -1.072944879531860352e+00 1.027426515065599233e-05 -3.168477860526763834e-06 2.131736209776136093e-06 -5.022607638238696381e-06
2.916000000000000000e+03 2.286204147338867188e+01 -1.898804306983947754e+00 8.288243407150730491e-06 2.889208190026693046e-06 3.353235570102697238e-06 -3.855929662677226588e-06
2.917000000000000000e+03 2.542931747436523438e+01 -2.949567317962646484e+00 6.477183433162281290e-06 1.701907240203581750e-05 7.048876796034164727e-06 9.354267604066990316e-06
2.918000000000000000e+03 9.189671516418457031e+00 -7.459591865539550781e+00 8.336226164828985929e-05 2.311731077497825027e-05 3.194387318217195570e-05 -3.087727964157238603e-05
2.919000000000000000e+03 5.578008270263671875e+01 -2.412942123413085938e+01 1.858924508094787598e+00 -3.465639948844909668e-01 4.537081420421600342e-01 1.307123064994812012e+00
2.920000000000000000e+03 4.672795867919921875e+01 -1.400790119171142578e+01 2.573897063484764658e-06 5.017880084778880700e-06 2.277533212691196240e-06 -2.395057890680618584e-06
2.921000000000000000e+03 1.219631099700927734e+01 -9.433001518249511719e+00 4.587309376802295446e-05 1.089664292521774769e-04 4.645185617846436799e-05 -1.967032221728004515e-05
2.922000000000000000e+03 1.651521682739257812e+01 4.714922428131103516e+00 2.972767788378405385e-06 -2.393783324805554003e-05 -6.289519660640507936e-06 -8.239301678258925676e-06
2.923000000000000000e+03 3.132989883422851562e+01 -1.189006996154785156e+01 2.538015451136743650e-06 8.853447980072814971e-06 3.417439074837602675e-06 -5.294896823215822224e-07
2.924000000000000000e+03 3.086287498474121094e+01 -1.113716793060302734e+01 8.426555950791225769e-07 -1.039805647451430559e-05 -2.866620434360811487e-06 -4.477963670979079325e-07
2.925000000000000000e+03 7.802361011505126953e+00 6.721308231353759766e+00 -7.939687748148571700e-06 1.074707142834085971e-05 8.422151154263701756e-07 -9.612726898922119290e-06
2.926000000000000000e+03 4.899614715576171875e+01 -1.334753513336181641e+01 -2.745354947819578229e-07 -8.402347702940460294e-06 -2.603064785944297910e-06 5.174492230253235903e-07
2.927000000000000000e+03 2.851162719726562500e+01 -9.241550445556640625e+00 -6.472904715337790549e-06 -1.287918848902336322e-06 -2.328247092009405605e-06 4.374425316200358793e-06
2.928000000000000000e+03 2.718316841125488281e+01 -5.249945640563964844e+00 1.351722130493726581e-05 -3.393538918317062780e-06 3.037104761460795999e-06 4.934635853715008125e-06
2.929000000000000000e+03 2.620595741271972656e+01 -4.577985286712646484e+00 8.487654667987953871e-06 9.881596270133741200e-06 5.510775281436508521e-06 8.150392204697709531e-06
2.930000000000000000e+03 1.273918724060058594e+01 -7.287231922149658203e+00 1.044440796249546111e-05 -2.617861537146382034e-05 -4.720262040791567415e-06 7.839589670766144991e-06
2.931000000000000000e+03 1.114330005645751953e+01 -6.133386135101318359e+00 -5.987004624330438673e-05 -2.837417196133174002e-05 -2.647326436999719590e-05 1.174344833998475224e-05
2.932000000000000000e+03 1.272547912597656250e+01 6.029417991638183594e+00 3.103253902736469172e-06 -1.506172156950924546e-05 -3.587540277294465341e-06 -1.679973252066702116e-06
2.933000000000000000e+03 1.209690380096435547e+01 5.569856166839599609e+00 1.945628127941745333e-06 2.374757968937046826e-05 7.707962140557356179e-06 -1.557584982947446406e-05
2.934000000000000000e+03 4.570891189575195312e+01 -1.492350959777832031e+01 3.670838395919417962e-06 1.134618855758162681e-06 1.441637209609325510e-06 -1.648444708735041786e-06
2.935000000000000000e+03 9.709898948669433594e+00 5.695271015167236328e+00 4.880041615251684561e-06 4.725458893517497927e-06 2.881650061681284569e-06 -5.920931471337098628e-06
2.936000000000000000e+03 2.926202774047851562e+01 -9.851081848144531250e+00 1.656378799452795647e-06 4.249709490977693349e-06 1.771826532603881788e-06 5.484254415932809934e-06
2.937000000000000000e+03 4.358142852783203125e+01 -1.595993995666503906e+01 -6.540675201449630549e-08 4.057327259943122044e-06 1.197576125377963763e-06 -8.524726808900595643e-07
2.938000000000000000e+03 1.753393936157226562e+01 4.203402996063232422e+00 6.720637884427560493e-06 -2.637038960529025644e-05 -5.894925834581954405e-06 -1.292234628635924309e-05
2.939000000000000000e+03 1.720528602600097656e+01 2.098973274230957031e+00 1.261279521713731810e-05 -7.698191438976209611e-06 1.474381292609905358e-06 1.705148747532803100e-06
2.940000000000000000e+03 4.340201950073242188e+01 -1.502339839935302734e+01 1.275533634270686889e-07 -1.308278285705455346e-07 -9.823392099761463214e-10 2.015508925978792831e-06
2.941000000000000000e+03 1.161984539031982422e+01 6.102694988250732422e+00 -2.272905845757122734e-07 7.066951184242498130e-06 2.051898263744078577e-06 -3.104155666733277030e-06
2.942000000000000000e+03 1.765360260009765625e+01 2.704069375991821289e+00 1.042718940880149603e-05 9.303827937401365489e-06 5.919304840062977746e-06 -1.178393631562357768e-05
2.943000000000000000e+03 1.778536796569824219e+01 3.629243135452270508e+00 2.111179674102459103e-05 6.329581083264201880e-06 8.232413165387697518e-06 -9.332510671811178327e-06
2.944000000000000000e+03 2.200206947326660156e+01 3.894193768501281738e-01 7.913310582807753235e-06 -2.373590177739970386e-05 -4.746777449327055365e-06 -8.863711627782322466e-06
2.945000000000000000e+03 2.795043563842773438e+01 -7.702697277069091797e+00 8.178240022971294820e-06 -8.119045560306403786e-06 1.775823399441378569e-08 3.400436696665565250e-07
2.946000000000000000e+03 3.039470863342285156e+01 -1.036477661132812500e+01 4.816799446416553110e-06 9.231104741047602147e-06 4.214371529087657109e-06 1.734862735247588716e-06
2.947000000000000000e+03 7.550131797790527344e+00 -7.563968658447265625e+00 4.631639967556111515e-05 3.644427124527283013e-05 2.482820127625018358e-05 -4.030772834084928036e-05
2.948000000000000000e+03 8.713168144226074219e+00 -6.246555805206298828e+00 4.485724639380350709e-05 6.554906576639041305e-05 3.312189437565393746e-05 -3.776659286813810468e-05
2.949000000000000000e+03 7.987430572509765625e+00 -5.845517635345458984e+00 -1.429079020454082638e-05 -9.093512198887765408e-05 -3.156777529511600733e-05 2.403942926321178675e-05
2.950000000000000000e+03 2.512574577331542969e+01 -4.396642208099365234e+00 3.086900960624916479e-06 2.068133653665427119e-05 7.130471203709021211e-06 -1.199629537040891591e-06
2.951000000000000000e+03 2.583152008056640625e+01 -3.806736707687377930e+00 7.275209100043866783e-06 -2.011721517192199826e-05 -3.852601821563439444e-06 -7.719108907622285187e-06
2.952000000000000000e+03 4.719124221801757812e+01 -1.226423931121826172e+01 -6.144464350654743612e-07 1.409871856594691053e-05 4.045281912112841383e-06 -1.641671047991621890e-07
2.953000000000000000e+03 2.167061614990234375e+01 1.225891590118408203e+00 7.436880878231022507e-06 2.290687007189262658e-05 9.103125194087624550e-06 8.963289474195335060e-06
2.954000000000000000e+03 2.028240776062011719e+01 1.178826570510864258e+00 6.029167252563638613e-06 2.274864164064638317e-05 8.633342986286152154e-06 -6.665883574896724895e-06
2.955000000000000000e+03 1.221356201171875000e+01 1.778391647338867188e+01 1.631086661291192286e-06 -1.283723486267263070e-05 -3.361844392202328891e-06 1.899577910080552101e-05
2.956000000000000000e+03 1.106241703033447266e+01 1.395313930511474609e+01 -2.904464963648933917e-06 -1.589343628438655287e-05 -5.639370556309586391e-06 -2.325221570842472829e-09
2.957000000000000000e+03 8.092314720153808594e+00 1.081723785400390625e+01 -6.466179002018179744e-06 -1.080801757780136541e-05 -5.182258973945863545e-06 -5.235899152467027307e-06
2.958000000000000000e+03 3.855717468261718750e+01 -1.200372099876403809e+00 -1.107232583308359608e-05 -1.094710660254349932e-05 -6.605829639738658443e-06 9.580888217897154391e-06
2.959000000000000000e+03 3.469902038574218750e+01 2.724770784378051758e+00 2.349328315176535398e-05 -2.792386339933727868e-06 6.210269020812120289e-06 2.749145096458960325e-05
2.960000000000000000e+03 3.940971374511718750e+01 -3.416729688644409180e+00 1.204716318170540035e-05 7.805194400134496391e-06 5.955707365501439199e-06 -1.571809661982115358e-05
2.961000000000000000e+03 3.908324050903320312e+01 -5.901673316955566406e+00 -9.712475730339065194e-06 -9.238521670340560377e-06 -5.685299129254417494e-06 2.099209950756630860e-06
2.962000000000000000e+03 4.216689300537109375e+01 -1.025496578216552734e+01 7.749044016236439347e-06 1.652298692533804569e-06 2.820402869474492036e-06 -4.665294000005815178e-06
2.963000000000000000e+03 3.259020996093750000e+01 5.019779682159423828e+00 -3.117509095318382606e-06 -6.292966190812876448e-06 -2.823142494889907539e-06 4.778344009537249804e-05
2.964000000000000000e+03 3.707143402099609375e+01 1.976823091506958008e+00 2.084605512209236622e-06 -6.004031092743389308e-06 -1.175827719634980895e-06 -6.853191280242754146e-06
2.965000000000000000e+03 3.465876388549804688e+01 4.001777172088623047e+00 -2.637339093780610710e-05 1.288810562982689589e-05 -4.045585683343233541e-06 -1.225512551172869280e-05
2.966000000000000000e+03 5.238023376464843750e+01 -2.976537895202636719e+01 -1.968745328485965729e-02 2.199163913726806641e+00 6.538429260253906250e-01 -4.929224252700805664e-01
2.967000000000000000e+03 1.064814472198486328e+01 -8.440225601196289062e+00 1.225538289872929454e-04 5.347247906684060581e-07 3.692656537168659270e-05 5.345603858586400747e-05
2.968000000000000000e+03 3.084968566894531250e+01 -9.068186759948730469e+00 8.096920282696373761e-06 4.063536493958963547e-07 2.550982117099920288e-06 8.223124495998490602e-06
2.969000000000000000e+03 1.823178482055664062e+01 3.111538887023925781e+00 -1.739523327159986366e-06 -1.770680501067545265e-05 -5.833898285345640033e-06 4.310479653213405982e-06
2.970000000000000000e+03 2.905523681640625000e+01 -6.986745834350585938e+00 2.657498271219083108e-06 -1.092049387807492167e-05 -2.478898522895178758e-06 3.776544645006651990e-06
2.971000000000000000e+03 8.256711006164550781e+00 -6.909924030303955078e+00 -5.315925227478146553e-05 -4.657901445170864463e-05 -2.992148074554279447e-05 3.685673073050566018e-05
2.972000000000000000e+03 4.473433685302734375e+01 -1.389175510406494141e+01 1.061908164956548717e-06 7.327483217522967607e-06 2.516817403375171125e-06 -3.818482127826428041e-06
2.973000000000000000e+03 2.102502059936523438e+01 3.553729534149169922e+00 1.617772068129852414e-05 -3.011939770658500493e-05 -4.182503289484884590e-06 1.269460062758298591e-05
2.974000000000000000e+03 1.899106979370117188e+01 2.201472759246826172e+00 7.282711976586142555e-06 7.303907750610960647e-06 4.375986009108601138e-06 -1.152332788478815928e-05
2.975000000000000000e+03 1.357093429565429688e+01 -9.346843719482421875e+00 6.945207860553637147e-05 6.806271267123520374e-05 4.125443592783994973e-05 -4.810968675883486867e-05
2.976000000000000000e+03 4.471919631958007812e+01 -1.302099227905273438e+01 -2.262813268316676840e-06 -1.022054107124859001e-06 -9.854602467385120690e-07 4.953718871547607705e-06
2.977000000000000000e+03 4.305135345458984375e+01 -1.332755661010742188e+01 4.201384854241041467e-06 -5.288576630846364424e-06 -3.261576182467251783e-07 2.970651394207379781e-06
2.978000000000000000e+03 4.230369567871093750e+01 -1.327897453308105469e+01 1.795681441763008479e-06 9.318904631072655320e-06 3.334375833219382912e-06 -1.199786424876947422e-06
2.979000000000000000e+03 2.495579338073730469e+01 -2.282628297805786133e+00 1.423641060682712123e-05 -2.607277565402910113e-05 -3.550909468685858883e-06 2.504739086361951195e-06
2.980000000000000000e+03 7.610542297363281250e+00 6.074253082275390625e+00 9.768846211954951286e-06 -1.886411610030336305e-06 2.364730335102649406e-06 -6.239279173314571381e-06
2.981000000000000000e+03 2.869196701049804688e+01 -7.817647933959960938e+00 9.516442332824226469e-06 4.454393092601094395e-06 4.191250809526536614e-06 -1.805560827961016912e-06
2.982000000000000000e+03 1.346700572967529297e+01 6.611464023590087891e+00 4.594014171743765473e-06 2.020520332735031843e-05 7.439764885930344462e-06 -1.276596049137879163e-05
2.983000000000000000e+03 9.016425132751464844e+00 5.863899707794189453e+00 9.207476978190243244e-06 4.054528289998415858e-06 3.978601853305008262e-06 -1.041534869727911428e-05
2.984000000000000000e+03 1.644843482971191406e+01 5.715061187744140625e+00 6.948889677005354315e-06 1.596764741407241672e-05 6.874960945424390957e-06 6.685826974717201665e-06
2.985000000000000000e+03 7.262970447540283203e+00 6.934465408325195312e+00 2.839751005012658425e-06 -8.326347597176209092e-06 -1.645978954911697656e-06 -9.091694664675742388e-06
2.986000000000000000e+03 8.453406333923339844e+00 6.678466796875000000e+00 1.192067156807752326e-05 3.190856205037562177e-06 4.533458195510320365e-06 -9.022739504871424288e-06
2.987000000000000000e+03 2.949693679809570312e+01 -6.026545524597167969e+00 8.720082405488938093e-06 8.527593308826908469e-06 5.174302714294753969e-06 -5.205191882851067930e-06
2.988000000000000000e+03 2.791256141662597656e+01 -3.896250724792480469e+00 1.051427716447506100e-05 9.319987839262466878e-06 5.950279501121258363e-06 1.180042545456672087e-05
2.989000000000000000e+03 4.567463302612304688e+01 -1.397639560699462891e+01 -2.133755970135098323e-06 -4.120012363273417577e-06 -1.876130568234657403e-06 2.352787987547344528e-06
2.990000000000000000e+03 2.913162803649902344e+01 -9.156480789184570312e+00 2.787967105177813210e-06 -1.022727792587829754e-05 -2.231793359896983020e-06 -5.182933819014579058e-06
2.991000000000000000e+03 6.735375881195068359e+00 7.401688575744628906e+00 2.093051762130926363e-06 2.084662810375448316e-05 6.881904027977725491e-06 -7.355631623795488849e-06
2.992000000000000000e+03 1.329813098907470703e+01 -7.956627368927001953e+00 5.275947114569135010e-05 4.974193507223390043e-05 3.075042332056909800e-05 -4.362759500509127975e-05
2.993000000000000000e+03 1.034856986999511719e+01 -9.001613616943359375e+00 -1.462506479583680630e-04 4.791721039509866387e-06 -4.243767762091010809e-05 -5.768495975644327700e-05
2.994000000000000000e+03 9.986945152282714844e+00 -8.015850067138671875e+00 -8.349042036570608616e-05 -1.345758846582612023e-05 -2.908440183091443032e-05 1.165581466011644807e-06
2.995000000000000000e+03 1.298885631561279297e+01 1.404623317718505859e+01 2.446921143928193487e-06 -2.000044878514017910e-05 -5.266057996777817607e-06 9.012216651171911508e-06
2.996000000000000000e+03 1.061264801025390625e+01 1.114679718017578125e+01 -3.536945087034837343e-06 -1.498958681622752920e-05 -5.557959411817137152e-06 -1.212311326526105404e-05
2.997000000000000000e+03 2.848256492614746094e+01 1.132681751251220703e+01 2.493212377885356545e-05 2.669459172466304153e-05 1.548801446915604174e-05 -8.242182957474142313e-05
2.998000000000000000e+03 3.858750534057617188e+01 -7.481580257415771484e+00 -2.366485659877071157e-06 -1.150054868048755452e-05 -4.160110620432533324e-06 -3.477472546364879236e-06
2.999000000000000000e+03 3.459077072143554688e+01 7.985302805900573730e-02 -4.135609287914121523e-06 -2.025449794018641114e-05 -7.317032213904894888e-06 -2.340911851206328720e-05
3.000000000000000000e+03 3.569704818725585938e+01 -5.350720882415771484e-01 -6.498372840724186972e-06 -1.570286985952407122e-05 -6.660372491751331836e-06 -2.032056727330200374e-05
3.001000000000000000e+03 3.704976272583007812e+01 -1.917332887649536133e+00 -9.434883395442739129e-06 -2.085310006805229932e-05 -9.086395039048511535e-06 1.347957640973618254e-05
3.002000000000000000e+03 9.299532890319824219e+00 8.244909286499023438e+00 -7.821855433576274663e-06 -1.056673681887332350e-06 -2.663558689164347015e-06 -7.243944310175720602e-06
3.003000000000000000e+03 3.498811340332031250e+01 1.510836362838745117e+00 -9.623880032449960709e-06 -2.419836346234660596e-05 -1.014667304843897000e-05 -5.118013632454676554e-06
3.004000000000000000e+03 3.541218566894531250e+01 4.374459385871887207e-01 1.297106064157560468e-05 1.654043990129139274e-05 8.853449799062218517e-06 2.606710040709003806e-05
3.005000000000000000e+03 2.921257019042968750e+01 -4.733015060424804688e+00 8.896152394299861044e-06 7.006578471191460267e-06 4.770819032273720950e-06 -1.834173417591955513e-06
3.006000000000000000e+03 2.361964035034179688e+01 1.429256796836853027e+00 1.471788709750398993e-05 -2.214183041360229254e-05 -2.227182903880020604e-06 2.154659523512236774e-05
3.007000000000000000e+03 2.295887565612792969e+01 7.804043889045715332e-01 1.697131665423512459e-05 1.505077580077340826e-05 9.606627827452030033e-06 2.420867303953855298e-06
3.008000000000000000e+03 1.099291133880615234e+01 7.919350624084472656e+00 -2.385339939792174846e-06 3.877464678225805983e-06 4.476373476336448221e-07 -5.980749392620055005e-06
3.009000000000000000e+03 1.008832836151123047e+01 7.292712211608886719e+00 -2.267441914227674715e-06 -3.758499133255099878e-06 -1.807782382456935011e-06 -3.865807229885831475e-06
3.010000000000000000e+03 2.884099006652832031e+01 -8.720123291015625000e+00 1.546244311612099409e-05 3.724826228790334426e-06 5.756181053584441543e-06 -5.641745701723266393e-06
3.011000000000000000e+03 2.643231201171875000e+01 -2.391432523727416992e+00 5.506026354851201177e-06 -1.998302468564361334e-05 -4.343099590187193826e-06 -1.162504486273974180e-05
3.012000000000000000e+03 2.871208381652832031e+01 -3.666268348693847656e+00 6.760900305380346254e-06 -6.015249255142407492e-06 2.236952951761850272e-07 -6.893667432450456545e-06
3.013000000000000000e+03 3.062866592407226562e+01 -8.106468200683593750e+00 2.885550202336162329e-06 -1.625638287805486470e-05 -4.011249984614551067e-06 -5.656384018948301673e-06
3.014000000000000000e+03 2.875883483886718750e+01 -5.596661090850830078e+00 4.465422534849494696e-06 -1.907097248476929963e-05 -4.381664894026471302e-06 2.945542291854508221e-06
3.015000000000000000e+03 4.395723724365234375e+01 -1.392428112030029297e+01 4.005592018074821681e-06 -4.607418759405845776e-06 -1.805479854510849691e-07 4.277253538020886481e-06
3.016000000000000000e+03 4.435395431518554688e+01 -1.127507400512695312e+01 -7.844428182579576969e-06 8.854465704644098878e-06 3.030112338819890283e-07 2.467905005687498488e-06
3.017000000000000000e+03 3.156828308105468750e+01 -9.187782287597656250e+00 3.326074875076301396e-06 1.334907847194699571e-05 5.002546004106989130e-06 -2.740780701060430147e-06
3.018000000000000000e+03 9.182899475097656250e+00 6.603200912475585938e+00 -4.723019173979992047e-06 2.807472583299386315e-06 -5.746639999415492639e-07 -7.335138889175141230e-06
3.019000000000000000e+03 1.802241325378417969e+01 5.309260368347167969e+00 1.441223503206856549e-05 -3.232245580875314772e-05 -5.373066414904315025e-06 2.072672396025154740e-05
3.020000000000000000e+03 4.159197235107421875e+01 -1.272653293609619141e+01 -1.507213369222881738e-06 -8.782182703725993633e-06 -3.086818878728081472e-06 9.201611987919022795e-07
3.021000000000000000e+03 1.215005302429199219e+01 6.752559661865234375e+00 6.895814294693991542e-06 1.241055178979877383e-05 5.791909643448889256e-06 -1.366276774206198752e-05
3.022000000000000000e+03 1.826604080200195312e+01 2.452742576599121094e+00 1.575069109094329178e-05 -1.215350721395225264e-06 4.360601906228112057e-06 5.220673756411997601e-06
3.023000000000000000e+03 1.336836910247802734e+01 9.681831359863281250e+00 -1.951780632225563750e-06 1.680830973782576621e-05 4.456958777154795825e-06 -1.011912627291167155e-05
3.024000000000000000e+03 2.782264518737792969e+01 1.087573909759521484e+01 -5.202401735004968941e-05 1.264650018129032105e-05 -1.181325569632463157e-05 9.769516327651217580e-05
3.025000000000000000e+03 3.200425720214843750e+01 3.614223003387451172e-01 1.956027881533373147e-05 2.345893790334230289e-06 6.571851827175123617e-06 2.084610969177447259e-05
3.026000000000000000e+03 2.912889671325683594e+01 7.699549674987792969e+00 -1.280557080463040620e-05 -2.662905274064542027e-07 -3.921558345609810203e-06 -4.616011210600845516e-05
3.027000000000000000e+03 3.444195175170898438e+01 -2.491971254348754883e+00 1.285561393160605803e-05 1.451245043426752090e-05 8.210419764509424567e-06 9.509292794973589480e-06
3.028000000000000000e+03 3.507085800170898438e+01 -5.756430625915527344e+00 -7.280513273144606501e-06 -1.699176937108859420e-05 -7.281684702320490032e-06 8.935131518228445202e-06
3.029000000000000000e+03 3.555001449584960938e+01 -6.601021766662597656e+00 7.487279845008742996e-07 5.788836915598949417e-06 1.961269390449160710e-06 1.222070113726658747e-05
3.030000000000000000e+03 2.729676818847656250e+01 1.227941417694091797e+01 1.078208060789620504e-05 -6.205922545632347465e-05 -1.538314427307341248e-05 -2.409882290521636605e-05
3.031000000000000000e+03 3.292256546020507812e+01 2.142401188611984253e-01 1.238518507307162508e-05 8.028939191717654467e-06 6.124237188487313688e-06 -1.092218462872551754e-05
3.032000000000000000e+03 3.765912246704101562e+01 -8.019509315490722656e+00 5.835955107613699511e-06 1.635226362850517035e-05 6.656465757259866223e-06 1.900007987387652975e-06
3.033000000000000000e+03 1.089927768707275391e+01 7.173746585845947266e+00 7.776934580761007965e-06 1.618615533516276628e-05 7.188927156676072627e-06 -1.559863630973268300e-05
3.034000000000000000e+03 3.910021972656250000e+01 -9.370972633361816406e+00 -9.189704428536060732e-07 1.450026388738479000e-06 1.593167837654618779e-07 -4.544644070847425610e-06
3.035000000000000000e+03 2.867563819885253906e+01 -2.766580820083618164e+00 6.579849014087812975e-06 7.149673365347553045e-06 4.118856850254815072e-06 1.114023234549676999e-05
3.036000000000000000e+03 3.170715332031250000e+01 -7.459339618682861328e+00 5.983272785670123994e-06 9.337455594504717737e-06 4.596218332153512165e-06 8.885785973689053208e-06
3.037000000000000000e+03 1.158743381500244141e+01 7.431468486785888672e+00 -1.794117451936472207e-06 -9.900793884298764169e-06 -3.508473582769511268e-06 -2.997885076183592901e-06
3.038000000000000000e+03 2.268877792358398438e+01 1.611491918563842773e+00 2.022218950514798053e-06 -1.343475560133811086e-05 -3.423761199883301742e-06 -1.963715840247459710e-05
3.039000000000000000e+03 2.620554542541503906e+01 -1.298106789588928223e+00 1.542746940685901791e-05 2.918584868893958628e-06 5.503816282725892961e-06 1.414333291904767975e-05
3.040000000000000000e+03 4.163555145263671875e+01 -1.112611103057861328e+01 -6.464063517341855913e-06 -4.409057055454468355e-06 -3.261936171838897280e-06 3.593344899854855612e-06
3.041000000000000000e+03 3.182035636901855469e+01 -1.261316204071044922e+01 6.618427619287103880e-07 -8.973227522801607847e-06 -2.493415422577527352e-06 1.329917381553968880e-06
3.042000000000000000e+03 4.025904846191406250e+01 -1.272396183013916016e+01 -5.568796041188761592e-06 -4.763322522194357589e-06 -3.099635478065465577e-06 2.240260755570488982e-06
3.043000000000000000e+03 1.888637351989746094e+01 3.630582809448242188e+00 5.878482170373899862e-06 1.699538188404403627e-05 6.862159352749586105e-06 -1.676809006312396377e-05
3.044000000000000000e+03 1.598276710510253906e+01 1.382237815856933594e+01 -1.230066663993056864e-05 1.110467746912036091e-05 -3.587967967177974060e-07 -2.055341428786050528e-05
3.045000000000000000e+03 1.662731742858886719e+01 1.019435405731201172e+01 -5.315140242601046339e-06 1.977734063984826207e-05 4.338659891800489277e-06 -2.065760781988501549e-05
3.046000000000000000e+03 3.155731201171875000e+01 -1.015830874443054199e+00 1.256811719940742478e-05 1.747890746628399938e-05 9.014107490656897426e-06 1.010675532597815618e-05
3.047000000000000000e+03 2.547862434387207031e+01 9.316276550292968750e+00 -2.661038024598383345e-06 5.553709343075752258e-05 1.586281723575666547e-05 6.501182269857963547e-06
3.048000000000000000e+03 3.383233261108398438e+01 -6.636891365051269531e+00 1.088791123038390651e-06 2.756607727860682644e-06 1.153619678007089533e-06 6.848959401395404711e-06
3.049000000000000000e+03 1.632305335998535156e+01 1.198019027709960938e+01 -7.305114195332862437e-06 1.334673015662701800e-05 1.812484811125614215e-06 -2.643633160914760083e-05
3.050000000000000000e+03 1.214828395843505859e+01 8.099086761474609375e+00 1.501592691965925042e-06 1.299886116612469777e-05 4.350136350694810972e-06 -1.615526707610115409e-05
3.051000000000000000e+03 2.854163360595703125e+01 5.055071830749511719e+00 2.437952571199275553e-05 -6.742802361259236932e-05 -1.291454827878624201e-05 1.232763588632224128e-05
3.052000000000000000e+03 3.546717453002929688e+01 -7.634135723114013672e+00 9.959805538528598845e-06 -4.348920811025891453e-06 1.683265281826606952e-06 -5.128793418407440186e-06
3.053000000000000000e+03 3.544946670532226562e+01 -8.643340110778808594e+00 -7.427141099469736218e-06 5.644103111990261823e-06 -5.349112939256883692e-07 7.605430710100336000e-06
3.054000000000000000e+03 3.315378952026367188e+01 -1.127878379821777344e+01 9.167393955067382194e-07 -1.128255735238781199e-05 -3.109745421170373447e-06 2.538300122978398576e-06
3.055000000000000000e+03 3.902479553222656250e+01 -1.109474563598632812e+01 5.428813437902135774e-06 6.615885013161459938e-06 3.613409489844343625e-06 4.463619461603229865e-06
3.056000000000000000e+03 4.282995605468750000e+01 -1.264786911010742188e+01 -2.852116949725314043e-06 -4.558912678476190194e-06 -2.223308911197818816e-06 4.016006300844310317e-07
3.057000000000000000e+03 2.996429443359375000e+01 -5.060744762420654297e+00 -1.616420490790915210e-06 -1.115795475925551727e-05 -3.832312359008938074e-06 1.025848814606433734e-05
3.058000000000000000e+03 2.854322814941406250e+01 -1.789473652839660645e+00 5.454641268443083391e-06 -1.723373861750587821e-05 -3.533729113769368269e-06 -5.076734851172659546e-06
3.059000000000000000e+03 1.944844245910644531e+01 4.441297531127929688e+00 1.404330760124139488e-05 -2.330731877009384334e-05 -2.779203441605204716e-06 1.502609666204079986e-05
3.060000000000000000e+03 1.783453750610351562e+01 1.425667285919189453e+01 -1.173345299321226776e-05 3.023796307388693094e-05 5.551353297050809488e-06 -1.748908834997564554e-05
3.061000000000000000e+03 2.940056610107421875e+01 5.055595040321350098e-01 1.954151230165734887e-05 -4.913335942546837032e-06 4.388452907733153552e-06 1.773009353200905025e-05
3.062000000000000000e+03 1.424487113952636719e+01 8.938797950744628906e+00 7.627600666637590621e-07 -1.747554233588743955e-05 -5.013834652345394716e-06 -3.925100955370908196e-08
3.063000000000000000e+03 2.544223022460937500e+01 7.331455707550048828e+00 1.023216191242681816e-05 1.440287906007142738e-05 7.390512109850533307e-06 2.073712857963982970e-05
3.064000000000000000e+03 2.827134704589843750e+01 4.154028892517089844e+00 8.384600960198440589e-07 -1.175119723484385759e-05 -3.273820993854315020e-06 -2.533238512114621699e-05
3.065000000000000000e+03 2.812605476379394531e+01 3.198838949203491211e+00 2.128916639776434749e-05 -2.839821354427840561e-05 -2.132713689206866547e-06 1.688752854533959180e-05
3.066000000000000000e+03 3.218865585327148438e+01 -3.106343984603881836e+00 1.385375185236625839e-06 1.234826231666374952e-05 4.120091489312471822e-06 6.823603143857326359e-06
3.067000000000000000e+03 1.792357063293457031e+01 1.238381099700927734e+01 -1.113730468205176294e-05 2.243723793071694672e-05 3.389980065549025312e-06 -2.328260234207846224e-05
3.068000000000000000e+03 3.045981407165527344e+01 5.284789800643920898e-01 -6.194987918206606992e-07 1.207788227475248277e-05 3.437515033510862850e-06 1.582350705575663596e-06
3.069000000000000000e+03 3.876338958740234375e+01 -1.202103805541992188e+01 1.234588353327126242e-06 -4.287094270694069564e-06 -9.157517979474505410e-07 -7.095159730852174107e-07
3.070000000000000000e+03 3.199892234802246094e+01 -1.123868274688720703e+01 1.048393869496067055e-06 -1.060744034475646913e-05 -2.867713874366017990e-06 1.440982515532596153e-07
3.071000000000000000e+03 1.996132469177246094e+01 1.544796085357666016e+01 -7.611243745486717671e-06 3.886544436682015657e-05 9.376259185955859721e-06 -3.110414763796143234e-05
3.072000000000000000e+03 1.962470436096191406e+01 1.394009304046630859e+01 -3.492357109280419536e-06 3.904526238329708576e-05 1.066587083187187091e-05 -1.126595634559635073e-05
3.073000000000000000e+03 1.829812431335449219e+01 1.005487728118896484e+01 -1.268007508770097047e-06 3.455545083852484822e-05 9.986232726078014821e-06 -9.097084330278448761e-06
3.074000000000000000e+03 2.029178237915039062e+01 9.730162620544433594e+00 -5.932456588197965175e-06 -1.211507333209738135e-05 -5.414259248937014490e-06 2.736195347097236663e-05
3.075000000000000000e+03 2.258187294006347656e+01 1.082178401947021484e+01 -2.266028423036914319e-05 3.596247552195563912e-05 3.990657660324359313e-06 -4.545470346783986315e-06
3.076000000000000000e+03 2.828964996337890625e+01 3.058753311634063721e-01 1.597029267941252328e-06 -1.687887925072573125e-05 -4.584554972097976133e-06 -1.177083595393924043e-05
3.077000000000000000e+03 2.839927291870117188e+01 -7.528343796730041504e-01 1.237007109011756256e-05 4.958957106282468885e-06 5.198708549869479612e-06 1.165039884654106572e-05
3.078000000000000000e+03 1.826401329040527344e+01 8.680672645568847656e+00 -6.413621122192125767e-06 2.375745862082112581e-05 5.203151431487640366e-06 -1.322363368672085926e-05
3.079000000000000000e+03 2.629720878601074219e+01 4.543354511260986328e+00 -2.474750999681418762e-06 -1.897511720017064363e-05 -6.434960596379823983e-06 -1.085968324332498014e-05
3.080000000000000000e+03 1.940535354614257812e+01 1.244534683227539062e+01 -1.031308784149587154e-05 4.206498124403879046e-05 9.525568202661816031e-06 -5.685104042640887201e-06
3.081000000000000000e+03 2.429122543334960938e+01 6.264667034149169922e+00 1.699733911664225161e-05 2.405685518169775605e-05 1.231625810760306194e-05 1.473264728701906279e-05
3.082000000000000000e+03 2.898779869079589844e+01 2.707625865936279297e+00 5.448929414342273958e-07 4.192772030364722013e-05 1.274178430321626365e-05 1.331462408415973186e-05
3.083000000000000000e+03 2.961659622192382812e+01 -3.745029449462890625e+00 4.752615041070384905e-06 -8.487667400913778692e-06 -1.120515776165120769e-06 7.743940841464791447e-06
3.084000000000000000e+03 3.122134208679199219e+01 -3.354135513305664062e+00 6.044015776751621161e-07 -2.250840952910948545e-05 -6.571201993210706860e-06 -4.026290127967513399e-07
3.085000000000000000e+03 3.106049346923828125e+01 -9.849518775939941406e+00 -8.287015020869148429e-07 -9.845052773016504943e-06 -3.202126436008256860e-06 7.364966450040810741e-07
3.086000000000000000e+03 1.938022613525390625e+01 1.122806549072265625e+01 -2.308557304786518216e-05 3.148884206893853843e-05 2.520981070119887590e-06 -3.309011663077399135e-05
3.087000000000000000e+03 2.085224533081054688e+01 1.051258087158203125e+01 1.047453224600758404e-05 1.490722206654027104e-05 7.614526111865416169e-06 -1.232101294590393081e-05
3.088000000000000000e+03 2.161832237243652344e+01 7.823536396026611328e+00 -4.272098976798588410e-06 4.255958992871455848e-05 1.148624778579687700e-05 -1.526358573755715042e-05
3.089000000000000000e+03 2.452550125122070312e+01 4.443040847778320312e+00 5.174112629902083427e-06 -6.245757049327949062e-06 -3.214932462469732855e-07 -1.089010220312047750e-05
3.090000000000000000e+03 2.518464088439941406e+01 3.371168136596679688e+00 -5.319187039276584983e-06 -8.027532203414011747e-06 -4.004015863756649196e-06 -1.588498889759648591e-05
3.091000000000000000e+03 2.075719642639160156e+01 1.217689609527587891e+01 -8.530147169949486852e-06 2.580864747869782150e-05 5.183550001675030217e-06 2.010310254263458773e-06
3.092000000000000000e+03 2.228056335449218750e+01 1.270012187957763672e+01 -6.791660325689008459e-06 -3.679372821352444589e-05 -1.307561615249142051e-05 -2.473251515766605735e-05
3.093000000000000000e+03 2.381247329711914062e+01 1.519136905670166016e+01 -1.311327741859713569e-05 4.274501770851202309e-05 8.889522177923936397e-06 1.884327502921223640e-05
3.094000000000000000e+03 1.680585289001464844e+01 6.827237606048583984e+00 -4.137475571042159572e-06 1.016475835058372468e-05 1.808184947549307253e-06 -1.770166272763162851e-05
3.095000000000000000e+03 3.349741363525390625e+01 -8.678350448608398438e+00 -3.079676389461383224e-06 -9.850290553004015237e-06 -3.878989900840679184e-06 -1.115001069251775334e-07
3.096000000000000000e+03 3.151017189025878906e+01 -1.052368545532226562e+01 3.581438704713946208e-06 9.988428246288094670e-06 4.070960130775347352e-06 -5.488552119459200185e-07
3.097000000000000000e+03 2.596825790405273438e+01 2.171099185943603516e+00 -1.666314688009151723e-06 -1.034542947309091687e-05 -3.603523282436071895e-06 -1.077033994079101831e-05
3.098000000000000000e+03 2.048239326477050781e+01 1.452508735656738281e+01 -6.602309895242797211e-06 -6.345440488075837493e-05 -2.101701466017402709e-05 4.189513856545090675e-05
3.099000000000000000e+03 2.129628944396972656e+01 1.495359516143798828e+01 -1.584438905410934240e-05 5.854937626281753182e-05 1.281149616261245683e-05 -2.990715256601106375e-05
3.100000000000000000e+03 2.331883811950683594e+01 3.736775875091552734e+00 -1.326199594586796593e-06 8.109214832074940205e-06 2.034904582615126856e-06 -1.558714939164929092e-05
3.101000000000000000e+03 1.852427482604980469e+01 6.036021709442138672e+00 1.633747785945161013e-07 1.927036282722838223e-05 5.830121608596527949e-06 -2.621960993565153331e-05
3.102000000000000000e+03 2.143994522094726562e+01 6.120631694793701172e+00 -3.871790795528795570e-06 3.311705950181931257e-05 8.773580702836625278e-06 -1.515103849669685587e-05
3.103000000000000000e+03 3.327613067626953125e+01 -9.989858627319335938e+00 -1.303390490647871047e-06 -9.958890586858615279e-06 -3.378684141353005543e-06 1.057103418133920059e-06
3.104000000000000000e+03 2.076575851440429688e+01 5.062716960906982422e+00 1.292649085371522233e-05 -2.804042014759033918e-05 -4.534178515314124525e-06 2.147417399100959301e-05
3.105000000000000000e+03 2.161689376831054688e+01 4.571950435638427734e+00 -4.690812147600809112e-06 2.450647116347681731e-05 5.944697477389127016e-06 -1.970736775547266006e-05
3.106000000000000000e+03 3.480028533935546875e+01 -1.140834426879882812e+01 5.986078576825093478e-06 -2.219337375208851881e-06 1.130022383222240023e-06 3.303096491436008364e-06
3.107000000000000000e+03 3.453115081787109375e+01 -1.032403850555419922e+01 -3.773749767788103782e-06 -7.427306627505458891e-06 -3.360316895850701258e-06 2.441333606384432642e-07
3.108000000000000000e+03 1.917389297485351562e+01 5.583591938018798828e+00 1.238969070982420817e-05 -2.939336263807490468e-05 -5.101101578475208953e-06 2.549842065491247922e-05
3.109000000000000000e+03 3.398170852661132812e+01 -9.460062026977539062e+00 7.857121090637519956e-06 7.745205948594957590e-06 4.680698111769743264e-06 1.869247626018477604e-06
3.110000000000000000e+03 5.420927047729492188e+01 3.911467361450195312e+01 2.253384701907634735e-02 2.247654192615300417e-04 6.827583536505699158e-03 1.802025549113750458e-02
3.111000000000000000e+03 6.295812606811523438e+01 -4.147340393066406250e+01 2.667761780321598053e-02 1.426612287759780884e-01 5.080165341496467590e-02 -8.182109333574771881e-03
3.112000000000000000e+03 4.768679428100585938e+01 -3.917544937133789062e+01 -8.104939758777618408e-02 3.274899721145629883e-01 7.393217086791992188e-02 1.841522753238677979e-01
3.113000000000000000e+03 6.741610717773437500e+01 -3.959988403320312500e+01 3.034273907542228699e-02 1.225378178060054779e-02 1.277895644307136536e-02 1.630625501275062561e-02
3.114000000000000000e+03 5.888627243041992188e+01 -1.572361278533935547e+01 -1.367061486234888434e-07 -2.673058588698040694e-06 -8.429294098277750891e-07 7.371126571342756506e-07
3.115000000000000000e+03 5.784067153930664062e+01 -2.664735031127929688e+01 7.966393232345581055e-01 5.374535918235778809e-01 4.002278745174407959e-01 6.306045055389404297e-01
3.116000000000000000e+03 2.177470016479492188e+01 -1.344567012786865234e+01 2.738324656093027443e-05 -3.459290837781736627e-06 7.177186944318236783e-06 -4.489535513130249456e-06
3.117000000000000000e+03 4.087308120727539062e+01 -1.955795669555664062e+01 8.911045483728230465e-07 -6.402452527254354209e-06 -1.653404410717485007e-06 2.835170107573503628e-07
3.118000000000000000e+03 5.579426193237304688e+01 -2.560895919799804688e+01 2.224529266357421875e+00 -5.310930609703063965e-01 5.080308914184570312e-01 6.501184105873107910e-01
3.119000000000000000e+03 5.516913223266601562e+01 -2.555402565002441406e+01 2.668506860733032227e+00 -5.545880198478698730e-01 6.341755986213684082e-01 6.762986183166503906e-01
3.120000000000000000e+03 5.483473587036132812e+01 -2.528681564331054688e+01 2.986295461654663086e+00 -4.645761847496032715e-01 7.565157413482666016e-01 9.203207492828369141e-01
3.121000000000000000e+03 5.451235580444335938e+01 -2.510114860534667969e+01 3.319710016250610352e+00 -3.013105392456054688e-01 9.055198431015014648e-01 1.186460375785827637e+00
3.122000000000000000e+03 5.400624084472656250e+01 -2.512527656555175781e+01 3.731768131256103516e+00 9.522286057472229004e-02 1.148097276687622070e+00 1.457253098487854004e+00
3.123000000000000000e+03 5.435168075561523438e+01 -2.500276374816894531e+01 3.344828844070434570e+00 -1.560014039278030396e-01 9.566482305526733398e-01 1.359107017517089844e+00
3.124000000000000000e+03 5.422591781616210938e+01 -2.485696792602539062e+01 3.279278039932250977e+00 1.370132435113191605e-02 9.878937602043151855e-01 1.529107928276062012e+00
3.125000000000000000e+03 5.268626785278320312e+01 -2.824133110046386719e+01 3.424405157566070557e-01 2.732093334197998047e+00 9.223601818084716797e-01 -9.442403316497802734e-01
3.126000000000000000e+03 5.250704193115234375e+01 -2.814053916931152344e+01 3.284338116645812988e-01 3.025802850723266602e+00 1.006271004676818848e+00 -8.851883411407470703e-01
3.127000000000000000e+03 5.232559585571289062e+01 -2.803972434997558594e+01 3.221131563186645508e-01 3.557186126708984375e+00 1.163789749145507812e+00 -6.462364792823791504e-01
3.128000000000000000e+03 5.198229217529296875e+01 -2.825832557678222656e+01 2.759667634963989258e-01 3.702447891235351562e+00 1.193524360656738281e+00 -2.328163683414459229e-01
3.129000000000000000e+03 5.154252243041992188e+01 -2.772424888610839844e+01 5.705444812774658203e-01 4.434232234954833984e+00 1.501433014869689941e+00 6.100302338600158691e-01
3.130000000000000000e+03 6.528546214103698730e-01 -3.205280685424804688e+01 7.697192631894722581e-05 -5.607301864074543118e-05 6.269672212511068210e-06 -2.753879471129039302e-06
3.131000000000000000e+03 2.143763780593872070e+00 -2.921858406066894531e+01 -2.411792665952816606e-04 -2.004000180022558197e-06 -7.295497925952076912e-05 1.478273770771920681e-04
3.132000000000000000e+03 7.277267575263977051e-01 -2.913463211059570312e+01 1.857984316302463412e-04 -9.946462523657828569e-05 2.590014082670677453e-05 -7.782223110552877188e-05
3.133000000000000000e+03 5.751977157592773438e+01 -2.706576156616210938e+01 2.973216176033020020e-01 4.691709876060485840e-01 2.299477756023406982e-01 4.803613424301147461e-01
3.134000000000000000e+03 4.343165588378906250e+01 -2.413920211791992188e+01 1.205753069370985031e-02 -1.041655302047729492e+00 -3.088793456554412842e-01 -8.598554134368896484e-01
3.135000000000000000e+03 5.780937957763671875e+01 -1.596298313140869141e+01 1.346312728855991736e-06 1.906726652123325039e-06 9.759118029251112603e-07 -2.852225975402689073e-07
3.136000000000000000e+03 2.112910652160644531e+01 -3.421574783325195312e+01 4.570714663714170456e-03 -4.277303232811391354e-04 1.242895261384546757e-03 7.693186402320861816e-03
3.137000000000000000e+03 4.747402191162109375e+01 -4.984894752502441406e+00 -5.174632722315664068e-09 7.151614681788487360e-06 2.143932078979560174e-06 -1.728392135191825218e-06
3.138000000000000000e+03 4.739112472534179688e+01 3.075755500793457031e+01 -3.011615946888923645e-03 -6.835475796833634377e-04 -1.108549069613218307e-03 6.899612490087747574e-04
3.139000000000000000e+03 5.228594207763671875e+01 3.511840438842773438e+01 -1.333881728351116180e-02 1.893639564514160156e-04 -3.944836091250181198e-03 3.672467719297856092e-04
3.140000000000000000e+03 6.194114303588867188e+01 3.562899780273437500e+01 1.297236680984497070e-01 8.315264433622360229e-02 6.386289000511169434e-02 -1.742144674062728882e-01
3.141000000000000000e+03 6.176192855834960938e+01 -3.572937393188476562e+01 -1.088413316756486893e-02 3.485949244350194931e-03 -2.219455316662788391e-03 -3.566468507051467896e-02
3.142000000000000000e+03 4.001850128173828125e+01 -3.967478561401367188e+01 1.609610617160797119e-01 -3.381062150001525879e-01 -5.314354971051216125e-02 -2.316047623753547668e-02
3.143000000000000000e+03 5.501353836059570312e+01 -2.538440513610839844e+01 2.821562051773071289e+00 -5.251201391220092773e-01 6.889325976371765137e-01 7.987675070762634277e-01
3.144000000000000000e+03 5.532841873168945312e+01 -2.572237014770507812e+01 2.454527854919433594e+00 -5.341399312019348145e-01 5.761163830757141113e-01 5.396140813827514648e-01
3.145000000000000000e+03 5.552191925048828125e+01 -2.550135803222656250e+01 2.464315176010131836e+00 -5.497206449508666992e-01 5.743783712387084961e-01 6.958654522895812988e-01
3.146000000000000000e+03 5.345817565917968750e+01 -2.429312133789062500e+01 2.301419258117675781e+00 1.667268633842468262e+00 1.190606355667114258e+00 2.174073696136474609e+00
3.147000000000000000e+03 5.404933166503906250e+01 -2.995914649963378906e+01 1.868210136890411377e-01 1.215521693229675293e+00 4.207028150558471680e-01 -7.543416023254394531e-01
3.148000000000000000e+03 5.327880859375000000e+01 -2.993726348876953125e+01 9.522839635610580444e-02 1.653664469718933105e+00 5.246678590774536133e-01 -7.358467578887939453e-01
3.149000000000000000e+03 7.398049163818359375e+01 -2.473290252685546875e+01 -4.657235369086265564e-02 1.874243316706269979e-04 -1.391547825187444687e-02 -5.081805866211652756e-03
3.150000000000000000e+03 7.844707489013671875e+01 -1.506803321838378906e+01 -4.975224379450082779e-03 -4.247883558273315430e-01 -1.289290785789489746e-01 -1.358730196952819824e-01
3.151000000000000000e+03 7.709200286865234375e+01 -1.338594627380371094e+01 -8.925526402890682220e-03 -3.514113128185272217e-01 -1.081010475754737854e-01 -2.781585454940795898e-01
3.152000000000000000e+03 7.508915710449218750e+01 -1.145729064941406250e+01 -2.508425898849964142e-02 -7.412058860063552856e-02 -2.976145409047603607e-02 -3.329237401485443115e-01
3.153000000000000000e+03 5.113261032104492188e+01 -2.863756179809570312e+01 4.316951632499694824e-01 3.146582365036010742e+00 1.073483228683471680e+00 5.726939439773559570e-01
3.154000000000000000e+03 7.643327331542968750e+01 3.265959548950195312e+01 -1.942573580890893936e-03 -4.275927245616912842e-01 -1.288605928421020508e-01 3.234438598155975342e-01
3.155000000000000000e+03 1.024262428283691406e+01 -3.063309860229492188e+01 1.521867234259843826e-03 1.657446409808471799e-05 4.615325015038251877e-04 3.315827634651213884e-04
3.156000000000000000e+03 6.126956558227539062e+01 -2.063473701477050781e+01 -4.367245435714721680e-01 9.236722588539123535e-01 1.460843235254287720e-01 7.743291854858398438e-01
3.157000000000000000e+03 6.178308868408203125e+01 -3.694236373901367188e+01 6.887709349393844604e-02 7.758910953998565674e-02 4.393986240029335022e-02 -1.092206239700317383e-01
3.158000000000000000e+03 7.351196289062500000e+01 -3.089083480834960938e+01 -5.313433706760406494e-03 1.736204489134252071e-03 -1.073168823495507240e-03 -5.572955124080181122e-04
3.159000000000000000e+03 5.223134231567382812e+01 -2.868094444274902344e+01 1.029608100652694702e-01 2.967312335968017578e+00 9.210819602012634277e-01 -5.287287831306457520e-01
3.160000000000000000e+03 3.526421737670898438e+01 -3.569792938232421875e+01 -5.040669813752174377e-02 -1.104260161519050598e-01 -4.824981465935707092e-02 -1.197589263319969177e-01
3.161000000000000000e+03 5.126921463012695312e+01 -2.956734085083007812e+01 6.104100123047828674e-02 2.528753519058227539e+00 7.769383192062377930e-01 1.902872771024703979e-01
3.162000000000000000e+03 5.179845809936523438e+01 -2.984315872192382812e+01 -4.073197767138481140e-02 2.304676532745361328e+00 6.791833639144897461e-01 -2.279732674360275269e-01
3.163000000000000000e+03 5.316514968872070312e+01 -2.877372741699218750e+01 3.118745088577270508e-01 1.850026726722717285e+00 6.485703587532043457e-01 -9.371291995048522949e-01
3.164000000000000000e+03 5.315781021118164062e+01 -2.900700759887695312e+01 2.451852113008499146e-01 1.859439253807067871e+00 6.313873529434204102e-01 -9.070113301277160645e-01
3.165000000000000000e+03 5.335508728027343750e+01 -2.922750854492187500e+01 2.484472543001174927e-01 1.670459151268005371e+00 5.756719112396240234e-01 -8.583518862724304199e-01
3.166000000000000000e+03 8.640531539916992188e+00 3.545085668563842773e+00 5.938497452007140964e-06 -4.477339189179474488e-06 4.383473992675135378e-07 -1.085824169422267005e-05
3.167000000000000000e+03 4.250979900360107422e+00 3.270821332931518555e+00 -1.496670620326767676e-06 -2.352958063056576066e-06 -1.154888650489738211e-06 -7.567304692202014849e-06
3.168000000000000000e+03 7.071710968017578125e+01 3.089828681945800781e+01 1.754527390003204346e-01 1.428626060485839844e+00 4.812236428260803223e-01 -1.388600282371044159e-02
3.169000000000000000e+03 7.587198638916015625e+01 3.402878189086914062e+01 -5.934512242674827576e-02 -2.321797609329223633e-01 -8.745746314525604248e-02 2.942336201667785645e-01
3.170000000000000000e+03 7.640157318115234375e+01 -1.425935173034667969e+01 -2.414755336940288544e-02 -2.137915194034576416e-01 -7.138171792030334473e-02 -2.998036146163940430e-01
3.171000000000000000e+03 6.680184936523437500e+01 -1.411319351196289062e+01 5.051525309681892395e-02 7.916848063468933105e-01 2.526600360870361328e-01 2.602978944778442383e-01
3.172000000000000000e+03 5.550395965576171875e+01 -2.521197509765625000e+01 2.495244741439819336e+00 -5.443697571754455566e-01 5.852624773979187012e-01 8.675513267517089844e-01
3.173000000000000000e+03 9.100359916687011719e+00 -2.845176935195922852e+00 6.062570537324063480e-05 -1.412071469530928880e-05 1.395149683958152309e-05 -1.492605679231928661e-05
3.174000000000000000e+03 1.794933080673217773e+00 -1.096741867065429688e+01 1.566336140967905521e-04 3.826050306088291109e-05 5.846823478350415826e-05 -4.722008816315792501e-05
3.175000000000000000e+03 6.362540054321289062e+01 -3.657839584350585938e+01 -3.779330290853977203e-03 3.578760847449302673e-02 9.602483361959457397e-03 -1.908046007156372070e-02
3.176000000000000000e+03 6.069587707519531250e+00 -2.412828063964843750e+01 2.288859250256791711e-04 1.106513009290210903e-04 1.018611656036227942e-04 1.310139050474390388e-04
3.177000000000000000e+03 3.548344039916992188e+01 -1.559889316558837891e+01 -2.760473989837919362e-06 1.728100187392556109e-07 -7.762992026982828975e-07 -1.101564407690602820e-06
3.178000000000000000e+03 4.896590423583984375e+01 -2.534022903442382812e+01 2.369875431060791016e+00 8.585592731833457947e-03 7.135382890701293945e-01 -7.469639778137207031e-01
3.179000000000000000e+03 1.505701160430908203e+01 1.594784975051879883e+00 1.423200046701822430e-05 -5.158829026186140254e-06 2.721951204875949770e-06 -7.952986379677895457e-06
3.180000000000000000e+03 4.238764953613281250e+01 -1.913529586791992188e+01 2.230515065093641169e-06 2.167064849345479161e-06 1.319273906119633466e-06 -1.560536361466802191e-06
3.181000000000000000e+03 6.841225433349609375e+01 -1.152983951568603516e+01 1.196869760751724243e-01 9.737761020660400391e-01 3.280389308929443359e-01 1.762741506099700928e-01
3.182000000000000000e+03 2.352312803268432617e+00 1.323063945770263672e+01 -3.431403456488624215e-06 7.433034625137224793e-06 1.200489350594580173e-06 -2.069471292998059653e-06
3.183000000000000000e+03 1.614143013954162598e+00 6.261408805847167969e+00 -1.725137053654179908e-06 1.200673978019040078e-05 3.084480795223498717e-06 -1.856652602327812929e-06
3.184000000000000000e+03 3.455040931701660156e+00 -2.923880386352539062e+01 3.190938150510191917e-04 5.565157698583789170e-05 1.124236150644719601e-04 -2.029154711635783315e-04
3.185000000000000000e+03 5.279091262817382812e+01 -2.945810699462890625e+01 9.296163916587829590e-02 2.005571603775024414e+00 6.295599937438964844e-01 -7.136827111244201660e-01
3.186000000000000000e+03 6.769963836669921875e+01 -1.378218173980712891e+01 3.348088264465332031e-02 7.562971711158752441e-01 2.369334101676940918e-01 1.538926661014556885e-01
3.187000000000000000e+03 7.740207672119140625e+01 -1.422227001190185547e+01 -1.195183582603931427e-02 -3.771610558032989502e-01 -1.167338639497756958e-01 -2.404569834470748901e-01
3.188000000000000000e+03 3.391570091247558594e+00 4.079894542694091797e+00 4.815885858988622203e-06 -3.011179614986758679e-06 5.414118504631915130e-07 -7.047401140880538151e-06
3.189000000000000000e+03 5.254393386840820312e+01 -3.342020416259765625e+01 -1.275452375411987305e-01 1.194340705871582031e+00 3.200386464595794678e-01 -1.028717905282974243e-01
3.190000000000000000e+03 5.453728103637695312e+01 -2.272667503356933594e+01 -9.207957237958908081e-02 3.920418620109558105e-01 8.998868614435195923e-02 1.462497949600219727e+00
3.191000000000000000e+03 5.260640716552734375e+01 -2.880629158020019531e+01 1.755674332380294800e-01 2.535006761550903320e+00 8.131722211837768555e-01 -7.793123722076416016e-01
3.192000000000000000e+03 4.808571243286132812e+01 -9.739305496215820312e+00 -1.560725991112121847e-06 1.168119069916428998e-05 3.036139560208539478e-06 6.144287453935248777e-06
3.193000000000000000e+03 4.712061691284179688e+01 -1.028945636749267578e+01 4.396019448904553428e-06 -1.439866719010751694e-05 -3.000794322360889055e-06 -4.575479579216334969e-06
3.194000000000000000e+03 2.695222473144531250e+01 -1.102650547027587891e+01 3.886290869559161365e-06 3.282931857029325329e-06 2.150766704289708287e-06 1.502281406828842591e-06
3.195000000000000000e+03 2.786950874328613281e+01 -1.159562587738037109e+01 3.708908025146229193e-07 3.670372734632110223e-06 1.212379061144019943e-06 1.076949843081820291e-06
3.196000000000000000e+03 7.299942779541015625e+01 3.223587799072265625e+01 -1.783002167940139771e-02 6.774060130119323730e-01 1.978728026151657104e-01 2.893476784229278564e-01
3.197000000000000000e+03 4.585763454437255859e+00 -2.890402412414550781e+01 -2.597264538053423166e-04 1.146678187069483101e-04 -4.351759343990124762e-05 8.248403173638507724e-05
3.198000000000000000e+03 5.664905166625976562e+01 -2.467220687866210938e+01 1.889850974082946777e+00 -3.411891460418701172e-01 4.645985364913940430e-01 1.023865103721618652e+00
3.199000000000000000e+03 5.291750717163085938e+01 -3.123555374145507812e+01 1.611584611237049103e-02 1.541789174079895020e+00 4.673714935779571533e-01 -5.104525685310363770e-01
3.200000000000000000e+03 5.185052490234375000e+01 -2.925843238830566406e+01 4.633371531963348389e-02 2.703192234039306641e+00 8.248578310012817383e-01 -2.004816383123397827e-01
3.201000000000000000e+03 4.620483779907226562e+01 -3.477265167236328125e+01 2.989720739424228668e-02 7.331606745719909668e-02 3.096398338675498962e-02 4.780614674091339111e-01
3.202000000000000000e+03 7.209487915039062500e+01 3.491544342041015625e+01 -1.700269728899002075e-01 6.561206579208374023e-01 1.458280980587005615e-01 2.322540581226348877e-01
3.203000000000000000e+03 2.371961975097656250e+01 -4.479102134704589844e+00 4.645605713449185714e-06 -2.900957952078897506e-06 5.233943056737189181e-07 -1.004336536425398663e-05
3.204000000000000000e+03 2.451135253906250000e+01 -4.218693256378173828e+00 1.339925711363321170e-05 -6.119991212472086772e-06 2.183779770348337479e-06 6.356462108669802547e-06
3.205000000000000000e+03 3.790938854217529297e+00 -2.529291152954101562e+01 -4.272165242582559586e-04 -2.627150934131350368e-05 -1.360464084427803755e-04 2.346313267480581999e-04
3.206000000000000000e+03 2.029691123962402344e+01 -1.964954614639282227e+00 1.838593198044691235e-05 -1.730395160848274827e-05 3.245939410589926410e-07 -5.577502179221482947e-06
3.207000000000000000e+03 7.394518280029296875e+01 -1.107879924774169922e+01 -2.519664727151393890e-02 1.740200817584991455e-01 4.464703053236007690e-02 -3.151553869247436523e-01
3.208000000000000000e+03 1.557121562957763672e+01 2.144233226776123047e+00 8.838344911055173725e-06 7.895750059105921537e-06 5.020228400098858401e-06 -2.672361461009131745e-06
3.209000000000000000e+03 1.674586868286132812e+01 1.433746457099914551e+00 9.948026672645937651e-06 6.861490419396432117e-06 5.042855264036916196e-06 -9.501771273789927363e-06
3.210000000000000000e+03 4.739165878295898438e+01 -2.646179199218750000e+01 1.345513343811035156e+00 -5.780231356620788574e-01 2.302470803260803223e-01 -4.420480728149414062e-01
3.211000000000000000e+03 3.632081985473632812e+01 1.926023101806640625e+01 4.235655796946957707e-05 -4.523635143414139748e-04 -1.230020861839875579e-04 -9.458808926865458488e-05
3.212000000000000000e+03 7.418402862548828125e+01 1.834105300903320312e+01 8.211134001612663269e-03 7.472166419029235840e-01 2.266283184289932251e-01 -2.797152288258075714e-02
3.213000000000000000e+03 7.422901153564453125e+01 3.137675666809082031e+01 3.152384981513023376e-02 3.793794214725494385e-01 1.232709810137748718e-01 3.517892658710479736e-01
3.214000000000000000e+03 4.702682971954345703e+00 3.300303649902343750e+01 -2.528916957089677453e-05 2.536467582103796303e-05 2.265210774510251213e-08 -1.038079699355876073e-05
3.215000000000000000e+03 5.625191116333007812e+01 -2.494983482360839844e+01 2.056661128997802734e+00 -4.771141111850738525e-01 4.738641381263732910e-01 1.000884771347045898e+00
3.216000000000000000e+03 6.866374206542968750e+01 -1.323014450073242188e+01 3.984401375055313110e-02 7.553623914718627930e-01 2.385619282722473145e-01 7.537776231765747070e-02
3.217000000000000000e+03 7.359069824218750000e+01 -1.710927391052246094e+01 -1.189109906554222107e-01 8.804941177368164062e-02 -9.258471429347991943e-03 -2.610113918781280518e-01
3.218000000000000000e+03 6.630301666259765625e+01 -1.767285346984863281e+01 -2.352129220962524414e-01 5.100070238113403320e-01 8.243822306394577026e-02 2.672749757766723633e-01
3.219000000000000000e+03 2.684058380126953125e+01 -3.517933654785156250e+01 4.469821229577064514e-03 -3.467839909717440605e-03 3.005944017786532640e-04 4.345737863332033157e-03
3.220000000000000000e+03 4.240022659301757812e+01 2.766304588317871094e+01 -7.416329463012516499e-04 4.270817444194108248e-04 -9.436536493012681603e-05 -3.794947697315365076e-04
3.221000000000000000e+03 4.489171981811523438e+01 -1.696144104003906250e+01 5.942212624177045655e-07 -6.587100870092399418e-06 -1.797863887986750342e-06 9.878427817966439761e-07
3.222000000000000000e+03 7.508724975585937500e+01 -3.232313919067382812e+01 -4.707401618361473083e-03 7.494135061278939247e-04 -1.187396468594670296e-03 3.532118862494826317e-03
3.223000000000000000e+03 7.475255966186523438e+00 7.932866096496582031e+00 -7.389612164843128994e-06 -5.156426595931407064e-06 -3.763811491808155552e-06 -1.245965631824219599e-05
3.224000000000000000e+03 4.654008102416992188e+01 -9.539042472839355469e+00 -1.601764211045519914e-06 1.610143772268202156e-05 4.349902155809104443e-06 1.725866951574062114e-07
3.225000000000000000e+03 4.444193649291992188e+01 -1.600918197631835938e+01 -1.378188017042702995e-06 -6.723745627823518589e-06 -2.430580025247763842e-06 5.210268909650039859e-07
3.226000000000000000e+03 4.514667892456054688e+01 -1.633055496215820312e+01 2.012090476455341559e-07 6.712894446536665782e-06 2.074231133519788273e-06 1.411277850138503709e-07
3.227000000000000000e+03 5.434259414672851562e+00 -1.323233413696289062e+01 1.151474862126633525e-05 -1.609612663742154837e-04 -4.483395605348050594e-05 7.443808135576546192e-05
3.228000000000000000e+03 7.588281250000000000e+01 -3.204525756835937500e+01 -2.644550753757357597e-03 -4.081337247043848038e-04 -9.158053435385227203e-04 3.150205127894878387e-03
3.229000000000000000e+03 1.467250061035156250e+01 -8.131720542907714844e+00 -1.358478129986906424e-06 4.824883944820612669e-05 1.406710816809209064e-05 -5.582041194429621100e-05
3.230000000000000000e+03 3.785704040527343750e+01 -1.206361961364746094e+01 -6.226500204320473131e-07 5.015971964894561097e-06 1.317996634497831110e-06 -3.319346433272585273e-07
3.231000000000000000e+03 1.011350822448730469e+01 5.175455093383789062e+00 6.604466875614889432e-07 -9.240434337698388845e-06 -2.573996198407257907e-06 -7.903305231593549252e-06
3.232000000000000000e+03 1.471291828155517578e+01 -6.792517185211181641e+00 -5.386072734836488962e-05 -6.765110356354853138e-06 -1.818775126594118774e-05 -1.052484890351479407e-06
3.233000000000000000e+03 1.453369903564453125e+01 -7.459454059600830078e+00 5.358993439585901797e-05 -1.370677864542813040e-06 1.566577702760696411e-05 4.508370238909265026e-06
3.234000000000000000e+03 1.176534938812255859e+01 -8.100899696350097656e+00 7.809034286765381694e-05 5.217046418692916632e-05 3.907824066118337214e-05 -2.552451041992753744e-05
3.235000000000000000e+03 4.119545364379882812e+01 -9.121763229370117188e+00 2.686569814613903873e-06 2.164118768632761203e-06 1.455206643186102156e-06 -5.078479716758010909e-07
3.236000000000000000e+03 4.164925384521484375e+01 5.483849644660949707e-01 -1.173382952401880175e-05 -1.184660050057573244e-06 -3.875547008647117764e-06 1.195545246446272358e-05
3.237000000000000000e+03 4.487885665893554688e+01 -1.523237323760986328e+01 2.180746378144249320e-06 4.912685653835069388e-06 2.128029564119060524e-06 2.671743686732952483e-06
3.238000000000000000e+03 3.168091011047363281e+01 2.046611976623535156e+01 -5.612460881820879877e-06 -2.365820400882512331e-04 -7.265835301950573921e-05 3.024925717909354717e-05
3.239000000000000000e+03 1.512786674499511719e+01 -8.632153511047363281e+00 -7.438052125507965684e-05 -1.341295046586310491e-05 -2.633804069773759693e-05 5.635919660562649369e-05
3.240000000000000000e+03 6.714523315429687500e+00 2.276049232482910156e+01 -7.739402462902944535e-06 1.700268330750986934e-05 2.778984480755752884e-06 7.510451723646838218e-06
3.241000000000000000e+03 2.502414131164550781e+01 -5.813413858413696289e-01 8.740677003515884280e-06 2.440886419208254665e-05 9.944862540578469634e-06 7.772392223159840796e-07
3.242000000000000000e+03 1.269816303253173828e+01 -6.627061843872070312e+00 -3.507483052089810371e-05 -5.276130832498893142e-05 -2.635084092617034912e-05 -3.019982432306278497e-05
3.243000000000000000e+03 3.272296905517578125e+01 2.703672218322753906e+01 2.489564394636545330e-05 1.533304312033578753e-04 5.346782199922017753e-05 2.543518785387277603e-04
3.244000000000000000e+03 4.456495666503906250e+01 -1.214826202392578125e+01 5.646799763781018555e-06 -5.490037437994033098e-06 4.702870270989478740e-08 -2.947628445326699875e-06
3.245000000000000000e+03 2.112630462646484375e+01 2.006484746932983398e+00 1.476545821788022295e-05 -3.251768794143572450e-05 -5.325669008016120642e-06 1.555282665322010871e-06
3.246000000000000000e+03 4.363290786743164062e+01 -1.232956695556640625e+01 -1.426789140168693848e-06 4.548419383354485035e-06 9.364890729557373561e-07 5.843537564942380413e-07
3.247000000000000000e+03 1.774906158447265625e+01 6.460101127624511719e+00 1.184196935355430469e-05 -1.984442315006162971e-05 -2.400736548224813305e-06 1.121543118642875925e-05
3.248000000000000000e+03 4.229765319824218750e+01 -9.155750274658203125e+00 -6.050684078218182549e-06 3.010479474596650107e-07 -1.724890921650512610e-06 3.345297955092974007e-06
3.249000000000000000e+03 7.231153011322021484e+00 2.376433944702148438e+01 -3.778916834562551230e-06 2.026760375883895904e-05 4.946605713485041633e-06 -3.803922936640447006e-06
3.250000000000000000e+03 2.462921524047851562e+01 1.070652604103088379e+00 4.180129053565906361e-06 -1.508561808805097826e-06 8.014702075342938770e-07 -1.423314097337424755e-05
3.251000000000000000e+03 3.717695999145507812e+01 -9.970597267150878906e+00 2.712178684305399656e-06 -1.255158281310286839e-06 4.371061095298500732e-07 -5.582827725447714329e-06
3.252000000000000000e+03 3.390583419799804688e+01 -7.519380569458007812e+00 2.478107717251987197e-06 -8.806825462670531124e-06 -1.898615323625563178e-06 -4.366408120404230431e-06
3.253000000000000000e+03 1.053017711639404297e+01 2.207858848571777344e+01 -2.161694283131510019e-05 4.003439971711486578e-05 5.525237611436750740e-06 -2.568343916209414601e-06
3.254000000000000000e+03 1.154816818237304688e+01 2.350142288208007812e+01 -1.730247458908706903e-05 3.905443008989095688e-05 6.525586741190636531e-06 -4.851369794778292999e-06
3.255000000000000000e+03 2.288076400756835938e+01 2.656746149063110352e+00 1.917333975143264979e-05 -1.870761116151697934e-05 1.397185087625985034e-07 1.863839133875444531e-05
3.256000000000000000e+03 3.153344917297363281e+01 -6.310923099517822266e+00 2.816027517837937921e-07 -4.290994183975271881e-06 -1.202817429657443427e-06 -1.016461737890494987e-05
3.257000000000000000e+03 3.070069694519042969e+01 -5.360602855682373047e+00 1.007838181976694614e-05 2.638977093738503754e-06 3.815207492152694613e-06 -9.038102689373772591e-06
3.258000000000000000e+03 1.227093410491943359e+01 2.059132194519042969e+01 -8.917780291994858999e-07 -7.771916898491326720e-06 -2.599108483991585672e-06 -1.340703875030158088e-05
3.259000000000000000e+03 2.048070335388183594e+01 2.066493988037109375e+01 -1.876938040368258953e-05 4.591545075527392328e-05 8.143821105477400124e-06 2.204793054261244833e-05
3.260000000000000000e+03 2.996893310546875000e+01 2.572490882873535156e+01 -1.943886745721101761e-04 2.570516371633857489e-04 1.879888623079750687e-05 1.734641118673607707e-04
3.261000000000000000e+03 1.825526046752929688e+01 4.135103702545166016e+00 2.799655703711323440e-06 -4.571869339997647330e-06 -5.316641136232647114e-07 1.663306102273054421e-05
3.262000000000000000e+03 1.407028102874755859e+01 1.057901191711425781e+01 -3.178325869157561101e-06 -1.138106199505273253e-05 -4.367816472949925810e-06 -2.147621245285336045e-07
3.263000000000000000e+03 2.689283943176269531e+01 1.467301177978515625e+01 -1.082770631910534576e-05 7.971728336997330189e-06 -8.567933491576695815e-07 2.523378134355880320e-05
3.264000000000000000e+03 2.188420104980468750e+01 3.019159317016601562e+00 -2.029519464485929348e-06 2.042975029326044023e-05 5.520069407793926075e-06 -1.588567829458042979e-05
3.265000000000000000e+03 2.736524200439453125e+01 2.069456863403320312e+01 -3.826804822892881930e-05 -1.273960515391081572e-04 -4.969923247699625790e-05 5.009023516322486103e-05
3.266000000000000000e+03 3.085303497314453125e+01 2.650751113891601562e+01 1.147208313341252506e-04 -2.851713215932250023e-04 -5.113514998811297119e-05 4.646739762392826378e-05
3.267000000000000000e+03 3.149243736267089844e+01 -5.299896717071533203e+00 9.351378139399457723e-06 6.658924121438758448e-06 4.803090632776729763e-06 1.035487912304233760e-05
3.268000000000000000e+03 1.119777679443359375e+01 2.124162864685058594e+01 -4.702986188931390643e-06 -1.027408870868384838e-05 -4.493122560234041885e-06 8.747576430323533714e-06
3.269000000000000000e+03 3.281093215942382812e+01 -6.945584774017333984e+00 1.823925401822634740e-07 -7.866360647312831134e-06 -2.305190264451084659e-06 -6.694783223792910576e-06
3.270000000000000000e+03 3.465612792968750000e+01 -7.518322944641113281e+00 -3.884361831296700984e-06 -2.406246494501829147e-06 -1.887182406790088862e-06 1.442899247194873169e-05
3.271000000000000000e+03 3.187390518188476562e+01 -3.994140863418579102e+00 1.690205317572690547e-05 7.809017006366048008e-06 7.413320872728945687e-06 7.329360414587426931e-06
3.272000000000000000e+03 2.408832550048828125e+01 1.866508674621582031e+01 -4.567162250168621540e-05 -8.629769581602886319e-05 -3.959079549531452358e-05 5.575850445893593132e-05
3.273000000000000000e+03 2.187674140930175781e+01 1.881676864624023438e+01 -2.864236012101173401e-05 3.816203388851135969e-05 2.855901584553066641e-06 2.918647987826261669e-05
3.274000000000000000e+03 1.334640979766845703e+01 1.988879394531250000e+01 -1.800702739274129272e-05 5.556864834943553433e-06 -3.735048949238262139e-06 2.965442763525061309e-05
3.275000000000000000e+03 2.770360755920410156e+01 1.315028858184814453e+01 -2.864763700927142054e-05 2.282914238094235770e-06 -7.909417035989463329e-06 3.804834341281093657e-05
3.276000000000000000e+03 3.644357299804687500e+01 -6.685208797454833984e+00 8.259613423433620483e-06 9.705760930955875665e-06 5.389612397266319022e-06 -2.818199391185771674e-06
3.277000000000000000e+03 2.949148178100585938e+01 8.811653137207031250e+00 -1.487792587795411237e-06 4.161518154432997108e-05 1.203821648232406005e-05 7.308397471206262708e-05
3.278000000000000000e+03 2.854095649719238281e+01 9.906153678894042969e+00 -3.855814065900631249e-05 8.576809341320767999e-05 1.416298528056358919e-05 7.400313188554719090e-05
3.279000000000000000e+03 1.915459442138671875e+01 6.758752822875976562e+00 5.472650173032889143e-06 -3.406752875889651477e-05 -8.578464075981173664e-06 9.575970580044668168e-06
3.280000000000000000e+03 2.804664421081542969e+01 2.293945789337158203e+00 7.999457920959684998e-06 -2.861670145648531616e-05 -6.185172878758748993e-06 -2.047109319391893223e-06
3.281000000000000000e+03 1.977955055236816406e+01 8.895550727844238281e+00 -1.088735280063701794e-05 1.721278931654524058e-05 1.897630795610893983e-06 -2.193607542722020298e-05
3.282000000000000000e+03 2.152207946777343750e+01 1.754456138610839844e+01 -1.780199090717360377e-05 -7.628677849425002933e-05 -2.822663191182073206e-05 -2.415051858406513929e-05
3.283000000000000000e+03 3.242457962036132812e+01 -5.847231149673461914e-01 -1.209122274303808808e-05 -2.375302756263408810e-05 -1.075327509170165285e-05 5.072326985100517049e-06
3.284000000000000000e+03 1.133052635192871094e+01 8.671434402465820312e+00 1.735967430249729659e-06 5.148016271050437354e-07 6.752306944690644741e-07 -5.407604021456791088e-06
3.285000000000000000e+03 1.266281127929687500e+01 1.205912590026855469e+01 1.122574303735746071e-06 -3.576447852537967265e-05 -1.039257131196791306e-05 -1.732975943014025688e-05
3.286000000000000000e+03 3.714785385131835938e+01 -7.310493946075439453e+00 3.120937435596715659e-06 -2.149434476450551301e-05 -5.512022198672639206e-06 -2.045298543862372753e-07
3.287000000000000000e+03 3.116985893249511719e+01 -3.171803057193756104e-02 2.969909928651759401e-06 -3.657554407254792750e-05 -1.008169056149199605e-05 -5.414554379967739806e-06
3.288000000000000000e+03 2.865970039367675781e+01 1.067073154449462891e+01 3.712757461471483111e-05 -1.336717105004936457e-04 -2.896324258472304791e-05 -3.255515548516996205e-05
3.289000000000000000e+03 1.820299911499023438e+01 1.090011596679687500e+01 -1.560601231176406145e-05 -8.135061193570436444e-07 -4.925855591864092276e-06 -3.682315946207381785e-05
3.290000000000000000e+03 2.730799865722656250e+01 4.364364624023437500e+00 1.186605459224665537e-05 -9.570308975526131690e-06 6.887237873343110550e-07 2.605285044410265982e-05
3.291000000000000000e+03 2.119477081298828125e+01 9.579362869262695312e+00 -8.020292625587899238e-06 -4.268213160685263574e-05 -1.521072772447951138e-05 -2.896491241699550301e-05
3.292000000000000000e+03 2.729535675048828125e+01 1.148797798156738281e+01 -6.670088623650372028e-06 7.310326327569782734e-05 1.992995203181635588e-05 -7.034442387521266937e-05
3.293000000000000000e+03 2.638166618347167969e+01 7.633677482604980469e+00 1.827970118029043078e-05 -7.892194116720929742e-05 -1.819267345126718283e-05 2.279704858665354550e-06
3.294000000000000000e+03 2.609510231018066406e+01 8.823288917541503906e+00 1.930836515384726226e-05 -5.236621291260235012e-05 -9.917354873323347420e-06 6.372509687935234979e-06
3.295000000000000000e+03 2.433129501342773438e+01 7.726122856140136719e+00 1.119626358558889478e-05 -2.345132634218316525e-05 -3.676518645079340786e-06 -3.297327930340543389e-05
3.296000000000000000e+03 2.328561973571777344e+01 1.025806427001953125e+01 1.779365447873715311e-05 -6.565287185367196798e-05 -1.435776448488468304e-05 7.152859780035214499e-06
3.297000000000000000e+03 1.722873878479003906e+01 1.654642486572265625e+01 -2.407781357760541141e-05 -2.793098792608361691e-05 -1.560263990540988743e-05 -2.206194585596676916e-05
3.298000000000000000e+03 2.630706214904785156e+01 9.501935958862304688e+00 1.436524780729087070e-05 -7.492336590075865388e-05 -1.816743497329298407e-05 -1.840376353356987238e-05
3.299000000000000000e+03 5.633242034912109375e+01 -2.939179801940917969e+01 -2.375886030495166779e-02 -1.802122779190540314e-02 -1.253402605652809143e-02 2.176493406295776367e-02
3.300000000000000000e+03 5.497155761718750000e+01 -2.837981796264648438e+01 2.792988419532775879e-01 3.469563126564025879e-01 1.878765523433685303e-01 -3.815432190895080566e-01
3.301000000000000000e+03 5.491260528564453125e+01 -2.809698486328125000e+01 2.412292808294296265e-01 3.228032588958740234e-01 1.692097634077072144e-01 -3.172664642333984375e-01
3.302000000000000000e+03 5.607637786865234375e+01 -2.864945793151855469e+01 2.333303168416023254e-02 -1.344336569309234619e-02 2.966900123283267021e-03 -1.281674578785896301e-02
3.303000000000000000e+03 5.474479293823242188e+01 -2.843139076232910156e+01 3.182858228683471680e-01 3.688933551311492920e-01 2.061537653207778931e-01 -4.230921566486358643e-01
3.304000000000000000e+03 5.452146148681640625e+01 -2.877886962890625000e+01 3.853448629379272461e-01 6.572117805480957031e-01 3.127669990062713623e-01 -6.361649632453918457e-01
3.305000000000000000e+03 5.539534378051757812e+01 -2.847265625000000000e+01 1.129775419831275940e-01 2.572158575057983398e-01 1.110580191016197205e-01 -1.601809412240982056e-01
3.306000000000000000e+03 5.582593536376953125e+01 -2.935109710693359375e+01 1.808870956301689148e-02 4.946801960468292236e-01 1.538306772708892822e-01 -1.881267130374908447e-01
3.307000000000000000e+03 5.450897216796875000e+01 -2.900317955017089844e+01 3.014045059680938721e-01 7.664522528648376465e-01 3.203570246696472168e-01 -6.149132251739501953e-01
3.308000000000000000e+03 5.478305816650390625e+01 -2.822771453857421875e+01 3.392897248268127441e-01 3.048704564571380615e-01 1.932480633258819580e-01 -3.691857457160949707e-01
3.309000000000000000e+03 5.518975830078125000e+01 -2.797545623779296875e+01 6.606294214725494385e-02 8.003109693527221680e-02 4.382821172475814819e-02 -5.004542693495750427e-02
3.310000000000000000e+03 5.522675704956054688e+01 -2.910613250732421875e+01 1.737241446971893311e-01 4.901416599750518799e-01 1.991597414016723633e-01 -4.169771373271942139e-01
3.311000000000000000e+03 5.478469848632812500e+01 -2.891823005676269531e+01 2.895478010177612305e-01 6.463937163352966309e-01 2.807824611663818359e-01 -5.047159790992736816e-01
3.312000000000000000e+03 5.465746307373046875e+01 -2.862087631225585938e+01 2.736089527606964111e-01 5.667828917503356934e-01 2.521175742149353027e-01 -4.921470582485198975e-01
3.313000000000000000e+03 7.733950042724609375e+01 -2.693638038635253906e+01 9.659118950366973877e-03 6.428256165236234665e-04 3.090583253651857376e-03 1.625099452212452888e-03
3.314000000000000000e+03 7.808976745605468750e+01 -2.689747047424316406e+01 6.689519621431827545e-03 -8.177398703992366791e-04 1.761533902026712894e-03 2.163988305255770683e-03
3.315000000000000000e+03 7.946337890625000000e+01 -2.608721351623535156e+01 1.876826863735914230e-03 3.020597854629158974e-03 1.469227368943393230e-03 2.178951632231473923e-03
3.316000000000000000e+03 7.731392669677734375e+01 -2.619355583190917969e+01 3.691342135425657034e-04 -1.579175237566232681e-03 -3.630123101174831390e-04 2.247373340651392937e-03
3.317000000000000000e+03 7.658641815185546875e+01 -2.697609710693359375e+01 1.110294926911592484e-02 -1.023021643050014973e-03 3.023978322744369507e-03 1.203883322887122631e-03
3.318000000000000000e+03 7.882611083984375000e+01 -2.686320304870605469e+01 3.465402638539671898e-03 1.273779547773301601e-03 1.421754597686231136e-03 1.709918142296373844e-03
3.319000000000000000e+03 7.988860321044921875e+01 -2.624045753479003906e+01 8.416140917688608170e-04 3.956529311835765839e-03 1.439442974515259266e-03 -2.242787013528868556e-04
3.320000000000000000e+03 7.656615447998046875e+01 -2.623495864868164062e+01 1.532932510599493980e-04 -1.126233255490660667e-03 -2.918819955084472895e-04 2.800025395117700100e-04
3.321000000000000000e+03 7.805887603759765625e+01 -2.615296745300292969e+01 9.051528759300708771e-04 -1.007864120765589178e-04 2.413099282421171665e-04 3.213777206838130951e-03
3.322000000000000000e+03 7.878989410400390625e+01 -2.611702537536621094e+01 5.502511630766093731e-04 5.088275647722184658e-04 3.177236067131161690e-04 3.709500189870595932e-03
3.323000000000000000e+03 7.950491333007812500e+01 -2.683506774902343750e+01 -1.876315800473093987e-04 -7.933020824566483498e-04 -2.942800929304212332e-04 1.803522231057286263e-03
3.324000000000000000e+03 7.435298156738281250e+01 -2.623328590393066406e+01 -4.057659767568111420e-03 7.932640728540718555e-04 -9.793187491595745087e-04 5.538213299587368965e-04
3.325000000000000000e+03 7.434702301025390625e+01 -2.697327041625976562e+01 1.342609338462352753e-02 -7.956429180921986699e-05 4.003958776593208313e-03 -1.328162761637941003e-05
3.326000000000000000e+03 7.360214233398437500e+01 -2.696339035034179688e+01 1.413155347108840942e-02 7.448900723829865456e-04 4.462933167815208435e-03 7.635760121047496796e-04
3.327000000000000000e+03 7.509201812744140625e+01 -2.698283576965332031e+01 1.275703776627779007e-02 -2.755945315584540367e-04 3.744432935491204262e-03 3.892431559506803751e-04
3.328000000000000000e+03 7.582418823242187500e+01 -2.625184822082519531e+01 -1.180294901132583618e-03 -4.418352327775210142e-04 -4.866390372626483440e-04 4.880076448898762465e-04
3.329000000000000000e+03 7.583707427978515625e+01 -2.699207496643066406e+01 1.211131177842617035e-02 2.780473150778561831e-04 3.716807579621672630e-03 2.815907646436244249e-04
3.330000000000000000e+03 7.361753082275390625e+01 -2.622352600097656250e+01 -6.405835039913654327e-03 -1.371746999211609364e-03 -2.333274576812982559e-03 -1.602008123882114887e-03
3.331000000000000000e+03 7.508855438232421875e+01 -2.624273109436035156e+01 -2.442177850753068924e-03 -4.598659288603812456e-04 -8.706131484359502792e-04 -6.367894820868968964e-04
3.332000000000000000e+03 7.157109069824218750e+01 -2.632641410827636719e+01 3.218776546418666840e-04 5.096460692584514618e-03 1.625501550734043121e-03 -6.349986419081687927e-03
3.333000000000000000e+03 7.196121978759765625e+01 -2.690628433227539062e+01 5.271554924547672272e-03 4.668508190661668777e-03 2.982018981128931046e-03 -4.647537425626069307e-04
3.334000000000000000e+03 7.278822326660156250e+01 -2.694778633117675781e+01 1.005630753934383392e-02 -3.976230975240468979e-03 1.824022969231009483e-03 -4.096950870007276535e-03
3.335000000000000000e+03 7.288609313964843750e+01 -2.621121215820312500e+01 -1.270638313144445419e-04 -4.213284235447645187e-03 -1.302104443311691284e-03 7.993847248144447803e-04
3.336000000000000000e+03 7.221461486816406250e+01 -2.617616653442382812e+01 5.646128207445144653e-03 -2.971427515149116516e-03 8.024101844057440758e-04 -6.304848939180374146e-03
3.337000000000000000e+03 7.174316406250000000e+01 -2.767622184753417969e+01 4.023703513666987419e-04 1.354509382508695126e-03 5.270639085210859776e-04 -2.095697273034602404e-04
3.338000000000000000e+03 7.290261077880859375e+01 -2.808098602294921875e+01 -3.080877286265604198e-05 -2.966395986732095480e-04 -9.823450818657875061e-05 -8.489991887472569942e-05
3.339000000000000000e+03 7.162282562255859375e+01 -2.841186141967773438e+01 3.468602371867746115e-04 -2.757200563792139292e-04 2.134204987669363618e-05 1.930738944793120027e-04
3.340000000000000000e+03 7.285732269287109375e+01 -2.857239532470703125e+01 -8.533639629604294896e-05 -2.622622705530375242e-04 -1.042795993271283805e-04 -1.552925823489204049e-04
3.341000000000000000e+03 7.282831573486328125e+01 -2.759895896911621094e+01 2.591829979792237282e-05 -9.970646351575851440e-04 -2.913438947871327400e-04 6.552916020154953003e-04
3.342000000000000000e+03 7.119623565673828125e+01 -2.820100975036621094e+01 -3.365925294929184020e-05 -8.523152791894972324e-04 -2.657923614606261253e-04 8.641959866508841515e-04
3.343000000000000000e+03 7.222229003906250000e+01 -2.849229240417480469e+01 -1.344143180176615715e-03 4.101058293599635363e-04 -2.802112139761447906e-04 -1.419868785887956619e-04
3.344000000000000000e+03 7.236045074462890625e+01 -2.788129997253417969e+01 1.278418698348104954e-03 -1.072723243851214647e-04 3.513439150992780924e-04 -5.709688412025570869e-04
3.345000000000000000e+03 7.898888397216796875e+01 -2.760950279235839844e+01 2.675668511074036360e-04 4.747340062749572098e-05 9.451207733945921063e-05 -6.961211329326033592e-05
3.346000000000000000e+03 7.791374206542968750e+01 -2.760621070861816406e+01 4.062226798851042986e-04 -2.527828037273138762e-04 4.603195702657103539e-05 6.517775909742340446e-05
3.347000000000000000e+03 7.662735748291015625e+01 -2.860783195495605469e+01 -9.707076242193579674e-04 1.030983112286776304e-04 -2.602828026283532381e-04 7.195462239906191826e-05
3.348000000000000000e+03 7.936871337890625000e+01 -2.833490943908691406e+01 -7.476084865629673004e-04 2.777552872430533171e-04 -1.409559627063572407e-04 -1.619279209990054369e-04
3.349000000000000000e+03 7.877022552490234375e+01 -2.845338821411132812e+01 5.050276522524654865e-04 3.154484511469490826e-05 1.609717583050951362e-04 -2.199581649620085955e-04
3.350000000000000000e+03 7.735025787353515625e+01 -2.800172805786132812e+01 -5.219563026912510395e-04 2.954530355054885149e-04 -6.795098306611180305e-05 -5.845998020959086716e-05
3.351000000000000000e+03 7.730879211425781250e+01 -2.756325721740722656e+01 5.832404131069779396e-04 2.529463672544807196e-04 2.508560428395867348e-04 1.383241033181548119e-04
3.352000000000000000e+03 7.740731048583984375e+01 -2.851380729675292969e+01 3.961233887821435928e-04 -1.137973504228284582e-05 1.154230922111310065e-04 -1.548974250908941031e-04
3.353000000000000000e+03 7.659568023681640625e+01 -2.762480163574218750e+01 2.124294260283932090e-04 -6.740522076142951846e-05 4.350726158008910716e-05 -5.278644312056712806e-05
3.354000000000000000e+03 7.660980987548828125e+01 -2.810980606079101562e+01 5.727130919694900513e-04 -1.833568821894004941e-04 1.168068702099844813e-04 2.227785807917825878e-05
3.355000000000000000e+03 7.813754272460937500e+01 -2.849098777770996094e+01 -3.223938401788473129e-04 -3.413670347072184086e-04 -1.991282624658197165e-04 1.749405055306851864e-04
3.356000000000000000e+03 7.842007446289062500e+01 -2.793042945861816406e+01 -1.127359064412303269e-04 -6.130709516583010554e-05 -5.221289757173508406e-05 -2.102018042933195829e-04
3.357000000000000000e+03 7.964272308349609375e+01 -2.773777580261230469e+01 -5.136515028425492346e-05 -4.371609975351020694e-05 -2.852437501132953912e-05 3.417239713598974049e-05
3.358000000000000000e+03 4.454376983642578125e+01 -2.153533744812011719e+01 -1.309110760688781738e+00 -2.945433557033538818e-01 -4.810962080955505371e-01 -6.480867266654968262e-01
3.359000000000000000e+03 4.525796890258789062e+01 -2.133341026306152344e+01 -1.838238358497619629e+00 -2.967734634876251221e-01 -6.405035853385925293e-01 -8.218321204185485840e-01
3.360000000000000000e+03 4.405188369750976562e+01 -2.244241142272949219e+01 -6.037035584449768066e-01 -5.119455456733703613e-01 -3.346947431564331055e-01 -8.577182888984680176e-01
3.361000000000000000e+03 4.615114593505859375e+01 -2.184869003295898438e+01 -1.715742349624633789e+00 -4.857451617717742920e-01 -6.604462862014770508e-01 -1.302045941352844238e+00
3.362000000000000000e+03 4.545270156860351562e+01 -2.204736137390136719e+01 -1.261738538742065430e+00 -5.530214905738830566e-01 -5.444279909133911133e-01 -1.153978586196899414e+00
3.363000000000000000e+03 4.475288772583007812e+01 -2.224522018432617188e+01 -8.706263899803161621e-01 -5.389881134033203125e-01 -4.228843450546264648e-01 -1.038419127464294434e+00
3.364000000000000000e+03 4.597079086303710938e+01 -2.113067054748535156e+01 -2.364904165267944336e+00 -3.005554676055908203e-01 -7.996379137039184570e-01 -9.228626489639282227e-01
3.365000000000000000e+03 4.382838821411132812e+01 -2.173659515380859375e+01 -7.669906616210937500e-01 -1.965231150388717651e-01 -2.890541553497314453e-01 -5.138226151466369629e-01
3.366000000000000000e+03 4.742242813110351562e+01 -2.080677986145019531e+01 -3.792153835296630859e+00 -2.997139096260070801e-01 -1.227560400962829590e+00 -1.129886031150817871e+00
3.367000000000000000e+03 4.815383148193359375e+01 -2.066137695312500000e+01 -4.499808311462402344e+00 -2.871304452419281006e-01 -1.436081647872924805e+00 -1.245436549186706543e+00
3.368000000000000000e+03 4.686201095581054688e+01 -2.167665290832519531e+01 -2.163409471511840820e+00 -4.854027032852172852e-01 -7.946436405181884766e-01 -1.441659569740295410e+00
3.369000000000000000e+03 4.830693054199218750e+01 -2.138541984558105469e+01 -3.104671239852905273e+00 -3.950105905532836914e-01 -1.049904465675354004e+00 -1.549148797988891602e+00
3.370000000000000000e+03 4.888698577880859375e+01 -2.051945686340332031e+01 -5.112036228179931641e+00 -2.834555506706237793e-01 -1.618647456169128418e+00 -1.304071903228759766e+00
3.371000000000000000e+03 4.903206253051757812e+01 -2.124509811401367188e+01 -3.573690176010131836e+00 -2.742240726947784424e-01 -1.154374241828918457e+00 -1.517908573150634766e+00
3.372000000000000000e+03 4.758355331420898438e+01 -2.152922821044921875e+01 -2.604826450347900391e+00 -4.468613862991333008e-01 -9.155063033103942871e-01 -1.536548614501953125e+00
3.373000000000000000e+03 4.669285964965820312e+01 -2.095580101013183594e+01 -3.014506816864013672e+00 -2.503741085529327393e-01 -9.794642925262451172e-01 -1.019525647163391113e+00
3.374000000000000000e+03 5.036022949218750000e+01 -2.024225044250488281e+01 -5.983937740325927734e+00 -2.111876755952835083e-01 -1.858537554740905762e+00 -1.275293946266174316e+00
3.375000000000000000e+03 5.123764038085937500e+01 -2.082924842834472656e+01 -4.467365264892578125e+00 9.667897224426269531e-02 -1.311205983161926270e+00 -8.897297382354736328e-01
3.376000000000000000e+03 4.976291656494140625e+01 -2.110580253601074219e+01 -3.979309558868408203e+00 -1.581950634717941284e-01 -1.241251349449157715e+00 -1.387042284011840820e+00
3.377000000000000000e+03 5.197274780273437500e+01 -2.068717575073242188e+01 -4.485599994659423828e+00 1.616473942995071411e-01 -1.297185778617858887e+00 -5.956375598907470703e-01
3.378000000000000000e+03 5.050101470947265625e+01 -2.096874237060546875e+01 -4.272249698638916016e+00 -1.100335549563169479e-02 -1.284975886344909668e+00 -1.181892752647399902e+00
3.379000000000000000e+03 5.183234024047851562e+01 -1.996061325073242188e+01 -6.047088623046875000e+00 -1.456071734428405762e-01 -1.857808709144592285e+00 -1.079017519950866699e+00
3.380000000000000000e+03 4.962194442749023438e+01 -2.037934684753417969e+01 -5.621500015258789062e+00 -2.407473921775817871e-01 -1.758674144744873047e+00 -1.319136977195739746e+00
3.381000000000000000e+03 5.109704208374023438e+01 -2.010272216796875000e+01 -6.121238708496093750e+00 -1.771012842655181885e-01 -1.889501929283142090e+00 -1.192470312118530273e+00
3.382000000000000000e+03 5.405023574829101562e+01 -1.952743339538574219e+01 -4.807975292205810547e+00 -9.475309401750564575e-02 -1.470818400382995605e+00 -7.180678248405456543e-01
3.383000000000000000e+03 5.331044006347656250e+01 -1.967299842834472656e+01 -5.304297447204589844e+00 -1.093890741467475891e-01 -1.624105930328369141e+00 -8.256698250770568848e-01
3.384000000000000000e+03 5.271442794799804688e+01 -2.054370307922363281e+01 -4.346345901489257812e+00 1.713322103023529053e-01 -1.252504110336303711e+00 -3.398742377758026123e-01
3.385000000000000000e+03 5.495590972900390625e+01 -2.010264968872070312e+01 -3.275454998016357422e+00 7.739485241472721100e-03 -9.803146123886108398e-01 1.041849330067634583e-02
3.386000000000000000e+03 5.478977203369140625e+01 -1.938115119934082031e+01 -4.341050148010253906e+00 -1.677732765674591064e-01 -1.352647066116333008e+00 -6.787469387054443359e-01
3.387000000000000000e+03 5.420899581909179688e+01 -2.025038337707519531e+01 -3.720341920852661133e+00 7.612994313240051270e-02 -1.093263626098632812e+00 -5.188617110252380371e-02
3.388000000000000000e+03 5.257042312622070312e+01 -1.981785011291503906e+01 -5.752869129180908203e+00 -1.247508451342582703e-01 -1.763285994529724121e+00 -9.495363831520080566e-01
3.389000000000000000e+03 5.346182250976562500e+01 -2.039739990234375000e+01 -4.081035614013671875e+00 1.707229763269424438e-01 -1.173093795776367188e+00 -1.428068876266479492e-01
3.390000000000000000e+03 5.553008651733398438e+01 -1.920907402038574219e+01 -3.746871232986450195e+00 -1.622395217418670654e-01 -1.172733187675476074e+00 -6.799218058586120605e-01
3.391000000000000000e+03 5.725695419311523438e+01 -1.950564956665039062e+01 -2.164158344268798828e+00 -1.312172971665859222e-02 -6.531839966773986816e-01 -9.298378229141235352e-02
3.392000000000000000e+03 5.571527862548828125e+01 -1.992561912536621094e+01 -2.900054693222045898e+00 -1.839594542980194092e-02 -8.755351901054382324e-01 8.865764364600181580e-03
3.393000000000000000e+03 5.802567672729492188e+01 -1.928994750976562500e+01 -1.779655456542968750e+00 1.819592155516147614e-02 -5.284378528594970703e-01 -4.385111108422279358e-02
3.394000000000000000e+03 5.701029205322265625e+01 -1.880601882934570312e+01 -2.709429025650024414e+00 -1.141010820865631104e-01 -8.470590114593505859e-01 -5.878593921661376953e-01
3.395000000000000000e+03 5.627075195312500000e+01 -1.900946998596191406e+01 -3.128238201141357422e+00 -1.671541482210159302e-01 -9.886176586151123047e-01 -6.354494094848632812e-01
3.396000000000000000e+03 5.774827575683593750e+01 -1.859877204895019531e+01 -2.407294273376464844e+00 -2.234547436237335205e-01 -7.892247438430786133e-01 -5.581129193305969238e-01
3.397000000000000000e+03 5.648667907714843750e+01 -1.971755790710449219e+01 -2.569700717926025391e+00 4.177312180399894714e-02 -7.583782672882080078e-01 -4.724605381488800049e-02
3.398000000000000000e+03 5.914070129394531250e+01 -1.790256118774414062e+01 -1.081611990928649902e+00 -4.167212173342704773e-02 -3.369852304458618164e-01 -3.797510266304016113e-01
3.399000000000000000e+03 5.952583312988281250e+01 -1.853448677062988281e+01 -1.232386350631713867e+00 3.848527967929840088e-01 -2.542600631713867188e-01 5.387789011001586914e-02
3.400000000000000000e+03 6.026574707031250000e+01 -1.809379196166992188e+01 -8.397859930992126465e-01 5.417847037315368652e-01 -8.940038830041885376e-02 1.602779924869537354e-01
3.401000000000000000e+03 5.878223419189453125e+01 -1.896722793579101562e+01 -1.586333751678466797e+00 2.400316148996353149e-01 -4.038906395435333252e-01 7.729692757129669189e-02
3.402000000000000000e+03 6.099867248535156250e+01 -1.764663124084472656e+01 -6.169185638427734375e-01 7.305183410644531250e-01 3.407993912696838379e-02 2.181851565837860107e-01
3.403000000000000000e+03 6.048994827270507812e+01 -1.708762741088867188e+01 -2.715746164321899414e-01 3.707495033740997314e-01 2.975246682763099670e-02 9.694900363683700562e-02
3.404000000000000000e+03 5.845867919921875000e+01 -1.829862213134765625e+01 -1.775770306587219238e+00 -2.367744147777557373e-01 -6.037634015083312988e-01 -5.371863245964050293e-01
3.405000000000000000e+03 5.981904220581054688e+01 -1.749854469299316406e+01 -6.845676302909851074e-01 6.089916080236434937e-02 -1.871005445718765259e-01 -1.235125362873077393e-01
3.406000000000000000e+03 6.389270019531250000e+01 -1.315513706207275391e+01 3.458108901977539062e-01 8.920643329620361328e-01 3.713625669479370117e-01 6.205368638038635254e-01
3.407000000000000000e+03 6.362155151367187500e+01 -1.258993911743164062e+01 4.618796706199645996e-01 7.517365217208862305e-01 3.640848696231842041e-01 6.159713864326477051e-01
3.408000000000000000e+03 6.364220046997070312e+01 -1.379344177246093750e+01 1.869643479585647583e-01 8.241140842437744141e-01 3.033235371112823486e-01 5.033570528030395508e-01
3.409000000000000000e+03 6.329390716552734375e+01 -1.445079326629638672e+01 2.192357778549194336e-01 7.804446220397949219e-01 2.999041378498077393e-01 5.036969780921936035e-01
3.410000000000000000e+03 6.296297836303710938e+01 -1.507676315307617188e+01 1.198077872395515442e-01 7.684164643287658691e-01 2.664672732353210449e-01 4.188820421695709229e-01
3.411000000000000000e+03 6.250194549560546875e+01 -1.563844871520996094e+01 9.338708966970443726e-02 7.593545913696289062e-01 2.558225095272064209e-01 3.796189725399017334e-01
3.412000000000000000e+03 6.201707839965820312e+01 -1.631484985351562500e+01 -2.407075092196464539e-02 7.510282993316650391e-01 2.180872708559036255e-01 3.065203130245208740e-01
3.413000000000000000e+03 6.148456954956054688e+01 -1.575653648376464844e+01 1.848340481519699097e-01 7.713372111320495605e-01 2.868513762950897217e-01 3.989955782890319824e-01
3.414000000000000000e+03 6.157407379150390625e+01 -1.705956077575683594e+01 -2.883623242378234863e-01 7.527084350585937500e-01 1.393038332462310791e-01 2.175829559564590454e-01
3.415000000000000000e+03 6.322280120849609375e+01 -1.338076305389404297e+01 3.620708584785461426e-01 6.779129505157470703e-01 3.119951486587524414e-01 5.478368997573852539e-01
3.416000000000000000e+03 6.233250427246093750e+01 -1.494980430603027344e+01 2.112404406070709229e-01 7.659888267517089844e-01 2.931687831878662109e-01 4.298287332057952881e-01
3.417000000000000000e+03 6.185053634643554688e+01 -1.498038387298583984e+01 2.359486371278762817e-01 8.128526210784912109e-01 3.146403729915618896e-01 4.561390280723571777e-01
3.418000000000000000e+03 6.265357208251953125e+01 -1.377886962890625000e+01 2.795592844486236572e-01 7.297478914260864258e-01 3.027921319007873535e-01 4.708150923252105713e-01
3.419000000000000000e+03 6.103660202026367188e+01 -1.651272010803222656e+01 3.172242641448974609e-02 6.730512976646423340e-01 2.114321142435073853e-01 2.940574288368225098e-01
3.420000000000000000e+03 6.219382095336914062e+01 -1.432803440093994141e+01 2.809953391551971436e-01 8.243831396102905273e-01 3.316135406494140625e-01 4.820071756839752197e-01
3.421000000000000000e+03 6.283056640625000000e+01 -1.454834175109863281e+01 2.427804619073867798e-01 7.410094738006591797e-01 2.951369881629943848e-01 4.786547124385833740e-01
3.422000000000000000e+03 6.100513076782226562e+01 -1.542561531066894531e+01 5.256871418168884702e-07 -1.235959246059792349e-07 1.206273623211018275e-07 -6.633345606132934336e-07
3.423000000000000000e+03 5.980083084106445312e+01 -1.543185615539550781e+01 3.053086672366589482e-08 5.309732955538493115e-07 1.684512511701541371e-07 1.220594185724621639e-06
3.424000000000000000e+03 6.019709777832031250e+01 -1.577101421356201172e+01 -5.825633024869603105e-07 1.142106725637859199e-06 1.678630496826372109e-07 -3.796834278091409942e-07
3.425000000000000000e+03 6.056436157226562500e+01 -1.607985115051269531e+01 -8.735152619010477792e-07 -5.441409030026989058e-07 -4.252968324180983473e-07 4.336940264693112113e-07
3.426000000000000000e+03 6.142192840576171875e+01 -1.476541900634765625e+01 5.908116236241767183e-07 4.086826379534613807e-07 2.998482671046076575e-07 1.018820853460056242e-06
3.427000000000000000e+03 6.213092422485351562e+01 -1.359696483612060547e+01 7.889120183790510055e-07 1.422468187683989527e-07 2.793476596707478166e-07 -1.688939477162421099e-08
3.428000000000000000e+03 6.144266128540039062e+01 -1.412735176086425781e+01 -1.013870019050955307e-06 -3.566961197520868154e-07 -4.111698501674254658e-07 3.323903285945561947e-07
3.429000000000000000e+03 6.036208724975585938e+01 -1.491959762573242188e+01 5.310086521603807341e-07 1.864822024799650535e-06 7.187492201410350390e-07 -3.788723859088349855e-07
3.430000000000000000e+03 6.065115356445312500e+01 -1.523142147064208984e+01 6.347306111820216756e-07 -1.133457345758870360e-07 1.564154672450968064e-07 -3.426402201966993744e-07
3.431000000000000000e+03 6.182951354980468750e+01 -1.412581539154052734e+01 -1.110971993512066547e-06 2.969448473777447361e-07 -2.442081381559546571e-07 -3.634744984992721584e-07
3.432000000000000000e+03 6.099356460571289062e+01 -1.469548988342285156e+01 2.985842115776904393e-07 -2.158371216864907183e-06 -5.579361186391906813e-07 -4.935168931297084782e-07
3.433000000000000000e+03 5.861434173583984375e+01 -1.637038230895996094e+01 -4.363723746791947633e-07 -1.183806261906283908e-06 -4.860535796069598291e-07 3.460442314917600015e-07
3.434000000000000000e+03 5.907415390014648438e+01 -1.671718597412109375e+01 7.582794410154747311e-07 -1.244996923333019367e-07 1.901339174992244807e-07 1.445522315179914585e-07
3.435000000000000000e+03 5.928987884521484375e+01 -1.589454174041748047e+01 2.479176544056826970e-07 -3.866345537062443327e-07 -4.161506339528386889e-08 1.756536676111863926e-07
3.436000000000000000e+03 5.789558410644531250e+01 -1.685814666748046875e+01 3.888433752763376106e-07 3.006140786965261213e-06 1.018495254356821533e-06 -1.582593426974199247e-06
3.437000000000000000e+03 5.817584609985351562e+01 -1.755254173278808594e+01 -2.777032079848140711e-07 -1.607333274478150997e-06 -5.655109589497442357e-07 1.020585386868333444e-06
3.438000000000000000e+03 6.003462982177734375e+01 -1.659701728820800781e+01 7.724876809334091377e-07 1.439884158571658190e-06 6.637115461671783123e-07 -5.066613084636628628e-07
3.439000000000000000e+03 5.967214584350585938e+01 -1.625088500976562500e+01 -7.515057518503454048e-07 -8.086471439128217753e-07 -4.680458687289501540e-07 3.735383415914839134e-07
3.440000000000000000e+03 5.885440826416015625e+01 -1.725676536560058594e+01 3.325679927002056502e-07 3.187994479958433658e-06 1.056168684954172932e-06 -1.261416286979510915e-06
3.441000000000000000e+03 5.944448852539062500e+01 -1.698521423339843750e+01 -3.640027728124550777e-07 -2.766600573522737250e-06 -9.391810067427286413e-07 9.691058266980689950e-07
3.442000000000000000e+03 5.587814712524414062e+01 -1.781697273254394531e+01 -1.037333845488319639e-06 1.681108187767677009e-06 1.931322941572943819e-07 -7.570663029810020817e-08
3.443000000000000000e+03 5.585419845581054688e+01 -1.838780212402343750e+01 -1.376369482386508025e-06 -5.436506398837082088e-06 -2.043862650680239312e-06 3.146126346109667793e-06
3.444000000000000000e+03 5.528112792968750000e+01 -1.847929763793945312e+01 1.096180767490295693e-06 2.672376012924360111e-06 1.130567056861764286e-06 -1.436846559954574332e-06
3.445000000000000000e+03 5.635134124755859375e+01 -1.824832153320312500e+01 9.873047019937075675e-07 6.020054570399224758e-06 2.102207872667349875e-06 -2.958552386189694516e-06
3.446000000000000000e+03 5.686418914794921875e+01 -1.803310203552246094e+01 -7.568311843897390645e-07 -3.346340236021205783e-06 -1.230951397701574024e-06 1.371225152979604900e-06
3.447000000000000000e+03 5.634397506713867188e+01 -1.740873908996582031e+01 3.287800836915266700e-06 2.420027840344118886e-06 1.712348648652550764e-06 -2.430129597996710800e-06
3.448000000000000000e+03 5.748024749755859375e+01 -1.785220718383789062e+01 7.672981610085116699e-07 1.843392283262801357e-06 7.832070991753425915e-07 -1.090543719328707084e-06
3.449000000000000000e+03 5.711166381835937500e+01 -1.718612289428710938e+01 -8.207730957110470627e-07 -3.876184109685709700e-06 -1.409087190040736459e-06 2.917592610174324363e-06
3.450000000000000000e+03 5.518711853027343750e+01 -1.773766326904296875e+01 -1.768928768797195517e-06 -3.650059397841687314e-06 -1.625696427254297305e-06 1.491774696660286281e-06
3.451000000000000000e+03 5.241899490356445312e+01 -1.905364608764648438e+01 3.721794428201974370e-07 1.710415062916581519e-06 6.247783517210336868e-07 -7.553938985438435338e-07
3.452000000000000000e+03 5.315275955200195312e+01 -1.891308021545410156e+01 4.674038933671909035e-08 -2.029298684647073969e-06 -5.947674708295380697e-07 7.219547910608525854e-07
3.453000000000000000e+03 5.388480377197265625e+01 -1.876910972595214844e+01 2.001725079026073217e-07 2.009944410019670613e-06 6.630351094827346969e-07 -4.421167147938831476e-07
3.454000000000000000e+03 5.372604370117187500e+01 -1.804615974426269531e+01 -5.415469104264047928e-07 -3.225666205253219232e-06 -1.130163923335203435e-06 1.734813622533692978e-06
3.455000000000000000e+03 5.461503982543945312e+01 -1.862159919738769531e+01 -2.908494991515908623e-07 -1.754376739881990943e-06 -6.135678631835617125e-07 5.432373768599063624e-07
3.456000000000000000e+03 5.444890213012695312e+01 -1.790010070800781250e+01 7.935329335850838106e-07 4.209620328765595332e-06 1.500946041232964490e-06 -1.585239715495845303e-06
3.457000000000000000e+03 5.227499008178710938e+01 -1.832779121398925781e+01 -3.708250062572915340e-07 -8.265745918833999895e-07 -3.592198822843784001e-07 1.894969273052993231e-06
3.458000000000000000e+03 5.300137710571289062e+01 -1.818867683410644531e+01 2.932554821200028528e-07 1.999796722884639166e-06 6.879157012917858083e-07 -1.641940343688474968e-06
3.459000000000000000e+03 5.021003341674804688e+01 -1.947287559509277344e+01 -9.747208196131396107e-08 3.344966330587340053e-07 7.110736532922601327e-08 4.679609730828815373e-07
3.460000000000000000e+03 5.094702148437500000e+01 -1.933323669433593750e+01 4.936317168358073104e-07 3.147780205381423002e-07 2.425229297386977123e-07 -6.274922270677052438e-07
3.461000000000000000e+03 4.947301483154296875e+01 -1.961274909973144531e+01 3.542106128406885546e-07 -8.165214353539340664e-07 -1.386932382274608244e-07 -2.505874761027371278e-07
3.462000000000000000e+03 5.168397521972656250e+01 -1.919383239746093750e+01 -5.718611362226511119e-08 -1.053339360623795073e-06 -3.331576294840488117e-07 8.350928055733675137e-07
3.463000000000000000e+03 5.154356384277343750e+01 -1.846726989746093750e+01 8.561688105146458838e-07 4.864044811370149546e-08 2.714427864702884108e-07 -1.615508040231361520e-06
3.464000000000000000e+03 4.933204269409179688e+01 -1.888629341125488281e+01 -7.708354701208008919e-07 5.205712341194157489e-07 -7.507927080041554291e-08 8.821514825285703409e-07
3.465000000000000000e+03 5.080642700195312500e+01 -1.860671043395996094e+01 -6.159297072372282855e-07 2.161828120961217792e-07 -1.199240671212464804e-07 1.468984919483773410e-06
3.466000000000000000e+03 5.006925201416015625e+01 -1.874638557434082031e+01 9.127252837970445398e-07 -5.020910975872538984e-07 1.231902473364243633e-07 -1.331649855274008587e-06
3.467000000000000000e+03 4.725450897216796875e+01 -2.004898452758789062e+01 -1.444937680616931175e-07 5.458417717818520032e-07 1.204043940106203081e-07 -2.371202612039269297e-07
3.468000000000000000e+03 4.709337997436523438e+01 -1.932653617858886719e+01 3.762588676181621850e-07 3.439224087742331903e-07 2.160543886020604987e-07 -9.600402250953266048e-08
3.469000000000000000e+03 4.651494979858398438e+01 -2.019693183898925781e+01 -1.466789569803950144e-07 1.614042304254326154e-07 4.417584076321645625e-09 1.703566709920778521e-07
3.470000000000000000e+03 4.799435043334960938e+01 -1.990183448791503906e+01 9.430611669358768268e-08 -9.472300916968379170e-07 -2.558771825533767696e-07 4.658987862171670713e-08
3.471000000000000000e+03 4.873443222045898438e+01 -1.975547790527343750e+01 -1.101425368688069284e-07 9.907862477120943367e-07 2.641930905156186782e-07 2.759570705279656977e-08
3.472000000000000000e+03 4.858935928344726562e+01 -1.902983856201171875e+01 7.611063210788415745e-07 -4.383863938528520521e-07 9.681598100996779976e-08 -5.934693376730137970e-07
3.473000000000000000e+03 4.634579849243164062e+01 -1.947607994079589844e+01 -3.767315490676992340e-07 -8.144853040903399233e-07 -3.573650531052408041e-07 -4.275739797776623163e-07
3.474000000000000000e+03 4.784125137329101562e+01 -1.917778968811035156e+01 -4.695320683367754100e-07 -2.601769022447797397e-09 -1.416401431697522639e-07 1.397251025991863571e-07
3.475000000000000000e+03 4.432126998901367188e+01 -2.078344535827636719e+01 -2.258746576444536913e-07 -1.995276988964178599e-06 -6.663454996669315733e-07 5.940970595474936999e-07
3.476000000000000000e+03 4.505051040649414062e+01 -2.057725715637207031e+01 -1.990339342228253372e-07 1.598051426299207378e-06 4.197052305698889541e-07 -4.179521226888027741e-07
3.477000000000000000e+03 4.359247589111328125e+01 -2.099166297912597656e+01 1.351742469068994978e-07 2.563062707849894650e-06 8.094710892692091875e-07 -6.617126473429379985e-07
3.478000000000000000e+03 4.411215209960937500e+01 -2.007356262207031250e+01 -2.131996552634518594e-07 1.470409756620938424e-06 3.771630474602716276e-07 -6.710713478241814300e-07
3.479000000000000000e+03 4.578023910522460938e+01 -2.037289810180664062e+01 9.356566188500892167e-09 -1.014453005154791754e-06 -3.015289280483557377e-07 -8.499450920851359115e-09
3.480000000000000000e+03 4.559988403320312500e+01 -1.965488052368164062e+01 -7.274298923221067525e-07 1.219624664372531697e-06 1.476584259307855973e-07 7.200937091056403005e-08
3.481000000000000000e+03 4.336897659301757812e+01 -2.028584671020507812e+01 -5.127317876940651331e-07 -1.445163547941774596e-06 -5.873686177437775768e-07 4.955879262524831574e-07
3.482000000000000000e+03 4.485577392578125000e+01 -1.986330604553222656e+01 3.459653328263812000e-07 -1.353214202026720159e-06 -3.021746692866145167e-07 3.651568363238766324e-07
3.483000000000000000e+03 4.105918121337890625e+01 -2.103385925292968750e+01 -2.499041329429019243e-06 -1.393029833707259968e-06 -1.167621348940883763e-06 8.003627840480476152e-07
3.484000000000000000e+03 4.198300170898437500e+01 -2.076494598388671875e+01 -2.572867742856033146e-06 -1.151312517322367057e-06 -1.117254100790887605e-06 3.258878678025212139e-07
3.485000000000000000e+03 4.264957046508789062e+01 -2.053101348876953125e+01 -9.415960278147395002e-08 1.740624156809644774e-06 4.939393534186820034e-07 -5.109981771056482103e-07
3.486000000000000000e+03 4.200543975830078125e+01 -2.154659652709960938e+01 1.302338887398946099e-06 4.361091214377665892e-06 1.699029098745086230e-06 1.024443577080091927e-06
3.487000000000000000e+03 4.281084060668945312e+01 -2.126075172424316406e+01 -1.475025328545598313e-07 -2.617585778352804482e-06 -8.295264706248417497e-07 5.975430781290924642e-07
3.488000000000000000e+03 4.143973159790039062e+01 -2.146877861022949219e+01 -2.405597115284763277e-06 -1.935052750923205167e-06 -1.302194959862390533e-06 -1.722281126603775192e-06
3.489000000000000000e+03 4.140149307250976562e+01 -2.091440773010253906e+01 1.698065602795395534e-06 -1.557432938170677517e-07 4.626967040621821070e-07 -3.308796294732019305e-06
3.490000000000000000e+03 4.100804138183593750e+01 -2.131018257141113281e+01 -2.506212240405147895e-06 -5.599410542345140129e-06 -2.431686880299821496e-06 2.898272555285075214e-07
3.491000000000000000e+03 4.183971786499023438e+01 -2.302727508544921875e+01 -1.647854596376419067e-02 -1.546216160058975220e-01 -5.133004859089851379e-02 3.203850612044334412e-02
3.492000000000000000e+03 4.219042205810546875e+01 -2.229762840270996094e+01 -2.079897373914718628e-02 -8.083715289831161499e-02 -3.049083799123764038e-02 -1.241075620055198669e-01
3.493000000000000000e+03 4.326124572753906250e+01 -2.270085716247558594e+01 -2.651712596416473389e-01 -5.162932276725769043e-01 -2.344393581151962280e-01 -6.829158067703247070e-01
3.494000000000000000e+03 4.302730941772460938e+01 -2.199828910827636719e+01 -3.332242965698242188e-01 -2.341993898153305054e-01 -1.702271103858947754e-01 -2.829600572586059570e-01
3.495000000000000000e+03 4.243085479736328125e+01 -2.299776458740234375e+01 -6.398233026266098022e-02 -5.968749523162841797e-01 -1.982571929693222046e-01 -3.032004535198211670e-01
3.496000000000000000e+03 1.605741500854492188e+01 -3.611289262771606445e+00 -1.437588707631221041e-05 -1.313724987994646654e-05 -8.253940904978662729e-06 -1.144410816777963191e-05
3.497000000000000000e+03 1.562254238128662109e+01 -4.210125446319580078e+00 2.376845623075496405e-05 9.556817531120032072e-06 9.997582310461439192e-06 1.134358444687677547e-05
3.498000000000000000e+03 1.505074691772460938e+01 -3.785051584243774414e+00 -2.248542841698508710e-05 -1.004060231935000047e-05 -9.757809493748936802e-06 -8.833824722387362272e-06
3.499000000000000000e+03 1.676181221008300781e+01 -5.065579891204833984e+00 2.496667730156332254e-05 1.270954817300662398e-05 1.130286818806780502e-05 1.412468736816663295e-05
3.500000000000000000e+03 1.619318008422851562e+01 -4.636556148529052734e+00 -2.484509604983031750e-05 -1.056172095559304580e-05 -1.062204501067753881e-05 -1.280605556530645117e-05
3.501000000000000000e+03 1.723610115051269531e+01 -4.496263980865478516e+00 -1.909588536364026368e-05 -1.881288881122600287e-05 -1.137263188866199926e-05 -1.661935311858542264e-05
3.502000000000000000e+03 1.546591091156005859e+01 -3.171455383300781250e+00 1.114258793677436188e-05 1.089851048163836822e-05 6.612329343624878675e-06 8.617384082754142582e-06
3.503000000000000000e+03 1.664776039123535156e+01 -4.052479743957519531e+00 1.651870843488723040e-05 1.597974551259540021e-05 9.749536729941610247e-06 1.467222682549618185e-05
3.504000000000000000e+03 1.831977081298828125e+01 -5.492505550384521484e+00 -2.158680217689834535e-05 -2.052585477940738201e-05 -1.263379726879065856e-05 -1.842301753640640527e-05
3.505000000000000000e+03 1.780974006652832031e+01 -6.028855800628662109e+00 2.311735079274512827e-05 1.646281816647388041e-05 1.187405086966464296e-05 1.423332923877751455e-05
3.506000000000000000e+03 1.730055999755859375e+01 -5.529824733734130859e+00 -2.434652742522303015e-05 -1.538012293167412281e-05 -1.191799492517020553e-05 -1.367482764180749655e-05
3.507000000000000000e+03 1.831691551208496094e+01 -6.530111789703369141e+00 -2.316443533345591277e-05 -1.771487222868017852e-05 -1.226379208674188703e-05 -1.386046824336517602e-05
3.508000000000000000e+03 1.882190132141113281e+01 -7.033396244049072266e+00 2.475050132488831878e-05 1.845118822529911995e-05 1.296050686505623162e-05 1.371713551634456962e-05
3.509000000000000000e+03 1.936644935607910156e+01 -6.531159877777099609e+00 -2.168216451536864042e-05 -1.873934343166183680e-05 -1.212645292980596423e-05 -1.700863867881707847e-05
3.510000000000000000e+03 1.779333305358886719e+01 -4.976417064666748047e+00 2.015914833464194089e-05 2.002460496441926807e-05 1.205512580781942233e-05 1.813389644667040557e-05
3.511000000000000000e+03 1.884420585632324219e+01 -6.010818481445312500e+00 2.118727206834591925e-05 1.965456249308772385e-05 1.225254982273327187e-05 1.863057332229800522e-05
3.512000000000000000e+03 2.031454658508300781e+01 -7.659852027893066406e+00 -2.047716770903207362e-05 -1.476262968935770914e-05 -1.057193912856746465e-05 -1.440257346985163167e-05
3.513000000000000000e+03 2.077073287963867188e+01 -8.240385055541992188e+00 1.980806518986355513e-05 1.242299822479253635e-05 9.669319297245237976e-06 1.328437065239995718e-05
3.514000000000000000e+03 1.929654693603515625e+01 -7.565644741058349609e+00 -2.360892904107458889e-05 -1.871225686045363545e-05 -1.269635595235740766e-05 -1.381627862429013476e-05
3.515000000000000000e+03 2.062350273132324219e+01 -9.254287719726562500e+00 2.775540997390635312e-05 1.473522297601448372e-05 1.274719033972360194e-05 1.329636688751634210e-05
3.516000000000000000e+03 2.018299865722656250e+01 -8.690117835998535156e+00 -2.659386700543109328e-05 -1.596293259353842586e-05 -1.276703915209509432e-05 -1.227523807756369933e-05
3.517000000000000000e+03 1.974063491821289062e+01 -8.127175331115722656e+00 2.465504803694784641e-05 1.779509511834476143e-05 1.273504312848672271e-05 1.255278675671434030e-05
3.518000000000000000e+03 2.122505760192871094e+01 -8.822144508361816406e+00 -1.897800575534347445e-05 -1.108205651689786464e-05 -9.018019227369222790e-06 -1.186222925753099844e-05
3.519000000000000000e+03 1.985663604736328125e+01 -7.080731868743896484e+00 2.081776619888842106e-05 1.625708318897522986e-05 1.112245445256121457e-05 1.622061972739174962e-05
3.520000000000000000e+03 2.203341293334960938e+01 -1.005728912353515625e+01 -1.759877886797767133e-05 -8.175902621587738395e-06 -7.732403901172801852e-06 -8.696537406649440527e-06
3.521000000000000000e+03 2.140859222412109375e+01 -1.045394611358642578e+01 2.372248854953795671e-05 1.580562275194097310e-05 1.185843393614050001e-05 9.248746209777891636e-06
3.522000000000000000e+03 2.103163337707519531e+01 -9.842617988586425781e+00 -2.509026489860843867e-05 -1.598024755367077887e-05 -1.232115391758270562e-05 -1.340046401310246438e-05
3.523000000000000000e+03 2.178438568115234375e+01 -1.106581783294677734e+01 -2.594712714198976755e-05 -9.787048838916234672e-06 -1.072025224857497960e-05 -7.705668394919484854e-06
3.524000000000000000e+03 2.215780448913574219e+01 -1.167914867401123047e+01 1.822009835450444371e-05 1.058898033079458401e-05 8.642723514640238136e-06 8.060788786679040641e-06
3.525000000000000000e+03 2.280443191528320312e+01 -1.131808185577392578e+01 -1.913689447974320501e-05 -6.867360298201674595e-06 -7.801276296959258616e-06 -5.818849786010105163e-06
3.526000000000000000e+03 2.164555168151855469e+01 -9.428166389465332031e+00 1.768885886122006923e-05 9.606617823010310531e-06 8.188642823370173573e-06 1.045265344146173447e-05
3.527000000000000000e+03 2.242011070251464844e+01 -1.068695640563964844e+01 1.630496262805536389e-05 6.297197614912874997e-06 6.780648163839941844e-06 8.530116247129626572e-06
3.528000000000000000e+03 2.317674064636230469e+01 -1.199929141998291016e+01 1.761939711286686361e-05 2.591536940599326044e-06 6.063280125090386719e-06 7.151961199269862846e-06
3.529000000000000000e+03 2.284523010253906250e+01 -1.300796508789062500e+01 1.610153594810981303e-05 -7.000307391535898205e-07 4.620451363734900951e-06 1.697280481494090054e-06
3.530000000000000000e+03 2.406083297729492188e+01 -1.497063064575195312e+01 -3.810094995060353540e-06 1.966408945008879527e-06 -5.531057922780746594e-07 1.941736172739183530e-06
3.531000000000000000e+03 2.462505912780761719e+01 -1.485978507995605469e+01 1.412908841302851215e-05 -1.024934590532211587e-06 3.931246283173095435e-06 -2.798056129904580303e-06
3.532000000000000000e+03 2.389264106750488281e+01 -1.346117115020751953e+01 6.634068995481356978e-06 6.213774668140104041e-06 3.854353053611703217e-06 3.051690782740479335e-06
3.533000000000000000e+03 2.353559875488281250e+01 -1.273112678527832031e+01 -1.192510444525396451e-05 -4.680462097894633189e-06 -4.981669917469844222e-06 -7.775397534715011716e-06
3.534000000000000000e+03 2.488323020935058594e+01 -1.545215702056884766e+01 -6.508545084216166288e-06 -6.990742917878378648e-07 -2.162285682061337866e-06 6.671422170256846584e-08
3.535000000000000000e+03 2.424729537963867188e+01 -1.417472362518310547e+01 -1.055734264809871092e-05 -4.587579041981371120e-06 -4.543476279650349170e-06 3.769181148527422920e-06
3.536000000000000000e+03 2.350594520568847656e+01 -1.435108280181884766e+01 1.319322200288297608e-05 1.898642585729248822e-05 9.653894267103169113e-06 -2.049711383733665571e-06
3.537000000000000000e+03 2.317678260803222656e+01 -1.368776988983154297e+01 -1.772385985532309860e-05 -8.274656465800944716e-06 -7.799554623488802463e-06 -8.623514077044092119e-06
3.538000000000000000e+03 2.251189041137695312e+01 -1.232635593414306641e+01 -9.550737559038680047e-06 -9.635680726205464453e-06 -5.755925485573243350e-06 -7.344856953750422690e-07
3.539000000000000000e+03 2.456154632568359375e+01 -1.316923522949218750e+01 -7.584328614029800519e-06 -3.346520315972156823e-06 -3.279254769950057380e-06 -5.031572072766721249e-06
3.540000000000000000e+03 2.482023620605468750e+01 -1.197365283966064453e+01 -4.880538654106203467e-06 -4.689805336965946481e-06 -2.871103106372174807e-06 -5.966087428532773629e-06
3.541000000000000000e+03 2.650333786010742188e+01 -1.565426826477050781e+01 1.551749733152973931e-06 -3.340553803354850970e-06 -5.366412096918793395e-07 -1.283609549318498466e-06
3.542000000000000000e+03 2.385268974304199219e+01 -1.163848972320556641e+01 -7.083239324856549501e-06 -2.713805542953195982e-06 -2.939113528555026278e-06 -6.430593202821910381e-06
3.543000000000000000e+03 2.484836769104003906e+01 -1.395820903778076172e+01 8.946138223109301180e-06 1.876442524917365517e-06 3.246774213039316237e-06 5.126022188051138073e-06
3.544000000000000000e+03 2.532261657714843750e+01 -1.399315357208251953e+01 6.556487733178073540e-06 5.580805009230971336e-06 3.641187959146918729e-06 -3.277930545664275996e-06
3.545000000000000000e+03 2.568108749389648438e+01 -1.559443092346191406e+01 5.285139195621013641e-06 2.388427674304693937e-06 2.302070015502977185e-06 2.612532171042403206e-06
3.546000000000000000e+03 2.449533462524414062e+01 -1.126426315307617188e+01 6.448688509408384562e-06 5.197910013521322981e-06 3.493979647828382440e-06 4.224708845868008211e-06
3.547000000000000000e+03 2.516623687744140625e+01 -1.270689773559570312e+01 5.793332093162462115e-06 7.256440312630729750e-06 3.914931767212692648e-06 3.806750100920908153e-06
3.548000000000000000e+03 2.556309509277343750e+01 -1.336782169342041016e+01 -7.035970611468655989e-06 -6.305107035586843267e-06 -4.002323294116649777e-06 -3.011931767105124891e-06
3.549000000000000000e+03 2.595065307617187500e+01 -1.390986061096191406e+01 1.111628898797789589e-05 2.098857748933369294e-06 3.964544248447054997e-06 1.415829046891303733e-06
3.550000000000000000e+03 2.620536613464355469e+01 -1.446394062042236328e+01 -7.607784482388524339e-06 3.775433015107410029e-06 -1.149705440184334293e-06 1.414582726511071087e-07
3.551000000000000000e+03 2.637091255187988281e+01 -1.507584285736083984e+01 3.916013611160451546e-06 -2.539874230933492072e-06 4.128418709115067031e-07 7.794984924203163246e-08
3.552000000000000000e+03 2.638264656066894531e+01 -1.612632179260253906e+01 -4.521590199146885425e-06 -2.248599685117369518e-06 -2.031056965279276483e-06 -1.174742237708414905e-06
3.553000000000000000e+03 2.419656753540039062e+01 -1.239193534851074219e+01 8.746320418140385300e-06 4.154541329626226798e-06 3.870258751703659073e-06 4.769171027874108404e-06
3.554000000000000000e+03 2.512793922424316406e+01 -1.461182594299316406e+01 -6.938370006537297741e-06 -6.895405476825544611e-06 -4.150132554059382528e-06 -2.539238266763277352e-06
3.555000000000000000e+03 2.566095924377441406e+01 -1.495156669616699219e+01 -1.315249051003775094e-06 5.954220796411391348e-06 1.391691512253601104e-06 6.351473871291091200e-07
3.556000000000000000e+03 2.577541732788085938e+01 -1.432993030548095703e+01 -2.179860530304722488e-06 -2.810572368616703898e-06 -1.497129915151163004e-06 4.433121887359448010e-07
3.557000000000000000e+03 2.269077491760253906e+01 -9.641036033630371094e+00 7.194488716777414083e-06 5.987583790556527674e-06 3.954621661250712350e-06 1.910951368699898012e-06
3.558000000000000000e+03 2.348543930053710938e+01 -1.093805503845214844e+01 8.011529644136317074e-06 5.850342404301045462e-06 4.158561296208063141e-06 3.801367938649491407e-06
3.559000000000000000e+03 2.229273414611816406e+01 -8.991255760192871094e+00 -2.637487796164350584e-06 -9.664833555689256173e-08 -8.202408707802533172e-07 -6.633413704548729584e-06
3.560000000000000000e+03 2.308835411071777344e+01 -1.029005146026611328e+01 -4.826751592190703377e-06 -1.621852902644604910e-06 -1.934581405294011347e-06 -5.896707079955376685e-06
3.561000000000000000e+03 2.413209533691406250e+01 -1.057697391510009766e+01 -3.625259523687418550e-06 -5.031238742958521470e-06 -2.596949343569576740e-06 -6.580215540452627465e-06
3.562000000000000000e+03 2.290665245056152344e+01 -8.576805114746093750e+00 7.765483132970985025e-06 7.220355200843187049e-06 4.495751454669516534e-06 1.777097963895357680e-06
3.563000000000000000e+03 2.331559562683105469e+01 -9.244379997253417969e+00 -2.167130332964006811e-06 -4.288454874767921865e-06 -1.936675516844843514e-06 -6.717250016663456336e-06
3.564000000000000000e+03 2.372407913208007812e+01 -9.911190032958984375e+00 7.098086371115641668e-06 7.631630069226957858e-06 4.418915068526985124e-06 3.263290182076161727e-06
3.565000000000000000e+03 2.091797065734863281e+01 -7.169854164123535156e+00 6.439805929403519258e-06 8.875173989508766681e-06 4.594493930198950693e-06 -1.988031272048829123e-06
3.566000000000000000e+03 2.044657707214355469e+01 -6.570147991180419922e+00 5.537938250199658796e-06 2.599577783257700503e-06 2.441254991936148144e-06 -7.632563210790976882e-06
3.567000000000000000e+03 2.138868331909179688e+01 -7.768980979919433594e+00 5.143742214386293199e-07 5.699495204680715688e-07 3.252971225720102666e-07 -7.424124305543955415e-06
3.568000000000000000e+03 2.185866355895996094e+01 -8.367236137390136719e+00 7.389149686787277460e-06 7.517927315348060802e-06 4.472123237064806744e-06 3.572452840217010817e-07
3.569000000000000000e+03 2.246022033691406250e+01 -7.935092449188232422e+00 3.432279527260106988e-08 -3.181065949320327491e-06 -9.440229860047111288e-07 -7.625569196534343064e-06
3.570000000000000000e+03 2.100666618347167969e+01 -6.085235118865966797e+00 6.574165126949083060e-06 1.220631565956864506e-05 5.634144145005848259e-06 -2.041934067165129818e-06
3.571000000000000000e+03 2.149188232421875000e+01 -6.702531337738037109e+00 5.792388037662021816e-06 -4.671043370763072744e-06 3.364034171227103798e-07 -9.145192962023429573e-06
3.572000000000000000e+03 2.197641754150390625e+01 -7.319247722625732422e+00 7.301106506929500028e-06 9.280210178985726088e-06 4.974394869350362569e-06 1.258292172678920906e-06
3.573000000000000000e+03 1.885587120056152344e+01 -4.930348396301269531e+00 7.998902219696901739e-06 8.621020242571830750e-06 4.985976829630089924e-06 -8.911025361157953739e-06
3.574000000000000000e+03 1.831238174438476562e+01 -4.393686294555664062e+00 1.432541830581612885e-05 7.524484772147843614e-06 6.554971150762867182e-06 -7.832959454390220344e-06
3.575000000000000000e+03 1.939846801757812500e+01 -5.466702461242675781e+00 9.109523489314597100e-06 4.967518634657608345e-06 4.223112682666396722e-06 -7.401385573757579550e-06
3.576000000000000000e+03 1.994004440307617188e+01 -6.002428531646728516e+00 7.344871846726164222e-06 9.206164577335584909e-06 4.965310836269054562e-06 -6.227828635019250214e-06
3.577000000000000000e+03 2.048459243774414062e+01 -5.500192165374755859e+00 8.518347385688684881e-06 -3.399708930373890325e-06 1.535591536594438367e-06 -7.029303560557309538e-06
3.578000000000000000e+03 1.880515289306640625e+01 -3.840278863906860352e+00 8.404570507991593331e-06 1.126558436226332560e-05 5.901046733924886212e-06 -8.149567293003201485e-06
3.579000000000000000e+03 1.936590194702148438e+01 -4.393997669219970703e+00 1.371621419821167365e-05 -1.150454636444919743e-06 3.769727754843188450e-06 -7.495137651858385652e-06
3.580000000000000000e+03 1.992575645446777344e+01 -4.947409152984619141e+00 7.683710464334581047e-06 1.134668218583101407e-05 5.709117431251797825e-06 -5.427568794402759522e-06
3.581000000000000000e+03 1.695117187500000000e+01 -2.380243301391601562e+00 1.771592724253423512e-05 4.406579137139488012e-06 6.636752004851587117e-06 -5.340572442946722731e-06
3.582000000000000000e+03 1.651630020141601562e+01 -2.979079723358154297e+00 1.345243435935117304e-05 5.175647402211325243e-06 5.588424755842424929e-06 -1.403251917508896440e-05
3.583000000000000000e+03 1.590384101867675781e+01 -2.523920059204101562e+00 1.982491630769800395e-05 1.096723644877783954e-05 9.237645826942753047e-06 -8.431742571701761335e-06
3.584000000000000000e+03 1.712716102600097656e+01 -3.436568260192871094e+00 1.704420901660341769e-05 9.265156222681980580e-06 7.892809662735089660e-06 -7.206637747003696859e-06
3.585000000000000000e+03 1.758174324035644531e+01 -2.852491855621337891e+00 1.130284726968966424e-05 9.507103641226422042e-06 6.242985364224296063e-06 -1.230798352480633184e-05
3.586000000000000000e+03 1.773609352111816406e+01 -3.896142244338989258e+00 1.124288792198058218e-05 7.475758138753008097e-06 5.615594091068487614e-06 -1.280409196624532342e-05
3.587000000000000000e+03 1.821038436889648438e+01 -3.326825857162475586e+00 1.635566513868980110e-05 6.446693419093207922e-07 5.100100224808556959e-06 -5.315388534654630348e-06
3.588000000000000000e+03 1.631900405883789062e+01 -1.910323858261108398e+00 1.464413890062132850e-05 6.133415354270255193e-06 6.233266503841150552e-06 -1.225983942276798189e-05
3.589000000000000000e+03 1.460399055480957031e+01 -1.730789542198181152e+00 2.144908103218767792e-05 9.293418770539574325e-06 9.222750122717116028e-06 -8.057643754000309855e-06
3.590000000000000000e+03 1.394003677368164062e+01 -1.356149435043334961e+00 1.743243410601280630e-05 2.761725681921234354e-06 6.058247890905477107e-06 -1.431088912795530632e-05
3.591000000000000000e+03 1.327490711212158203e+01 -9.841976165771484375e-01 2.336974830541294068e-05 1.062926457962021232e-05 1.019970386550994590e-05 -6.767875220248242840e-06
3.592000000000000000e+03 1.429506587982177734e+01 -7.068015336990356445e-01 2.156230220862198621e-05 5.073850843473337591e-06 7.990845915628597140e-06 -5.706760475732153282e-06
3.593000000000000000e+03 1.497913169860839844e+01 -1.092790365219116211e+00 1.458713268220890313e-05 5.944834811089094728e-06 6.159590157039929181e-06 -1.300361964240437374e-05
3.594000000000000000e+03 1.526644039154052734e+01 -2.107936620712280273e+00 1.779336162144318223e-05 4.388165962154744193e-06 6.654458502453053370e-06 -1.423157937097130343e-05
3.595000000000000000e+03 1.566169452667236328e+01 -1.481285929679870605e+00 1.889434861368499696e-05 6.776798272767337039e-06 7.701343747612554580e-06 -6.032122200849698856e-06
3.596000000000000000e+03 1.360982322692871094e+01 -3.235010504722595215e-01 1.480563241784693673e-05 6.298745574895292521e-06 6.331313215923728421e-06 -1.345172586297849193e-05
3.597000000000000000e+03 1.136861705780029297e+01 6.672526597976684570e-01 1.883019467641133815e-05 1.153283756138989702e-05 9.108909580390900373e-06 -3.454644001976703294e-06
3.598000000000000000e+03 1.043688488006591797e+01 2.462611943483352661e-01 2.222822877229191363e-05 9.803655302675906569e-06 9.609564585844054818e-06 -5.310679171088850126e-06
3.599000000000000000e+03 1.187135696411132812e+01 -3.428127467632293701e-01 2.145948019460774958e-05 1.023210097628179938e-05 9.507473805570043623e-06 -6.221976491360692307e-06
3.600000000000000000e+03 1.258574008941650391e+01 -6.459255814552307129e-01 2.074453186651226133e-05 -4.321794904171838425e-07 6.093705906096147373e-06 -1.381458878313424066e-05
3.601000000000000000e+03 1.288842964172363281e+01 2.964896708726882935e-02 1.959179280675016344e-05 6.749194199073826894e-06 7.902296601969283074e-06 -2.600630068627651781e-06
3.602000000000000000e+03 1.060655117034912109e+01 9.770575761795043945e-01 1.489645364927127957e-05 -2.141003733413526788e-06 3.826634838333120570e-06 -1.025789424602407962e-05
3.603000000000000000e+03 1.212970542907714844e+01 3.511690795421600342e-01 1.757387144607491791e-05 -1.520123475984291872e-07 5.226557732385117561e-06 -1.464187243982451037e-05
3.604000000000000000e+03 1.115460968017578125e+01 -4.513646289706230164e-02 1.958777829713653773e-05 -2.036608748312573880e-06 5.265350864647189155e-06 -1.098863049264764413e-05
3.605000000000000000e+03 9.852642059326171875e+00 1.127630591392517090e+00 1.507553588453447446e-05 1.249314573215087876e-05 8.270604666904546320e-06 -3.283021897004800849e-06
3.606000000000000000e+03 8.934872627258300781e+00 3.838182985782623291e-01 1.438341041648527607e-05 6.479388048319378868e-06 6.258839675865601748e-06 3.783829640724434284e-07
3.607000000000000000e+03 8.173450469970703125e+00 3.805501461029052734e-01 9.878264791041146964e-06 -5.848614819115027785e-06 1.208894900628365576e-06 -3.508175950628356077e-06
3.608000000000000000e+03 7.412311553955078125e+00 3.753647208213806152e-01 8.590810466557741165e-06 5.679904916178202257e-06 4.281214387447107583e-06 9.562918421579524875e-07
3.609000000000000000e+03 6.650998592376708984e+00 3.733136355876922607e-01 5.176202193979406729e-06 -4.820695266971597448e-06 1.066520454173769394e-07 -2.809079433063743636e-06
3.610000000000000000e+03 5.128288269042968750e+00 3.666210770606994629e-01 1.858370296758948825e-06 -3.818296590907266364e-06 -5.879779223505465779e-07 -2.565165232226718217e-06
3.611000000000000000e+03 4.367394924163818359e+00 3.671234846115112305e-01 2.464824092385242693e-06 3.556754563760478050e-06 1.806473619581083767e-06 1.479488219047198072e-06
3.612000000000000000e+03 2.846046209335327148e+00 3.605891168117523193e-01 1.134243689193681348e-06 2.756762341959984042e-06 1.167301775240048300e-06 1.499952645644953009e-06
3.613000000000000000e+03 2.087270975112915039e+00 3.584179878234863281e-01 -3.616248136495414656e-07 -1.967041725947638042e-06 -6.985999903008632828e-07 -1.358741428703069687e-06
3.614000000000000000e+03 2.412721395492553711e+00 1.098417997360229492e+00 9.427985787624493241e-07 1.118582304115989245e-06 6.184142762322153430e-07 9.751556717674247921e-07
3.615000000000000000e+03 1.340976357460021973e+00 3.674286305904388428e-01 -2.660126199316437123e-07 8.921152812035870738e-07 1.878307926972411224e-07 3.780021700094948756e-07
3.616000000000000000e+03 1.683374881744384766e+00 1.107428669929504395e+00 9.885076224236399867e-07 -6.361906912388803903e-07 1.056950651445731637e-07 -1.183473727905948181e-06
3.617000000000000000e+03 6.602545380592346191e-01 3.962357640266418457e-01 3.905487119482131675e-06 1.948969838849734515e-06 1.756337155711662490e-06 2.621235807964694686e-06
3.618000000000000000e+03 3.572900295257568359e-01 9.584811329841613770e-01 -3.286927267254213803e-06 -2.583288960522622801e-06 -1.761064822858315893e-06 -1.834624526964034885e-06
3.619000000000000000e+03 3.154548645019531250e+00 1.100589156150817871e+00 4.040635701585415518e-07 -1.092199568120122422e-06 -2.064408164414999192e-07 -2.444666051815147512e-06
3.620000000000000000e+03 3.606354475021362305e+00 3.667278885841369629e-01 -2.858070446976057610e-09 -3.097790340689243749e-06 -9.301945169681857806e-07 -2.151426997443195432e-06
3.621000000000000000e+03 5.385946273803710938e+00 1.106621026992797852e+00 5.123287792230257764e-06 3.789830088862800039e-06 2.673935341590549797e-06 7.395738634841109160e-07
3.622000000000000000e+03 5.889441967010498047e+00 3.716917037963867188e-01 4.963275841873837635e-06 4.398816145112505183e-06 2.808627414196962491e-06 1.189911131405096967e-06
3.623000000000000000e+03 7.619125843048095703e+00 1.115364670753479004e+00 7.829496098565869033e-06 -4.552888185571646318e-06 9.829822147366940044e-07 -5.882125606149202213e-06
3.624000000000000000e+03 8.363317489624023438e+00 1.120550155639648438e+00 1.154246638179756701e-05 6.645136181759880856e-06 5.456280632643029094e-06 -1.072742179530905560e-06
3.625000000000000000e+03 9.107789993286132812e+00 1.123818278312683105e+00 1.280879860132699832e-05 -4.522894414549227804e-06 2.485771119609125890e-06 -9.141481314145494252e-06
3.626000000000000000e+03 9.696672439575195312e+00 3.876306116580963135e-01 1.894127308332826942e-05 -3.724841008079238236e-06 4.564929895423119888e-06 -6.322552053461549804e-06
3.627000000000000000e+03 6.874760627746582031e+00 1.113313674926757812e+00 7.834441021259408444e-06 4.838837867282563820e-06 3.801983666562591679e-06 -2.491777877366985194e-07
3.628000000000000000e+03 6.130152225494384766e+00 1.111691713333129883e+00 3.898361683241091669e-06 -3.603166305765626021e-06 8.855862176915252348e-08 -4.890498985332669690e-06
3.629000000000000000e+03 4.642001152038574219e+00 1.107123494148254395e+00 1.771776737768959720e-06 -2.572069888628902845e-06 -2.400879566266667098e-07 -3.942621788155520335e-06
3.630000000000000000e+03 3.897908926010131836e+00 1.106727957725524902e+00 2.687518644961528480e-06 2.510507783881621435e-06 1.559407905915577430e-06 9.260018600798503030e-07
3.631000000000000000e+03 1.019601225852966309e+00 1.136235833168029785e+00 -3.750948735614656471e-06 2.831834308381075971e-06 -2.757343224857322639e-07 5.512566758625325747e-07
3.632000000000000000e+03 1.356510353088378906e+01 -2.044676303863525391e+00 -5.700400834030006081e-06 -9.834318916546180844e-06 -4.660415925172856078e-06 -3.728840965777635574e-06
3.633000000000000000e+03 1.321007442474365234e+01 -2.694024085998535156e+00 1.376589716528542340e-05 1.620675539015792310e-05 8.991795766633003950e-06 4.068267116963397712e-06
3.634000000000000000e+03 1.258673477172851562e+01 -2.342205762863159180e+00 -1.080072888726135716e-05 -2.140859760402236134e-05 -9.662798220233526081e-06 -3.396014335521613248e-06
3.635000000000000000e+03 1.420777034759521484e+01 -2.407426834106445312e+00 7.084561275405576453e-06 8.498270290147047490e-06 4.674849606089992449e-06 4.881942913925740868e-06
3.636000000000000000e+03 1.383262920379638672e+01 -3.045426130294799805e+00 -1.698349478829186410e-05 -1.281248660234268755e-05 -8.938794962887186557e-06 -5.640156814479269087e-06
3.637000000000000000e+03 1.445424365997314453e+01 -3.396085023880004883e+00 1.952251659531611949e-05 1.042710937326774001e-05 8.984888154373038560e-06 7.929243110993411392e-06
3.638000000000000000e+03 1.484949779510498047e+01 -2.769434452056884766e+00 -9.011168003780767322e-06 -9.213660632667597383e-06 -5.467448772833449766e-06 -6.618769475608132780e-06
3.639000000000000000e+03 1.292164993286132812e+01 -1.681509137153625488e+00 4.610864834830863401e-06 1.210709433507872745e-05 5.015387614548671991e-06 4.285308477847138420e-06
3.640000000000000000e+03 7.433924102783203125e+01 -2.812477111816406250e+01 -3.587186802178621292e-04 2.894545323215425014e-04 -2.077924182231072336e-05 -1.857271709013730288e-04
3.641000000000000000e+03 7.509891510009765625e+01 -2.813425064086914062e+01 3.631418221630156040e-04 -1.936844346346333623e-04 5.083721771370619535e-05 1.949841134774032980e-05
3.642000000000000000e+03 7.585762023925781250e+01 -2.814273452758789062e+01 -5.253721028566360474e-04 1.807817025110125542e-04 -1.033771259244531393e-04 4.017238552478374913e-06
3.643000000000000000e+03 7.434243011474609375e+01 -2.763040924072265625e+01 6.315218633972108364e-04 -2.865968854166567326e-04 1.034774977597407997e-04 4.276710387784987688e-05
3.644000000000000000e+03 7.584872436523437500e+01 -2.764876174926757812e+01 6.091314135119318962e-04 -4.845117655349895358e-05 1.682040747255086899e-04 1.006782440526876599e-05
3.645000000000000000e+03 7.433468627929687500e+01 -2.861659622192382812e+01 -7.173485937528312206e-05 -1.530814188299700618e-04 -6.744488200638443232e-05 -1.430661359336227179e-04
3.646000000000000000e+03 7.358879852294921875e+01 -2.761993026733398438e+01 6.099425954744219780e-04 5.777693004347383976e-04 3.563135687727481127e-04 -2.707718813326209784e-04
3.647000000000000000e+03 7.356816101074218750e+01 -2.860633087158203125e+01 -1.034447806887328625e-03 -1.366097876598360017e-05 -3.144326328765600920e-04 1.141630491474643350e-04
3.648000000000000000e+03 7.357871246337890625e+01 -2.811377334594726562e+01 8.848870493238791823e-06 -1.960527442861348391e-04 -5.616115959128364921e-05 2.005754649871960282e-04
3.649000000000000000e+03 7.586600494384765625e+01 -2.863568687438964844e+01 3.460055741015821695e-04 -2.341296931263059378e-04 3.356277011334896088e-05 6.321482942439615726e-05
3.650000000000000000e+03 7.510072326660156250e+01 -2.862630081176757812e+01 -1.366660580970346928e-03 3.599241608753800392e-04 -3.020209260284900665e-04 6.669627327937632799e-05
3.651000000000000000e+03 7.509568023681640625e+01 -2.763993263244628906e+01 3.143018111586570740e-04 1.558871736051514745e-04 1.410566910635679960e-04 -4.465357051230967045e-05
3.652000000000000000e+03 1.114702796936035156e+01 -1.674520134925842285e+00 -1.026346308208303526e-05 -2.584839603514410555e-05 -1.083355800801655278e-05 -3.815983745880657807e-06
3.653000000000000000e+03 1.155607700347900391e+01 -1.043098807334899902e+00 5.260903890302870423e-06 2.385570223850663751e-05 8.734981747693382204e-06 6.331591521302470937e-06
3.654000000000000000e+03 1.007052421569824219e+01 -1.379528045654296875e+00 2.337414662179071456e-05 2.100709934893529862e-05 1.331437397311674431e-05 -9.325400242232717574e-06
3.655000000000000000e+03 1.091052532196044922e+01 -7.195191383361816406e-01 -4.520157744991593063e-06 -2.992677400470711291e-05 -1.033407988870749250e-05 -1.198021345771849155e-05
3.656000000000000000e+03 1.189208316802978516e+01 -2.005299091339111328e+00 9.533832781016826630e-06 2.162946475436910987e-05 9.348988896817900240e-06 3.644863454610458575e-06
3.657000000000000000e+03 1.224500656127929688e+01 -1.350578069686889648e+00 -5.317160685081034899e-06 -1.511601931269979104e-05 -6.129954272182658315e-06 -4.671266651712357998e-06
3.658000000000000000e+03 1.012131404876708984e+01 -8.739756941795349121e-01 -3.193947850377298892e-05 -1.987249197554774582e-05 -1.554359187139198184e-05 -1.117689862439874560e-05
3.659000000000000000e+03 1.027311420440673828e+01 -4.096257984638214111e-01 9.943796612787991762e-06 2.817729182424955070e-05 1.143632653111126274e-05 1.112663085223175585e-05
3.660000000000000000e+03 1.058933448791503906e+01 -1.247088074684143066e+00 5.958966085017891601e-06 1.762238389346748590e-05 7.074404948070878163e-06 1.890388193714898080e-05
3.661000000000000000e+03 8.909210205078125000e+00 -3.212539851665496826e-01 -2.974104427266865969e-05 2.729262632783502340e-05 -7.345253720814071130e-07 -7.588805601699277759e-07
3.662000000000000000e+03 9.317807197570800781e+00 -1.205478549003601074e+00 -7.754555554129183292e-06 -3.690244557219557464e-05 -1.339710070169530809e-05 -1.453236473025754094e-05
3.663000000000000000e+03 9.460213661193847656e+00 -6.912539601325988770e-01 5.253011113381944597e-05 -4.721877303381916136e-06 1.434247042197966948e-05 1.983339825528673828e-05
3.664000000000000000e+03 8.266005516052246094e+00 -6.800254583358764648e-01 5.541347127291373909e-05 2.097572541970293969e-05 2.291675809829030186e-05 8.441870704700704664e-06
3.665000000000000000e+03 7.622209548950195312e+00 -4.054784178733825684e-01 -3.840006320388056338e-05 -3.586119419196620584e-05 -2.227837831014767289e-05 -3.284283957327716053e-05
3.666000000000000000e+03 6.825774669647216797e+00 -3.814763724803924561e-01 2.029386632784735411e-05 2.614773802633862942e-05 1.393248112435685471e-05 2.229507481388282031e-05
3.667000000000000000e+03 6.001619815826416016e+00 -3.739211261272430420e-01 -2.124197999364696443e-05 -1.866926322691142559e-05 -1.197337314806645736e-05 -1.794426316337194294e-05
3.668000000000000000e+03 5.174842834472656250e+00 -3.715220093727111816e-01 1.524796425655949861e-05 1.083123515854822472e-05 7.823759915481787175e-06 1.175367651740089059e-05
3.669000000000000000e+03 4.347759723663330078e+00 -3.725122809410095215e-01 -1.252093261427944526e-05 -4.864901711698621511e-06 -5.215750206843949854e-06 -5.925195637246361002e-06
3.670000000000000000e+03 3.520621299743652344e+00 -3.760701715946197510e-01 6.340204890875611454e-06 2.129852191501413472e-06 2.541017238399945199e-06 1.808563865779433399e-06
3.671000000000000000e+03 2.694509983062744141e+00 -3.805325925350189209e-01 -5.335424248187337071e-06 -1.985543349292129278e-06 -2.196290324718574993e-06 -8.379998917007469572e-07
3.672000000000000000e+03 1.143715500831604004e+00 -3.599454164505004883e-01 -5.026725830248324201e-06 -5.316965598467504606e-06 -3.103107474089483730e-06 2.633318274547491455e-07
3.673000000000000000e+03 4.021799862384796143e-01 -5.506002306938171387e-01 2.489420239726314321e-06 4.204905508231604472e-06 2.008297769862110727e-06 2.344130507481168024e-06
3.674000000000000000e+03 7.210693359375000000e-01 -1.099945425987243652e+00 2.673349808901548386e-05 -3.504703727230662480e-07 7.914908564998768270e-06 2.041612333414377645e-06
3.675000000000000000e+03 8.506304740905761719e+00 -1.218084216117858887e+00 -2.752678483375348151e-05 7.369605737039819360e-05 1.385078121529659256e-05 3.327880904180346988e-06
3.676000000000000000e+03 7.803927898406982422e+00 -1.221213579177856445e+00 -2.586800292192492634e-05 -6.146000669104978442e-05 -2.619840415718499571e-05 -1.011775839288020507e-05
3.677000000000000000e+03 7.101232528686523438e+00 -1.145478367805480957e+00 5.099843838252127171e-05 2.703660356928594410e-05 2.341051185794640332e-05 3.143402864225208759e-05
3.678000000000000000e+03 6.317089557647705078e+00 -1.121476411819458008e+00 -3.799975092988461256e-05 -1.893925036711152643e-05 -1.708170020719990134e-05 -2.679301906027831137e-05
3.679000000000000000e+03 5.505225658416748047e+00 -1.113921165466308594e+00 3.336981535539962351e-05 9.245707587979268283e-06 1.278465788345783949e-05 1.897822585306130350e-05
3.680000000000000000e+03 4.690740108489990234e+00 -1.111521959304809570e+00 -3.080320311710238457e-05 -3.219090331185725518e-06 -1.020668787532486022e-05 -1.249056913366075605e-05
3.681000000000000000e+03 3.875948190689086914e+00 -1.112512230873107910e+00 2.473905260558240116e-05 4.212807311887445394e-07 7.548099802079377696e-06 5.523182153410743922e-06
3.682000000000000000e+03 3.061101198196411133e+00 -1.116070151329040527e+00 -1.818150849430821836e-05 -1.965814817594946362e-06 -6.044196652510436252e-06 1.250070340574893635e-07
3.683000000000000000e+03 2.247281074523925781e+00 -1.120532631874084473e+00 9.025986400956753641e-06 7.867525710025802255e-06 5.068053724244236946e-06 -3.550091207671357552e-07
3.684000000000000000e+03 1.882497906684875488e+00 -3.807797729969024658e-01 4.041515694552799687e-06 2.622889496706193313e-06 1.999321511902962811e-06 1.047222667693858966e-06
3.685000000000000000e+03 9.580569267272949219e+00 -2.457754313945770264e-01 -3.082385592279024422e-05 -3.120910696452483535e-05 -1.860988959379028529e-05 6.558525001310044900e-06
3.686000000000000000e+03 1.447560310363769531e+00 -1.120779752731323242e+00 -1.178659385914215818e-05 -8.875623279891442508e-06 -6.198665232659550384e-06 -8.046074071899056435e-06
3.687000000000000000e+03 5.246646881103515625e+01 -2.616532516479492188e+01 1.666670989990234375e+01 2.416979789733886719e+00 5.725106716156005859e+00 -4.848952293395996094e+00
3.688000000000000000e+03 5.247291946411132812e+01 -2.614695739746093750e+01 2.049998855590820312e+01 1.567999839782714844e+00 6.620396614074707031e+00 -8.320981264114379883e-01
3.689000000000000000e+03 5.247566986083984375e+01 -2.612768554687500000e+01 2.215916061401367188e+01 2.825299263000488281e+00 7.495337963104248047e+00 2.123748302459716797e+00
3.690000000000000000e+03 5.247461700439453125e+01 -2.610824584960937500e+01 2.251454544067382812e+01 4.839228630065917969e+00 8.206131935119628906e+00 4.940412044525146484e+00
3.691000000000000000e+03 5.246980285644531250e+01 -2.608938217163085938e+01 2.189293479919433594e+01 7.676995754241943359e+00 8.870979309082031250e+00 7.099934101104736328e+00
3.692000000000000000e+03 5.246140289306640625e+01 -2.607181739807128906e+01 2.035497856140136719e+01 1.076304435729980469e+01 9.335406303405761719e+00 8.523529052734375000e+00
3.693000000000000000e+03 5.244974899291992188e+01 -2.605622482299804688e+01 1.839290237426757812e+01 1.409529876708984375e+01 9.746460914611816406e+00 8.988326072692871094e+00
3.694000000000000000e+03 5.243527984619140625e+01 -2.604319763183593750e+01 1.627610206604003906e+01 1.693479728698730469e+01 9.963270187377929688e+00 8.558203697204589844e+00
3.695000000000000000e+03 5.241855239868164062e+01 -2.603323745727539062e+01 1.445665550231933594e+01 1.931917190551757812e+01 1.013274765014648438e+01 7.267594337463378906e+00
3.696000000000000000e+03 5.240020751953125000e+01 -2.602672576904296875e+01 1.319082736968994141e+01 2.078911399841308594e+01 1.019398307800292969e+01 5.494282245635986328e+00
3.697000000000000000e+03 5.238094329833984375e+01 -2.602391052246093750e+01 1.253612995147705078e+01 2.136704444885253906e+01 1.017095184326171875e+01 3.440835237503051758e+00
3.698000000000000000e+03 5.236149978637695312e+01 -2.602489662170410156e+01 1.266959953308105469e+01 2.113336944580078125e+01 1.014089107513427734e+01 1.538047075271606445e+00
3.699000000000000000e+03 5.234262084960937500e+01 -2.602965164184570312e+01 1.336126136779785156e+01 2.020542335510253906e+01 1.007000541687011719e+01 -5.056793242692947388e-02
3.700000000000000000e+03 5.232502746582031250e+01 -2.603799057006835938e+01 1.457270622253417969e+01 1.882130622863769531e+01 1.001820373535156250e+01 -1.147619843482971191e+00
3.701000000000000000e+03 5.230939483642578125e+01 -2.604959487915039062e+01 1.591806983947753906e+01 1.724980545043945312e+01 9.950362205505371094e+00 -1.629956960678100586e+00
3.702000000000000000e+03 5.229632186889648438e+01 -2.606402015686035156e+01 1.734771919250488281e+01 1.565398311614990234e+01 9.900510787963867188e+00 -1.509077191352844238e+00
3.703000000000000000e+03 5.228630828857421875e+01 -2.608071327209472656e+01 1.888397789001464844e+01 1.450697422027587891e+01 1.001728534698486328e+01 -6.995366811752319336e-01
3.704000000000000000e+03 5.227973175048828125e+01 -2.609903907775878906e+01 1.973249053955078125e+01 1.312299442291259766e+01 9.856645584106445312e+00 4.948642849922180176e-01
3.705000000000000000e+03 5.227685165405273438e+01 -2.611829376220703125e+01 2.033118438720703125e+01 1.301065444946289062e+01 1.000255107879638672e+01 2.001368522644042969e+00
3.706000000000000000e+03 5.227777862548828125e+01 -2.613773918151855469e+01 2.018376350402832031e+01 1.331013011932373047e+01 1.004816818237304688e+01 3.990496873855590820e+00
3.707000000000000000e+03 5.228246688842773438e+01 -2.615663337707519531e+01 1.913728141784667969e+01 1.380970573425292969e+01 9.884096145629882812e+00 5.680977344512939453e+00
3.708000000000000000e+03 5.229074859619140625e+01 -2.617425346374511719e+01 1.758161735534667969e+01 1.559959983825683594e+01 9.954364776611328125e+00 7.006687641143798828e+00
3.709000000000000000e+03 5.230229949951171875e+01 -2.618992424011230469e+01 1.510201549530029297e+01 1.738352966308593750e+01 9.745663642883300781e+00 7.814991474151611328e+00
3.710000000000000000e+03 5.231668090820312500e+01 -2.620304679870605469e+01 1.228684234619140625e+01 1.933836555480957031e+01 9.487562179565429688e+00 7.774410247802734375e+00
3.711000000000000000e+03 5.233334350585937500e+01 -2.621311759948730469e+01 9.442865371704101562e+00 2.095533561706542969e+01 9.119460105895996094e+00 6.890745162963867188e+00
3.712000000000000000e+03 5.235164642333984375e+01 -2.621975135803222656e+01 6.859844684600830078e+00 2.205036354064941406e+01 8.673062324523925781e+00 5.172334194183349609e+00
3.713000000000000000e+03 5.237089157104492188e+01 -2.622269439697265625e+01 4.507936954498291016e+00 2.206669425964355469e+01 7.972389221191406250e+00 3.010502338409423828e+00
3.714000000000000000e+03 5.239033889770507812e+01 -2.622183609008789062e+01 3.152692556381225586e+00 2.121449661254882812e+01 7.310156345367431641e+00 6.199799776077270508e-01
3.715000000000000000e+03 5.240924835205078125e+01 -2.621720886230468750e+01 2.141348361968994141e+00 1.920195388793945312e+01 6.402990818023681641e+00 -1.699247956275939941e+00
3.716000000000000000e+03 5.242689895629882812e+01 -2.620898628234863281e+01 2.059801816940307617e+00 1.634948158264160156e+01 5.522785186767578125e+00 -3.663547039031982422e+00
3.717000000000000000e+03 5.244260787963867188e+01 -2.619748687744140625e+01 2.391238212585449219e+00 1.272104549407958984e+01 4.533685207366943359e+00 -5.012334346771240234e+00
3.718000000000000000e+03 5.245577621459960938e+01 -2.618314743041992188e+01 4.892796039581298828e+00 7.098090171813964844e+00 3.597265720367431641e+00 -5.346133232116699219e+00
