# el_label, x, y, sXX, sYY, sZZ, sXY
1.000000000000000000e+00 4.889372253417968750e+01 -2.015400886535644531e+01 -2.202031612396240234e+00 -2.994390487670898438e+00 -1.558926701545715332e+00 -2.184842586517333984e+00
2.000000000000000000e+00 4.870362472534179688e+01 -2.021301078796386719e+01 1.257639080286026001e-01 1.075467944145202637e+00 3.603695631027221680e-01 4.888995587825775146e-01
3.000000000000000000e+00 4.851353454589843750e+01 -2.027201271057128906e+01 -6.697048544883728027e-01 -3.954779803752899170e-01 -3.195548653602600098e-01 -4.893194139003753662e-02
4.000000000000000000e+00 4.832343673706054688e+01 -2.033101654052734375e+01 -9.410140514373779297e-01 2.363240122795104980e-01 -2.114070057868957520e-01 -8.404311537742614746e-02
5.000000000000000000e+00 4.891640853881835938e+01 -2.020782661437988281e+01 8.060861587524414062e+00 -9.714461565017700195e-01 2.126824617385864258e+00 3.523928165435791016e+00
6.000000000000000000e+00 4.874143600463867188e+01 -2.030270957946777344e+01 2.759393692016601562e+00 7.894968390464782715e-01 1.064667105674743652e+00 1.556983947753906250e+00
7.000000000000000000e+00 4.856646728515625000e+01 -2.039759063720703125e+01 2.399247407913208008e+00 1.411821007728576660e+00 1.143320560455322266e+00 2.008060216903686523e+00
8.000000000000000000e+00 4.839149475097656250e+01 -2.049247169494628906e+01 1.713673114776611328e+00 6.254009604454040527e-01 7.017222046852111816e-01 1.351920485496520996e+00
9.000000000000000000e+00 4.894913482666015625e+01 -2.025619888305664062e+01 9.826436996459960938e+00 5.136067867279052734e+00 4.488751411437988281e+00 8.691540718078613281e+00
1.000000000000000000e+01 4.879598617553710938e+01 -2.038332939147949219e+01 5.987920761108398438e+00 3.081091403961181641e+00 2.720703601837158203e+00 5.036052227020263672e+00
1.100000000000000000e+01 4.864283370971679688e+01 -2.051045989990234375e+01 3.891564130783081055e+00 2.978296995162963867e+00 2.060958385467529297e+00 3.650648593902587891e+00
1.200000000000000000e+01 4.848968505859375000e+01 -2.063758850097656250e+01 3.212897062301635742e+00 2.801491022109985352e+00 1.804316401481628418e+00 3.330847024917602539e+00
1.300000000000000000e+01 4.899065780639648438e+01 -2.029727554321289062e+01 9.477848052978515625e+00 1.217978191375732422e+01 6.497289180755615234e+00 1.176878929138183594e+01
1.400000000000000000e+01 4.886518478393554688e+01 -2.045178794860839844e+01 5.993162155151367188e+00 7.650645732879638672e+00 4.093142509460449219e+00 7.606798648834228516e+00
1.500000000000000000e+01 4.873971557617187500e+01 -2.060630226135253906e+01 4.681436538696289062e+00 6.164995670318603516e+00 3.253929615020751953e+00 5.839487552642822266e+00
1.600000000000000000e+01 4.861424636840820312e+01 -2.076081466674804688e+01 3.522981643676757812e+00 5.281986713409423828e+00 2.641490459442138672e+00 4.802485942840576172e+00
1.700000000000000000e+01 4.903937911987304688e+01 -2.032948112487792969e+01 7.156137943267822266e+00 1.969722747802734375e+01 8.056009292602539062e+00 1.249423313140869141e+01
1.800000000000000000e+01 4.894639205932617188e+01 -2.050546455383300781e+01 5.167275428771972656e+00 1.302908134460449219e+01 5.458907127380371094e+00 8.845845222473144531e+00
1.900000000000000000e+01 4.885340118408203125e+01 -2.068144798278808594e+01 3.825459480285644531e+00 1.031077861785888672e+01 4.240871429443359375e+00 6.889460563659667969e+00
2.000000000000000000e+01 4.876041412353515625e+01 -2.085743331909179688e+01 3.191909313201904297e+00 8.833892822265625000e+00 3.607740640640258789e+00 5.849549770355224609e+00
2.100000000000000000e+01 4.909344100952148438e+01 -2.035158538818359375e+01 4.990894794464111328e+00 2.662132644653320312e+01 9.483666419982910156e+00 1.103917980194091797e+01
2.200000000000000000e+01 4.903649139404296875e+01 -2.054230499267578125e+01 3.563372373580932617e+00 1.828794670104980469e+01 6.555395603179931641e+00 8.314136505126953125e+00
2.300000000000000000e+01 4.897954177856445312e+01 -2.073302459716796875e+01 2.723545551300048828e+00 1.479134559631347656e+01 5.254467487335205078e+00 6.873663425445556641e+00
2.400000000000000000e+01 4.892259597778320312e+01 -2.092374420166015625e+01 2.093954801559448242e+00 1.264379501342773438e+01 4.421325206756591797e+00 5.678825855255126953e+00
2.500000000000000000e+01 4.915076828002929688e+01 -2.036274147033691406e+01 3.335850000381469727e+00 3.197033309936523438e+01 1.059185504913330078e+01 7.776031494140625000e+00
2.600000000000000000e+01 4.913204193115234375e+01 -2.056089973449707031e+01 2.512282848358154297e+00 2.294585609436035156e+01 7.637441635131835938e+00 6.400245189666748047e+00
2.700000000000000000e+01 4.911331176757812500e+01 -2.075905799865722656e+01 1.611789107322692871e+00 1.852651405334472656e+01 6.041491031646728516e+00 5.480284690856933594e+00
2.800000000000000000e+01 4.909458160400390625e+01 -2.095721435546875000e+01 1.115061640739440918e+00 1.628122138977050781e+01 5.218884944915771484e+00 4.749829292297363281e+00
2.900000000000000000e+01 4.920917510986328125e+01 -2.036252403259277344e+01 3.405979394912719727e+00 3.545237350463867188e+01 1.165750598907470703e+01 3.487308740615844727e+00
3.000000000000000000e+01 4.922938156127929688e+01 -2.056053543090820312e+01 2.038075447082519531e+00 2.615646553039550781e+01 8.458362579345703125e+00 3.518166542053222656e+00
3.100000000000000000e+01 4.924958801269531250e+01 -2.075854873657226562e+01 1.352763175964355469e+00 2.158886146545410156e+01 6.882487297058105469e+00 3.083486318588256836e+00
3.200000000000000000e+01 4.926979446411132812e+01 -2.095656013488769531e+01 6.834778189659118652e-01 1.835606002807617188e+01 5.711861610412597656e+00 2.841970443725585938e+00
3.300000000000000000e+01 4.926641845703125000e+01 -2.035093879699707031e+01 4.880794048309326172e+00 3.670453643798828125e+01 1.247559928894042969e+01 -8.739840984344482422e-01
3.400000000000000000e+01 4.932479095458984375e+01 -2.054122924804687500e+01 2.877233982086181641e+00 2.798864364624023438e+01 9.259763717651367188e+00 1.765409260988235474e-01
3.500000000000000000e+01 4.938315963745117188e+01 -2.073151969909667969e+01 1.831695556640625000e+00 2.321759414672851562e+01 7.514787197113037109e+00 3.144199550151824951e-01
3.600000000000000000e+01 4.944152832031250000e+01 -2.092180824279785156e+01 1.177232980728149414e+00 2.003300666809082031e+01 6.363071918487548828e+00 5.376826599240303040e-02
3.700000000000000000e+01 4.932031250000000000e+01 -2.032843208312988281e+01 7.898542881011962891e+00 3.610810089111328125e+01 1.320199298858642578e+01 -4.613071918487548828e+00
3.800000000000000000e+01 4.941461181640625000e+01 -2.050371742248535156e+01 4.691583633422851562e+00 2.830670738220214844e+01 9.899487495422363281e+00 -2.827761650085449219e+00
3.900000000000000000e+01 4.950891113281250000e+01 -2.067900276184082031e+01 3.335676431655883789e+00 2.366472053527832031e+01 8.100119590759277344e+00 -2.557279825210571289e+00
4.000000000000000000e+01 4.960321044921875000e+01 -2.085428810119628906e+01 2.401198863983154297e+00 2.089142417907714844e+01 6.987787246704101562e+00 -2.278734207153320312e+00
4.100000000000000000e+01 4.936879348754882812e+01 -2.029586410522460938e+01 1.166792392730712891e+01 3.435406875610351562e+01 1.380659770965576172e+01 -7.022054672241210938e+00
4.200000000000000000e+01 4.949541473388671875e+01 -2.044943618774414062e+01 7.515384197235107422e+00 2.724442291259765625e+01 1.042794227600097656e+01 -5.214301586151123047e+00
4.300000000000000000e+01 4.962203216552734375e+01 -2.060301017761230469e+01 5.402656078338623047e+00 2.326279067993164062e+01 8.599634170532226562e+00 -4.571062564849853516e+00
4.400000000000000000e+01 4.974865341186523438e+01 -2.075658226013183594e+01 4.462626457214355469e+00 2.039074897766113281e+01 7.456012725830078125e+00 -4.296972751617431641e+00
4.500000000000000000e+01 4.941000747680664062e+01 -2.025448036193847656e+01 1.563004779815673828e+01 3.180998611450195312e+01 1.423200988769531250e+01 -8.017405509948730469e+00
4.600000000000000000e+01 4.956410217285156250e+01 -2.038046455383300781e+01 1.071532440185546875e+01 2.566018104553222656e+01 1.091265201568603516e+01 -6.491303920745849609e+00
4.700000000000000000e+01 4.971819686889648438e+01 -2.050644683837890625e+01 8.168025016784667969e+00 2.171149635314941406e+01 8.963855743408203125e+00 -5.624512195587158203e+00
4.800000000000000000e+01 4.987229156494140625e+01 -2.063243103027343750e+01 6.393016338348388672e+00 1.944843292236328125e+01 7.752434730529785156e+00 -5.252956867218017578e+00
4.900000000000000000e+01 4.944237518310546875e+01 -2.020586395263671875e+01 1.929737472534179688e+01 2.963966178894042969e+01 1.468111133575439453e+01 -7.586144924163818359e+00
5.000000000000000000e+01 4.961804580688476562e+01 -2.029943847656250000e+01 1.371860408782958984e+01 2.350544357299804688e+01 1.116721439361572266e+01 -6.596332073211669922e+00
5.100000000000000000e+01 4.979372024536132812e+01 -2.039301109313964844e+01 1.105386638641357422e+01 2.014660453796386719e+01 9.360140800476074219e+00 -5.726107597351074219e+00
5.200000000000000000e+01 4.996939468383789062e+01 -2.048658561706542969e+01 8.806349754333496094e+00 1.751831626892089844e+01 7.897399425506591797e+00 -4.976903915405273438e+00
5.300000000000000000e+01 4.946466064453125000e+01 -2.015187835693359375e+01 2.183421134948730469e+01 2.756588554382324219e+01 1.482002925872802734e+01 -6.210532188415527344e+00
5.400000000000000000e+01 4.965518951416015625e+01 -2.020946121215820312e+01 1.636273574829101562e+01 2.205960464477539062e+01 1.152670192718505859e+01 -5.536566734313964844e+00
5.500000000000000000e+01 4.984571838378906250e+01 -2.026704406738281250e+01 1.318192386627197266e+01 1.834499740600585938e+01 9.458076477050781250e+00 -4.974531650543212891e+00
5.600000000000000000e+01 5.003624725341796875e+01 -2.032462501525878906e+01 1.159102249145507812e+01 1.609253692626953125e+01 8.305068016052246094e+00 -4.343529224395751953e+00
5.700000000000000000e+01 4.947600555419921875e+01 -2.009458541870117188e+01 2.340939712524414062e+01 2.687773132324218750e+01 1.508613777160644531e+01 -4.154726982116699219e+00
5.800000000000000000e+01 4.967409896850585938e+01 -2.011397361755371094e+01 1.786289978027343750e+01 2.074417495727539062e+01 1.158212184906005859e+01 -3.822611570358276367e+00
5.900000000000000000e+01 4.987219238281250000e+01 -2.013336181640625000e+01 1.466315650939941406e+01 1.764446258544921875e+01 9.692285537719726562e+00 -3.435418367385864258e+00
6.000000000000000000e+01 5.007028961181640625e+01 -2.015275001525878906e+01 1.267990493774414062e+01 1.514173889160156250e+01 8.346492767333984375e+00 -3.463873863220214844e+00
6.100000000000000000e+01 4.947598266601562500e+01 -2.003618240356445312e+01 2.366439628601074219e+01 2.674121665954589844e+01 1.512168407440185547e+01 -1.804269313812255859e+00
6.200000000000000000e+01 4.967406082153320312e+01 -2.001663208007812500e+01 1.815860176086425781e+01 2.076238441467285156e+01 1.167629623413085938e+01 -1.851643562316894531e+00
6.300000000000000000e+01 4.987213897705078125e+01 -1.999708366394042969e+01 1.502709960937500000e+01 1.732299041748046875e+01 9.705026626586914062e+00 -1.692612648010253906e+00
6.400000000000000000e+01 5.007021713256835938e+01 -1.997753524780273438e+01 1.255760860443115234e+01 1.546656990051269531e+01 8.407253265380859375e+00 -1.734126925468444824e+00
6.500000000000000000e+01 4.946458816528320312e+01 -1.997889900207519531e+01 2.273765373229980469e+01 2.741895103454589844e+01 1.504698181152343750e+01 1.720747500658035278e-01
6.600000000000000000e+01 4.965507125854492188e+01 -1.992116165161132812e+01 1.723769378662109375e+01 2.178128814697265625e+01 1.170569419860839844e+01 1.100137755274772644e-01
6.700000000000000000e+01 4.984555435180664062e+01 -1.986342430114746094e+01 1.408003139495849609e+01 1.795701408386230469e+01 9.611113548278808594e+00 -2.849460244178771973e-01
6.800000000000000000e+01 5.003603744506835938e+01 -1.980568695068359375e+01 1.197444820404052734e+01 1.586009693145751953e+01 8.350363731384277344e+00 5.605977028608322144e-02
6.900000000000000000e+01 4.944226074218750000e+01 -1.992493057250976562e+01 2.079791831970214844e+01 2.923209762573242188e+01 1.500900459289550781e+01 1.558610200881958008e+00
7.000000000000000000e+01 4.961785888671875000e+01 -1.983121299743652344e+01 1.537659835815429688e+01 2.305739212036132812e+01 1.153019714355468750e+01 1.452587842941284180e+00
7.100000000000000000e+01 4.979345703125000000e+01 -1.973749732971191406e+01 1.213022422790527344e+01 1.991433715820312500e+01 9.613368034362792969e+00 8.137400746345520020e-01
7.200000000000000000e+01 4.996905517578125000e+01 -1.964377975463867188e+01 1.023190212249755859e+01 1.637528038024902344e+01 7.982154846191406250e+00 5.789679884910583496e-01
7.300000000000000000e+01 4.940985107421875000e+01 -1.987634086608886719e+01 1.798309516906738281e+01 3.154399871826171875e+01 1.485812854766845703e+01 2.179108619689941406e+00
7.400000000000000000e+01 4.956384658813476562e+01 -1.975023078918457031e+01 1.278246307373046875e+01 2.483447647094726562e+01 1.128508186340332031e+01 1.593917608261108398e+00
7.500000000000000000e+01 4.971783828735351562e+01 -1.962412261962890625e+01 9.902189254760742188e+00 2.159000778198242188e+01 9.447659492492675781e+00 1.379981040954589844e+00
7.600000000000000000e+01 4.987183380126953125e+01 -1.949801254272460938e+01 7.908447265625000000e+00 1.896200752258300781e+01 8.061136245727539062e+00 5.955018997192382812e-01
7.700000000000000000e+01 4.936860656738281250e+01 -1.983498954772949219e+01 1.458012485504150391e+01 3.319198989868164062e+01 1.433163452148437500e+01 1.754178643226623535e+00
7.800000000000000000e+01 4.949510192871093750e+01 -1.968131446838378906e+01 1.018970870971679688e+01 2.723790740966796875e+01 1.122828483581542969e+01 5.597558617591857910e-01
7.900000000000000000e+01 4.962159729003906250e+01 -1.952763748168945312e+01 7.441689491271972656e+00 2.233760643005371094e+01 8.933789253234863281e+00 7.201769351959228516e-01
8.000000000000000000e+01 4.974809265136718750e+01 -1.937396240234375000e+01 6.284269332885742188e+00 2.112810897827148438e+01 8.223713874816894531e+00 4.752585589885711670e-01
8.100000000000000000e+01 4.932009887695312500e+01 -1.980246162414550781e+01 1.198767852783203125e+01 3.547578811645507812e+01 1.423904037475585938e+01 -4.151207506656646729e-01
8.200000000000000000e+01 4.941425704956054688e+01 -1.962709808349609375e+01 7.226219177246093750e+00 2.796483230590820312e+01 1.055731582641601562e+01 -9.544169306755065918e-01
8.300000000000000000e+01 4.950841140747070312e+01 -1.945173645019531250e+01 5.961110115051269531e+00 2.390277862548828125e+01 8.959166526794433594e+00 -1.496877551078796387e+00
8.400000000000000000e+01 4.960256958007812500e+01 -1.927637481689453125e+01 3.907586812973022461e+00 2.002197647094726562e+01 7.178869247436523438e+00 -9.767084717750549316e-01
8.500000000000000000e+01 4.926618576049804688e+01 -1.977999687194824219e+01 9.086410522460937500e+00 3.611221694946289062e+01 1.355958843231201172e+01 -3.346768140792846680e+00
8.600000000000000000e+01 4.932440185546875000e+01 -1.958966064453125000e+01 5.958158016204833984e+00 2.820803070068359375e+01 1.024985694885253906e+01 -3.768959045410156250e+00
8.700000000000000000e+01 4.938261795043945312e+01 -1.939932250976562500e+01 4.081260204315185547e+00 2.377055931091308594e+01 8.355545997619628906e+00 -3.724091053009033203e+00
8.800000000000000000e+01 4.944083023071289062e+01 -1.920898628234863281e+01 2.866823434829711914e+00 2.062077522277832031e+01 7.046279430389404297e+00 -3.776714086532592773e+00
8.900000000000000000e+01 4.920893096923828125e+01 -1.976846122741699219e+01 7.619217395782470703e+00 3.535195541381835938e+01 1.289135265350341797e+01 -7.079994201660156250e+00
9.000000000000000000e+01 4.922897720336914062e+01 -1.957043075561523438e+01 5.498673915863037109e+00 2.692969512939453125e+01 9.728510856628417969e+00 -6.794882774353027344e+00
9.100000000000000000e+01 4.924902343750000000e+01 -1.937240409851074219e+01 3.226755857467651367e+00 2.255827522277832031e+01 7.735508918762207031e+00 -6.273710727691650391e+00
9.200000000000000000e+01 4.926906967163085938e+01 -1.917437362670898438e+01 2.942209482192993164e+00 2.031066703796386719e+01 6.975862979888916016e+00 -5.652710914611816406e+00
9.300000000000000000e+01 4.915052795410156250e+01 -1.976829147338867188e+01 8.164920806884765625e+00 3.284781646728515625e+01 1.230382061004638672e+01 -1.088479518890380859e+01
9.400000000000000000e+01 4.913163757324218750e+01 -1.957014846801757812e+01 5.452079296112060547e+00 2.417441177368164062e+01 8.887947082519531250e+00 -9.659990310668945312e+00
9.500000000000000000e+01 4.911274719238281250e+01 -1.937200546264648438e+01 4.234807014465332031e+00 2.025934028625488281e+01 7.348244190216064453e+00 -8.285642623901367188e+00
9.600000000000000000e+01 4.909385681152343750e+01 -1.917386245727539062e+01 2.860996723175048828e+00 1.724335098266601562e+01 6.031304359436035156e+00 -7.739391326904296875e+00
9.700000000000000000e+01 4.909320831298828125e+01 -1.977949333190917969e+01 9.479870796203613281e+00 2.820772933959960938e+01 1.130628013610839844e+01 -1.423626518249511719e+01
9.800000000000000000e+01 4.903610229492187500e+01 -1.958881950378417969e+01 6.978901386260986328e+00 2.036726760864257812e+01 8.203850746154785156e+00 -1.144642734527587891e+01
9.900000000000000000e+01 4.897900009155273438e+01 -1.939814758300781250e+01 5.343917846679687500e+00 1.642549324035644531e+01 6.530823707580566406e+00 -9.932994842529296875e+00
1.000000000000000000e+02 4.892189407348632812e+01 -1.920747375488281250e+01 3.856112003326416016e+00 1.440306758880615234e+01 5.477754116058349609e+00 -8.989238739013671875e+00
1.010000000000000000e+02 4.903916549682617188e+01 -1.980164337158203125e+01 1.186993694305419922e+01 2.231477165222167969e+01 1.025541305541992188e+01 -1.594842433929443359e+01
1.020000000000000000e+02 4.894603347778320312e+01 -1.962573432922363281e+01 8.910763740539550781e+00 1.542770576477050781e+01 7.301540851593017578e+00 -1.215979290008544922e+01
1.030000000000000000e+02 4.885289764404296875e+01 -1.944982719421386719e+01 6.678948879241943359e+00 1.233237075805664062e+01 5.703395843505859375e+00 -1.046122550964355469e+01
1.040000000000000000e+02 4.875976943969726562e+01 -1.927391815185546875e+01 5.421315670013427734e+00 1.078917503356933594e+01 4.863147258758544922e+00 -8.947521209716796875e+00
1.050000000000000000e+02 4.899046707153320312e+01 -1.983388710021972656e+01 1.482868480682373047e+01 1.569541168212890625e+01 9.157229423522949219e+00 -1.568063354492187500e+01
1.060000000000000000e+02 4.886487197875976562e+01 -1.967947769165039062e+01 1.033092021942138672e+01 1.020143127441406250e+01 6.159705162048339844e+00 -1.157535266876220703e+01
1.070000000000000000e+02 4.873927307128906250e+01 -1.952506637573242188e+01 8.093667030334472656e+00 8.269009590148925781e+00 4.908803462982177734e+00 -9.450191497802734375e+00
1.080000000000000000e+02 4.861367797851562500e+01 -1.937065505981445312e+01 6.470248222351074219e+00 6.733113288879394531e+00 3.961008548736572266e+00 -8.355261802673339844e+00
1.090000000000000000e+02 4.894898223876953125e+01 -1.987499809265136719e+01 1.651629447937011719e+01 8.889212608337402344e+00 7.621652126312255859e+00 -1.354376125335693359e+01
1.100000000000000000e+02 4.879572677612304688e+01 -1.974799346923828125e+01 1.128223991394042969e+01 5.737413883209228516e+00 5.105895996093750000e+00 -9.366086006164550781e+00
1.110000000000000000e+02 4.864247131347656250e+01 -1.962098884582519531e+01 8.400844573974609375e+00 4.242010116577148438e+00 3.792856454849243164e+00 -7.616944789886474609e+00
1.120000000000000000e+02 4.848921585083007812e+01 -1.949398231506347656e+01 6.773539066314697266e+00 3.973073959350585938e+00 3.223984003067016602e+00 -6.643764019012451172e+00
1.130000000000000000e+02 4.891629028320312500e+01 -1.992339706420898438e+01 1.681362342834472656e+01 3.579127311706542969e+00 6.117825508117675781e+00 -9.515214920043945312e+00
1.140000000000000000e+02 4.874124145507812500e+01 -1.982865715026855469e+01 1.027086162567138672e+01 1.859907150268554688e+00 3.639230728149414062e+00 -6.282499313354492188e+00
1.150000000000000000e+02 4.856619262695312500e+01 -1.973392105102539062e+01 7.666606426239013672e+00 1.836778998374938965e+00 2.851015567779541016e+00 -5.094166278839111328e+00
1.160000000000000000e+02 4.839114379882812500e+01 -1.963918113708496094e+01 5.831651210784912109e+00 1.419278621673583984e+00 2.175278902053833008e+00 -4.389521121978759766e+00
1.170000000000000000e+02 4.889365005493164062e+01 -1.997723388671875000e+01 1.380145931243896484e+01 -4.133065044879913330e-01 4.016445636749267578e+00 -4.706072807312011719e+00
1.180000000000000000e+02 4.870350646972656250e+01 -1.991838645935058594e+01 7.743309974670410156e+00 -4.362221062183380127e-02 2.309906482696533203e+00 -2.855504035949707031e+00
1.190000000000000000e+02 4.851336288452148438e+01 -1.985954093933105469e+01 4.880392551422119141e+00 3.895210623741149902e-01 1.580974102020263672e+00 -2.584104776382446289e+00
1.200000000000000000e+02 4.832321929931640625e+01 -1.980069351196289062e+01 4.104211807250976562e+00 3.888848125934600830e-01 1.347929000854492188e+00 -2.666563749313354492e+00
1.210000000000000000e+02 4.888191986083984375e+01 -2.003444862365722656e+01 7.715398788452148438e+00 -2.106512308120727539e+00 1.682665944099426270e+00 4.073325991630554199e-01
1.220000000000000000e+02 4.868395996093750000e+01 -2.001374626159667969e+01 2.102770805358886719e+00 -1.512522101402282715e-01 5.854555368423461914e-01 -6.342312693595886230e-01
1.230000000000000000e+02 4.848600006103515625e+01 -1.999304389953613281e+01 2.200710535049438477e+00 1.351633220911026001e-01 7.007621526718139648e-01 -1.388972401618957520e+00
1.240000000000000000e+02 4.828803634643554688e+01 -1.997233963012695312e+01 9.098269343376159668e-01 -3.356775045394897461e-01 1.722448319196701050e-01 -9.381183981895446777e-01
1.250000000000000000e+02 4.888155746459960938e+01 -2.009285354614257812e+01 -5.455070972442626953e+00 -1.429225683212280273e+00 -2.065289020538330078e+00 1.598169088363647461e+00
1.260000000000000000e+02 4.868335342407226562e+01 -2.011108589172363281e+01 -9.184603095054626465e-01 5.770807266235351562e-01 -1.024138852953910828e-01 -9.519317746162414551e-01
1.270000000000000000e+02 4.848514938354492188e+01 -2.012931823730468750e+01 -2.178025245666503906e+00 -4.685935378074645996e-01 -7.939856052398681641e-01 -3.185264468193054199e-01
1.280000000000000000e+02 4.828694534301757812e+01 -2.014755249023437500e+01 -2.354997396469116211e+00 6.737679243087768555e-02 -6.862861514091491699e-01 -6.472169756889343262e-01
1.290000000000000000e+02 4.473276901245117188e+01 -2.226316070556640625e+01 -2.080070786178112030e-02 -5.788991227746009827e-03 -7.976909168064594269e-03 -1.889431178569793701e-01
1.300000000000000000e+02 4.594287109375000000e+01 -2.144394493103027344e+01 -4.256657063961029053e-01 1.269222497940063477e-01 -8.962303400039672852e-02 -1.170217245817184448e-01
1.310000000000000000e+02 4.404109191894531250e+01 -2.245219039916992188e+01 -4.491453990340232849e-02 -1.380435079336166382e-01 -5.488741397857666016e-02 -2.832823693752288818e-01
1.320000000000000000e+02 4.629906082153320312e+01 -2.206311607360839844e+01 5.407029390335083008e-01 5.789469480514526367e-01 3.358949720859527588e-01 5.095666050910949707e-01
1.330000000000000000e+02 4.572210693359375000e+01 -2.129183197021484375e+01 -8.489716649055480957e-01 -7.234673947095870972e-02 -2.763955295085906982e-01 -3.170546889305114746e-01
1.340000000000000000e+02 4.441545867919921875e+01 -2.158388137817382812e+01 -7.551117539405822754e-01 -1.460932195186614990e-01 -2.703614830970764160e-01 -3.468731641769409180e-01
1.350000000000000000e+02 4.637302017211914062e+01 -2.181775856018066406e+01 4.158303737640380859e-01 3.537997007369995117e-01 2.308890223503112793e-01 3.792156279087066650e-01
1.360000000000000000e+02 4.629179000854492188e+01 -2.145112037658691406e+01 -8.551140874624252319e-02 1.707069426774978638e-01 2.555866166949272156e-02 7.784085720777511597e-02
1.370000000000000000e+02 4.548311996459960938e+01 -2.105612754821777344e+01 -1.283276796340942383e+00 -1.512979418039321899e-01 -4.303724169731140137e-01 -4.463907480239868164e-01
1.380000000000000000e+02 4.610702514648437500e+01 -2.106769943237304688e+01 -1.038185834884643555e+00 2.318596700206398964e-03 -3.107601702213287354e-01 -3.201829791069030762e-01
1.390000000000000000e+02 4.378152847290039062e+01 -2.175657653808593750e+01 -5.600720047950744629e-01 -1.166156977415084839e-01 -2.030063122510910034e-01 -2.955873906612396240e-01
1.400000000000000000e+02 4.600188446044921875e+01 -2.085928153991699219e+01 -1.518634676933288574e+00 -9.340224415063858032e-02 -4.836110472679138184e-01 -4.511226117610931396e-01
1.410000000000000000e+02 4.621014785766601562e+01 -2.126238441467285156e+01 -6.017273664474487305e-01 1.079927310347557068e-01 -1.481203883886337280e-01 -1.400747150182723999e-01
1.420000000000000000e+02 4.606935119628906250e+01 -2.159025573730468750e+01 -4.433891177177429199e-02 2.777270972728729248e-01 7.001645117998123169e-02 6.740592420101165771e-02
1.430000000000000000e+02 4.542826461791992188e+01 -2.212914848327636719e+01 9.747429937124252319e-02 1.693724542856216431e-01 8.005402982234954834e-02 2.653222903609275818e-02
1.440000000000000000e+02 4.498379898071289062e+01 -2.132980728149414062e+01 -9.452949166297912598e-01 -1.273412555456161499e-01 -3.217908442020416260e-01 -4.091702401638031006e-01
1.450000000000000000e+02 4.542668914794921875e+01 -2.164060401916503906e+01 -4.232990443706512451e-01 -2.044216170907020569e-02 -1.331223547458648682e-01 -2.080040127038955688e-01
1.460000000000000000e+02 4.616965484619140625e+01 -2.175643539428710938e+01 2.322989702224731445e-01 3.128649592399597168e-01 1.635491698980331421e-01 2.672658860683441162e-01
1.470000000000000000e+02 4.635769653320312500e+01 -2.163183975219726562e+01 2.624046802520751953e-01 2.789891660213470459e-01 1.624181568622589111e-01 2.256972044706344604e-01
1.480000000000000000e+02 4.582691955566406250e+01 -2.168420219421386719e+01 -1.170143857598304749e-01 1.878964155912399292e-01 2.126461081206798553e-02 -9.489367716014385223e-03
1.490000000000000000e+02 4.592943572998046875e+01 -2.196976470947265625e+01 2.693875432014465332e-01 3.847755789756774902e-01 1.962489336729049683e-01 2.006557136774063110e-01
1.500000000000000000e+02 4.637030410766601562e+01 -2.075730895996093750e+01 -1.609845876693725586e+00 -9.621551632881164551e-02 -5.118184089660644531e-01 -3.677222132682800293e-01
1.510000000000000000e+02 4.958037948608398438e+01 -2.102533912658691406e+01 1.256139278411865234e+00 1.929791069030761719e+01 6.166214942932128906e+00 -9.479196667671203613e-01
1.520000000000000000e+02 5.034412384033203125e+01 -2.055155754089355469e+01 7.520345687866210938e+00 1.364617919921875000e+01 6.349957466125488281e+00 -4.483498096466064453e+00
1.530000000000000000e+02 5.011310195922851562e+01 -1.936213493347167969e+01 6.633875370025634766e+00 1.545940685272216797e+01 6.627984523773193359e+00 5.344570279121398926e-01
1.540000000000000000e+02 5.045528030395507812e+01 -1.986371994018554688e+01 8.156971931457519531e+00 1.248587322235107422e+01 6.192853927612304688e+00 -1.650404810905456543e+00
1.550000000000000000e+02 5.013911437988281250e+01 -1.958927726745605469e+01 9.954305648803710938e+00 1.505071926116943359e+01 7.501507759094238281e+00 7.604943513870239258e-01
1.560000000000000000e+02 4.995814132690429688e+01 -1.918757247924804688e+01 4.125049114227294922e+00 1.692303848266601562e+01 6.314426422119140625e+00 -2.614778876304626465e-01
1.570000000000000000e+02 4.936291885375976562e+01 -1.891197395324707031e+01 1.328239679336547852e+00 1.661630630493164062e+01 5.383363723754882812e+00 -4.986120700836181641e+00
1.580000000000000000e+02 4.819891738891601562e+01 -1.884702491760253906e+01 3.378728866577148438e+00 5.150104045867919922e+00 2.558650016784667969e+00 -6.118603706359863281e+00
1.590000000000000000e+02 4.669080734252929688e+01 -2.042393112182617188e+01 -3.697526931762695312e+00 -1.617296338081359863e-01 -1.157776951789855957e+00 -7.432032227516174316e-01
1.600000000000000000e+02 4.813196563720703125e+01 -1.920345878601074219e+01 4.543600559234619141e+00 3.035016536712646484e+00 2.273585081100463867e+00 -5.463904857635498047e+00
1.610000000000000000e+02 4.886872482299804688e+01 -1.898920440673828125e+01 2.871201276779174805e+00 1.320816040039062500e+01 4.823808670043945312e+00 -7.523871421813964844e+00
1.620000000000000000e+02 4.997060775756835938e+01 -2.072580718994140625e+01 5.639079093933105469e+00 1.818170356750488281e+01 7.146234512329101562e+00 -4.910418987274169922e+00
1.630000000000000000e+02 4.912902069091796875e+01 -2.118238830566406250e+01 8.564659357070922852e-01 1.459132766723632812e+01 4.634338378906250000e+00 3.640114784240722656e+00
1.640000000000000000e+02 4.666188049316406250e+01 -2.198595237731933594e+01 8.119534850120544434e-01 1.082663059234619141e+00 5.683850049972534180e-01 8.746283650398254395e-01
1.650000000000000000e+02 4.662657165527343750e+01 -2.176778793334960938e+01 5.199256539344787598e-01 6.729198098182678223e-01 3.578536212444305420e-01 5.145518779754638672e-01
1.660000000000000000e+02 4.668139648437500000e+01 -2.142833709716796875e+01 2.112272828817367554e-01 3.161503076553344727e-01 1.582132726907730103e-01 3.204572200775146484e-01
1.670000000000000000e+02 4.888132476806640625e+01 -2.115167999267578125e+01 1.598926186561584473e+00 1.134681129455566406e+01 3.883721351623535156e+00 4.916550636291503906e+00
1.680000000000000000e+02 4.866329956054687500e+01 -2.107616424560546875e+01 2.422477483749389648e+00 7.680293560028076172e+00 3.030831336975097656e+00 4.962777614593505859e+00
1.690000000000000000e+02 4.821283721923828125e+01 -2.165209388732910156e+01 1.631052255630493164e+00 4.838897228240966797e+00 1.940984845161437988e+00 3.332159280776977539e+00
1.700000000000000000e+02 4.602336502075195312e+01 -1.929419326782226562e+01 -4.271953999996185303e-01 4.008097052574157715e-01 -7.915708236396312714e-03 -9.556949734687805176e-01
1.710000000000000000e+02 4.621134185791015625e+01 -1.961883163452148438e+01 -1.011118531227111816e+00 1.673714518547058105e-01 -2.531241476535797119e-01 -7.176887392997741699e-01
1.720000000000000000e+02 4.608254241943359375e+01 -1.969104957580566406e+01 -1.268104910850524902e+00 -3.860399499535560608e-02 -3.920126557350158691e-01 -5.305727720260620117e-01
1.730000000000000000e+02 4.688353347778320312e+01 -2.037565612792968750e+01 -3.580676078796386719e+00 -1.330025047063827515e-01 -1.114103555679321289e+00 -7.305010557174682617e-01
1.740000000000000000e+02 4.722867965698242188e+01 -1.907473945617675781e+01 1.852956175804138184e+00 9.429411292076110840e-01 8.387691974639892578e-01 -2.732808351516723633e+00
1.750000000000000000e+02 4.832052230834960938e+01 -1.935567474365234375e+01 5.341736793518066406e+00 3.129719972610473633e+00 2.541437149047851562e+00 -5.839768886566162109e+00
1.760000000000000000e+02 4.866301727294921875e+01 -1.906286048889160156e+01 4.207271575927734375e+00 9.015021324157714844e+00 3.966687917709350586e+00 -8.116485595703125000e+00
1.770000000000000000e+02 4.630442047119140625e+01 -2.050853729248046875e+01 -3.977055311203002930e+00 -3.004183471202850342e-01 -1.283242106437683105e+00 -8.570334315299987793e-01
1.780000000000000000e+02 4.636012268066406250e+01 -1.952656745910644531e+01 -6.289309859275817871e-01 1.133271306753158569e-01 -1.546811610460281372e-01 -8.980869650840759277e-01
1.790000000000000000e+02 4.605584335327148438e+01 -1.950724601745605469e+01 -9.409562349319458008e-01 1.387192457914352417e-01 -2.406710982322692871e-01 -6.721894145011901855e-01
1.800000000000000000e+02 4.727530670166015625e+01 -2.027445602416992188e+01 -3.325124979019165039e+00 -1.478579193353652954e-01 -1.041894912719726562e+00 -7.069475650787353516e-01
1.810000000000000000e+02 4.742185592651367188e+01 -1.993247413635253906e+01 -8.599821925163269043e-01 -1.221051588654518127e-01 -2.946262061595916748e-01 -8.636862635612487793e-01
1.820000000000000000e+02 4.687681961059570312e+01 -1.938292503356933594e+01 4.456457495689392090e-01 2.287776321172714233e-01 2.023270130157470703e-01 -1.490826725959777832e+00
1.830000000000000000e+02 4.807777786254882812e+01 -2.016192436218261719e+01 -2.673966169357299805e+00 -2.255389243364334106e-01 -8.698515295982360840e-01 -5.654397010803222656e-01
1.840000000000000000e+02 5.021660614013671875e+01 -1.991643905639648438e+01 1.084976863861083984e+01 1.462656116485595703e+01 7.642898559570312500e+00 -1.305133223533630371e+00
1.850000000000000000e+02 4.957968521118164062e+01 -1.895481872558593750e+01 2.445157051086425781e+00 1.709675025939941406e+01 5.862572193145751953e+00 -2.553957223892211914e+00
1.860000000000000000e+02 4.811634063720703125e+01 -1.972846031188964844e+01 3.122461557388305664e+00 2.077034264802932739e-01 9.990494847297668457e-01 -2.266510725021362305e+00
1.870000000000000000e+02 4.812950134277343750e+01 -2.039132499694824219e+01 -1.129394531250000000e+00 -1.107435002923011780e-01 -3.720414042472839355e-01 -1.573879718780517578e-01
1.880000000000000000e+02 4.798371505737304688e+01 -2.067993164062500000e+01 6.992602944374084473e-01 4.758315980434417725e-01 3.525275588035583496e-01 8.879763484001159668e-01
1.890000000000000000e+02 4.847589874267578125e+01 -2.096026420593261719e+01 2.857526779174804688e+00 4.971339225769042969e+00 2.348659753799438477e+00 4.284022331237792969e+00
1.900000000000000000e+02 4.962239456176757812e+01 -2.119490814208984375e+01 1.128645777702331543e+00 1.775797080993652344e+01 5.665985107421875000e+00 -1.086374759674072266e+00
1.910000000000000000e+02 4.982113265991210938e+01 -2.101323699951171875e+01 2.798671722412109375e+00 1.825210762023925781e+01 6.315233707427978516e+00 -2.791785478591918945e+00
1.920000000000000000e+02 5.020667648315429688e+01 -2.040251159667968750e+01 9.744559288024902344e+00 1.437404632568359375e+01 7.235581874847412109e+00 -4.110222339630126953e+00
1.930000000000000000e+02 4.695592880249023438e+01 -2.063556671142578125e+01 -1.707665324211120605e+00 -7.756548374891281128e-02 -5.355692505836486816e-01 -3.494215011596679688e-01
1.940000000000000000e+02 4.742324447631835938e+01 -2.179727363586425781e+01 1.198776841163635254e+00 1.953027844429016113e+00 9.455413818359375000e-01 1.705841660499572754e+00
1.950000000000000000e+02 4.647597122192382812e+01 -2.118550872802734375e+01 -5.045856237411499023e-01 1.733651757240295410e-02 -1.461747288703918457e-01 -7.293809205293655396e-02
1.960000000000000000e+02 5.040161514282226562e+01 -1.952489089965820312e+01 7.895675182342529297e+00 1.339102268218994141e+01 6.386009216308593750e+00 4.950139820575714111e-01
1.970000000000000000e+02 4.896075439453125000e+01 -2.151959991455078125e+01 5.947067737579345703e-01 1.151124095916748047e+01 3.631784439086914062e+00 3.804026842117309570e+00
1.980000000000000000e+02 4.917795562744140625e+01 -2.145126533508300781e+01 1.993827819824218750e-01 1.354730701446533203e+01 4.124007225036621094e+00 2.863580226898193359e+00
1.990000000000000000e+02 4.978717422485351562e+01 -2.128578948974609375e+01 8.214953541755676270e-01 1.668274307250976562e+01 5.251271724700927734e+00 -1.581441998481750488e+00
2.000000000000000000e+02 5.000637817382812500e+01 -2.080149650573730469e+01 5.151972293853759766e+00 1.792962265014648438e+01 6.924478530883789062e+00 -4.812137126922607422e+00
2.010000000000000000e+02 4.719599151611328125e+01 -2.081084251403808594e+01 -7.891894578933715820e-01 -3.661928931251168251e-03 -2.378554046154022217e-01 -7.239951193332672119e-02
2.020000000000000000e+02 4.984671401977539062e+01 -2.091364479064941406e+01 3.753298282623291016e+00 1.877061271667480469e+01 6.757173061370849609e+00 -3.842710494995117188e+00
2.030000000000000000e+02 4.793061065673828125e+01 -2.044307708740234375e+01 -1.279569149017333984e+00 2.218750678002834320e-02 -3.772144913673400879e-01 -1.762059777975082397e-01
2.040000000000000000e+02 4.756712341308593750e+01 -2.076374626159667969e+01 -2.319294512271881104e-01 2.002265155315399170e-01 -9.510882198810577393e-03 2.248044610023498535e-01
2.050000000000000000e+02 4.941091156005859375e+01 -2.143683624267578125e+01 1.196177024394273758e-02 1.429667472839355469e+01 4.292590618133544922e+00 1.823558807373046875e+00
2.060000000000000000e+02 5.005379486083984375e+01 -2.087805747985839844e+01 4.830939292907714844e+00 1.694281196594238281e+01 6.532124996185302734e+00 -4.486914157867431641e+00
2.070000000000000000e+02 4.983072280883789062e+01 -2.085306549072265625e+01 4.068014144897460938e+00 1.945196151733398438e+01 7.055993080139160156e+00 -4.309557914733886719e+00
2.080000000000000000e+02 5.050649261474609375e+01 -2.017287063598632812e+01 9.535184860229492188e+00 1.169860172271728516e+01 6.370136260986328125e+00 -3.008766174316406250e+00
2.090000000000000000e+02 4.881516265869140625e+01 -1.874024581909179688e+01 2.313751935958862305e+00 1.067605972290039062e+01 3.896943569183349609e+00 -6.997972965240478516e+00
2.100000000000000000e+02 4.681978225708007812e+01 -1.913552093505859375e+01 8.789508938789367676e-01 5.495020747184753418e-01 4.285358786582946777e-01 -1.896944761276245117e+00
2.110000000000000000e+02 4.847523880004882812e+01 -1.918818855285644531e+01 5.102531909942626953e+00 6.330453395843505859e+00 3.429895639419555664e+00 -7.521362781524658203e+00
2.120000000000000000e+02 4.819827270507812500e+01 -1.953346252441406250e+01 4.749126434326171875e+00 1.446619272232055664e+00 1.858723759651184082e+00 -4.121585369110107422e+00
2.130000000000000000e+02 4.918412780761718750e+01 -1.873132133483886719e+01 7.528311014175415039e-01 1.553577327728271484e+01 4.886581420898437500e+00 -5.735261917114257812e+00
2.140000000000000000e+02 4.908951568603515625e+01 -1.895885848999023438e+01 1.741077542304992676e+00 1.629218292236328125e+01 5.409978389739990234e+00 -7.314630031585693359e+00
2.150000000000000000e+02 4.973009490966796875e+01 -1.910086631774902344e+01 3.118754863739013672e+00 2.005446052551269531e+01 6.951964378356933594e+00 -4.243454039096832275e-01
2.160000000000000000e+02 4.989719009399414062e+01 -1.893692016601562500e+01 2.870709896087646484e+00 1.697324371337890625e+01 5.953186035156250000e+00 -4.788516461849212646e-01
2.170000000000000000e+02 5.027514648437500000e+01 -1.967922210693359375e+01 1.007026386260986328e+01 1.459200096130371094e+01 7.398679256439208984e+00 5.426163673400878906e-01
2.180000000000000000e+02 4.764035797119140625e+01 -1.897895050048828125e+01 2.679368019104003906e+00 1.900657176971435547e+00 1.374007582664489746e+00 -4.012206077575683594e+00
2.190000000000000000e+02 4.787417602539062500e+01 -1.963649940490722656e+01 2.392149448394775391e+00 3.285976946353912354e-01 8.162241578102111816e-01 -2.303827524185180664e+00
2.200000000000000000e+02 4.859949874877929688e+01 -1.879688262939453125e+01 2.900504827499389648e+00 9.268725395202636719e+00 3.650769233703613281e+00 -7.417758941650390625e+00
2.210000000000000000e+02 4.860490417480468750e+01 -2.133795547485351562e+01 1.857365846633911133e+00 7.710228443145751953e+00 2.870278358459472656e+00 4.431879043579101562e+00
2.220000000000000000e+02 4.860170745849609375e+01 -2.158889007568359375e+01 1.144548654556274414e+00 7.988162994384765625e+00 2.739813566207885742e+00 3.880682706832885742e+00
2.230000000000000000e+02 4.882243347167968750e+01 -2.137883186340332031e+01 1.136901021003723145e+00 1.024427032470703125e+01 3.414351463317871094e+00 4.335843563079833984e+00
2.240000000000000000e+02 4.840766143798828125e+01 -2.162012863159179688e+01 1.469866871833801270e+00 6.420074939727783203e+00 2.366982460021972656e+00 3.706280231475830078e+00
2.250000000000000000e+02 4.714714813232421875e+01 -2.059550857543945312e+01 -1.685590982437133789e+00 -4.704232141375541687e-02 -5.197899937629699707e-01 -3.390093147754669189e-01
2.260000000000000000e+02 4.669964218139648438e+01 -2.120008468627929688e+01 -2.184839099645614624e-01 1.675704121589660645e-01 -1.527405157685279846e-02 6.611063331365585327e-02
2.270000000000000000e+02 4.753294754028320312e+01 -2.052417373657226562e+01 -1.588032841682434082e+00 4.084342718124389648e-02 -4.641568064689636230e-01 -2.791725993156433105e-01
2.280000000000000000e+02 4.733898162841796875e+01 -2.055924797058105469e+01 -1.648718118667602539e+00 -8.770450949668884277e-02 -5.209267735481262207e-01 -3.244826793670654297e-01
2.290000000000000000e+02 4.690251922607421875e+01 -2.151850128173828125e+01 5.320644378662109375e-01 6.649096012115478516e-01 3.590922355651855469e-01 6.591434478759765625e-01
2.300000000000000000e+02 4.657300186157226562e+01 -2.072238922119140625e+01 -1.659063696861267090e+00 -7.401900738477706909e-02 -5.199248194694519043e-01 -3.850177228450775146e-01
2.310000000000000000e+02 4.668299865722656250e+01 -1.938489341735839844e+01 1.110181733965873718e-01 2.259702086448669434e-01 1.010965108871459961e-01 -1.293639183044433594e+00
2.320000000000000000e+02 4.707717514038085938e+01 -2.032299232482910156e+01 -3.452560901641845703e+00 -1.372683495283126831e-01 -1.076948761940002441e+00 -7.255634069442749023e-01
2.330000000000000000e+02 4.769160461425781250e+01 -2.022757530212402344e+01 -3.080458164215087891e+00 -1.725495308637619019e-01 -9.759023189544677734e-01 -6.366384625434875488e-01
2.340000000000000000e+02 4.787871170043945312e+01 -2.020341491699218750e+01 -2.833268880844116211e+00 -5.727668479084968567e-02 -8.671636581420898438e-01 -6.561052203178405762e-01
2.350000000000000000e+02 4.775902175903320312e+01 -2.004941177368164062e+01 -1.543800830841064453e+00 -1.206050962209701538e-01 -4.993217885494232178e-01 -7.680745124816894531e-01
2.360000000000000000e+02 4.623411560058593750e+01 -1.926644325256347656e+01 -2.558401525020599365e-01 2.829885482788085938e-01 8.144526742398738861e-03 -1.029774904251098633e+00
2.370000000000000000e+02 4.800492477416992188e+01 -1.888036537170410156e+01 3.413181304931640625e+00 3.589983463287353516e+00 2.100949525833129883e+00 -5.500788211822509766e+00
2.380000000000000000e+02 4.702225875854492188e+01 -1.910657882690429688e+01 1.280725002288818359e+00 6.788610219955444336e-01 5.878758430480957031e-01 -2.202380418777465820e+00
2.390000000000000000e+02 4.794725799560546875e+01 -1.906697273254394531e+01 3.676567316055297852e+00 2.666006565093994141e+00 1.902772188186645508e+00 -4.899600028991699219e+00
2.400000000000000000e+02 4.743795776367187500e+01 -1.903504371643066406e+01 2.385312080383300781e+00 1.365141630172729492e+00 1.125136137008666992e+00 -3.358487129211425781e+00
2.410000000000000000e+02 4.839261245727539062e+01 -1.881808662414550781e+01 3.527044534683227539e+00 6.862061500549316406e+00 3.116731882095336914e+00 -7.187358856201171875e+00
2.420000000000000000e+02 4.650331878662109375e+01 -2.138422966003417969e+01 -8.406351506710052490e-02 1.336122453212738037e-01 1.486461702734231949e-02 9.912259131669998169e-02
2.430000000000000000e+02 4.685747146606445312e+01 -2.175805091857910156e+01 7.649504542350769043e-01 8.643608689308166504e-01 4.887933731079101562e-01 8.626132011413574219e-01
2.440000000000000000e+02 4.656265640258789062e+01 -2.156645202636718750e+01 3.238449990749359131e-01 3.535701036453247070e-01 2.032245397567749023e-01 3.549816906452178955e-01
2.450000000000000000e+02 4.637467575073242188e+01 -2.004498100280761719e+01 -2.119337320327758789e+00 -1.558060348033905029e-01 -6.825429797172546387e-01 -6.020074486732482910e-01
2.460000000000000000e+02 4.643851470947265625e+01 -2.025540542602539062e+01 -2.986566781997680664e+00 -1.959346532821655273e-01 -9.547504186630249023e-01 -7.072168588638305664e-01
2.470000000000000000e+02 4.619830322265625000e+01 -2.009384918212890625e+01 -2.272532463073730469e+00 -1.312631368637084961e-01 -7.211386561393737793e-01 -4.717457294464111328e-01
2.480000000000000000e+02 4.819993591308593750e+01 -2.060390090942382812e+01 1.243960618972778320e+00 8.534665703773498535e-01 6.292281746864318848e-01 1.238929867744445801e+00
2.490000000000000000e+02 4.649828338623046875e+01 -2.046759605407714844e+01 -3.813033580780029297e+00 -1.356630176305770874e-01 -1.184608936309814453e+00 -7.689221501350402832e-01
2.500000000000000000e+02 4.762340927124023438e+01 -2.176420783996582031e+01 1.373572230339050293e+00 2.424295663833618164e+00 1.139360427856445312e+00 2.056100845336914062e+00
2.510000000000000000e+02 4.798531723022460938e+01 -2.091200828552246094e+01 1.597067594528198242e+00 1.149103760719299316e+00 8.238514065742492676e-01 1.658770561218261719e+00
2.520000000000000000e+02 4.839771652221679688e+01 -2.136446189880371094e+01 2.065316438674926758e+00 5.764779567718505859e+00 2.349028825759887695e+00 4.028122425079345703e+00
2.530000000000000000e+02 4.797089385986328125e+01 -2.113351821899414062e+01 1.848820567131042480e+00 2.230207204818725586e+00 1.223708271980285645e+00 2.344496965408325195e+00
2.540000000000000000e+02 4.801723861694335938e+01 -2.168350791931152344e+01 1.645482063293457031e+00 3.898679494857788086e+00 1.663248538970947266e+00 2.863510608673095703e+00
2.550000000000000000e+02 4.782048034667968750e+01 -2.172566604614257812e+01 1.543100833892822266e+00 3.114805459976196289e+00 1.397371888160705566e+00 2.547140598297119141e+00
2.560000000000000000e+02 4.701659011840820312e+01 -2.084989356994628906e+01 -8.592409491539001465e-01 3.688809275627136230e-02 -2.467058598995208740e-01 -1.023711264133453369e-01
2.570000000000000000e+02 4.665454101562500000e+01 -2.095774269104003906e+01 -8.989909291267395020e-01 1.692855358123779297e-02 -2.646187245845794678e-01 -1.817221194505691528e-01
2.580000000000000000e+02 4.830458831787109375e+01 -2.116888999938964844e+01 2.333915472030639648e+00 4.230737209320068359e+00 1.969395756721496582e+00 3.621141195297241211e+00
2.590000000000000000e+02 4.662019348144531250e+01 -1.916715621948242188e+01 4.424744844436645508e-01 4.243455827236175537e-01 2.600460052490234375e-01 -1.555904388427734375e+00
2.600000000000000000e+02 4.652275466918945312e+01 -1.944004249572753906e+01 -3.018958866596221924e-01 1.983556300401687622e-01 -3.106207773089408875e-02 -1.071024537086486816e+00
2.610000000000000000e+02 4.820639801025390625e+01 -2.138712692260742188e+01 2.003924131393432617e+00 4.024797916412353516e+00 1.808616638183593750e+00 3.244283199310302734e+00
2.620000000000000000e+02 4.831759262084960938e+01 -2.079742622375488281e+01 2.510891675949096680e+00 2.205969333648681641e+00 1.415058374404907227e+00 2.778005361557006836e+00
2.630000000000000000e+02 4.807210159301757812e+01 -1.994106101989746094e+01 5.535876750946044922e-01 3.584794176276773214e-04 1.661838442087173462e-01 -1.152429461479187012e+00
2.640000000000000000e+02 4.738039398193359375e+01 -2.151826858520507812e+01 1.131329417228698730e+00 1.317447662353515625e+00 7.346331477165222168e-01 1.364999175071716309e+00
2.650000000000000000e+02 4.732096481323242188e+01 -2.128098106384277344e+01 8.144909739494323730e-01 8.515068292617797852e-01 4.997993409633636475e-01 9.593231081962585449e-01
2.660000000000000000e+02 4.737371444702148438e+01 -2.078471565246582031e+01 -5.206425786018371582e-01 1.785079985857009888e-01 -1.026403754949569702e-01 9.202836453914642334e-02
2.670000000000000000e+02 4.692813491821289062e+01 -2.125577163696289062e+01 1.871656030416488647e-01 3.152869045734405518e-01 1.507357507944107056e-01 3.651252090930938721e-01
2.680000000000000000e+02 4.736073684692382812e+01 -1.963945579528808594e+01 5.357710719108581543e-01 1.120287701487541199e-01 1.943399608135223389e-01 -1.527036070823669434e+00
2.690000000000000000e+02 4.712549209594726562e+01 -1.966476440429687500e+01 -8.201454579830169678e-02 -4.263231065124273300e-03 -2.588333375751972198e-02 -1.194463372230529785e+00
2.700000000000000000e+02 4.797199249267578125e+01 -1.940630531311035156e+01 3.603773593902587891e+00 1.124247431755065918e+00 1.418406248092651367e+00 -3.623073339462280273e+00
2.710000000000000000e+02 4.730514526367187500e+01 -1.935663032531738281e+01 1.364906907081604004e+00 4.242424666881561279e-01 5.367448329925537109e-01 -2.086025714874267578e+00
2.720000000000000000e+02 4.799399948120117188e+01 -2.139390182495117188e+01 1.783006072044372559e+00 3.075154542922973633e+00 1.457448124885559082e+00 2.667839527130126953e+00
2.730000000000000000e+02 4.715266036987304688e+01 -2.155215835571289062e+01 8.359835147857666016e-01 9.798430800437927246e-01 5.447479486465454102e-01 1.036416530609130859e+00
2.740000000000000000e+02 4.647063827514648438e+01 -1.977068710327148438e+01 -1.178512930870056152e+00 -4.288247227668762207e-02 -3.664186298847198486e-01 -7.202301621437072754e-01
2.750000000000000000e+02 5.014202880859375000e+01 -2.069097328186035156e+01 6.391877174377441406e+00 1.567536640167236328e+01 6.620173454284667969e+00 -4.464298248291015625e+00
2.760000000000000000e+02 4.614287567138671875e+01 -1.988747978210449219e+01 -1.691866159439086914e+00 1.892841421067714691e-02 -5.018813014030456543e-01 -5.263806581497192383e-01
2.770000000000000000e+02 4.642643737792968750e+01 -1.921161270141601562e+01 6.969119608402252197e-02 3.841668963432312012e-01 1.361574232578277588e-01 -1.296059131622314453e+00
2.780000000000000000e+02 4.630650711059570312e+01 -1.983127212524414062e+01 -1.458364248275756836e+00 -4.956949874758720398e-02 -4.523801505565643311e-01 -5.903750658035278320e-01
2.790000000000000000e+02 4.625211715698242188e+01 -2.030101776123046875e+01 -2.953903436660766602e+00 -3.239765167236328125e-01 -9.833640456199645996e-01 -6.703500747680664062e-01
2.800000000000000000e+02 4.708503723144531250e+01 -1.937734794616699219e+01 8.617500066757202148e-01 3.497484922409057617e-01 3.634495437145233154e-01 -1.796151161193847656e+00
2.810000000000000000e+02 4.754754257202148438e+01 -1.931925392150878906e+01 2.250395059585571289e+00 6.900827288627624512e-01 8.821433186531066895e-01 -2.746769666671752930e+00
2.820000000000000000e+02 4.761154556274414062e+01 -1.960550308227539062e+01 1.423934221267700195e+00 1.921104043722152710e-01 4.848133921623229980e-01 -1.902018666267395020e+00
2.830000000000000000e+02 4.782250595092773438e+01 -1.891053390502929688e+01 3.017666339874267578e+00 2.559940576553344727e+00 1.673282027244567871e+00 -4.642549991607666016e+00
2.840000000000000000e+02 4.777293014526367188e+01 -1.922121810913085938e+01 3.224837303161621094e+00 1.397571802139282227e+00 1.386722683906555176e+00 -3.723079919815063477e+00
2.850000000000000000e+02 4.830568313598632812e+01 -1.902169227600097656e+01 4.073087692260742188e+00 5.288640975952148438e+00 2.808518648147583008e+00 -6.541881084442138672e+00
2.860000000000000000e+02 4.680096054077148438e+01 -2.014070510864257812e+01 -2.544842481613159180e+00 -1.496686041355133057e-01 -8.083533048629760742e-01 -6.903365850448608398e-01
2.870000000000000000e+02 4.662012481689453125e+01 -2.020434761047363281e+01 -2.838384866714477539e+00 -1.354469805955886841e-01 -8.921495676040649414e-01 -6.899314522743225098e-01
2.880000000000000000e+02 4.698277282714843750e+01 -2.004713630676269531e+01 -2.003136873245239258e+00 -1.001250222325325012e-01 -6.309785842895507812e-01 -7.211329936981201172e-01
2.890000000000000000e+02 4.748501968383789062e+01 -2.023423767089843750e+01 -3.195293664932250977e+00 -1.400340795516967773e-01 -1.000598311424255371e+00 -6.857863068580627441e-01
2.900000000000000000e+02 4.784821701049804688e+01 -1.987917709350585938e+01 3.227954506874084473e-01 -1.432532966136932373e-01 5.386264994740486145e-02 -1.103530168533325195e+00
2.910000000000000000e+02 4.676557922363281250e+01 -2.067891693115234375e+01 -1.704350709915161133e+00 -5.954196304082870483e-02 -5.291677713394165039e-01 -3.686857521533966064e-01
2.920000000000000000e+02 4.642956161499023438e+01 -2.097258949279785156e+01 -1.042476415634155273e+00 -5.162076652050018311e-02 -3.282291591167449951e-01 -2.483722865581512451e-01
2.930000000000000000e+02 4.702163314819335938e+01 -2.189847755432128906e+01 9.390236139297485352e-01 1.282058119773864746e+00 6.663245558738708496e-01 1.150715947151184082e+00
2.940000000000000000e+02 4.685233688354492188e+01 -2.195601463317871094e+01 8.655692338943481445e-01 1.090908527374267578e+00 5.869433283805847168e-01 9.605897665023803711e-01
2.950000000000000000e+02 4.684320449829101562e+01 -2.090008354187011719e+01 -8.669894337654113770e-01 1.664941571652889252e-02 -2.551020085811614990e-01 -1.547405719757080078e-01
2.960000000000000000e+02 4.721076202392578125e+01 -2.183232307434082031e+01 1.094334602355957031e+00 1.447280168533325195e+00 7.624844312667846680e-01 1.351121306419372559e+00
2.970000000000000000e+02 4.748111724853515625e+01 -2.113446807861328125e+01 8.140547275543212891e-01 6.899784207344055176e-01 4.512099623680114746e-01 9.325564503669738770e-01
2.980000000000000000e+02 4.776912307739257812e+01 -2.071149444580078125e+01 7.546878606081008911e-02 3.809512257575988770e-01 1.369259953498840332e-01 4.532458186149597168e-01
2.990000000000000000e+02 4.773041915893554688e+01 -2.048417854309082031e+01 -1.454673051834106445e+00 -5.967332795262336731e-02 -4.543038904666900635e-01 -1.932031959295272827e-01
3.000000000000000000e+02 4.758921813964843750e+01 -2.150164604187011719e+01 1.318322181701660156e+00 1.778759241104125977e+00 9.291244745254516602e-01 1.755756378173828125e+00
3.010000000000000000e+02 4.778172302246093750e+01 -2.146493148803710938e+01 1.596197724342346191e+00 2.320554018020629883e+00 1.175025463104248047e+00 2.183223962783813477e+00
3.020000000000000000e+02 4.878744888305664062e+01 -2.157196998596191406e+01 1.046194076538085938e+00 9.193652153015136719e+00 3.071953773498535156e+00 3.834310770034790039e+00
3.030000000000000000e+02 4.938501358032226562e+01 -2.111939239501953125e+01 6.015628576278686523e-01 1.776706314086914062e+01 5.510588169097900391e+00 1.107579469680786133e+00
3.040000000000000000e+02 5.023513412475585938e+01 -2.088989257812500000e+01 5.490081787109375000e+00 1.463810825347900391e+01 6.038456916809082031e+00 -4.500282764434814453e+00
3.050000000000000000e+02 5.017833709716796875e+01 -1.975508499145507812e+01 1.057877349853515625e+01 1.482703304290771484e+01 7.621741771697998047e+00 4.738643169403076172e-01
3.060000000000000000e+02 5.027883529663085938e+01 -2.017395210266113281e+01 1.163450622558593750e+01 1.373158359527587891e+01 7.609827041625976562e+00 -3.255379915237426758e+00
3.070000000000000000e+02 5.032256698608398438e+01 -1.984816551208496094e+01 8.898945808410644531e+00 1.394128799438476562e+01 6.852070331573486328e+00 -6.155374050140380859e-01
3.080000000000000000e+02 4.970522308349609375e+01 -2.094728469848632812e+01 2.429977416992187500e+00 1.924339675903320312e+01 6.502012252807617188e+00 -2.145113706588745117e+00
3.090000000000000000e+02 5.009296417236328125e+01 -2.057597732543945312e+01 7.331421375274658203e+00 1.612451744079589844e+01 7.036781787872314453e+00 -4.704703807830810547e+00
3.100000000000000000e+02 5.030500793457031250e+01 -1.998092651367187500e+01 9.937097549438476562e+00 1.337172985076904297e+01 6.992648124694824219e+00 -2.842883110046386719e+00
3.110000000000000000e+02 4.777328491210937500e+01 -2.110930252075195312e+01 1.477769732475280762e+00 1.341425895690917969e+00 8.457586765289306641e-01 1.662810802459716797e+00
3.120000000000000000e+02 4.668114089965820312e+01 -1.957287216186523438e+01 -5.151370167732238770e-01 6.346692889928817749e-02 -1.355010122060775757e-01 -1.053418517112731934e+00
3.130000000000000000e+02 4.689640426635742188e+01 -1.963572883605957031e+01 -4.049841761589050293e-01 4.237481206655502319e-02 -1.087828129529953003e-01 -1.091182231903076172e+00
3.140000000000000000e+02 4.764036941528320312e+01 -1.987624359130859375e+01 -1.323340982198715210e-01 -9.749486297369003296e-02 -6.894868612289428711e-02 -1.087150692939758301e+00
3.150000000000000000e+02 4.731352233886718750e+01 -2.097446441650390625e+01 -2.740542776882648468e-02 2.878504991531372070e-01 7.813352346420288086e-02 3.300276398658752441e-01
3.160000000000000000e+02 4.699263381958007812e+01 -2.104465103149414062e+01 -2.541642487049102783e-01 1.523799002170562744e-01 -3.053530305624008179e-02 9.804566204547882080e-02
3.170000000000000000e+02 4.815020370483398438e+01 -2.100612831115722656e+01 2.134432792663574219e+00 2.506606101989746094e+00 1.392311692237854004e+00 2.632513999938964844e+00
3.180000000000000000e+02 4.779771804809570312e+01 -2.091811943054199219e+01 1.008109569549560547e+00 7.927529215812683105e-01 5.402587652206420898e-01 1.116274714469909668e+00
3.190000000000000000e+02 4.718711090087890625e+01 -2.112966346740722656e+01 2.904126644134521484e-01 3.551476299762725830e-01 1.936680823564529419e-01 4.370555281639099121e-01
3.200000000000000000e+02 4.670465087890625000e+01 -1.994223976135253906e+01 -1.817885279655456543e+00 -9.563972055912017822e-02 -5.740575194358825684e-01 -6.739864945411682129e-01
3.210000000000000000e+02 4.654270935058593750e+01 -1.999374961853027344e+01 -1.978371500968933105e+00 -1.379411667585372925e-01 -6.348938345909118652e-01 -6.383401751518249512e-01
3.220000000000000000e+02 4.665293502807617188e+01 -1.975671577453613281e+01 -9.013634920120239258e-01 -2.490325085818767548e-02 -2.778800129890441895e-01 -8.394601941108703613e-01
3.230000000000000000e+02 4.765748214721679688e+01 -2.128986358642578125e+01 1.425688028335571289e+00 1.569108605384826660e+00 8.984389901161193848e-01 1.680030107498168945e+00
3.240000000000000000e+02 4.683889389038085938e+01 -1.984038543701171875e+01 -1.151857018470764160e+00 -9.795860201120376587e-02 -3.749446868896484375e-01 -8.150420188903808594e-01
3.250000000000000000e+02 4.763274002075195312e+01 -2.097872161865234375e+01 6.836556196212768555e-01 7.093330025672912598e-01 4.178965985774993896e-01 8.512150049209594727e-01
3.260000000000000000e+02 4.718885421752929688e+01 -1.997036170959472656e+01 -1.484603881835937500e+00 -1.211002171039581299e-01 -4.817112386226654053e-01 -7.762801647186279297e-01
3.270000000000000000e+02 4.713953018188476562e+01 -2.131297302246093750e+01 5.531811714172363281e-01 6.253798007965087891e-01 3.535682857036590576e-01 6.907399892807006836e-01
3.280000000000000000e+02 4.591227722167968750e+01 -2.056998252868652344e+01 -3.542819023132324219e+00 -1.614017784595489502e-01 -1.111266255378723145e+00 -8.113142848014831543e-01
3.290000000000000000e+02 4.407006454467773438e+01 -2.045213127136230469e+01 -2.122775554656982422e+00 1.373106539249420166e-01 -5.956394672393798828e-01 -9.179487824440002441e-02
3.300000000000000000e+02 4.569675827026367188e+01 -2.015496635437011719e+01 -2.347333431243896484e+00 1.880726404488086700e-02 -6.985578536987304688e-01 -4.470872879028320312e-01
3.310000000000000000e+02 4.451042175292968750e+01 -2.014602470397949219e+01 -1.927498221397399902e+00 2.022329717874526978e-01 -5.175796151161193848e-01 -1.105447709560394287e-01
3.320000000000000000e+02 4.398179244995117188e+01 -1.997899246215820312e+01 -1.687791466712951660e+00 3.253706991672515869e-01 -4.087262153625488281e-01 7.958395034074783325e-02
3.330000000000000000e+02 4.567662429809570312e+01 -1.990452003479003906e+01 -1.884048342704772949e+00 5.217875912785530090e-02 -5.495608448982238770e-01 -4.790165722370147705e-01
3.340000000000000000e+02 4.588125991821289062e+01 -1.975282096862792969e+01 -1.338101506233215332e+00 4.345521330833435059e-03 -4.001267850399017334e-01 -5.499985218048095703e-01
3.350000000000000000e+02 4.545124053955078125e+01 -1.966478157043457031e+01 -1.413787245750427246e+00 1.394177079200744629e-01 -3.823108673095703125e-01 -4.628195464611053467e-01
3.360000000000000000e+02 4.331362152099609375e+01 -2.017154502868652344e+01 -1.765392541885375977e+00 4.191510081291198730e-01 -4.038724601268768311e-01 2.440408319234848022e-01
3.370000000000000000e+02 4.430580139160156250e+01 -2.090517807006835938e+01 -2.366871356964111328e+00 -9.297882020473480225e-02 -7.379550933837890625e-01 -4.853885173797607422e-01
3.380000000000000000e+02 4.539889526367187500e+01 -2.036641693115234375e+01 -2.778799295425415039e+00 -1.300493329763412476e-01 -8.726545572280883789e-01 -5.192778706550598145e-01
3.390000000000000000e+02 4.361903762817382812e+01 -2.111375808715820312e+01 -1.887844681739807129e+00 -3.082144819200038910e-02 -5.755998492240905762e-01 -3.455179035663604736e-01
3.400000000000000000e+02 4.345158767700195312e+01 -2.064494323730468750e+01 -1.781893968582153320e+00 2.220695912837982178e-01 -4.679473042488098145e-01 3.978687897324562073e-02
3.410000000000000000e+02 4.597561264038085938e+01 -2.031187629699707031e+01 -2.779786586761474609e+00 -5.115177482366561890e-02 -8.492814898490905762e-01 -5.788519382476806641e-01
3.420000000000000000e+02 4.596892929077148438e+01 -2.011852455139160156e+01 -2.249671220779418945e+00 1.017343602143228054e-03 -6.745961904525756836e-01 -4.524426162242889404e-01
3.430000000000000000e+02 4.593476104736328125e+01 -1.992830085754394531e+01 -1.960484743118286133e+00 -4.237358644604682922e-02 -6.008574962615966797e-01 -4.806944727897644043e-01
3.440000000000000000e+02 4.579682159423828125e+01 -1.956569480895996094e+01 -1.083217382431030273e+00 5.844326689839363098e-02 -3.074322342872619629e-01 -4.853888750076293945e-01
3.450000000000000000e+02 4.496978759765625000e+01 -1.981555938720703125e+01 -1.641527414321899414e+00 1.522632986307144165e-01 -4.467792510986328125e-01 -2.062594741582870483e-01
3.460000000000000000e+02 4.493708038330078125e+01 -2.066974639892578125e+01 -2.777218103408813477e+00 -1.165310814976692200e-01 -8.681247830390930176e-01 -6.048737168312072754e-01
3.470000000000000000e+02 4.563516616821289062e+01 -1.937995338439941406e+01 -9.441529512405395508e-01 1.234688088297843933e-01 -2.462052404880523682e-01 -6.081117987632751465e-01
3.480000000000000000e+02 4.150604248046875000e+01 -2.094869995117187500e+01 -1.028183937072753906e+00 -7.016099244356155396e-02 -3.295034468173980713e-01 4.974206387996673584e-01
3.490000000000000000e+02 4.283658981323242188e+01 -2.086176681518554688e+01 -1.591940760612487793e+00 2.732663750648498535e-01 -3.956023156642913818e-01 1.807534992694854736e-01
3.500000000000000000e+02 4.113447189331054688e+01 -2.129509544372558594e+01 -2.650207877159118652e-01 -1.961520761251449585e-01 -1.383518576622009277e-01 2.028582841157913208e-01
3.510000000000000000e+02 4.265045166015625000e+01 -2.040578651428222656e+01 -1.576028704643249512e+00 3.511896133422851562e-01 -3.674517273902893066e-01 3.189828395843505859e-01
3.520000000000000000e+02 4.206066513061523438e+01 -2.068220901489257812e+01 -1.351105928421020508e+00 3.286798298358917236e-01 -3.067278265953063965e-01 4.392753839492797852e-01
3.530000000000000000e+02 4.237675476074218750e+01 -2.122127151489257812e+01 -9.809423685073852539e-01 1.210912093520164490e-01 -2.579553425312042236e-01 1.209005340933799744e-01
3.540000000000000000e+02 4.185032272338867188e+01 -2.161000442504882812e+01 -3.300512433052062988e-01 5.679619312286376953e-02 -8.197651803493499756e-02 8.398277312517166138e-02
3.550000000000000000e+02 4.290772628784179688e+01 -2.134680175781250000e+01 -1.139209985733032227e+00 1.012895163148641586e-02 -3.387243151664733887e-01 -1.394596993923187256e-01
3.560000000000000000e+02 4.183971786499023438e+01 -2.302727508544921875e+01 -5.897273775190114975e-03 -2.946683764457702637e-01 -9.016969054937362671e-02 -3.018018230795860291e-02
3.570000000000000000e+02 4.219042205810546875e+01 -2.229762840270996094e+01 -5.181078612804412842e-02 -1.085574477910995483e-01 -4.811047017574310303e-02 -1.174623146653175354e-01
3.580000000000000000e+02 4.326124572753906250e+01 -2.270085716247558594e+01 -6.310627330094575882e-03 -1.489011347293853760e-01 -4.656352847814559937e-02 -2.952227890491485596e-01
3.590000000000000000e+02 4.302730941772460938e+01 -2.199828910827636719e+01 -3.072406947612762451e-01 -1.141218766570091248e-01 -1.264087706804275513e-01 -2.390158772468566895e-01
3.600000000000000000e+02 4.243085479736328125e+01 -2.299776458740234375e+01 -1.925720274448394775e-02 -2.969124019145965576e-01 -9.485088288784027100e-02 -2.155710756778717041e-01
3.610000000000000000e+02 4.490684509277343750e+01 -2.296166992187500000e+01 3.837512731552124023e-01 3.018432259559631348e-01 2.056783437728881836e-01 7.723223417997360229e-02
3.620000000000000000e+02 4.438413619995117188e+01 -2.407135581970214844e+01 3.907403647899627686e-01 4.850496053695678711e-01 2.627369761466979980e-01 1.560018062591552734e-01
3.630000000000000000e+02 4.557157516479492188e+01 -2.270539855957031250e+01 5.004372596740722656e-01 5.487660765647888184e-01 3.147610127925872803e-01 3.188731074333190918e-01
3.640000000000000000e+02 4.232242584228515625e+01 -2.834813499450683594e+01 1.366061810404062271e-02 -9.355138242244720459e-02 -2.396722882986068726e-02 1.436413973569869995e-01
3.650000000000000000e+02 4.171669387817382812e+01 -3.254811859130859375e+01 -5.915936082601547241e-02 6.106564402580261230e-01 1.654491275548934937e-01 3.031667768955230713e-01
3.660000000000000000e+02 4.204293823242187500e+01 -3.178446006774902344e+01 -1.147274300456047058e-01 6.614630222320556641e-01 1.640206724405288696e-01 3.214259147644042969e-01
3.670000000000000000e+02 3.497719573974609375e+01 -3.337916183471679688e+01 -4.586323797702789307e-01 -2.939497865736484528e-02 -1.464082002639770508e-01 -4.775827378034591675e-02
3.680000000000000000e+02 3.346771240234375000e+01 -3.306931686401367188e+01 -3.393707871437072754e-01 -2.029886282980442047e-02 -1.079008951783180237e-01 -1.118145510554313660e-02
3.690000000000000000e+02 3.304209899902343750e+01 -3.518181991577148438e+01 -1.271386742591857910e-01 -3.133306512609124184e-03 -3.908159211277961731e-02 -1.116830706596374512e-01
3.700000000000000000e+02 2.934016609191894531e+01 -3.193482589721679688e+01 -1.223170012235641479e-01 6.410359404981136322e-03 -3.477199003100395203e-02 1.496800687164068222e-03
3.710000000000000000e+02 2.386322021484375000e+01 -3.151274108886718750e+01 -3.936351090669631958e-02 2.144154394045472145e-03 -1.116580702364444733e-02 -5.426273215562105179e-03
3.720000000000000000e+02 1.836811447143554688e+01 -3.135223960876464844e+01 -1.005024835467338562e-02 3.659134672489017248e-04 -2.905300352722406387e-03 -2.401135163381695747e-03
3.730000000000000000e+02 1.694589424133300781e+01 -3.137526702880859375e+01 -4.977248143404722214e-03 -1.073880004696547985e-03 -1.815338386222720146e-03 -1.470618066377937794e-03
3.740000000000000000e+02 1.400418090820312500e+01 -3.063308143615722656e+01 -2.820173685904592276e-04 2.233741979580372572e-04 -1.759295446390751749e-05 -1.173548283986747265e-03
3.750000000000000000e+02 1.189882755279541016e+01 -3.125258255004882812e+01 -1.205353648401796818e-03 1.295765978284180164e-04 -3.227331326343119144e-04 -9.362405398860573769e-04
3.760000000000000000e+02 1.007530879974365234e+01 -3.683344268798828125e+01 -8.810099097900092602e-04 -1.857266644947230816e-03 -8.214829722419381142e-04 -1.100228750146925449e-03
3.770000000000000000e+02 1.652286720275878906e+01 -3.885519027709960938e+01 4.182366654276847839e-03 -1.265931129455566406e-02 -2.543083392083644867e-03 -5.643574055284261703e-03
3.780000000000000000e+02 2.024091148376464844e+01 -3.825264739990234375e+01 9.846047498285770416e-03 -1.953716017305850983e-02 -2.907334128394722939e-03 -1.945903152227401733e-02
3.790000000000000000e+02 2.495770645141601562e+01 -3.973209762573242188e+01 4.549864307045936584e-02 -4.281972721219062805e-02 8.036752115003764629e-04 -2.568428404629230499e-02
3.800000000000000000e+02 4.019274902343750000e+01 -3.631982421875000000e+01 8.064980804920196533e-02 7.005071043968200684e-01 2.343470752239227295e-01 2.004941105842590332e-01
3.810000000000000000e+02 4.439598846435546875e+01 -3.859325027465820312e+01 -1.562482863664627075e-01 2.122684001922607422e+00 5.899307131767272949e-01 4.382916092872619629e-01
3.820000000000000000e+02 5.622906875610351562e+01 -3.484362030029296875e+01 -5.032278299331665039e-01 5.290356159210205078e+00 1.436138510704040527e+00 -1.304173946380615234e+00
3.830000000000000000e+02 6.270079803466796875e+01 -3.797397232055664062e+01 2.044868022203445435e-01 3.806730806827545166e-01 1.755479574203491211e-01 -3.253456056118011475e-01
3.840000000000000000e+02 6.913796234130859375e+01 -3.673093032836914062e+01 -2.621319591999053955e-01 2.906698465347290039e+00 7.933699488639831543e-01 7.526665925979614258e-01
3.850000000000000000e+02 7.776259613037109375e+01 -3.939794158935546875e+01 -1.210142299532890320e-01 8.626344680786132812e+00 2.551599025726318359e+00 2.304048985242843628e-01
3.860000000000000000e+02 7.763162994384765625e+01 -3.640645980834960938e+01 -2.450819909572601318e-01 7.990742206573486328e+00 2.323698043823242188e+00 -2.730224132537841797e-01
3.870000000000000000e+02 7.933559417724609375e+01 -3.346767044067382812e+01 -8.198893070220947266e-02 8.135136604309082031e+00 2.415944337844848633e+00 -2.372353971004486084e-01
3.880000000000000000e+02 7.813294219970703125e+01 -2.932793235778808594e+01 6.482004374265670776e-02 6.993628501892089844e+00 2.117534637451171875e+00 -6.027114391326904297e-01
3.890000000000000000e+02 7.939626312255859375e+01 -2.649182319641113281e+01 9.691638499498367310e-02 5.776074409484863281e+00 1.761897206306457520e+00 -5.174899846315383911e-02
3.900000000000000000e+02 7.289086914062500000e+01 -2.286227798461914062e+01 1.723161190748214722e-01 8.357595443725585938e+00 2.558973550796508789e+00 5.172613859176635742e-01
3.910000000000000000e+02 7.189947509765625000e+01 -2.599375915527343750e+01 7.667090296745300293e-01 1.322787761688232422e+01 4.198376178741455078e+00 -3.717899620532989502e-01
3.920000000000000000e+02 7.157269287109375000e+01 -2.842300415039062500e+01 1.254405260086059570e+00 1.162260437011718750e+01 3.863102912902832031e+00 2.017027378082275391e+00
3.930000000000000000e+02 6.995512390136718750e+01 -3.123331832885742188e+01 8.538111448287963867e-01 3.296873807907104492e+00 1.245205521583557129e+00 1.691963553428649902e+00
3.940000000000000000e+02 6.899579620361328125e+01 -3.207752990722656250e+01 2.218550443649291992e-01 1.492039442062377930e+00 5.141683220863342285e-01 7.418996691703796387e-01
3.950000000000000000e+02 6.570284271240234375e+01 -3.452888488769531250e+01 -1.709402561187744141e+00 -1.944136619567871094e-01 -5.711448788642883301e-01 -3.852402567863464355e-01
3.960000000000000000e+02 6.396924972534179688e+01 -3.649994277954101562e+01 -3.766648769378662109e-01 -8.038751035928726196e-02 -1.371157169342041016e-01 -2.882504463195800781e-01
3.970000000000000000e+02 6.136977386474609375e+01 -3.515437316894531250e+01 -1.213694334030151367e+00 9.140861034393310547e-02 -3.366857171058654785e-01 -4.145623147487640381e-01
3.980000000000000000e+02 5.993281936645507812e+01 -3.489770889282226562e+01 -3.221698403358459473e-01 4.693397879600524902e-01 4.415098577737808228e-02 -7.622147202491760254e-01
3.990000000000000000e+02 5.788657379150390625e+01 -3.414466094970703125e+01 9.648263454437255859e-01 2.893521070480346680e+00 1.157504200935363770e+00 -1.880780100822448730e+00
4.000000000000000000e+02 5.645430374145507812e+01 -3.237499237060546875e+01 3.036001682281494141e+00 8.643119812011718750e+00 3.503736257553100586e+00 -3.312627553939819336e+00
4.010000000000000000e+02 5.431457901000976562e+01 -2.976057052612304688e+01 1.669128775596618652e+00 7.791439056396484375e+00 2.838170289993286133e+00 -1.395164132118225098e+00
4.020000000000000000e+02 5.574824523925781250e+01 -2.944880485534667969e+01 5.281118154525756836e-01 1.002690982818603516e+01 3.166506528854370117e+00 6.407704949378967285e-01
4.030000000000000000e+02 5.408760833740234375e+01 -2.862218093872070312e+01 4.975105226039886475e-01 7.659253120422363281e+00 2.447029113769531250e+00 -1.037090182304382324e+00
4.040000000000000000e+02 5.544161224365234375e+01 -2.818672943115234375e+01 8.637431859970092773e-01 7.735492706298828125e+00 2.579770803451538086e+00 3.045222759246826172e-01
4.050000000000000000e+02 5.745731353759765625e+01 -2.650293350219726562e+01 9.045487642288208008e-01 2.232677698135375977e+00 9.411678910255432129e-01 1.303862333297729492e+00
4.060000000000000000e+02 5.947964477539062500e+01 -2.469435310363769531e+01 1.311930179595947266e+00 6.858825087547302246e-01 5.993438363075256348e-01 9.486740231513977051e-01
4.070000000000000000e+02 5.843138122558593750e+01 -2.557111549377441406e+01 1.059061527252197266e+00 1.253592371940612793e+00 6.937961578369140625e-01 9.075000286102294922e-01
4.080000000000000000e+02 6.061444854736328125e+01 -2.391909790039062500e+01 1.450208902359008789e+00 6.750057935714721680e-01 6.375643610954284668e-01 9.185256958007812500e-01
4.090000000000000000e+02 6.312233352661132812e+01 -2.291822624206542969e+01 1.732608228921890259e-01 2.109304666519165039e-01 1.152573898434638977e-01 4.084109663963317871e-01
4.100000000000000000e+02 6.437383270263671875e+01 -2.258030509948730469e+01 -5.083418488502502441e-01 1.486959010362625122e-01 -1.078937947750091553e-01 1.208870038390159607e-01
4.110000000000000000e+02 1.069911289215087891e+01 -3.024032592773437500e+01 1.276173861697316170e-03 -2.771714935079216957e-04 2.997006813529878855e-04 -8.972788782557472587e-05
4.120000000000000000e+02 1.811574339866638184e+00 -2.597854232788085938e+01 -6.828564219176769257e-04 4.325549525674432516e-05 -1.918802736327052116e-04 -4.336200072430074215e-05
4.130000000000000000e+02 7.029364109039306641e-01 -3.038355255126953125e+01 -6.586436647921800613e-04 3.683451795950531960e-04 -8.708953828318044543e-05 7.099960384948644787e-06
4.140000000000000000e+02 7.235746383666992188e-01 -3.179437065124511719e+01 6.695191841572523117e-04 5.687274388037621975e-04 3.714739868883043528e-04 1.578230876475572586e-04
4.150000000000000000e+02 8.942709565162658691e-01 -3.738661575317382812e+01 4.038175975438207388e-04 9.547441150061786175e-04 4.075685283169150352e-04 7.805156201357021928e-05
4.160000000000000000e+02 2.797458410263061523e+00 -3.828594970703125000e+01 4.071040311828255653e-04 6.175067392177879810e-04 3.073832485824823380e-04 2.414095943095162511e-04
4.170000000000000000e+02 1.056156826019287109e+01 -2.811865806579589844e+01 3.159203042741864920e-04 1.713364472379907966e-04 1.461770298192277551e-04 -8.112797513604164124e-04
4.180000000000000000e+02 8.589906692504882812e+00 -2.531137084960937500e+01 1.262133009731769562e-03 2.910900511778891087e-04 4.659669066313654184e-04 -3.957672743126749992e-04
4.190000000000000000e+02 8.630352973937988281e+00 -2.253789901733398438e+01 7.214799406938254833e-04 -1.205602711706887931e-05 2.128271735273301601e-04 -6.807778845541179180e-05
4.200000000000000000e+02 8.887403488159179688e+00 -2.115951919555664062e+01 -7.480586064048111439e-04 -7.811639989085961133e-06 -2.267610834678635001e-04 7.547919813077896833e-05
4.210000000000000000e+02 7.910037040710449219e+00 -2.099616050720214844e+01 6.836997345089912415e-04 2.499481888662558049e-05 2.126083563780412078e-04 -4.061976869706995785e-05
4.220000000000000000e+02 8.299115180969238281e+00 -1.972782707214355469e+01 -7.508412818424403667e-04 3.750569521798752248e-05 -2.140006836270913482e-04 3.167981412843801081e-05
4.230000000000000000e+02 1.162712574005126953e+01 -1.571650886535644531e+01 -8.703571074875071645e-05 -3.219274803996086121e-04 -1.226889580721035600e-04 2.095456002280116081e-04
4.240000000000000000e+02 1.395114994049072266e+01 -1.417868614196777344e+01 -5.246120781521312892e-05 -2.365006512263789773e-04 -8.668856025906279683e-05 9.239515202352777123e-05
4.250000000000000000e+02 1.678408241271972656e+01 -1.334839534759521484e+01 -1.545423629067954607e-06 -1.911242143251001835e-04 -5.780089122708886862e-05 6.165775175759335980e-06
4.260000000000000000e+02 1.970495033264160156e+01 -1.328114318847656250e+01 6.490899977507069707e-06 -1.491156872361898422e-04 -4.278743654140271246e-05 5.744720965594751760e-07
4.270000000000000000e+02 1.825265502929687500e+01 -1.318565654754638672e+01 8.369831448362674564e-06 1.531672896817326546e-04 4.846113733947277069e-05 -5.028323812439339235e-06
4.280000000000000000e+02 2.077687644958496094e+01 -1.339643859863281250e+01 3.385770833119750023e-05 1.878310722531750798e-04 6.650663272012025118e-05 5.955716460448456928e-06
4.290000000000000000e+02 2.092257499694824219e+01 -1.265421295166015625e+01 -1.076977514458121732e-05 5.666514698532409966e-05 1.376861109747551382e-05 -9.498190593149047345e-06
4.300000000000000000e+02 2.220285797119140625e+01 -1.316514587402343750e+01 -2.757205584202893078e-05 -2.657212826306931674e-05 -1.624325523152947426e-05 -2.828149081324227154e-05
4.310000000000000000e+02 1.775962066650390625e+01 -7.043720722198486328e+00 6.016081169946119189e-05 4.993422771804034710e-05 3.302851109765470028e-05 2.582817796792369336e-05
4.320000000000000000e+02 1.627246475219726562e+01 -6.512692928314208984e+00 -6.774631765438243747e-05 -5.570677240029908717e-05 -3.703592665260657668e-05 -1.705667818896472454e-05
4.330000000000000000e+02 1.344820404052734375e+01 -3.638018131256103516e+00 7.344308687606826425e-05 1.053861269610933959e-04 5.364876415114849806e-05 7.491225551348179579e-05
4.340000000000000000e+02 1.073449039459228516e+01 -2.376300811767578125e+00 6.693962495774030685e-05 1.088575299945659935e-04 5.273914575809612870e-05 5.699174653273075819e-05
4.350000000000000000e+02 1.246765899658203125e+01 -3.906712293624877930e+00 7.411088154185563326e-05 1.119278022088110447e-04 5.581160439760424197e-05 8.266149961855262518e-05
4.360000000000000000e+02 9.959350585937500000e+00 -2.098516225814819336e+00 -4.852766869589686394e-05 -1.128832664107903838e-04 -4.842328053200617433e-05 -5.059968316345475614e-05
4.370000000000000000e+02 3.468453645706176758e+00 -2.051780223846435547e+00 -1.259897690033540130e-04 -7.585731964354636148e-06 -4.007265306427143514e-05 -8.152315422194078565e-05
4.380000000000000000e+02 6.070829629898071289e-01 -1.059190464019775391e+01 -3.121125046163797379e-04 -8.321366294694598764e-06 -9.613015572540462017e-05 -5.532177965505979955e-05
4.390000000000000000e+02 1.814185857772827148e+00 -1.040576744079589844e+01 2.959326084237545729e-04 1.278787931369151920e-05 9.261614468414336443e-05 6.130630208645015955e-05
4.400000000000000000e+02 6.240012645721435547e-01 -1.765915298461914062e+01 3.994611324742436409e-04 1.105483079300029203e-05 1.231547939823940396e-04 4.482542499317787588e-05
4.410000000000000000e+02 9.325738906860351562e+00 -1.985429763793945312e+01 8.029711316339671612e-04 -8.168829481292050332e-06 2.384406980127096176e-04 -9.784586291061714292e-05
4.420000000000000000e+02 1.857139587402343750e+00 -1.745896530151367188e+01 -4.641372652258723974e-04 -7.074158929754048586e-06 -1.413634308846667409e-04 -3.688541619339957833e-05
4.430000000000000000e+02 6.001538634300231934e-01 -2.334248352050781250e+01 5.690078251063823700e-04 2.188861253671348095e-05 1.772689429344609380e-04 9.784050780581310391e-05
4.440000000000000000e+02 7.377902984619140625e+01 -2.559196472167968750e+01 1.304195880889892578e+00 9.096082687377929688e+00 3.120083570480346680e+00 -3.098042309284210205e-02
4.450000000000000000e+02 7.941424560546875000e+01 -2.092044639587402344e+01 -3.673639521002769470e-02 6.980018615722656250e+00 2.082984685897827148e+00 1.843332946300506592e-01
4.460000000000000000e+02 6.696011352539062500e+01 -1.047263336181640625e+01 9.856018424034118652e-01 4.546374797821044922e+00 1.659592986106872559e+00 1.638196110725402832e+00
4.470000000000000000e+02 6.582453918457031250e+01 -1.002032089233398438e+01 1.229164481163024902e+00 4.066551685333251953e+00 1.588714838027954102e+00 2.070651292800903320e+00
4.480000000000000000e+02 6.505775451660156250e+01 -1.125583267211914062e+01 1.535068869590759277e+00 3.429065704345703125e+00 1.489240407943725586e+00 2.063250064849853516e+00
4.490000000000000000e+02 6.239922714233398438e+01 -2.077356910705566406e+01 9.630987420678138733e-03 9.542379379272460938e-01 2.891606688499450684e-01 1.438170671463012695e+00
4.500000000000000000e+02 6.927891540527343750e+01 -1.998282241821289062e+01 -7.372892498970031738e-01 2.611280202865600586e+00 5.621972680091857910e-01 -1.582075119018554688e+00
4.510000000000000000e+02 6.995894622802734375e+01 -2.083084487915039062e+01 -1.415605783462524414e+00 3.663151979446411133e+00 6.742638349533081055e-01 -1.657352566719055176e+00
4.520000000000000000e+02 7.052703857421875000e+01 -2.177549934387207031e+01 -2.901459038257598877e-01 4.694437026977539062e+00 1.321287393569946289e+00 -1.700726270675659180e+00
4.530000000000000000e+02 7.219078826904296875e+01 -2.195759010314941406e+01 -1.007952332496643066e+00 8.751162528991699219e+00 2.322962999343872070e+00 -3.492000102996826172e-01
4.540000000000000000e+02 7.817408752441406250e+01 -1.538193035125732422e+01 -7.392069697380065918e-02 7.233009815216064453e+00 2.147726774215698242e+00 -1.663098633289337158e-01
4.550000000000000000e+02 7.938986206054687500e+01 -1.256699943542480469e+01 -1.805376820266246796e-02 7.122914791107177734e+00 2.131458282470703125e+00 -1.171012520790100098e-01
4.560000000000000000e+02 6.715905761718750000e+01 -7.502171039581298828e+00 1.062371850013732910e+00 5.738151550292968750e+00 2.040157079696655273e+00 2.327516794204711914e+00
4.570000000000000000e+02 6.776018524169921875e+01 -6.219696998596191406e+00 1.024748802185058594e+00 6.707556724548339844e+00 2.319691658020019531e+00 2.512089729309082031e+00
4.580000000000000000e+02 7.819596862792968750e+01 -8.511643409729003906e+00 -1.553842052817344666e-02 6.364494800567626953e+00 1.904686927795410156e+00 -3.963122069835662842e-01
4.590000000000000000e+02 7.939574432373046875e+01 -5.638308525085449219e+00 8.726305095478892326e-04 5.446934700012207031e+00 1.634342193603515625e+00 -1.628400236368179321e-01
4.600000000000000000e+02 7.011056518554687500e+01 1.918966770172119141e+00 5.406068563461303711e-01 1.493488311767578125e+01 4.642647266387939453e+00 1.228140830993652344e+00
4.610000000000000000e+02 6.926647949218750000e+01 -2.237805604934692383e+00 8.963005542755126953e-01 1.064415550231933594e+01 3.462136745452880859e+00 2.782214403152465820e+00
4.620000000000000000e+02 6.963656616210937500e+01 -8.701636791229248047e-01 8.138245940208435059e-01 1.221366882324218750e+01 3.908247947692871094e+00 2.720019817352294922e+00
4.630000000000000000e+02 7.813883972167968750e+01 -1.607012152671813965e+00 7.566616684198379517e-02 5.464555263519287109e+00 1.662066340446472168e+00 -2.623289227485656738e-01
4.640000000000000000e+02 7.937829589843750000e+01 2.731582403182983398e+00 9.900135919451713562e-03 4.303940296173095703e+00 1.294152021408081055e+00 5.148694664239883423e-02
4.650000000000000000e+02 7.015046691894531250e+01 7.548582553863525391e+00 3.698616027832031250e-01 1.264540576934814453e+01 3.904580116271972656e+00 -7.144910097122192383e-01
4.660000000000000000e+02 7.131579589843750000e+01 6.192057132720947266e+00 4.429618716239929199e-01 1.155327796936035156e+01 3.598871707916259766e+00 9.412833303213119507e-02
4.670000000000000000e+02 7.819665527343750000e+01 5.431542396545410156e+00 1.000006273388862610e-01 5.744177341461181641e+00 1.753253459930419922e+00 3.926630020141601562e-01
4.680000000000000000e+02 7.940628814697265625e+01 9.710528373718261719e+00 1.333584357053041458e-02 5.944039344787597656e+00 1.787212491035461426e+00 1.971230953931808472e-01
4.690000000000000000e+02 6.995040130615234375e+01 1.583612823486328125e+01 8.374553173780441284e-03 9.563747406005859375e+00 2.871636390686035156e+00 2.318693548440933228e-01
4.700000000000000000e+02 6.977616119384765625e+01 1.031011104583740234e+01 -1.808849424123764038e-01 8.703690528869628906e+00 2.556841611862182617e+00 -5.714093446731567383e-01
4.710000000000000000e+02 6.997141265869140625e+01 8.939855575561523438e+00 7.014726102352142334e-02 1.055297946929931641e+01 3.186938047409057617e+00 -9.651237130165100098e-01
4.720000000000000000e+02 7.825313568115234375e+01 1.242605495452880859e+01 -4.415400326251983643e-02 7.095786094665527344e+00 2.115489482879638672e+00 4.199054539203643799e-01
4.730000000000000000e+02 7.941175079345703125e+01 1.667960739135742188e+01 -1.363431569188833237e-03 7.581614017486572266e+00 2.274075031280517578e+00 1.475901007652282715e-01
4.740000000000000000e+02 6.985549926757812500e+01 2.432770538330078125e+01 1.259378045797348022e-01 7.919733047485351562e+00 2.413701295852661133e+00 -2.375089079141616821e-01
4.750000000000000000e+02 6.996416473388671875e+01 1.724780845642089844e+01 2.322173677384853363e-02 9.163703918457031250e+00 2.756077527999877930e+00 1.983067840337753296e-01
4.760000000000000000e+02 7.822545623779296875e+01 1.939747810363769531e+01 1.627631671726703644e-02 8.189435958862304688e+00 2.461713790893554688e+00 3.711695671081542969e-01
4.770000000000000000e+02 7.943453979492187500e+01 2.366461372375488281e+01 -3.256970783695578575e-03 9.143652915954589844e+00 2.742118835449218750e+00 1.910716593265533447e-01
4.780000000000000000e+02 6.902307128906250000e+01 2.851246070861816406e+01 2.508638799190521240e-01 4.340134143829345703e+00 1.377299427986145020e+00 -8.188666105270385742e-01
4.790000000000000000e+02 6.970095825195312500e+01 2.574325942993164062e+01 2.323352843523025513e-01 7.169542789459228516e+00 2.220563411712646484e+00 -5.687978863716125488e-01
4.800000000000000000e+02 7.726106262207031250e+01 2.361882591247558594e+01 5.082660913467407227e-02 8.734397888183593750e+00 2.635567426681518555e+00 6.251909136772155762e-01
4.810000000000000000e+02 7.933604431152343750e+01 3.063419342041015625e+01 -2.427708171308040619e-02 1.111488819122314453e+01 3.327183246612548828e+00 1.771201193332672119e-01
4.820000000000000000e+02 6.679848480224609375e+01 3.211583328247070312e+01 -1.015859246253967285e+00 -1.370511800050735474e-01 -3.458731174468994141e-01 6.043828725814819336e-01
4.830000000000000000e+02 6.588341522216796875e+01 3.324242401123046875e+01 -1.354785442352294922e+00 -5.871961712837219238e-01 -5.825945138931274414e-01 1.013821244239807129e+00
4.840000000000000000e+02 6.766069030761718750e+01 3.099049949645996094e+01 -4.719361066818237305e-01 7.601929903030395508e-01 8.647706359624862671e-02 8.166328817605972290e-02
4.850000000000000000e+02 7.929737854003906250e+01 3.203307723999023438e+01 -2.437792951241135597e-03 1.137994956970214844e+01 3.413253545761108398e+00 1.491121351718902588e-01
4.860000000000000000e+02 7.940462493896484375e+01 3.748161315917968750e+01 -9.304264187812805176e-02 1.158230400085449219e+01 3.446778535842895508e+00 -4.640317708253860474e-02
4.870000000000000000e+02 7.197384643554687500e+01 4.125627517700195312e+01 8.630620688199996948e-02 5.695099353790283203e+00 1.734421730041503906e+00 -2.630982175469398499e-02
4.880000000000000000e+02 7.056388092041015625e+01 3.474666976928710938e+01 -7.761415839195251465e-01 4.580962657928466797e+00 1.141446232795715332e+00 -1.204671859741210938e-01
4.890000000000000000e+02 6.201416015625000000e+01 3.559529876708984375e+01 -1.783705115318298340e+00 -3.331693410873413086e-01 -6.350623369216918945e-01 6.951051354408264160e-01
4.900000000000000000e+02 5.891196060180664062e+01 3.825341033935546875e+01 -6.668373942375183105e-01 -4.528831243515014648e-01 -3.359161615371704102e-01 2.015403062105178833e-01
4.910000000000000000e+02 6.350152587890625000e+01 3.509969329833984375e+01 -2.154016733169555664e+00 -6.414504051208496094e-01 -8.386401534080505371e-01 9.627084136009216309e-01
4.920000000000000000e+02 7.666792297363281250e+01 3.908983230590820312e+01 -1.894433647394180298e-01 1.027687740325927734e+01 3.026230096817016602e+00 4.438275471329689026e-03
4.930000000000000000e+02 5.732947158813476562e+01 3.593072128295898438e+01 -1.233532428741455078e+00 -1.373140364885330200e-01 -4.112539291381835938e-01 -1.140105947852134705e-01
4.940000000000000000e+02 5.882262420654296875e+01 3.621171951293945312e+01 -1.470947027206420898e+00 -3.210912942886352539e-01 -5.376115441322326660e-01 2.226335406303405762e-01
4.950000000000000000e+02 6.049467468261718750e+01 3.595784378051757812e+01 -1.530681252479553223e+00 -2.567743957042694092e-01 -5.362367033958435059e-01 5.014749765396118164e-01
4.960000000000000000e+02 4.912981414794921875e+01 3.029131317138671875e+01 4.437370300292968750e-01 1.195843458175659180e+00 4.918741285800933838e-01 7.365851402282714844e-01
4.970000000000000000e+02 5.112440490722656250e+01 3.233391189575195312e+01 9.414049983024597168e-02 5.334024429321289062e-01 1.882628798484802246e-01 3.065309226512908936e-01
4.980000000000000000e+02 4.875632858276367188e+01 3.401888275146484375e+01 -3.891418576240539551e-01 1.529693365097045898e+00 3.421654403209686279e-01 3.826396763324737549e-01
4.990000000000000000e+02 5.342557144165039062e+01 3.418255996704101562e+01 -3.738176822662353516e-01 1.164504960179328918e-01 -7.721015810966491699e-02 -1.902862451970577240e-02
5.000000000000000000e+02 5.475775909423828125e+01 3.487093734741210938e+01 -5.778853893280029297e-01 2.063560299575328827e-02 -1.671749353408813477e-01 -1.429836899042129517e-01
5.010000000000000000e+02 4.518024826049804688e+01 3.737939834594726562e+01 -8.059058785438537598e-01 2.188620567321777344e+00 4.148144125938415527e-01 1.843364089727401733e-01
5.020000000000000000e+02 4.191622543334960938e+01 4.057368850708007812e+01 -9.666388034820556641e-01 2.528434276580810547e+00 4.685386419296264648e-01 3.259284188970923424e-03
5.030000000000000000e+02 4.587170791625976562e+01 3.032503700256347656e+01 -4.091412946581840515e-02 2.478546619415283203e+00 7.312897443771362305e-01 6.376339793205261230e-01
5.040000000000000000e+02 4.509238433837890625e+01 2.431620979309082031e+01 8.057100176811218262e-01 3.879622936248779297e+00 1.405599951744079590e+00 1.644325613975524902e+00
5.050000000000000000e+02 4.577741241455078125e+01 2.560047721862792969e+01 7.674447894096374512e-01 3.237665176391601562e+00 1.201532959938049316e+00 1.506053805351257324e+00
5.060000000000000000e+02 4.737128448486328125e+01 2.803328132629394531e+01 7.510425448417663574e-01 2.201186656951904297e+00 8.856687545776367188e-01 1.224101662635803223e+00
5.070000000000000000e+02 4.900226593017578125e+01 3.249718093872070312e+01 -1.135943457484245300e-01 1.397711515426635742e+00 3.852351605892181396e-01 4.736474156379699707e-01
5.080000000000000000e+02 4.634742355346679688e+01 3.218866729736328125e+01 -3.109014034271240234e-01 2.209194660186767578e+00 5.694879889488220215e-01 4.732416272163391113e-01
5.090000000000000000e+02 3.706404876708984375e+01 4.058856964111328125e+01 -9.308134913444519043e-01 2.668459177017211914e+00 5.212936401367187500e-01 -4.325490817427635193e-02
5.100000000000000000e+02 4.161326217651367188e+01 3.711106872558593750e+01 -8.822052478790283203e-01 2.620728731155395508e+00 5.215570330619812012e-01 3.888450190424919128e-02
5.110000000000000000e+02 3.515388870239257812e+01 3.016819572448730469e+01 -3.365778326988220215e-01 2.896726369857788086e+00 7.680445313453674316e-01 -3.895804882049560547e-01
5.120000000000000000e+02 3.993384933471679688e+01 2.444593048095703125e+01 1.950622349977493286e-01 4.028767585754394531e+00 1.267148971557617188e+00 1.342096477746963501e-01
5.130000000000000000e+02 3.968463897705078125e+01 1.490611934661865234e+01 8.357998728752136230e-01 6.506371498107910156e+00 2.202651262283325195e+00 -4.382875263690948486e-01
5.140000000000000000e+02 3.941721343994140625e+01 1.153245449066162109e+01 1.565228343009948730e+00 6.549880504608154297e+00 2.434532642364501953e+00 -1.111521005630493164e+00
5.150000000000000000e+02 3.886031723022460938e+01 5.518548488616943359e+00 1.255078554153442383e+00 5.203824043273925781e+00 1.937670826911926270e+00 -1.037330746650695801e+00
5.160000000000000000e+02 3.919583511352539062e+01 -2.240208387374877930e+00 3.018002808094024658e-01 3.588624238967895508e+00 1.167127370834350586e+00 -1.056392073631286621e+00
5.170000000000000000e+02 3.601176834106445312e+01 -1.487311077117919922e+01 -1.623577594757080078e+00 -1.229357719421386719e-01 -5.239539742469787598e-01 6.798764467239379883e-01
5.180000000000000000e+02 3.544422912597656250e+01 -1.796341705322265625e+01 -3.688828229904174805e+00 -5.485719814896583557e-02 -1.123105645179748535e+00 3.616786897182464600e-01
5.190000000000000000e+02 3.690518188476562500e+01 -1.703263854980468750e+01 -3.035045146942138672e+00 -6.016903519630432129e-01 -1.091020703315734863e+00 8.783342242240905762e-01
5.200000000000000000e+02 3.813812637329101562e+01 -1.825502586364746094e+01 -4.428967952728271484e+00 -8.482136726379394531e-01 -1.583154559135437012e+00 1.340323686599731445e+00
5.210000000000000000e+02 4.252133560180664062e+01 -1.981861877441406250e+01 -1.659819245338439941e+00 5.217542648315429688e-01 -3.414194881916046143e-01 4.396423399448394775e-01
5.220000000000000000e+02 4.468202972412109375e+01 -1.922412490844726562e+01 -1.113548040390014648e+00 4.399690032005310059e-01 -2.020737081766128540e-01 -2.414359748363494873e-01
5.230000000000000000e+02 4.881369781494140625e+01 -1.836704254150390625e+01 8.248180747032165527e-01 1.074124813079833984e+01 3.469820022583007812e+00 -6.438207149505615234e+00
5.240000000000000000e+02 4.865509414672851562e+01 -1.802988433837890625e+01 3.414159715175628662e-01 9.736932754516601562e+00 3.023504495620727539e+00 -5.981860160827636719e+00
5.250000000000000000e+02 5.098221206665039062e+01 -1.005059814453125000e+01 5.900930762290954590e-01 6.984984874725341797e+00 2.272523403167724609e+00 -2.089492559432983398e+00
5.260000000000000000e+02 5.058871078491210938e+01 -8.725852966308593750e+00 6.477671861648559570e-01 7.050973415374755859e+00 2.309622287750244141e+00 -2.171484470367431641e+00
5.270000000000000000e+02 4.866938400268554688e+01 -6.409310340881347656e+00 6.559708118438720703e-01 6.017247200012207031e+00 2.001965284347534180e+00 -2.163261175155639648e+00
5.280000000000000000e+02 4.883778381347656250e+01 -3.513433456420898438e+00 7.353962659835815430e-01 6.000804424285888672e+00 2.020860195159912109e+00 -2.210853815078735352e+00
5.290000000000000000e+02 4.411467742919921875e+01 3.388724088668823242e+00 1.183783531188964844e+00 6.097339630126953125e+00 2.184336900711059570e+00 -2.754539489746093750e+00
5.300000000000000000e+02 4.456896972656250000e+01 5.175758361816406250e+00 1.845481514930725098e+00 6.607221603393554688e+00 2.535810947418212891e+00 -3.435837268829345703e+00
5.310000000000000000e+02 4.389659118652343750e+01 6.414328098297119141e+00 1.933685660362243652e+00 7.704419612884521484e+00 2.891431570053100586e+00 -3.556734800338745117e+00
5.320000000000000000e+02 4.273021697998046875e+01 9.028702735900878906e+00 1.536318421363830566e+00 1.034042358398437500e+01 3.563022613525390625e+00 -3.135031223297119141e+00
5.330000000000000000e+02 4.234692764282226562e+01 1.042375946044921875e+01 1.048240780830383301e+00 1.139947032928466797e+01 3.734313249588012695e+00 -1.910885214805603027e+00
5.340000000000000000e+02 3.833089828491210938e+01 1.505002689361572266e+01 1.034824490547180176e+00 5.597275733947753906e+00 1.989629983901977539e+00 -6.577762961387634277e-01
5.350000000000000000e+02 3.226517486572265625e+01 4.077560424804687500e+01 -7.713280320167541504e-01 2.427163839340209961e+00 4.967507719993591309e-01 -7.091684639453887939e-02
5.360000000000000000e+02 2.833505630493164062e+01 3.181625938415527344e+01 -2.384283095598220825e-01 1.968530058860778809e+00 5.190305113792419434e-01 -4.722713530063629150e-01
5.370000000000000000e+02 3.138851356506347656e+01 2.602214050292968750e+01 1.541344821453094482e-01 2.479609251022338867e+00 7.901231050491333008e-01 -6.474084854125976562e-01
5.380000000000000000e+02 3.268603134155273438e+01 1.914503288269042969e+01 8.887451887130737305e-01 2.849995613098144531e+00 1.121622204780578613e+00 -8.057091236114501953e-01
5.390000000000000000e+02 3.294111251831054688e+01 1.209087562561035156e+01 1.474659323692321777e+00 2.808952569961547852e+00 1.285083532333374023e+00 -7.338950037956237793e-01
5.400000000000000000e+02 2.793854904174804688e+01 -7.803874611854553223e-01 -2.117376476526260376e-01 3.969304561614990234e-01 5.555784702301025391e-02 3.476996719837188721e-01
5.410000000000000000e+02 2.886193656921386719e+01 -5.728498935699462891e+00 -8.833804726600646973e-01 2.412316203117370605e-01 -1.926446557044982910e-01 8.011838197708129883e-01
5.420000000000000000e+02 2.544454574584960938e+01 -1.153973960876464844e+01 -1.136276960372924805e+00 -1.233564853668212891e+00 -7.109525203704833984e-01 1.365737199783325195e+00
5.430000000000000000e+02 2.751958465576171875e+01 -1.645701026916503906e+01 -1.145157933235168457e+00 -2.827061712741851807e-01 -4.283592402935028076e-01 6.234576702117919922e-01
5.440000000000000000e+02 2.925561904907226562e+01 -1.691757392883300781e+01 -1.479761719703674316e+00 -2.407140433788299561e-01 -5.161427259445190430e-01 6.818017363548278809e-01
5.450000000000000000e+02 3.156451988220214844e+01 -1.768190193176269531e+01 -1.903875231742858887e+00 -2.004904486238956451e-02 -5.771772861480712891e-01 4.810519516468048096e-01
5.460000000000000000e+02 2.231480026245117188e+01 4.061544799804687500e+01 -3.498762249946594238e-01 1.204320430755615234e+00 2.563332617282867432e-01 -7.841453701257705688e-02
5.470000000000000000e+02 2.244385719299316406e+01 3.225300979614257812e+01 -7.416544854640960693e-02 1.031359076499938965e+00 2.871580719947814941e-01 -3.249728679656982422e-01
5.480000000000000000e+02 2.336531257629394531e+01 2.413567924499511719e+01 4.532771706581115723e-01 9.198580980300903320e-01 4.119405746459960938e-01 -4.678141474723815918e-01
5.490000000000000000e+02 2.661577987670898438e+01 1.410548210144042969e+01 1.156222581863403320e+00 9.807110428810119629e-01 6.410800814628601074e-01 -4.755357503890991211e-01
5.500000000000000000e+02 2.266104125976562500e+01 7.219335079193115234e+00 7.186189293861389160e-01 -3.281750679016113281e-01 1.171331554651260376e-01 1.660642325878143311e-01
5.510000000000000000e+02 2.086599731445312500e+01 -3.573428392410278320e-01 -8.272892236709594727e-01 -1.317667841911315918e+00 -6.434871554374694824e-01 9.306840896606445312e-01
5.520000000000000000e+02 1.929350471496582031e+01 -3.327433109283447266e+00 -2.012830018997192383e+00 -1.998269915580749512e+00 -1.203329920768737793e+00 1.765046000480651855e+00
5.530000000000000000e+02 1.988047599792480469e+01 -3.881801128387451172e+00 -2.003554582595825195e+00 -2.062067031860351562e+00 -1.219686508178710938e+00 1.798784136772155762e+00
5.540000000000000000e+02 2.205016708374023438e+01 -6.250290870666503906e+00 -1.811673164367675781e+00 -2.134758949279785156e+00 -1.183929681777954102e+00 1.779209733009338379e+00
5.550000000000000000e+02 2.301687240600585938e+01 -7.518154621124267578e+00 -1.653467059135437012e+00 -2.051334142684936523e+00 -1.111440300941467285e+00 1.705446600914001465e+00
5.560000000000000000e+02 2.347040367126464844e+01 -8.171618461608886719e+00 -1.580250024795532227e+00 -1.971807479858398438e+00 -1.065617203712463379e+00 1.652143120765686035e+00
5.570000000000000000e+02 1.743653488159179688e+01 4.098750305175781250e+01 -1.858750879764556885e-01 4.554404020309448242e-01 8.086960017681121826e-02 -2.499961853027343750e-02
5.580000000000000000e+02 2.123320960998535156e+01 3.700427627563476562e+01 -2.491948157548904419e-01 1.011351704597473145e+00 2.286470681428909302e-01 -1.857323497533798218e-01
5.590000000000000000e+02 1.709481620788574219e+01 3.791600418090820312e+01 -1.558525711297988892e-01 4.056894183158874512e-01 7.495105266571044922e-02 -9.442783147096633911e-02
5.600000000000000000e+02 1.709640884399414062e+01 2.344360351562500000e+01 4.267872273921966553e-01 -1.417129579931497574e-02 1.237847730517387390e-01 -1.636804938316345215e-01
5.610000000000000000e+02 1.407303714752197266e+01 1.564557361602783203e+01 5.510035157203674316e-01 -6.853364109992980957e-01 -4.029986634850502014e-02 2.962569892406463623e-01
5.620000000000000000e+02 1.087335205078125000e+01 1.815033197402954102e+00 -1.061745047569274902e+00 -7.272685170173645020e-01 -5.367040634155273438e-01 9.092089533805847168e-01
5.630000000000000000e+02 1.397308540344238281e+01 3.055016994476318359e-01 -1.654990553855895996e+00 -1.121918201446533203e+00 -8.330726623535156250e-01 1.276448011398315430e+00
5.640000000000000000e+02 1.510740089416503906e+01 4.977275431156158447e-01 -1.408468842506408691e+00 -1.321722269058227539e+00 -8.190573453903198242e-01 1.285061717033386230e+00
5.650000000000000000e+02 1.581629180908203125e+01 7.966786623001098633e-02 -1.473539352416992188e+00 -1.423346161842346191e+00 -8.690656423568725586e-01 1.340312957763671875e+00
5.660000000000000000e+02 1.739706611633300781e+01 -1.824818968772888184e+00 -1.985085487365722656e+00 -1.722923040390014648e+00 -1.112402558326721191e+00 1.660075545310974121e+00
5.670000000000000000e+02 1.270493793487548828e+01 4.113455963134765625e+01 -1.002958565950393677e-01 -2.150835394859313965e-01 -9.461382031440734863e-02 -2.277209423482418060e-02
5.680000000000000000e+02 6.409308433532714844e+00 3.799777984619140625e+01 -1.161281857639551163e-02 -1.056136727333068848e+00 -3.203248679637908936e-01 -2.016572281718254089e-02
5.690000000000000000e+02 8.681818008422851562e+00 3.025910186767578125e+01 4.829210042953491211e-02 -8.266216516494750977e-01 -2.334988564252853394e-01 -3.726169839501380920e-02
5.700000000000000000e+02 8.102943420410156250e+00 2.342152786254882812e+01 1.579653620719909668e-01 -9.580693840980529785e-01 -2.400312125682830811e-01 9.790032356977462769e-02
5.710000000000000000e+02 8.288131713867187500e+00 8.559263229370117188e+00 4.191619530320167542e-02 -8.252012729644775391e-01 -2.349855154752731323e-01 7.330141663551330566e-01
5.720000000000000000e+02 6.251653671264648438e+00 1.869357705116271973e+00 -4.249415993690490723e-01 -9.195770323276519775e-02 -1.550697982311248779e-01 3.019218444824218750e-01
5.730000000000000000e+02 1.167956733703613281e+01 1.412905931472778320e+00 -1.262610912322998047e+00 -8.192377686500549316e-01 -6.245545744895935059e-01 9.715301990509033203e-01
5.740000000000000000e+02 2.017524719238281250e+00 4.164432525634765625e+01 -5.654905736446380615e-02 -1.661028861999511719e+00 -5.152733922004699707e-01 -1.603448577225208282e-02
5.750000000000000000e+02 4.581372261047363281e+00 3.771063232421875000e+01 1.622584997676312923e-03 -1.390413522720336914e+00 -4.166373014450073242e-01 2.245002798736095428e-02
5.760000000000000000e+02 2.023779630661010742e+00 3.576793289184570312e+01 1.026324369013309479e-02 -1.674241781234741211e+00 -4.991935789585113525e-01 -4.069171100854873657e-02
5.770000000000000000e+02 2.047386646270751953e+00 2.896825027465820312e+01 7.547866553068161011e-03 -1.697864890098571777e+00 -5.070950984954833984e-01 -3.770203096792101860e-03
5.780000000000000000e+02 1.925072193145751953e+00 2.302966690063476562e+01 1.384579390287399292e-02 -1.662679553031921387e+00 -4.946501255035400391e-01 4.697241261601448059e-02
5.790000000000000000e+02 1.805737137794494629e+00 1.745016288757324219e+01 1.766260527074337006e-02 -1.442685246467590332e+00 -4.275068044662475586e-01 1.272455900907516479e-01
5.800000000000000000e+02 5.260753631591796875e-01 6.404746532440185547e+00 -3.838379867374897003e-03 -2.811923921108245850e-01 -8.550923317670822144e-02 6.267170608043670654e-02
5.810000000000000000e+02 1.603908061981201172e+00 9.087480545043945312e+00 -5.851772584719583392e-05 -6.604511737823486328e-01 -1.981528997421264648e-01 2.105777859687805176e-01
5.820000000000000000e+02 4.783407211303710938e+00 2.652412176132202148e+00 -2.609668374061584473e-01 -1.322966367006301880e-01 -1.179790422320365906e-01 2.676276266574859619e-01
5.830000000000000000e+02 4.045395660400390625e+01 -2.034994506835937500e+01 -1.188279628753662109e+00 -7.089713215827941895e-01 -5.691752433776855469e-01 9.309575557708740234e-01
5.840000000000000000e+02 4.116657257080078125e+01 -2.019169235229492188e+01 -1.483857154846191406e+00 6.992403417825698853e-02 -4.241799414157867432e-01 7.185703516006469727e-01
5.850000000000000000e+02 4.990337371826171875e+01 -1.262286281585693359e+01 -9.805712699890136719e-01 6.316778659820556641e+00 1.600862264633178711e+00 -1.019098281860351562e+00
5.860000000000000000e+02 5.003348922729492188e+01 -1.850108528137207031e+01 1.104869604110717773e+00 1.452924442291259766e+01 4.690234184265136719e+00 -9.672278761863708496e-01
5.870000000000000000e+02 5.385882186889648438e+01 -1.525588703155517578e+01 -4.170787334442138672e+00 -8.658852577209472656e-01 -1.511001706123352051e+00 2.566324234008789062e+00
5.880000000000000000e+02 5.125072860717773438e+01 -2.079175376892089844e+01 5.693443775177001953e+00 9.252730369567871094e+00 4.483852386474609375e+00 -3.588567495346069336e+00
5.890000000000000000e+02 5.062850189208984375e+01 -2.119793891906738281e+01 4.088919639587402344e+00 1.237545680999755859e+01 4.939312934875488281e+00 -4.147938728332519531e+00
5.900000000000000000e+02 5.002165222167968750e+01 -2.158511352539062500e+01 7.651094198226928711e-01 1.414462280273437500e+01 4.472919940948486328e+00 -1.826455950736999512e+00
5.910000000000000000e+02 4.952953720092773438e+01 -2.172126197814941406e+01 -4.953207671642303467e-01 1.407246494293212891e+01 4.073143482208251953e+00 1.006445169448852539e+00
5.920000000000000000e+02 4.278176498413085938e+01 -2.951139831542968750e+01 -9.098103269934654236e-03 4.234249889850616455e-01 1.242980659008026123e-01 2.689135372638702393e-01
5.930000000000000000e+02 5.110251617431640625e+01 -3.037265586853027344e+01 8.481842875480651855e-01 5.245575904846191406e+00 1.828128099441528320e+00 -1.650594919919967651e-01
5.940000000000000000e+02 5.203118133544921875e+01 -3.025033760070800781e+01 8.920638561248779297e-01 5.981623649597167969e+00 2.062106132507324219e+00 -4.342948198318481445e-01
5.950000000000000000e+02 4.808095932006835938e+01 -3.920312500000000000e+01 -6.061213016510009766e-01 3.540585517883300781e+00 8.803392648696899414e-01 4.419828057289123535e-01
5.960000000000000000e+02 6.559805297851562500e+01 -2.206843185424804688e+01 -1.299202680587768555e+00 1.184346452355384827e-01 -3.542304337024688721e-01 -1.843330711126327515e-01
5.970000000000000000e+02 6.405226898193359375e+01 -2.138730621337890625e+01 -4.769030809402465820e-01 6.367852091789245605e-01 4.796463996171951294e-02 8.214665055274963379e-01
5.980000000000000000e+02 5.941960144042968750e+01 -1.578149223327636719e+01 3.358407318592071533e-01 6.274679899215698242e-01 2.889926135540008545e-01 7.420358061790466309e-01
5.990000000000000000e+02 5.508286285400390625e+01 -1.605968475341796875e+01 -7.117953300476074219e+00 -2.456276893615722656e+00 -2.872268915176391602e+00 3.378890752792358398e+00
6.000000000000000000e+02 5.651182937622070312e+01 -1.652369880676269531e+01 -5.563523769378662109e+00 -7.162967324256896973e-01 -1.883946180343627930e+00 1.690567970275878906e+00
6.010000000000000000e+02 5.337127685546875000e+01 -1.851642417907714844e+01 1.654585480690002441e+00 2.903050184249877930e+00 1.367290735244750977e+00 -1.721371263265609741e-01
6.020000000000000000e+02 5.726380538940429688e+01 -2.372216987609863281e+01 1.510666847229003906e+00 2.167804718017578125e+00 1.103541493415832520e+00 7.060918211936950684e-01
6.030000000000000000e+02 5.242841339111328125e+01 -1.597379875183105469e+01 -3.118957519531250000e+00 5.028536319732666016e+00 5.728736519813537598e-01 1.615869551897048950e-01
6.040000000000000000e+02 4.719343566894531250e+01 -2.694677114486694336e+00 7.379762530326843262e-01 5.471618175506591797e+00 1.862878441810607910e+00 -2.381069183349609375e+00
6.050000000000000000e+02 4.112810897827148438e+01 1.014545726776123047e+01 1.719258069992065430e+00 8.370942115783691406e+00 3.027060031890869141e+00 -1.473577141761779785e+00
6.060000000000000000e+02 4.250529479980468750e+01 1.617231369018554688e+01 4.338564574718475342e-01 8.094007492065429688e+00 2.558359146118164062e+00 9.500035643577575684e-01
6.070000000000000000e+02 4.212616348266601562e+01 2.067675590515136719e+01 4.969577193260192871e-01 5.446685314178466797e+00 1.783092975616455078e+00 9.691922664642333984e-01
6.080000000000000000e+02 4.447741317749023438e+01 2.301521873474121094e+01 7.932574152946472168e-01 4.642014980316162109e+00 1.630581736564636230e+00 1.714292526245117188e+00
6.090000000000000000e+02 6.825123596191406250e+01 -2.141349601745605469e+01 -2.855536699295043945e+00 6.168064847588539124e-02 -8.381568193435668945e-01 -3.280137181282043457e-01
6.100000000000000000e+02 2.688103294372558594e+01 -3.765194320678710938e+01 2.972984500229358673e-02 -3.931910544633865356e-02 -2.876777667552232742e-03 -5.946257337927818298e-02
6.110000000000000000e+02 2.524664115905761719e+01 -3.158218955993652344e+01 -5.489512532949447632e-02 -1.923726522363722324e-03 -1.704565621912479401e-02 -6.345921196043491364e-03
6.120000000000000000e+02 3.027003097534179688e+01 -3.362387847900390625e+01 -1.501073986291885376e-01 1.430368702858686447e-02 -4.074111580848693848e-02 -3.971422091126441956e-02
6.130000000000000000e+02 4.182352447509765625e+01 -3.612085723876953125e+01 5.863118544220924377e-02 1.230086445808410645e+00 3.866153061389923096e-01 4.632064104080200195e-01
6.140000000000000000e+02 3.856058502197265625e+01 -3.596468734741210938e+01 8.017804473638534546e-02 2.132828533649444580e-01 8.803827315568923950e-02 8.581834286451339722e-02
6.150000000000000000e+02 6.061798095703125000e+01 -3.874329376220703125e+01 1.245509237051010132e-01 1.427342057228088379e+00 4.655678868293762207e-01 -8.312551379203796387e-01
6.160000000000000000e+02 6.950380706787109375e+01 -3.290730285644531250e+01 -5.202955603599548340e-01 2.829014778137207031e+00 6.926157474517822266e-01 1.004601955413818359e+00
6.170000000000000000e+02 7.097985076904296875e+01 -3.506835937500000000e+01 -7.437349557876586914e-01 4.642953395843505859e+00 1.169765472412109375e+00 7.243006825447082520e-01
6.180000000000000000e+02 1.202422142028808594e+01 -1.383990001678466797e+01 -8.450353197986260056e-05 -2.366509143030270934e-04 -9.634633170207962394e-05 1.199792750412598252e-04
6.190000000000000000e+02 1.211649894714355469e+01 -1.215429878234863281e+01 -1.296540576731786132e-04 -2.319668710697442293e-04 -1.084862815332598984e-04 3.211327202734537423e-05
6.200000000000000000e+02 4.395091247558593750e+01 -1.942154312133789062e+01 -1.457989692687988281e+00 5.006338357925415039e-01 -2.872067689895629883e-01 6.399001926183700562e-02
6.210000000000000000e+02 4.699053192138671875e+01 -8.177032470703125000e+00 3.456785976886749268e-01 5.170088291168212891e+00 1.654730081558227539e+00 -1.954896926879882812e+00
6.220000000000000000e+02 3.621404647827148438e+01 -1.387884807586669922e+01 -1.237793803215026855e+00 1.560963243246078491e-01 -3.245092630386352539e-01 5.461493134498596191e-01
6.230000000000000000e+02 3.893271255493164062e+01 3.000604629516601562e+01 -3.879556059837341309e-01 3.185319423675537109e+00 8.392091393470764160e-01 -1.141605973243713379e-01
6.240000000000000000e+02 2.440860366821289062e+01 3.508316421508789062e+01 -2.767689526081085205e-01 1.428601145744323730e+00 3.455496430397033691e-01 -2.810532748699188232e-01
6.250000000000000000e+02 1.648364830017089844e+01 3.486806106567382812e+01 -7.382026314735412598e-02 2.878664433956146240e-01 6.421384960412979126e-02 -1.579259634017944336e-01
6.260000000000000000e+02 7.795238494873046875e+00 3.440393066406250000e+01 -4.410677123814821243e-03 -9.059810042381286621e-01 -2.731175124645233154e-01 -4.550497233867645264e-02
6.270000000000000000e+02 7.397687435150146484e+00 2.519952392578125000e+01 1.101708412170410156e-01 -1.027982115745544434e+00 -2.753433883190155029e-01 5.236307159066200256e-02
6.280000000000000000e+02 1.958561706542968750e+01 2.737936973571777344e+01 2.356190830469131470e-01 4.944948554039001465e-01 2.190341800451278687e-01 -3.116596341133117676e-01
6.290000000000000000e+02 2.158362007141113281e+01 2.586842346191406250e+01 3.314644992351531982e-01 7.276058793067932129e-01 3.177211284637451172e-01 -3.937801718711853027e-01
6.300000000000000000e+02 2.669586563110351562e+01 2.397068405151367188e+01 4.652194082736968994e-01 1.576953530311584473e+00 6.126518845558166504e-01 -6.402587890625000000e-01
6.310000000000000000e+02 2.009562969207763672e+00 3.173647117614746094e+01 -5.712138226954266429e-05 -1.709115147590637207e+00 -5.127516984939575195e-01 -1.219257898628711700e-02
6.320000000000000000e+02 7.048462677001953125e+01 3.104753112792968750e+01 -7.962144613265991211e-01 4.868826389312744141e+00 1.221783518791198730e+00 1.679583936929702759e-01
6.330000000000000000e+02 6.601554393768310547e+00 1.830295372009277344e+01 1.647607237100601196e-01 -1.080225110054016113e+00 -2.746393084526062012e-01 2.848333120346069336e-01
6.340000000000000000e+02 1.243870735168457031e+01 2.001177215576171875e+01 3.958216905593872070e-01 -6.355549097061157227e-01 -7.191995531320571899e-02 1.420229673385620117e-01
6.350000000000000000e+02 2.599081420898437500e+01 1.714208221435546875e+01 9.995636343955993652e-01 1.025451302528381348e+00 6.075044870376586914e-01 -5.246109962463378906e-01
6.360000000000000000e+02 3.292417907714843750e+01 1.543729305267333984e+01 1.256503701210021973e+00 2.921753168106079102e+00 1.253477096557617188e+00 -8.232868313789367676e-01
6.370000000000000000e+02 4.311660003662109375e+01 1.896315002441406250e+01 4.723834395408630371e-01 6.350224494934082031e+00 2.046782493591308594e+00 1.464646816253662109e+00
6.380000000000000000e+02 3.851177597045898438e+01 1.661098480224609375e+01 8.538794517517089844e-01 5.405281066894531250e+00 1.877748131752014160e+00 -4.477146863937377930e-01
6.390000000000000000e+02 5.846129417419433594e+00 1.105120849609375000e+01 8.118345588445663452e-02 -8.682331442832946777e-01 -2.361149191856384277e-01 5.439872145652770996e-01
6.400000000000000000e+02 1.451837539672851562e+01 8.508998870849609375e+00 3.506632447242736816e-01 -1.023964047431945801e+00 -2.019902467727661133e-01 6.877627968788146973e-01
6.410000000000000000e+02 2.022896957397460938e+01 7.879871368408203125e+00 6.129180192947387695e-01 -6.868318915367126465e-01 -2.217415347695350647e-02 3.358322083950042725e-01
6.420000000000000000e+02 3.162792587280273438e+01 1.268819618225097656e+01 1.408396482467651367e+00 2.348876953125000000e+00 1.127182006835937500e+00 -7.089335322380065918e-01
6.430000000000000000e+02 1.785489916801452637e+00 1.605528831481933594e+01 1.559105888009071350e-02 -1.348562359809875488e+00 -3.998913764953613281e-01 1.488703340291976929e-01
6.440000000000000000e+02 2.034078598022460938e+01 1.212930455803871155e-01 -7.571449875831604004e-01 -1.344106912612915039e+00 -6.303755640983581543e-01 9.310994744300842285e-01
6.450000000000000000e+02 2.912903785705566406e+01 3.131524562835693359e+00 5.626862049102783203e-01 1.004036307334899902e+00 4.700167477130889893e-01 -1.175388507544994354e-02
6.460000000000000000e+02 4.004022979736328125e+01 3.044475078582763672e+00 8.599959015846252441e-01 5.139106750488281250e+00 1.799730777740478516e+00 -1.362390398979187012e+00
6.470000000000000000e+02 2.683023834228515625e+01 -5.503755092620849609e+00 -1.093753218650817871e+00 -3.032770156860351562e-01 -4.191090762615203857e-01 9.387399554252624512e-01
6.480000000000000000e+02 3.972855758666992188e+01 -4.628684520721435547e+00 1.707849055528640747e-01 3.229396104812622070e+00 1.020054340362548828e+00 -1.056959033012390137e+00
6.490000000000000000e+02 4.608890533447265625e+01 -3.166418790817260742e+00 6.398152709007263184e-01 5.244198322296142578e+00 1.765204071998596191e+00 -2.296266317367553711e+00
6.500000000000000000e+02 4.553657150268554688e+01 -1.980406999588012695e+00 6.886678338050842285e-01 5.220570564270019531e+00 1.772771477699279785e+00 -2.301962852478027344e+00
6.510000000000000000e+02 2.740517234802246094e+01 -1.204037761688232422e+01 -1.176101922988891602e+00 -5.434710979461669922e-01 -5.158718824386596680e-01 1.344287395477294922e+00
6.520000000000000000e+02 4.638664627075195312e+01 -9.472834587097167969e+00 2.516462095081806183e-02 4.851165771484375000e+00 1.462899088859558105e+00 -1.819644570350646973e+00
6.530000000000000000e+02 6.688049316406250000e+01 -2.160361289978027344e+01 -2.855709075927734375e+00 -1.617948263883590698e-01 -9.052511453628540039e-01 -3.260936737060546875e-01
6.540000000000000000e+02 4.508253479003906250e+01 -2.366636657714843750e+01 5.356609821319580078e-01 7.193914651870727539e-01 3.765157163143157959e-01 3.137873113155364990e-01
6.550000000000000000e+02 3.920430374145507812e+01 -3.232265853881835938e+01 -4.876564741134643555e-01 -7.126820087432861328e-02 -1.676774024963378906e-01 -1.420868784189224243e-01
6.560000000000000000e+02 3.798195266723632812e+01 -3.295223617553710938e+01 -5.633524060249328613e-01 -3.309770673513412476e-02 -1.789350360631942749e-01 -1.733590960502624512e-01
6.570000000000000000e+02 3.204760742187500000e+01 -3.258905410766601562e+01 -2.311581373214721680e-01 3.401199821382761002e-03 -6.832707673311233521e-02 5.758291110396385193e-03
6.580000000000000000e+02 3.068841743469238281e+01 -3.217219161987304688e+01 -1.596993356943130493e-01 -3.469939576461911201e-03 -4.895078018307685852e-02 2.520525129511952400e-03
6.590000000000000000e+02 2.692119026184082031e+01 -3.474846267700195312e+01 -4.722910746932029724e-02 -5.216786637902259827e-03 -1.573376730084419250e-02 -5.113002657890319824e-02
6.600000000000000000e+02 2.245856094360351562e+01 -3.151172065734863281e+01 -2.957323566079139709e-02 -2.396449213847517967e-03 -9.590905159711837769e-03 -5.616445560008287430e-03
6.610000000000000000e+02 2.078302764892578125e+01 -3.305959320068359375e+01 -1.986016705632209778e-02 -3.663005307316780090e-03 -7.056951522827148438e-03 -1.256473362445831299e-02
6.620000000000000000e+02 2.109092330932617188e+01 -3.146018409729003906e+01 -2.308454923331737518e-02 5.156173720024526119e-04 -6.770679727196693420e-03 -3.956315107643604279e-03
6.630000000000000000e+02 1.545440101623535156e+01 -3.116450500488281250e+01 -2.392994938418269157e-03 6.988220266066491604e-04 -5.082518910057842731e-04 -6.941189058125019073e-04
6.640000000000000000e+02 1.268435573577880859e+01 -2.995358085632324219e+01 1.164730172604322433e-03 -5.217647776589728892e-05 3.337661037221550941e-04 -6.749426829628646374e-04
6.650000000000000000e+02 9.599460601806640625e+00 -2.725395584106445312e+01 6.994648720137774944e-04 4.971761372871696949e-04 3.589922853279858828e-04 -2.734354638960212469e-04
6.660000000000000000e+02 8.529253959655761719e+00 -2.394793510437011719e+01 -7.376376306638121605e-04 1.025233996188035235e-05 -2.182155731134116650e-04 5.135926403454504907e-05
6.670000000000000000e+02 9.824687957763671875e+00 -1.861067962646484375e+01 -7.963201496750116348e-04 -7.956366061989683658e-06 -2.412829635431990027e-04 1.080158035620115697e-04
6.680000000000000000e+02 1.022852325439453125e+01 -1.615368461608886719e+01 -4.737373383250087500e-04 2.015038480749353766e-04 -8.167004853021353483e-05 -1.166117726825177670e-04
6.690000000000000000e+02 1.274718666076660156e+01 -1.496695327758789062e+01 5.399933070293627679e-05 3.205052344128489494e-04 1.123513648053631186e-04 -1.369375531794503331e-04
6.700000000000000000e+02 1.532044887542724609e+01 -1.361651706695556641e+01 -3.050113446079194546e-05 2.000440144911408424e-04 5.086286546429619193e-05 -6.341643165796995163e-05
6.710000000000000000e+02 1.803962516784667969e+01 -8.580422401428222656e+00 -9.762104309629648924e-05 -3.166458918713033199e-05 -3.878568895743228495e-05 -1.912420157168526202e-05
6.720000000000000000e+02 2.146268081665039062e+01 -1.207627582550048828e+01 -8.731002890272065997e-05 -1.468786376790376380e-05 -3.059936716454103589e-05 -2.545126699260435998e-05
6.730000000000000000e+02 2.250987434387207031e+01 -1.429016494750976562e+01 -1.607710146345198154e-05 -5.156192855793051422e-05 -2.029170900641474873e-05 2.383004812145372853e-06
6.740000000000000000e+02 2.236153793334960938e+01 -1.373541927337646484e+01 1.765764682204462588e-05 1.307325328525621444e-05 9.219270395988132805e-06 7.376202120212838054e-06
6.750000000000000000e+02 2.161484146118164062e+01 -1.301239776611328125e+01 2.444905658194329590e-05 3.167960812788805924e-06 8.285105650429613888e-06 4.215273656882345676e-05
6.760000000000000000e+02 2.040398216247558594e+01 -1.033859252929687500e+01 6.309352465905249119e-05 4.048281334689818323e-05 3.107290103798732162e-05 -1.738339278745115735e-06
6.770000000000000000e+02 2.110787773132324219e+01 -1.145246791839599609e+01 7.790132804075255990e-05 8.733770300750620663e-06 2.599053004814777523e-05 1.385229734296444803e-05
6.780000000000000000e+02 2.081325721740722656e+01 -1.087225818634033203e+01 -8.780728239798918366e-05 -1.167146820080233738e-06 -2.669232708285562694e-05 -1.259681266674306244e-05
6.790000000000000000e+02 1.998860740661621094e+01 -9.764908790588378906e+00 -4.457513568922877312e-05 -5.745717135141603649e-05 -3.060969174839556217e-05 -1.904085911519359797e-05
6.800000000000000000e+02 1.868724441528320312e+01 -8.070266723632812500e+00 6.925612979102879763e-05 3.339327668072655797e-05 3.079482485190965235e-05 2.585703259683214128e-05
6.810000000000000000e+02 1.679117774963378906e+01 -6.050514698028564453e+00 6.020850560162216425e-05 5.849843000760301948e-05 3.561207995517179370e-05 3.114720675512216985e-05
6.820000000000000000e+02 1.727957725524902344e+01 -6.543287277221679688e+00 -5.892924309591762722e-05 -5.198183862376026809e-05 -3.327332524349913001e-05 -2.933461655629798770e-05
6.830000000000000000e+02 1.422991371154785156e+01 -4.838724136352539062e+00 -6.525412027258425951e-05 -1.231839705724269152e-04 -5.653142579831182957e-05 -3.824477971647866070e-05
6.840000000000000000e+02 1.518657302856445312e+01 -4.747889041900634766e+00 -6.996798038017004728e-05 -9.603225043974816799e-05 -4.980006997357122600e-05 -4.338435246609151363e-05
6.850000000000000000e+02 1.463277721405029297e+01 -4.344714164733886719e+00 7.016701420070603490e-05 1.070635335054248571e-04 5.316916576703079045e-05 5.066035737399943173e-05
6.860000000000000000e+02 1.220246124267578125e+01 -2.995139360427856445e+00 9.368685277877375484e-05 9.577380114933475852e-05 5.683819472324103117e-05 8.244314085459336638e-05
6.870000000000000000e+02 1.283016967773437500e+01 -3.313137769699096680e+00 -8.260881440946832299e-05 -9.969436359824612737e-05 -5.469095049193128943e-05 -8.115017408272251487e-05
6.880000000000000000e+02 1.384691715240478516e+01 -5.317953586578369141e+00 5.736953971791081131e-05 1.356776629108935595e-04 5.791416333522647619e-05 1.448281273042084649e-05
6.890000000000000000e+02 8.953591346740722656e+00 -2.812391042709350586e+00 -6.668470450676977634e-05 -8.911230543162673712e-05 -4.673910370911471546e-05 -7.652892963960766792e-05
6.900000000000000000e+02 8.388389587402343750e+00 -1.923458099365234375e+00 -6.795933586545288563e-05 -9.319201490143314004e-05 -4.834540595766156912e-05 -4.008398900623433292e-05
6.910000000000000000e+02 6.776045322418212891e+00 -1.925367116928100586e+00 -7.583368278574198484e-05 -6.762823613826185465e-05 -4.303857713239267468e-05 -2.067626519419718534e-05
6.920000000000000000e+02 7.587223529815673828e+00 -1.916142821311950684e+00 8.644865010865032673e-05 9.350409527542069554e-05 5.398582288762554526e-05 2.859612141037359834e-05
6.930000000000000000e+02 5.134027481079101562e+00 -1.985198616981506348e+00 -4.339665974839590490e-05 -5.106732351123355329e-05 -2.833919461409095675e-05 -5.944896474829874933e-05
6.940000000000000000e+02 2.654313325881958008e+00 -2.040671586990356445e+00 1.658473192946985364e-04 4.846126557822572067e-06 5.120803325553424656e-05 1.458105180063284934e-05
6.950000000000000000e+02 3.152994155883789062e+00 -3.193946838378906250e+00 1.453055010642856359e-04 4.081918814335949719e-05 5.583740494330413640e-05 9.690144361229613423e-05
6.960000000000000000e+02 4.303333759307861328e+00 -2.023554563522338867e+00 6.949053204152733088e-05 3.350488987052813172e-05 3.089862730121240020e-05 8.123568841256201267e-05
6.970000000000000000e+02 1.457799911499023438e+00 -2.813160181045532227e+00 5.066261292085982859e-05 4.834468199987895787e-05 2.970218884001951665e-05 -3.080888927797786891e-05
6.980000000000000000e+02 4.169001281261444092e-01 -2.138769626617431641e+00 -1.295985857723280787e-04 -5.078817412140779197e-05 -5.411602614913135767e-05 -6.165605736896395683e-05
6.990000000000000000e+02 2.016267061233520508e+00 -4.166260147094726562e+01 -1.723330642562359571e-04 6.630031857639551163e-04 1.472010335419327021e-04 6.127474625827744603e-05
7.000000000000000000e+02 3.404060125350952148e+00 -3.937598037719726562e+01 -6.833113729953765869e-04 2.633898693602532148e-04 -1.259764540009200573e-04 -4.746763152070343494e-04
7.010000000000000000e+02 1.014229178428649902e+00 -3.875986099243164062e+01 -6.015158724039793015e-04 7.703698356635868549e-04 5.065618461230769753e-05 -2.266228984808549285e-04
7.020000000000000000e+02 7.795838117599487305e-01 -3.460995483398437500e+01 4.757445713039487600e-04 8.566711912862956524e-04 3.997247258666902781e-04 3.518447556416504085e-05
7.030000000000000000e+02 7.459322810173034668e-01 -3.320358276367187500e+01 -6.245086551643908024e-04 7.523982203565537930e-04 3.836686300928704441e-05 6.360527913784608245e-05
7.040000000000000000e+02 6.748787760734558105e-01 -2.897030830383300781e+01 6.796639645472168922e-04 2.599446452222764492e-04 2.818825887516140938e-04 1.319753500865772367e-04
7.050000000000000000e+02 6.393964290618896484e-01 -2.756071281433105469e+01 -6.722813122905790806e-04 1.145360583905130625e-04 -1.673235819907858968e-04 -3.445217225817032158e-05
7.060000000000000000e+02 5.931768417358398438e-01 -2.475115585327148438e+01 -6.326592410914599895e-04 8.049199209381185938e-07 -1.895562891149893403e-04 -8.449839515378698707e-05
7.070000000000000000e+02 6.077390909194946289e-01 -2.615631294250488281e+01 6.821406423114240170e-04 6.833596853539347649e-05 2.251429832540452480e-04 1.067897756001912057e-04
7.080000000000000000e+02 6.199982762336730957e-01 -2.192800712585449219e+01 -4.877680621575564146e-04 -3.345994991832412779e-05 -1.563684054417535663e-04 -7.902174547780305147e-05
7.090000000000000000e+02 6.360312104225158691e-01 -2.050577545166015625e+01 4.285387694835662842e-04 1.592136504768859595e-05 1.333380350843071938e-04 6.021806984790600836e-05
7.100000000000000000e+02 1.900921344757080078e+00 -2.035810661315917969e+01 -4.408691020216792822e-04 -7.345578342210501432e-05 -1.542974641779437661e-04 -5.653836706187576056e-05
7.110000000000000000e+02 6.182827949523925781e-01 -1.624979782104492188e+01 -4.033194563817232847e-04 -8.352204531547613442e-06 -1.235014933627098799e-04 -4.843550414079800248e-05
7.120000000000000000e+02 6.154101490974426270e-01 -1.484171581268310547e+01 3.921457973774522543e-04 8.833617357595358044e-06 1.202938292408362031e-04 5.280882760416716337e-05
7.130000000000000000e+02 6.127793788909912109e-01 -1.342928028106689453e+01 -3.692795580718666315e-04 -1.037123365676961839e-05 -1.138952356996014714e-04 -5.458558007376268506e-05
7.140000000000000000e+02 1.835769295692443848e+00 -1.326014137268066406e+01 3.571543784346431494e-04 9.797241546039003879e-06 1.100854788091965020e-04 4.921001891489140689e-05
7.150000000000000000e+02 6.057780981063842773e-01 -9.168688774108886719e+00 2.815954503603279591e-04 1.177426929643843323e-05 8.801092189969494939e-05 5.637202411890029907e-05
7.160000000000000000e+02 6.071155071258544922e-01 -7.741193294525146484e+00 -2.507490862626582384e-04 -1.145101759902900085e-05 -7.866003579692915082e-05 -5.555826646741479635e-05
7.170000000000000000e+02 4.066501140594482422e+00 -3.097928524017333984e+00 -6.539307651109993458e-05 -5.980232162983156741e-05 -3.755862053367309272e-05 -9.630200656829401851e-05
7.180000000000000000e+02 7.225340270996093750e+01 -4.111606597900390625e+01 5.791783705353736877e-02 4.911279201507568359e+00 1.490759134292602539e+00 8.182049542665481567e-02
7.190000000000000000e+02 5.234548187255859375e+01 -4.150022506713867188e+01 -1.156234025955200195e+00 4.463310718536376953e+00 9.921229481697082520e-01 7.305371016263961792e-02
7.200000000000000000e+02 3.672203826904296875e+01 -4.107461929321289062e+01 2.454641312360763550e-01 3.433977663516998291e-01 1.766585707664489746e-01 1.092729903757572174e-02
7.210000000000000000e+02 7.871478271484375000e+01 4.008246612548828125e+01 -1.532230973243713379e-01 1.097689628601074219e+01 3.247102022171020508e+00 -3.004286289215087891e-01
7.220000000000000000e+02 7.912554168701171875e+01 3.872962188720703125e+01 -2.565506845712661743e-02 1.133544349670410156e+01 3.392936468124389648e+00 -1.401230096817016602e-01
7.230000000000000000e+02 7.766899871826171875e+01 3.796015930175781250e+01 -1.582152694463729858e-01 1.036479759216308594e+01 3.061974525451660156e+00 -1.938930302858352661e-01
7.240000000000000000e+02 7.936893463134765625e+01 3.625741958618164062e+01 5.024477094411849976e-02 1.166054916381835938e+01 3.513238191604614258e+00 2.662806212902069092e-02
7.250000000000000000e+02 7.774250793457031250e+01 3.481437683105468750e+01 -1.133351996541023254e-01 1.053567123413085938e+01 3.126700878143310547e+00 1.926595121622085571e-01
7.260000000000000000e+02 7.926825714111328125e+01 3.343845367431640625e+01 -3.962349891662597656e-02 1.156816577911376953e+01 3.458562612533569336e+00 1.072389408946037292e-01
7.270000000000000000e+02 7.673440551757812500e+01 3.039768028259277344e+01 -1.540160477161407471e-01 9.325485229492187500e+00 2.751440763473510742e+00 6.302831768989562988e-01
7.280000000000000000e+02 7.943115234375000000e+01 2.644960021972656250e+01 -1.010766951367259026e-03 9.952570915222167969e+00 2.985467910766601562e+00 2.102134972810745239e-01
7.290000000000000000e+02 7.725434112548828125e+01 2.630160522460937500e+01 1.423521153628826141e-02 9.112745285034179688e+00 2.738094091415405273e+00 6.799725890159606934e-01
7.300000000000000000e+02 7.942092132568359375e+01 2.226935005187988281e+01 1.307928934693336487e-02 8.777894973754882812e+00 2.637292146682739258e+00 1.819167584180831909e-01
7.310000000000000000e+02 7.941101837158203125e+01 2.087217903137207031e+01 -4.306149494368582964e-04 8.447652816772460938e+00 2.534166812896728516e+00 1.676820218563079834e-01
7.320000000000000000e+02 7.827222442626953125e+01 2.222809791564941406e+01 2.227355912327766418e-02 8.668326377868652344e+00 2.607179880142211914e+00 4.247636795043945312e-01
7.330000000000000000e+02 7.940779113769531250e+01 1.947268104553222656e+01 8.738610893487930298e-03 8.141473770141601562e+00 2.445063829421997070e+00 1.602921783924102783e-01
7.340000000000000000e+02 7.941311645507812500e+01 1.528792095184326172e+01 6.781963631510734558e-03 7.308450222015380859e+00 2.194569587707519531e+00 1.427653729915618896e-01
7.350000000000000000e+02 7.941347503662109375e+01 1.389643478393554688e+01 -1.820668391883373260e-02 7.020204067230224609e+00 2.100599288940429688e+00 1.565186381340026855e-01
7.360000000000000000e+02 7.941280364990234375e+01 1.250283336639404297e+01 1.064531411975622177e-02 6.697537422180175781e+00 2.012454748153686523e+00 1.685153543949127197e-01
7.370000000000000000e+02 7.941078186035156250e+01 1.110615921020507812e+01 -2.251331880688667297e-02 6.339326381683349609e+00 1.895043849945068359e+00 1.822515428066253662e-01
7.380000000000000000e+02 7.940283203125000000e+01 8.316689491271972656e+00 -1.468551717698574066e-02 5.526356220245361328e+00 1.653501152992248535e+00 1.983324438333511353e-01
7.390000000000000000e+02 7.940158081054687500e+01 6.921086788177490234e+00 2.728050015866756439e-02 5.112890243530273438e+00 1.542051196098327637e+00 1.880144029855728149e-01
7.400000000000000000e+02 7.821443939208984375e+01 6.829315185546875000e+00 4.059057310223579407e-02 5.989013671875000000e+00 1.808881282806396484e+00 4.781137108802795410e-01
7.410000000000000000e+02 7.939615631103515625e+01 5.524663448333740234e+00 3.180987667292356491e-03 4.745844841003417969e+00 1.424707770347595215e+00 1.516493111848831177e-01
7.420000000000000000e+02 7.937432861328125000e+01 1.333610892295837402e+00 3.488161042332649231e-02 4.251990318298339844e+00 1.286061644554138184e+00 4.015061538666486740e-03
7.430000000000000000e+02 7.937455749511718750e+01 -6.415952742099761963e-02 2.010488696396350861e-02 4.316306114196777344e+00 1.300923347473144531e+00 -5.899846553802490234e-02
7.440000000000000000e+02 7.937873840332031250e+01 -1.460179686546325684e+00 1.651292666792869568e-02 4.496438980102539062e+00 1.353885531425476074e+00 -1.001741439104080200e-01
7.450000000000000000e+02 7.938507080078125000e+01 -2.855234622955322266e+00 1.273663062602281570e-02 4.758674144744873047e+00 1.431423187255859375e+00 -1.339128613471984863e-01
7.460000000000000000e+02 7.939836883544921875e+01 -7.026371955871582031e+00 -1.875761081464588642e-03 5.816966056823730469e+00 1.744527101516723633e+00 -1.615359038114547729e-01
7.470000000000000000e+02 7.939947509765625000e+01 -8.413227081298828125e+00 -1.911312574520707130e-03 6.178593158721923828e+00 1.853004455566406250e+00 -1.571102589368820190e-01
7.480000000000000000e+02 7.939732360839843750e+01 -9.797691345214843750e+00 -7.525573484599590302e-03 6.523135662078857422e+00 1.954683065414428711e+00 -1.461425274610519409e-01
7.490000000000000000e+02 7.939075469970703125e+01 -1.395559692382812500e+01 3.604036755859851837e-04 7.357297897338867188e+00 2.207297563552856445e+00 -9.611038863658905029e-02
7.500000000000000000e+02 7.939469146728515625e+01 -1.534523105621337891e+01 -3.360547497868537903e-02 7.530404090881347656e+00 2.249039649963378906e+00 -5.876237526535987854e-02
7.510000000000000000e+02 7.939759063720703125e+01 -1.673861122131347656e+01 -1.027180254459381104e-02 7.601815700531005859e+00 2.277463197708129883e+00 -7.239112164825201035e-03
7.520000000000000000e+02 7.940700531005859375e+01 -2.231870651245117188e+01 2.011918090283870697e-02 6.514006614685058594e+00 1.960237860679626465e+00 2.065139710903167725e-01
7.530000000000000000e+02 7.708036041259765625e+01 -2.657969665527343750e+01 4.981401264667510986e-01 7.110559940338134766e+00 2.282609939575195312e+00 -2.206921577453613281e-01
7.540000000000000000e+02 7.939201354980468750e+01 -2.371131706237792969e+01 3.057951107621192932e-02 6.099740982055664062e+00 1.839096188545227051e+00 1.477905809879302979e-01
7.550000000000000000e+02 7.939369964599609375e+01 -2.789239501953125000e+01 9.694545296952128410e-04 6.014067649841308594e+00 1.804511189460754395e+00 -1.686688363552093506e-01
7.560000000000000000e+02 7.938088226318359375e+01 -2.928786849975585938e+01 6.862282007932662964e-02 6.461040496826171875e+00 1.958899021148681641e+00 -2.441792041063308716e-01
7.570000000000000000e+02 7.937432861328125000e+01 -3.067712593078613281e+01 -4.324084892868995667e-02 7.016420364379882812e+00 2.091953992843627930e+00 -2.763652503490447998e-01
7.580000000000000000e+02 7.927278900146484375e+01 -3.487461471557617188e+01 4.365798085927963257e-02 8.543725013732910156e+00 2.576214790344238281e+00 -1.921110004186630249e-01
7.590000000000000000e+02 7.920808410644531250e+01 -3.630088043212890625e+01 -1.632221192121505737e-01 8.795260429382324219e+00 2.589611530303955078e+00 -9.737309813499450684e-02
7.600000000000000000e+02 7.918144226074218750e+01 -3.770980072021484375e+01 -2.634285204112529755e-02 8.814046859741210938e+00 2.636311292648315430e+00 8.072331547737121582e-02
7.610000000000000000e+02 7.923874664306640625e+01 -3.901554107666015625e+01 1.435241252183914185e-01 8.723297119140625000e+00 2.660046339035034180e+00 -3.427588148042559624e-03
7.620000000000000000e+02 1.301579761505126953e+01 3.828749465942382812e+01 -8.020585030317306519e-02 -1.841578483581542969e-01 -7.930910587310791016e-02 -5.927723273634910583e-02
7.630000000000000000e+02 2.733381080627441406e+01 4.057093811035156250e+01 -5.436361432075500488e-01 1.839189767837524414e+00 3.886660933494567871e-01 -8.677116036415100098e-02
7.640000000000000000e+02 6.823403167724609375e+01 3.664588928222656250e+01 -3.875479400157928467e-01 2.465016365051269531e+00 6.232405304908752441e-01 -2.284253239631652832e-01
7.650000000000000000e+02 3.759565353393554688e-01 2.169006109237670898e+00 -2.561075845733284950e-03 1.978709548711776733e-02 5.167805589735507965e-03 -4.852539132116362453e-05
7.660000000000000000e+02 2.625378131866455078e+00 2.895661115646362305e+00 -9.476871788501739502e-02 -9.615036845207214355e-02 -5.727572739124298096e-02 1.109202280640602112e-01
7.670000000000000000e+02 1.584949851036071777e+00 6.344316482543945312e+00 -1.814245246350765228e-02 -3.514605462551116943e-01 -1.108809038996696472e-01 1.772790104150772095e-01
7.680000000000000000e+02 5.361924767494201660e-01 9.213004112243652344e+00 -1.259677577763795853e-03 -6.551914215087890625e-01 -1.969353407621383667e-01 7.401638478040695190e-02
7.690000000000000000e+02 5.600355863571166992e-01 1.202342033386230469e+01 7.855937001295387745e-04 -1.034596323966979980e+00 -3.101432323455810547e-01 6.985518336296081543e-02
7.700000000000000000e+02 1.673149228096008301e+00 1.185908603668212891e+01 1.184864155948162079e-02 -9.727708101272583008e-01 -2.882766425609588623e-01 2.007735520601272583e-01
7.710000000000000000e+02 5.978304743766784668e-01 1.624824142456054688e+01 4.511648789048194885e-03 -1.485010385513305664e+00 -4.441496133804321289e-01 5.014997720718383789e-02
7.720000000000000000e+02 6.039079427719116211e-01 1.765578651428222656e+01 2.212543506175279617e-03 -1.596950650215148926e+00 -4.784214198589324951e-01 4.278384521603584290e-02
7.730000000000000000e+02 6.296154856681823730e-01 2.187454032897949219e+01 4.124368540942668915e-03 -1.818156480789184570e+00 -5.442096590995788574e-01 1.944715902209281921e-02
7.740000000000000000e+02 6.533821225166320801e-01 2.329104995727539062e+01 9.979567257687449455e-04 -1.858150482177734375e+00 -5.571457743644714355e-01 1.443571038544178009e-02
7.750000000000000000e+02 6.846974492073059082e-01 2.471994972229003906e+01 5.882105790078639984e-03 -1.881568670272827148e+00 -5.627059936523437500e-01 6.310859229415655136e-03
7.760000000000000000e+02 6.899493932723999023e-01 2.902703285217285156e+01 3.472899785265326500e-03 -1.903362751007080078e+00 -5.699669718742370605e-01 5.035227150074206293e-05
7.770000000000000000e+02 6.729192733764648438e-01 3.044069671630859375e+01 1.436485094018280506e-03 -1.899803519248962402e+00 -5.695101022720336914e-01 -4.952798131853342056e-03
7.780000000000000000e+02 2.022325992584228516e+00 3.036592674255371094e+01 5.453931633383035660e-03 -1.705599069595336914e+00 -5.100435614585876465e-01 -7.043519057333469391e-03
7.790000000000000000e+02 6.607699394226074219e-01 3.183980751037597656e+01 -1.678126747719943523e-03 -1.891844749450683594e+00 -5.680568814277648926e-01 -4.495956934988498688e-03
7.800000000000000000e+02 6.739033460617065430e-01 3.601736068725585938e+01 -3.884276608005166054e-03 -1.831669449806213379e+00 -5.506660938262939453e-01 -1.268548145890235901e-02
7.810000000000000000e+02 3.315402507781982422e+00 3.716661071777343750e+01 1.667416654527187347e-02 -1.561721205711364746e+00 -4.635141193866729736e-01 -5.278031527996063232e-02
7.820000000000000000e+02 9.131697416305541992e-01 3.873752593994140625e+01 -8.125540800392627716e-03 -1.738811612129211426e+00 -5.240811705589294434e-01 -2.809434570372104645e-02
7.830000000000000000e+02 1.292596101760864258e+00 4.009566879272460938e+01 2.356658503413200378e-02 -1.684589028358459473e+00 -4.983067214488983154e-01 -4.657897725701332092e-02
7.840000000000000000e+02 1.002678012847900391e+01 1.977189540863037109e+00 -9.391897320747375488e-01 -6.019080281257629395e-01 -4.623293280601501465e-01 8.184673786163330078e-01
7.850000000000000000e+02 9.212940216064453125e+00 1.906516551971435547e+00 -8.524585962295532227e-01 -4.378928244113922119e-01 -3.871054351329803467e-01 7.330181002616882324e-01
7.860000000000000000e+02 8.460418701171875000e+00 1.874383807182312012e+00 -8.259977698326110840e-01 -2.660851776599884033e-01 -3.276248872280120850e-01 6.230708360671997070e-01
7.870000000000000000e+02 7.711051464080810547e+00 2.582503318786621094e+00 -6.129095554351806641e-01 -2.773138582706451416e-01 -2.670670151710510254e-01 5.974938273429870605e-01
7.880000000000000000e+02 6.986535549163818359e+00 1.863616585731506348e+00 -5.450851917266845703e-01 -1.320025175809860229e-01 -2.031263113021850586e-01 3.855051696300506592e-01
7.890000000000000000e+02 4.781799793243408203e+00 1.885378956794738770e+00 -2.418840527534484863e-01 -7.026100158691406250e-02 -9.364351630210876465e-02 1.892058998346328735e-01
7.900000000000000000e+02 4.045475959777832031e+00 1.901546835899353027e+00 -1.706968247890472412e-01 -6.913295388221740723e-02 -7.194893807172775269e-02 1.409879773855209351e-01
7.910000000000000000e+02 3.312750101089477539e+00 1.929240465164184570e+00 -1.198638454079627991e-01 -5.591977015137672424e-02 -5.273508280515670776e-02 9.679760038852691650e-02
7.920000000000000000e+02 1.854786396026611328e+00 1.999778628349304199e+00 -4.150627925992012024e-02 -4.842858761548995972e-02 -2.698046155273914337e-02 3.549416363239288330e-02
7.930000000000000000e+02 1.119446396827697754e+00 2.076431512832641602e+00 -1.435512490570545197e-02 -2.616802603006362915e-02 -1.215694565325975418e-02 7.349868305027484894e-03
7.940000000000000000e+02 1.323204803466796875e+01 6.797822117805480957e-01 -1.538538813591003418e+00 -1.013564109802246094e+00 -7.656309008598327637e-01 1.189069747924804688e+00
7.950000000000000000e+02 1.556231689453125000e+01 1.067895770072937012e+00 -1.113196492195129395e+00 -1.367327332496643066e+00 -7.441571354866027832e-01 1.201779961585998535e+00
7.960000000000000000e+02 1.607282447814941406e+01 -8.982192277908325195e-01 -1.876923680305480957e+00 -1.491382956504821777e+00 -1.010491967201232910e+00 1.518926858901977539e+00
7.970000000000000000e+02 1.804035568237304688e+01 -2.309225797653198242e+00 -2.005652189254760742e+00 -1.834834694862365723e+00 -1.152146100997924805e+00 1.704773306846618652e+00
7.980000000000000000e+02 2.102466201782226562e+01 -5.012049674987792969e+00 -1.916286706924438477e+00 -2.139086008071899414e+00 -1.216611742973327637e+00 1.796934485435485840e+00
7.990000000000000000e+02 2.155525779724121094e+01 -5.618299961090087891e+00 -1.871938467025756836e+00 -2.147706747055053711e+00 -1.205893635749816895e+00 1.786162257194519043e+00
8.000000000000000000e+02 2.253562164306640625e+01 -6.882746219635009766e+00 -1.741724491119384766e+00 -2.114629268646240234e+00 -1.156906127929687500e+00 1.749614000320434570e+00
8.010000000000000000e+02 2.389411354064941406e+01 -8.841049194335937500e+00 -1.490365862846374512e+00 -1.866441249847412109e+00 -1.007042169570922852e+00 1.608569264411926270e+00
8.020000000000000000e+02 2.431205368041992188e+01 -9.512301445007324219e+00 -1.401206612586975098e+00 -1.749899506568908691e+00 -9.453318119049072266e-01 1.549716591835021973e+00
8.030000000000000000e+02 2.472609519958496094e+01 -1.018773841857910156e+01 -1.301031589508056641e+00 -1.584848761558532715e+00 -8.657641410827636719e-01 1.486050963401794434e+00
8.040000000000000000e+02 2.577774047851562500e+01 -1.221613502502441406e+01 -1.049564599990844727e+00 -1.085883736610412598e+00 -6.406344771385192871e-01 1.326262712478637695e+00
8.050000000000000000e+02 2.640965461730957031e+01 -1.179471206665039062e+01 -1.154702544212341309e+00 -8.459091186523437500e-01 -6.001834869384765625e-01 1.354102849960327148e+00
8.060000000000000000e+02 2.643877601623535156e+01 -1.357265853881835938e+01 -8.768414258956909180e-01 -7.591777443885803223e-01 -4.908057451248168945e-01 1.139109969139099121e+00
8.070000000000000000e+02 2.676874732971191406e+01 -1.425519943237304688e+01 -8.321285843849182129e-01 -5.840522050857543945e-01 -4.248542487621307373e-01 1.071707010269165039e+00
8.080000000000000000e+02 2.737704849243164062e+01 -1.565321636199951172e+01 -9.040970802307128906e-01 -3.856492638587951660e-01 -3.869239091873168945e-01 8.205807209014892578e-01
8.090000000000000000e+02 3.035262107849121094e+01 -1.737216567993164062e+01 -1.650294661521911621e+00 -1.301081329584121704e-01 -5.341208577156066895e-01 6.042510867118835449e-01
8.100000000000000000e+02 4.025777435302734375e+01 -1.929860496520996094e+01 -2.053164005279541016e+00 -4.960145056247711182e-01 -7.647535204887390137e-01 9.743441939353942871e-01
8.110000000000000000e+02 4.059917068481445312e+01 -1.833561515808105469e+01 -2.554965972900390625e+00 2.028361856937408447e-01 -7.056389451026916504e-01 5.833873748779296875e-01
8.120000000000000000e+02 4.185754394531250000e+01 -2.001593399047851562e+01 -1.595018029212951660e+00 3.471733331680297852e-01 -3.743533790111541748e-01 4.936079084873199463e-01
8.130000000000000000e+02 4.521878814697265625e+01 -1.845419692993164062e+01 -2.299232631921768188e-01 8.695022463798522949e-01 1.918736994266510010e-01 -1.016990303993225098e+00
8.140000000000000000e+02 4.538915634155273438e+01 -1.903888320922851562e+01 -5.817165970802307129e-01 3.913645148277282715e-01 -5.710561946034431458e-02 -6.985472440719604492e-01
8.150000000000000000e+02 4.734249877929687500e+01 -1.875409126281738281e+01 2.056157350540161133e+00 1.908969998359680176e+00 1.189538240432739258e+00 -3.554619073867797852e+00
8.160000000000000000e+02 4.831645965576171875e+01 -1.847359657287597656e+01 2.006690025329589844e+00 7.295176029205322266e+00 2.790559768676757812e+00 -6.485264301300048828e+00
8.170000000000000000e+02 4.855123519897460938e+01 -1.841922569274902344e+01 1.523376107215881348e+00 8.520529747009277344e+00 3.013171672821044922e+00 -6.424977302551269531e+00
8.180000000000000000e+02 4.812806701660156250e+01 -1.859055519104003906e+01 2.566679954528808594e+00 5.227455615997314453e+00 2.338240623474121094e+00 -5.889424324035644531e+00
8.190000000000000000e+02 4.688125991821289062e+01 -2.230136680603027344e+01 9.546127319335937500e-01 1.563930988311767578e+00 7.555630803108215332e-01 1.203184008598327637e+00
8.200000000000000000e+02 4.620748519897460938e+01 -2.248576736450195312e+01 6.625350713729858398e-01 9.182776808738708496e-01 4.742438197135925293e-01 6.953799724578857422e-01
8.210000000000000000e+02 4.421443557739257812e+01 -2.322671699523925781e+01 2.810918688774108887e-01 8.897592872381210327e-02 1.110203340649604797e-01 -1.261468231678009033e-01
8.220000000000000000e+02 7.261804199218750000e+01 -2.838795852661132812e+01 1.066517233848571777e+00 9.680511474609375000e+00 3.224108457565307617e+00 2.783515453338623047e-01
8.230000000000000000e+02 7.082665252685546875e+01 -3.036888694763183594e+01 1.166404366493225098e+00 6.624012947082519531e+00 2.337125301361083984e+00 2.272171974182128906e+00
8.240000000000000000e+02 6.693339538574218750e+01 -3.372604370117187500e+01 -1.393005967140197754e+00 8.508544415235519409e-03 -4.153492152690887451e-01 -4.279623329639434814e-01
8.250000000000000000e+02 6.424523162841796875e+01 -3.486756896972656250e+01 -1.800213098526000977e+00 -1.299602240324020386e-01 -5.790520310401916504e-01 -3.180353045463562012e-01
8.260000000000000000e+02 6.272259140014648438e+01 3.756035995483398438e+01 -5.360012650489807129e-01 -5.268430709838867188e-01 -3.188533186912536621e-01 5.802545547485351562e-01
8.270000000000000000e+02 6.482335662841796875e+01 3.430537414550781250e+01 -1.923927426338195801e+00 -8.363304138183593750e-01 -8.280773758888244629e-01 1.072137832641601562e+00
8.280000000000000000e+02 6.844057464599609375e+01 2.981026649475097656e+01 -1.047369372099637985e-02 2.486417293548583984e+00 7.427830696105957031e-01 -5.269297957420349121e-01
8.290000000000000000e+02 6.942826080322265625e+01 2.714323234558105469e+01 2.118670493364334106e-01 5.883883476257324219e+00 1.828725218772888184e+00 -8.215011358261108398e-01
8.300000000000000000e+02 6.992805480957031250e+01 2.291120719909667969e+01 1.051933988928794861e-01 8.201190948486328125e+00 2.491915225982666016e+00 3.024268336594104767e-02
8.310000000000000000e+02 6.997482299804687500e+01 1.866137313842773438e+01 -1.233315211720764637e-03 8.827239036560058594e+00 2.647801637649536133e+00 1.736267805099487305e-01
8.320000000000000000e+02 6.992205810546875000e+01 1.442219543457031250e+01 2.234735488891601562e-01 1.006986331939697266e+01 3.088001012802124023e+00 4.960230886936187744e-01
8.330000000000000000e+02 6.980792999267578125e+01 1.303161144256591797e+01 5.856693536043167114e-02 9.053736686706542969e+00 2.733691215515136719e+00 6.632953882217407227e-01
8.340000000000000000e+02 7.125036621093750000e+01 4.766044616699218750e+00 1.959350109100341797e-01 1.224199390411376953e+01 3.731378555297851562e+00 3.514294624328613281e-01
8.350000000000000000e+02 6.993201446533203125e+01 5.155071616172790527e-01 7.721057534217834473e-01 1.409603595733642578e+01 4.460442543029785156e+00 2.274099588394165039e+00
8.360000000000000000e+02 6.882994079589843750e+01 -3.589750051498413086e+00 9.634769558906555176e-01 9.310248374938964844e+00 3.082117557525634766e+00 2.757472753524780273e+00
8.370000000000000000e+02 6.832677459716796875e+01 -4.919819355010986328e+00 1.083738684654235840e+00 8.039533615112304688e+00 2.736981630325317383e+00 2.691178560256958008e+00
8.380000000000000000e+02 6.947830200195312500e+01 -8.240532875061035156e+00 4.196321666240692139e-01 6.515667915344238281e+00 2.080590009689331055e+00 1.112121105194091797e+00
8.390000000000000000e+02 6.413257598876953125e+01 -1.240207862854003906e+01 1.875190377235412598e+00 2.696193218231201172e+00 1.371415138244628906e+00 2.012466907501220703e+00
8.400000000000000000e+02 6.190007781982421875e+01 -1.429617118835449219e+01 1.898572325706481934e+00 1.360543251037597656e+00 9.777346849441528320e-01 1.539821743965148926e+00
8.410000000000000000e+02 5.802940750122070312e+01 -1.637784194946289062e+01 -2.176040887832641602e+00 1.582487374544143677e-01 -6.053376793861389160e-01 7.186036705970764160e-01
8.420000000000000000e+02 5.018050384521484375e+01 -7.413684368133544922e+00 6.506567597389221191e-01 6.812858581542968750e+00 2.239054679870605469e+00 -2.191764354705810547e+00
8.430000000000000000e+02 4.974678039550781250e+01 -6.109957218170166016e+00 7.194640636444091797e-01 6.660057067871093750e+00 2.213856458663940430e+00 -2.220054149627685547e+00
8.440000000000000000e+02 4.771131134033203125e+01 -3.925750255584716797e+00 7.166321277618408203e-01 5.622187614440917969e+00 1.901646018028259277e+00 -2.299583911895751953e+00
8.450000000000000000e+02 4.780131912231445312e+01 -9.664014577865600586e-01 9.441406130790710449e-01 5.398554801940917969e+00 1.902808666229248047e+00 -2.428324460983276367e+00
8.460000000000000000e+02 4.719873809814453125e+01 2.763231396675109863e-01 1.201342582702636719e+00 5.513092041015625000e+00 2.014330387115478516e+00 -2.634381294250488281e+00
8.470000000000000000e+02 4.657112884521484375e+01 1.514523267745971680e+00 1.318921804428100586e+00 5.618422508239746094e+00 2.081203222274780273e+00 -2.760968685150146484e+00
8.480000000000000000e+02 4.592912673950195312e+01 2.745118141174316406e+00 1.403104782104492188e+00 5.626454830169677734e+00 2.108867883682250977e+00 -2.908177614212036133e+00
8.490000000000000000e+02 4.328169631958007812e+01 7.698269367218017578e+00 1.624063849449157715e+00 8.614817619323730469e+00 3.071664571762084961e+00 -3.513089418411254883e+00
8.500000000000000000e+02 4.220252227783203125e+01 1.186776924133300781e+01 4.669907987117767334e-01 1.052005290985107422e+01 3.296113252639770508e+00 -5.271385312080383301e-01
8.510000000000000000e+02 4.234410858154296875e+01 1.474645996093750000e+01 1.621109098196029663e-01 8.388094902038574219e+00 2.565061569213867188e+00 5.203880667686462402e-01
8.520000000000000000e+02 4.277442169189453125e+01 1.757851791381835938e+01 4.116988480091094971e-01 7.167193889617919922e+00 2.273667812347412109e+00 1.334893822669982910e+00
8.530000000000000000e+02 4.395130920410156250e+01 2.168511962890625000e+01 6.827667951583862305e-01 5.280949592590332031e+00 1.789114952087402344e+00 1.652111411094665527e+00
8.540000000000000000e+02 4.652835083007812500e+01 2.686440086364746094e+01 7.935048937797546387e-01 2.753159284591674805e+00 1.063999176025390625e+00 1.376547694206237793e+00
8.550000000000000000e+02 4.825071334838867188e+01 2.915184974670410156e+01 5.943520665168762207e-01 1.589215397834777832e+00 6.550702452659606934e-01 9.604241847991943359e-01
8.560000000000000000e+02 5.009291076660156250e+01 3.134177207946777344e+01 3.011547923088073730e-01 8.798186182975769043e-01 3.542920053005218506e-01 5.330216884613037109e-01
8.570000000000000000e+02 5.607435989379882812e+01 3.538982772827148438e+01 -8.725953698158264160e-01 -6.675235182046890259e-02 -2.818043231964111328e-01 -2.400233596563339233e-01
8.580000000000000000e+02 4.827214431762695312e+01 -2.192055702209472656e+01 1.240143656730651855e+00 5.590464591979980469e+00 2.049182415008544922e+00 3.138570785522460938e+00
8.590000000000000000e+02 4.808780670166015625e+01 -2.196823501586914062e+01 1.290929675102233887e+00 4.774920940399169922e+00 1.819755196571350098e+00 2.966017723083496094e+00
8.600000000000000000e+02 4.753141021728515625e+01 -2.214208412170410156e+01 1.261279702186584473e+00 2.821364164352416992e+00 1.224793195724487305e+00 2.052028894424438477e+00
8.610000000000000000e+02 4.844414138793945312e+01 -2.210530853271484375e+01 8.143916726112365723e-01 6.753497123718261719e+00 2.270366668701171875e+00 2.960417270660400391e+00
8.620000000000000000e+02 4.733289337158203125e+01 -2.221650123596191406e+01 1.164928913116455078e+00 2.452266693115234375e+00 1.085158705711364746e+00 1.805203914642333984e+00
8.630000000000000000e+02 4.790299224853515625e+01 -2.201853179931640625e+01 1.356693863868713379e+00 3.812107086181640625e+00 1.550640225410461426e+00 2.627296209335327148e+00
8.640000000000000000e+02 4.775164413452148438e+01 -2.239246749877929688e+01 1.081003665924072266e+00 3.936248302459716797e+00 1.505175590515136719e+00 2.416471004486083984e+00
8.650000000000000000e+02 4.885224914550781250e+01 -2.183520698547363281e+01 3.931333422660827637e-01 9.575585365295410156e+00 2.990615606307983398e+00 3.302355051040649414e+00
8.660000000000000000e+02 4.614001083374023438e+01 -1.894561195373535156e+01 1.056825369596481323e-01 6.908915042877197266e-01 2.389722019433975220e-01 -1.343995809555053711e+00
8.670000000000000000e+02 4.676616668701171875e+01 -1.885089683532714844e+01 1.211350202560424805e+00 9.443738460540771484e-01 6.467171907424926758e-01 -2.307991981506347656e+00
8.680000000000000000e+02 4.754346084594726562e+01 -1.870171165466308594e+01 2.341918230056762695e+00 2.529861927032470703e+00 1.461534023284912109e+00 -4.154666900634765625e+00
8.690000000000000000e+02 4.616619491577148438e+01 -1.861850166320800781e+01 5.709176659584045410e-01 9.469600915908813477e-01 4.553633034229278564e-01 -1.799105167388916016e+00
8.700000000000000000e+02 4.696645736694335938e+01 -1.882866859436035156e+01 1.571083784103393555e+00 1.085747361183166504e+00 7.970493435859680176e-01 -2.667086362838745117e+00
8.710000000000000000e+02 4.804476547241210938e+01 -1.810473823547363281e+01 1.294562101364135742e+00 6.192994594573974609e+00 2.246267080307006836e+00 -5.550313472747802734e+00
8.720000000000000000e+02 4.794317245483398438e+01 -1.839204597473144531e+01 2.246539354324340820e+00 4.692529678344726562e+00 2.081720590591430664e+00 -5.572660923004150391e+00
8.730000000000000000e+02 4.794935226440429688e+01 -1.864327049255371094e+01 2.740499734878540039e+00 4.101224422454833984e+00 2.052517175674438477e+00 -5.529084205627441406e+00
8.740000000000000000e+02 4.655684280395507812e+01 -1.887002182006835938e+01 8.135145902633666992e-01 7.805759906768798828e-01 4.782271683216094971e-01 -1.913410305976867676e+00
8.750000000000000000e+02 4.634899139404296875e+01 -1.890234184265136719e+01 5.206781029701232910e-01 6.634650230407714844e-01 3.552429378032684326e-01 -1.669246673583984375e+00
8.760000000000000000e+02 4.932429122924804688e+01 -1.833415412902832031e+01 -5.693959817290306091e-02 1.365993309020996094e+01 4.080898284912109375e+00 -4.529848098754882812e+00
8.770000000000000000e+02 4.108452606201171875e+01 -1.933264732360839844e+01 -1.880637168884277344e+00 2.494904845952987671e-01 -4.893440008163452148e-01 6.492539048194885254e-01
8.780000000000000000e+02 4.321701812744140625e+01 -1.961868667602539062e+01 -1.590440988540649414e+00 5.095790624618530273e-01 -3.242585957050323486e-01 2.512443959712982178e-01
8.790000000000000000e+02 3.930516052246093750e+01 -1.884712028503417969e+01 -2.930602312088012695e+00 -9.640254974365234375e-01 -1.168388366699218750e+00 1.372854471206665039e+00
8.800000000000000000e+02 1.627689170837402344e+01 -5.590501785278320312e+00 -6.752918125130236149e-05 -6.839967682026326656e-05 -4.077865742146968842e-05 -3.220471262466162443e-05
8.810000000000000000e+02 1.573576450347900391e+01 -5.163240432739257812e+00 6.884538743179291487e-05 8.168907515937462449e-05 4.516033732215873897e-05 3.753824057639576495e-05
8.820000000000000000e+02 1.405487918853759766e+01 -3.974649667739868164e+00 -7.154159538913518190e-05 -1.083374590962193906e-04 -5.396371489041484892e-05 -6.194227171363309026e-05
8.830000000000000000e+02 1.578894042968750000e+01 -6.046858310699462891e+00 7.097151683410629630e-05 7.137685315683484077e-05 4.270451245247386396e-05 1.630470978852827102e-05
8.840000000000000000e+02 1.528335666656494141e+01 -5.614980220794677734e+00 -6.887158815516158938e-05 -8.773669105721637607e-05 -4.698248449130915105e-05 -1.964569673873484135e-05
8.850000000000000000e+02 1.823297882080078125e+01 -7.545938014984130859e+00 -6.689990550512447953e-05 -4.477011680137366056e-05 -3.350100814714096487e-05 -2.009736090258229524e-05
8.860000000000000000e+02 1.720963668823242188e+01 -1.092360305786132812e+01 7.692208600929006934e-05 1.410235126968473196e-04 6.538367597386240959e-05 1.466416324547026306e-05
8.870000000000000000e+02 1.367837810516357422e+01 -4.490347862243652344e+00 6.285024574026465416e-05 1.246548490598797798e-04 5.625153062283061445e-05 5.581097502727061510e-05
8.880000000000000000e+02 1.150440120697021484e+01 -2.681263446807861328e+00 -7.938712951727211475e-05 -9.668746497482061386e-05 -5.282237543724477291e-05 -6.800888513680547476e-05
8.890000000000000000e+02 1.309004402160644531e+01 -4.179122447967529297e+00 -6.395992386387661099e-05 -1.201145059894770384e-04 -5.522232822841033340e-05 -7.219539111247286201e-05
8.900000000000000000e+02 1.933854293823242188e+01 -1.033873176574707031e+01 4.926254769088700414e-05 8.915216312743723392e-05 4.152441397309303284e-05 3.809158442891202867e-05
8.910000000000000000e+02 1.912493133544921875e+01 -8.625217437744140625e+00 -6.172555731609463692e-05 -3.382603244972415268e-05 -2.866547765734139830e-05 -3.313103297841735184e-05
8.920000000000000000e+02 1.955954933166503906e+01 -9.193152427673339844e+00 5.133065496920607984e-05 4.329468720243312418e-05 2.838760337908752263e-05 3.382426439202390611e-05
8.930000000000000000e+02 1.786151885986328125e+01 -1.118216133117675781e+01 2.878264967876020819e-05 -8.151974907377734780e-05 -1.582112963660620153e-05 -2.675719042599666864e-05
8.940000000000000000e+02 2.039710235595703125e+01 -1.144950866699218750e+01 6.519290036521852016e-05 9.709440746519248933e-06 2.247070187877397984e-05 -1.944109584428588278e-07
8.950000000000000000e+02 1.979320716857910156e+01 -1.095154666900634766e+01 -5.982931179460138083e-05 -9.513223631074652076e-05 -4.648846515920013189e-05 1.390350917063187808e-05
8.960000000000000000e+02 4.620796966552734375e+01 -2.303104591369628906e+01 7.780182361602783203e-01 1.312475204467773438e+00 6.271480321884155273e-01 8.481209278106689453e-01
8.970000000000000000e+02 4.341387939453125000e+01 -2.353055763244628906e+01 1.813940554857254028e-01 -1.475902795791625977e-01 1.014113426208496094e-02 -1.923766136169433594e-01
8.980000000000000000e+02 4.827493286132812500e+01 -2.263546371459960938e+01 5.424878597259521484e-01 6.117714405059814453e+00 1.998060703277587891e+00 2.487764358520507812e+00
8.990000000000000000e+02 4.662103271484375000e+01 -2.287535285949707031e+01 8.508378863334655762e-01 1.684479832649230957e+00 7.605953216552734375e-01 1.155341863632202148e+00
9.000000000000000000e+02 4.377339935302734375e+01 -2.523954772949218750e+01 1.996270418167114258e-01 3.887862563133239746e-01 1.765239834785461426e-01 1.549126207828521729e-01
9.010000000000000000e+02 2.153927230834960938e+01 -1.351595401763916016e+01 1.971571145986672491e-05 -5.941522249486297369e-05 -1.190985312859993428e-05 -6.558360837516374886e-06
9.020000000000000000e+02 8.387470245361328125e+00 3.324485301971435547e+00 -5.733458399772644043e-01 -4.551976025104522705e-01 -3.085630238056182861e-01 7.475509047508239746e-01
9.030000000000000000e+02 8.437621116638183594e+00 2.604557275772094727e+00 -6.534144282341003418e-01 -3.854862153530120850e-01 -3.116701841354370117e-01 6.923555135726928711e-01
9.040000000000000000e+02 1.585726857185363770e+00 7.714567184448242188e+00 -1.034927833825349808e-02 -5.004783868789672852e-01 -1.532482951879501343e-01 2.015743106603622437e-01
9.050000000000000000e+02 5.517099857330322266e+00 1.876326560974121094e+00 -3.270276784896850586e-01 -8.434741944074630737e-02 -1.234125271439552307e-01 2.449357062578201294e-01
9.060000000000000000e+02 9.175921440124511719e+00 2.674288034439086914e+00 -7.329775691032409668e-01 -4.949335753917694092e-01 -3.683733642101287842e-01 7.804897427558898926e-01
9.070000000000000000e+02 7.722565174102783203e+00 1.863313913345336914e+00 -6.702224016189575195e-01 -1.623378098011016846e-01 -2.497680634260177612e-01 4.690055549144744873e-01
9.080000000000000000e+02 6.979867458343505859e+00 2.589649438858032227e+00 -5.036191940307617188e-01 -2.080283463001251221e-01 -2.134942710399627686e-01 4.837231040000915527e-01
9.090000000000000000e+02 7.686165332794189453e+00 3.291496992111206055e+00 -4.950869381427764893e-01 -3.801615238189697266e-01 -2.625745534896850586e-01 6.587908267974853516e-01
9.100000000000000000e+02 1.808171510696411133e+00 3.829331874847412109e+00 -4.461883753538131714e-02 -1.418740302324295044e-01 -5.594785884022712708e-02 1.103050708770751953e-01
9.110000000000000000e+02 4.085237979888916016e+00 3.433966159820556641e+00 -1.980862319469451904e-01 -1.803055852651596069e-01 -1.135175451636314392e-01 2.712336480617523193e-01
9.120000000000000000e+02 1.252455830574035645e+00 3.197825908660888672e+00 -2.886405587196350098e-02 -8.173682540655136108e-02 -3.318026661872863770e-02 5.423670634627342224e-02
9.130000000000000000e+02 2.585501670837402344e+00 1.962087392807006836e+00 -7.877309620380401611e-02 -5.306336656212806702e-02 -3.955093771219253540e-02 6.620012968778610229e-02
9.140000000000000000e+02 1.922798871994018555e+00 2.947714328765869141e+00 -6.638586521148681641e-02 -9.063304960727691650e-02 -4.710567370057106018e-02 8.497124165296554565e-02
9.150000000000000000e+02 2.610887145996093750e+01 -1.289351558685302734e+01 -9.427524209022521973e-01 -9.470095634460449219e-01 -5.669286251068115234e-01 1.247051954269409180e+00
9.160000000000000000e+02 2.676510620117187500e+01 -1.247691535949707031e+01 -1.098594188690185547e+00 -7.159489393234252930e-01 -5.443629622459411621e-01 1.312339544296264648e+00
9.170000000000000000e+02 2.710023307800292969e+01 -1.494893741607666016e+01 -8.464915156364440918e-01 -5.092964768409729004e-01 -4.067364037036895752e-01 9.444290995597839355e-01
9.180000000000000000e+02 2.604842376708984375e+01 -1.111457729339599609e+01 -1.229180932044982910e+00 -9.787340164184570312e-01 -6.623744964599609375e-01 1.391711950302124023e+00
9.190000000000000000e+02 2.510467720031738281e+01 -1.086429977416992188e+01 -1.218795418739318848e+00 -1.419906735420227051e+00 -7.916106581687927246e-01 1.417042613029479980e+00
9.200000000000000000e+02 2.803086090087890625e+01 -1.157585430145263672e+01 -1.217572927474975586e+00 -3.834237754344940186e-01 -4.802989959716796875e-01 1.336363911628723145e+00
9.210000000000000000e+02 2.711771774291992188e+01 -1.316184329986572266e+01 -1.040886402130126953e+00 -6.030583381652832031e-01 -4.931834042072296143e-01 1.268527150154113770e+00
9.220000000000000000e+02 2.567308425903320312e+01 -1.043764400482177734e+01 -1.297663569450378418e+00 -1.110003352165222168e+00 -7.223000526428222656e-01 1.414897084236145020e+00
9.230000000000000000e+02 3.091444206237792969e+01 -1.634684562683105469e+01 -1.700066685676574707e+00 -5.258006975054740906e-02 -5.257940292358398438e-01 7.727118134498596191e-01
9.240000000000000000e+02 2.782737731933593750e+01 -1.456459426879882812e+01 -1.012787818908691406e+00 -4.318389892578125000e-01 -4.333880543708801270e-01 1.075650215148925781e+00
9.250000000000000000e+02 5.080977630615234375e+01 -1.860453033447265625e+01 2.456695795059204102e+00 1.143815994262695312e+01 4.168456554412841797e+00 1.680682301521301270e-01
9.260000000000000000e+02 4.941844940185546875e+01 -1.772771263122558594e+01 -9.772787094116210938e-01 1.179080390930175781e+01 3.244057416915893555e+00 -3.564136743545532227e+00
9.270000000000000000e+02 5.374405670166015625e+01 -2.264802169799804688e+01 1.935535907745361328e+00 5.047884464263916016e+00 2.095026016235351562e+00 -1.969975352287292480e+00
9.280000000000000000e+02 5.103618240356445312e+01 -2.008765602111816406e+01 7.591693878173828125e+00 9.568254470825195312e+00 5.147984504699707031e+00 -2.310390949249267578e+00
9.290000000000000000e+02 5.091137695312500000e+01 -1.937319374084472656e+01 6.099201679229736328e+00 1.060503387451171875e+01 5.011270523071289062e+00 -9.704052656888961792e-02
9.300000000000000000e+02 5.186530303955078125e+01 -1.286684513092041016e+01 -3.005407750606536865e-01 5.460936069488525391e+00 1.548118591308593750e+00 -1.033803701400756836e+00
9.310000000000000000e+02 5.192856216430664062e+01 -2.059330558776855469e+01 5.253755569458007812e+00 6.885349273681640625e+00 3.641731500625610352e+00 -2.630799293518066406e+00
9.320000000000000000e+02 4.282235336303710938e+01 -1.683358001708984375e+01 -1.086863398551940918e+00 1.278353333473205566e+00 5.744699388742446899e-02 -6.565040946006774902e-01
9.330000000000000000e+02 4.383505630493164062e+01 -1.879871368408203125e+01 -1.186193346977233887e+00 7.029638886451721191e-01 -1.449688374996185303e-01 -9.738352894783020020e-02
9.340000000000000000e+02 4.313425064086914062e+01 -1.897052574157714844e+01 -1.474447250366210938e+00 6.805918812751770020e-01 -2.381566017866134644e-01 1.966321617364883423e-01
9.350000000000000000e+02 4.121235275268554688e+01 -1.859408760070800781e+01 -2.077001571655273438e+00 3.629181683063507080e-01 -5.142250061035156250e-01 4.937177002429962158e-01
9.360000000000000000e+02 2.527418899536132812e+01 -9.760699272155761719e+00 -1.368906021118164062e+00 -1.261290788650512695e+00 -7.890590429306030273e-01 1.442528605461120605e+00
9.370000000000000000e+02 2.443213844299316406e+01 -8.422407150268554688e+00 -1.498018622398376465e+00 -1.514803409576416016e+00 -9.038465619087219238e-01 1.492035746574401855e+00
9.380000000000000000e+02 2.399550819396972656e+01 -7.762219905853271484e+00 -1.551620721817016602e+00 -1.614929795265197754e+00 -9.499651789665222168e-01 1.516281366348266602e+00
9.390000000000000000e+02 2.307843399047851562e+01 -6.457572937011718750e+00 -1.646947145462036133e+00 -1.762338280677795410e+00 -1.022785663604736328e+00 1.548825025558471680e+00
9.400000000000000000e+02 2.158185386657714844e+01 -4.519914627075195312e+00 -1.718171358108520508e+00 -1.856120347976684570e+00 -1.072287559509277344e+00 1.541479229927062988e+00
9.410000000000000000e+02 2.260461997985839844e+01 -5.810859203338623047e+00 -1.681686282157897949e+00 -1.806426525115966797e+00 -1.046433806419372559e+00 1.549452781677246094e+00
9.420000000000000000e+02 2.363771629333496094e+01 -6.027235507965087891e+00 -1.541522145271301270e+00 -1.454981565475463867e+00 -8.989511132240295410e-01 1.376783132553100586e+00
9.430000000000000000e+02 1.697483634948730469e+01 1.665509790182113647e-01 -1.246625661849975586e+00 -1.516696691513061523e+00 -8.289966583251953125e-01 1.264381885528564453e+00
9.440000000000000000e+02 1.245812320709228516e+01 1.039243102073669434e+00 -1.445583939552307129e+00 -8.959379196166992188e-01 -7.024565339088439941e-01 1.084303140640258789e+00
9.450000000000000000e+02 1.467939662933349609e+01 -8.919958025217056274e-02 -1.742639541625976562e+00 -1.245041847229003906e+00 -8.963043689727783203e-01 1.376204252243041992e+00
9.460000000000000000e+02 1.537856292724609375e+01 -4.892177581787109375e-01 -1.818337678909301758e+00 -1.370331525802612305e+00 -9.566007852554321289e-01 1.448916554450988770e+00
9.470000000000000000e+02 2.045815086364746094e+01 -4.440724849700927734e+00 -1.972737312316894531e+00 -2.114447593688964844e+00 -1.226155519485473633e+00 1.806512475013732910e+00
9.480000000000000000e+02 1.867909049987792969e+01 -2.801894664764404297e+00 -2.013145446777343750e+00 -1.922303915023803711e+00 -1.180634856224060059e+00 1.735519289970397949e+00
9.490000000000000000e+02 2.039598083496093750e+01 -3.380424022674560547e+00 -1.725492119789123535e+00 -1.864520549774169922e+00 -1.077003836631774902e+00 1.538797140121459961e+00
9.500000000000000000e+02 2.087989807128906250e+01 -2.851739168167114258e+00 -1.494198083877563477e+00 -1.670504689216613770e+00 -9.494107961654663086e-01 1.332502961158752441e+00
9.510000000000000000e+02 2.211060523986816406e+01 -5.158587455749511719e+00 -1.698632359504699707e+00 -1.828352570533752441e+00 -1.058095455169677734e+00 1.548878431320190430e+00
9.520000000000000000e+02 1.850815582275390625e+01 -1.804396390914916992e+00 -1.685346364974975586e+00 -1.756184935569763184e+00 -1.032459378242492676e+00 1.499294519424438477e+00
9.530000000000000000e+02 1.785962867736816406e+01 -1.309713482856750488e+00 -1.648311257362365723e+00 -1.689341664314270020e+00 -1.001295924186706543e+00 1.467413425445556641e+00
9.540000000000000000e+02 1.674662780761718750e+01 -1.344917058944702148e+00 -1.937859535217285156e+00 -1.603176116943359375e+00 -1.062310695648193359e+00 1.586557626724243164e+00
9.550000000000000000e+02 1.977653884887695312e+01 -2.842326164245605469e+00 -1.733388304710388184e+00 -1.847928643226623535e+00 -1.074395060539245605e+00 1.535766243934631348e+00
9.560000000000000000e+02 1.153193759918212891e+01 -4.342186450958251953e+00 8.433328912360593677e-05 9.704064723337069154e-05 5.441218308988027275e-05 7.029630069155246019e-05
9.570000000000000000e+02 5.958174705505371094e+00 -1.949994206428527832e+00 5.150343349669128656e-05 5.499506369233131409e-05 3.194954842911101878e-05 3.887265847879461944e-05
9.580000000000000000e+02 7.415930271148681641e+00 -2.745534896850585938e+00 -1.221193670062348247e-04 -3.236964403185993433e-05 -4.634670403902418911e-05 -2.780228351184632629e-05
9.590000000000000000e+02 6.611674308776855469e+00 -2.773728132247924805e+00 9.102826152229681611e-05 3.789165930356830359e-05 3.867597479256801307e-05 2.308773036929778755e-05
9.600000000000000000e+02 8.194744110107421875e+00 -2.760815143585205078e+00 1.009566549328155816e-04 5.837576100020669401e-05 4.779972368851304054e-05 4.823600102099590003e-05
9.610000000000000000e+02 6.512008666992187500e+00 -3.599997758865356445e+00 -1.337781286565586925e-04 9.867626431514509022e-06 -3.717315121321007609e-05 -1.485897655584267341e-06
9.620000000000000000e+02 1.808528780937194824e+00 -8.965950965881347656e+00 -2.694286522455513477e-04 -1.446209898858796805e-05 -8.516722300555557013e-05 -5.720427725464105606e-05
9.630000000000000000e+02 1.920520305633544922e+00 -1.950428366661071777e+00 -7.683523290324956179e-05 -7.665889279451221228e-05 -4.604824061971157789e-05 5.032464105170220137e-05
9.640000000000000000e+02 6.157739162445068359e-01 -6.301504611968994141e+00 2.166621125070378184e-04 7.058861683617578819e-06 6.711629248457029462e-05 6.159797339932993054e-05
9.650000000000000000e+02 1.208134293556213379e+00 -1.975537300109863281e+00 -3.682856186060234904e-05 9.874775423668324947e-05 1.857575807662215084e-05 2.124814818671438843e-05
9.660000000000000000e+02 6.445441246032714844e-01 -4.822938919067382812e+00 -1.831780682550743222e-04 -2.601586675154976547e-05 -6.275818304857239127e-05 -6.056072015780955553e-05
9.670000000000000000e+02 5.478027462959289551e-01 -3.423076629638671875e+00 1.708210911601781845e-04 1.093621722247917205e-05 5.452719415188767016e-05 7.441018533427268267e-05
9.680000000000000000e+02 1.215909290313720703e+01 2.177785634994506836e+00 -9.651363492012023926e-01 -9.569508433341979980e-01 -5.766261816024780273e-01 1.027588486671447754e+00
9.690000000000000000e+02 1.365199279785156250e+01 1.305289983749389648e+00 -1.241374492645263672e+00 -1.117820382118225098e+00 -7.077584862709045410e-01 1.155961751937866211e+00
9.700000000000000000e+02 1.438776588439941406e+01 9.026258587837219238e-01 -1.325571179389953613e+00 -1.225261807441711426e+00 -7.652499079704284668e-01 1.230057358741760254e+00
9.710000000000000000e+02 1.206892108917236328e+01 -5.104946136474609375e+00 4.438542237039655447e-05 7.980741793289780617e-05 3.725785063579678535e-05 6.446465704357251525e-05
9.720000000000000000e+02 1.111869144439697266e+01 -3.400897026062011719e+00 9.747823060024529696e-05 8.474489732179790735e-05 5.466693983180448413e-05 4.944765896652825177e-05
9.730000000000000000e+02 4.234219360351562500e+01 -2.578770446777343750e+01 3.607520484365522861e-04 -6.018469929695129395e-01 -1.804458647966384888e-01 2.900153771042823792e-02
9.740000000000000000e+02 4.229627227783203125e+01 -2.709096527099609375e+01 4.812163487076759338e-02 -4.310192167758941650e-01 -1.148692741990089417e-01 9.838040173053741455e-02
9.750000000000000000e+02 5.570420455932617188e+01 -3.070474815368652344e+01 1.574233770370483398e+00 1.216307258605957031e+01 4.121191978454589844e+00 -1.086881637573242188e+00
9.760000000000000000e+02 6.947806549072265625e+01 -2.177760314941406250e+01 -5.666205286979675293e-01 1.863768935203552246e+00 3.891445398330688477e-01 -1.174965023994445801e+00
9.770000000000000000e+02 6.533063507080078125e+01 -2.098239326477050781e+01 -1.160331249237060547e+00 6.127628087997436523e-01 -1.642705351114273071e-01 6.495933532714843750e-01
9.780000000000000000e+02 6.184432601928710938e+01 -2.328652000427246094e+01 1.041239142417907715e+00 4.212605357170104980e-01 4.387499094009399414e-01 7.642860412597656250e-01
9.790000000000000000e+02 6.017401504516601562e+01 -2.301492500305175781e+01 1.238542556762695312e+00 6.407872438430786133e-01 5.637989044189453125e-01 1.010765790939331055e+00
9.800000000000000000e+02 5.658576965332031250e+01 -2.746826744079589844e+01 9.171626567840576172e-01 5.768498897552490234e+00 2.005698442459106445e+00 1.479094266891479492e+00
9.810000000000000000e+02 7.106479644775390625e+01 -2.284320831298828125e+01 1.185954451560974121e+00 7.256050109863281250e+00 2.532601356506347656e+00 -2.666674137115478516e+00
9.820000000000000000e+02 7.170618438720703125e+01 -2.389273643493652344e+01 1.570399761199951172e+00 1.173587322235107422e+01 3.991881847381591797e+00 -2.161210536956787109e+00
9.830000000000000000e+02 7.823428344726562500e+01 -2.235831069946289062e+01 4.543351754546165466e-02 6.900866985321044922e+00 2.083890199661254883e+00 5.000641345977783203e-01
9.840000000000000000e+02 7.185671997070312500e+01 -2.980601310729980469e+01 7.964308857917785645e-01 9.008938789367675781e+00 2.941610813140869141e+00 1.293048858642578125e+00
9.850000000000000000e+02 3.283074188232421875e+01 -1.784471130371093750e+01 -2.321829795837402344e+00 1.653433032333850861e-02 -6.915886402130126953e-01 3.602505922317504883e-01
9.860000000000000000e+02 5.895727157592773438e+01 -2.379127120971679688e+01 1.507573246955871582e+00 9.667508006095886230e-01 7.422972321510314941e-01 9.854384064674377441e-01
9.870000000000000000e+02 7.172424316406250000e+01 -2.720135879516601562e+01 2.663117945194244385e-01 1.330590248107910156e+01 4.071664333343505859e+00 9.735285043716430664e-01
9.880000000000000000e+02 7.266847991943359375e+01 -2.746491241455078125e+01 1.355287671089172363e+00 1.072234535217285156e+01 3.623289823532104492e+00 3.579732179641723633e-01
9.890000000000000000e+02 4.178899383544921875e+01 -1.927532577514648438e+01 -1.756529688835144043e+00 4.766653180122375488e-01 -3.839593231678009033e-01 5.396063923835754395e-01
9.900000000000000000e+02 4.177302932739257812e+01 -1.860708427429199219e+01 -1.822206377983093262e+00 6.293378472328186035e-01 -3.578605651855468750e-01 3.489714860916137695e-01
9.910000000000000000e+02 6.799308776855468750e+01 -3.290711975097656250e+01 -7.810717821121215820e-01 3.351424932479858398e-01 -1.337787955999374390e-01 6.783347576856613159e-03
9.920000000000000000e+02 7.048992156982421875e+01 -3.238248825073242188e+01 -4.510109424591064453e-01 4.848954677581787109e+00 1.319383144378662109e+00 1.262323379516601562e+00
9.930000000000000000e+02 5.581819534301757812e+01 -2.632067680358886719e+01 1.369582116603851318e-01 5.593457698822021484e+00 1.719124794006347656e+00 -7.921781390905380249e-02
9.940000000000000000e+02 7.153069305419921875e+01 -2.101602554321289062e+01 -1.242170453071594238e+00 7.133513450622558594e+00 1.767402887344360352e+00 -1.570459008216857910e+00
9.950000000000000000e+02 3.560718536376953125e+01 -1.694600296020507812e+01 -2.964555740356445312e+00 -1.788392961025238037e-01 -9.430184960365295410e-01 7.779667377471923828e-01
9.960000000000000000e+02 3.678803253173828125e+01 -1.803827285766601562e+01 -4.577631950378417969e+00 -2.846440076828002930e-01 -1.458682775497436523e+00 7.206062078475952148e-01
9.970000000000000000e+02 2.855855178833007812e+01 -1.618622016906738281e+01 -1.273900866508483887e+00 -3.330905139446258545e-01 -4.820974171161651611e-01 7.557892799377441406e-01
9.980000000000000000e+02 3.412546539306640625e+01 -1.791429710388183594e+01 -2.959241628646850586e+00 -2.597618848085403442e-03 -8.885517716407775879e-01 3.092131614685058594e-01
9.990000000000000000e+02 5.680556488037109375e+01 -2.552119445800781250e+01 7.647132277488708496e-01 3.816304445266723633e+00 1.374305367469787598e+00 9.018213748931884766e-01
1.000000000000000000e+03 6.872245788574218750e+01 -3.361814880371093750e+01 -7.153981924057006836e-01 1.823415994644165039e+00 3.324053585529327393e-01 6.915539503097534180e-01
1.001000000000000000e+03 6.803161621093750000e+01 -3.467470550537109375e+01 -8.649174571037292480e-01 1.477131009101867676e+00 1.836640536785125732e-01 6.242414712905883789e-01
1.002000000000000000e+03 3.197044944763183594e+01 -1.658492469787597656e+01 -1.952061891555786133e+00 1.981492340564727783e-02 -5.796740651130676270e-01 7.476146817207336426e-01
1.003000000000000000e+03 6.282548141479492188e+01 -3.504181289672851562e+01 -1.622133135795593262e+00 1.372728683054447174e-02 -4.825217723846435547e-01 -3.251901865005493164e-01
1.004000000000000000e+03 6.606058502197265625e+01 -3.774254989624023438e+01 2.321403026580810547e-01 7.877780199050903320e-01 3.059754967689514160e-01 2.409977912902832031e-01
1.005000000000000000e+03 5.829830169677734375e+01 -3.791371536254882812e+01 -4.232539236545562744e-01 2.572060108184814453e+00 6.446418762207031250e-01 -1.102287530899047852e+00
1.006000000000000000e+03 6.463661193847656250e+01 -3.990775680541992188e+01 6.686081290245056152e-01 6.426795125007629395e-01 3.933863043785095215e-01 -5.071768164634704590e-02
1.007000000000000000e+03 5.495610427856445312e+01 -3.311571121215820312e+01 7.692892551422119141e-01 6.961775302886962891e+00 2.319319486618041992e+00 -3.651627004146575928e-01
1.008000000000000000e+03 5.714978027343750000e+01 -3.320685958862304688e+01 2.076356172561645508e+00 3.655972719192504883e+00 1.719698667526245117e+00 -3.556316137313842773e+00
1.009000000000000000e+03 7.475106048583984375e+01 -2.810409355163574219e+01 8.360100388526916504e-01 8.265970230102539062e+00 2.730594158172607422e+00 -6.940807104110717773e-01
1.010000000000000000e+03 7.260999298095703125e+01 -2.482324600219726562e+01 1.470265388488769531e+00 1.136407661437988281e+01 3.850302457809448242e+00 -6.663203835487365723e-01
1.011000000000000000e+03 5.784496307373046875e+01 -2.465408706665039062e+01 1.391870021820068359e+00 1.594383597373962402e+00 8.958761096000671387e-01 9.525592923164367676e-01
1.012000000000000000e+03 5.840214157104492188e+01 -2.089782333374023438e+01 1.198877811431884766e+00 5.623465180397033691e-01 5.283672809600830078e-01 1.577467918395996094e+00
1.013000000000000000e+03 6.134686660766601562e+01 -1.598336029052734375e+01 6.618077158927917480e-01 1.339287400245666504e+00 6.003285050392150879e-01 1.348236560821533203e+00
1.014000000000000000e+03 7.150308990478515625e+01 -3.182332038879394531e+01 -7.586619853973388672e-01 6.658349037170410156e+00 1.769906163215637207e+00 5.458021759986877441e-01
1.015000000000000000e+03 5.647013092041015625e+01 3.875604248046875000e+01 -5.765610337257385254e-01 -1.247289925813674927e-01 -2.103870064020156860e-01 2.380684316158294678e-01
1.016000000000000000e+03 6.455701446533203125e+01 3.869675064086914062e+01 -5.757467076182365417e-02 1.353904902935028076e-01 2.334474772214889526e-02 1.062275320291519165e-01
1.017000000000000000e+03 8.412695884704589844e+00 -2.676308631896972656e+01 -7.671233615837991238e-04 -6.149975233711302280e-04 -4.146362771280109882e-04 2.062276180367916822e-04
1.018000000000000000e+03 5.275448226928710938e+01 -1.418866062164306641e+01 -2.063600540161132812e+00 2.257317304611206055e+00 5.811506509780883789e-02 4.721465408802032471e-01
1.019000000000000000e+03 4.170950317382812500e+01 -3.023842811584472656e+01 -6.220440194010734558e-02 1.451780200004577637e-01 2.489208430051803589e-02 4.566000774502754211e-02
1.020000000000000000e+03 4.085339736938476562e+01 -3.109076309204101562e+01 -2.770776450634002686e-01 5.347319692373275757e-02 -6.708133220672607422e-02 -5.612965300679206848e-02
1.021000000000000000e+03 4.347018051147460938e+01 -2.797730255126953125e+01 6.077453866600990295e-02 7.073670029640197754e-01 2.304424643516540527e-01 3.674014508724212646e-01
1.022000000000000000e+03 9.729533195495605469e+00 -1.484867572784423828e+01 2.651284739840775728e-04 -1.366313808830454946e-04 3.854913302347995341e-05 1.709163043415173888e-04
1.023000000000000000e+03 5.864870452880859375e+01 -1.747711753845214844e+01 -1.145702362060546875e+00 5.823721885681152344e-01 -1.689990758895874023e-01 2.043481588363647461e+00
1.024000000000000000e+03 3.655198669433593750e+01 -3.338595199584960938e+01 -5.489563941955566406e-01 -9.679165482521057129e-02 -1.937244087457656860e-01 -1.155359894037246704e-01
1.025000000000000000e+03 4.051071929931640625e+01 -3.222689819335937500e+01 -2.845194041728973389e-01 1.928007751703262329e-01 -2.751558832824230194e-02 1.829223707318305969e-02
1.026000000000000000e+03 5.367573928833007812e+01 3.863180541992187500e+01 -5.424932837486267090e-01 4.122195541858673096e-01 -3.908211365342140198e-02 2.121878415346145630e-01
1.027000000000000000e+03 5.608756637573242188e+01 3.680834197998046875e+01 -9.225805997848510742e-01 -4.909095354378223419e-03 -2.782469093799591064e-01 1.200393736362457275e-01
1.028000000000000000e+03 1.154891681671142578e+01 -2.907848167419433594e+01 9.539173915982246399e-04 9.556432487443089485e-04 5.728682153858244419e-04 -2.427984873065724969e-04
1.029000000000000000e+03 6.454303741455078125e+01 3.676766204833984375e+01 -5.055260658264160156e-01 -9.081032872200012207e-02 -1.789009273052215576e-01 2.717848122119903564e-01
1.030000000000000000e+03 5.080854034423828125e+01 -1.335395717620849609e+01 -1.650092363357543945e+00 6.388648509979248047e+00 1.421566843986511230e+00 -5.904088020324707031e-01
1.031000000000000000e+03 6.069309616088867188e+01 -1.508420181274414062e+01 1.357854604721069336e+00 9.415984153747558594e-01 6.898359060287475586e-01 1.204603552818298340e+00
1.032000000000000000e+03 2.218920326232910156e+01 -3.335618972778320312e+01 -2.553704753518104553e-02 -1.227727974765002728e-03 -8.029432967305183411e-03 -1.365819014608860016e-02
1.033000000000000000e+03 4.223674774169921875e+01 1.331185436248779297e+01 2.119653820991516113e-01 9.114540100097656250e+00 2.797951698303222656e+00 1.807990372180938721e-01
1.034000000000000000e+03 4.089587783813476562e+01 1.171476936340332031e+01 1.251130461692810059e+00 8.306961059570312500e+00 2.867427587509155273e+00 -1.193341851234436035e+00
1.035000000000000000e+03 1.612775611877441406e+01 -3.369814682006835938e+01 -3.202698193490505219e-03 -2.446294238325208426e-04 -1.034198212437331676e-03 -4.255947656929492950e-03
1.036000000000000000e+03 6.719489288330078125e+01 3.418501281738281250e+01 -1.114827036857604980e+00 1.395920634269714355e+00 8.432807773351669312e-02 1.235210821032524109e-01
1.037000000000000000e+03 3.684188842773437500e+01 -3.556143569946289062e+01 2.517631044611334801e-03 -7.141390349715948105e-03 -1.387127791531383991e-03 -2.964352443814277649e-02
1.038000000000000000e+03 4.035386276245117188e+01 1.950187492370605469e+01 5.167304873466491699e-01 5.458381175994873047e+00 1.792533397674560547e+00 2.629684507846832275e-01
1.039000000000000000e+03 4.120178985595703125e+01 1.631689643859863281e+01 5.775871872901916504e-01 6.903295516967773438e+00 2.244264841079711914e+00 3.534133136272430420e-01
1.040000000000000000e+03 7.020955657958984375e+01 6.139705181121826172e+00 2.066316455602645874e-01 1.332851314544677734e+01 4.060543537139892578e+00 -9.223923832178115845e-02
1.041000000000000000e+03 7.416114807128906250e+01 8.905309677124023438e+00 -6.131472811102867126e-02 8.837270736694335938e+00 2.632786989212036133e+00 9.283981323242187500e-01
1.042000000000000000e+03 7.607505321502685547e+00 -2.238393783569335938e+01 -6.911692908033728600e-04 -6.240346556296572089e-05 -2.260718320030719042e-04 1.210073533002287149e-04
1.043000000000000000e+03 9.804243087768554688e+00 -2.924836921691894531e+01 4.886796814389526844e-04 -5.474904901348054409e-04 -1.764323860697913915e-05 3.523125778883695602e-04
1.044000000000000000e+03 1.692549133300781250e+01 -8.562984466552734375e+00 -1.237783435499295592e-04 -2.246339136036112905e-05 -4.387251829029992223e-05 7.414711035380605608e-06
1.045000000000000000e+03 7.784230804443359375e+01 -3.488860702514648438e+01 -1.624282002449035645e-01 7.968822002410888672e+00 2.341917991638183594e+00 -4.133671522140502930e-01
1.046000000000000000e+03 7.537889099121093750e+01 -2.176996994018554688e+01 -1.729467660188674927e-01 7.634205341339111328e+00 2.238377571105957031e+00 5.321497917175292969e-01
1.047000000000000000e+03 7.938924407958984375e+01 -2.509823226928710938e+01 2.385177463293075562e-02 5.827626228332519531e+00 1.755443453788757324e+00 8.581762015819549561e-02
1.048000000000000000e+03 7.816337585449218750e+01 -2.374957656860351562e+01 1.370884776115417480e-01 6.671705245971679688e+00 2.042638063430786133e+00 4.230001270771026611e-01
1.049000000000000000e+03 7.811160278320312500e+01 -3.071941375732421875e+01 5.872876942157745361e-02 7.282286167144775391e+00 2.202304363250732422e+00 -6.855210661888122559e-01
1.050000000000000000e+03 7.936898803710937500e+01 -3.207085037231445312e+01 4.456801712512969971e-02 7.602047443389892578e+00 2.293984651565551758e+00 -2.734768986701965332e-01
1.051000000000000000e+03 7.813144683837890625e+01 -3.210189056396484375e+01 -7.652807980775833130e-02 7.604327678680419922e+00 2.258339881896972656e+00 -6.731417775154113770e-01
1.052000000000000000e+03 7.610775756835937500e+01 -3.635552215576171875e+01 -3.575179874897003174e-01 7.452254772186279297e+00 2.128421068191528320e+00 -2.795043885707855225e-01
1.053000000000000000e+03 7.750330352783203125e+01 -3.796300888061523438e+01 -2.382366806268692017e-01 8.329741477966308594e+00 2.427451610565185547e+00 -1.963233202695846558e-01
1.054000000000000000e+03 7.573242950439453125e+01 -4.036813354492187500e+01 -3.016172908246517181e-02 7.335053920745849609e+00 2.191467523574829102e+00 -1.975342035293579102e-01
1.055000000000000000e+03 7.902075958251953125e+01 -4.023258209228515625e+01 -2.594919502735137939e-01 8.544777870178222656e+00 2.485585927963256836e+00 1.598767191171646118e-01
1.056000000000000000e+03 7.823779296875000000e+01 1.658803176879882812e+01 6.220692768692970276e-03 7.752230644226074219e+00 2.327535390853881836e+00 3.404999971389770508e-01
1.057000000000000000e+03 7.780273437500000000e+01 3.338909530639648438e+01 -1.229682266712188721e-01 1.039514636993408203e+01 3.081653594970703125e+00 2.591178715229034424e-01
1.058000000000000000e+03 7.814842224121093750e+01 2.915555381774902344e+01 -2.908168174326419830e-02 9.999977111816406250e+00 2.991268634796142578e+00 4.999448657035827637e-01
1.059000000000000000e+03 7.940943145751953125e+01 2.784128379821777344e+01 4.890907555818557739e-03 1.037016868591308594e+01 3.112517833709716797e+00 2.134522497653961182e-01
1.060000000000000000e+03 7.831759643554687500e+01 2.638788986206054688e+01 1.889873109757900238e-02 9.511538505554199219e+00 2.859131097793579102e+00 4.951276183128356934e-01
1.061000000000000000e+03 7.834472656250000000e+01 2.501190757751464844e+01 1.065074279904365540e-02 9.233577728271484375e+00 2.773268461227416992e+00 4.736241102218627930e-01
1.062000000000000000e+03 7.944046783447265625e+01 2.505823898315429688e+01 1.137861888855695724e-02 9.536141395568847656e+00 2.864256143569946289e+00 2.000723779201507568e-01
1.063000000000000000e+03 7.823044586181640625e+01 1.798522377014160156e+01 1.324902754276990891e-02 7.962795257568359375e+00 2.392813205718994141e+00 3.631763756275177002e-01
1.064000000000000000e+03 7.940940856933593750e+01 1.807403564453125000e+01 2.664560219272971153e-03 7.856990337371826172e+00 2.357896566390991211e+00 1.476274877786636353e-01
1.065000000000000000e+03 7.824468994140625000e+01 1.520059204101562500e+01 -1.314269099384546280e-02 7.537888050079345703e+00 2.257423639297485352e+00 3.606123030185699463e-01
1.066000000000000000e+03 7.466600799560546875e+01 7.914008140563964844e+00 4.883110150694847107e-02 8.455671310424804688e+00 2.551350831985473633e+00 8.895081877708435059e-01
1.067000000000000000e+03 7.824684143066406250e+01 1.102563095092773438e+01 -9.008044376969337463e-03 6.824652671813964844e+00 2.044693470001220703e+00 4.605681896209716797e-01
1.068000000000000000e+03 7.940638732910156250e+01 -1.952648735046386719e+01 -1.489827595651149750e-02 7.342082023620605469e+00 2.198155164718627930e+00 1.235094815492630005e-01
1.069000000000000000e+03 7.825892639160156250e+01 -2.096469116210937500e+01 -1.062486320734024048e-01 7.104239940643310547e+00 2.099397420883178711e+00 4.525022804737091064e-01
1.070000000000000000e+03 7.815671539306640625e+01 -1.399454116821289062e+01 -6.191984564065933228e-02 7.111475467681884766e+00 2.114866733551025391e+00 -2.444124668836593628e-01
1.071000000000000000e+03 7.819741821289062500e+01 -7.141833782196044922e+00 -8.322511799633502960e-03 6.154321193695068359e+00 1.843799591064453125e+00 -4.161432087421417236e-01
1.072000000000000000e+03 7.812306976318359375e+01 1.205232501029968262e+00 1.196127831935882568e-01 5.385722160339355469e+00 1.651600480079650879e+00 -9.042058140039443970e-03
1.073000000000000000e+03 7.702468872070312500e+01 8.137845039367675781e+00 -8.321995846927165985e-03 7.010597705841064453e+00 2.100682735443115234e+00 6.977007985115051270e-01
1.074000000000000000e+03 7.937647247314453125e+01 2.923653030395507812e+01 -5.020945798605680466e-03 1.077447414398193359e+01 3.230835914611816406e+00 2.108869850635528564e-01
1.075000000000000000e+03 7.802001953125000000e+01 3.055728340148925781e+01 -9.434986114501953125e-02 1.018429660797119141e+01 3.026983976364135742e+00 4.565219581127166748e-01
1.076000000000000000e+03 7.798395538330078125e+01 4.164025115966796875e+01 3.559241294860839844e-01 1.082333087921142578e+01 3.353776454925537109e+00 -1.002146676182746887e-01
1.077000000000000000e+03 7.923741149902343750e+01 3.488518142700195312e+01 -4.157454147934913635e-02 1.165099334716796875e+01 3.482825756072998047e+00 3.007512725889682770e-02
1.078000000000000000e+03 7.370984649658203125e+01 3.608970642089843750e+01 -2.836639285087585449e-01 7.222489833831787109e+00 2.081647634506225586e+00 9.181052446365356445e-02
1.079000000000000000e+03 7.228192138671875000e+01 4.768714904785156250e+00 5.053076744079589844e-01 1.088378524780273438e+01 3.416728019714355469e+00 5.676142573356628418e-01
1.080000000000000000e+03 7.938636016845703125e+01 4.128441810607910156e+00 3.813229128718376160e-02 4.469697475433349609e+00 1.352348923683166504e+00 1.078990474343299866e-01
1.081000000000000000e+03 7.816046905517578125e+01 4.029984474182128906e+00 8.649050444364547729e-02 5.573797702789306641e+00 1.698086380958557129e+00 2.779559493064880371e-01
1.082000000000000000e+03 7.687365722656250000e+01 1.057141542434692383e+00 2.861873805522918701e-01 6.410440444946289062e+00 2.008988380432128906e+00 2.635914459824562073e-02
1.083000000000000000e+03 7.816049957275390625e+01 -3.002521991729736328e+00 5.571294203400611877e-02 5.593067169189453125e+00 1.694634079933166504e+00 -3.435294926166534424e-01
1.084000000000000000e+03 7.939151000976562500e+01 -4.248322486877441406e+00 5.324313417077064514e-03 5.086000919342041016e+00 1.527397513389587402e+00 -1.550996303558349609e-01
1.085000000000000000e+03 7.819058990478515625e+01 -5.769699096679687500e+00 7.413960061967372894e-03 5.946423053741455078e+00 1.786151170730590820e+00 -4.149420261383056641e-01
1.086000000000000000e+03 7.818352508544921875e+01 -9.875522613525390625e+00 -1.435506995767354965e-02 6.567801475524902344e+00 1.966033935546875000e+00 -3.859539628028869629e-01
1.087000000000000000e+03 7.939298248291015625e+01 -1.118091583251953125e+01 1.664790906943380833e-04 6.839538574218750000e+00 2.051911592483520508e+00 -1.371028125286102295e-01
1.088000000000000000e+03 7.815489196777343750e+01 -1.261017417907714844e+01 -3.754532337188720703e-02 6.949962139129638672e+00 2.073724985122680664e+00 -3.153715133666992188e-01
1.089000000000000000e+03 7.819003295898437500e+01 -1.677651405334472656e+01 -1.296182870864868164e-01 7.326909065246582031e+00 2.159187316894531250e+00 -3.353309258818626404e-02
1.090000000000000000e+03 7.939884185791015625e+01 -1.813426208496093750e+01 -4.361310973763465881e-02 7.547972679138183594e+00 2.251307725906372070e+00 5.430305749177932739e-02
1.091000000000000000e+03 7.818670654296875000e+01 -1.818299484252929688e+01 -1.247796118259429932e-01 7.321603298187255859e+00 2.159047126770019531e+00 1.373020559549331665e-01
1.092000000000000000e+03 1.028012752532958984e+01 -1.741972732543945312e+01 8.027710719034075737e-04 2.907144153141416609e-05 2.495527442079037428e-04 -6.685515108983963728e-05
1.093000000000000000e+03 8.612531661987304688e+00 -1.854283905029296875e+01 7.318421849049627781e-04 -1.823823004087898880e-05 2.140811848221346736e-04 -1.636507840885315090e-05
1.094000000000000000e+03 2.374157905578613281e+01 -3.316862487792968750e+01 -3.194858133792877197e-02 -5.126702599227428436e-03 -1.112258527427911758e-02 -1.797733455896377563e-02
1.095000000000000000e+03 2.506114959716796875e+01 -3.326612091064453125e+01 -4.436910897493362427e-02 -7.644668221473693848e-04 -1.354007329791784286e-02 -2.465472742915153503e-02
1.096000000000000000e+03 3.887163543701171875e+01 -3.441725158691406250e+01 -9.800659865140914917e-02 1.432351022958755493e-01 1.356855034828186035e-02 1.258505284786224365e-01
1.097000000000000000e+03 8.732564926147460938e+00 -1.740940284729003906e+01 -7.120364462025463581e-04 -2.994752503582276404e-05 -2.225951902801170945e-04 4.807531513506546617e-05
1.098000000000000000e+03 3.973496627807617188e+01 -3.374554061889648438e+01 -1.763844788074493408e-01 3.027049899101257324e-01 3.789616003632545471e-02 1.668608188629150391e-01
1.099000000000000000e+03 4.080830764770507812e+01 -3.354614639282226562e+01 -1.516891568899154663e-01 4.873708188533782959e-01 1.007044985890388489e-01 2.793722748756408691e-01
1.100000000000000000e+03 3.152622795104980469e+01 -3.425251007080078125e+01 -1.693098098039627075e-01 5.138231907039880753e-03 -4.925147071480751038e-02 -7.388898730278015137e-02
1.101000000000000000e+03 7.105080413818359375e+01 1.305291175842285156e+01 -1.993147581815719604e-01 9.129343986511230469e+00 2.679008960723876953e+00 4.948128480464220047e-03
1.102000000000000000e+03 1.974227905273437500e+01 -3.137698364257812500e+01 -1.616955548524856567e-02 -1.274668262340128422e-03 -5.233267322182655334e-03 -3.451968310400843620e-03
1.103000000000000000e+03 1.764879107475280762e+00 -2.460746002197265625e+01 6.611244753003120422e-04 4.351888128439895809e-05 2.113930095219984651e-04 1.473400916438549757e-04
1.104000000000000000e+03 7.398200988769531250e+00 -2.380970382690429688e+01 8.465417777188122272e-04 1.505007239757105708e-04 2.991127548739314079e-04 -2.846311836037784815e-04
1.105000000000000000e+03 2.798499488830566406e+01 -3.179541397094726562e+01 -9.910871833562850952e-02 -1.581354881636798382e-04 -2.978005632758140564e-02 -4.945115186274051666e-03
1.106000000000000000e+03 2.945288276672363281e+01 -3.470574188232421875e+01 -9.441020339727401733e-02 1.187795400619506836e-02 -2.475967444479465485e-02 -7.398035377264022827e-02
1.107000000000000000e+03 8.952148437500000000e+00 -2.863310813903808594e+01 -7.464417139999568462e-04 -2.792233135551214218e-04 -3.076995199080556631e-04 2.587855560705065727e-04
1.108000000000000000e+03 2.640445327758789062e+01 -3.334463882446289062e+01 -5.505562201142311096e-02 -3.088776953518390656e-03 -1.744331978261470795e-02 -2.953296713531017303e-02
1.109000000000000000e+03 2.661677169799804688e+01 -3.168493080139160156e+01 -7.501763850450515747e-02 2.801444148644804955e-03 -2.166485786437988281e-02 -5.922824144363403320e-03
1.110000000000000000e+03 1.335096836090087891e+01 -3.212359237670898438e+01 -1.123155117966234684e-03 -1.069167919922620058e-04 -3.690215526148676872e-04 -3.491258248686790466e-04
1.111000000000000000e+03 4.457920837402343750e+01 -2.490272903442382812e+01 3.592295944690704346e-01 8.354625105857849121e-01 3.584076166152954102e-01 3.178834021091461182e-01
1.112000000000000000e+03 1.971513748168945312e+01 -3.397554779052734375e+01 -1.237026974558830261e-02 -3.786267014220356941e-03 -4.846961237490177155e-03 -1.520362496376037598e-02
1.113000000000000000e+03 1.840673828125000000e+01 -3.262156295776367188e+01 -1.260386779904365540e-02 -3.478761354926973581e-04 -3.885523183271288872e-03 -7.449665106832981110e-03
1.114000000000000000e+03 5.142620468139648438e+01 -1.639441680908203125e+01 -3.190652608871459961e+00 7.852956771850585938e+00 1.398691177368164062e+00 -3.718930780887603760e-01
1.115000000000000000e+03 5.219717025756835938e+01 3.334566116333007812e+01 -1.609446406364440918e-01 2.973603904247283936e-01 4.092472791671752930e-02 1.200178116559982300e-01
1.116000000000000000e+03 5.131889724731445312e+01 3.753905105590820312e+01 -5.821099281311035156e-01 8.245581388473510742e-01 7.273446768522262573e-02 2.239716351032257080e-01
1.117000000000000000e+03 7.094606018066406250e+01 2.463243865966796875e+01 2.929297983646392822e-01 7.553188323974609375e+00 2.353835582733154297e+00 1.171351075172424316e-01
1.118000000000000000e+03 7.075856018066406250e+01 2.610383987426757812e+01 2.210919409990310669e-01 6.948218822479248047e+00 2.150793075561523438e+00 7.062950730323791504e-02
1.119000000000000000e+03 6.970360565185546875e+01 1.167035007476806641e+01 -4.166534543037414551e-01 7.949696063995361328e+00 2.259912729263305664e+00 1.406847238540649414e-01
1.120000000000000000e+03 4.605115509033203125e+01 -2.569560408592224121e-01 9.039756059646606445e-01 5.440134525299072266e+00 1.903233051300048828e+00 -2.448415040969848633e+00
1.121000000000000000e+03 6.651717376708984375e+01 -8.767362594604492188e+00 1.108834028244018555e+00 4.860101222991943359e+00 1.790680646896362305e+00 2.184284210205078125e+00
1.122000000000000000e+03 7.002443695068359375e+01 2.900971031188964844e+01 -2.021861672401428223e-01 5.011254787445068359e+00 1.442720532417297363e+00 -4.112040996551513672e-02
1.123000000000000000e+03 6.305322647094726562e+01 -1.340825080871582031e+01 2.009829282760620117e+00 1.927750468254089355e+00 1.181273937225341797e+00 1.834426641464233398e+00
1.124000000000000000e+03 6.513203430175781250e+01 -1.315202999114990234e+01 1.392942309379577637e+00 2.892072439193725586e+00 1.285504460334777832e+00 1.429565787315368652e+00
1.125000000000000000e+03 6.618202209472656250e+01 3.572986602783203125e+01 -8.078993558883666992e-01 7.035597562789916992e-01 -3.130188211798667908e-02 9.431360661983489990e-02
1.126000000000000000e+03 4.101996994018554688e+01 1.481460762023925781e+01 5.424281954765319824e-01 7.564552307128906250e+00 2.432094097137451172e+00 6.260655820369720459e-02
1.127000000000000000e+03 4.626240158081054688e+01 2.896024513244628906e+01 2.530359029769897461e-01 2.503972053527832031e+00 8.271023631095886230e-01 8.512794971466064453e-01
1.128000000000000000e+03 4.308118820190429688e+01 2.349706840515136719e+01 5.165786743164062500e-01 4.451121807098388672e+00 1.490310192108154297e+00 1.023252964019775391e+00
1.129000000000000000e+03 4.714134979248046875e+01 3.000297164916992188e+01 1.820228248834609985e-01 2.078960895538330078e+00 6.782951354980468750e-01 7.789870500564575195e-01
1.130000000000000000e+03 4.369806671142578125e+01 2.489212799072265625e+01 4.369069933891296387e-01 3.996850252151489258e+00 1.330127239227294922e+00 1.046673417091369629e+00
1.131000000000000000e+03 6.866339874267578125e+01 3.159380912780761719e+01 -8.892254233360290527e-01 2.735722541809082031e+00 5.539491176605224609e-01 -2.718636952340602875e-02
1.132000000000000000e+03 6.793972778320312500e+01 3.281814956665039062e+01 -1.018158197402954102e+00 1.832943201065063477e+00 2.444354891777038574e-01 2.636819891631603241e-02
1.133000000000000000e+03 4.871487808227539062e+01 -1.022274589538574219e+01 8.050362765789031982e-02 5.808273315429687500e+00 1.766633033752441406e+00 -1.734572768211364746e+00
1.134000000000000000e+03 4.350616073608398438e+01 2.033167457580566406e+01 5.333613753318786621e-01 5.780023574829101562e+00 1.894015550613403320e+00 1.559762716293334961e+00
1.135000000000000000e+03 4.930180740356445312e+01 -4.808489799499511719e+00 7.148483991622924805e-01 6.367387771606445312e+00 2.124670743942260742e+00 -2.200120687484741211e+00
1.136000000000000000e+03 6.073635101318359375e+01 -1.771544647216796875e+01 -2.832847237586975098e-01 1.256996631622314453e+00 2.921135723590850830e-01 1.910522222518920898e+00
1.137000000000000000e+03 7.095525360107421875e+01 1.172397518157958984e+01 -6.025770306587219238e-01 9.509023666381835938e+00 2.671933889389038086e+00 1.331710964441299438e-01
1.138000000000000000e+03 6.260262298583984375e+01 -1.514055252075195312e+01 1.186723351478576660e+00 1.651948451995849609e+00 8.516015410423278809e-01 1.428097248077392578e+00
1.139000000000000000e+03 4.090112304687500000e+01 1.328417587280273438e+01 6.378619074821472168e-01 8.058301925659179688e+00 2.608849287033081055e+00 -5.801217555999755859e-01
1.140000000000000000e+03 7.043549346923828125e+01 -2.387591838836669922e+00 6.153443455696105957e-01 1.020092487335205078e+01 3.244880914688110352e+00 1.619754910469055176e+00
1.141000000000000000e+03 7.017085266113281250e+01 3.328002691268920898e+00 1.305224895477294922e-01 1.398368072509765625e+01 4.234261035919189453e+00 3.794991374015808105e-01
1.142000000000000000e+03 4.171041488647460938e+01 5.384454727172851562e+00 1.206155896186828613e+00 6.656167030334472656e+00 2.358696937561035156e+00 -2.017059564590454102e+00
1.143000000000000000e+03 4.820290374755859375e+01 -5.165386199951171875e+00 7.123758792877197266e-01 5.818810462951660156e+00 1.959355950355529785e+00 -2.238861799240112305e+00
1.144000000000000000e+03 4.834315490722656250e+01 -2.230459451675415039e+00 8.040803670883178711e-01 5.643695831298828125e+00 1.934332847595214844e+00 -2.275451660156250000e+00
1.145000000000000000e+03 7.046573638916015625e+01 2.757332611083984375e+01 1.070736423134803772e-01 6.070126533508300781e+00 1.853160142898559570e+00 7.087771315127611160e-03
1.146000000000000000e+03 7.002052307128906250e+01 -3.809808731079101562e+00 6.376541852951049805e-01 9.151931762695312500e+00 2.936875820159912109e+00 1.707090973854064941e+00
1.147000000000000000e+03 4.542043304443359375e+01 9.605699777603149414e-01 1.067321181297302246e+00 5.485710620880126953e+00 1.965909600257873535e+00 -2.587971925735473633e+00
1.148000000000000000e+03 4.525732040405273438e+01 3.960739850997924805e+00 1.640448927879333496e+00 5.926754951477050781e+00 2.270161151885986328e+00 -3.141756772994995117e+00
1.149000000000000000e+03 4.524180603027343750e+01 2.778425788879394531e+01 3.218033015727996826e-01 2.937344551086425781e+00 9.777443408966064453e-01 9.226131439208984375e-01
1.150000000000000000e+03 6.003408050537109375e+01 -1.674682998657226562e+01 -3.829679191112518311e-01 1.173784971237182617e+00 2.372451275587081909e-01 1.419117212295532227e+00
1.151000000000000000e+03 4.664366149902343750e+01 -1.473538517951965332e+00 7.876821160316467285e-01 5.470375537872314453e+00 1.877417206764221191e+00 -2.436697006225585938e+00
1.152000000000000000e+03 6.893136596679687500e+01 -6.550005435943603516e+00 6.178495883941650391e-01 7.202677249908447266e+00 2.346158027648925781e+00 1.737797379493713379e+00
1.153000000000000000e+03 6.830939483642578125e+01 -7.864222049713134766e+00 6.899201273918151855e-01 6.197784423828125000e+00 2.066311359405517578e+00 1.733023643493652344e+00
1.154000000000000000e+03 7.019144439697265625e+01 4.732354164123535156e+00 1.163643784821033478e-02 1.320443058013916016e+01 3.964820146560668945e+00 1.824412941932678223e-01
1.155000000000000000e+03 7.115554809570312500e+01 9.076726913452148438e+00 -1.068698018789291382e-01 1.030194664001464844e+01 3.058523178100585938e+00 3.367018699645996094e-01
1.156000000000000000e+03 7.202912902832031250e+01 1.055921077728271484e+01 -5.096669197082519531e-01 9.732783317565917969e+00 2.766934871673583984e+00 4.799613952636718750e-01
1.157000000000000000e+03 4.175840759277343750e+01 1.924688148498535156e+01 4.338301718235015869e-01 5.993665218353271484e+00 1.928248524665832520e+00 8.272098302841186523e-01
1.158000000000000000e+03 6.754665374755859375e+01 -1.222738838195800781e+01 8.568091392517089844e-01 4.145245075225830078e+00 1.500616192817687988e+00 9.832897782325744629e-01
1.159000000000000000e+03 4.983867263793945312e+01 -1.017147445678710938e+01 3.448123931884765625e-01 6.348994731903076172e+00 2.008142232894897461e+00 -1.821779131889343262e+00
1.160000000000000000e+03 5.134291458129882812e+01 -1.143317890167236328e+01 3.146871328353881836e-01 6.686925411224365234e+00 2.100483894348144531e+00 -1.798849940299987793e+00
1.161000000000000000e+03 5.006161880493164062e+01 -1.148146820068359375e+01 -1.138141453266143799e-01 6.242906570434570312e+00 1.838727712631225586e+00 -1.471776127815246582e+00
1.162000000000000000e+03 5.108995437622070312e+01 3.464546966552734375e+01 -3.396912217140197754e-01 7.572740912437438965e-01 1.252748519182205200e-01 2.673288285732269287e-01
1.163000000000000000e+03 6.950914764404296875e+01 -5.202261447906494141e+00 6.054612398147583008e-01 8.120281219482421875e+00 2.617722749710083008e+00 1.700282931327819824e+00
1.164000000000000000e+03 4.441235351562500000e+01 2.629874992370605469e+01 4.068034291267395020e-01 3.483474731445312500e+00 1.167083501815795898e+00 1.033526301383972168e+00
1.165000000000000000e+03 4.160222625732421875e+01 8.644854545593261719e+00 1.553451657295227051e+00 8.413310050964355469e+00 2.990028619766235352e+00 -1.831387758255004883e+00
1.166000000000000000e+03 4.218946075439453125e+01 7.238485813140869141e+00 1.482867598533630371e+00 7.991620063781738281e+00 2.842346191406250000e+00 -2.460390329360961914e+00
1.167000000000000000e+03 4.346186828613281250e+01 4.627978801727294922e+00 1.323664665222167969e+00 6.644998550415039062e+00 2.390599012374877930e+00 -2.700772523880004883e+00
1.168000000000000000e+03 4.281575393676757812e+01 5.906947612762451172e+00 1.458943963050842285e+00 7.104451656341552734e+00 2.569018602371215820e+00 -2.658254384994506836e+00
1.169000000000000000e+03 4.789765930175781250e+01 3.141229629516601562e+01 -3.842575708404183388e-03 1.740348577499389648e+00 5.209518074989318848e-01 6.149916052818298340e-01
1.170000000000000000e+03 6.996013641357421875e+01 2.149529457092285156e+01 3.456574049778282642e-04 8.286190986633300781e+00 2.485960960388183594e+00 1.332836449146270752e-01
1.171000000000000000e+03 7.106665802001953125e+01 2.317723464965820312e+01 1.842630207538604736e-01 7.967553138732910156e+00 2.445544958114624023e+00 1.871151179075241089e-01
1.172000000000000000e+03 4.362354660034179688e+01 1.589335322380065918e+00 8.823578357696533203e-01 5.579395771026611328e+00 1.938526034355163574e+00 -2.341681957244873047e+00
1.173000000000000000e+03 6.997685241699218750e+01 2.007837486267089844e+01 1.959417015314102173e-02 8.536678314208984375e+00 2.566881895065307617e+00 1.567803025245666504e-01
1.174000000000000000e+03 7.116780090332031250e+01 2.172416114807128906e+01 9.827898442745208740e-02 8.279322624206542969e+00 2.513280391693115234e+00 2.767382860183715820e-01
1.175000000000000000e+03 7.591036987304687500e+01 1.496303272247314453e+01 -4.081064090132713318e-02 8.054470062255859375e+00 2.404097795486450195e+00 6.028107404708862305e-01
1.176000000000000000e+03 7.121041870117187500e+01 1.878896713256835938e+01 4.342726245522499084e-02 8.691150665283203125e+00 2.620373249053955078e+00 4.050762653350830078e-01
1.177000000000000000e+03 1.314292669296264648e+00 -4.013600158691406250e+01 5.813024472445249557e-04 6.438515847548842430e-04 3.675461921375244856e-04 -4.198825627099722624e-05
1.178000000000000000e+03 7.382851839065551758e-01 3.739022064208984375e+01 1.487113721668720245e-02 -1.789481043815612793e+00 -5.323829650878906250e-01 -2.746366336941719055e-02
1.179000000000000000e+03 6.411833763122558594e-01 3.462863540649414062e+01 3.974601160734891891e-03 -1.859771728515625000e+00 -5.567391514778137207e-01 -1.388652063906192780e-02
1.180000000000000000e+03 6.434577107429504395e-01 3.323434829711914062e+01 2.804113086313009262e-03 -1.881482362747192383e+00 -5.636034607887268066e-01 -6.139366421848535538e-03
1.181000000000000000e+03 7.113278508186340332e-01 2.759676742553710938e+01 -9.843640727922320366e-04 -1.898263216018676758e+00 -5.697742700576782227e-01 2.880291780456900597e-03
1.182000000000000000e+03 7.099286317825317383e-01 2.615880775451660156e+01 -3.048166108783334494e-04 -1.891572713851928711e+00 -5.675632357597351074e-01 1.521956059150397778e-03
1.183000000000000000e+03 8.281952142715454102e-01 -3.600595474243164062e+01 -4.198293318040668964e-04 8.648784132674336433e-04 1.335147244390100241e-04 -2.042069809249369428e-06
1.184000000000000000e+03 2.225621938705444336e+00 -3.297599029541015625e+01 7.979457732290029526e-04 2.856732753571122885e-04 3.250857116654515266e-04 2.240035682916641235e-04
1.185000000000000000e+03 3.506464958190917969e+00 2.578216171264648438e+01 3.033863194286823273e-02 -1.492154836654663086e+00 -4.385448694229125977e-01 3.187708556652069092e-02
1.186000000000000000e+03 3.262489557266235352e+00 2.419792556762695312e+01 3.250918164849281311e-02 -1.509466171264648438e+00 -4.430871009826660156e-01 5.488261952996253967e-02
1.187000000000000000e+03 1.902360796928405762e+00 3.443737792968750000e+01 4.406175110489130020e-03 -1.702991724014282227e+00 -5.095756649971008301e-01 -2.111606113612651825e-02
1.188000000000000000e+03 1.933912754058837891e+00 3.310008621215820312e+01 1.058235671371221542e-02 -1.705136299133300781e+00 -5.083661675453186035e-01 -2.081574685871601105e-02
1.189000000000000000e+03 2.460369110107421875e+00 3.813576889038085938e+01 1.501173246651887894e-02 -1.608562350273132324e+00 -4.780651628971099854e-01 -5.128284916281700134e-02
1.190000000000000000e+03 3.393727779388427734e+00 3.914465713500976562e+01 4.422082100063562393e-03 -1.585956692695617676e+00 -4.744603633880615234e-01 -2.281709760427474976e-02
1.191000000000000000e+03 2.108138084411621094e+00 -3.017275619506835938e+01 7.871234556660056114e-04 2.616817946545779705e-04 3.146415692754089832e-04 2.691311237867921591e-04
1.192000000000000000e+03 2.637922286987304688e+00 -3.703824234008789062e+01 -5.353750893846154213e-04 2.585321199148893356e-04 -8.305288793053478003e-05 -1.328356156591325998e-04
1.193000000000000000e+03 3.045922756195068359e+00 -2.175796318054199219e+01 -4.878778709098696709e-04 -1.401639892719686031e-04 -1.884125667857006192e-04 -4.892146534984931350e-05
1.194000000000000000e+03 6.147423386573791504e-01 2.046579742431640625e+01 2.197597408667206764e-03 -1.763209939002990723e+00 -5.283036828041076660e-01 2.699162252247333527e-02
1.195000000000000000e+03 6.072749495506286621e-01 1.906090545654296875e+01 4.666962660849094391e-03 -1.689370751380920410e+00 -5.054111480712890625e-01 3.439989686012268066e-02
1.196000000000000000e+03 5.869554281234741211e-01 1.483959579467773438e+01 1.489254529587924480e-03 -1.354112625122070312e+00 -4.057870209217071533e-01 5.765822529792785645e-02
1.197000000000000000e+03 5.735583901405334473e-01 1.343115901947021484e+01 3.933192230761051178e-03 -1.203434467315673828e+00 -3.598503768444061279e-01 6.366795301437377930e-02
1.198000000000000000e+03 5.284863114356994629e-01 7.810979843139648438e+00 -1.594619825482368469e-03 -4.614110291004180908e-01 -1.389016956090927124e-01 6.994812190532684326e-02
1.199000000000000000e+03 4.956496238708496094e+00 -4.054030990600585938e+01 7.626071455888450146e-04 3.717310610227286816e-04 3.403014561627060175e-04 3.276797651778906584e-04
1.200000000000000000e+03 4.393253803253173828e+00 -3.676602935791015625e+01 3.811990973190404475e-05 7.713054656051099300e-04 2.428276202408596873e-04 -6.228661368368193507e-05
1.201000000000000000e+03 4.131021499633789062e+00 -3.540146636962890625e+01 -1.203420688398182392e-03 -4.234209700371138752e-05 -3.737288352567702532e-04 6.735721835866570473e-04
1.202000000000000000e+03 2.168448448181152344e+00 -3.157927131652832031e+01 -7.717859116382896900e-04 2.988720079883933067e-04 -1.418741594534367323e-04 1.724520698189735413e-04
1.203000000000000000e+03 1.911344766616821289e+00 -2.735154533386230469e+01 7.722551818005740643e-04 1.024800949380733073e-04 2.624205662868916988e-04 1.687760814093053341e-04
1.204000000000000000e+03 2.939330816268920898e+00 -2.315805435180664062e+01 5.745706148445606232e-04 1.153994890046305954e-04 2.069910260615870357e-04 1.548364525660872459e-04
1.205000000000000000e+03 3.048123836517333984e+00 -1.726255416870117188e+01 4.907984985038638115e-04 1.958718712558038533e-05 1.531157176941633224e-04 8.593055827077478170e-05
1.206000000000000000e+03 6.343483924865722656e-01 -1.907921409606933594e+01 -3.997619787696748972e-04 -2.048447822744492441e-05 -1.260739372810348868e-04 -5.055962174083106220e-05
1.207000000000000000e+03 3.169476032257080078e+00 -2.023812866210937500e+01 4.902491928078234196e-04 1.310618681600317359e-04 1.863933284766972065e-04 -3.635037046478828415e-06
1.208000000000000000e+03 1.848477244377136230e+00 -1.606603431701660156e+01 4.321395535953342915e-04 1.022592732624616474e-05 1.327096397290006280e-04 4.953294046572409570e-05
1.209000000000000000e+03 6.097891926765441895e-01 -1.201256370544433594e+01 3.413922968320548534e-04 1.061420516634825617e-05 1.056019464158453047e-04 5.408117067418061197e-05
1.210000000000000000e+03 1.823709607124328613e+00 -1.183818626403808594e+01 -3.286109131295233965e-04 -7.706445103394798934e-06 -1.008952094707638025e-04 -5.852250615134835243e-05
1.211000000000000000e+03 1.806704759597778320e+00 -6.055598258972167969e+00 -2.446711878292262554e-04 -7.668260877835564315e-06 -7.570183515781536698e-05 -4.390333197079598904e-05
1.212000000000000000e+03 2.964939832687377930e+00 -4.457535743713378906e+00 -1.549352164147421718e-04 -3.802738865488208830e-05 -5.788878115708939731e-05 -6.328642484731972218e-05
1.213000000000000000e+03 5.329974293708801270e-01 4.959599018096923828e+00 -7.417795248329639435e-03 -1.312783211469650269e-01 -4.160883650183677673e-02 4.760281369090080261e-02
1.214000000000000000e+03 6.263791561126708984e+00 4.158100128173828125e+00 -3.241101205348968506e-01 -3.527323007583618164e-01 -2.030527293682098389e-01 5.550116300582885742e-01
1.215000000000000000e+03 1.633599758148193359e+00 1.046891784667968750e+01 5.487677641212940216e-03 -8.203240036964416504e-01 -2.444508969783782959e-01 2.104047238826751709e-01
1.216000000000000000e+03 5.468491911888122559e-01 1.061706542968750000e+01 1.946334261447191238e-03 -8.494812846183776855e-01 -2.542604804039001465e-01 7.289795577526092529e-02
1.217000000000000000e+03 1.715849995613098145e+00 1.325445461273193359e+01 1.327222678810358047e-02 -1.113230109214782715e+00 -3.299873471260070801e-01 1.875274330377578735e-01
1.218000000000000000e+03 1.812908053398132324e+00 1.883770179748535156e+01 1.607120409607887268e-02 -1.522752285003662109e+00 -4.520043432712554932e-01 1.054807975888252258e-01
1.219000000000000000e+03 2.017907381057739258e+00 2.448542976379394531e+01 1.577871479094028473e-02 -1.678350567817687988e+00 -4.987715780735015869e-01 3.107795305550098419e-02
1.220000000000000000e+03 1.996041679382324219e+01 -1.226525497436523438e+01 -5.141053406987339258e-05 -6.496960122603923082e-05 -3.491403913358226418e-05 -2.054309879895299673e-05
1.221000000000000000e+03 1.309117603302001953e+01 -1.305937099456787109e+01 1.801956677809357643e-04 2.383374376222491264e-04 1.255599345313385129e-04 -1.178625534521415830e-04
1.222000000000000000e+03 5.580821609497070312e+01 -3.908358001708984375e+01 -8.124646544456481934e-01 3.953551769256591797e+00 9.423261284828186035e-01 -6.287297010421752930e-01
1.223000000000000000e+03 5.855739593505859375e+01 -3.530237579345703125e+01 5.528134107589721680e-02 2.150392532348632812e+00 6.617022156715393066e-01 -1.314090847969055176e+00
1.224000000000000000e+03 1.093775653839111328e+01 -1.443512344360351562e+01 -1.096307460102252662e-05 1.415985461790114641e-04 3.919064329238608479e-05 -1.684324524831026793e-04
1.225000000000000000e+03 4.927883148193359375e+01 -2.176338386535644531e+01 -8.550548553466796875e-02 1.225903415679931641e+01 3.652058601379394531e+00 1.836395144462585449e+00
1.226000000000000000e+03 4.717142486572265625e+01 -2.268043899536132812e+01 9.846051931381225586e-01 2.469055175781250000e+00 1.036098122596740723e+00 1.653339743614196777e+00
1.227000000000000000e+03 4.771739196777343750e+01 -2.207369422912597656e+01 1.335097074508666992e+00 3.363489389419555664e+00 1.409575939178466797e+00 2.451247453689575195e+00
1.228000000000000000e+03 4.710466003417968750e+01 -2.225103378295898438e+01 1.088512420654296875e+00 1.926863193511962891e+00 9.046126604080200195e-01 1.477224469184875488e+00
1.229000000000000000e+03 4.741682815551757812e+01 -2.266766357421875000e+01 9.994806051254272461e-01 3.198848724365234375e+00 1.259498834609985352e+00 1.927557468414306641e+00
1.230000000000000000e+03 4.715503692626953125e+01 -1.881344032287597656e+01 1.897382020950317383e+00 1.415620923042297363e+00 9.939008355140686035e-01 -3.083651542663574219e+00
1.231000000000000000e+03 4.723377609252929688e+01 -1.848676490783691406e+01 1.768138527870178223e+00 2.291022777557373047e+00 1.217748403549194336e+00 -3.623018503189086914e+00
1.232000000000000000e+03 4.588064193725585938e+01 -1.894472885131835938e+01 -1.330117434263229370e-01 4.502780139446258545e-01 9.517987817525863647e-02 -1.102995753288269043e+00
1.233000000000000000e+03 4.567241668701171875e+01 -2.327865982055664062e+01 6.646534204483032227e-01 1.003750205039978027e+00 5.005211234092712402e-01 5.955335497856140137e-01
1.234000000000000000e+03 1.632915878295898438e+01 -9.609030723571777344e+00 -6.002556347084464505e-06 9.755058999871835113e-05 2.746440986811649054e-05 1.036655594361945987e-04
1.235000000000000000e+03 1.654222297668457031e+01 -7.987282276153564453e+00 8.199991134461015463e-05 3.213879972463473678e-05 3.424161332077346742e-05 -9.314913768321275711e-06
1.236000000000000000e+03 1.395279693603515625e+01 -6.133081436157226562e+00 8.726386295165866613e-05 9.128755482379347086e-05 5.356542533263564110e-05 5.484317625814583153e-06
1.237000000000000000e+03 1.866590309143066406e+01 -1.086041641235351562e+01 -9.213768498739227653e-05 -5.243281702860258520e-05 -4.337115024100057781e-05 -6.988483073655515909e-05
1.238000000000000000e+03 1.673122978210449219e+01 -7.012694358825683594e+00 6.608000694541260600e-05 4.640981933334842324e-05 3.374695006641559303e-05 1.792909824871458113e-05
1.239000000000000000e+03 4.684891128540039062e+01 -1.837995147705078125e+01 1.349256515502929688e+00 1.839627504348754883e+00 9.566652178764343262e-01 -3.069688081741333008e+00
1.240000000000000000e+03 1.892321205139160156e+01 -9.721422195434570312e+00 -7.076754991430789232e-05 -4.524727046373300254e-05 -3.480444865999743342e-05 -5.589331703959032893e-05
1.241000000000000000e+03 5.079248809814453125e+01 -1.779926109313964844e+01 -5.050721764564514160e-01 1.062389469146728516e+01 3.035646677017211914e+00 -6.213497519493103027e-01
1.242000000000000000e+03 5.100139236450195312e+01 -1.448540878295898438e+01 -2.904130935668945312e+00 6.775057792663574219e+00 1.161278128623962402e+00 -4.600473642349243164e-01
1.243000000000000000e+03 4.245456695556640625e+01 -1.913499069213867188e+01 -1.637116909027099609e+00 6.115307211875915527e-01 -3.076758682727813721e-01 3.318198919296264648e-01
1.244000000000000000e+03 1.484053134918212891e+01 -6.044481754302978516e+00 6.193557055667042732e-05 1.041948635247536004e-04 4.983913095202296972e-05 1.473129600526590366e-06
1.245000000000000000e+03 1.476146221160888672e+01 -5.213044166564941406e+00 6.645233224844560027e-05 1.060877548297867179e-04 5.176202466827817261e-05 2.636914177855942398e-05
1.246000000000000000e+03 1.434783649444580078e+01 -5.668817996978759766e+00 -7.046116661513224244e-05 -1.101524248952046037e-04 -5.418407818069681525e-05 -9.897034942696336657e-06
1.247000000000000000e+03 1.759557151794433594e+01 -8.055053710937500000e+00 8.808938582660630345e-05 4.490916762733832002e-05 3.989956530858762562e-05 1.410680670232977718e-05
1.248000000000000000e+03 1.181375312805175781e+01 -3.654796361923217773e+00 -8.992548100650310516e-05 -9.754078928381204605e-05 -5.623988181469030678e-05 -7.685254240641370416e-05
1.249000000000000000e+03 1.280759620666503906e+01 -4.700374126434326172e+00 4.538114444585517049e-05 1.391088444506749511e-04 5.534699812415055931e-05 7.182156696217134595e-05
1.250000000000000000e+03 1.849119186401367188e+01 -9.131257057189941406e+00 9.353310451842844486e-05 1.999471714952960610e-05 3.405834650038741529e-05 4.105452899239026010e-05
1.251000000000000000e+03 1.740989112854003906e+01 -9.092792510986328125e+00 1.468180562369525433e-04 2.062247040157672018e-05 5.023215999244712293e-05 4.450275082490406930e-05
1.252000000000000000e+03 1.641780853271484375e+01 -1.125781154632568359e+01 -2.027722075581550598e-05 -4.912888925900915638e-06 -7.557032859040191397e-06 5.333405351848341525e-05
1.253000000000000000e+03 8.719897270202636719e+00 -4.445065975189208984e+00 -1.083218885469250381e-04 7.707250006205867976e-06 -3.018439201696310192e-05 -9.946081991074606776e-05
1.254000000000000000e+03 1.008871555328369141e+01 -3.893323421478271484e+00 1.042493240674957633e-04 1.283547899220138788e-04 6.978123565204441547e-05 1.871843051048927009e-05
1.255000000000000000e+03 5.515753746032714844e+00 2.631058216094970703e+00 -3.304925262928009033e-01 -1.449254900217056274e-01 -1.426254063844680786e-01 3.267425298690795898e-01
1.256000000000000000e+03 2.693602561950683594e+00 3.879652738571166992e+00 -9.071791917085647583e-02 -1.898674666881561279e-01 -8.417561650276184082e-02 1.836462020874023438e-01
1.257000000000000000e+03 3.339849233627319336e+00 2.788110971450805664e+00 -1.305931657552719116e-01 -1.214080899953842163e-01 -7.560037821531295776e-02 1.564153432846069336e-01
1.258000000000000000e+03 4.055941104888916016e+00 2.693315982818603516e+00 -1.932077556848526001e-01 -1.234497800469398499e-01 -9.499726444482803345e-02 2.115581333637237549e-01
1.259000000000000000e+03 5.504083633422851562e+00 3.392395973205566406e+00 -3.076366186141967773e-01 -2.326833158731460571e-01 -1.620959788560867310e-01 4.083521664142608643e-01
1.260000000000000000e+03 6.247740745544433594e+00 3.365169048309326172e+00 -3.748092055320739746e-01 -2.569434344768524170e-01 -1.895257979631423950e-01 4.828348159790039062e-01
1.261000000000000000e+03 9.052943229675292969e+00 3.358961582183837891e+00 -5.760677456855773926e-01 -5.621249675750732422e-01 -3.414578139781951904e-01 8.222723007202148438e-01
1.262000000000000000e+03 6.248956680297851562e+00 2.611177206039428711e+00 -4.169409275054931641e-01 -1.774180978536605835e-01 -1.783077120780944824e-01 4.086575806140899658e-01
1.263000000000000000e+03 6.973302364349365234e+00 3.313735485076904297e+00 -4.471038281917572021e-01 -3.023129403591156006e-01 -2.248250246047973633e-01 5.692589282989501953e-01
1.264000000000000000e+03 9.973987579345703125e+00 2.863251686096191406e+00 -7.160307765007019043e-01 -6.750326752662658691e-01 -4.173190593719482422e-01 8.864651322364807129e-01
1.265000000000000000e+03 2.623934364318847656e+01 -9.992430686950683594e+00 -1.333246111869812012e+00 -8.583186864852905273e-01 -6.574694514274597168e-01 1.384495019912719727e+00
1.266000000000000000e+03 2.746972084045410156e+01 -1.385382270812988281e+01 -9.939563870429992676e-01 -5.320654511451721191e-01 -4.578065574169158936e-01 1.179955601692199707e+00
1.267000000000000000e+03 2.702533912658691406e+01 -1.135492610931396484e+01 -1.227041244506835938e+00 -6.372715234756469727e-01 -5.592938065528869629e-01 1.366118669509887695e+00
1.268000000000000000e+03 2.663848114013671875e+01 -1.067136669158935547e+01 -1.276072859764099121e+00 -7.407090067863464355e-01 -6.050345897674560547e-01 1.376262903213500977e+00
1.269000000000000000e+03 2.778108596801757812e+01 -1.272756958007812500e+01 -1.137891650199890137e+00 -4.707160592079162598e-01 -4.825823307037353516e-01 1.305226564407348633e+00
1.270000000000000000e+03 2.485752296447753906e+01 -9.087152481079101562e+00 -1.433207631111145020e+00 -1.387880444526672363e+00 -8.463264107704162598e-01 1.468879103660583496e+00
1.271000000000000000e+03 2.942267608642578125e+01 -1.543862056732177734e+01 -1.340495944023132324e+00 -2.365150004625320435e-01 -4.731032848358154297e-01 9.270951747894287109e-01
1.272000000000000000e+03 3.065932655334472656e+01 -1.506144046783447266e+01 -1.500930070877075195e+00 -8.229463547468185425e-02 -4.749674201011657715e-01 1.002933025360107422e+00
1.273000000000000000e+03 4.453507232666015625e+01 -1.862277603149414062e+01 -7.550635933876037598e-01 7.329981923103332520e-01 -6.619614548981189728e-03 -4.716324210166931152e-01
1.274000000000000000e+03 4.221538543701171875e+01 -1.772883605957031250e+01 -1.627131581306457520e+00 9.117485880851745605e-01 -2.146149128675460815e-01 -1.400967091321945190e-01
1.275000000000000000e+03 4.036398696899414062e+01 -1.642191123962402344e+01 -1.734814047813415527e+00 5.236290693283081055e-01 -3.633554875850677490e-01 -1.948581784963607788e-01
1.276000000000000000e+03 4.158600234985351562e+01 -1.804034805297851562e+01 -1.994524836540222168e+00 6.808274388313293457e-01 -3.941092193126678467e-01 1.730139553546905518e-01
1.277000000000000000e+03 4.578697204589843750e+01 -1.844917869567871094e+01 2.544226348400115967e-01 8.954866528511047363e-01 3.449727892875671387e-01 -1.509124755859375000e+00
1.278000000000000000e+03 4.438331604003906250e+01 -1.798678398132324219e+01 -6.009209752082824707e-01 1.062032341957092285e+00 1.383334100246429443e-01 -7.479501962661743164e-01
1.279000000000000000e+03 4.351123428344726562e+01 -2.446502494812011719e+01 2.008821666240692139e-01 6.014941260218620300e-02 7.830947637557983398e-02 -4.288782179355621338e-02
1.280000000000000000e+03 4.327512359619140625e+01 -2.696056365966796875e+01 6.201381981372833252e-02 3.063195347785949707e-01 1.105000078678131104e-01 2.845120728015899658e-01
1.281000000000000000e+03 2.497536849975585938e+01 -7.987607002258300781e+00 -1.468329429626464844e+00 -1.197794556617736816e+00 -7.998371720314025879e-01 1.387317180633544922e+00
1.282000000000000000e+03 2.540571975708007812e+01 -8.647991180419921875e+00 -1.429687261581420898e+00 -1.093057990074157715e+00 -7.568235993385314941e-01 1.386778950691223145e+00
1.283000000000000000e+03 2.354321670532226562e+01 -7.106414794921875000e+00 -1.608019351959228516e+00 -1.704591393470764160e+00 -9.937831759452819824e-01 1.536212444305419922e+00
1.284000000000000000e+03 2.421501350402832031e+01 -5.592329025268554688e+00 -1.422446846961975098e+00 -1.166911125183105469e+00 -7.768073678016662598e-01 1.225479483604431152e+00
1.285000000000000000e+03 2.317766380310058594e+01 -5.369606494903564453e+00 -1.541577696800231934e+00 -1.505655646324157715e+00 -9.141700267791748047e-01 1.361810088157653809e+00
1.286000000000000000e+03 1.651339149475097656e+01 -3.601650893688201904e-01 -1.542879104614257812e+00 -1.515572547912597656e+00 -9.175355434417724609e-01 1.384524226188659668e+00
1.287000000000000000e+03 1.413332748413085938e+01 1.912206411361694336e+00 -9.554346203804016113e-01 -1.210754394531250000e+00 -6.498566865921020508e-01 1.118813633918762207e+00
1.288000000000000000e+03 1.719581222534179688e+01 -8.260059952735900879e-01 -1.600955605506896973e+00 -1.608192086219787598e+00 -9.627443552017211914e-01 1.435151100158691406e+00
1.289000000000000000e+03 1.676270484924316406e+01 1.164481282234191895e+00 -9.225075244903564453e-01 -1.439585208892822266e+00 -7.086278200149536133e-01 1.131239295005798340e+00
1.290000000000000000e+03 1.290284442901611328e+01 1.720756530761718750e+00 -1.109805941581726074e+00 -1.036950826644897461e+00 -6.440269947052001953e-01 1.080907940864562988e+00
1.291000000000000000e+03 1.914661026000976562e+01 -2.314587354660034180e+00 -1.717913031578063965e+00 -1.811167478561401367e+00 -1.058724164962768555e+00 1.520268201828002930e+00
1.292000000000000000e+03 2.100487899780273438e+01 -3.929982900619506836e+00 -1.720814228057861328e+00 -1.864988684654235840e+00 -1.075740814208984375e+00 1.539426684379577637e+00
1.293000000000000000e+03 2.155755615234375000e+01 -3.366974115371704102e+00 -1.482543706893920898e+00 -1.615301370620727539e+00 -9.293535351753234863e-01 1.306456923484802246e+00
1.294000000000000000e+03 2.218577194213867188e+01 -3.985929012298583984e+00 -1.490086436271667480e+00 -1.562020182609558105e+00 -9.156319499015808105e-01 1.307939767837524414e+00
1.295000000000000000e+03 1.897005844116210938e+01 -1.310195088386535645e+00 -1.412211298942565918e+00 -1.669296622276306152e+00 -9.244523644447326660e-01 1.322365283966064453e+00
1.296000000000000000e+03 1.832304573059082031e+01 -8.062551021575927734e-01 -1.363851547241210938e+00 -1.628878951072692871e+00 -8.978191614151000977e-01 1.310793757438659668e+00
1.297000000000000000e+03 1.765765762329101562e+01 -3.144208192825317383e-01 -1.309328675270080566e+00 -1.578868746757507324e+00 -8.664592504501342773e-01 1.286494016647338867e+00
1.298000000000000000e+03 1.140912723541259766e+01 -5.040246486663818359e+00 -7.913051376817747951e-05 -5.177485945750959218e-05 -3.927161014871671796e-05 -5.824612890137359500e-05
1.299000000000000000e+03 5.788031578063964844e+00 -2.851930618286132812e+00 -4.377276127343066037e-05 -5.273746137390844524e-05 -2.895306715799961239e-05 -2.786805634968914092e-05
1.300000000000000000e+03 7.278484344482421875e+00 -3.569094419479370117e+00 1.695613027550280094e-04 -1.116293606173712760e-05 4.751950837089680135e-05 3.427398405619896948e-05
1.301000000000000000e+03 4.942244052886962891e+00 -2.970044851303100586e+00 2.305862108187284321e-05 6.479506555479019880e-05 2.635610508150421083e-05 6.141879566712304950e-05
1.302000000000000000e+03 8.030128479003906250e+00 -3.592818975448608398e+00 -1.429695548722520471e-04 -5.022422101319534704e-06 -4.439759140950627625e-05 -6.831109203631058335e-05
1.303000000000000000e+03 4.175405502319335938e+00 -8.653139114379882812e+00 -2.560804132372140884e-04 -2.957485776278190315e-05 -8.569657802581787109e-05 -8.562842413084581494e-05
1.304000000000000000e+03 2.198010921478271484e+00 -3.202041864395141602e+00 -2.388884313404560089e-04 -3.001900950039271265e-05 -8.067223097896203399e-05 -1.776873978087678552e-05
1.305000000000000000e+03 1.864919543266296387e+00 -4.571825981140136719e+00 2.402532700216397643e-04 3.061091774725355208e-05 8.125925523927435279e-05 2.013447556237224489e-05
1.306000000000000000e+03 1.274545192718505859e+01 2.867517471313476562e+00 -7.151411175727844238e-01 -1.063001751899719238e+00 -5.334428548812866211e-01 1.025022268295288086e+00
1.307000000000000000e+03 1.213315105438232422e+01 3.467555284500122070e+00 -5.535454750061035156e-01 -1.013918280601501465e+00 -4.702391326427459717e-01 1.000159263610839844e+00
1.308000000000000000e+03 1.141259574890136719e+01 2.702879905700683594e+00 -7.898157238960266113e-01 -8.776988387107849121e-01 -5.002543926239013672e-01 9.690037369728088379e-01
1.309000000000000000e+03 9.692130088806152344e+00 -2.924356698989868164e+00 6.079201921238563955e-05 1.128038711613044143e-04 5.207876529311761260e-05 6.248557474464178085e-05
1.310000000000000000e+03 2.453622817993164062e+01 -7.333380699157714844e+00 -1.504254579544067383e+00 -1.302101373672485352e+00 -8.419067859649658203e-01 1.387301325798034668e+00
1.311000000000000000e+03 2.269944000244140625e+01 -4.691376686096191406e+00 -1.525393128395080566e+00 -1.538601517677307129e+00 -9.191983938217163086e-01 1.337274193763732910e+00
1.312000000000000000e+03 2.024349212646484375e+01 -2.338887214660644531e+00 -1.483236193656921387e+00 -1.695304036140441895e+00 -9.535620808601379395e-01 1.338579773902893066e+00
1.313000000000000000e+03 1.960701179504394531e+01 -1.823206067085266113e+00 -1.448284268379211426e+00 -1.691363453865051270e+00 -9.418942928314208984e-01 1.337726235389709473e+00
1.314000000000000000e+03 1.484620189666748047e+01 1.488810539245605469e+00 -1.047518968582153320e+00 -1.282845973968505859e+00 -6.991094946861267090e-01 1.162883877754211426e+00
1.315000000000000000e+03 4.328665161132812500e+01 -2.593593597412109375e+01 1.346970796585083008e-01 1.957728266716003418e-01 9.914097189903259277e-02 1.894448697566986084e-01
1.316000000000000000e+03 9.483517646789550781e+00 -3.669399976730346680e+00 -4.212026033201254904e-05 -9.268643043469637632e-05 -4.044200613861903548e-05 -9.742346446728333831e-05
1.317000000000000000e+03 5.117737579345703125e+01 -2.179374122619628906e+01 2.126562356948852539e+00 9.956661224365234375e+00 3.624967098236083984e+00 -3.285810947418212891e+00
1.318000000000000000e+03 5.184101104736328125e+01 -1.998954582214355469e+01 5.412128448486328125e+00 6.759685516357421875e+00 3.651544332504272461e+00 -1.725922703742980957e+00
1.319000000000000000e+03 5.176878356933593750e+01 -1.930182075500488281e+01 4.482494831085205078e+00 6.990799427032470703e+00 3.441988229751586914e+00 -7.386735081672668457e-01
1.320000000000000000e+03 5.454291534423828125e+01 -1.799141502380371094e+01 1.833629161119461060e-01 1.883309930562973022e-01 1.115081757307052612e-01 4.605410397052764893e-01
1.321000000000000000e+03 1.040733528137207031e+01 -3.136066675186157227e+00 -8.033304038690403104e-05 -1.066060503944754601e-04 -5.608172796200960875e-05 -3.404838207643479109e-05
1.322000000000000000e+03 1.130900573730468750e+01 -1.282052421569824219e+01 1.242514554178342223e-04 1.074417596100829542e-04 6.950796523597091436e-05 -1.173303826362825930e-04
1.323000000000000000e+03 8.642540931701660156e+00 -1.629463768005371094e+01 5.440300446934998035e-04 -1.545113336760550737e-04 1.168556191259995103e-04 -7.227666174003388733e-06
1.324000000000000000e+03 7.097708892822265625e+01 1.042541503906250000e+01 -6.462871432304382324e-01 9.661652565002441406e+00 2.704609632492065430e+00 2.892045080661773682e-01
1.325000000000000000e+03 7.231121063232421875e+01 1.302620983123779297e+01 -2.530939579010009766e-01 9.075285911560058594e+00 2.646657705307006836e+00 3.902593851089477539e-01
1.326000000000000000e+03 3.005636215209960938e+01 -1.595891284942626953e+01 -1.474427938461303711e+00 -1.625342220067977905e-01 -4.910886585712432861e-01 8.394259810447692871e-01
1.327000000000000000e+03 3.313263320922851562e+01 -1.671911811828613281e+01 -2.263916492462158203e+00 2.734197117388248444e-02 -6.709723472595214844e-01 7.394909262657165527e-01
1.328000000000000000e+03 3.228516006469726562e+01 -1.548207473754882812e+01 -1.792719721794128418e+00 9.242788888514041901e-03 -5.350430607795715332e-01 9.387269020080566406e-01
1.329000000000000000e+03 2.957494735717773438e+01 -1.425401592254638672e+01 -1.279688835144042969e+00 -2.154746651649475098e-01 -4.485490322113037109e-01 1.110240697860717773e+00
1.330000000000000000e+03 2.228857421875000000e+01 -3.532434463500976562e+01 -1.024931203573942184e-02 -1.140980701893568039e-02 -6.497735623270273209e-03 -2.651263028383255005e-02
1.331000000000000000e+03 2.417535209655761719e+01 -3.458385467529296875e+01 -3.064447455108165741e-02 -7.308977190405130386e-03 -1.138603501021862030e-02 -3.187141567468643188e-02
1.332000000000000000e+03 3.434913253784179688e+01 -1.683214187622070312e+01 -2.569911241531372070e+00 -4.457335919141769409e-02 -7.843453884124755859e-01 7.291744947433471680e-01
1.333000000000000000e+03 2.988957786560058594e+01 -3.683252334594726562e+01 2.714748308062553406e-02 -1.823700033128261566e-02 2.673145150765776634e-03 -1.150666624307632446e-01
1.334000000000000000e+03 3.064922332763671875e+01 -3.555072784423828125e+01 -9.156714379787445068e-02 -3.238762263208627701e-03 -2.844177186489105225e-02 -1.037995219230651855e-01
1.335000000000000000e+03 4.502527999877929688e+01 -3.634429454803466797e+00 5.599009990692138672e-01 4.908358097076416016e+00 1.640477776527404785e+00 -2.141242265701293945e+00
1.336000000000000000e+03 6.147774124145507812e+01 -2.236143112182617188e+01 6.299188733100891113e-01 7.322528362274169922e-01 4.086515009403228760e-01 1.107252955436706543e+00
1.337000000000000000e+03 4.494716262817382812e+01 -7.943813800811767578e-01 7.587019801139831543e-01 5.263464927673339844e+00 1.806650042533874512e+00 -2.344668865203857422e+00
1.338000000000000000e+03 4.476966857910156250e+01 2.173324584960937500e+00 1.137027025222778320e+00 5.747331619262695312e+00 2.065307617187500000e+00 -2.702537536621093750e+00
1.339000000000000000e+03 4.950344085693359375e+01 -8.906590461730957031e+00 5.205525159835815430e-01 6.278902530670166016e+00 2.039836406707763672e+00 -2.031189680099487305e+00
1.340000000000000000e+03 4.884988021850585938e+01 -1.132878208160400391e+01 -4.177784025669097900e-01 5.974517822265625000e+00 1.667021870613098145e+00 -1.503294229507446289e+00
1.341000000000000000e+03 2.825853919982910156e+01 -3.591623306274414062e+01 -2.180697396397590637e-02 -1.609553396701812744e-02 -1.137075200676918030e-02 -8.138760924339294434e-02
1.342000000000000000e+03 4.616544544696807861e-01 3.528902530670166016e+00 -1.016474328935146332e-02 -3.127576038241386414e-02 -1.243215147405862808e-02 2.502111159265041351e-02
1.343000000000000000e+03 2.775175285339355469e+01 -3.339011001586914062e+01 -8.007933944463729858e-02 3.958176821470260620e-03 -2.283634990453720093e-02 -3.616150841116905212e-02
1.344000000000000000e+03 7.712705993652343750e+01 1.234543704986572266e+01 -6.989819556474685669e-02 7.493503093719482422e+00 2.227081537246704102e+00 5.634695887565612793e-01
1.345000000000000000e+03 4.910685729980468750e+01 -7.655627727508544922e+00 6.026671528816223145e-01 6.233153343200683594e+00 2.050746202468872070e+00 -2.133939981460571289e+00
1.346000000000000000e+03 4.842433166503906250e+01 -9.071297645568847656e+00 3.412743210792541504e-01 5.774957180023193359e+00 1.834869503974914551e+00 -1.921576857566833496e+00
1.347000000000000000e+03 4.298812866210937500e+01 2.693290519714355469e+01 1.401682645082473755e-01 3.539999723434448242e+00 1.104050397872924805e+00 6.179966926574707031e-01
1.348000000000000000e+03 4.296120452880859375e+01 2.811859130859375000e+00 9.502141475677490234e-01 5.912630558013916016e+00 2.058853387832641602e+00 -2.282194614410400391e+00
1.349000000000000000e+03 6.668151092529296875e+01 -2.062671089172363281e+01 -1.232767105102539062e+00 1.545107811689376831e-01 -3.234768807888031006e-01 5.465452671051025391e-01
1.350000000000000000e+03 6.384297943115234375e+01 -1.420760631561279297e+01 1.463397741317749023e+00 2.094514131546020508e+00 1.067373514175415039e+00 1.463220119476318359e+00
1.351000000000000000e+03 4.712322235107421875e+01 -5.544830799102783203e+00 6.132538914680480957e-01 5.374119758605957031e+00 1.796212077140808105e+00 -2.180857896804809570e+00
1.352000000000000000e+03 3.502784729003906250e+01 -1.465572643280029297e+01 -1.619835376739501953e+00 -5.648169293999671936e-02 -5.028951168060302734e-01 8.722672462463378906e-01
1.353000000000000000e+03 3.461095809936523438e+01 -1.568325805664062500e+01 -2.085848569869995117e+00 -5.795665830373764038e-02 -6.431415081024169922e-01 9.070747494697570801e-01
1.354000000000000000e+03 3.341087341308593750e+01 -1.553205776214599609e+01 -1.916324615478515625e+00 9.839362464845180511e-03 -5.719456076622009277e-01 9.383082985877990723e-01
1.355000000000000000e+03 7.245114898681640625e+01 6.181856632232666016e+00 3.861210942268371582e-01 1.032603740692138672e+01 3.213647365570068359e+00 5.815027952194213867e-01
1.356000000000000000e+03 4.402344512939453125e+01 -2.593889045715332031e+01 2.412098646163940430e-01 7.497472167015075684e-01 2.972871065139770508e-01 3.084385991096496582e-01
1.357000000000000000e+03 7.308883666992187500e+01 -2.655668449401855469e+01 1.364823102951049805e+00 1.020896434783935547e+01 3.472136259078979492e+00 -2.539061009883880615e-01
1.358000000000000000e+03 7.707852935791015625e+01 -2.791213989257812500e+01 4.123700261116027832e-01 7.208230018615722656e+00 2.286180019378662109e+00 -5.076757669448852539e-01
1.359000000000000000e+03 5.352013778686523438e+01 -1.635763931274414062e+01 -3.445529699325561523e+00 1.985486388206481934e+00 -4.380130171775817871e-01 6.384794116020202637e-01
1.360000000000000000e+03 5.483584976196289062e+01 -1.697548484802246094e+01 -2.807522058486938477e+00 -1.229424118995666504e+00 -1.211083769798278809e+00 1.175919055938720703e+00
1.361000000000000000e+03 7.411888599395751953e+00 -2.988644599914550781e+01 -4.736282862722873688e-04 -6.906383205205202103e-04 -3.492799878586083651e-04 9.542644838802516460e-04
1.362000000000000000e+03 1.094708061218261719e+01 -3.260326385498046875e+01 6.204195669852197170e-04 -9.358838433399796486e-04 -9.463926835451275110e-05 8.855616761138662696e-05
1.363000000000000000e+03 4.760029602050781250e+01 -6.730353355407714844e+00 5.760765671730041504e-01 5.520459175109863281e+00 1.828960657119750977e+00 -2.125641584396362305e+00
1.364000000000000000e+03 7.634071350097656250e+01 2.492586517333984375e+01 6.580223888158798218e-02 8.644192695617675781e+00 2.612998485565185547e+00 7.669667005538940430e-01
1.365000000000000000e+03 7.119454956054687500e+01 3.357065916061401367e+00 4.664589762687683105e-01 1.246429729461669922e+01 3.879226684570312500e+00 8.450224399566650391e-01
1.366000000000000000e+03 7.813462829589843750e+01 2.619649887084960938e+00 1.201042160391807556e-01 5.444314479827880859e+00 1.669325709342956543e+00 1.597621440887451172e-01
1.367000000000000000e+03 7.553923034667968750e+01 -3.818991851806640625e+01 -3.351046442985534668e-01 6.873167514801025391e+00 1.961418867111206055e+00 -1.421690732240676880e-01
1.368000000000000000e+03 7.253810882568359375e+01 -3.126997947692871094e+01 -3.357518911361694336e-01 7.218626022338867188e+00 2.064862251281738281e+00 -1.110402047634124756e-01
1.369000000000000000e+03 7.803891754150390625e+01 -3.347101974487304688e+01 -1.106994524598121643e-01 7.884721755981445312e+00 2.332206726074218750e+00 -5.759232044219970703e-01
1.370000000000000000e+03 7.823522949218750000e+01 2.081661224365234375e+01 2.877214364707469940e-02 8.415809631347656250e+00 2.533374547958374023e+00 4.034737050533294678e-01
1.371000000000000000e+03 7.352490234375000000e+01 1.609531021118164062e+01 3.503132611513137817e-02 8.534675598144531250e+00 2.570911884307861328e+00 5.558145642280578613e-01
1.372000000000000000e+03 7.840979003906250000e+01 3.684862136840820312e+01 -6.810308992862701416e-02 1.110328865051269531e+01 3.310555696487426758e+00 -9.057078510522842407e-02
1.373000000000000000e+03 7.628700256347656250e+01 3.471858215332031250e+01 -3.392475247383117676e-01 9.250138282775878906e+00 2.673267126083374023e+00 2.441688925027847290e-01
1.374000000000000000e+03 7.711304473876953125e+01 -2.235876655578613281e+01 -1.450114510953426361e-02 7.214922428131103516e+00 2.160126447677612305e+00 6.757909059524536133e-01
1.375000000000000000e+03 7.819964599609375000e+01 -2.792675590515136719e+01 2.092973142862319946e-01 6.711748600006103516e+00 2.076313734054565430e+00 -4.283007383346557617e-01
1.376000000000000000e+03 7.464791107177734375e+01 -2.269712257385253906e+01 2.410408854484558105e-02 8.152526855468750000e+00 2.452989101409912109e+00 6.863127350807189941e-01
1.377000000000000000e+03 7.820597076416015625e+01 -2.652427291870117188e+01 2.375524193048477173e-01 6.575636386871337891e+00 2.043956518173217773e+00 -1.123132929205894470e-01
1.378000000000000000e+03 7.815649414062500000e+01 -2.513344383239746094e+01 2.315832227468490601e-01 6.558184146881103516e+00 2.036930084228515625e+00 1.510852426290512085e-01
1.379000000000000000e+03 7.645693206787109375e+01 -3.473113632202148438e+01 -3.597435057163238525e-01 7.621663093566894531e+00 2.178575992584228516e+00 -4.781990945339202881e-01
1.380000000000000000e+03 7.687239074707031250e+01 -2.375433540344238281e+01 4.051917791366577148e-01 7.250289440155029297e+00 2.296644449234008789e+00 4.980095922946929932e-01
1.381000000000000000e+03 7.310960388183593750e+01 -3.261777114868164062e+01 -7.292668819427490234e-01 7.173320293426513672e+00 1.933215975761413574e+00 -1.099403798580169678e-01
1.382000000000000000e+03 7.698018646240234375e+01 -3.214266204833984375e+01 -1.353995949029922485e-01 7.684904098510742188e+00 2.264851331710815430e+00 -8.683840632438659668e-01
1.383000000000000000e+03 7.547298431396484375e+01 -3.123326301574707031e+01 -6.220224872231483459e-02 7.729683876037597656e+00 2.300244569778442383e+00 -9.097124934196472168e-01
1.384000000000000000e+03 7.832321166992187500e+01 2.362646102905273438e+01 2.831849642097949982e-02 8.934012413024902344e+00 2.688699245452880859e+00 4.516407251358032227e-01
1.385000000000000000e+03 7.714019012451171875e+01 2.222132110595703125e+01 6.438662111759185791e-02 8.533564567565917969e+00 2.579385519027709961e+00 5.934886932373046875e-01
1.386000000000000000e+03 7.730614471435546875e+01 2.496949958801269531e+01 3.984454274177551270e-02 8.923236846923828125e+00 2.688924312591552734e+00 6.600242257118225098e-01
1.387000000000000000e+03 7.708084106445312500e+01 1.509459114074707031e+01 -1.932253129780292511e-02 7.787126064300537109e+00 2.330341100692749023e+00 4.895485043525695801e-01
1.388000000000000000e+03 7.825034332275390625e+01 1.381621551513671875e+01 -1.491583045572042465e-02 7.319819450378417969e+00 2.191471099853515625e+00 3.662794828414916992e-01
1.389000000000000000e+03 7.710329437255859375e+01 1.372091102600097656e+01 -5.755708366632461548e-02 7.648334026336669922e+00 2.277233123779296875e+00 5.374903678894042969e-01
1.390000000000000000e+03 7.216177368164062500e+01 2.346798133850097656e+01 2.374893277883529663e-01 7.895394325256347656e+00 2.439865112304687500e+00 4.199560880661010742e-01
1.391000000000000000e+03 7.825052642822265625e+01 2.776508140563964844e+01 -1.032187696546316147e-02 9.785386085510253906e+00 2.932519197463989258e+00 5.156641006469726562e-01
1.392000000000000000e+03 7.595954895019531250e+01 1.359333610534667969e+01 -8.485040068626403809e-02 7.976342678070068359e+00 2.367447614669799805e+00 5.992429852485656738e-01
1.393000000000000000e+03 7.821390533447265625e+01 -1.957859230041503906e+01 -1.332509815692901611e-01 7.255185604095458984e+00 2.136580467224121094e+00 2.913209497928619385e-01
1.394000000000000000e+03 7.715979766845703125e+01 -2.103826713562011719e+01 -1.795221865177154541e-01 7.291936874389648438e+00 2.133724451065063477e+00 5.188482999801635742e-01
1.395000000000000000e+03 7.789114379882812500e+01 3.196936798095703125e+01 -7.807368040084838867e-02 1.031050109863281250e+01 3.069728136062622070e+00 3.623234927654266357e-01
1.396000000000000000e+03 7.585429382324218750e+01 2.878734207153320312e+01 -7.471813261508941650e-02 8.706674575805664062e+00 2.589586973190307617e+00 8.038757443428039551e-01
1.397000000000000000e+03 7.706182861328125000e+01 9.553866386413574219e+00 -1.017311401665210724e-02 7.179639339447021484e+00 2.150839805603027344e+00 7.022446990013122559e-01
1.398000000000000000e+03 7.566091156005859375e+01 -1.553616142272949219e+01 -3.117037415504455566e-01 6.819666385650634766e+00 1.952388763427734375e+00 -3.470056056976318359e-01
1.399000000000000000e+03 7.694177246093750000e+01 -1.824790954589843750e+01 -3.259186148643493652e-01 7.250227451324462891e+00 2.077292680740356445e+00 1.235090717673301697e-01
1.400000000000000000e+03 7.578643798828125000e+01 -8.630048751831054688e+00 -3.609629720449447632e-02 6.681676387786865234e+00 1.993674039840698242e+00 -5.394279956817626953e-01
1.401000000000000000e+03 7.691011047363281250e+01 -1.126538372039794922e+01 -5.689114704728126526e-02 6.704184055328369141e+00 1.994187831878662109e+00 -4.847398698329925537e-01
1.402000000000000000e+03 7.459819793701171875e+01 -4.864589214324951172e+00 1.103202179074287415e-01 7.282204627990722656e+00 2.217757463455200195e+00 -3.518453538417816162e-01
1.403000000000000000e+03 7.697188568115234375e+01 -4.548881530761718750e+00 6.296542286872863770e-02 6.352031707763671875e+00 1.924499154090881348e+00 -5.100222229957580566e-01
1.404000000000000000e+03 7.705392456054687500e+01 6.735491275787353516e+00 1.231815069913864136e-01 6.840281486511230469e+00 2.089038848876953125e+00 6.743903160095214844e-01
1.405000000000000000e+03 7.552094268798828125e+01 3.766968917846679688e+01 -2.029815912246704102e-01 9.069409370422363281e+00 2.659928321838378906e+00 3.587903380393981934e-01
1.406000000000000000e+03 7.705828094482421875e+01 2.077353858947753906e+01 4.853885993361473083e-02 8.385502815246582031e+00 2.530212402343750000e+00 5.567039847373962402e-01
1.407000000000000000e+03 7.821401214599609375e+01 8.228574752807617188e+00 1.478088088333606720e-02 6.277847290039062500e+00 1.887788414955139160e+00 5.099170804023742676e-01
1.408000000000000000e+03 7.578845977783203125e+01 8.021144866943359375e+00 3.668464347720146179e-02 7.798073768615722656e+00 2.350427389144897461e+00 8.447096943855285645e-01
1.409000000000000000e+03 7.812438201904296875e+01 -2.053370326757431030e-01 1.049760580062866211e-01 5.406468391418457031e+00 1.653433322906494141e+00 -1.387314647436141968e-01
1.410000000000000000e+03 7.689682769775390625e+01 -1.790242791175842285e+00 1.782937943935394287e-01 6.343037605285644531e+00 1.956399440765380859e+00 -3.209343850612640381e-01
1.411000000000000000e+03 7.698947906494140625e+01 -8.589063644409179688e+00 -2.138695307075977325e-02 6.528743267059326172e+00 1.952206850051879883e+00 -5.386877655982971191e-01
1.412000000000000000e+03 7.693451690673828125e+01 -1.542914009094238281e+01 -1.827483028173446655e-01 7.031245231628417969e+00 2.054549217224121094e+00 -2.414815276861190796e-01
1.413000000000000000e+03 7.629435729980468750e+01 3.331985092163085938e+01 -1.847643852233886719e-01 9.282643318176269531e+00 2.729363679885864258e+00 4.107961952686309814e-01
1.414000000000000000e+03 7.704832458496093750e+01 1.931408309936523438e+01 4.313518106937408447e-02 8.217816352844238281e+00 2.478285312652587891e+00 5.366144776344299316e-01
1.415000000000000000e+03 7.822727966308593750e+01 9.625598907470703125e+00 -2.930209226906299591e-02 6.554207801818847656e+00 1.957471609115600586e+00 4.887539446353912354e-01
1.416000000000000000e+03 7.712067413330078125e+01 1.095574855804443359e+01 -7.940442860126495361e-02 7.367077827453613281e+00 2.186301946640014648e+00 6.517683267593383789e-01
1.417000000000000000e+03 7.689197540283203125e+01 -1.402424240112304688e+01 -1.373161673545837402e-01 6.916201591491699219e+00 2.033665657043457031e+00 -3.675239980220794678e-01
1.418000000000000000e+03 7.699800109863281250e+01 -7.250045299530029297e+00 -1.032436173409223557e-02 6.453613281250000000e+00 1.932986617088317871e+00 -5.248679518699645996e-01
1.419000000000000000e+03 7.745658111572265625e+01 3.610308456420898438e+01 -2.065418660640716553e-01 1.027232742309570312e+01 3.019735574722290039e+00 -5.537935718894004822e-02
1.420000000000000000e+03 7.671147918701171875e+01 3.700918197631835938e+01 -1.913421601057052612e-01 1.000298404693603516e+01 2.943492412567138672e+00 -3.079243376851081848e-02
1.421000000000000000e+03 7.566985321044921875e+01 2.379800081253051758e+00 4.810664951801300049e-01 7.473737239837646484e+00 2.386441230773925781e+00 3.144785463809967041e-01
1.422000000000000000e+03 7.702177429199218750e+01 5.358962535858154297e+00 1.954653412103652954e-01 6.676676273345947266e+00 2.061642408370971680e+00 5.568550229072570801e-01
1.423000000000000000e+03 7.693561553955078125e+01 3.950070142745971680e+00 2.151522189378738403e-01 6.562144756317138672e+00 2.033189058303833008e+00 4.255528450012207031e-01
1.424000000000000000e+03 7.687148284912109375e+01 -3.769080042839050293e-01 2.274279147386550903e-01 6.352318286895751953e+00 1.973923921585083008e+00 -1.817654669284820557e-01
1.425000000000000000e+03 7.817916870117187500e+01 -4.391004085540771484e+00 2.460313960909843445e-02 5.753282070159912109e+00 1.733365535736083984e+00 -3.944039940834045410e-01
1.426000000000000000e+03 7.694129180908203125e+01 -3.177317857742309570e+00 1.185141056776046753e-01 6.316128253936767578e+00 1.930392742156982422e+00 -4.367268681526184082e-01
1.427000000000000000e+03 7.816649627685546875e+01 -1.123719120025634766e+01 -3.383240103721618652e-02 6.769581317901611328e+00 2.020724534988403320e+00 -3.520569503307342529e-01
1.428000000000000000e+03 7.695100402832031250e+01 -9.926755905151367188e+00 -4.978196322917938232e-02 6.627767086029052734e+00 1.973395586013793945e+00 -5.082086920738220215e-01
1.429000000000000000e+03 7.699898529052734375e+01 -1.681503295898437500e+01 -2.555307149887084961e-01 7.125786304473876953e+00 2.061076641082763672e+00 -1.061541363596916199e-01
1.430000000000000000e+03 7.115311431884765625e+01 1.590744400024414062e+01 1.276133656501770020e-01 9.144190788269042969e+00 2.781541347503662109e+00 5.255722999572753906e-01
1.431000000000000000e+03 7.112027740478515625e+01 1.933346390724182129e+00 9.294754266738891602e-01 1.233647823333740234e+01 3.979785919189453125e+00 1.056473612785339355e+00
1.432000000000000000e+03 7.097733306884765625e+01 4.920561909675598145e-01 9.662321805953979492e-01 1.201728916168212891e+01 3.895056486129760742e+00 1.139497637748718262e+00
1.433000000000000000e+03 7.122167205810546875e+01 2.025597190856933594e+01 2.418792434036731720e-02 8.462587356567382812e+00 2.546032428741455078e+00 3.693646490573883057e-01
1.434000000000000000e+03 7.118170928955078125e+01 1.734293174743652344e+01 2.425082772970199585e-02 8.904350280761718750e+00 2.678580522537231445e+00 4.251852929592132568e-01
1.435000000000000000e+03 7.235363006591796875e+01 2.199840545654296875e+01 1.491675525903701782e-01 8.181757926940917969e+00 2.499277591705322266e+00 4.734478294849395752e-01
1.436000000000000000e+03 7.356327056884765625e+01 1.897751617431640625e+01 7.490497827529907227e-02 8.440030097961425781e+00 2.554480552673339844e+00 6.155338287353515625e-01
1.437000000000000000e+03 7.245886993408203125e+01 2.044604301452636719e+01 8.413171768188476562e-02 8.400425910949707031e+00 2.545367240905761719e+00 5.070604085922241211e-01
1.438000000000000000e+03 6.765399932861328125e+01 -9.162080764770507812e+00 8.074330687522888184e-01 5.347099304199218750e+00 1.846359729766845703e+00 1.681260108947753906e+00
1.439000000000000000e+03 7.011278533935546875e+01 -6.897499561309814453e+00 3.639315664768218994e-01 7.254751682281494141e+00 2.285604953765869141e+00 1.030090570449829102e+00
1.440000000000000000e+03 4.430473709106445312e+01 3.948624134063720703e-01 8.076925873756408691e-01 5.394554615020751953e+00 1.860674142837524414e+00 -2.335516452789306641e+00
1.441000000000000000e+03 4.325692367553710938e+01 -1.882805824279785156e-01 6.747881770133972168e-01 5.109607696533203125e+00 1.735318779945373535e+00 -2.099910020828247070e+00
1.442000000000000000e+03 6.916276550292968750e+01 3.329337310791015625e+01 -1.003398180007934570e+00 3.277148008346557617e+00 6.821249723434448242e-01 -1.113436445593833923e-01
1.443000000000000000e+03 1.977992248535156250e+01 -3.577587890625000000e+01 -6.183434277772903442e-03 -8.587505668401718140e-03 -4.431282170116901398e-03 -1.497705560177564621e-02
1.444000000000000000e+03 4.190577030181884766e+00 -1.712604331970214844e+01 -5.048018065281212330e-04 -9.408767800778150558e-05 -1.796668366296216846e-04 -5.400083318818360567e-05
1.445000000000000000e+03 1.722902679443359375e+01 -3.283638381958007812e+01 -8.497907780110836029e-03 -2.946410793811082840e-03 -3.433295525610446930e-03 -5.519630387425422668e-03
1.446000000000000000e+03 3.174030303955078125e+00 3.540681838989257812e+01 1.896133087575435638e-02 -1.569545388221740723e+00 -4.651752412319183350e-01 -1.586835272610187531e-02
1.447000000000000000e+03 2.125184059143066406e+00 2.749829292297363281e+01 2.319764578714966774e-03 -1.696950793266296387e+00 -5.083892941474914551e-01 1.321526011452078819e-03
1.448000000000000000e+03 3.401532649993896484e+00 3.025649452209472656e+01 1.073087565600872040e-02 -1.512130022048950195e+00 -4.504197239875793457e-01 -1.547955349087715149e-02
1.449000000000000000e+03 6.440325260162353516e+00 2.839616012573242188e+01 5.975500866770744324e-02 -1.112872362136840820e+00 -3.159351944923400879e-01 5.421739537268877029e-03
1.450000000000000000e+03 3.467975139617919922e+00 3.164640808105468750e+01 7.393334060907363892e-03 -1.496666669845581055e+00 -4.467819929122924805e-01 -2.048552967607975006e-02
1.451000000000000000e+03 2.113889217376708984e+00 2.598659896850585938e+01 1.096978597342967987e-02 -1.692068338394165039e+00 -5.043295621871948242e-01 1.630979962646961212e-02
1.452000000000000000e+03 3.554746150970458984e+00 2.746263694763183594e+01 2.040479518473148346e-02 -1.503519177436828613e+00 -4.449343085289001465e-01 1.061383634805679321e-02
1.453000000000000000e+03 3.319342136383056641e+00 2.897485542297363281e+01 1.022788509726524353e-02 -1.538860321044921875e+00 -4.585897326469421387e-01 -9.285047650337219238e-03
1.454000000000000000e+03 3.075259923934936523e+00 3.428015136718750000e+01 1.184808369725942612e-02 -1.548323750495910645e+00 -4.609427154064178467e-01 -2.383457310497760773e-02
1.455000000000000000e+03 3.201282739639282227e+00 3.305564117431640625e+01 8.872488513588905334e-03 -1.526873111724853516e+00 -4.554001688957214355e-01 -1.818292587995529175e-02
1.456000000000000000e+03 3.826112747192382812e+00 -3.407121658325195312e+01 1.049022190272808075e-03 -2.077004173770546913e-04 2.523965085856616497e-04 1.191210249089635909e-04
1.457000000000000000e+03 3.528871059417724609e+00 -2.994061851501464844e+01 -7.455536979250609875e-04 -4.257849286659620702e-05 -2.364396641496568918e-04 1.847137318691238761e-04
1.458000000000000000e+03 2.019558668136596680e+00 -2.875462913513183594e+01 -6.862217560410499573e-04 1.076833068509586155e-04 -1.735615369398146868e-04 9.672376472735777497e-05
1.459000000000000000e+03 7.061555862426757812e+00 -2.658473968505859375e+01 6.942217587493360043e-04 5.795559263788163662e-04 3.821332938969135284e-04 -2.682121121324598789e-04
1.460000000000000000e+03 1.862310409545898438e+00 2.161403656005859375e+01 1.436209678649902344e-02 -1.634476661682128906e+00 -4.860343635082244873e-01 6.489753723144531250e-02
1.461000000000000000e+03 3.117506742477416992e+00 2.274028587341308594e+01 3.364969789981842041e-02 -1.502700567245483398e+00 -4.407152533531188965e-01 7.831187546253204346e-02
1.462000000000000000e+03 3.027050733566284180e+00 -1.168403244018554688e+01 3.261107485741376877e-04 3.524412022670730948e-06 9.889055218081921339e-05 6.848221528343856335e-05
1.463000000000000000e+03 1.803516626358032227e+00 -7.517188072204589844e+00 2.484306169208139181e-04 1.024330867949174717e-05 7.760217704344540834e-05 5.672202314599417150e-05
1.464000000000000000e+03 1.891396641731262207e+00 -1.889113998413085938e+01 4.421175108291208744e-04 2.894026329158805311e-05 1.413173304172232747e-04 1.990496275539044291e-05
1.465000000000000000e+03 1.826176285743713379e+00 2.022146606445312500e+01 1.728046126663684845e-02 -1.586491942405700684e+00 -4.707634449005126953e-01 8.387471735477447510e-02
1.466000000000000000e+03 3.035605907440185547e+00 2.134293746948242188e+01 3.672795370221138000e-02 -1.477116107940673828e+00 -4.321164488792419434e-01 1.055148616433143616e-01
1.467000000000000000e+03 2.766455173492431641e+00 1.168809509277343750e+01 2.523542009294033051e-02 -9.307810068130493164e-01 -2.716636657714843750e-01 3.120093941688537598e-01
1.468000000000000000e+03 2.994097232818603516e+00 1.725302886962890625e+01 4.096804186701774597e-02 -1.317100763320922852e+00 -3.828398287296295166e-01 2.013964504003524780e-01
1.469000000000000000e+03 1.847628593444824219e+00 -2.180968856811523438e+01 5.018118536099791527e-04 7.185721187852323055e-05 1.721007138257846236e-04 1.062584051396697760e-04
1.470000000000000000e+03 7.552976131439208984e+00 -1.858269500732421875e+01 -6.536542205139994621e-04 -1.800158315745647997e-05 -2.014967321883887053e-04 7.717858534306287766e-05
1.471000000000000000e+03 1.844686269760131836e+00 -1.467037773132324219e+01 -3.853524685837328434e-04 -1.467103356844745576e-05 -1.200070546474307775e-04 -4.844078284804709256e-05
1.472000000000000000e+03 3.052730083465576172e+00 -1.310930156707763672e+01 -3.683874092530459166e-04 6.392026534740580246e-06 -1.085986150428652763e-04 -5.539410994970239699e-05
1.473000000000000000e+03 5.835293769836425781e+00 -4.547599315643310547e+00 1.002806948235956952e-05 8.168500789906829596e-05 2.751392457867041230e-05 -1.141277243732474744e-05
1.474000000000000000e+03 2.697957515716552734e+00 5.025890350341796875e+00 -7.971107959747314453e-02 -2.845655977725982666e-01 -1.092830076813697815e-01 2.411989271640777588e-01
1.475000000000000000e+03 2.639788389205932617e+00 7.632388114929199219e+00 -2.270284295082092285e-02 -5.342680215835571289e-01 -1.670912653207778931e-01 3.136759698390960693e-01
1.476000000000000000e+03 1.753842592239379883e+00 1.465514469146728516e+01 1.689188927412033081e-02 -1.238786816596984863e+00 -3.665684759616851807e-01 1.689572781324386597e-01
1.477000000000000000e+03 2.963727951049804688e+00 1.586436271667480469e+01 4.180311039090156555e-02 -1.239898681640625000e+00 -3.594286739826202393e-01 2.337146550416946411e-01
1.478000000000000000e+03 2.658639430999755859e+00 8.965913772583007812e+00 -2.530577825382351875e-03 -6.699939966201782227e-01 -2.017573714256286621e-01 3.258924782276153564e-01
1.479000000000000000e+03 2.986268043518066406e+00 -7.314272880554199219e+00 -2.163610624847933650e-04 -2.527327706047799438e-05 -7.249030022649094462e-05 -4.477992843021638691e-05
1.480000000000000000e+03 1.786272644996643066e+00 -2.322226715087890625e+01 -5.698282038792967796e-04 -3.557988020475022495e-05 -1.816224103095009923e-04 -1.127968207583762705e-04
1.481000000000000000e+03 3.355672121047973633e+00 -2.849557685852050781e+01 8.827316341921687126e-04 6.085915447329171002e-05 2.830772427842020988e-04 2.729161933530122042e-04
1.482000000000000000e+03 4.333214759826660156e+00 -3.815851974487304688e+01 -2.906562003772705793e-04 3.768358146771788597e-04 2.585388938314281404e-05 -1.225963933393359184e-04
1.483000000000000000e+03 3.007344007492065430e+00 -1.024403667449951172e+01 -2.882477419916540384e-04 -1.390075703966431320e-05 -9.064454934559762478e-05 -7.174474740168079734e-05
1.484000000000000000e+03 2.998297452926635742e+00 -8.787734985351562500e+00 2.450495085213333368e-04 2.620363193273078650e-05 8.137593977153301239e-05 6.743342964909970760e-05
1.485000000000000000e+03 3.075132131576538086e+00 -1.590497493743896484e+01 -4.165140853729099035e-04 -4.312383316573686898e-05 -1.378913730150088668e-04 -5.159625288797542453e-05
1.486000000000000000e+03 2.329304456710815430e+00 -3.436252212524414062e+01 -8.868025615811347961e-04 5.373277235776185989e-04 -1.048424528562463820e-04 3.140756743960082531e-04
1.487000000000000000e+03 2.481074571609497070e+00 -3.572267532348632812e+01 4.758820577990263700e-04 6.591298151761293411e-04 3.405035822652280331e-04 -5.258273813524283469e-05
1.488000000000000000e+03 6.834335327148437500e+00 -3.154379463195800781e+01 4.023816436529159546e-04 -2.100834099110215902e-04 5.768946721218526363e-05 -3.354546788614243269e-04
1.489000000000000000e+03 4.466912269592285156e+00 -2.672014236450195312e+01 7.181775872595608234e-04 1.746806374285370111e-04 2.678574528545141220e-04 2.993011730723083019e-04
1.490000000000000000e+03 4.137315273284912109e+00 -2.548370170593261719e+01 -4.781958705279976130e-04 3.958573870477266610e-05 -1.315830450039356947e-04 -2.361794322496280074e-04
1.491000000000000000e+03 2.894407033920288086e+00 -2.448846244812011719e+01 -6.267564604058861732e-04 -1.426891685696318746e-05 -1.923076197272166610e-04 -1.419416221324354410e-04
1.492000000000000000e+03 3.074796676635742188e+00 -1.451993370056152344e+01 3.931444080080837011e-04 1.006489765131846070e-05 1.209627880598418415e-04 3.271344030508771539e-05
1.493000000000000000e+03 2.700589656829833984e+00 1.031721878051757812e+01 1.471541170030832291e-02 -8.031831979751586914e-01 -2.365403473377227783e-01 3.225608468055725098e-01
1.494000000000000000e+03 2.841907501220703125e+00 1.307194042205810547e+01 3.508129715919494629e-02 -1.046883106231689453e+00 -3.035405278205871582e-01 2.907818555831909180e-01
1.495000000000000000e+03 4.137791156768798828e+00 1.568420028686523438e+01 7.529988884925842285e-02 -1.153413414955139160e+00 -3.234340548515319824e-01 3.053905963897705078e-01
1.496000000000000000e+03 6.882643890380859375e+01 -9.547805786132812500e+00 5.516852736473083496e-01 5.691703319549560547e+00 1.873016595840454102e+00 1.142937779426574707e+00
1.497000000000000000e+03 7.562590789794921875e+01 -2.032987356185913086e+00 2.689821720123291016e-01 7.117867946624755859e+00 2.216055154800415039e+00 -3.210064768791198730e-01
1.498000000000000000e+03 7.074871826171875000e+01 -9.511469006538391113e-01 7.199081778526306152e-01 1.129879283905029297e+01 3.605610132217407227e+00 1.421465039253234863e+00
1.499000000000000000e+03 4.221834945678710938e+01 2.545379829406738281e+01 2.353491038084030151e-01 3.913367748260498047e+00 1.244615077972412109e+00 5.852819681167602539e-01
1.500000000000000000e+03 4.008842086791992188e+01 1.799161720275878906e+01 6.110255718231201172e-01 5.788829326629638672e+00 1.919956445693969727e+00 1.132095828652381897e-01
1.501000000000000000e+03 4.144912338256835938e+01 1.779523277282714844e+01 5.161718726158142090e-01 6.538852214813232422e+00 2.116507291793823242e+00 5.406252741813659668e-01
1.502000000000000000e+03 4.256016540527343750e+01 2.209249114990234375e+01 5.342700481414794922e-01 4.920749664306640625e+00 1.636505961418151855e+00 1.032644867897033691e+00
1.503000000000000000e+03 4.067941284179687500e+01 2.099679946899414062e+01 4.462998211383819580e-01 5.037112712860107422e+00 1.645023822784423828e+00 4.269128441810607910e-01
1.504000000000000000e+03 5.637933731079101562e+00 -2.055126953125000000e+01 4.040641069877892733e-04 2.679999452084302902e-04 2.016192156588658690e-04 -4.316713102525682189e-07
1.505000000000000000e+03 4.381950378417968750e+01 2.851621055603027344e+01 1.401914376765489578e-02 3.122241020202636719e+00 9.408780336380004883e-01 5.951220393180847168e-01
1.506000000000000000e+03 4.251243591308593750e+01 3.215048599243164062e+01 -5.204031467437744141e-01 2.868120908737182617e+00 7.043153643608093262e-01 2.066999673843383789e-01
1.507000000000000000e+03 2.818986892700195312e+01 -1.531976699829101562e+01 -1.047342896461486816e+00 -3.856345713138580322e-01 -4.298932254314422607e-01 9.423469901084899902e-01
1.508000000000000000e+03 7.901046752929687500e+00 -2.830468750000000000e+01 1.375342020764946938e-03 1.372397673549130559e-04 4.537745262496173382e-04 -8.018641383387148380e-04
1.509000000000000000e+03 6.232784271240234375e+00 -2.906477165222167969e+01 4.641601117327809334e-05 -2.601045707706362009e-04 -6.410656351363286376e-05 -2.726708480622619390e-04
1.510000000000000000e+03 5.201687622070312500e+01 -1.495838546752929688e+01 -3.360980749130249023e+00 5.524421691894531250e+00 6.490322351455688477e-01 2.673250734806060791e-01
1.511000000000000000e+03 7.070850372314453125e+01 -5.494422435760498047e+00 3.478707373142242432e-01 8.050906181335449219e+00 2.519633054733276367e+00 9.512881636619567871e-01
1.512000000000000000e+03 6.940364074707031250e+01 3.036163139343261719e+01 -5.870631933212280273e-01 3.856651306152343750e+00 9.808764457702636719e-01 -2.357655577361583710e-02
1.513000000000000000e+03 7.130797576904296875e+01 7.650607109069824219e+00 3.898438811302185059e-01 1.082147312164306641e+01 3.363394975662231445e+00 2.863595187664031982e-01
1.514000000000000000e+03 7.484833526611328125e+01 -3.329837036132812500e+01 -5.360470414161682129e-01 7.486192703247070312e+00 2.085043668746948242e+00 -5.635992288589477539e-01
1.515000000000000000e+03 7.417593383789062500e+01 2.159747123718261719e+01 1.488760858774185181e-01 8.279256820678710938e+00 2.528439998626708984e+00 6.550788283348083496e-01
1.516000000000000000e+03 4.107505416870117188e+01 6.735585689544677734e+00 1.416467308998107910e+00 6.893130779266357422e+00 2.492879390716552734e+00 -1.682577490806579590e+00
1.517000000000000000e+03 7.067910766601562500e+01 -8.641851425170898438e+00 2.343893945217132568e-01 6.600635051727294922e+00 2.050507307052612305e+00 5.393921732902526855e-01
1.518000000000000000e+03 1.491042995452880859e+01 -3.272074127197265625e+01 -4.458836279809474945e-03 -1.050606602802872658e-03 -1.652832841500639915e-03 -4.241540096700191498e-03
1.519000000000000000e+03 5.007159042358398438e+01 3.340787506103515625e+01 -2.085087597370147705e-01 1.001971364021301270e+00 2.380387932062149048e-01 3.198091387748718262e-01
1.520000000000000000e+03 4.694902038574218750e+01 3.437777709960937500e+01 -5.246945023536682129e-01 1.957789659500122070e+00 4.299285709857940674e-01 3.504136800765991211e-01
1.521000000000000000e+03 5.478303527832031250e+01 -2.699809074401855469e+01 1.714645624160766602e-01 6.412934780120849609e+00 1.975319862365722656e+00 -7.498142123222351074e-01
1.522000000000000000e+03 4.158016967773437500e+01 2.397150230407714844e+01 3.157441020011901855e-01 4.275552749633789062e+00 1.377389073371887207e+00 5.498707890510559082e-01
1.523000000000000000e+03 3.986861419677734375e+01 1.646245574951171875e+01 6.904816627502441406e-01 6.222724914550781250e+00 2.073961973190307617e+00 -1.086773350834846497e-01
1.524000000000000000e+03 6.619952392578125000e+01 -1.186114501953125000e+01 1.240247368812561035e+00 3.638787508010864258e+00 1.463710427284240723e+00 1.491172432899475098e+00
1.525000000000000000e+03 6.817188262939453125e+01 -1.085305881500244141e+01 7.374880313873291016e-01 4.904540061950683594e+00 1.692608356475830078e+00 1.116968035697937012e+00
1.526000000000000000e+03 7.264591217041015625e+00 -1.650845718383789062e+01 -5.235428106971085072e-04 1.435210579074919224e-04 -1.140065287472680211e-04 -8.580004760005977005e-07
1.527000000000000000e+03 6.487233734130859375e+01 -1.869234466552734375e+01 3.336846828460693359e-02 1.211882591247558594e+00 3.735753297805786133e-01 1.139746189117431641e+00
1.528000000000000000e+03 5.552977752685546875e+01 -3.196550559997558594e+01 2.393120288848876953e+00 1.023910045623779297e+01 3.789666175842285156e+00 -1.755129456520080566e+00
1.529000000000000000e+03 5.693997192382812500e+01 -3.631952285766601562e+01 -6.120709180831909180e-01 4.295161247253417969e+00 1.104927062988281250e+00 -1.286851644515991211e+00
1.530000000000000000e+03 7.678471374511718750e+01 -3.079365348815917969e+01 5.205460637807846069e-02 7.549426555633544922e+00 2.280444383621215820e+00 -9.122183918952941895e-01
1.531000000000000000e+03 5.621313095092773438e+01 -2.455621910095214844e+01 9.982644915580749512e-01 3.638521432876586914e+00 1.391035795211791992e+00 -4.371893033385276794e-02
1.532000000000000000e+03 3.952676391601562500e+01 1.329010963439941406e+01 1.115617513656616211e+00 6.677529811859130859e+00 2.337944269180297852e+00 -8.105384707450866699e-01
1.533000000000000000e+03 6.808013916015625000e+01 -2.035742568969726562e+01 -7.314510941505432129e-01 7.164042592048645020e-01 -4.514051135629415512e-03 -7.391721010208129883e-01
1.534000000000000000e+03 1.265332794189453125e+01 -3.379344940185546875e+01 -3.252282040193676949e-03 -7.570624584332108498e-04 -1.202803337946534157e-03 -3.238831646740436554e-03
1.535000000000000000e+03 7.203424072265625000e+01 2.494087600708007812e+01 2.466246038675308228e-01 7.551268100738525391e+00 2.339367866516113281e+00 4.464520514011383057e-01
1.536000000000000000e+03 7.184392547607421875e+01 2.646987915039062500e+01 1.627270132303237915e-01 7.102798461914062500e+00 2.179657697677612305e+00 4.639889597892761230e-01
1.537000000000000000e+03 6.735009765625000000e+01 -1.355171394348144531e+01 8.503403067588806152e-01 3.657857656478881836e+00 1.352459430694580078e+00 7.440392374992370605e-01
1.538000000000000000e+03 3.973107528686523438e+01 9.759012222290039062e+00 1.760274171829223633e+00 6.636857986450195312e+00 2.519139766693115234e+00 -1.196425795555114746e+00
1.539000000000000000e+03 7.255552673339843750e+01 7.756019592285156250e+00 2.357715368270874023e-01 9.897408485412597656e+00 3.039953947067260742e+00 6.853465437889099121e-01
1.540000000000000000e+03 1.460476398468017578e+01 -3.433715438842773438e+01 -4.174870438873767853e-03 -2.090138383209705353e-03 -1.879502669908106327e-03 -3.010271349921822548e-03
1.541000000000000000e+03 7.081182861328125000e+01 -3.366140747070312500e+01 -1.060192704200744629e+00 4.936823368072509766e+00 1.162989139556884766e+00 7.312833070755004883e-01
1.542000000000000000e+03 5.291708374023437500e+01 -2.897879600524902344e+01 1.038988471031188965e+00 6.670563220977783203e+00 2.312865495681762695e+00 -1.178386211395263672e+00
1.543000000000000000e+03 1.821876335144042969e+01 -3.378891372680664062e+01 -7.069032639265060425e-03 -3.711169119924306870e-03 -3.234060481190681458e-03 -9.357312694191932678e-03
1.544000000000000000e+03 5.910058975219726562e+01 -2.007851600646972656e+01 6.519759893417358398e-01 6.197416186332702637e-01 3.815152943134307861e-01 1.949007987976074219e+00
1.545000000000000000e+03 4.942088317871093750e+01 -1.708611679077148438e+01 -1.825335860252380371e+00 1.020923233032226562e+01 2.515168905258178711e+00 -3.153465032577514648e+00
1.546000000000000000e+03 4.277345657348632812e+01 -3.125597000122070312e+01 -5.234647914767265320e-02 9.142609834671020508e-01 2.585743665695190430e-01 4.216914772987365723e-01
1.547000000000000000e+03 4.438645935058593750e+01 -2.759779739379882812e+01 1.045397296547889709e-01 1.347349882125854492e+00 4.355668723583221436e-01 5.248638987541198730e-01
1.548000000000000000e+03 6.646594238281250000e+01 -1.956651687622070312e+01 -2.331072390079498291e-01 7.619290947914123535e-01 1.586465537548065186e-01 4.313714504241943359e-01
1.549000000000000000e+03 5.706343841552734375e+01 4.122135925292968750e+01 -2.010691165924072266e-01 -3.376713991165161133e-01 -1.616221517324447632e-01 9.628604352474212646e-02
1.550000000000000000e+03 6.092655563354492188e+01 3.803312301635742188e+01 -6.255167126655578613e-01 -5.589100718498229980e-01 -3.553280234336853027e-01 3.766801655292510986e-01
1.551000000000000000e+03 7.684223175048828125e+01 -2.931682395935058594e+01 2.440301626920700073e-01 7.377696990966796875e+00 2.286518096923828125e+00 -8.135078549385070801e-01
1.552000000000000000e+03 7.301890563964843750e+01 -2.946314811706542969e+01 5.990828275680541992e-01 8.955731391906738281e+00 2.866444349288940430e+00 -3.073977530002593994e-01
1.553000000000000000e+03 7.232695007324218750e+01 1.452782344818115234e+01 -1.353896036744117737e-02 8.845836639404296875e+00 2.649689197540283203e+00 3.737574219703674316e-01
1.554000000000000000e+03 7.111937713623046875e+01 1.446543979644775391e+01 2.176349759101867676e-01 8.961491584777832031e+00 2.753737926483154297e+00 4.085060954093933105e-01
1.555000000000000000e+03 6.196329498291015625e+01 -1.972125625610351562e+01 -9.022687561810016632e-03 1.083139419555664062e+00 3.222350180149078369e-01 1.718368649482727051e+00
1.556000000000000000e+03 4.273473358154296875e+01 3.040337753295898438e+01 -3.264474570751190186e-01 3.026608467102050781e+00 8.100483417510986328e-01 3.010967075824737549e-01
1.557000000000000000e+03 7.563549804687500000e+01 -2.562282562255859375e+01 8.649944663047790527e-01 7.678146362304687500e+00 2.562942266464233398e+00 2.843732014298439026e-02
1.558000000000000000e+03 4.149048233032226562e+01 -3.766736221313476562e+01 6.705893576145172119e-02 1.186582088470458984e+00 3.760923147201538086e-01 3.635630607604980469e-01
1.559000000000000000e+03 4.183097839355468750e+01 -3.341479110717773438e+01 -3.569440171122550964e-02 8.385106325149536133e-01 2.408448755741119385e-01 4.028073251247406006e-01
1.560000000000000000e+03 7.347580718994140625e+01 -1.765438461303710938e+01 -7.449074387550354004e-01 6.632589817047119141e+00 1.766304731369018555e+00 -5.360614061355590820e-01
1.561000000000000000e+03 7.158110046386718750e+01 2.803615188598632812e+01 -9.266139566898345947e-02 6.547800064086914062e+00 1.936541676521301270e+00 5.093178153038024902e-01
1.562000000000000000e+03 7.299422454833984375e+01 3.297259902954101562e+01 -5.956538319587707520e-01 6.903978347778320312e+00 1.892497301101684570e+00 3.599836528301239014e-01
1.563000000000000000e+03 4.257936859130859375e+01 -3.304588317871093750e+01 3.084938600659370422e-02 1.168952703475952148e+00 3.599406182765960693e-01 5.332406163215637207e-01
1.564000000000000000e+03 4.967051696777343750e+01 3.952228164672851562e+01 -6.987186670303344727e-01 1.276165366172790527e+00 1.732340157032012939e-01 1.297828853130340576e-01
1.565000000000000000e+03 3.773545074462890625e+01 -3.754672241210937500e+01 1.654807031154632568e-01 2.035441547632217407e-01 1.107074543833732605e-01 7.428491115570068359e-02
1.566000000000000000e+03 1.802570724487304688e+01 -1.208891391754150391e+01 -3.700653542182408273e-05 -7.761834422126412392e-05 -3.438746352912858129e-05 8.938900464272592217e-06
1.567000000000000000e+03 1.910824012756347656e+01 -1.164342784881591797e+01 7.437125168507918715e-05 1.396773877786472440e-04 6.421458965633064508e-05 2.074714393529575318e-05
1.568000000000000000e+03 4.041748809814453125e+01 8.169672012329101562e+00 1.678327679634094238e+00 6.916322231292724609e+00 2.578394889831542969e+00 -1.429064512252807617e+00
1.569000000000000000e+03 3.939292907714843750e+01 -1.685267257690429688e+01 -2.227536201477050781e+00 -7.018517702817916870e-02 -6.893163919448852539e-01 5.074701085686683655e-02
1.570000000000000000e+03 3.579376220703125000e+01 -1.589652156829833984e+01 -2.174576282501220703e+00 -2.868603467941284180e-01 -7.384309768676757812e-01 8.738907575607299805e-01
1.571000000000000000e+03 5.002262115478515625e+01 -1.449591159820556641e+01 -2.490497589111328125e+00 7.559937000274658203e+00 1.520831823348999023e+00 -1.251345038414001465e+00
1.572000000000000000e+03 3.989203262329101562e+01 -1.780661773681640625e+01 -2.654965639114379883e+00 5.481448397040367126e-02 -7.800453305244445801e-01 3.100491762161254883e-01
1.573000000000000000e+03 1.662379074096679688e+01 -1.227149105072021484e+01 8.878245353116653860e-06 4.363060725154355168e-05 1.575265559949912131e-05 3.158928166158148088e-06
1.574000000000000000e+03 5.623751068115234375e+01 -1.758736038208007812e+01 -1.462373495101928711e+00 -1.338391661643981934e+00 -8.402295708656311035e-01 2.045017719268798828e+00
1.575000000000000000e+03 5.748727416992187500e+01 -1.836628913879394531e+01 -4.106472432613372803e-01 -2.158355563879013062e-01 -1.879448443651199341e-01 2.351827621459960938e+00
1.576000000000000000e+03 8.385192871093750000e+00 -1.511709403991699219e+01 -4.019342886749655008e-04 1.516905467724427581e-04 -7.507312693633139133e-05 -7.239429396577179432e-05
1.577000000000000000e+03 1.517483043670654297e+01 -1.238850593566894531e+01 1.220741251017898321e-04 1.221619731950340793e-05 4.028709736303426325e-05 1.096591313398675993e-05
1.578000000000000000e+03 1.383097362518310547e+01 -1.204554653167724609e+01 -2.089256304316222668e-04 -1.718722487566992640e-04 -1.142393593909218907e-04 1.135788115789182484e-04
1.579000000000000000e+03 3.176204204559326172e+00 -2.708875274658203125e+01 -6.880176952108740807e-04 -1.094356684916419908e-05 -2.096883836202323437e-04 -7.534547421528259292e-07
1.580000000000000000e+03 7.234493732452392578e+00 -2.520212554931640625e+01 -5.561406142078340054e-04 -5.669140373356640339e-04 -3.369163896422833204e-04 3.067144425585865974e-04
1.581000000000000000e+03 5.946047210693359375e+01 -3.639650344848632812e+01 -3.929774761199951172e-01 1.649427533149719238e+00 3.769350051879882812e-01 -1.433098673820495605e+00
1.582000000000000000e+03 6.278430938720703125e+01 -2.183095359802246094e+01 2.879340946674346924e-02 6.381025314331054688e-01 2.000687867403030396e-01 1.004005789756774902e+00
1.583000000000000000e+03 6.508561706542968750e+01 -1.986127853393554688e+01 -4.787281155586242676e-01 8.588691353797912598e-01 1.140423044562339783e-01 1.163969874382019043e+00
1.584000000000000000e+03 7.316818237304687500e+01 -2.104094314575195312e+01 -7.822221517562866211e-01 7.634470939636230469e+00 2.055674552917480469e+00 -8.888589590787887573e-02
1.585000000000000000e+03 7.373030853271484375e+01 -2.372571945190429688e+01 1.064592003822326660e+00 8.367328643798828125e+00 2.829576253890991211e+00 2.299925088882446289e-01
1.586000000000000000e+03 6.879293060302734375e+01 3.475709152221679688e+01 -9.276496171951293945e-01 2.940727472305297852e+00 6.039233803749084473e-01 -2.241988033056259155e-01
1.587000000000000000e+03 4.462599563598632812e+01 -2.986471557617187500e+01 5.785606801509857178e-02 1.709799408912658691e+00 5.302966237068176270e-01 6.129177808761596680e-01
1.588000000000000000e+03 4.390153884887695312e+01 -2.894017791748046875e+01 6.584346294403076172e-02 1.184023737907409668e+00 3.749601542949676514e-01 4.889351427555084229e-01
1.589000000000000000e+03 5.312466049194335938e+01 -3.266471099853515625e+01 1.129476308822631836e+00 6.095937728881835938e+00 2.167624235153198242e+00 2.723295986652374268e-01
1.590000000000000000e+03 4.998300075531005859e+00 4.035494995117187500e+01 -3.067124262452125549e-02 -1.301097512245178223e+00 -3.995306491851806641e-01 2.094422094523906708e-02
1.591000000000000000e+03 5.435678863525390625e+01 -3.534474945068359375e+01 -6.149501800537109375e-01 5.936822414398193359e+00 1.596561670303344727e+00 -2.507292330265045166e-01
1.592000000000000000e+03 5.418759155273437500e+01 -2.596773338317871094e+01 1.919437199831008911e-01 6.384549140930175781e+00 1.972947835922241211e+00 -1.031595706939697266e+00
1.593000000000000000e+03 4.942972946166992188e+01 -2.211712837219238281e+01 -2.985491454601287842e-01 1.182737350463867188e+01 3.458647251129150391e+00 1.255996823310852051e+00
1.594000000000000000e+03 4.844696426391601562e+01 -2.187129211425781250e+01 9.999904632568359375e-01 6.895974636077880859e+00 2.368789434432983398e+00 3.352347612380981445e+00
1.595000000000000000e+03 4.895373916625976562e+01 -2.217468833923339844e+01 1.750184409320354462e-02 9.739048957824707031e+00 2.926965236663818359e+00 2.535626411437988281e+00
1.596000000000000000e+03 4.768596267700195312e+01 -1.834412765502929688e+01 2.082275390625000000e+00 4.043237686157226562e+00 1.837653875350952148e+00 -5.006305694580078125e+00
1.597000000000000000e+03 4.672922134399414062e+01 -2.336915969848632812e+01 7.667135596275329590e-01 2.288324832916259766e+00 9.165115356445312500e-01 1.272834539413452148e+00
1.598000000000000000e+03 4.773712539672851562e+01 -2.278958129882812500e+01 8.184910416603088379e-01 4.235865592956542969e+00 1.516306877136230469e+00 2.210396051406860352e+00
1.599000000000000000e+03 4.825562286376953125e+01 -1.779335212707519531e+01 4.569878876209259033e-01 7.334843635559082031e+00 2.337549448013305664e+00 -5.350047588348388672e+00
1.600000000000000000e+03 4.708850860595703125e+01 -1.822574615478515625e+01 1.485980510711669922e+00 2.414290428161621094e+00 1.170081257820129395e+00 -3.612082481384277344e+00
1.601000000000000000e+03 5.520014572143554688e+01 -2.530267906188964844e+01 5.911290049552917480e-01 5.169187545776367188e+00 1.728094935417175293e+00 -5.491318106651306152e-01
1.602000000000000000e+03 4.886545181274414062e+01 -1.761361122131347656e+01 -8.214150071144104004e-01 1.014047431945800781e+01 2.795717954635620117e+00 -4.833235740661621094e+00
1.603000000000000000e+03 4.664924240112304688e+01 -1.806255340576171875e+01 9.920171499252319336e-01 2.140044450759887695e+00 9.396184682846069336e-01 -2.966824769973754883e+00
1.604000000000000000e+03 5.007860565185546875e+01 -1.777374649047851562e+01 -1.053213119506835938e+00 1.212841320037841797e+01 3.322560071945190430e+00 -1.946865320205688477e+00
1.605000000000000000e+03 5.158177947998046875e+01 -1.774360084533691406e+01 -1.190701052546501160e-01 8.453498840332031250e+00 2.500328540802001953e+00 9.957229346036911011e-02
1.606000000000000000e+03 1.531110095977783203e+01 -6.464295864105224609e+00 -7.034602458588778973e-05 -7.863900827942416072e-05 -4.469550913199782372e-05 1.339929531241068617e-05
1.607000000000000000e+03 1.529812526702880859e+01 -1.127661132812500000e+01 -1.501713559264317155e-04 8.409245310758706182e-06 -4.252863436704501510e-05 -4.726734186988323927e-05
1.608000000000000000e+03 1.334928703308105469e+01 -4.975821971893310547e+00 -4.245902891852892935e-05 -1.517558848718181252e-04 -5.826447522849775851e-05 -4.098576391697861254e-05
1.609000000000000000e+03 1.483843612670898438e+01 -6.856542110443115234e+00 7.211197225842624903e-05 8.861291280481964350e-05 4.821746551897376776e-05 -6.186966493260115385e-05
1.610000000000000000e+03 1.220283794403076172e+01 -4.504345893859863281e+00 -6.358900282066315413e-05 -1.172648262581788003e-04 -5.425615017884410918e-05 -7.815454591764137149e-05
1.611000000000000000e+03 1.344527626037597656e+01 -5.804783821105957031e+00 -5.100975613459013402e-05 -1.440745400032028556e-04 -5.852528920513577759e-05 1.247964246431365609e-05
1.612000000000000000e+03 1.262129402160644531e+01 -5.183416843414306641e+00 -2.418046824459452182e-05 -1.167554146377369761e-04 -4.228076431900262833e-05 -6.192324508447200060e-05
1.613000000000000000e+03 1.077093791961669922e+01 -4.181238174438476562e+00 -1.181689221994020045e-04 -8.045532740652561188e-05 -5.958727342658676207e-05 -5.292632704367861152e-05
1.614000000000000000e+03 1.692979431152343750e+01 -1.027682018280029297e+01 -3.215091783204115927e-05 1.028558745019836351e-05 -6.559598659805487841e-06 1.704443275230005383e-05
1.615000000000000000e+03 4.371267318725585938e+01 -1.814215469360351562e+01 -9.842427372932434082e-01 9.410654306411743164e-01 -1.295318827033042908e-02 -3.484953939914703369e-01
1.616000000000000000e+03 1.264993190765380859e+01 -5.651293754577636719e+00 -2.473029599059373140e-05 -3.426188777666538954e-05 -1.769765549397561699e-05 2.836088242474943399e-05
1.617000000000000000e+03 4.749328231811523438e+01 -2.380388069152832031e+01 4.002816677093505859e-01 4.021301746368408203e+00 1.326475024223327637e+00 1.582401156425476074e+00
1.618000000000000000e+03 4.544062042236328125e+01 -2.413296318054199219e+01 5.411934852600097656e-01 1.224676728248596191e+00 5.297610759735107422e-01 5.484978556632995605e-01
1.619000000000000000e+03 4.414634704589843750e+01 -2.676000213623046875e+01 1.531765013933181763e-01 1.055527925491333008e+00 3.626113533973693848e-01 4.118657410144805908e-01
1.620000000000000000e+03 4.237794113159179688e+01 -1.844427490234375000e+01 -1.645936250686645508e+00 7.402634620666503906e-01 -2.717018425464630127e-01 2.225488722324371338e-01
1.621000000000000000e+03 4.303572845458984375e+01 -1.828968429565429688e+01 -1.375963330268859863e+00 8.787539005279541016e-01 -1.491628140211105347e-01 -6.376139819622039795e-02
1.622000000000000000e+03 1.716720581054687500e+01 -7.532160758972167969e+00 -7.327773346332833171e-05 -4.429681212059222162e-05 -3.527236185618676245e-05 -1.572173459862824529e-05
1.623000000000000000e+03 1.584716892242431641e+01 -8.383279800415039062e+00 -3.695320629049092531e-05 -1.869797961262520403e-05 -1.669535595283377916e-05 5.650252569466829300e-05
1.624000000000000000e+03 1.386436653137207031e+01 -6.652435302734375000e+00 -9.508376388112083077e-05 1.147239163401536644e-04 5.892045010114088655e-06 5.981311915093101561e-06
1.625000000000000000e+03 1.617363739013671875e+01 -7.438409328460693359e+00 -6.959513120818883181e-05 -3.346190351294353604e-05 -3.091711187153123319e-05 3.563032123565790243e-06
1.626000000000000000e+03 1.831385421752929688e+01 -1.018848800659179688e+01 9.783528366824612021e-05 1.279429034184431657e-05 3.318887320347130299e-05 4.098382487427443266e-05
1.627000000000000000e+03 1.697629737854003906e+01 -9.662505149841308594e+00 -9.428564226254820824e-05 -7.659479888388887048e-05 -5.126413088873960078e-05 -1.022592696244828403e-04
1.628000000000000000e+03 1.772851562500000000e+01 -1.053809738159179688e+01 -3.086188735323958099e-05 -5.839786899741739035e-05 -2.677792690519709140e-05 3.572712375898845494e-05
1.629000000000000000e+03 9.092329978942871094e+00 4.020230293273925781e+00 -4.486201405525207520e-01 -6.319038867950439453e-01 -3.241572082042694092e-01 8.344772458076477051e-01
1.630000000000000000e+03 8.349748611450195312e+00 4.089582920074462891e+00 -4.179064631462097168e-01 -5.478609204292297363e-01 -2.897302210330963135e-01 7.789856195449829102e-01
1.631000000000000000e+03 7.644220352172851562e+00 3.967286825180053711e+00 -4.263615608215332031e-01 -4.415189027786254883e-01 -2.603641450405120850e-01 6.952522397041320801e-01
1.632000000000000000e+03 5.464953422546386719e+00 4.144215583801269531e+00 -2.595831751823425293e-01 -3.110687732696533203e-01 -1.711955815553665161e-01 4.605820775032043457e-01
1.633000000000000000e+03 4.693887233734130859e+00 4.172209739685058594e+00 -2.038128077983856201e-01 -2.849055230617523193e-01 -1.466155052185058594e-01 3.795074224472045898e-01
1.634000000000000000e+03 3.716195344924926758e+00 6.293279170989990234e+00 -8.227095752954483032e-02 -4.454650878906250000e-01 -1.583208143711090088e-01 3.884999454021453857e-01
1.635000000000000000e+03 4.767829895019531250e+00 3.416868686676025391e+00 -2.402450293302536011e-01 -1.981696337461471558e-01 -1.315243989229202271e-01 3.233030140399932861e-01
1.636000000000000000e+03 4.656513690948486328e+00 4.962667942047119141e+00 -1.772942394018173218e-01 -3.565718233585357666e-01 -1.601598262786865234e-01 4.241602122783660889e-01
1.637000000000000000e+03 3.756291866302490234e+00 5.065138816833496094e+00 -1.320135146379470825e-01 -3.256427645683288574e-01 -1.372968852519989014e-01 3.428337574005126953e-01
1.638000000000000000e+03 3.451726675033569336e+00 3.639992952346801758e+00 -1.429045796394348145e-01 -1.896663010120391846e-01 -9.977126121520996094e-02 2.308800220489501953e-01
1.639000000000000000e+03 1.615181922912597656e+00 4.961495876312255859e+00 -3.389222919940948486e-02 -2.196403741836547852e-01 -7.605978101491928101e-02 1.375269740819931030e-01
1.640000000000000000e+03 2.863841629028320312e+01 -1.108143711090087891e+01 -1.218904256820678711e+00 -2.291516959667205811e-01 -4.344168007373809814e-01 1.297692060470581055e+00
1.641000000000000000e+03 2.843256187438964844e+01 -1.226204299926757812e+01 -1.195915818214416504e+00 -3.261574208736419678e-01 -4.566219747066497803e-01 1.308799147605895996e+00
1.642000000000000000e+03 2.815323638916015625e+01 -1.341956901550292969e+01 -1.129808425903320312e+00 -3.996040225028991699e-01 -4.588237404823303223e-01 1.239790081977844238e+00
1.643000000000000000e+03 2.906779479980468750e+01 -1.176713848114013672e+01 -1.212552070617675781e+00 -1.858880966901779175e-01 -4.195320606231689453e-01 1.288052797317504883e+00
1.644000000000000000e+03 2.989753532409667969e+01 -1.316149044036865234e+01 -1.273044347763061523e+00 -1.292707324028015137e-01 -4.206945002079010010e-01 1.214742541313171387e+00
1.645000000000000000e+03 2.852898216247558594e+01 -1.411586761474609375e+01 -1.124847292900085449e+00 -3.613117039203643799e-01 -4.458476901054382324e-01 1.158860564231872559e+00
1.646000000000000000e+03 3.240395736694335938e+01 -1.434182262420654297e+01 -1.557888746261596680e+00 2.766807936131954193e-02 -4.590661823749542236e-01 1.057963490486145020e+00
1.647000000000000000e+03 1.627561950683593750e+01 6.296564340591430664e-01 -1.183035016059875488e+00 -1.442553043365478516e+00 -7.876764535903930664e-01 1.231965184211730957e+00
1.648000000000000000e+03 1.659776115417480469e+01 2.171770095825195312e+00 -6.278703212738037109e-01 -1.371259212493896484e+00 -5.997388958930969238e-01 1.021612405776977539e+00
1.649000000000000000e+03 2.595553207397460938e+01 -8.195741653442382812e+00 -1.390776872634887695e+00 -8.250498771667480469e-01 -6.647480130195617676e-01 1.300981402397155762e+00
1.650000000000000000e+03 8.779790878295898438e+00 -3.630273818969726562e+00 9.544781642034649849e-05 3.563738209777511656e-05 3.932555773644708097e-05 9.208637493429705501e-05
1.651000000000000000e+03 1.062513542175292969e+01 -4.991671562194824219e+00 1.056629625963978469e-04 1.257905205420684069e-05 3.547260712366551161e-05 4.982065365766175091e-05
1.652000000000000000e+03 2.408987426757812500e+01 -6.680171012878417969e+00 -1.526521086692810059e+00 -1.383155465126037598e+00 -8.729029297828674316e-01 1.383559346199035645e+00
1.653000000000000000e+03 2.439558219909667969e+01 -4.496057033538818359e+00 -1.254842877388000488e+00 -9.581401348114013672e-01 -6.638949513435363770e-01 1.056872844696044922e+00
1.654000000000000000e+03 1.745771026611328125e+01 6.822529435157775879e-01 -9.905053973197937012e-01 -1.488752245903015137e+00 -7.437773346900939941e-01 1.144242405891418457e+00
1.655000000000000000e+03 4.110514831542968750e+01 -1.765104675292968750e+01 -2.016635656356811523e+00 5.930949449539184570e-01 -4.270622134208679199e-01 -5.694985017180442810e-02
1.656000000000000000e+03 2.172771453857421875e+01 -1.685617804527282715e+00 -1.026171922683715820e+00 -1.309144377708435059e+00 -7.005949020385742188e-01 9.963746666908264160e-01
1.657000000000000000e+03 2.130865859985351562e+01 -2.285743236541748047e+00 -1.276144981384277344e+00 -1.513023853302001953e+00 -8.367506265640258789e-01 1.163840174674987793e+00
1.658000000000000000e+03 2.194168853759765625e+01 -2.727280855178833008e+00 -1.269519686698913574e+00 -1.425853013992309570e+00 -8.086118102073669434e-01 1.138738155364990234e+00
1.659000000000000000e+03 1.942433166503906250e+01 -8.242747783660888672e-01 -1.174910187721252441e+00 -1.565583705902099609e+00 -8.221481442451477051e-01 1.177986621856689453e+00
1.660000000000000000e+03 2.582731056213378906e+01 -9.317564010620117188e+00 -1.381938934326171875e+00 -9.713817834854125977e-01 -7.059962153434753418e-01 1.385061025619506836e+00
1.661000000000000000e+03 5.725628376007080078e+00 -3.745878934860229492e+00 3.367216413607820868e-05 2.189020597143098712e-05 1.666871139605063945e-05 -3.518012363201705739e-06
1.662000000000000000e+03 8.739935874938964844e+00 -5.295712471008300781e+00 1.147457733168266714e-04 1.151239484897814691e-05 3.787744935834780335e-05 6.646465772064402699e-05
1.663000000000000000e+03 4.888382434844970703e+00 -4.007677555084228516e+00 3.246939377277158201e-05 -6.186567043187096715e-05 -8.818882633931934834e-06 -4.063643791596405208e-05
1.664000000000000000e+03 7.909116268157958984e+00 -4.435244560241699219e+00 1.693168160272762179e-04 -1.592868648003786802e-05 4.601643740897998214e-05 8.667062502354383469e-05
1.665000000000000000e+03 3.968142986297607422e+00 -4.271578311920166016e+00 5.813668758491985500e-05 5.208500442677177489e-05 3.306650614831596613e-05 1.013805231195874512e-04
1.666000000000000000e+03 4.083291530609130859e+00 -5.603450775146484375e+00 -9.021033474709838629e-05 -1.659510962781496346e-05 -3.204163294867612422e-05 -9.232700540451332927e-05
1.667000000000000000e+03 2.949267864227294922e+00 -5.852089405059814453e+00 1.963235699804499745e-04 1.613068343431223184e-05 6.373627547873184085e-05 3.671632657642476261e-05
1.668000000000000000e+03 2.762563896179199219e+01 -1.089100646972656250e+01 -1.248855471611022949e+00 -4.524238407611846924e-01 -5.103837847709655762e-01 1.343347191810607910e+00
1.669000000000000000e+03 2.721600532531738281e+01 -1.020836448669433594e+01 -1.290232658386230469e+00 -5.367610454559326172e-01 -5.480981469154357910e-01 1.342323780059814453e+00
1.670000000000000000e+03 1.339411163330078125e+01 3.473084211349487305e+00 -5.117107033729553223e-01 -1.144335508346557617e+00 -4.968138635158538818e-01 1.015577197074890137e+00
1.671000000000000000e+03 1.342303466796875000e+01 2.359586238861083984e+00 -8.539276719093322754e-01 -1.130510330200195312e+00 -5.953313708305358887e-01 1.073583483695983887e+00
1.672000000000000000e+03 2.680079841613769531e+01 -9.531346321105957031e+00 -1.326335072517395020e+00 -6.275589466094970703e-01 -5.861681699752807617e-01 1.330574035644531250e+00
1.673000000000000000e+03 1.077910423278808594e+01 3.390587806701660156e+00 -6.035147905349731445e-01 -8.250069618225097656e-01 -4.285565316677093506e-01 9.408960342407226562e-01
1.674000000000000000e+03 4.422692108154296875e+01 -1.734850120544433594e+01 -5.232645273208618164e-01 1.380763173103332520e+00 2.572495937347412109e-01 -1.014098644256591797e+00
1.675000000000000000e+03 2.552444267272949219e+01 -7.540285110473632812e+00 -1.413981795310974121e+00 -9.273342490196228027e-01 -7.023948431015014648e-01 1.285175204277038574e+00
1.676000000000000000e+03 2.508958053588867188e+01 -6.891479015350341797e+00 -1.426837444305419922e+00 -1.015350818634033203e+00 -7.326564788818359375e-01 1.266715407371520996e+00
1.677000000000000000e+03 2.465292549133300781e+01 -6.244323253631591797e+00 -1.430152058601379395e+00 -1.100820779800415039e+00 -7.592918872833251953e-01 1.248786807060241699e+00
1.678000000000000000e+03 9.716472625732421875e+00 -5.130188465118408203e+00 -5.716918167308904231e-06 -1.133462410507490858e-05 -5.115462954563554376e-06 -6.095482603996060789e-05
1.679000000000000000e+03 2.333134460449218750e+01 -4.243414402008056641e+00 -1.362514019012451172e+00 -1.273157835006713867e+00 -7.907015681266784668e-01 1.165897011756896973e+00
1.680000000000000000e+03 2.288719177246093750e+01 -3.515461921691894531e+00 -1.285110473632812500e+00 -1.293354868888854980e+00 -7.735396027565002441e-01 1.120311021804809570e+00
1.681000000000000000e+03 1.796787261962890625e+01 1.189775109291076660e+00 -7.595967054367065430e-01 -1.440004825592041016e+00 -6.598804593086242676e-01 1.035538911819458008e+00
1.682000000000000000e+03 1.879044723510742188e+01 -3.155227303504943848e-01 -1.114391207695007324e+00 -1.556563615798950195e+00 -8.012863993644714355e-01 1.167653679847717285e+00
1.683000000000000000e+03 1.813406753540039062e+01 1.865794956684112549e-01 -1.054149866104125977e+00 -1.528160095214843750e+00 -7.746930122375488281e-01 1.159359335899353027e+00
1.684000000000000000e+03 1.605623817443847656e+01 1.623637676239013672e+00 -8.603631854057312012e-01 -1.379998087882995605e+00 -6.721083521842956543e-01 1.112609028816223145e+00
1.685000000000000000e+03 1.535691642761230469e+01 2.064480304718017578e+00 -7.899107336997985840e-01 -1.320817470550537109e+00 -6.332184672355651855e-01 1.092369914054870605e+00
1.686000000000000000e+03 2.068061828613281250e+01 -1.820022463798522949e+00 -1.240429282188415527e+00 -1.542187571525573730e+00 -8.347850441932678223e-01 1.175270557403564453e+00
1.687000000000000000e+03 2.004816055297851562e+01 -1.329715728759765625e+00 -1.218612074851989746e+00 -1.569822549819946289e+00 -8.365303874015808105e-01 1.171811938285827637e+00
1.688000000000000000e+03 5.168561935424804688e+01 -1.853971862792968750e+01 2.329662561416625977e+00 7.620916843414306641e+00 2.985173702239990234e+00 -6.193319335579872131e-02
1.689000000000000000e+03 5.217003631591796875e+01 -2.193167877197265625e+01 2.470359802246093750e+00 7.423571109771728516e+00 2.968179225921630859e+00 -3.008675098419189453e+00
1.690000000000000000e+03 5.170109558105468750e+01 -2.140161323547363281e+01 3.500320196151733398e+00 8.354990959167480469e+00 3.556593418121337891e+00 -3.548613071441650391e+00
1.691000000000000000e+03 1.467132472991943359e+01 2.503214836120605469e+00 -7.167387008666992188e-01 -1.256820678710937500e+00 -5.920678377151489258e-01 1.069695115089416504e+00
1.692000000000000000e+03 1.020769786834716797e+01 4.123791217803955078e+00 -4.518711268901824951e-01 -7.859101891517639160e-01 -3.713344037532806396e-01 9.140274524688720703e-01
1.693000000000000000e+03 9.635848045349121094e+00 3.579370975494384766e+00 -5.294178724288940430e-01 -6.833398342132568359e-01 -3.638273179531097412e-01 8.722833991050720215e-01
1.694000000000000000e+03 3.134767341613769531e+01 -1.538278198242187500e+01 -1.652270436286926270e+00 -2.752460911870002747e-02 -5.039384961128234863e-01 9.524613618850708008e-01
1.695000000000000000e+03 1.290252399444580078e+01 4.096662521362304688e+00 -3.899804651737213135e-01 -1.090922832489013672e+00 -4.442709684371948242e-01 9.840320944786071777e-01
1.696000000000000000e+03 1.156116485595703125e+01 4.201038837432861328e+00 -4.094580113887786865e-01 -9.669620990753173828e-01 -4.129260480403900146e-01 9.663206934928894043e-01
1.697000000000000000e+03 2.893652915954589844e+01 -1.480829715728759766e+01 -1.205606579780578613e+00 -3.218773305416107178e-01 -4.582451581954956055e-01 1.031979680061340332e+00
1.698000000000000000e+03 3.140612030029296875e+01 -1.445123672485351562e+01 -1.507191777229309082e+00 -2.177137508988380432e-02 -4.586889147758483887e-01 1.059531092643737793e+00
1.699000000000000000e+03 3.347766876220703125e+01 -1.436102867126464844e+01 -1.586822032928466797e+00 5.564572289586067200e-02 -4.593529105186462402e-01 9.872485995292663574e-01
1.700000000000000000e+03 6.780604553222656250e+01 -1.926103782653808594e+01 -1.772619634866714478e-01 1.554059267044067383e+00 4.130392074584960938e-01 -3.331393003463745117e-01
1.701000000000000000e+03 5.971285247802734375e+01 -2.201719093322753906e+01 1.082421183586120605e+00 7.715427279472351074e-01 5.561891794204711914e-01 1.358810663223266602e+00
1.702000000000000000e+03 1.271461200714111328e+01 -1.132708644866943359e+01 1.142302644439041615e-04 2.723043435253202915e-04 1.159603853011503816e-04 -6.164142541820183396e-05
1.703000000000000000e+03 8.076841354370117188e+00 -1.390666389465332031e+01 3.154844162054359913e-04 -8.119404810713604093e-05 7.028710388112813234e-05 8.014260674826800823e-05
1.704000000000000000e+03 3.007182312011718750e+01 -1.467235660552978516e+01 -1.380074381828308105e+00 -1.571188569068908691e-01 -4.611579775810241699e-01 1.043886542320251465e+00
1.705000000000000000e+03 6.521508789062500000e+01 -1.594267654418945312e+01 7.384525537490844727e-01 2.195994138717651367e+00 8.803339600563049316e-01 9.637457132339477539e-01
1.706000000000000000e+03 4.491453170776367188e+01 -2.649693679809570312e+01 2.418602705001831055e-01 1.562622308731079102e+00 5.413447618484497070e-01 5.509819984436035156e-01
1.707000000000000000e+03 4.288721084594726562e+01 -1.854094505310058594e+00 5.188483595848083496e-01 4.701457500457763672e+00 1.566091775894165039e+00 -1.904363036155700684e+00
1.708000000000000000e+03 4.606312561035156250e+01 -5.937932968139648438e+00 5.110925436019897461e-01 4.970003604888916016e+00 1.644328832626342773e+00 -2.087746381759643555e+00
1.709000000000000000e+03 4.147627258300781250e+01 2.760490226745605469e+01 -5.881662294268608093e-02 3.497807025909423828e+00 1.031697154045104980e+00 2.732094824314117432e-01
1.710000000000000000e+03 4.661780929565429688e+01 -4.355154514312744141e+00 6.418773531913757324e-01 5.271794319152832031e+00 1.774101495742797852e+00 -2.256839752197265625e+00
1.711000000000000000e+03 4.477704620361328125e+01 -2.839761734008789062e+01 1.059999763965606689e-01 1.695634365081787109e+00 5.404903292655944824e-01 5.887022018432617188e-01
1.712000000000000000e+03 4.344845962524414062e+01 -2.963094949722290039e+00 4.850735068321228027e-01 4.627729415893554688e+00 1.533840894699096680e+00 -1.932615995407104492e+00
1.713000000000000000e+03 1.035188579559326172e+01 -1.330277347564697266e+01 1.339484060736140236e-05 -6.626998219871893525e-05 -1.586254256835673004e-05 1.808221568353474140e-04
1.714000000000000000e+03 4.555556488037109375e+01 -4.788585662841796875e+00 5.284724235534667969e-01 4.924818038940429688e+00 1.635987162590026855e+00 -2.123044967651367188e+00
1.715000000000000000e+03 4.233494186401367188e+01 4.079615592956542969e+00 1.078419446945190430e+00 6.177393436431884766e+00 2.176743984222412109e+00 -2.178142786026000977e+00
1.716000000000000000e+03 4.249070739746093750e+01 9.611602425575256348e-01 7.044284343719482422e-01 5.277362346649169922e+00 1.794537186622619629e+00 -1.978385448455810547e+00
1.717000000000000000e+03 4.875996398925781250e+01 -1.233731174468994141e+01 -9.598816037178039551e-01 6.210217952728271484e+00 1.575100898742675781e+00 -1.501221537590026855e+00
1.718000000000000000e+03 5.161626052856445312e+01 -1.569495296478271484e+01 -2.814394950866699219e+00 7.435330390930175781e+00 1.386280655860900879e+00 -2.932345569133758545e-01
1.719000000000000000e+03 7.210233306884765625e+01 1.169467639923095703e+01 -4.845513701438903809e-01 9.328718185424804688e+00 2.653250217437744141e+00 3.135901391506195068e-01
1.720000000000000000e+03 5.206044769287109375e+01 -1.676704025268554688e+01 -2.550458192825317383e+00 6.329202175140380859e+00 1.133623242378234863e+00 -8.063022047281265259e-02
1.721000000000000000e+03 7.419040679931640625e+01 5.052711486816406250e+00 4.517221152782440186e-01 8.844559669494628906e+00 2.788884401321411133e+00 7.028475999832153320e-01
1.722000000000000000e+03 7.223474884033203125e+01 3.394309282302856445e+00 6.477431058883666992e-01 1.102383136749267578e+01 3.501472234725952148e+00 7.445210218429565430e-01
1.723000000000000000e+03 3.697425079345703125e+01 -1.597606945037841797e+01 -2.034400224685668945e+00 -4.005951881408691406e-01 -7.304986119270324707e-01 5.881754755973815918e-01
1.724000000000000000e+03 3.821836471557617188e+01 -1.708838844299316406e+01 -2.603199005126953125e+00 -6.147966980934143066e-01 -9.653987288475036621e-01 4.785343110561370850e-01
1.725000000000000000e+03 6.848986053466796875e+01 -1.675643730163574219e+01 2.254879474639892578e-01 3.126149654388427734e+00 1.005491256713867188e+00 -2.970532178878784180e-01
1.726000000000000000e+03 7.124272918701171875e+01 -1.665394973754882812e+01 -3.944609165191650391e-01 5.250437736511230469e+00 1.456793069839477539e+00 -8.653564453125000000e-01
1.727000000000000000e+03 7.706617736816406250e+01 1.647817230224609375e+01 5.465758033096790314e-03 7.925061225891113281e+00 2.379158020019531250e+00 5.071566104888916016e-01
1.728000000000000000e+03 7.494517517089843750e+01 1.208194065093994141e+01 -1.737920939922332764e-01 8.296044349670410156e+00 2.436675786972045898e+00 6.871231794357299805e-01
1.729000000000000000e+03 7.689311981201171875e+01 2.503615856170654297e+00 2.784661352634429932e-01 6.481469631195068359e+00 2.027980804443359375e+00 2.278144806623458862e-01
1.730000000000000000e+03 7.560579681396484375e+01 -5.844288468360900879e-01 4.021887481212615967e-01 7.264874458312988281e+00 2.300118923187255859e+00 -1.286675930023193359e-01
1.731000000000000000e+03 7.348212432861328125e+01 5.874520301818847656e+00 3.918096423149108887e-01 9.545013427734375000e+00 2.981046676635742188e+00 7.388976216316223145e-01
1.732000000000000000e+03 7.588941955566406250e+01 5.351986885070800781e+00 2.966080009937286377e-01 7.539145469665527344e+00 2.350726127624511719e+00 6.797979474067687988e-01
1.733000000000000000e+03 7.502470397949218750e+01 5.942292213439941406e+00 3.151749968528747559e-01 8.239459991455078125e+00 2.566390275955200195e+00 7.994395494461059570e-01
1.734000000000000000e+03 7.591248321533203125e+01 9.535761833190917969e+00 -5.992313474416732788e-02 7.880374908447265625e+00 2.346135616302490234e+00 8.269774317741394043e-01
1.735000000000000000e+03 7.578909301757812500e+01 -7.353694438934326172e+00 3.361671231687068939e-03 6.723445415496826172e+00 2.018042087554931641e+00 -5.530822277069091797e-01
1.736000000000000000e+03 7.698520660400390625e+01 -5.907786846160888672e+00 1.543332939036190510e-03 6.405876159667968750e+00 1.922225832939147949e+00 -5.341669917106628418e-01
1.737000000000000000e+03 7.249356079101562500e+01 -4.232582569122314453e+00 2.712676823139190674e-01 8.290621757507324219e+00 2.568566799163818359e+00 2.257578074932098389e-01
1.738000000000000000e+03 7.605982971191406250e+01 1.091302108764648438e+01 -1.280859708786010742e-01 7.830341815948486328e+00 2.310676574707031250e+00 7.229734659194946289e-01
1.739000000000000000e+03 7.427037811279296875e+01 -2.381793737411499023e+00 3.619794845581054688e-01 7.955244541168212891e+00 2.495167255401611328e+00 -1.648472845554351807e-01
1.740000000000000000e+03 7.576438903808593750e+01 -4.718377590179443359e+00 7.553585618734359741e-02 6.884511947631835938e+00 2.088014364242553711e+00 -4.923030734062194824e-01
1.741000000000000000e+03 7.361165618896484375e+01 2.043029975891113281e+01 1.005345433950424194e-01 8.307466506958007812e+00 2.522400140762329102e+00 6.137071251869201660e-01
1.742000000000000000e+03 7.705609893798828125e+01 1.788106727600097656e+01 2.267128787934780121e-02 8.077929496765136719e+00 2.430180072784423828e+00 4.978398084640502930e-01
1.743000000000000000e+03 7.589145660400390625e+01 1.635253334045410156e+01 3.406342817470431328e-03 8.125078201293945312e+00 2.438545227050781250e+00 5.672582387924194336e-01
1.744000000000000000e+03 7.472505950927734375e+01 1.908512496948242188e+01 8.578197658061981201e-02 8.308953285217285156e+00 2.518420696258544922e+00 6.597831845283508301e-01
1.745000000000000000e+03 7.560095977783203125e+01 -1.403926181793212891e+01 -2.123569995164871216e-01 6.709677696228027344e+00 1.949196219444274902e+00 -4.462518692016601562e-01
1.746000000000000000e+03 7.689001464843750000e+01 -1.262812900543212891e+01 -9.273611754179000854e-02 6.804547786712646484e+00 2.013543605804443359e+00 -4.396747052669525146e-01
1.747000000000000000e+03 7.005445098876953125e+01 -9.941589355468750000e+00 3.323584198951721191e-01 5.974044322967529297e+00 1.891920804977416992e+00 5.911748409271240234e-01
1.748000000000000000e+03 7.559981536865234375e+01 -1.125389480590820312e+01 -8.997139334678649902e-02 6.648128986358642578e+00 1.967447161674499512e+00 -5.322849154472351074e-01
1.749000000000000000e+03 7.423364257812500000e+01 -1.840628623962402344e+01 -8.008480668067932129e-01 7.053086280822753906e+00 1.875671386718750000e+00 -2.797497808933258057e-01
1.750000000000000000e+03 7.698675537109375000e+01 -1.968868827819824219e+01 -3.110116124153137207e-01 7.279433727264404297e+00 2.090526580810546875e+00 3.622538447380065918e-01
1.751000000000000000e+03 7.686613464355468750e+01 -2.519947433471679688e+01 5.465627312660217285e-01 7.213916301727294922e+00 2.328143596649169922e+00 2.040728032588958740e-01
1.752000000000000000e+03 7.609755706787109375e+01 -2.674526405334472656e+01 7.593581080436706543e-01 7.578404426574707031e+00 2.501328706741333008e+00 -2.547277510166168213e-01
1.753000000000000000e+03 7.386871337890625000e+01 -2.188595581054687500e+01 -3.959198892116546631e-01 8.191308975219726562e+00 2.338616609573364258e+00 1.718947440385818481e-01
1.754000000000000000e+03 7.581294250488281250e+01 -1.807913208007812500e+01 -4.870508015155792236e-01 7.169574737548828125e+00 2.004757165908813477e+00 -7.358128204941749573e-03
1.755000000000000000e+03 7.468100738525390625e+01 -2.643121147155761719e+01 1.168037772178649902e+00 8.553345680236816406e+00 2.916414976119995117e+00 -2.205998003482818604e-01
1.756000000000000000e+03 7.477477264404296875e+01 -2.457848167419433594e+01 1.142375111579895020e+00 8.353178977966308594e+00 2.848666191101074219e+00 2.271669059991836548e-01
1.757000000000000000e+03 7.563790130615234375e+01 -2.341726112365722656e+01 4.277488291263580322e-01 7.556288719177246094e+00 2.395211219787597656e+00 6.678774356842041016e-01
1.758000000000000000e+03 7.479806518554687500e+01 3.491677474975585938e+01 -4.754689931869506836e-01 8.034493446350097656e+00 2.267707347869873047e+00 2.265129685401916504e-01
1.759000000000000000e+03 7.633159637451171875e+01 3.595560455322265625e+01 -3.666870296001434326e-01 9.562286376953125000e+00 2.758679628372192383e+00 1.751466542482376099e-01
1.760000000000000000e+03 7.496815490722656250e+01 2.270132827758789062e+01 1.315829008817672729e-01 8.278796195983886719e+00 2.523113727569580078e+00 7.207167744636535645e-01
1.761000000000000000e+03 7.341775512695312500e+01 2.250148010253906250e+01 1.694024354219436646e-01 8.143209457397460938e+00 2.493783712387084961e+00 5.902113318443298340e-01
1.762000000000000000e+03 7.713832092285156250e+01 2.764125442504882812e+01 7.500556763261556625e-03 9.227310180664062500e+00 2.770443201065063477e+00 7.026803493499755859e-01
1.763000000000000000e+03 7.545436859130859375e+01 2.484164237976074219e+01 9.734611958265304565e-02 8.381086349487304688e+00 2.543529748916625977e+00 8.106735944747924805e-01
1.764000000000000000e+03 7.696794128417968750e+01 2.900851631164550781e+01 -9.082000702619552612e-02 9.326620101928710938e+00 2.770740032196044922e+00 6.921135187149047852e-01
1.765000000000000000e+03 7.410239410400390625e+01 2.345981597900390625e+01 1.697362363338470459e-01 8.141139984130859375e+00 2.493262767791748047e+00 7.222010493278503418e-01
1.766000000000000000e+03 7.518538665771484375e+01 -3.467012786865234375e+01 -5.364213585853576660e-01 7.318631172180175781e+00 2.034662961959838867e+00 -4.837475419044494629e-01
1.767000000000000000e+03 7.681483459472656250e+01 -3.334014129638671875e+01 -2.785238027572631836e-01 7.693994045257568359e+00 2.224641084671020508e+00 -6.828641891479492188e-01
1.768000000000000000e+03 7.647087860107421875e+01 3.183359718322753906e+01 -2.495937198400497437e-01 9.263126373291015625e+00 2.704059839248657227e+00 5.067943334579467773e-01
1.769000000000000000e+03 7.623397064208984375e+01 2.617375946044921875e+01 2.696429379284381866e-02 8.717408180236816406e+00 2.623311996459960938e+00 8.083022236824035645e-01
1.770000000000000000e+03 4.766491699218750000e+01 -1.028177642822265625e+01 -1.224618181586265564e-01 5.438323497772216797e+00 1.594758510589599609e+00 -1.745688199996948242e+00
1.771000000000000000e+03 7.426465606689453125e+01 -3.196176147460937500e+01 -4.585534632205963135e-01 7.561800003051757812e+00 2.130974054336547852e+00 -7.345076203346252441e-01
1.772000000000000000e+03 7.364410400390625000e+01 -3.068225097656250000e+01 8.357374370098114014e-02 8.102872848510742188e+00 2.455934047698974609e+00 -4.730604588985443115e-01
1.773000000000000000e+03 7.239025878906250000e+01 3.023556518554687500e+01 -4.909523129463195801e-01 6.763399124145507812e+00 1.881734132766723633e+00 6.335133314132690430e-01
1.774000000000000000e+03 7.551082611083984375e+01 3.011348152160644531e+01 -2.794841527938842773e-01 8.561450004577636719e+00 2.484589576721191406e+00 7.186839580535888672e-01
1.775000000000000000e+03 6.590748596191406250e+01 -1.411914443969726562e+01 1.060762763023376465e+00 2.907968759536743164e+00 1.190619468688964844e+00 1.007458448410034180e+00
1.776000000000000000e+03 7.563340759277343750e+01 8.905738592147827148e-01 4.523220956325531006e-01 7.370493412017822266e+00 2.346844673156738281e+00 7.379816472530364990e-02
1.777000000000000000e+03 7.379553985595703125e+01 3.821007919311523438e+01 -2.284840792417526245e-01 6.986589431762695312e+00 2.027431726455688477e+00 5.817850306630134583e-02
1.778000000000000000e+03 7.511803436279296875e+01 3.622335433959960938e+01 -1.663921773433685303e-01 8.232563972473144531e+00 2.419851779937744141e+00 2.963719367980957031e-01
1.779000000000000000e+03 7.208134460449218750e+01 5.175228714942932129e-01 9.398321509361267090e-01 1.051958751678466797e+01 3.437825918197631836e+00 6.938959360122680664e-01
1.780000000000000000e+03 7.234302520751953125e+01 1.599009132385253906e+01 1.295778602361679077e-01 8.687187194824218750e+00 2.645029544830322266e+00 5.436630845069885254e-01
1.781000000000000000e+03 7.352682495117187500e+01 1.464279365539550781e+01 -4.554836079478263855e-02 8.605140686035156250e+00 2.567877769470214844e+00 5.499285459518432617e-01
1.782000000000000000e+03 7.240200805664062500e+01 1.889986038208007812e+01 4.629663750529289246e-02 8.533890724182128906e+00 2.574056386947631836e+00 5.448555350303649902e-01
1.783000000000000000e+03 7.236839294433593750e+01 1.743538856506347656e+01 7.298261672258377075e-02 8.695287704467773438e+00 2.630481243133544922e+00 5.774966478347778320e-01
1.784000000000000000e+03 7.380461883544921875e+01 -3.751233673095703125e+01 -3.900731503963470459e-01 6.199076175689697266e+00 1.742700934410095215e+00 1.210639625787734985e-02
1.785000000000000000e+03 4.448703384399414062e+01 3.237969207763671875e+01 -4.573890268802642822e-01 2.564925909042358398e+00 6.322610974311828613e-01 3.378922343254089355e-01
1.786000000000000000e+03 4.804010391235351562e+01 -7.906714916229248047e+00 4.907610416412353516e-01 5.624091625213623047e+00 1.834455728530883789e+00 -2.029495477676391602e+00
1.787000000000000000e+03 4.596635818481445312e+01 -8.483354568481445312e+00 2.148777842521667480e-01 4.693309783935546875e+00 1.472456336021423340e+00 -1.856520056724548340e+00
1.788000000000000000e+03 4.347152233123779297e+00 -1.581275463104248047e+01 4.494744935072958469e-04 4.320893640397116542e-05 1.478050253354012966e-04 -9.238448001269716769e-06
1.789000000000000000e+03 4.146456241607666016e+00 2.107783317565917969e+01 6.580048054456710815e-02 -1.347748875617980957e+00 -3.845845162868499756e-01 1.398162245750427246e-01
1.790000000000000000e+03 6.818358421325683594e+00 -2.074912834167480469e+01 -5.490115145221352577e-04 -1.350785460090264678e-04 -2.052270137937739491e-04 7.927210390334948897e-05
1.791000000000000000e+03 3.130375623703002930e+00 -1.868955802917480469e+01 -5.142617737874388695e-04 2.859016785805579275e-05 -1.457014877814799547e-04 -3.293913687230087817e-05
1.792000000000000000e+03 4.207032680511474609e+00 -1.829124450683593750e+01 3.823417355306446552e-04 -2.126976032741367817e-04 5.089324258733540773e-05 6.014429527567699552e-05
1.793000000000000000e+03 5.771229267120361328e+00 -2.649991607666015625e+01 -4.442495119292289019e-04 -5.562671576626598835e-04 -3.001549921464174986e-04 1.129153679357841611e-04
1.794000000000000000e+03 5.391790866851806641e+00 -2.197180747985839844e+01 -4.115838091820478439e-04 -2.754656597971916199e-04 -2.061148406937718391e-04 1.233138173120096326e-04
1.795000000000000000e+03 7.461091518402099609e+00 -1.757630729675292969e+01 5.443018162623047829e-04 -9.593624781700782478e-06 1.604124554432928562e-04 -2.048052010650280863e-05
1.796000000000000000e+03 5.757894515991210938e+00 -1.931114768981933594e+01 -3.977830638177692890e-04 -1.886094396468251944e-04 -1.759177393978461623e-04 -1.651000493438914418e-04
1.797000000000000000e+03 6.669492244720458984e+00 -1.892867279052734375e+01 1.160695683211088181e-04 1.276925322599709034e-04 7.312863453989848495e-05 8.121834980556741357e-05
1.798000000000000000e+03 2.989485025405883789e+00 -2.577562904357910156e+01 8.085391018539667130e-04 5.598701136477757245e-06 2.442413242533802986e-04 2.265800285385921597e-04
1.799000000000000000e+03 5.958877086639404297e+00 -2.503028678894042969e+01 7.314659887924790382e-04 3.692333120852708817e-04 3.302097902633249760e-04 -1.583932607900351286e-04
1.800000000000000000e+03 5.798625946044921875e+00 -2.788824844360351562e+01 7.177031366154551506e-04 3.002681478392332792e-04 3.053913824260234833e-04 4.715961113106459379e-04
1.801000000000000000e+03 2.998457908630371094e+00 1.997944068908691406e+01 3.965935483574867249e-02 -1.439288377761840820e+00 -4.198887050151824951e-01 1.351485103368759155e-01
1.802000000000000000e+03 4.237155914306640625e+00 2.242380523681640625e+01 5.852369219064712524e-02 -1.363316059112548828e+00 -3.914377093315124512e-01 1.070528477430343628e-01
1.803000000000000000e+03 4.772474288940429688e+00 2.526725196838378906e+01 5.386956781148910522e-02 -1.336632609367370605e+00 -3.848288953304290771e-01 5.251618474721908569e-02
1.804000000000000000e+03 4.447390079498291016e+00 2.943964576721191406e+01 1.524419151246547699e-02 -1.386504888534545898e+00 -4.113782048225402832e-01 -9.771700948476791382e-03
1.805000000000000000e+03 4.174666404724121094e+00 1.707938194274902344e+01 7.517547905445098877e-02 -1.215604901313781738e+00 -3.421288132667541504e-01 2.621873319149017334e-01
1.806000000000000000e+03 4.163649559020996094e+00 1.844089889526367188e+01 7.291217148303985596e-02 -1.268605828285217285e+00 -3.587080836296081543e-01 2.197547405958175659e-01
1.807000000000000000e+03 2.995911359786987305e+00 1.862485694885253906e+01 4.139313846826553345e-02 -1.384093761444091797e+00 -4.028101861476898193e-01 1.679947823286056519e-01
1.808000000000000000e+03 4.133174896240234375e+00 1.976029205322265625e+01 7.120257616043090820e-02 -1.313347339630126953e+00 -3.726434409618377686e-01 1.795990318059921265e-01
1.809000000000000000e+03 2.909286737442016602e+00 1.446782112121582031e+01 3.830140084028244019e-02 -1.149973154067993164e+00 -3.335015177726745605e-01 2.642591893672943115e-01
1.810000000000000000e+03 3.950253248214721680e+00 1.287939453125000000e+01 5.922253429889678955e-02 -9.980649948120117188e-01 -2.816527187824249268e-01 3.771382570266723633e-01
1.811000000000000000e+03 4.059991836547851562e+00 1.427593040466308594e+01 7.013695687055587769e-02 -1.080988764762878418e+00 -3.032555580139160156e-01 3.451743721961975098e-01
1.812000000000000000e+03 5.543220996856689453e+00 2.332921600341796875e+01 8.417589217424392700e-02 -1.228029966354370117e+00 -3.431562185287475586e-01 1.019304394721984863e-01
1.813000000000000000e+03 5.494526863098144531e+00 2.642150306701660156e+01 6.135150790214538574e-02 -1.244446873664855957e+00 -3.549285829067230225e-01 3.918433934450149536e-02
1.814000000000000000e+03 4.421964645385742188e+00 2.380767250061035156e+01 5.502788349986076355e-02 -1.366088509559631348e+00 -3.933181762695312500e-01 7.908973097801208496e-02
1.815000000000000000e+03 4.187366485595703125e+00 -1.011785316467285156e+01 2.927770256064832211e-04 1.124071422964334488e-05 9.120532195083796978e-05 8.435898780589923263e-05
1.816000000000000000e+03 4.311161518096923828e+00 -1.439712715148925781e+01 -4.290707584004849195e-04 2.903250242525245994e-05 -1.200114711537025869e-04 -4.580874156090430915e-05
1.817000000000000000e+03 4.961669445037841797e+00 3.197569847106933594e+01 8.594111539423465729e-03 -1.312620401382446289e+00 -3.912078738212585449e-01 -2.810818515717983246e-02
1.818000000000000000e+03 6.396037101745605469e+00 3.601561737060546875e+01 -7.701136637479066849e-03 -1.085720181465148926e+00 -3.280263841152191162e-01 -3.384247794747352600e-02
1.819000000000000000e+03 4.153414726257324219e+00 3.521547317504882812e+01 1.084594242274761200e-02 -1.395108461380004883e+00 -4.152787625789642334e-01 -1.559644378721714020e-02
1.820000000000000000e+03 4.854464054107666016e+00 1.131432533264160156e+01 6.493742763996124268e-02 -8.849674463272094727e-01 -2.460090070962905884e-01 4.761328101158142090e-01
1.821000000000000000e+03 3.625878095626831055e+00 -3.136190795898437500e+01 9.841100545600056648e-04 7.641585398232564330e-05 3.181577485520392656e-04 4.068804264534264803e-04
1.822000000000000000e+03 5.012408733367919922e+00 -2.968169593811035156e+01 1.218088902533054352e-03 -1.069154095603153110e-04 3.333520435262471437e-04 4.692358779720962048e-04
1.823000000000000000e+03 4.221518516540527344e+00 -1.155661201477050781e+01 -3.271549358032643795e-04 2.814911567838862538e-06 -9.730200690682977438e-05 -7.979257497936487198e-05
1.824000000000000000e+03 3.828773021697998047e+00 1.151089382171630859e+01 4.634210467338562012e-02 -9.042600989341735840e-01 -2.573753893375396729e-01 4.020970761775970459e-01
1.825000000000000000e+03 4.960421562194824219e+00 2.782851028442382812e+01 3.756960853934288025e-02 -1.324892044067382812e+00 -3.861967027187347412e-01 9.756121784448623657e-03
1.826000000000000000e+03 5.239121913909912109e+00 3.406849288940429688e+01 4.120165947824716568e-03 -1.235889315605163574e+00 -3.695307374000549316e-01 -3.602946922183036804e-02
1.827000000000000000e+03 4.149320125579833984e+00 3.425229644775390625e+01 1.107492577284574509e-02 -1.409857392311096191e+00 -4.196347296237945557e-01 -1.308957394212484360e-02
1.828000000000000000e+03 5.829629898071289062e+00 3.025762367248535156e+01 2.534741722047328949e-02 -1.206887483596801758e+00 -3.544620275497436523e-01 -2.236334234476089478e-02
1.829000000000000000e+03 5.759094715118408203e+00 -3.491298675537109375e+01 1.143125584349036217e-03 -6.196839967742562294e-04 1.570324820932000875e-04 -1.014151421259157360e-04
1.830000000000000000e+03 5.178559303283691406e+00 -3.121054267883300781e+01 -1.105215284042060375e-03 -1.109857403207570314e-04 -3.648603160399943590e-04 2.668516244739294052e-04
1.831000000000000000e+03 3.663564205169677734e+00 -3.273922729492187500e+01 -1.138840452767908573e-03 3.036892157979309559e-04 -2.505453594494611025e-04 2.609646471682935953e-04
1.832000000000000000e+03 3.697688579559326172e+00 8.855541229248046875e+00 -3.469657618552446365e-03 -6.805942654609680176e-01 -2.052191793918609619e-01 4.207504987716674805e-01
1.833000000000000000e+03 3.839173126220703125e+01 8.956295013427734375e+00 1.738048315048217773e+00 5.448961734771728516e+00 2.156102895736694336e+00 -1.018680453300476074e+00
1.834000000000000000e+03 6.403688430786132812e+00 -3.648748779296875000e+01 -1.158334081992506981e-03 -1.548709115013480186e-03 -8.121129358187317848e-04 8.039138047024607658e-04
1.835000000000000000e+03 7.245795440673828125e+01 -2.017131614685058594e+01 -1.227571249008178711e+00 7.269071578979492188e+00 1.812450051307678223e+00 -5.838435292243957520e-01
1.836000000000000000e+03 6.969223785400390625e+01 3.220105361938476562e+01 -9.085176587104797363e-01 3.992751359939575195e+00 9.252700805664062500e-01 2.747128531336784363e-02
1.837000000000000000e+03 1.561496448516845703e+01 -7.781398773193359375e+00 4.487464684643782675e-05 2.556275649112649262e-05 2.113122172886505723e-05 -4.967847053194418550e-05
1.838000000000000000e+03 4.119614410400390625e+01 3.539320230484008789e+00 9.202221035957336426e-01 5.743124485015869141e+00 1.999003887176513672e+00 -1.734090328216552734e+00
1.839000000000000000e+03 4.177530670166015625e+01 2.213892459869384766e+00 7.974616289138793945e-01 5.422243595123291016e+00 1.865911602973937988e+00 -1.857804298400878906e+00
1.840000000000000000e+03 5.677361679077148438e+01 -2.111604690551757812e+01 1.928029894828796387e+00 7.808948755264282227e-01 8.126774430274963379e-01 7.443618178367614746e-01
1.841000000000000000e+03 7.269885253906250000e+01 -1.088484954833984375e+01 -9.005624800920486450e-03 6.349009037017822266e+00 1.902001023292541504e+00 -2.641143500804901123e-01
1.842000000000000000e+03 7.124172210693359375e+01 -4.019463539123535156e+00 3.926295340061187744e-01 8.797462463378906250e+00 2.757027626037597656e+00 8.368478417396545410e-01
1.843000000000000000e+03 7.164454650878906250e+01 -2.499520063400268555e+00 5.142598152160644531e-01 9.526057243347167969e+00 3.012095212936401367e+00 7.522373795509338379e-01
1.844000000000000000e+03 7.311912536621093750e+01 -6.154269695281982422e+00 9.207186102867126465e-02 7.511491298675537109e+00 2.281069040298461914e+00 -8.427160233259201050e-02
1.845000000000000000e+03 7.076271057128906250e+01 -1.158568382263183594e+01 1.962551921606063843e-01 5.706369400024414062e+00 1.770787358283996582e+00 9.599442034959793091e-02
1.846000000000000000e+03 6.824479103088378906e+00 -2.793764114379882812e+01 2.052976924460381269e-05 -9.297329816035926342e-04 -2.727609535213559866e-04 3.731064498424530029e-04
1.847000000000000000e+03 4.777374267578125000e+01 -1.208249855041503906e+01 -7.558301091194152832e-01 5.645442962646484375e+00 1.466883897781372070e+00 -1.742680788040161133e+00
1.848000000000000000e+03 3.569242477416992188e+01 2.152430915832519531e+01 5.129178762435913086e-01 3.642488479614257812e+00 1.246621966361999512e+00 -5.572537183761596680e-01
1.849000000000000000e+03 3.811935424804687500e+01 1.343895816802978516e+01 1.337636351585388184e+00 5.590304851531982422e+00 2.078382492065429688e+00 -9.028945565223693848e-01
1.850000000000000000e+03 7.131385803222656250e+01 -7.270587444305419922e+00 1.853117942810058594e-01 7.254854679107666016e+00 2.232049942016601562e+00 4.635457694530487061e-01
1.851000000000000000e+03 6.711589813232421875e+01 -3.599271392822265625e+01 -4.369703531265258789e-01 1.017972469329833984e+00 1.743006557226181030e-01 5.054454803466796875e-01
1.852000000000000000e+03 5.026569366455078125e+00 -1.754621887207031250e+01 -1.965977862710133195e-04 3.899235161952674389e-04 5.799772043246775866e-05 -4.823493509320542216e-05
1.853000000000000000e+03 6.946147918701171875e+01 -1.119137287139892578e+01 4.447591006755828857e-01 5.300900936126708984e+00 1.723698019981384277e+00 5.527996420860290527e-01
1.854000000000000000e+03 3.913542556762695312e+01 2.127273941040039062e+01 4.452836513519287109e-01 4.607116699218750000e+00 1.515720129013061523e+00 -2.455124258995056152e-02
1.855000000000000000e+03 3.868832397460937500e+01 1.816171455383300781e+01 6.916639804840087891e-01 5.190649986267089844e+00 1.764694213867187500e+00 -2.597112059593200684e-01
1.856000000000000000e+03 5.507084655761718750e+01 -2.280943298339843750e+01 1.872576832771301270e+00 3.434637308120727539e+00 1.592164158821105957e+00 -9.894647002220153809e-01
1.857000000000000000e+03 4.068145751953125000e+00 -2.318583297729492188e+01 -3.931779065169394016e-04 -2.618700673338025808e-04 -1.965143892448395491e-04 -2.035726720350794494e-05
1.858000000000000000e+03 7.500765228271484375e+01 2.723049736022949219e+01 -3.232033550739288330e-02 8.288318634033203125e+00 2.476799488067626953e+00 8.761401772499084473e-01
1.859000000000000000e+03 7.508580017089843750e+01 4.040440750122070312e+01 5.686179175972938538e-02 8.497831344604492188e+00 2.566408157348632812e+00 2.468669712543487549e-01
1.860000000000000000e+03 4.059416198730468750e+01 2.606557273864746094e+01 5.860604345798492432e-02 3.764159679412841797e+00 1.146829724311828613e+00 2.046623528003692627e-01
1.861000000000000000e+03 4.654340362548828125e+01 -7.071446895599365234e+00 4.521540403366088867e-01 5.040250301361083984e+00 1.647721290588378906e+00 -2.017698049545288086e+00
1.862000000000000000e+03 5.840693664550781250e+01 -2.280858612060546875e+01 1.550331115722656250e+00 9.368978738784790039e-01 7.461687326431274414e-01 1.029143929481506348e+00
1.863000000000000000e+03 6.205112838745117188e+01 -1.691645812988281250e+01 2.315503954887390137e-01 1.551071882247924805e+00 5.347867012023925781e-01 1.516573905944824219e+00
1.864000000000000000e+03 7.291697692871093750e+01 2.677930831909179688e+01 8.574951440095901489e-02 7.422979831695556641e+00 2.252618789672851562e+00 7.249817252159118652e-01
1.865000000000000000e+03 7.276074218750000000e+01 2.845274543762207031e+01 -2.005590200424194336e-01 7.119179248809814453e+00 2.075586080551147461e+00 7.034476399421691895e-01
1.866000000000000000e+03 3.783351135253906250e+01 1.171045780181884766e+01 1.608775019645690918e+00 5.326464176177978516e+00 2.080571889877319336e+00 -9.774786829948425293e-01
1.867000000000000000e+03 3.725317764282226562e+01 1.828727531433105469e+01 7.944887876510620117e-01 4.537621498107910156e+00 1.599632978439331055e+00 -5.192002654075622559e-01
1.868000000000000000e+03 6.864044952392578125e+01 -1.345475578308105469e+01 5.309677124023437500e-01 4.335632801055908203e+00 1.459980130195617676e+00 3.605009019374847412e-01
1.869000000000000000e+03 7.047940826416015625e+01 3.316584014892578125e+01 -9.077140092849731445e-01 4.646981239318847656e+00 1.121780157089233398e+00 1.751368306577205658e-02
1.870000000000000000e+03 7.397996520996093750e+01 -2.727342033386230469e+01 1.310403466224670410e+00 8.702096939086914062e+00 3.003750085830688477e+00 -1.871773451566696167e-01
1.871000000000000000e+03 6.408177947998046875e+01 -1.693481445312500000e+01 4.455418288707733154e-01 1.703477978706359863e+00 6.447059512138366699e-01 1.254821777343750000e+00
1.872000000000000000e+03 7.197058868408203125e+01 -3.320269012451171875e+01 -7.786953449249267578e-01 5.982012271881103516e+00 1.560995101928710938e+00 3.566222786903381348e-01
1.873000000000000000e+03 5.315472412109375000e+01 -2.409798049926757812e+01 7.059634327888488770e-01 6.522490024566650391e+00 2.168535947799682617e+00 -1.913519501686096191e+00
1.874000000000000000e+03 1.541198825836181641e+01 -3.640240478515625000e+01 8.977184770628809929e-04 -5.914171691983938217e-03 -1.504935906268656254e-03 -7.847877219319343567e-03
1.875000000000000000e+03 5.947311401367187500e+01 -1.847410774230957031e+01 -1.403979808092117310e-01 7.841116189956665039e-01 1.931140869855880737e-01 2.193797588348388672e+00
1.876000000000000000e+03 6.107741165161132812e+01 -2.138447189331054688e+01 4.792843461036682129e-01 7.885434627532958984e-01 3.803483247756958008e-01 1.428203821182250977e+00
1.877000000000000000e+03 7.118454742431640625e+01 -3.669776916503906250e+01 -5.807426571846008301e-01 4.558382987976074219e+00 1.193292140960693359e+00 6.061844825744628906e-01
1.878000000000000000e+03 6.967718505859375000e+01 -3.389083480834960938e+01 -7.863662242889404297e-01 3.438129425048828125e+00 7.955289483070373535e-01 1.047407031059265137e+00
1.879000000000000000e+03 1.145494937896728516e+01 -3.530282974243164062e+01 1.040026312693953514e-03 -3.069080878049135208e-03 -6.087163346819579601e-04 -1.946420292370021343e-03
1.880000000000000000e+03 3.812564849853515625e+01 -1.592266082763671875e+01 -1.871644616127014160e+00 -1.636034995317459106e-01 -6.105744242668151855e-01 2.537027895450592041e-01
1.881000000000000000e+03 3.554283142089843750e+01 -1.276575183868408203e+01 -1.062970519065856934e+00 3.130842745304107666e-01 -2.249658703804016113e-01 5.910712480545043945e-01
1.882000000000000000e+03 7.114971160888671875e+01 2.959797286987304688e+01 -4.224880039691925049e-01 5.760733604431152344e+00 1.601473689079284668e+00 4.354885220527648926e-01
1.883000000000000000e+03 7.522119140625000000e+01 2.595534324645996094e+01 6.210118904709815979e-02 8.332993507385253906e+00 2.518528461456298828e+00 8.492312431335449219e-01
1.884000000000000000e+03 6.519436836242675781e+00 -2.217524337768554688e+01 5.941503331996500492e-04 2.141143922926858068e-04 2.424794074613600969e-04 -1.889257546281442046e-04
1.885000000000000000e+03 6.782113647460937500e+01 3.894023513793945312e+01 3.477049618959426880e-02 2.172027587890625000e+00 6.620394587516784668e-01 -1.640743464231491089e-01
1.886000000000000000e+03 8.808176994323730469e+00 -2.998121643066406250e+01 2.190757077187299728e-03 1.259744931303430349e-05 6.610063137486577034e-04 -1.400169821863528341e-05
1.887000000000000000e+03 9.782802581787109375e+00 -3.398381423950195312e+01 -2.323456574231386185e-03 -6.835851818323135376e-04 -9.021125151775777340e-04 -6.353651988320052624e-04
1.888000000000000000e+03 7.034593105316162109e+00 -1.534481334686279297e+01 4.160928656347095966e-04 -1.122851026593707502e-04 9.114232670981436968e-05 2.171747109969146550e-05
1.889000000000000000e+03 5.522393226623535156e+00 -1.839555549621582031e+01 3.210190916433930397e-04 -2.423459227429702878e-04 2.360194775974377990e-05 2.403699472779408097e-04
1.890000000000000000e+03 5.367739486694335938e+01 -2.755013847351074219e+01 4.617751538753509521e-01 7.080210208892822266e+00 2.262595653533935547e+00 -1.069937705993652344e+00
1.891000000000000000e+03 6.372834777832031250e+01 -2.024444389343261719e+01 -3.689566552639007568e-01 9.556720852851867676e-01 1.760146170854568481e-01 1.279758572578430176e+00
1.892000000000000000e+03 6.280752563476562500e+01 -1.791455078125000000e+01 5.483036488294601440e-02 1.429395914077758789e+00 4.452678561210632324e-01 1.618027448654174805e+00
1.893000000000000000e+03 5.294555282592773438e+01 4.112746810913085938e+01 -5.570608377456665039e-01 5.896250605583190918e-01 9.769268333911895752e-03 7.553450763225555420e-02
1.894000000000000000e+03 7.465722656250000000e+01 3.333496475219726562e+01 -4.197551608085632324e-01 7.973564147949218750e+00 2.266142606735229492e+00 3.626739680767059326e-01
1.895000000000000000e+03 6.325864410400390625e+01 4.113188552856445312e+01 2.711154818534851074e-01 -2.029129713773727417e-01 2.046075277030467987e-02 6.704647094011306763e-02
1.896000000000000000e+03 6.798342895507812500e+01 -4.114948654174804688e+01 5.633058547973632812e-01 1.957788109779357910e+00 7.563281655311584473e-01 1.627937406301498413e-01
1.897000000000000000e+03 6.154362106323242188e+01 -4.111142730712890625e+01 4.406512379646301270e-01 1.214416265487670898e+00 4.965202510356903076e-01 -2.679405212402343750e-01
1.898000000000000000e+03 8.319474220275878906e+00 -3.549438476562500000e+01 9.226789115928113461e-04 -1.321018906310200691e-03 -1.195019940496422350e-04 -7.297818083316087723e-04
1.899000000000000000e+03 4.431838226318359375e+01 -3.312545394897460938e+01 -1.413494627922773361e-02 1.923070192337036133e+00 5.726805925369262695e-01 6.561026573181152344e-01
1.900000000000000000e+03 3.888489913940429688e+01 1.971522903442382812e+01 5.699924826622009277e-01 4.874372482299804688e+00 1.633309483528137207e+00 -1.123336106538772583e-01
1.901000000000000000e+03 4.431962966918945312e+01 3.034325981140136719e+01 -2.019190788269042969e-01 2.780591487884521484e+00 7.736017107963562012e-01 4.806511700153350830e-01
1.902000000000000000e+03 4.662937164306640625e+01 -1.858580780029296875e+01 1.106491088867187500e+00 1.208153128623962402e+00 6.943932771682739258e-01 -2.426292896270751953e+00
1.903000000000000000e+03 4.692201614379882812e+01 -2.277042198181152344e+01 9.369325637817382812e-01 2.153667926788330078e+00 9.271801710128784180e-01 1.448584437370300293e+00
1.904000000000000000e+03 4.837550735473632812e+01 -2.236223793029785156e+01 6.232261061668395996e-01 6.362698554992675781e+00 2.095777273178100586e+00 2.725059032440185547e+00
1.905000000000000000e+03 4.802351379394531250e+01 -2.248005485534667969e+01 8.640976548194885254e-01 4.819146156311035156e+00 1.704973220825195312e+00 2.534322023391723633e+00
1.906000000000000000e+03 4.584980392456054688e+01 -2.376079559326171875e+01 6.310764551162719727e-01 1.398665428161621094e+00 6.089225411415100098e-01 7.111539840698242188e-01
1.907000000000000000e+03 4.636023330688476562e+01 -1.832361412048339844e+01 8.480084538459777832e-01 1.364403963088989258e+00 6.637237071990966797e-01 -2.316433906555175781e+00
1.908000000000000000e+03 4.591384887695312500e+01 -2.422411918640136719e+01 5.630525350570678711e-01 1.765866279602050781e+00 6.986756324768066406e-01 8.051211833953857422e-01
1.909000000000000000e+03 4.744821929931640625e+01 -1.839438247680664062e+01 1.926143169403076172e+00 3.159532785415649414e+00 1.525702714920043945e+00 -4.302338600158691406e+00
1.910000000000000000e+03 4.801852035522460938e+01 -1.741077804565429688e+01 1.439864784479141235e-01 6.595820903778076172e+00 2.021942138671875000e+00 -4.898353099822998047e+00
1.911000000000000000e+03 4.843075180053710938e+01 -1.744311714172363281e+01 -3.427532613277435303e-01 8.328162193298339844e+00 2.395622730255126953e+00 -5.020809173583984375e+00
1.912000000000000000e+03 1.304728507995605469e+01 -5.404362201690673828e+00 2.965423118439503014e-05 1.612338237464427948e-04 5.726641757064498961e-05 3.519786696415394545e-05
1.913000000000000000e+03 1.209542655944824219e+01 -5.721741199493408203e+00 -2.225455500592943281e-05 4.767067366628907621e-06 -5.246246473689097911e-06 -6.056781785446219146e-05
1.914000000000000000e+03 1.291066741943359375e+01 -6.176089286804199219e+00 2.428132756904233247e-05 9.727479482535272837e-05 3.646683762781322002e-05 -2.877918268495704979e-05
1.915000000000000000e+03 4.528773117065429688e+01 -2.478579902648925781e+01 4.605981409549713135e-01 1.345050334930419922e+00 5.416945219039916992e-01 5.706196427345275879e-01
1.916000000000000000e+03 1.400519943237304688e+01 -7.181215286254882812e+00 7.337133138207718730e-05 -1.091160229407250881e-04 -1.072340637620072812e-05 5.723680260416585952e-06
1.917000000000000000e+03 1.489179325103759766e+01 -9.259289741516113281e+00 2.128818450728431344e-04 6.497418780782027170e-06 6.581377965630963445e-05 4.122951395402196795e-06
1.918000000000000000e+03 1.576441383361816406e+01 -6.925569534301757812e+00 7.293067028513178229e-05 4.918235572404228151e-05 3.663390816655009985e-05 -1.067957055056467652e-05
1.919000000000000000e+03 1.528857326507568359e+01 -7.279685020446777344e+00 -6.783838034607470036e-05 -5.740416963817551732e-05 -3.757276499527506530e-05 5.544360101339407265e-05
1.920000000000000000e+03 5.142243957519531250e+01 -1.702529716491699219e+01 -1.852076411247253418e+00 8.329777717590332031e+00 1.943310379981994629e+00 -5.396875739097595215e-01
1.921000000000000000e+03 1.072927570343017578e+01 -5.762993812561035156e+00 -8.101559069473296404e-05 3.254453986301086843e-05 -1.454131597711239010e-05 -1.097218555514700711e-04
1.922000000000000000e+03 4.349620819091796875e+01 -1.676736259460449219e+01 -7.789582610130310059e-01 1.478672742843627930e+00 2.099143564701080322e-01 -9.147809743881225586e-01
1.923000000000000000e+03 1.441250610351562500e+01 -6.449341297149658203e+00 -1.471274481446016580e-05 -1.521621743449941278e-04 -5.006247738492675126e-05 8.712540875421836972e-06
1.924000000000000000e+03 5.378089904785156250e+00 4.861504554748535156e+00 -2.302309572696685791e-01 -3.695190250873565674e-01 -1.799249947071075439e-01 4.965746104717254639e-01
1.925000000000000000e+03 4.588452911376953125e+01 -2.477193069458007812e+01 5.134124159812927246e-01 2.004664182662963867e+00 7.554230093955993652e-01 8.228457570075988770e-01
1.926000000000000000e+03 3.925883054733276367e+00 4.132580757141113281e+00 -1.577979028224945068e-01 -2.410911619663238525e-01 -1.196667179465293884e-01 2.964531779289245605e-01
1.927000000000000000e+03 4.701358795166015625e+00 6.386483669281005859e+00 -1.134697943925857544e-01 -4.871586263179779053e-01 -1.801885217428207397e-01 4.839931130409240723e-01
1.928000000000000000e+03 7.644809722900390625e+00 5.542146205902099609e+00 -2.220636755228042603e-01 -6.069629192352294922e-01 -2.487079799175262451e-01 7.382251024246215820e-01
1.929000000000000000e+03 6.131681442260742188e+00 4.986779689788818359e+00 -2.441321909427642822e-01 -4.294272959232330322e-01 -2.020678520202636719e-01 5.747698545455932617e-01
1.930000000000000000e+03 8.091709136962890625e+00 4.845162868499755859e+00 -3.099569380283355713e-01 -5.877471566200256348e-01 -2.693112194538116455e-01 7.611047029495239258e-01
1.931000000000000000e+03 2.878002166748046875e+01 -9.884908676147460938e+00 -1.202595353126525879e+00 -1.206247061491012573e-01 -3.969660401344299316e-01 1.229248762130737305e+00
1.932000000000000000e+03 7.000016689300537109e+00 4.039261341094970703e+00 -3.666157126426696777e-01 -3.946780264377593994e-01 -2.283881157636642456e-01 6.202808022499084473e-01
1.933000000000000000e+03 2.882690238952636719e+01 -1.295047664642333984e+01 -1.195636034011840820e+00 -2.843001186847686768e-01 -4.439808428287506104e-01 1.271140933036804199e+00
1.934000000000000000e+03 3.060978126525878906e+01 -1.266740608215332031e+01 -1.248396158218383789e+00 -1.868985034525394440e-02 -3.801257908344268799e-01 1.189449429512023926e+00
1.935000000000000000e+03 2.920901679992675781e+01 -1.362738037109375000e+01 -1.233929514884948730e+00 -2.544911205768585205e-01 -4.465261995792388916e-01 1.186807274818420410e+00
1.936000000000000000e+03 9.530918121337890625e+00 -4.352499961853027344e+00 -2.630938979564234614e-05 -7.565531632280908525e-06 -1.016247642837697640e-05 1.006912207230925560e-04
1.937000000000000000e+03 9.500687599182128906e+00 -6.379364967346191406e+00 1.475500175729393959e-04 1.270993670914322138e-04 8.239481394411996007e-05 -4.599153544404543936e-05
1.938000000000000000e+03 4.515794372558593750e+01 -2.723040390014648438e+01 1.672486364841461182e-01 1.875040411949157715e+00 6.126866936683654785e-01 5.973225235939025879e-01
1.939000000000000000e+03 5.260675811767578125e+01 -1.929672050476074219e+01 3.547012329101562500e+00 4.790129661560058594e+00 2.501142501831054688e+00 -7.930191755294799805e-01
1.940000000000000000e+03 1.653193283081054688e+01 3.212635278701782227e+00 -3.516537547111511230e-01 -1.308321237564086914e+00 -4.979925155639648438e-01 9.268072247505187988e-01
1.941000000000000000e+03 2.638079261779785156e+01 -8.860275268554687500e+00 -1.362709999084472656e+00 -7.291999459266662598e-01 -6.275730133056640625e-01 1.318266272544860840e+00
1.942000000000000000e+03 7.803038120269775391e+00 -5.293389797210693359e+00 -1.590906031196936965e-04 -3.022524288098793477e-05 -5.679475361830554903e-05 -9.955551649909466505e-05
1.943000000000000000e+03 2.377503967285156250e+01 -4.930479049682617188e+00 -1.396914601325988770e+00 -1.226726531982421875e+00 -7.870923280715942383e-01 1.200782060623168945e+00
1.944000000000000000e+03 5.253155136108398438e+01 -2.063435935974121094e+01 4.340592861175537109e+00 5.393919467926025391e+00 2.920353651046752930e+00 -2.151864051818847656e+00
1.945000000000000000e+03 5.564190292358398438e+01 -1.862825202941894531e+01 8.653679490089416504e-01 -4.222156405448913574e-01 1.329456865787506104e-01 1.143519282341003418e+00
1.946000000000000000e+03 2.650926208496093750e+01 -7.730583190917968750e+00 -1.327550172805786133e+00 -5.932024717330932617e-01 -5.762258172035217285e-01 1.212403416633605957e+00
1.947000000000000000e+03 4.549425888061523438e+01 -2.791111755371093750e+01 1.223475188016891479e-01 2.265978336334228516e+00 7.164977788925170898e-01 6.525018811225891113e-01
1.948000000000000000e+03 7.153680324554443359e+00 -4.391548156738281250e+00 -2.380821824772283435e-04 4.603443449013866484e-05 -5.761432475992478430e-05 -5.169417636352591217e-05
1.949000000000000000e+03 6.259146690368652344e+00 -5.038221836090087891e+00 -3.660798829514533281e-04 1.533047725388314575e-05 -1.052248189807869494e-04 3.452482269494794309e-05
1.950000000000000000e+03 6.472448825836181641e+00 -4.354388713836669922e+00 2.374119067098945379e-04 -6.729181041009724140e-05 5.103602961753495038e-05 -5.606863851426169276e-06
1.951000000000000000e+03 5.083898067474365234e+00 -5.104989051818847656e+00 -9.887842315947636962e-05 -3.023132921953219920e-05 -3.873292735079303384e-05 2.525724084989633411e-05
1.952000000000000000e+03 4.358831405639648438e+01 -1.746559715270996094e+01 -8.881276845932006836e-01 1.220720529556274414e+00 9.977784752845764160e-02 -6.490769386291503906e-01
1.953000000000000000e+03 4.203750228881835938e+01 -1.607965850830078125e+01 -1.164890646934509277e+00 1.256690144538879395e+00 2.753986045718193054e-02 -6.778648495674133301e-01
1.954000000000000000e+03 1.400111770629882812e+01 2.957889556884765625e+00 -6.265777349472045898e-01 -1.202758312225341797e+00 -5.488008260726928711e-01 1.039262413978576660e+00
1.955000000000000000e+03 3.106715774536132812e+01 -1.351869392395019531e+01 -1.368265986442565918e+00 -1.131294295191764832e-02 -4.138736724853515625e-01 1.145565271377563477e+00
1.956000000000000000e+03 2.523126792907714844e+01 -5.799448966979980469e+00 -1.319034576416015625e+00 -8.358235955238342285e-01 -6.464574337005615234e-01 1.123783946037292480e+00
1.957000000000000000e+03 5.019839859008789062e+01 -2.205132484436035156e+01 6.276739835739135742e-01 1.234840774536132812e+01 3.892824411392211914e+00 -1.957569718360900879e+00
1.958000000000000000e+03 2.693419075012207031e+01 -8.388999938964843750e+00 -1.312342882156372070e+00 -5.047073960304260254e-01 -5.451150536537170410e-01 1.238829731941223145e+00
1.959000000000000000e+03 1.927254486083984375e+01 1.646370738744735718e-01 -8.931611180305480957e-01 -1.466158151626586914e+00 -7.077957987785339355e-01 1.042144060134887695e+00
1.960000000000000000e+03 2.260738372802734375e+01 -2.782733201980590820e+00 -1.190860152244567871e+00 -1.270113706588745117e+00 -7.382921576499938965e-01 1.052354335784912109e+00
1.961000000000000000e+03 1.863290786743164062e+01 6.780376434326171875e-01 -8.296613693237304688e-01 -1.459721446037292480e+00 -6.868148446083068848e-01 1.037218213081359863e+00
1.962000000000000000e+03 1.987670326232910156e+01 -3.456123769283294678e-01 -9.552441835403442383e-01 -1.463423013687133789e+00 -7.256001234054565430e-01 1.047998666763305664e+00
1.963000000000000000e+03 2.820991134643554688e+01 -1.040055561065673828e+01 -1.242598176002502441e+00 -2.825397253036499023e-01 -4.575413465499877930e-01 1.298094749450683594e+00
1.964000000000000000e+03 2.735799789428710938e+01 -9.053492546081542969e+00 -1.292885661125183105e+00 -4.252161681652069092e-01 -5.154305696487426758e-01 1.265158057212829590e+00
1.965000000000000000e+03 4.504573822021484375e+01 -1.780758857727050781e+01 -1.392810493707656860e-01 1.297762513160705566e+00 3.475444316864013672e-01 -1.307049751281738281e+00
1.966000000000000000e+03 4.278546142578125000e+01 -1.604108047485351562e+01 -9.292789101600646973e-01 1.500665783882141113e+00 1.714160740375518799e-01 -9.216857552528381348e-01
1.967000000000000000e+03 1.404132461547851562e+01 3.985054969787597656e+00 -3.663336038589477539e-01 -1.191362977027893066e+00 -4.673089683055877686e-01 9.778823256492614746e-01
1.968000000000000000e+03 4.983023834228515625e+01 -1.357185554504394531e+01 -2.121320009231567383e+00 6.939036369323730469e+00 1.445315003395080566e+00 -1.151814222335815430e+00
1.969000000000000000e+03 2.608246421813964844e+01 -7.080778598785400391e+00 -1.333923697471618652e+00 -6.760229468345642090e-01 -6.029840111732482910e-01 1.182728767395019531e+00
1.970000000000000000e+03 2.565569496154785156e+01 -6.438577651977539062e+00 -1.330821633338928223e+00 -7.624667286872863770e-01 -6.279864907264709473e-01 1.154439330101013184e+00
1.971000000000000000e+03 1.460846614837646484e+01 3.537328004837036133e+00 -4.271399974822998047e-01 -1.230954408645629883e+00 -4.974282979965209961e-01 9.938798546791076660e-01
1.972000000000000000e+03 2.399315071105957031e+01 -3.811400651931762695e+00 -1.187262177467346191e+00 -1.001038670539855957e+00 -6.564902663230895996e-01 1.013679504394531250e+00
1.973000000000000000e+03 2.361668777465820312e+01 -3.110987901687622070e+00 -1.099899649620056152e+00 -1.026380896568298340e+00 -6.378841400146484375e-01 9.647180438041687012e-01
1.974000000000000000e+03 1.001580619812011719e+01 5.447983741760253906e+00 -2.199010998010635376e-01 -8.246513009071350098e-01 -3.133657276630401611e-01 8.804647326469421387e-01
1.975000000000000000e+03 2.107789802551269531e+01 -1.292865037918090820e+00 -1.039133429527282715e+00 -1.405676007270812988e+00 -7.334428429603576660e-01 1.021585583686828613e+00
1.976000000000000000e+03 2.046539688110351562e+01 -8.379566669464111328e-01 -1.024300575256347656e+00 -1.439195394515991211e+00 -7.390487790107727051e-01 1.043896436691284180e+00
1.977000000000000000e+03 4.837780761718750000e+01 -1.312946224212646484e+01 -1.346116423606872559e+00 6.291805744171142578e+00 1.483706831932067871e+00 -1.675073623657226562e+00
1.978000000000000000e+03 1.592015743255615234e+01 2.635870695114135742e+00 -5.633088350296020508e-01 -1.325202345848083496e+00 -5.665533542633056641e-01 1.013330101966857910e+00
1.979000000000000000e+03 1.525526428222656250e+01 3.091598749160766602e+00 -4.949900805950164795e-01 -1.278601765632629395e+00 -5.320775508880615234e-01 1.002294301986694336e+00
1.980000000000000000e+03 4.920255279541015625e+01 -1.459547519683837891e+01 -2.342691421508789062e+00 7.419206619262695312e+00 1.522954583168029785e+00 -1.871170163154602051e+00
1.981000000000000000e+03 5.221771240234375000e+01 -2.107626152038574219e+01 4.426201820373535156e+00 6.623538494110107422e+00 3.314922094345092773e+00 -3.095965147018432617e+00
1.982000000000000000e+03 5.173012542724609375e+01 -2.226823425292968750e+01 1.826442241668701172e+00 8.456267356872558594e+00 3.084812879562377930e+00 -3.007759332656860352e+00
1.983000000000000000e+03 3.260947036743164062e+01 -1.323844909667968750e+01 -1.339139699935913086e+00 1.067851483821868896e-01 -3.697063922882080078e-01 1.054204225540161133e+00
1.984000000000000000e+03 2.949269294738769531e+01 -1.245962619781494141e+01 -1.219952344894409180e+00 -1.599596589803695679e-01 -4.139736294746398926e-01 1.253073215484619141e+00
1.985000000000000000e+03 4.535842895507812500e+01 -2.913239479064941406e+01 1.143553033471107483e-01 2.231385707855224609e+00 7.037223577499389648e-01 6.318727731704711914e-01
1.986000000000000000e+03 4.063917922973632812e+01 -1.719683837890625000e+01 -1.902269840240478516e+00 4.562623202800750732e-01 -4.338022768497467041e-01 -8.617416024208068848e-02
1.987000000000000000e+03 1.247221469879150391e+01 4.858766078948974609e+00 -2.478374242782592773e-01 -1.053919315338134766e+00 -3.905270397663116455e-01 9.499933719635009766e-01
1.988000000000000000e+03 7.612275695800781250e+01 -2.224108886718750000e+01 -4.485366865992546082e-02 7.561662673950195312e+00 2.255042552947998047e+00 6.266489028930664062e-01
1.989000000000000000e+03 1.281734848022460938e+01 -7.769813060760498047e+00 -7.478084626200143248e-06 -1.425499503966420889e-04 -4.500840805121697485e-05 2.670291178219486028e-05
1.990000000000000000e+03 1.129459381103515625e+01 -1.142071723937988281e+01 1.130214222939684987e-04 2.523526200093328953e-04 1.096122141461819410e-04 -8.770697604632005095e-06
1.991000000000000000e+03 4.500465011596679688e+01 -3.174105834960937500e+01 5.947076901793479919e-02 2.069120168685913086e+00 6.385772824287414551e-01 7.099622488021850586e-01
1.992000000000000000e+03 8.765848159790039062e+00 5.296791553497314453e+00 -2.581801116466522217e-01 -6.888675093650817871e-01 -2.841143012046813965e-01 8.172846436500549316e-01
1.993000000000000000e+03 3.838259887695312500e+01 3.726121425628662109e+00 9.673321843147277832e-01 4.574813842773437500e+00 1.662643790245056152e+00 -9.589608311653137207e-01
1.994000000000000000e+03 3.925092697143554688e+01 7.522134304046630859e+00 1.595813751220703125e+00 5.890331745147705078e+00 2.245843648910522461e+00 -1.112189769744873047e+00
1.995000000000000000e+03 4.447580337524414062e+01 -2.481312036514282227e+00 5.817109346389770508e-01 4.947649002075195312e+00 1.658807873725891113e+00 -2.153490781784057617e+00
1.996000000000000000e+03 4.244150543212890625e+01 -3.412778139114379883e+00 3.943801224231719971e-01 4.259657382965087891e+00 1.396211266517639160e+00 -1.707160949707031250e+00
1.997000000000000000e+03 4.473155975341796875e+01 -2.571948051452636719e+01 2.809106409549713135e-01 1.247220754623413086e+00 4.584394097328186035e-01 4.831897318363189697e-01
1.998000000000000000e+03 4.133822250366210938e+01 -1.698567008972167969e+01 -1.665399312973022461e+00 7.946013808250427246e-01 -2.612393796443939209e-01 -2.369342744350433350e-01
1.999000000000000000e+03 3.532880783081054688e+01 -1.374309635162353516e+01 -1.276712536811828613e+00 1.134073883295059204e-01 -3.489915430545806885e-01 7.088785171508789062e-01
2.000000000000000000e+03 3.446714019775390625e+01 -1.399328899383544922e+01 -1.459133982658386230e+00 6.655802577733993530e-02 -4.177727997303009033e-01 8.953166604042053223e-01
2.001000000000000000e+03 1.170954608917236328e+01 -1.065210247039794922e+01 -1.412199490005150437e-04 -2.313126315129920840e-04 -1.117597712436690927e-04 -9.606465937395114452e-06
2.002000000000000000e+03 2.649928808212280273e+00 6.313177108764648438e+00 -4.955329746007919312e-02 -4.014649391174316406e-01 -1.353054791688919067e-01 2.848455011844635010e-01
2.003000000000000000e+03 1.626251411437988281e+01 -1.038087177276611328e+01 -1.059083115251269192e-05 -6.241952360142022371e-05 -2.190310624428093433e-05 -6.652171578025445342e-05
2.004000000000000000e+03 4.399266815185546875e+01 -4.084289550781250000e+00 4.566750824451446533e-01 4.564291954040527344e+00 1.506290078163146973e+00 -1.958797931671142578e+00
2.005000000000000000e+03 3.630211257934570312e+01 1.225118923187255859e+01 1.554256796836853027e+00 4.356748580932617188e+00 1.773301601409912109e+00 -9.060534834861755371e-01
2.006000000000000000e+03 3.669535827636718750e+01 1.375013542175292969e+01 1.399085998535156250e+00 4.646512031555175781e+00 1.813679456710815430e+00 -8.917211294174194336e-01
2.007000000000000000e+03 4.145986557006835938e+01 -3.827129602432250977e+00 3.117540180683135986e-01 3.903288841247558594e+00 1.264512777328491211e+00 -1.467533707618713379e+00
2.008000000000000000e+03 4.051092529296875000e+01 1.769885897636413574e+00 6.892839670181274414e-01 4.982978343963623047e+00 1.701678752899169922e+00 -1.490929484367370605e+00
2.009000000000000000e+03 4.389663314819335938e+01 -1.331322908401489258e+00 6.202052235603332520e-01 5.030920982360839844e+00 1.695337772369384766e+00 -2.123255968093872070e+00
2.010000000000000000e+03 4.501404953002929688e+01 -6.336106777191162109e+00 3.884517848491668701e-01 4.557264804840087891e+00 1.483714938163757324e+00 -1.937093377113342285e+00
2.011000000000000000e+03 6.583096313476562500e+01 -1.673267745971679688e+01 5.355631113052368164e-01 2.107908010482788086e+00 7.930413484573364258e-01 7.219781279563903809e-01
2.012000000000000000e+03 7.354078674316406250e+01 1.753377914428710938e+01 8.185817301273345947e-02 8.449725151062011719e+00 2.559474945068359375e+00 6.293853521347045898e-01
2.013000000000000000e+03 7.469662475585937500e+01 2.053211021423339844e+01 8.801229298114776611e-02 8.329957008361816406e+00 2.525390625000000000e+00 6.624575257301330566e-01
2.014000000000000000e+03 5.343246841430664062e+01 -1.756059837341308594e+01 -4.546755850315093994e-01 2.796846628189086914e+00 7.026513218879699707e-01 -1.631141081452369690e-02
2.015000000000000000e+03 5.253541564941406250e+01 -1.848297882080078125e+01 1.845183372497558594e+00 4.857318878173828125e+00 2.010750770568847656e+00 -2.711659371852874756e-01
2.016000000000000000e+03 3.919652938842773438e+01 -1.570912265777587891e+01 -1.624092578887939453e+00 1.280908882617950439e-01 -4.488005042076110840e-01 -7.804132997989654541e-02
2.017000000000000000e+03 3.703104400634765625e+01 -1.494710731506347656e+01 -1.564816236495971680e+00 -6.449053436517715454e-02 -4.887920320034027100e-01 4.501118361949920654e-01
2.018000000000000000e+03 4.546384048461914062e+01 -9.771839141845703125e+00 -6.348271667957305908e-02 4.376312255859375000e+00 1.293848872184753418e+00 -1.760497331619262695e+00
2.019000000000000000e+03 6.895287322998046875e+01 -1.239801502227783203e+01 5.285409092903137207e-01 4.714203357696533203e+00 1.572823286056518555e+00 4.679022729396820068e-01
2.020000000000000000e+03 6.642599487304687500e+01 -1.519757080078125000e+01 7.707594633102416992e-01 2.803707361221313477e+00 1.072340011596679688e+00 6.539764404296875000e-01
2.021000000000000000e+03 8.888808250427246094e+00 -1.253045558929443359e+01 1.111316596507094800e-04 2.000704989768564701e-05 3.934161213692277670e-05 9.887436317512765527e-05
2.022000000000000000e+03 9.272147178649902344e+00 -1.365544700622558594e+01 -1.845319929998368025e-04 6.277228385442867875e-05 -3.652791201602667570e-05 -1.380508911097422242e-04
2.023000000000000000e+03 6.015925216674804688e+01 -1.941805267333984375e+01 1.854497194290161133e-01 8.875023722648620605e-01 3.218856453895568848e-01 2.010873317718505859e+00
2.024000000000000000e+03 6.067008590698242188e+01 -2.038982963562011719e+01 3.946618437767028809e-01 8.888989686965942383e-01 3.850682377815246582e-01 1.779576182365417480e+00
2.025000000000000000e+03 7.483643341064453125e+01 2.850728607177734375e+01 -9.774740040302276611e-02 8.245816230773925781e+00 2.444420576095581055e+00 8.016434907913208008e-01
2.026000000000000000e+03 7.505497741699218750e+01 3.156816101074218750e+01 -3.497489988803863525e-01 8.311573028564453125e+00 2.388547182083129883e+00 6.008777618408203125e-01
2.027000000000000000e+03 4.161529922485351562e+01 2.128511369228363037e-01 5.976138710975646973e-01 4.880695819854736328e+00 1.643492937088012695e+00 -1.710029006004333496e+00
2.028000000000000000e+03 7.601064300537109375e+01 2.229132461547851562e+01 9.583704173564910889e-02 8.432430267333984375e+00 2.558480262756347656e+00 6.849638223648071289e-01
2.029000000000000000e+03 3.996166610717773438e+01 6.162587642669677734e+00 1.351550459861755371e+00 6.003854751586914062e+00 2.206621408462524414e+00 -1.340326309204101562e+00
2.030000000000000000e+03 4.066435241699218750e+01 5.975716710090637207e-01 6.038823723793029785e-01 4.721265316009521484e+00 1.597544312477111816e+00 -1.514762520790100098e+00
2.031000000000000000e+03 7.606729125976562500e+01 2.746100807189941406e+01 -1.519206538796424866e-02 8.763721466064453125e+00 2.624558925628662109e+00 7.909497618675231934e-01
2.032000000000000000e+03 7.340801239013671875e+01 9.859634399414062500e+00 -2.436366528272628784e-01 9.210205078125000000e+00 2.689970493316650391e+00 7.558233737945556641e-01
2.033000000000000000e+03 7.569269561767578125e+01 3.920325040817260742e+00 3.746788203716278076e-01 7.575716972351074219e+00 2.385118722915649414e+00 5.334878563880920410e-01
2.034000000000000000e+03 7.627758789062500000e+01 2.367239952087402344e+01 9.057900309562683105e-02 8.521874427795410156e+00 2.583735942840576172e+00 7.203940749168395996e-01
2.035000000000000000e+03 7.477332305908203125e+01 -2.096812248229980469e+01 -5.616971850395202637e-01 7.677821636199951172e+00 2.134837150573730469e+00 4.479979276657104492e-01
2.036000000000000000e+03 7.442404937744140625e+01 -1.392151832580566406e+01 -2.409642487764358521e-01 6.486131668090820312e+00 1.873550295829772949e+00 -5.102789998054504395e-01
2.037000000000000000e+03 7.559203338623046875e+01 -1.260961914062500000e+01 -1.311959624290466309e-01 6.660882472991943359e+00 1.958905935287475586e+00 -5.038483142852783203e-01
2.038000000000000000e+03 7.603365325927734375e+01 1.224816322326660156e+01 -1.312829554080963135e-01 7.913737773895263672e+00 2.334736347198486328e+00 6.695928573608398438e-01
2.039000000000000000e+03 7.588732147216796875e+01 1.776545906066894531e+01 4.472680389881134033e-02 8.179975509643554688e+00 2.467410564422607422e+00 6.075798273086547852e-01
2.040000000000000000e+03 7.369418334960937500e+01 7.844263553619384766e+00 1.496972590684890747e-01 9.246797561645507812e+00 2.818948268890380859e+00 8.445315361022949219e-01
2.041000000000000000e+03 7.455546569824218750e+01 -7.507807731628417969e+00 1.039832644164562225e-02 6.967488765716552734e+00 2.093366146087646484e+00 -4.269795715808868408e-01
2.042000000000000000e+03 7.575354003906250000e+01 -6.057277202606201172e+00 1.515724882483482361e-02 6.776245117187500000e+00 2.037420749664306641e+00 -5.130106210708618164e-01
2.043000000000000000e+03 7.427073669433593750e+01 1.058050060272216797e+01 -2.198495715856552124e-01 8.690052986145019531e+00 2.541061162948608398e+00 8.229087591171264648e-01
2.044000000000000000e+03 7.446950531005859375e+01 3.743120193481445312e+00 5.644609332084655762e-01 8.580509185791015625e+00 2.743490934371948242e+00 6.002742648124694824e-01
2.045000000000000000e+03 7.322783660888671875e+01 5.936958193778991699e-01 8.076501488685607910e-01 9.344013214111328125e+00 3.045499086380004883e+00 3.663880228996276855e-01
2.046000000000000000e+03 7.571489715576171875e+01 -3.395076036453247070e+00 2.038388848304748535e-01 7.022499084472656250e+00 2.167901515960693359e+00 -4.242395460605621338e-01
2.047000000000000000e+03 7.358147430419921875e+01 -4.633582592010498047e+00 1.767216771841049194e-01 7.807446956634521484e+00 2.395250558853149414e+00 -1.649161577224731445e-01
2.048000000000000000e+03 7.588523101806640625e+01 1.921714973449707031e+01 5.334165319800376892e-02 8.274873733520507812e+00 2.498464584350585938e+00 6.113224029541015625e-01
2.049000000000000000e+03 7.569064331054687500e+01 -9.932074546813964844e+00 -5.777391046285629272e-02 6.632400035858154297e+00 1.972387909889221191e+00 -5.484411716461181641e-01
2.050000000000000000e+03 7.312702178955078125e+01 -9.528191566467285156e+00 -4.445433733053505421e-04 6.680155754089355469e+00 2.003913402557373047e+00 -2.647020220756530762e-01
2.051000000000000000e+03 7.588100433349609375e+01 -1.687865638732910156e+01 -3.966985940933227539e-01 7.005341529846191406e+00 1.982592821121215820e+00 -1.873229295015335083e-01
2.052000000000000000e+03 7.006104278564453125e+01 -1.923986434936523438e+01 -7.871643900871276855e-01 4.116272449493408203e+00 9.987323880195617676e-01 -1.391682982444763184e+00
2.053000000000000000e+03 7.336383056640625000e+01 -1.930189704895019531e+01 -9.328054785728454590e-01 7.057393550872802734e+00 1.837376356124877930e+00 -4.180862605571746826e-01
2.054000000000000000e+03 7.508887481689453125e+01 -1.918016624450683594e+01 -6.369497776031494141e-01 7.284908771514892578e+00 1.994387745857238770e+00 9.658781439065933228e-02
2.055000000000000000e+03 7.433123779296875000e+01 -8.018928766250610352e-01 5.476382374763488770e-01 8.178889274597167969e+00 2.617958307266235352e+00 -2.073668874800205231e-02
2.056000000000000000e+03 7.447586822509765625e+01 2.227604866027832031e+00 6.285781860351562500e-01 8.444974899291992188e+00 2.722065925598144531e+00 3.784948885440826416e-01
2.057000000000000000e+03 7.330804443359375000e+01 2.075421571731567383e+00 7.718189358711242676e-01 9.581639289855957031e+00 3.106037616729736328e+00 5.509205460548400879e-01
2.058000000000000000e+03 7.384329223632812500e+01 1.173479270935058594e+01 -3.108568191528320312e-01 8.880624771118164062e+00 2.570930480957031250e+00 6.675528883934020996e-01
2.059000000000000000e+03 7.472375488281250000e+01 1.480572700500488281e+01 -6.076670065522193909e-02 8.340829849243164062e+00 2.484019041061401367e+00 5.749596357345581055e-01
2.060000000000000000e+03 7.479195404052734375e+01 1.340783309936523438e+01 -1.480208039283752441e-01 8.365908622741699219e+00 2.465366363525390625e+00 6.509236097335815430e-01
2.061000000000000000e+03 7.309523773193359375e+01 -9.411412477493286133e-01 6.669266223907470703e-01 9.090190887451171875e+00 2.927135229110717773e+00 2.412274479866027832e-01
2.062000000000000000e+03 7.190652465820312500e+01 -9.772005081176757812e-01 7.363178133964538574e-01 1.008698463439941406e+01 3.246990680694580078e+00 6.347967386245727539e-01
2.063000000000000000e+03 7.386036682128906250e+01 2.849669837951660156e+01 -1.648958921432495117e-01 7.656763076782226562e+00 2.247560262680053711e+00 8.310891985893249512e-01
2.064000000000000000e+03 7.363633728027343750e+01 -8.235971450805664062e+00 4.650969931390136480e-04 6.930250644683837891e+00 2.079214811325073242e+00 -2.968080341815948486e-01
2.065000000000000000e+03 7.450975799560546875e+01 -1.574235725402832031e+01 -4.227228164672851562e-01 6.649513721466064453e+00 1.868037343025207520e+00 -4.489618539810180664e-01
2.066000000000000000e+03 7.362111663818359375e+01 -1.619680976867675781e+01 -5.399014949798583984e-01 6.408770561218261719e+00 1.760660648345947266e+00 -5.660870075225830078e-01
2.067000000000000000e+03 4.780500030517578125e+01 -1.124164485931396484e+01 -4.476812779903411865e-01 5.568569660186767578e+00 1.536266565322875977e+00 -1.725745439529418945e+00
2.068000000000000000e+03 7.478949737548828125e+01 -2.995129203796386719e+01 3.101382553577423096e-01 7.956327438354492188e+00 2.479939699172973633e+00 -8.976981639862060547e-01
2.069000000000000000e+03 7.360556793212890625e+01 -3.392667388916015625e+01 -7.238205075263977051e-01 6.743933200836181641e+00 1.806033849716186523e+00 -2.519899606704711914e-01
2.070000000000000000e+03 7.596327972412109375e+01 -3.259543609619140625e+01 -3.374803364276885986e-01 7.568418502807617188e+00 2.169281482696533203e+00 -8.149021267890930176e-01
2.071000000000000000e+03 7.083973693847656250e+01 -2.009038734436035156e+01 -1.001763582229614258e+00 5.111119747161865234e+00 1.232806921005249023e+00 -1.571608185768127441e+00
2.072000000000000000e+03 7.410512542724609375e+01 -2.012459945678710938e+01 -8.558149933815002441e-01 7.597376823425292969e+00 2.022468566894531250e+00 -7.929306477308273315e-03
2.073000000000000000e+03 3.713162231445312500e+01 1.675954627990722656e+01 9.596816301345825195e-01 4.714063644409179688e+00 1.702123641967773438e+00 -6.435423493385314941e-01
2.074000000000000000e+03 3.695503997802734375e+01 1.525853538513183594e+01 1.170265436172485352e+00 4.750025749206542969e+00 1.776087284088134766e+00 -8.014358282089233398e-01
2.075000000000000000e+03 7.285820007324218750e+00 3.132564353942871094e+01 3.488209098577499390e-02 -1.004730343818664551e+00 -2.909545004367828369e-01 -2.254212833940982819e-02
2.076000000000000000e+03 7.408031463623046875e+01 -3.515841293334960938e+01 -6.822609901428222656e-01 6.839451313018798828e+00 1.847157120704650879e+00 -1.915144473314285278e-01
2.077000000000000000e+03 5.472392559051513672e+00 -1.287671661376953125e+01 -3.535953292157500982e-04 2.897099329857155681e-05 -9.738730295794084668e-05 -8.917782542994245887e-05
2.078000000000000000e+03 5.362298011779785156e+00 -1.003779029846191406e+01 -2.903326821979135275e-04 -9.702623174234759063e-06 -9.001059515867382288e-05 -8.254116255557164550e-05
2.079000000000000000e+03 5.895269393920898438e+00 2.456314659118652344e+01 8.759252727031707764e-02 -1.176815509796142578e+00 -3.267669081687927246e-01 6.781600415706634521e-02
2.080000000000000000e+03 5.997828006744384766e+00 -1.686834335327148438e+01 3.640358627308160067e-04 -1.744101464282721281e-04 5.688771489076316357e-05 8.701955812284722924e-05
2.081000000000000000e+03 4.824340820312500000e+00 -1.911820030212402344e+01 1.479686179663985968e-04 3.987619711551815271e-04 1.640191767364740372e-04 -2.574328973423689604e-04
2.082000000000000000e+03 4.881804943084716797e+00 -2.466458892822265625e+01 -1.874453446362167597e-04 -4.783506155945360661e-04 -1.997387880692258477e-04 1.555502531118690968e-04
2.083000000000000000e+03 3.940247297286987305e+00 -2.441284942626953125e+01 5.401070811785757542e-04 1.629541802685707808e-04 2.109183697029948235e-04 2.699838660191744566e-04
2.084000000000000000e+03 5.343541145324707031e+00 1.831228065490722656e+01 1.106496676802635193e-01 -1.171335458755493164e+00 -3.182057142257690430e-01 2.609715163707733154e-01
2.085000000000000000e+03 5.371502876281738281e+00 1.694255447387695312e+01 1.184960454702377319e-01 -1.130119204521179199e+00 -3.034869432449340820e-01 3.102292418479919434e-01
2.086000000000000000e+03 6.356457710266113281e+00 2.566690826416015625e+01 7.428973913192749023e-02 -1.139221072196960449e+00 -3.194793760776519775e-01 4.176337271928787231e-02
2.087000000000000000e+03 5.216933250427246094e+00 1.407359695434570312e+01 1.065396964550018311e-01 -1.027077317237854004e+00 -2.761613130569458008e-01 4.122994542121887207e-01
2.088000000000000000e+03 4.264228820800781250e+00 -1.298295307159423828e+01 3.652161394711583853e-04 -1.769169102772139013e-05 1.042573348968289793e-04 7.425202056765556335e-05
2.089000000000000000e+03 6.827263832092285156e+00 -1.409105014801025391e+01 -3.575692826416343451e-04 6.425894389394670725e-05 -8.799310307949781418e-05 -6.324471178231760859e-05
2.090000000000000000e+03 4.650213718414306641e+00 -2.818967056274414062e+01 -6.431741639971733093e-04 -1.713715901132673025e-04 -2.443637349642813206e-04 -1.604401477379724383e-04
2.091000000000000000e+03 4.371443748474121094e+00 3.326775741577148438e+01 7.179006468504667282e-03 -1.374103426933288574e+00 -4.100773334503173828e-01 -2.597531303763389587e-02
2.092000000000000000e+03 5.317094802856445312e+00 2.207695770263671875e+01 8.873987197875976562e-02 -1.242964267730712891e+00 -3.462673127651214600e-01 1.332963407039642334e-01
2.093000000000000000e+03 5.204936504364013672e+00 2.083266639709472656e+01 9.757885336875915527e-02 -1.231625318527221680e+00 -3.402139544486999512e-01 1.677975505590438843e-01
2.094000000000000000e+03 5.173828601837158203e+00 -3.370393371582031250e+01 -1.665800693444907665e-03 2.402789978077635169e-04 -4.276565159671008587e-04 2.982255828101187944e-04
2.095000000000000000e+03 7.194052696228027344e+00 -3.398167037963867188e+01 -1.457085250876843929e-03 -4.647773166652768850e-04 -5.765587557107210159e-04 -1.583113407832570374e-05
2.096000000000000000e+03 6.560080528259277344e+00 2.681073379516601562e+01 7.392393797636032104e-02 -1.101995229721069336e+00 -3.084214031696319580e-01 2.328714355826377869e-02
2.097000000000000000e+03 3.736198902130126953e+00 1.016682720184326172e+01 2.163653448224067688e-02 -7.955824136734008789e-01 -2.321837544441223145e-01 4.197536110877990723e-01
2.098000000000000000e+03 4.726923465728759766e+00 1.002650833129882812e+01 3.726175054907798767e-02 -8.011635541915893555e-01 -2.291705459356307983e-01 4.970403909683227539e-01
2.099000000000000000e+03 5.684413909912109375e+00 -1.562845611572265625e+01 -3.772950731217861176e-04 2.630813833093270659e-05 -1.052960797096602619e-04 -2.905463952629361302e-05
2.100000000000000000e+03 6.665178775787353516e+00 -1.278694343566894531e+01 3.532567934598773718e-04 -4.878215622738935053e-05 9.134239371633157134e-05 7.983609248185530305e-05
2.101000000000000000e+03 4.744612693786621094e+00 8.762832641601562500e+00 -9.005978703498840332e-03 -6.976284384727478027e-01 -2.119903117418289185e-01 5.126544237136840820e-01
2.102000000000000000e+03 3.680217504501342773e+00 7.574180126190185547e+00 -3.754334896802902222e-02 -5.698713660240173340e-01 -1.822244077920913696e-01 4.144532978534698486e-01
2.103000000000000000e+03 4.190508842468261719e+00 -7.112058162689208984e+00 1.795960997696965933e-04 5.162587694940157235e-05 6.936659337952733040e-05 8.158718992490321398e-05
2.104000000000000000e+03 5.400550842285156250e+00 -7.128745555877685547e+00 -2.616101410239934921e-04 -5.732809222536161542e-05 -9.568147652316838503e-05 -4.485548925003968179e-05
2.105000000000000000e+03 4.444707870483398438e+01 -7.824666500091552734e+00 2.052846103906631470e-01 4.162192821502685547e+00 1.310243248939514160e+00 -1.763027429580688477e+00
2.106000000000000000e+03 5.342326164245605469e+00 -8.602525711059570312e+00 2.762503281701356173e-04 2.918850805144757032e-05 9.163164941128343344e-05 7.289745553862303495e-05
2.107000000000000000e+03 6.572129249572753906e+00 -7.282269001007080078e+00 1.686414907453581691e-04 8.491553307976573706e-05 7.606710278196260333e-05 1.041236318997107446e-04
2.108000000000000000e+03 7.234019470214843750e+01 9.295100212097167969e+00 -2.240664362907409668e-01 9.693016052246093750e+00 2.840684890747070312e+00 7.044643759727478027e-01
2.109000000000000000e+03 4.737907791137695312e+01 -9.249679565429687500e+00 1.782857179641723633e-01 5.256976604461669922e+00 1.630578756332397461e+00 -1.852240324020385742e+00
2.110000000000000000e+03 4.690010833740234375e+01 -1.197849750518798828e+01 -6.324762105941772461e-01 5.146870136260986328e+00 1.354318261146545410e+00 -1.851923346519470215e+00
2.111000000000000000e+03 1.462749671936035156e+01 -7.893527507781982422e+00 -1.767019130056723952e-04 4.205335699225543067e-06 -5.174897160031832755e-05 1.497564953751862049e-04
2.112000000000000000e+03 5.839268112182617188e+01 -1.927676200866699219e+01 3.943829834461212158e-01 3.738693594932556152e-01 2.304757088422775269e-01 2.115250110626220703e+00
2.113000000000000000e+03 6.331513977050781250e+01 -1.602016067504882812e+01 7.513137459754943848e-01 1.718818545341491699e+00 7.410396933555603027e-01 1.365917325019836426e+00
2.114000000000000000e+03 6.141149902343750000e+01 -1.869797325134277344e+01 -4.300870373845100403e-02 1.202298164367675781e+00 3.477868437767028809e-01 1.923233270645141602e+00
2.115000000000000000e+03 7.255635833740234375e+01 -7.675508975982666016e+00 7.201720774173736572e-02 7.102138519287109375e+00 2.152246713638305664e+00 -2.282619476318359375e-02
2.116000000000000000e+03 6.338067245483398438e+01 -1.905424499511718750e+01 -9.462776780128479004e-02 1.251248478889465332e+00 3.469862043857574463e-01 1.566547155380249023e+00
2.117000000000000000e+03 7.536624908447265625e+01 -2.726646232604980469e+01 8.987101912498474121e-01 7.802676677703857422e+00 2.610415935516357422e+00 -4.070092141628265381e-01
2.118000000000000000e+03 7.300060272216796875e+01 -1.299171066284179688e+01 -1.326630264520645142e-01 6.148504734039306641e+00 1.804752469062805176e+00 -4.625810384750366211e-01
2.119000000000000000e+03 6.628475952148437500e+01 -1.852269554138183594e+01 9.584011882543563843e-02 1.438319683074951172e+00 4.602479338645935059e-01 5.325747728347778320e-01
2.120000000000000000e+03 4.107730484008789062e+01 2.248426818847656250e+01 3.983685076236724854e-01 4.647567272186279297e+00 1.513780832290649414e+00 4.925087690353393555e-01
2.121000000000000000e+03 7.190495300292968750e+01 -5.809524536132812500e+00 1.977036893367767334e-01 7.781707763671875000e+00 2.393823385238647461e+00 3.512458801269531250e-01
2.122000000000000000e+03 7.443281555175781250e+01 -6.234616279602050781e+00 4.819683358073234558e-02 7.141652584075927734e+00 2.156954765319824219e+00 -4.068759679794311523e-01
2.123000000000000000e+03 7.218571472167968750e+01 1.978571653366088867e+00 8.846121430397033691e-01 1.084193038940429688e+01 3.517962694168090820e+00 7.749553918838500977e-01
2.124000000000000000e+03 7.357546997070312500e+01 1.314243602752685547e+01 -2.171418070793151855e-01 8.741875648498535156e+00 2.557420015335083008e+00 5.108899474143981934e-01
2.125000000000000000e+03 7.290078735351562500e+01 1.106789875030517578e+01 -3.522427976131439209e-01 9.212044715881347656e+00 2.657940387725830078e+00 6.198064684867858887e-01
2.126000000000000000e+03 7.320391845703125000e+01 2.374307823181152344e+01 2.226550132036209106e-01 7.952014446258544922e+00 2.452400684356689453e+00 6.244956254959106445e-01
2.127000000000000000e+03 3.878685379028320312e+01 2.680763626098632812e+01 -6.900700926780700684e-02 3.523422002792358398e+00 1.036324501037597656e+00 -1.118737533688545227e-01
2.128000000000000000e+03 7.119220733642578125e+01 3.873368072509765625e+01 -9.161407500505447388e-02 5.095989227294921875e+00 1.501312613487243652e+00 -1.383126378059387207e-01
2.129000000000000000e+03 7.065260314941406250e+01 3.656624984741210938e+01 -4.373772144317626953e-01 4.652510643005371094e+00 1.264539957046508789e+00 -1.614948213100433350e-01
2.130000000000000000e+03 4.648955917358398438e+01 -2.674907875061035156e+01 1.638473868370056152e-01 2.950362920761108398e+00 9.342631101608276367e-01 7.619591355323791504e-01
2.131000000000000000e+03 6.870793914794921875e+01 -3.870244979858398438e+01 2.146932929754257202e-01 2.483272314071655273e+00 8.093897104263305664e-01 4.839898347854614258e-01
2.132000000000000000e+03 9.562004089355468750e+00 -3.134993934631347656e+01 -1.517616910859942436e-03 -3.715892671607434750e-04 -5.667618825100362301e-04 -1.584219135111197829e-04
2.133000000000000000e+03 5.520607376098632812e+01 -2.124131202697753906e+01 2.517986536026000977e+00 1.940726757049560547e+00 1.337613940238952637e+00 -5.337845087051391602e-01
2.134000000000000000e+03 5.594387817382812500e+01 -2.201214027404785156e+01 2.092872619628906250e+00 2.053329229354858398e+00 1.243860602378845215e+00 -7.841364294290542603e-02
2.135000000000000000e+03 7.313696289062500000e+01 2.520485305786132812e+01 1.797196120023727417e-01 7.732682704925537109e+00 2.373720645904541016e+00 6.588044166564941406e-01
2.136000000000000000e+03 6.960102844238281250e+01 -1.376826763153076172e+01 3.072217106819152832e-01 4.667775630950927734e+00 1.492499232292175293e+00 -1.602323353290557861e-02
2.137000000000000000e+03 3.871196365356445312e+01 -1.370828533172607422e+01 -9.493997693061828613e-01 6.311875581741333008e-01 -9.546367824077606201e-02 -1.905346363782882690e-01
2.138000000000000000e+03 6.455979919433593750e+01 -1.506520366668701172e+01 1.047087550163269043e+00 2.195786714553833008e+00 9.728623032569885254e-01 1.199985742568969727e+00
2.139000000000000000e+03 6.397817134857177734e+00 -1.792271232604980469e+01 -3.181734064128249884e-04 7.867145541240461171e-06 -9.309188317274674773e-05 -8.322507346747443080e-05
2.140000000000000000e+03 5.271693801879882812e+01 -2.155134582519531250e+01 3.238268613815307617e+00 5.936290264129638672e+00 2.752367734909057617e+00 -2.768083095550537109e+00
2.141000000000000000e+03 5.564133453369140625e+01 -2.365401840209960938e+01 1.466432213783264160e+00 3.577702283859252930e+00 1.513240337371826172e+00 -4.412575364112854004e-01
2.142000000000000000e+03 6.299513816833496094e+00 -3.846359252929687500e+01 -3.240358200855553150e-04 -5.942622083239257336e-04 -2.754894085228443146e-04 1.149380696006119251e-04
2.143000000000000000e+03 1.255948162078857422e+01 -3.702608489990234375e+01 -7.531395531259477139e-04 -4.990761633962392807e-03 -1.723170280456542969e-03 -2.094355877488851547e-03
2.144000000000000000e+03 7.438693237304687500e+01 2.959432411193847656e+01 -2.712620496749877930e-01 7.956304550170898438e+00 2.305512666702270508e+00 7.762687802314758301e-01
2.145000000000000000e+03 3.793616485595703125e+01 3.148389625549316406e+01 -5.213647484779357910e-01 2.983718156814575195e+00 7.387060523033142090e-01 -1.876737028360366821e-01
2.146000000000000000e+03 4.135649871826171875e+01 2.983138465881347656e+01 -3.367098867893218994e-01 3.179104089736938477e+00 8.527182936668395996e-01 1.609025299549102783e-01
2.147000000000000000e+03 4.469092941284179688e+01 3.467644882202148438e+01 -6.613973975181579590e-01 2.412046194076538086e+00 5.251946449279785156e-01 2.554028928279876709e-01
2.148000000000000000e+03 7.291137695312500000e+01 -2.568448066711425781e+00 4.407384991645812988e-01 8.687366485595703125e+00 2.738431453704833984e+00 1.406197100877761841e-01
2.149000000000000000e+03 4.234251785278320312e+01 -3.441775512695312500e+01 -6.536958366632461548e-02 1.086502790451049805e+00 3.063399493694305420e-01 5.286353230476379395e-01
2.150000000000000000e+03 3.717344665527343750e+01 1.010182571411132812e+01 1.719909787178039551e+00 4.834909915924072266e+00 1.966445922851562500e+00 -9.323129653930664062e-01
2.151000000000000000e+03 3.571957015991210938e+01 1.083735561370849609e+01 1.634207606315612793e+00 3.991831541061401367e+00 1.687811732292175293e+00 -8.493372201919555664e-01
2.152000000000000000e+03 4.652379989624023438e+01 4.066873931884765625e+01 -8.411446213722229004e-01 1.859718322753906250e+00 3.055720925331115723e-01 6.868057698011398315e-02
2.153000000000000000e+03 4.968956756591796875e+01 3.583760833740234375e+01 -5.183404088020324707e-01 1.256759166717529297e+00 2.215256392955780029e-01 2.520698606967926025e-01
2.154000000000000000e+03 7.162191772460937500e+01 3.200428390502929688e+01 -7.598229646682739258e-01 5.761999130249023438e+00 1.500652909278869629e+00 3.405976593494415283e-01
2.155000000000000000e+03 7.219264221191406250e+01 3.519062042236328125e+01 -5.781154036521911621e-01 6.003072261810302734e+00 1.627486944198608398e+00 8.205372095108032227e-02
2.156000000000000000e+03 7.369647979736328125e+01 3.097399330139160156e+01 -4.636720716953277588e-01 7.470852851867675781e+00 2.102154254913330078e+00 6.096723675727844238e-01
2.157000000000000000e+03 4.974064636230468750e+01 -2.208712196350097656e+01 -3.937874734401702881e-01 1.309411525726318359e+01 3.810098409652709961e+00 -1.911102235317230225e-01
2.158000000000000000e+03 4.766069030761718750e+01 -2.328951072692871094e+01 5.388378500938415527e-01 4.236085414886474609e+00 1.432476997375488281e+00 1.862336516380310059e+00
2.159000000000000000e+03 4.870932006835937500e+01 -2.252442169189453125e+01 1.670331656932830811e-01 8.041517257690429688e+00 2.462565183639526367e+00 2.377767801284790039e+00
2.160000000000000000e+03 4.732025909423828125e+01 -2.302883720397949219e+01 8.489315509796142578e-01 3.220502853393554688e+00 1.220830321311950684e+00 1.846287608146667480e+00
2.161000000000000000e+03 4.909931945800781250e+01 -2.401820945739746094e+01 -5.171119570732116699e-01 7.355620384216308594e+00 2.051552534103393555e+00 9.444832205772399902e-01
2.162000000000000000e+03 4.730074691772460938e+01 -1.806846427917480469e+01 1.342540383338928223e+00 3.442081451416015625e+00 1.435386538505554199e+00 -4.129014492034912109e+00
2.163000000000000000e+03 4.692789840698242188e+01 -1.747580146789550781e+01 6.540802717208862305e-01 3.476531028747558594e+00 1.239183306694030762e+00 -3.669550180435180664e+00
2.164000000000000000e+03 4.761714935302734375e+01 -1.795896720886230469e+01 1.280933380126953125e+00 4.520537376403808594e+00 1.740441203117370605e+00 -4.761865139007568359e+00
2.165000000000000000e+03 5.464296340942382812e+01 -2.437400817871093750e+01 8.823699951171875000e-01 5.112740039825439453e+00 1.798533082008361816e+00 -1.148540616035461426e+00
2.166000000000000000e+03 5.080018997192382812e+01 -2.231247901916503906e+01 9.199655055999755859e-01 1.074893665313720703e+01 3.500670671463012695e+00 -2.538309335708618164e+00
2.167000000000000000e+03 4.640509033203125000e+01 -2.415233039855957031e+01 5.936644673347473145e-01 2.338526725769042969e+00 8.796573877334594727e-01 1.076335668563842773e+00
2.168000000000000000e+03 1.065972328186035156e+01 -1.015749073028564453e+01 2.344150707358494401e-04 1.451128628104925156e-04 1.138583829742856324e-04 7.088887650752440095e-05
2.169000000000000000e+03 1.317767620086669922e+01 -1.045366573333740234e+01 -1.651425991440191865e-04 -1.662893337197601795e-04 -9.942958422470837831e-05 6.186954124132171273e-05
2.170000000000000000e+03 2.152069664001464844e+01 6.046116948127746582e-01 -5.153552293777465820e-01 -1.098410844802856445e+00 -4.841298162937164307e-01 7.356448173522949219e-01
2.171000000000000000e+03 4.910530471801757812e+01 -1.666110801696777344e+01 -2.052544593811035156e+00 9.286666870117187500e+00 2.170236825942993164e+00 -3.346199750900268555e+00
2.172000000000000000e+03 4.802815246582031250e+01 -1.694817352294921875e+01 -5.265702009201049805e-01 6.789881229400634766e+00 1.878993272781372070e+00 -4.424476623535156250e+00
2.173000000000000000e+03 1.225826644897460938e+01 -6.366082668304443359e+00 4.270732915756525472e-06 -5.328400948201306164e-05 -1.470398274250328541e-05 4.425740189617499709e-05
2.174000000000000000e+03 4.539021301269531250e+01 -2.553095436096191406e+01 3.465902805328369141e-01 1.718470215797424316e+00 6.195181608200073242e-01 6.472349762916564941e-01
2.175000000000000000e+03 5.002056503295898438e+01 -1.700883483886718750e+01 -2.112064599990844727e+00 1.043294620513916016e+01 2.496264457702636719e+00 -2.083769559860229492e+00
2.176000000000000000e+03 8.606971740722656250e+00 -1.152142810821533203e+01 -1.407253193974611349e-06 -1.013015498756431043e-04 -3.081264003412798047e-05 -1.137948856921866536e-04
2.177000000000000000e+03 4.709782600402832031e+00 7.537850379943847656e+00 -4.798485711216926575e-02 -6.009956002235412598e-01 -1.946941316127777100e-01 5.029667615890502930e-01
2.178000000000000000e+03 4.609478378295898438e+01 -2.751130485534667969e+01 1.369855403900146484e-01 2.669755935668945312e+00 8.420224785804748535e-01 6.941496729850769043e-01
2.179000000000000000e+03 5.072576522827148438e+01 -1.703187370300292969e+01 -2.175922155380249023e+00 9.749289512634277344e+00 2.272010326385498047e+00 -1.112211227416992188e+00
2.180000000000000000e+03 5.050436973571777344e+00 5.520606517791748047e+00 -1.642648428678512573e-01 -4.238997101783752441e-01 -1.764493584632873535e-01 4.860231578350067139e-01
2.181000000000000000e+03 6.472652435302734375e+00 6.045250892639160156e+00 -1.609952598810195923e-01 -5.643861293792724609e-01 -2.176144272089004517e-01 6.464124917984008789e-01
2.182000000000000000e+03 9.485918045043945312e+00 4.707077503204345703e+00 -3.321163654327392578e-01 -7.309151291847229004e-01 -3.189094662666320801e-01 8.654625415802001953e-01
2.183000000000000000e+03 4.895426940917968750e+01 -1.378092098236083984e+01 -1.869372844696044922e+00 6.854369163513183594e+00 1.495498895645141602e+00 -1.634645462036132812e+00
2.184000000000000000e+03 4.928467559814453125e+01 -1.535642242431640625e+01 -2.484918594360351562e+00 8.111779212951660156e+00 1.688058257102966309e+00 -2.187859296798706055e+00
2.185000000000000000e+03 3.014391517639160156e+01 -1.193224716186523438e+01 -1.211320519447326660e+00 -2.541578188538551331e-02 -3.710208833217620850e-01 1.219735622406005859e+00
2.186000000000000000e+03 7.362835407257080078e+00 4.560389518737792969e+00 -3.319117128849029541e-01 -4.794619381427764893e-01 -2.434120923280715942e-01 6.890413165092468262e-01
2.187000000000000000e+03 5.787551403045654297e+00 5.764168262481689453e+00 -1.695248335599899292e-01 -4.991759955883026123e-01 -2.006102502346038818e-01 5.725751519203186035e-01
2.188000000000000000e+03 2.968180847167968750e+01 -1.123827362060546875e+01 -1.188445806503295898e+00 -5.065053701400756836e-02 -3.717288970947265625e-01 1.234723448753356934e+00
2.189000000000000000e+03 2.922669410705566406e+01 -1.055751419067382812e+01 -1.193614721298217773e+00 -7.705231755971908569e-02 -3.812001049518585205e-01 1.239750146865844727e+00
2.190000000000000000e+03 6.916004657745361328e+00 5.263907909393310547e+00 -2.491120249032974243e-01 -5.178591012954711914e-01 -2.300913333892822266e-01 6.679276823997497559e-01
2.191000000000000000e+03 4.956320953369140625e+01 -2.347543907165527344e+01 -6.710495352745056152e-01 8.703863143920898438e+00 2.409843921661376953e+00 4.441814422607421875e-01
2.192000000000000000e+03 4.689983749389648438e+01 -2.417334175109863281e+01 4.942504465579986572e-01 3.060441493988037109e+00 1.066407561302185059e+00 1.284488320350646973e+00
2.193000000000000000e+03 2.749112510681152344e+01 -7.903016090393066406e+00 -1.240871906280517578e+00 -3.027388751506805420e-01 -4.630832672119140625e-01 1.153020501136779785e+00
2.194000000000000000e+03 2.778294944763183594e+01 -9.723880767822265625e+00 -1.266167402267456055e+00 -3.481920361518859863e-01 -4.843078255653381348e-01 1.283898234367370605e+00
2.195000000000000000e+03 3.022477722167968750e+01 -1.389722156524658203e+01 -1.361023545265197754e+00 -1.212458536028862000e-01 -4.446808099746704102e-01 1.132778882980346680e+00
2.196000000000000000e+03 3.307074737548828125e+01 -1.227969169616699219e+01 -1.133437991142272949e+00 2.440937608480453491e-01 -2.668032646179199219e-01 9.610239863395690918e-01
2.197000000000000000e+03 7.681247234344482422e+00 -6.199875831604003906e+00 1.044061064021661878e-04 9.205856622429564595e-05 5.893940397072583437e-05 1.097116182791069150e-04
2.198000000000000000e+03 7.639383792877197266e+00 -7.180537223815917969e+00 1.621011324459686875e-05 -9.882458834908902645e-05 -2.478434180375188589e-05 -7.259217818500474095e-05
2.199000000000000000e+03 1.144785594940185547e+01 -5.744688510894775391e+00 6.488992221420630813e-05 -1.077270735549973324e-05 1.623516436666250229e-05 7.688647019676864147e-05
2.200000000000000000e+03 6.969462394714355469e+00 -5.225482463836669922e+00 2.950457856059074402e-04 -1.700019674899522215e-05 8.341368084074929357e-05 1.067594421328976750e-04
2.201000000000000000e+03 6.721391201019287109e+00 -6.148671627044677734e+00 -2.400107332505285740e-04 -5.810108632431365550e-05 -8.943354623625054955e-05 -1.436502934666350484e-04
2.202000000000000000e+03 5.752625942230224609e+00 -5.874285221099853516e+00 3.596343158278614283e-04 3.197245314368046820e-05 1.174820281448774040e-04 2.024903005803935230e-05
2.203000000000000000e+03 1.728604698181152344e+01 1.690774559974670410e+00 -6.931690573692321777e-01 -1.410591006278991699e+00 -6.311280131340026855e-01 1.027564048767089844e+00
2.204000000000000000e+03 1.719231986999511719e+01 3.793816089630126953e+00 -1.639358699321746826e-01 -1.263473272323608398e+00 -4.282227456569671631e-01 8.366112709045410156e-01
2.205000000000000000e+03 1.785008621215820312e+01 2.212835550308227539e+00 -4.887309670448303223e-01 -1.356924772262573242e+00 -5.536966919898986816e-01 9.275197386741638184e-01
2.206000000000000000e+03 2.665196800231933594e+01 -6.609810829162597656e+00 -1.234944462776184082e+00 -4.509943723678588867e-01 -5.057816505432128906e-01 1.082015395164489746e+00
2.207000000000000000e+03 2.503067398071289062e+01 -4.062764644622802734e+00 -1.100213408470153809e+00 -7.123064994812011719e-01 -5.437559485435485840e-01 9.269952774047851562e-01
2.208000000000000000e+03 1.617834472656250000e+01 -8.979375839233398438e+00 1.410367403877899051e-04 -5.133803142598480918e-07 4.215700755594298244e-05 -9.264955588150769472e-05
2.209000000000000000e+03 2.230508613586425781e+01 -2.143244504928588867e+00 -1.065023422241210938e+00 -1.236559033393859863e+00 -6.904747486114501953e-01 9.924938678741455078e-01
2.210000000000000000e+03 1.718953895568847656e+01 2.718710184097290039e+00 -4.199611842632293701e-01 -1.337507247924804688e+00 -5.272405147552490234e-01 9.295532703399658203e-01
2.211000000000000000e+03 2.140050506591796875e+01 -7.761309146881103516e-01 -8.876774311065673828e-01 -1.302947044372558594e+00 -6.571873426437377930e-01 9.152348637580871582e-01
2.212000000000000000e+03 8.664083480834960938e+00 -6.194592952728271484e+00 -1.097336353268474340e-04 -8.043827983783558011e-05 -5.705157673219218850e-05 -4.801428440259769559e-05
2.213000000000000000e+03 8.188909530639648438e+00 5.883358478546142578e+00 -1.891893744468688965e-01 -6.755380630493164062e-01 -2.594182491302490234e-01 7.740120291709899902e-01
2.214000000000000000e+03 2.834260368347167969e+01 -9.218255043029785156e+00 -1.219267487525939941e+00 -1.723188310861587524e-01 -4.174758791923522949e-01 1.211325407028198242e+00
2.215000000000000000e+03 1.422853660583496094e+01 -7.599213600158691406e+00 8.948000322561711073e-05 6.799286347813904285e-05 4.724186146631836891e-05 -1.609526370884850621e-04
2.216000000000000000e+03 1.509664916992187500e+01 -8.533720970153808594e+00 -1.727404305711388588e-04 4.020139022031798959e-05 -3.976171501562930644e-05 -1.982156754820607603e-05
2.217000000000000000e+03 4.208173370361328125e+01 -1.693657302856445312e+01 -1.369295001029968262e+00 1.005073904991149902e+00 -1.092663258314132690e-01 -4.166645407676696777e-01
2.218000000000000000e+03 2.989667892456054688e+01 -8.780269622802734375e+00 -1.056690692901611328e+00 2.008299827575683594e-01 -2.567582130432128906e-01 1.043871402740478516e+00
2.219000000000000000e+03 4.410987091064453125e+01 -1.671074867248535156e+01 -5.593270659446716309e-01 1.755430579185485840e+00 3.588310480117797852e-01 -1.257046103477478027e+00
2.220000000000000000e+03 4.281574249267578125e+01 -1.519967937469482422e+01 -8.039700984954833984e-01 1.838055133819580078e+00 3.102255463600158691e-01 -1.124588727951049805e+00
2.221000000000000000e+03 2.582431983947753906e+01 -5.346595764160156250e+00 -1.192700624465942383e+00 -5.966590046882629395e-01 -5.368078947067260742e-01 1.007640719413757324e+00
2.222000000000000000e+03 1.249286460876464844e+01 -7.053481578826904297e+00 4.904316028842004016e-06 8.041590626817196608e-05 2.559606582508422434e-05 -8.481883924105204642e-07
2.223000000000000000e+03 1.543065166473388672e+01 -1.033441352844238281e+01 1.636289671296253800e-04 2.183039396186359227e-05 5.563780723605304956e-05 4.453989458852447569e-05
2.224000000000000000e+03 4.584626388549804688e+01 -2.690392112731933594e+01 1.839770376682281494e-01 2.442547559738159180e+00 7.879573702812194824e-01 7.059297561645507812e-01
2.225000000000000000e+03 1.850849533081054688e+01 1.691456317901611328e+00 -5.522741079330444336e-01 -1.371796965599060059e+00 -5.772213339805603027e-01 9.240820407867431641e-01
2.226000000000000000e+03 1.916101455688476562e+01 1.161713957786560059e+00 -6.213091015815734863e-01 -1.371536135673522949e+00 -5.978536009788513184e-01 9.274681806564331055e-01
2.227000000000000000e+03 2.465962409973144531e+01 -3.374372482299804688e+00 -1.019809842109680176e+00 -7.458747625350952148e-01 -5.297053456306457520e-01 8.818251490592956543e-01
2.228000000000000000e+03 1.452112960815429688e+01 4.579500675201416016e+00 -1.862411499023437500e-01 -1.197149276733398438e+00 -4.150171279907226562e-01 9.233528971672058105e-01
2.229000000000000000e+03 3.129101562500000000e+01 -1.202121257781982422e+01 -1.197831392288208008e+00 1.037531942129135132e-01 -3.282234668731689453e-01 1.134345889091491699e+00
2.230000000000000000e+03 1.521440410614013672e+01 4.168376922607421875e+00 -2.310387790203094482e-01 -1.230097413063049316e+00 -4.383408427238464355e-01 9.228889942169189453e-01
2.231000000000000000e+03 5.414544296264648438e+01 -1.890945625305175781e+01 2.002229452133178711e+00 1.779864311218261719e+00 1.134628176689147949e+00 -8.801215142011642456e-02
2.232000000000000000e+03 5.348907470703125000e+01 -2.015006256103515625e+01 3.440817832946777344e+00 3.350509881973266602e+00 2.037398338317871094e+00 -1.136779189109802246e+00
2.233000000000000000e+03 4.647245407104492188e+01 -2.799548339843750000e+01 1.312274634838104248e-01 3.009076595306396484e+00 9.420912265777587891e-01 6.647926568984985352e-01
2.234000000000000000e+03 8.622368812561035156e+00 -7.740552425384521484e+00 -1.509597786935046315e-04 2.925469016190618277e-05 -3.651152655947953463e-05 -4.208277459838427603e-05
2.235000000000000000e+03 1.318142795562744141e+01 -6.795677185058593750e+00 2.205340388172771782e-05 -1.091057929443195462e-04 -2.611571653687860817e-05 -2.615083303680876270e-06
2.236000000000000000e+03 1.084737491607666016e+01 4.898306369781494141e+00 -2.902028262615203857e-01 -9.001725912094116211e-01 -3.571126163005828857e-01 9.264904856681823730e-01
2.237000000000000000e+03 1.373347663879394531e+01 4.569251537322998047e+00 -2.267730981111526489e-01 -1.153504610061645508e+00 -4.140833020210266113e-01 9.468864798545837402e-01
2.238000000000000000e+03 4.596886062622070312e+01 -2.850578689575195312e+01 9.550484269857406616e-02 2.597096681594848633e+00 8.077804446220397949e-01 6.931633353233337402e-01
2.239000000000000000e+03 5.412517070770263672e+00 -1.146247577667236328e+01 3.178651095367968082e-04 -8.634697223897092044e-07 9.510049130767583847e-05 9.092613618122413754e-05
2.240000000000000000e+03 4.451535415649414062e+01 -5.212129592895507812e+00 4.361738562583923340e-01 4.540299892425537109e+00 1.492942094802856445e+00 -1.958845973014831543e+00
2.241000000000000000e+03 4.549767303466796875e+01 -7.432588577270507812e+00 3.215546011924743652e-01 4.620942115783691406e+00 1.482749104499816895e+00 -1.904825687408447266e+00
2.242000000000000000e+03 4.687233734130859375e+01 -1.123390102386474609e+01 -4.217793941497802734e-01 5.082215785980224609e+00 1.398130893707275391e+00 -1.786033749580383301e+00
2.243000000000000000e+03 7.071100616455078125e+01 -1.566161727905273438e+01 -1.209950074553489685e-01 4.866754531860351562e+00 1.423727750778198242e+00 -6.389369368553161621e-01
2.244000000000000000e+03 4.123510360717773438e+01 -1.617938232421875000e+01 -1.367076277732849121e+00 8.987390995025634766e-01 -1.405011564493179321e-01 -4.741165637969970703e-01
2.245000000000000000e+03 4.298168945312500000e+01 -4.502065658569335938e+00 3.693605065345764160e-01 4.200634956359863281e+00 1.370998620986938477e+00 -1.743213772773742676e+00
2.246000000000000000e+03 5.385804367065429688e+01 -2.139519309997558594e+01 3.044546604156494141e+00 3.883343458175659180e+00 2.078366994857788086e+00 -1.749022841453552246e+00
2.247000000000000000e+03 4.083461761474609375e+01 -3.749512434005737305e-01 5.122594237327575684e-01 4.478734970092773438e+00 1.497298240661621094e+00 -1.502352237701416016e+00
2.248000000000000000e+03 1.421133613586425781e+01 -1.098852729797363281e+01 2.260593901155516505e-04 6.854637467768043280e-05 8.838173380354419351e-05 -5.592335946857929230e-05
2.249000000000000000e+03 1.454204463958740234e+01 -1.008227252960205078e+01 -2.298583858646452427e-04 -2.629986738611478359e-05 -7.684747833991423249e-05 9.836136086960323155e-06
2.250000000000000000e+03 1.564509677886962891e+01 -9.516250610351562500e+00 -1.879013725556433201e-04 -4.912378790322691202e-05 -7.110754813766106963e-05 -1.129898350882285740e-06
2.251000000000000000e+03 4.375364685058593750e+01 -3.066859817504882812e+01 3.336891159415245056e-02 1.349924921989440918e+00 4.149881601333618164e-01 5.160496234893798828e-01
2.252000000000000000e+03 1.224803924560546875e+01 5.787941455841064453e+00 -1.015594601631164551e-01 -1.035224556922912598e+00 -3.410351872444152832e-01 9.132934212684631348e-01
2.253000000000000000e+03 1.129116916656494141e+01 5.854872703552246094e+00 -1.381840556859970093e-01 -9.671896100044250488e-01 -3.316121101379394531e-01 9.117708206176757812e-01
2.254000000000000000e+03 4.199325561523437500e+01 -4.875458717346191406e+00 2.872335314750671387e-01 3.821248769760131836e+00 1.232544660568237305e+00 -1.522311210632324219e+00
2.255000000000000000e+03 4.019421386718750000e+01 -1.544100475311279297e+01 -1.394489407539367676e+00 6.120522022247314453e-01 -2.347311526536941528e-01 -4.151352345943450928e-01
2.256000000000000000e+03 3.905134963989257812e+01 -1.460644817352294922e+01 -1.198048591613769531e+00 4.563797116279602051e-01 -2.225006520748138428e-01 -1.916025578975677490e-01
2.257000000000000000e+03 3.804475021362304688e+01 -1.487914276123046875e+01 -1.413589000701904297e+00 7.373517006635665894e-02 -4.019561707973480225e-01 1.628778427839279175e-01
2.258000000000000000e+03 3.711097717285156250e+01 -1.395408344268798828e+01 -1.177792310714721680e+00 1.900988072156906128e-01 -2.963080704212188721e-01 3.174777328968048096e-01
2.259000000000000000e+03 5.666164398193359375e+01 -1.938156509399414062e+01 1.208948135375976562e+00 -3.115211725234985352e-01 2.692280709743499756e-01 1.521124720573425293e+00
2.260000000000000000e+03 3.927476882934570312e+01 1.451770424842834473e+00 6.537768244743347168e-01 4.425274372100830078e+00 1.523715376853942871e+00 -1.154533386230468750e+00
2.261000000000000000e+03 3.084798049926757812e+01 -1.002671909332275391e+01 -1.057314634323120117e+00 2.377978116273880005e-01 -2.458550482988357544e-01 1.060570836067199707e+00
2.262000000000000000e+03 3.343339157104492188e+01 -1.339407634735107422e+01 -1.343979239463806152e+00 1.147883385419845581e-01 -3.687572777271270752e-01 9.908213615417480469e-01
2.263000000000000000e+03 4.133240127563476562e+01 -1.319234013557434082e+00 4.733571410179138184e-01 4.413500308990478516e+00 1.466057181358337402e+00 -1.564219474792480469e+00
2.264000000000000000e+03 4.229589843750000000e+01 -7.828652858734130859e-01 5.459228157997131348e-01 4.849408149719238281e+00 1.618599295616149902e+00 -1.834532380104064941e+00
2.265000000000000000e+03 5.230090332031250000e+01 -2.439330291748046875e+01 5.638534575700759888e-02 7.326141357421875000e+00 2.214757919311523438e+00 -1.748393654823303223e+00
2.266000000000000000e+03 5.317716217041015625e+01 -2.657236671447753906e+01 -6.086184456944465637e-02 6.807033061981201172e+00 2.023851394653320312e+00 -1.308777451515197754e+00
2.267000000000000000e+03 5.187120437622070312e+01 -2.926725006103515625e+01 7.275617718696594238e-01 5.929259300231933594e+00 1.997046232223510742e+00 -5.525594949722290039e-01
2.268000000000000000e+03 5.261048507690429688e+01 -2.799953079223632812e+01 2.727995216846466064e-01 6.752657413482666016e+00 2.107637166976928711e+00 -1.111683249473571777e+00
2.269000000000000000e+03 8.362187385559082031e+00 -3.261715698242187500e+01 7.301846635527908802e-04 -7.280046120285987854e-04 6.540266781485115644e-07 3.098100714851170778e-04
2.270000000000000000e+03 4.797187042236328125e+01 -1.486130428314208984e+01 -1.652432441711425781e+00 6.598304748535156250e+00 1.483761668205261230e+00 -2.662315368652343750e+00
2.271000000000000000e+03 3.729250335693359375e+01 7.848922252655029297e+00 1.578533172607421875e+00 4.598556995391845703e+00 1.853127121925354004e+00 -8.422635793685913086e-01
2.272000000000000000e+03 3.948667526245117188e+01 4.290894031524658203e+00 1.037188887596130371e+00 5.250769615173339844e+00 1.886387467384338379e+00 -1.230059266090393066e+00
2.273000000000000000e+03 4.583824157714843750e+01 -1.057585620880126953e+01 -2.335962802171707153e-01 4.536142349243164062e+00 1.290763735771179199e+00 -1.781240344047546387e+00
2.274000000000000000e+03 6.150743484497070312e+00 -3.293051147460937500e+01 4.095155163668096066e-04 -5.303598591126501560e-04 -3.625329554779455066e-05 9.189164265990257263e-04
2.275000000000000000e+03 4.059916305541992188e+01 4.844161510467529297e+00 1.118098139762878418e+00 5.906927108764648438e+00 2.107507705688476562e+00 -1.519206762313842773e+00
2.276000000000000000e+03 6.730870819091796875e+01 -1.718691253662109375e+01 3.384208083152770996e-01 2.348361730575561523e+00 8.060347437858581543e-01 9.240678697824478149e-02
2.277000000000000000e+03 6.764615631103515625e+01 -1.468614578247070312e+01 6.502867341041564941e-01 3.384185552597045898e+00 1.210341691970825195e+00 3.723691105842590332e-01
2.278000000000000000e+03 7.566024780273437500e+01 -2.891189765930175781e+01 5.027025938034057617e-01 7.757649421691894531e+00 2.478105545043945312e+00 -7.551942467689514160e-01
2.279000000000000000e+03 4.670236206054687500e+01 -1.039183139801025391e+01 -1.824050247669219971e-01 4.959271907806396484e+00 1.433060050010681152e+00 -1.796216726303100586e+00
2.280000000000000000e+03 1.080113697052001953e+01 2.816638755798339844e+01 1.180434972047805786e-01 -5.961469411849975586e-01 -1.434310227632522583e-01 -5.501613765954971313e-02
2.281000000000000000e+03 1.063524150848388672e+01 3.255527877807617188e+01 2.157744206488132477e-02 -5.570428371429443359e-01 -1.606396287679672241e-01 -7.871086150407791138e-02
2.282000000000000000e+03 7.500128936767578125e+01 -1.743672370910644531e+01 -5.704239606857299805e-01 6.958212375640869141e+00 1.916336536407470703e+00 -2.309644967317581177e-01
2.283000000000000000e+03 7.470925903320312500e+01 1.622071456909179688e+01 2.130254544317722321e-02 8.310384750366210938e+00 2.499506235122680664e+00 6.222097873687744141e-01
2.284000000000000000e+03 7.471587371826171875e+01 1.764579582214355469e+01 4.800311103463172913e-02 8.332362174987792969e+00 2.514109373092651367e+00 6.140649914741516113e-01
2.285000000000000000e+03 7.490731811523437500e+01 9.807161331176757812e+00 -1.166784465312957764e-01 8.358150482177734375e+00 2.472441434860229492e+00 8.417246937751770020e-01
2.286000000000000000e+03 7.331771087646484375e+01 3.490298509597778320e+00 6.919643878936767578e-01 9.768134117126464844e+00 3.138029575347900391e+00 6.337568163871765137e-01
2.287000000000000000e+03 7.510504150390625000e+01 1.089229583740234375e+01 -1.960315406322479248e-01 8.282153129577636719e+00 2.425836324691772461e+00 7.679275274276733398e-01
2.288000000000000000e+03 7.447191619873046875e+01 -3.711281538009643555e+00 2.363253682851791382e-01 7.598708152770996094e+00 2.350510120391845703e+00 -2.781964838504791260e-01
2.289000000000000000e+03 7.416741943359375000e+01 -1.119886493682861328e+01 -8.418572694063186646e-02 6.512362957000732422e+00 1.928453207015991211e+00 -4.835174083709716797e-01
2.290000000000000000e+03 7.463401031494140625e+01 -8.612245559692382812e+00 -2.939477562904357910e-02 6.749334812164306641e+00 2.015981912612915039e+00 -4.741018116474151611e-01
2.291000000000000000e+03 7.593965911865234375e+01 6.603895664215087891e+00 1.966858208179473877e-01 7.599826335906982422e+00 2.338953495025634766e+00 7.772913575172424316e-01
2.292000000000000000e+03 7.023111724853515625e+01 -1.461678218841552734e+01 1.291038542985916138e-01 4.796335220336914062e+00 1.477631688117980957e+00 -3.102322220802307129e-01
2.293000000000000000e+03 7.585949707031250000e+01 2.075204277038574219e+01 8.716703206300735474e-02 8.332672119140625000e+00 2.525951862335205078e+00 6.555170416831970215e-01
2.294000000000000000e+03 9.455874443054199219e+00 2.096352577209472656e+01 2.464831173419952393e-01 -8.640162348747253418e-01 -1.852599382400512695e-01 1.721118092536926270e-01
2.295000000000000000e+03 6.997901916503906250e+00 2.398885154724121094e+01 1.212835833430290222e-01 -1.074273228645324707e+00 -2.858968973159790039e-01 8.033643662929534912e-02
2.296000000000000000e+03 6.905358886718750000e+01 -1.896881484985351562e+01 -3.058848083019256592e-01 2.568891048431396484e+00 6.789018511772155762e-01 -1.096736669540405273e+00
2.297000000000000000e+03 8.697723388671875000e+00 3.223495864868164062e+01 3.684780001640319824e-02 -7.750372886657714844e-01 -2.214568406343460083e-01 -4.999060928821563721e-02
2.298000000000000000e+03 6.313472270965576172e+00 3.303062438964843750e+01 9.298696182668209076e-03 -1.149521946907043457e+00 -3.420669734477996826e-01 -4.892973601818084717e-02
2.299000000000000000e+03 4.417843341827392578e+00 -2.034769058227539062e+01 -3.552144044078886509e-04 -2.966253377962857485e-04 -1.955519255716353655e-04 1.467004185542464256e-04
2.300000000000000000e+03 4.226103305816650391e+00 -2.181692504882812500e+01 4.534857871476560831e-04 2.458925009705126286e-04 2.098134864354506135e-04 -5.806527406093664467e-05
2.301000000000000000e+03 7.696656703948974609e+00 -1.153179836273193359e+01 3.451362135820090771e-04 3.564657890819944441e-05 1.142348337452858686e-04 -2.013585799431893975e-05
2.302000000000000000e+03 7.421464538574218750e+01 6.833520889282226562e+00 2.880841791629791260e-01 8.867041587829589844e+00 2.746537685394287109e+00 8.130519986152648926e-01
2.303000000000000000e+03 6.504985809326171875e+01 -1.755709457397460938e+01 2.813665270805358887e-01 1.633974671363830566e+00 5.746023654937744141e-01 1.072290778160095215e+00
2.304000000000000000e+03 6.618509292602539062e+00 1.684422683715820312e+01 1.675510853528976440e-01 -1.054861664772033691e+00 -2.661931514739990234e-01 3.469942510128021240e-01
2.305000000000000000e+03 5.318500518798828125e+00 1.552088928222656250e+01 1.177361235022544861e-01 -1.083897829055786133e+00 -2.898485362529754639e-01 3.636906147003173828e-01
2.306000000000000000e+03 6.507859230041503906e+00 1.537172985076904297e+01 1.661611497402191162e-01 -1.027501583099365234e+00 -2.584021389484405518e-01 4.045445322990417480e-01
2.307000000000000000e+03 6.508332252502441406e+00 -8.608466148376464844e+00 -2.237105072708800435e-04 -6.625099922530353069e-05 -8.698844612808898091e-05 -1.152741970145143569e-04
2.308000000000000000e+03 6.265970706939697266e+00 -2.359534263610839844e+01 -5.261880578473210335e-04 -3.344507422298192978e-04 -2.581916342023760080e-04 2.579201536718755960e-04
2.309000000000000000e+03 6.393675804138183594e+00 1.384873294830322266e+01 1.521003842353820801e-01 -9.861429929733276367e-01 -2.502127885818481445e-01 4.692861139774322510e-01
2.310000000000000000e+03 5.051118850708007812e+00 1.265697479248046875e+01 8.971774578094482422e-02 -9.618892073631286621e-01 -2.616514265537261963e-01 4.508589208126068115e-01
2.311000000000000000e+03 6.328399181365966797e+00 1.957060241699218750e+01 1.530413478612899780e-01 -1.112595438957214355e+00 -2.878662347793579102e-01 2.288609147071838379e-01
2.312000000000000000e+03 5.241072654724121094e+00 1.959499931335449219e+01 1.104376539587974548e-01 -1.208968520164489746e+00 -3.295592665672302246e-01 2.117336392402648926e-01
2.313000000000000000e+03 3.581047439575195312e+01 1.833578491210937500e+01 8.662810325622558594e-01 3.972023725509643555e+00 1.451491475105285645e+00 -6.873472332954406738e-01
2.314000000000000000e+03 5.563054084777832031e+00 -1.425980567932128906e+01 3.802030696533620358e-04 -4.771972453454509377e-05 9.974500426324084401e-05 8.354482270078733563e-05
2.315000000000000000e+03 8.143245697021484375e+00 2.830358123779296875e+01 8.207652717828750610e-02 -9.095088839530944824e-01 -2.482296973466873169e-01 -1.533054281026124954e-02
2.316000000000000000e+03 7.836509227752685547e+00 6.894100666046142578e+00 -8.938692510128021240e-02 -7.141603827476501465e-01 -2.410641908645629883e-01 7.357433438301086426e-01
2.317000000000000000e+03 6.201384067535400391e+00 7.894528865814208984e+00 -3.749306127429008484e-02 -6.861791014671325684e-01 -2.171016633510589600e-01 6.184512972831726074e-01
2.318000000000000000e+03 1.070495414733886719e+01 -1.193487834930419922e+01 -6.088942245696671307e-05 -3.329794344608671963e-05 -2.825620867952238768e-05 1.552091125631704926e-04
2.319000000000000000e+03 6.164412021636962891e+00 1.236605644226074219e+01 1.228630170226097107e-01 -9.356002211570739746e-01 -2.438211590051651001e-01 5.157957077026367188e-01
2.320000000000000000e+03 7.812412261962890625e+00 -1.270266246795654297e+01 -3.049153019674122334e-04 3.653700332506559789e-05 -8.051349141169339418e-05 -5.084629810880869627e-05
2.321000000000000000e+03 5.765526771545410156e+00 8.874496459960937500e+00 7.015833165496587753e-03 -7.387948036193847656e-01 -2.195336818695068359e-01 5.852943658828735352e-01
2.322000000000000000e+03 6.439066410064697266e+00 9.536794662475585938e+00 4.278031364083290100e-02 -7.961560487747192383e-01 -2.260127067565917969e-01 6.174692511558532715e-01
2.323000000000000000e+03 5.944434738159179688e+01 -2.097303390502929688e+01 8.991962671279907227e-01 7.428416013717651367e-01 4.926113486289978027e-01 1.620553970336914062e+00
2.324000000000000000e+03 7.441347503662109375e+01 7.239757180213928223e-01 6.442781090736389160e-01 8.341748237609863281e+00 2.695807933807373047e+00 1.979940682649612427e-01
2.325000000000000000e+03 7.020589447021484375e+01 -1.276460075378417969e+01 2.469525784254074097e-01 5.195806503295898438e+00 1.632827639579772949e+00 2.551643922924995422e-02
2.326000000000000000e+03 5.083804702758789062e+01 -1.543374156951904297e+01 -3.217577934265136719e+00 7.714992046356201172e+00 1.349224328994750977e+00 -8.986642956733703613e-01
2.327000000000000000e+03 5.073001098632812500e+01 -1.626163482666015625e+01 -2.756257534027099609e+00 8.888732910156250000e+00 1.839742660522460938e+00 -9.676972627639770508e-01
2.328000000000000000e+03 5.592084884643554688e+01 -2.034075355529785156e+01 2.145211458206176758e+00 7.879258394241333008e-01 8.799412250518798828e-01 5.014290809631347656e-01
2.329000000000000000e+03 3.485813522338867188e+01 1.280417823791503906e+01 1.506028652191162109e+00 3.653398036956787109e+00 1.547828078269958496e+00 -8.523480892181396484e-01
2.330000000000000000e+03 3.624618911743164062e+01 8.792539596557617188e+00 1.648099422454833984e+00 4.128935337066650391e+00 1.733110427856445312e+00 -7.904230952262878418e-01
2.331000000000000000e+03 7.190164947509765625e+01 -9.077902793884277344e+00 9.664190560579299927e-02 6.648096561431884766e+00 2.023421525955200195e+00 8.287538588047027588e-02
2.332000000000000000e+03 7.133588409423828125e+01 -1.037656497955322266e+01 1.471870392560958862e-01 6.160491466522216797e+00 1.892303586006164551e+00 1.032109111547470093e-01
2.333000000000000000e+03 3.734916305541992188e+01 1.985788917541503906e+01 6.228311657905578613e-01 4.350764274597167969e+00 1.492078661918640137e+00 -4.167874753475189209e-01
2.334000000000000000e+03 3.575848007202148438e+01 1.987457847595214844e+01 7.078647613525390625e-01 3.803629875183105469e+00 1.353448390960693359e+00 -6.113080978393554688e-01
2.335000000000000000e+03 7.210968780517578125e+01 -1.370771980285644531e+01 -1.245854273438453674e-01 5.845638751983642578e+00 1.716315984725952148e+00 -4.492013752460479736e-01
2.336000000000000000e+03 3.810432052612304688e+01 2.489963912963867188e+01 1.291503608226776123e-01 3.713641881942749023e+00 1.152837634086608887e+00 -1.952593624591827393e-01
2.337000000000000000e+03 7.124080657958984375e+01 -1.415270805358886719e+01 -1.457908563315868378e-02 5.343955993652343750e+00 1.598813056945800781e+00 -3.991986215114593506e-01
2.338000000000000000e+03 7.166370391845703125e+01 -3.865633392333984375e+01 -1.112387478351593018e-01 4.714468479156494141e+00 1.380968928337097168e+00 3.331815302371978760e-01
2.339000000000000000e+03 4.396212387084960938e+01 -6.725849151611328125e+00 2.807482779026031494e-01 4.128358364105224609e+00 1.322731971740722656e+00 -1.768666744232177734e+00
2.340000000000000000e+03 4.238660812377929688e+01 2.899255561828613281e+01 -1.927085965871810913e-01 3.223439455032348633e+00 9.092192649841308594e-01 3.299846053123474121e-01
2.341000000000000000e+03 3.996479034423828125e+01 2.854820442199707031e+01 -2.419534772634506226e-01 3.355165243148803711e+00 9.339634776115417480e-01 1.004511676728725433e-02
2.342000000000000000e+03 5.299195480346679688e+01 -2.270973777770996094e+01 1.698958635330200195e+00 6.234419345855712891e+00 2.380013465881347656e+00 -2.387577056884765625e+00
2.343000000000000000e+03 3.572227859497070312e+01 2.329722213745117188e+01 3.164304792881011963e-01 3.482982158660888672e+00 1.139823794364929199e+00 -5.023311376571655273e-01
2.344000000000000000e+03 3.946672439575195312e+01 2.284447479248046875e+01 3.239009082317352295e-01 4.300984382629394531e+00 1.387465596199035645e+00 7.298088818788528442e-02
2.345000000000000000e+03 3.971799468994140625e+01 3.318934249877929688e+01 -6.610232591629028320e-01 2.928432464599609375e+00 6.802227497100830078e-01 -5.751617252826690674e-02
2.346000000000000000e+03 4.326372528076171875e+01 -3.540523910522460938e+01 6.911285687237977982e-03 1.543907523155212402e+00 4.652456343173980713e-01 5.855985879898071289e-01
2.347000000000000000e+03 4.535187911987304688e+01 -3.627666091918945312e+01 -1.222643256187438965e-01 2.441257238388061523e+00 6.956979036331176758e-01 6.631960272789001465e-01
2.348000000000000000e+03 4.906529998779296875e+01 -2.254695320129394531e+01 -2.305653095245361328e-01 9.318490028381347656e+00 2.726377248764038086e+00 1.800826787948608398e+00
2.349000000000000000e+03 4.599548339843750000e+01 -1.799163436889648438e+01 4.705715775489807129e-01 1.521741509437561035e+00 5.976939201354980469e-01 -2.089896678924560547e+00
2.350000000000000000e+03 5.220933914184570312e+01 -2.709554290771484375e+01 1.338221877813339233e-01 6.859372615814208984e+00 2.097958564758300781e+00 -1.167605876922607422e+00
2.351000000000000000e+03 4.618535232543945312e+01 -2.591990470886230469e+01 2.713330686092376709e-01 2.638210296630859375e+00 8.728629946708679199e-01 8.015175461769104004e-01
2.352000000000000000e+03 4.685306167602539062e+01 -2.469367790222167969e+01 3.805647492408752441e-01 3.175420522689819336e+00 1.066795587539672852e+00 1.136829853057861328e+00
2.353000000000000000e+03 4.967303085327148438e+01 -2.274244308471679688e+01 -5.442305803298950195e-01 1.046344470977783203e+01 2.975764274597167969e+00 2.486699968576431274e-01
2.354000000000000000e+03 4.701100158691406250e+01 -1.792689132690429688e+01 1.152150392532348633e+00 3.006914615631103516e+00 1.247719526290893555e+00 -3.730315446853637695e+00
2.355000000000000000e+03 4.750862503051757812e+01 -1.743032264709472656e+01 4.782045185565948486e-01 4.935971736907958984e+00 1.624252796173095703e+00 -4.377668857574462891e+00
2.356000000000000000e+03 4.999878692626953125e+01 -1.619683837890625000e+01 -2.719057321548461914e+00 9.085322380065917969e+00 1.909879326820373535e+00 -2.012099266052246094e+00
2.357000000000000000e+03 1.158611202239990234e+01 -6.473373413085937500e+00 -3.620473216869868338e-05 2.180543197027873248e-05 -4.319790150475455448e-06 -8.192910172510892153e-05
2.358000000000000000e+03 1.017934131622314453e+01 -6.545527935028076172e+00 -4.748378341901116073e-05 -6.089891394367441535e-05 -3.251480666222050786e-05 -6.038619540049694479e-05
2.359000000000000000e+03 4.614065170288085938e+01 -1.720069885253906250e+01 3.433271646499633789e-01 2.609398603439331055e+00 8.858177661895751953e-01 -2.718875169754028320e+00
2.360000000000000000e+03 4.838136291503906250e+01 -2.822842788696289062e+01 7.408010959625244141e-02 4.352920055389404297e+00 1.328100085258483887e+00 4.402022063732147217e-01
2.361000000000000000e+03 4.639589309692382812e+01 -2.470715332031250000e+01 4.468165040016174316e-01 2.587241172790527344e+00 9.102173447608947754e-01 1.004646778106689453e+00
2.362000000000000000e+03 4.849839401245117188e+01 -1.700604629516601562e+01 -1.002999186515808105e+00 8.411404609680175781e+00 2.222521543502807617e+00 -4.484260082244873047e+00
2.363000000000000000e+03 4.535110092163085938e+01 -1.695800209045410156e+01 -5.606464669108390808e-02 2.178457260131835938e+00 6.367177963256835938e-01 -1.988304495811462402e+00
2.364000000000000000e+03 5.486257076263427734e+00 6.511788368225097656e+00 -1.112574785947799683e-01 -5.526744127273559570e-01 -1.991795748472213745e-01 5.581049919128417969e-01
2.365000000000000000e+03 4.408882141113281250e+01 -1.608244132995605469e+01 -5.594596266746520996e-01 2.081778526306152344e+00 4.566957056522369385e-01 -1.428816914558410645e+00
2.366000000000000000e+03 4.482177352905273438e+01 -1.719313621520996094e+01 -2.611993253231048584e-01 1.730863332748413086e+00 4.408992230892181396e-01 -1.490862011909484863e+00
2.367000000000000000e+03 3.076996040344238281e+01 -1.132713508605957031e+01 -1.153421163558959961e+00 1.012850031256675720e-01 -3.156408369541168213e-01 1.152741670608520508e+00
2.368000000000000000e+03 9.375559806823730469e+00 -7.868156433105468750e+00 1.762735337251797318e-04 6.105109787313267589e-05 7.119739166228100657e-05 -9.536882316751871258e-06
2.369000000000000000e+03 2.979993247985839844e+01 -1.000071334838867188e+01 -1.135090827941894531e+00 6.982758641242980957e-02 -3.195789754390716553e-01 1.157767057418823242e+00
2.370000000000000000e+03 6.970005512237548828e+00 6.503422737121582031e+00 -1.364860385656356812e-01 -6.257904171943664551e-01 -2.286829352378845215e-01 6.874403953552246094e-01
2.371000000000000000e+03 6.056720733642578125e+00 6.731261253356933594e+00 -1.018679514527320862e-01 -6.087457537651062012e-01 -2.131841033697128296e-01 6.187600493431091309e-01
2.372000000000000000e+03 7.588531970977783203e+00 6.207003116607666016e+00 -1.646984964609146118e-01 -6.413779258728027344e-01 -2.418229132890701294e-01 7.273275852203369141e-01
2.373000000000000000e+03 4.610352706909179688e+01 -1.197293090820312500e+01 -5.391113758087158203e-01 4.636055946350097656e+00 1.229083299636840820e+00 -1.854255676269531250e+00
2.374000000000000000e+03 4.604021072387695312e+01 -1.130497550964355469e+01 -3.937256634235382080e-01 4.612465381622314453e+00 1.265622019767761230e+00 -1.820625424385070801e+00
2.375000000000000000e+03 4.737586212158203125e+01 -2.432051086425781250e+01 3.274638950824737549e-01 3.936000347137451172e+00 1.279039263725280762e+00 1.364349007606506348e+00
2.376000000000000000e+03 1.508937644958496094e+01 -7.971696376800537109e+00 8.705035725142806768e-05 -6.448625936172902584e-05 6.769229912606533617e-06 5.824663094244897366e-05
2.377000000000000000e+03 1.383207702636718750e+01 -7.958383083343505859e+00 -8.436397183686494827e-05 -1.090113582904450595e-04 -5.801259612780995667e-05 1.083880342775955796e-04
2.378000000000000000e+03 4.728956604003906250e+01 -2.782106781005859375e+01 1.027027815580368042e-01 3.618692398071289062e+00 1.116418600082397461e+00 6.326663494110107422e-01
2.379000000000000000e+03 9.254925727844238281e+00 5.985642910003662109e+00 -1.685963720083236694e-01 -7.794940471649169922e-01 -2.844271361827850342e-01 8.405050635337829590e-01
2.380000000000000000e+03 5.634502410888671875e+00 9.911782264709472656e+00 4.532437026500701904e-02 -8.031645417213439941e-01 -2.273520380258560181e-01 5.499994754791259766e-01
2.381000000000000000e+03 1.021290302276611328e+01 -7.282519340515136719e+00 1.271594519494101405e-04 2.984142520290333778e-05 4.710026405518874526e-05 -4.850032382819335908e-06
2.382000000000000000e+03 1.343678092956542969e+01 -7.422324657440185547e+00 -6.006559488014318049e-06 1.389735261909663677e-04 3.989008837379515171e-05 -4.097676719538867474e-05
2.383000000000000000e+03 2.707092857360839844e+01 -7.252764225006103516e+00 -1.241989612579345703e+00 -3.730196952819824219e-01 -4.845027923583984375e-01 1.117516756057739258e+00
2.384000000000000000e+03 1.729814338684082031e+01 4.939032554626464844e+00 6.265287846326828003e-02 -1.178772687911987305e+00 -3.348359465599060059e-01 7.452191114425659180e-01
2.385000000000000000e+03 2.542073631286621094e+01 -4.714508056640625000e+00 -1.157087564468383789e+00 -6.569718122482299805e-01 -5.442178249359130859e-01 9.710339307785034180e-01
2.386000000000000000e+03 5.141470336914062500e+01 -2.278741455078125000e+01 8.906639814376831055e-01 8.850014686584472656e+00 2.922203779220581055e+00 -2.573921203613281250e+00
2.387000000000000000e+03 5.047116088867187500e+01 -2.281703376770019531e+01 -1.485470533370971680e-01 1.029019355773925781e+01 3.042493820190429688e+00 -1.408760547637939453e+00
2.388000000000000000e+03 2.290301895141601562e+01 -1.742524385452270508e+00 -9.209200143814086914e-01 -1.069555759429931641e+00 -5.971426963806152344e-01 8.747743368148803711e-01
2.389000000000000000e+03 2.321110725402832031e+01 -7.939372658729553223e-01 -6.431279182434082031e-01 -8.922629952430725098e-01 -4.606172740459442139e-01 7.236338853836059570e-01
2.390000000000000000e+03 3.479836273193359375e+01 -1.240054798126220703e+01 -1.064068555831909180e+00 3.202123045921325684e-01 -2.231568694114685059e-01 7.059916853904724121e-01
2.391000000000000000e+03 1.654647254943847656e+01 4.333608627319335938e+00 -9.594128280878067017e-02 -1.240547060966491699e+00 -4.009464979171752930e-01 8.395580053329467773e-01
2.392000000000000000e+03 1.587532520294189453e+01 3.701402187347412109e+00 -2.866676151752471924e-01 -1.270352959632873535e+00 -4.671061933040618896e-01 9.236422777175903320e-01
2.393000000000000000e+03 2.667545127868652344e+01 -3.824545383453369141e+00 -8.705853223800659180e-01 -2.085657268762588501e-01 -3.237453103065490723e-01 7.556004524230957031e-01
2.394000000000000000e+03 2.643177604675292969e+01 -4.887349605560302734e+00 -1.060377240180969238e+00 -3.666680753231048584e-01 -4.281135797500610352e-01 8.987729549407958984e-01
2.395000000000000000e+03 1.978714561462402344e+01 6.366324424743652344e-01 -6.976073384284973145e-01 -1.366139292716979980e+00 -6.191239953041076660e-01 9.232179522514343262e-01
2.396000000000000000e+03 2.847497749328613281e+01 -8.043160438537597656e+00 -1.150648593902587891e+00 -5.008447542786598206e-02 -3.602198958396911621e-01 1.092135906219482422e+00
2.397000000000000000e+03 2.805847358703613281e+01 -7.400044441223144531e+00 -1.148562669754028320e+00 -1.052550151944160461e-01 -3.761453032493591309e-01 1.056397795677185059e+00
2.398000000000000000e+03 4.114203643798828125e+01 -1.525882244110107422e+01 -1.156571626663208008e+00 1.108355045318603516e+00 -1.446498651057481766e-02 -6.419244408607482910e-01
2.399000000000000000e+03 2.791404342651367188e+01 -8.557903289794921875e+00 -1.231202244758605957e+00 -2.331334203481674194e-01 -4.393007159233093262e-01 1.183564186096191406e+00
2.400000000000000000e+03 2.934147071838378906e+01 -9.343652725219726562e+00 -1.142087936401367188e+00 4.173856228590011597e-02 -3.301047980785369873e-01 1.144797682762145996e+00
2.401000000000000000e+03 4.619137573242187500e+01 -3.415298843383789062e+01 -2.170568518340587616e-02 2.703952550888061523e+00 8.046740293502807617e-01 8.235933184623718262e-01
2.402000000000000000e+03 4.611635971069335938e+01 -2.971097564697265625e+01 6.834825873374938965e-02 2.701867103576660156e+00 8.310645818710327148e-01 7.045155763626098633e-01
2.403000000000000000e+03 2.327582550048828125e+01 -2.423375606536865234e+00 -1.019710421562194824e+00 -1.050100088119506836e+00 -6.209431886672973633e-01 9.170070886611938477e-01
2.404000000000000000e+03 2.263802719116210938e+01 -1.011718034744262695e+00 -7.608791589736938477e-01 -1.041337728500366211e+00 -5.406650304794311523e-01 8.191153407096862793e-01
2.405000000000000000e+03 2.126421928405761719e+01 7.757307589054107666e-02 -6.521151661872863770e-01 -1.214853882789611816e+00 -5.600907206535339355e-01 8.238458633422851562e-01
2.406000000000000000e+03 2.604415702819824219e+01 -4.269721508026123047e+00 -1.013659000396728516e+00 -4.286459684371948242e-01 -4.326915144920349121e-01 8.567916154861450195e-01
2.407000000000000000e+03 2.532512474060058594e+01 -2.948131322860717773e+00 -8.656697273254394531e-01 -5.183849930763244629e-01 -4.152164161205291748e-01 7.682857513427734375e-01
2.408000000000000000e+03 5.230271530151367188e+01 -2.249753379821777344e+01 1.786253333091735840e+00 7.326627254486083984e+00 2.733864068984985352e+00 -2.797026872634887695e+00
2.409000000000000000e+03 2.623554801940917969e+01 -5.976108074188232422e+00 -1.219421625137329102e+00 -5.231291055679321289e-01 -5.227652192115783691e-01 1.045152068138122559e+00
2.410000000000000000e+03 2.723589324951171875e+01 -6.127273559570312500e+00 -1.120567083358764648e+00 -2.329629212617874146e-01 -4.060589969158172607e-01 9.797455072402954102e-01
2.411000000000000000e+03 1.489273166656494141e+01 -7.569487094879150391e+00 7.165620627347379923e-05 6.657053017988801003e-05 4.146802166360430419e-05 -1.291512890020385385e-04
2.412000000000000000e+03 2.177683639526367188e+01 -3.668865263462066650e-01 -7.075253725051879883e-01 -1.158610939979553223e+00 -5.598409175872802734e-01 8.265095353126525879e-01
2.413000000000000000e+03 2.321027755737304688e+01 1.350445300340652466e-01 -4.753910601139068604e-01 -7.995606064796447754e-01 -3.824855089187622070e-01 6.255682110786437988e-01
2.414000000000000000e+03 1.907222747802734375e+01 2.183507680892944336e+00 -3.823200762271881104e-01 -1.281929850578308105e+00 -4.992749989032745361e-01 8.245333433151245117e-01
2.415000000000000000e+03 2.355853462219238281e+01 -1.363650321960449219e+00 -7.210361361503601074e-01 -8.479818701744079590e-01 -4.707053899765014648e-01 7.547497153282165527e-01
2.416000000000000000e+03 1.439817047119140625e+01 -8.352900505065917969e+00 1.849673571996390820e-04 2.683466846065130085e-05 6.354061042657122016e-05 -1.041707000695168972e-04
2.417000000000000000e+03 7.702265739440917969e+00 1.522022438049316406e+01 2.147423475980758667e-01 -9.799510836601257324e-01 -2.295626252889633179e-01 4.376311600208282471e-01
2.418000000000000000e+03 7.975197315216064453e+00 1.827000427246093750e+01 2.271466851234436035e-01 -9.896209836006164551e-01 -2.287423014640808105e-01 2.979776859283447266e-01
2.419000000000000000e+03 1.506346035003662109e+01 5.350527763366699219e+00 -1.191157754510641098e-02 -1.174359321594238281e+00 -3.558812439441680908e-01 8.565446138381958008e-01
2.420000000000000000e+03 1.782791900634765625e+01 3.264853954315185547e+00 -2.281649112701416016e-01 -1.278228044509887695e+00 -4.519178867340087891e-01 8.333657383918762207e-01
2.421000000000000000e+03 4.758846282958984375e+01 -1.278832721710205078e+01 -9.845154881477355957e-01 5.685985088348388672e+00 1.410440921783447266e+00 -1.854908347129821777e+00
2.422000000000000000e+03 4.787919998168945312e+01 -1.369022464752197266e+01 -1.503482937812805176e+00 6.179637432098388672e+00 1.402846336364746094e+00 -2.074203252792358398e+00
2.423000000000000000e+03 8.464262008666992188e+00 -9.574030876159667969e+00 -4.204527431284077466e-05 1.655440973991062492e-05 -7.647258826182223856e-06 9.967976802727207541e-05
2.424000000000000000e+03 8.041502952575683594e+00 7.678674221038818359e+00 -2.753623388707637787e-02 -7.740625143051147461e-01 -2.404796183109283447e-01 7.428712248802185059e-01
2.425000000000000000e+03 1.295302200317382812e+01 6.941977024078369141e+00 9.525652974843978882e-02 -1.051746368408203125e+00 -2.869469523429870605e-01 8.390782475471496582e-01
2.426000000000000000e+03 4.245704650878906250e+01 -5.956355571746826172e+00 2.443454712629318237e-01 3.755995512008666992e+00 1.200102329254150391e+00 -1.550390601158142090e+00
2.427000000000000000e+03 4.348595046997070312e+01 -5.608699798583984375e+00 3.349994122982025146e-01 4.145999908447265625e+00 1.344299793243408203e+00 -1.763666391372680664e+00
2.428000000000000000e+03 4.829687881469726562e+01 -1.415365505218505859e+01 -1.737577438354492188e+00 6.619633674621582031e+00 1.464616775512695312e+00 -2.158116579055786133e+00
2.429000000000000000e+03 4.753290176391601562e+01 -1.686907005310058594e+01 -2.012033760547637939e-01 5.386137485504150391e+00 1.555480241775512695e+00 -4.016014099121093750e+00
2.430000000000000000e+03 4.682830047607421875e+01 -1.263092899322509766e+01 -8.049844503402709961e-01 5.140858650207519531e+00 1.300762176513671875e+00 -1.927917122840881348e+00
2.431000000000000000e+03 6.616655731201171875e+01 -1.755348014831542969e+01 3.056587576866149902e-01 1.743150472640991211e+00 6.146427392959594727e-01 5.842829942703247070e-01
2.432000000000000000e+03 4.188277053833007812e+01 -2.342969655990600586e+00 4.223580062389373779e-01 4.363015174865722656e+00 1.435611963272094727e+00 -1.647064328193664551e+00
2.433000000000000000e+03 3.417476654052734375e+01 -1.189672183990478516e+01 -1.010151624679565430e+00 3.800241351127624512e-01 -1.890382319688796997e-01 7.856414318084716797e-01
2.434000000000000000e+03 3.136011314392089844e+01 -1.064331531524658203e+01 -1.069937825202941895e+00 2.486168146133422852e-01 -2.463963031768798828e-01 1.055961966514587402e+00
2.435000000000000000e+03 4.347146606445312500e+01 -1.604753875732421875e+01 -7.485878467559814453e-01 1.799330830574035645e+00 3.152228891849517822e-01 -1.171102046966552734e+00
2.436000000000000000e+03 3.186873245239257812e+01 -1.274176502227783203e+01 -1.272243499755859375e+00 8.844599872827529907e-02 -3.551392257213592529e-01 1.102559208869934082e+00
2.437000000000000000e+03 1.362493228912353516e+01 -9.650215148925781250e+00 2.067007444566115737e-04 7.839655881980434060e-05 8.552918734494596720e-05 -5.033244087826460600e-05
2.438000000000000000e+03 4.337271118164062500e+01 -8.258205413818359375e+00 8.935973048210144043e-02 3.667373180389404297e+00 1.127019882202148438e+00 -1.581835508346557617e+00
2.439000000000000000e+03 3.418697738647460938e+01 -1.313856792449951172e+01 -1.242728233337402344e+00 1.755495220422744751e-01 -3.201536238193511963e-01 8.625848889350891113e-01
2.440000000000000000e+03 3.632989120483398438e+01 6.833802223205566406e+00 1.433971643447875977e+00 3.990978956222534180e+00 1.627485156059265137e+00 -7.309019565582275391e-01
2.441000000000000000e+03 4.029747772216796875e+01 -1.774433851242065430e+00 3.914080858230590820e-01 4.033955097198486328e+00 1.327608942985534668e+00 -1.329756855964660645e+00
2.442000000000000000e+03 1.088331317901611328e+01 -6.523432731628417969e+00 7.117859058780595660e-05 -1.066923459802637808e-06 2.103350016113836318e-05 9.472768579144030809e-05
2.443000000000000000e+03 1.225367355346679688e+01 6.696700572967529297e+00 2.741783484816551208e-02 -1.021256208419799805e+00 -2.981514930725097656e-01 8.628685474395751953e-01
2.444000000000000000e+03 3.953228378295898438e+01 3.499165773391723633e-01 5.473173260688781738e-01 4.308133602142333984e+00 1.456635355949401855e+00 -1.206340670585632324e+00
2.445000000000000000e+03 7.086933135986328125e+01 -1.836195945739746094e+01 -6.584489941596984863e-01 4.891774654388427734e+00 1.269997715950012207e+00 -1.250634908676147461e+00
2.446000000000000000e+03 9.632625579833984375e+00 6.756293296813964844e+00 -7.571189850568771362e-02 -8.410015106201171875e-01 -2.750140130519866943e-01 8.366528749465942383e-01
2.447000000000000000e+03 5.754586410522460938e+01 -2.017371749877929688e+01 1.233761787414550781e+00 3.519479632377624512e-01 4.757129549980163574e-01 1.680471897125244141e+00
2.448000000000000000e+03 5.361487579345703125e+01 -2.502881240844726562e+01 3.312002122402191162e-01 6.305999279022216797e+00 1.991159915924072266e+00 -1.490400075912475586e+00
2.449000000000000000e+03 5.412668228149414062e+01 -2.348227882385253906e+01 1.381639122962951660e+00 5.058108806610107422e+00 1.931924462318420410e+00 -1.597280621528625488e+00
2.450000000000000000e+03 3.795344161987304688e+01 -1.397211265563964844e+01 -1.128587722778320312e+00 3.373144865036010742e-01 -2.373819947242736816e-01 1.099887043237686157e-01
2.451000000000000000e+03 4.496762847900390625e+01 -8.855112075805664062e+00 7.826990634202957153e-02 4.273126602172851562e+00 1.305418848991394043e+00 -1.759078621864318848e+00
2.452000000000000000e+03 4.011191940307617188e+01 -1.321821784973144531e+01 -7.586905956268310547e-01 1.181731939315795898e+00 1.269124001264572144e-01 -5.995209813117980957e-01
2.453000000000000000e+03 5.346426010131835938e+01 -1.931689453125000000e+01 2.874704599380493164e+00 3.044832468032836914e+00 1.775861144065856934e+00 -5.481909513473510742e-01
2.454000000000000000e+03 5.438987350463867188e+01 -2.055059051513671875e+01 2.990170478820800781e+00 2.466284036636352539e+00 1.636936306953430176e+00 -8.286602497100830078e-01
2.455000000000000000e+03 3.889313888549804688e+01 2.585893154144287109e+00 7.888481616973876953e-01 4.569922447204589844e+00 1.607631206512451172e+00 -1.090008616447448730e+00
2.456000000000000000e+03 5.499267959594726562e+01 -1.960327720642089844e+01 2.212051630020141602e+00 9.184712171554565430e-01 9.391568899154663086e-01 9.308081120252609253e-02
2.457000000000000000e+03 6.647303581237792969e+00 2.282264709472656250e+01 1.229648739099502563e-01 -1.100630521774291992e+00 -2.932996749877929688e-01 1.154570877552032471e-01
2.458000000000000000e+03 8.530338287353515625e+00 2.462750625610351562e+01 1.500848233699798584e-01 -9.163710474967956543e-01 -2.298858761787414551e-01 6.026894971728324890e-02
2.459000000000000000e+03 6.610736846923828125e+00 -1.141287803649902344e+01 -3.394008090253919363e-04 6.605790986213833094e-06 -9.983850031858310103e-05 -8.459136734018102288e-05
2.460000000000000000e+03 7.422771453857421875e+01 -1.260181331634521484e+01 -1.450180709362030029e-01 6.463210105895996094e+00 1.895457625389099121e+00 -4.976519048213958740e-01
2.461000000000000000e+03 7.187531280517578125e+01 -1.758972549438476562e+01 -7.258461117744445801e-01 5.806182861328125000e+00 1.524101018905639648e+00 -9.129264950752258301e-01
2.462000000000000000e+03 7.427069091796875000e+01 -1.679325103759765625e+01 -5.633299350738525391e-01 6.725373268127441406e+00 1.848613023757934570e+00 -4.086625277996063232e-01
2.463000000000000000e+03 6.542769432067871094e+00 -1.000234127044677734e+01 2.873992489185184240e-04 -1.230440375366015360e-05 8.252845873357728124e-05 1.157920851255767047e-04
2.464000000000000000e+03 5.263002395629882812e+01 -2.001625823974609375e+01 4.303094863891601562e+00 4.955213546752929688e+00 2.777492523193359375e+00 -1.487586617469787598e+00
2.465000000000000000e+03 7.981391429901123047e+00 1.674554443359375000e+01 2.307604104280471802e-01 -9.830567240715026855e-01 -2.256888896226882935e-01 3.652723431587219238e-01
2.466000000000000000e+03 3.732178878784179688e+01 3.152216911315917969e+00 8.770373463630676270e-01 4.006254673004150391e+00 1.464987516403198242e+00 -7.732279896736145020e-01
2.467000000000000000e+03 3.814422988891601562e+01 6.720405101776123047e+00 1.469100475311279297e+00 4.986882686614990234e+00 1.936794996261596680e+00 -9.212490916252136230e-01
2.468000000000000000e+03 8.143843650817871094e+00 1.958256340026855469e+01 2.141259461641311646e-01 -9.746438264846801758e-01 -2.281553596258163452e-01 2.339284420013427734e-01
2.469000000000000000e+03 6.758843994140625000e+01 -1.821039390563964844e+01 1.208721175789833069e-01 1.851234078407287598e+00 5.916318893432617188e-01 -1.318821609020233154e-01
2.470000000000000000e+03 6.691525268554687500e+01 -1.619132995605468750e+01 5.444641113281250000e-01 2.577304124832153320e+00 9.365304708480834961e-01 3.735888600349426270e-01
2.471000000000000000e+03 3.982885360717773438e+01 -7.281993031501770020e-01 4.574846327304840088e-01 4.143529415130615234e+00 1.380304217338562012e+00 -1.278814554214477539e+00
2.472000000000000000e+03 7.015424346923828125e+01 -1.733418273925781250e+01 -2.835323214530944824e-01 4.217893123626708984e+00 1.180308222770690918e+00 -9.344015121459960938e-01
2.473000000000000000e+03 9.501442909240722656e+00 -1.120244026184082031e+01 -5.230464012129232287e-05 1.061480434145778418e-04 1.615302244317717850e-05 1.470987044740468264e-04
2.474000000000000000e+03 6.875038909912109375e+01 -1.433620929718017578e+01 4.677200913429260254e-01 4.063555717468261719e+00 1.359382748603820801e+00 1.252891570329666138e-01
2.475000000000000000e+03 6.806040954589843750e+01 -1.571740913391113281e+01 4.550233185291290283e-01 3.277163267135620117e+00 1.119655966758728027e+00 4.210221394896507263e-02
2.476000000000000000e+03 7.144802570343017578e+00 7.984079837799072266e+00 -1.775874942541122437e-02 -7.431361079216003418e-01 -2.282684594392776489e-01 6.807951927185058594e-01
2.477000000000000000e+03 8.853437423706054688e+00 7.248489856719970703e+00 -4.405276477336883545e-02 -8.046006560325622559e-01 -2.545960247516632080e-01 7.926529049873352051e-01
2.478000000000000000e+03 1.287396621704101562e+01 3.003700828552246094e+01 9.415646642446517944e-02 -3.034067749977111816e-01 -6.277509033679962158e-02 -1.166333183646202087e-01
2.479000000000000000e+03 1.044152259826660156e+01 -1.106497955322265625e+01 -1.237700198544189334e-04 -1.433115976396948099e-04 -8.012448961380869150e-05 -1.127112045651301742e-04
2.480000000000000000e+03 1.116230201721191406e+01 -8.274541854858398438e+00 1.365192438242956996e-04 6.606110218854155391e-06 4.293760503060184419e-05 1.209029278470552526e-06
2.481000000000000000e+03 7.219913959503173828e+00 1.179722785949707031e+01 1.505094170570373535e-01 -9.141324758529663086e-01 -2.290869057178497314e-01 5.753911137580871582e-01
2.482000000000000000e+03 3.444529724121093750e+01 1.826660728454589844e+01 9.391070604324340820e-01 3.480719804763793945e+00 1.325947999954223633e+00 -7.636808753013610840e-01
2.483000000000000000e+03 3.574242401123046875e+01 1.689672470092773438e+01 1.050202488899230957e+00 4.052303314208984375e+00 1.530751824378967285e+00 -7.776734232902526855e-01
2.484000000000000000e+03 4.337959671020507812e+01 -3.403201675415039062e+01 -1.319459360092878342e-02 1.590554833412170410e+00 4.732080698013305664e-01 5.469635128974914551e-01
2.485000000000000000e+03 4.881579971313476562e+01 -3.311638641357421875e+01 1.516089886426925659e-01 3.880524396896362305e+00 1.209640026092529297e+00 7.695601582527160645e-01
2.486000000000000000e+03 4.288961029052734375e+01 -7.080004215240478516e+00 1.871128529310226440e-01 3.685040473937988281e+00 1.161646008491516113e+00 -1.564632296562194824e+00
2.487000000000000000e+03 7.170429992675781250e+01 -1.927872657775878906e+01 -1.120862245559692383e+00 6.212202548980712891e+00 1.527402162551879883e+00 -1.236787199974060059e+00
2.488000000000000000e+03 9.567273139953613281e+00 2.742759132385253906e+01 1.149910315871238708e-01 -7.463067173957824707e-01 -1.893946975469589233e-01 -1.369480881839990616e-02
2.489000000000000000e+03 3.747625732421875000e+01 2.146970367431640625e+01 4.660998284816741943e-01 4.121937274932861328e+00 1.376411080360412598e+00 -3.269854485988616943e-01
2.490000000000000000e+03 7.132611083984375000e+01 -1.315751266479492188e+01 5.211890861392021179e-02 5.515717983245849609e+00 1.670351147651672363e+00 -2.749762833118438721e-01
2.491000000000000000e+03 3.712861251831054688e+01 2.956340217590332031e+01 -3.296226859092712402e-01 3.116073846817016602e+00 8.359353542327880859e-01 -2.703922986984252930e-01
2.492000000000000000e+03 7.751933574676513672e+00 2.657292747497558594e+01 8.948379009962081909e-02 -9.882050752639770508e-01 -2.696163952350616455e-01 1.839599385857582092e-02
2.493000000000000000e+03 8.980105400085449219e+00 2.597561454772949219e+01 1.274377703666687012e-01 -8.525517582893371582e-01 -2.175341993570327759e-01 2.757778763771057129e-02
2.494000000000000000e+03 3.430999755859375000e+01 1.147297096252441406e+01 1.550933480262756348e+00 3.381330966949462891e+00 1.479679346084594727e+00 -8.040493130683898926e-01
2.495000000000000000e+03 3.543381500244140625e+01 7.655472278594970703e+00 1.490878224372863770e+00 3.655051708221435547e+00 1.543779015541076660e+00 -6.813385486602783203e-01
2.496000000000000000e+03 4.645139694213867188e+01 -2.520569038391113281e+01 3.554950654506683350e-01 2.829913377761840820e+00 9.556225538253784180e-01 9.418548345565795898e-01
2.497000000000000000e+03 4.796802902221679688e+01 -2.403506469726562500e+01 1.230680644512176514e-01 5.063159942626953125e+00 1.555868387222290039e+00 1.536418437957763672e+00
2.498000000000000000e+03 4.728615188598632812e+01 -2.479010009765625000e+01 2.442379593849182129e-01 3.813711643218994141e+00 1.217384934425354004e+00 1.214779973030090332e+00
2.499000000000000000e+03 4.811677551269531250e+01 -2.355371856689453125e+01 1.854631155729293823e-01 5.362755298614501953e+00 1.664465546607971191e+00 1.806193113327026367e+00
2.500000000000000000e+03 5.203313446044921875e+01 -2.506076812744140625e+01 -1.178561374545097351e-01 7.329191684722900391e+00 2.163400650024414062e+00 -1.555837988853454590e+00
2.501000000000000000e+03 4.856940078735351562e+01 -1.598948097229003906e+01 -1.810636281967163086e+00 7.696457386016845703e+00 1.765746235847473145e+00 -3.238977909088134766e+00
2.502000000000000000e+03 4.561201477050781250e+01 -2.623136138916015625e+01 2.453722357749938965e-01 2.113813877105712891e+00 7.077558636665344238e-01 7.051738500595092773e-01
2.503000000000000000e+03 4.633012390136718750e+01 -1.640662002563476562e+01 -2.021947503089904785e-01 3.689938545227050781e+00 1.046323060989379883e+00 -2.900436639785766602e+00
2.504000000000000000e+03 4.665463638305664062e+01 -1.692937278747558594e+01 1.741263419389724731e-01 3.737925052642822266e+00 1.173615455627441406e+00 -3.384495019912719727e+00
2.505000000000000000e+03 1.405931186676025391e+01 -8.946944236755371094e+00 -1.868061226559802890e-04 -4.408085442264564335e-05 -6.926609057700261474e-05 7.023433136055245996e-05
2.506000000000000000e+03 5.024280929565429688e+01 -2.415788459777832031e+01 -6.103015542030334473e-01 8.309787750244140625e+00 2.309845924377441406e+00 -4.673060476779937744e-01
2.507000000000000000e+03 3.027563476562500000e+01 -1.065897560119628906e+01 -1.140883207321166992e+00 9.523943066596984863e-02 -3.136931359767913818e-01 1.161380529403686523e+00
2.508000000000000000e+03 3.036033630371093750e+01 -9.409498214721679688e+00 -1.058936715126037598e+00 2.289612293243408203e-01 -2.489926666021347046e-01 1.057688593864440918e+00
2.509000000000000000e+03 1.105463314056396484e+01 -9.245740890502929688e+00 -1.914758904604241252e-04 -1.270147477043792605e-04 -9.554719144944101572e-05 -8.031994184420909733e-06
2.510000000000000000e+03 1.178898715972900391e+01 -7.259159088134765625e+00 1.198386826217756607e-06 -1.548292493680492043e-05 -4.285361683287192136e-06 5.392111052060499787e-05
2.511000000000000000e+03 9.413125991821289062e+00 -7.138192653656005859e+00 -1.595658686710521579e-04 -4.304048343328759074e-05 -6.078190563130192459e-05 4.887356044491752982e-05
2.512000000000000000e+03 9.689722061157226562e+00 -9.674531936645507812e+00 -2.237809239886701107e-04 -1.483932574046775699e-04 -1.116522544180043042e-04 -3.367108001839369535e-05
2.513000000000000000e+03 7.150894165039062500e+00 7.138861656188964844e+00 -8.783932030200958252e-02 -6.804654598236083984e-01 -2.304914295673370361e-01 6.948398947715759277e-01
2.514000000000000000e+03 4.563149261474609375e+01 -1.752780151367187500e+01 1.869464069604873657e-01 1.806244969367980957e+00 5.979574322700500488e-01 -2.005037307739257812e+00
2.515000000000000000e+03 4.926608657836914062e+01 -1.608980178833007812e+01 -2.404536008834838867e+00 8.840315818786621094e+00 1.930733799934387207e+00 -2.692234516143798828e+00
2.516000000000000000e+03 8.544152259826660156e+00 6.501033782958984375e+00 -1.277292966842651367e-01 -7.391370534896850586e-01 -2.600598931312561035e-01 7.907589673995971680e-01
2.517000000000000000e+03 3.191624259948730469e+01 -9.910751342773437500e+00 -9.578671455383300781e-01 4.085732698440551758e-01 -1.647881567478179932e-01 9.305769801139831543e-01
2.518000000000000000e+03 2.946072006225585938e+01 -8.144093513488769531e+00 -1.055815815925598145e+00 1.719118952751159668e-01 -2.651711702346801758e-01 1.019188165664672852e+00
2.519000000000000000e+03 2.764616966247558594e+01 -6.760372161865234375e+00 -1.139284849166870117e+00 -1.684760153293609619e-01 -3.923282623291015625e-01 1.019597887992858887e+00
2.520000000000000000e+03 2.744318389892578125e+01 -5.020065784454345703e+00 -9.608238935470581055e-01 -8.479813486337661743e-02 -3.136866092681884766e-01 8.333671689033508301e-01
2.521000000000000000e+03 4.688455963134765625e+01 -2.596545791625976562e+01 2.032672166824340820e-01 3.351433753967285156e+00 1.066410303115844727e+00 8.488951325416564941e-01
2.522000000000000000e+03 5.206139373779296875e+01 -2.308663177490234375e+01 9.467364549636840820e-01 7.724522113800048828e+00 2.601377487182617188e+00 -2.452883958816528320e+00
2.523000000000000000e+03 5.098319625854492188e+01 -2.328788185119628906e+01 -2.524176612496376038e-03 9.257803916931152344e+00 2.776584148406982422e+00 -1.739887356758117676e+00
2.524000000000000000e+03 4.201536941528320312e+01 -1.518164253234863281e+01 -9.417450428009033203e-01 1.471864342689514160e+00 1.590358018875122070e-01 -8.969683051109313965e-01
2.525000000000000000e+03 5.004314804077148438e+01 -1.536112403869628906e+01 -2.980898141860961914e+00 8.240032196044921875e+00 1.577740311622619629e+00 -1.520811676979064941e+00
2.526000000000000000e+03 2.864519691467285156e+01 -6.881142616271972656e+00 -1.042228221893310547e+00 8.872191607952117920e-02 -2.860518991947174072e-01 9.535828232765197754e-01
2.527000000000000000e+03 1.672504806518554688e+01 5.564131259918212891e+00 1.290755271911621094e-01 -1.154049277305603027e+00 -3.074921071529388428e-01 7.436808347702026367e-01
2.528000000000000000e+03 2.890039443969726562e+01 -8.690138816833496094e+00 -1.146250009536743164e+00 -1.014185836538672447e-03 -3.441792428493499756e-01 1.121560811996459961e+00
2.529000000000000000e+03 1.271101856231689453e+01 -9.011612892150878906e+00 -1.502475934103131294e-04 -1.187195521197281778e-04 -8.069014438660815358e-05 7.431638368871062994e-05
2.530000000000000000e+03 1.845354270935058594e+01 2.729629039764404297e+00 -3.021078407764434814e-01 -1.286028146743774414e+00 -4.764408171176910400e-01 8.329846262931823730e-01
2.531000000000000000e+03 1.850498962402343750e+01 3.802033662796020508e+00 -6.050342321395874023e-02 -1.193340778350830078e+00 -3.761532604694366455e-01 7.379779219627380371e-01
2.532000000000000000e+03 4.793997573852539062e+01 -1.530697917938232422e+01 -1.519387006759643555e+00 6.564149856567382812e+00 1.513428926467895508e+00 -2.940352201461791992e+00
2.533000000000000000e+03 4.780528259277343750e+01 -1.444322109222412109e+01 -1.570391297340393066e+00 6.349588394165039062e+00 1.433759093284606934e+00 -2.477409124374389648e+00
2.534000000000000000e+03 4.008328247070312500e+01 -1.434646797180175781e+01 -1.008047938346862793e+00 8.479980826377868652e-01 -4.801496863365173340e-02 -4.988562762737274170e-01
2.535000000000000000e+03 3.590313720703125000e+01 -1.184880542755126953e+01 -8.394820094108581543e-01 5.778331756591796875e-01 -7.849464565515518188e-02 4.031113088130950928e-01
2.536000000000000000e+03 3.640435028076171875e+01 -1.291340923309326172e+01 -9.826069474220275879e-01 3.823888897895812988e-01 -1.800654232501983643e-01 3.974234461784362793e-01
2.537000000000000000e+03 2.631635284423828125e+01 -3.215358734130859375e+00 -8.075336813926696777e-01 -2.608627080917358398e-01 -3.205189108848571777e-01 7.140864133834838867e-01
2.538000000000000000e+03 4.686091613769531250e+01 -2.758774375915527344e+01 6.947890669107437134e-02 3.332828521728515625e+00 1.020692229270935059e+00 7.025125622749328613e-01
2.539000000000000000e+03 2.085621643066406250e+01 5.554996728897094727e-01 -5.795274376869201660e-01 -1.211886882781982422e+00 -5.374242663383483887e-01 8.157479166984558105e-01
2.540000000000000000e+03 3.930583190917968750e+01 -1.217330074310302734e+01 -5.958920121192932129e-01 1.225012779235839844e+00 1.887362301349639893e-01 -4.733824133872985840e-01
2.541000000000000000e+03 2.406892585754394531e+01 8.843827843666076660e-01 -2.160104960203170776e-01 -5.468108057975769043e-01 -2.288464009761810303e-01 4.944913089275360107e-01
2.542000000000000000e+03 2.394264602661132812e+01 -1.976980924606323242e+00 -8.491327762603759766e-01 -8.168748617172241211e-01 -4.998022913932800293e-01 7.862721085548400879e-01
2.543000000000000000e+03 2.416066932678222656e+01 -8.319000005722045898e-01 -5.489760637283325195e-01 -6.342121362686157227e-01 -3.549564778804779053e-01 6.524125933647155762e-01
2.544000000000000000e+03 2.567338943481445312e+01 -3.632725238800048828e+00 -9.506580829620361328e-01 -4.770745933055877686e-01 -4.283198118209838867e-01 8.168494701385498047e-01
2.545000000000000000e+03 4.354405212402343750e+01 -1.530021667480468750e+01 -6.776263117790222168e-01 2.112787961959838867e+00 4.305484890937805176e-01 -1.374107956886291504e+00
2.546000000000000000e+03 1.970070648193359375e+01 1.635264396667480469e+00 -4.354023635387420654e-01 -1.266970992088317871e+00 -5.107120275497436523e-01 8.151646852493286133e-01
2.547000000000000000e+03 1.789834594726562500e+01 4.362172126770019531e+00 7.543487008661031723e-03 -1.192215442657470703e+00 -3.554016053676605225e-01 7.425760030746459961e-01
2.548000000000000000e+03 1.587785911560058594e+01 4.896777629852294922e+00 -3.570679947733879089e-02 -1.209221839904785156e+00 -3.734785616397857666e-01 8.398541808128356934e-01
2.549000000000000000e+03 1.042835712432861328e+01 6.275239467620849609e+00 -1.095186620950698853e-01 -8.911335468292236328e-01 -3.001956641674041748e-01 8.798503875732421875e-01
2.550000000000000000e+03 2.499465942382812500e+01 -2.201903104782104492e+00 -7.580695748329162598e-01 -5.319051742553710938e-01 -3.869924247264862061e-01 7.131753563880920410e-01
2.551000000000000000e+03 4.510025787353515625e+01 -1.085087871551513672e+01 -2.578324973583221436e-01 4.107867717742919922e+00 1.155010581016540527e+00 -1.737215399742126465e+00
2.552000000000000000e+03 8.578535079956054688e+00 -7.048318386077880859e+00 1.017445902107283473e-04 3.635607208707369864e-05 4.143020123592577875e-05 -9.286794920626562089e-06
2.553000000000000000e+03 7.537648200988769531e+00 -8.734640121459960938e+00 2.056172379525378346e-04 1.451757416361942887e-04 1.052378938766196370e-04 1.327166100963950157e-04
2.554000000000000000e+03 2.598618507385253906e+01 -2.555226325988769531e+00 -7.248506546020507812e-01 -2.954489588737487793e-01 -3.060898780822753906e-01 6.726404428482055664e-01
2.555000000000000000e+03 2.569593429565429688e+01 -1.802058100700378418e+00 -6.079577207565307617e-01 -3.246311545372009277e-01 -2.797766625881195068e-01 6.139913201332092285e-01
2.556000000000000000e+03 1.102531337738037109e+01 -7.342163562774658203e+00 -9.786313603399321437e-05 9.340512292510538828e-07 -2.907872476498596370e-05 -6.233859312487766147e-05
2.557000000000000000e+03 2.220331573486328125e+01 1.112015023827552795e-01 -5.478646159172058105e-01 -9.856998324394226074e-01 -4.600693285465240479e-01 7.265903949737548828e-01
2.558000000000000000e+03 1.966807937622070312e+01 2.657511472702026367e+00 -2.144215106964111328e-01 -1.188331484794616699e+00 -4.208258986473083496e-01 7.350645661354064941e-01
2.559000000000000000e+03 3.923699188232421875e+01 -1.302481842041015625e+01 -7.894653081893920898e-01 9.098166227340698242e-01 3.610539063811302185e-02 -3.713400661945343018e-01
2.560000000000000000e+03 4.140612792968750000e+01 -6.217271804809570312e+00 1.669892221689224243e-01 3.364201307296752930e+00 1.059357166290283203e+00 -1.319172024726867676e+00
2.561000000000000000e+03 4.087418746948242188e+01 -2.797709703445434570e+00 3.443074226379394531e-01 3.951300382614135742e+00 1.288682341575622559e+00 -1.391845822334289551e+00
2.562000000000000000e+03 4.103765869140625000e+01 -5.187735557556152344e+00 2.053298056125640869e-01 3.486788034439086914e+00 1.107635378837585449e+00 -1.299222230911254883e+00
2.563000000000000000e+03 2.904959106445312500e+01 -7.512144565582275391e+00 -1.051189064979553223e+00 1.334758847951889038e-01 -2.753139734268188477e-01 9.875816702842712402e-01
2.564000000000000000e+03 2.824077606201171875e+01 -6.251571655273437500e+00 -1.018632173538208008e+00 3.603597730398178101e-02 -2.947788536548614502e-01 9.165128469467163086e-01
2.565000000000000000e+03 1.395829391479492188e+01 6.557123184204101562e+00 9.232562035322189331e-02 -1.103292226791381836e+00 -3.032899796962738037e-01 8.339043855667114258e-01
2.566000000000000000e+03 3.525826644897460938e+01 -1.154244422912597656e+01 -8.327510356903076172e-01 5.578272342681884766e-01 -8.247715234756469727e-02 5.240368247032165527e-01
2.567000000000000000e+03 3.368860626220703125e+01 -1.263505935668945312e+01 -1.165664434432983398e+00 2.482867836952209473e-01 -2.752133011817932129e-01 8.944723606109619141e-01
2.568000000000000000e+03 4.656611633300781250e+01 -2.896232604980468750e+01 1.526798009872436523e-01 3.013390541076660156e+00 9.498211145401000977e-01 6.434617638587951660e-01
2.569000000000000000e+03 4.560832214355468750e+01 -3.063131332397460938e+01 1.264297068119049072e-01 2.442417860031127930e+00 7.706542611122131348e-01 6.731053590774536133e-01
2.570000000000000000e+03 1.214223003387451172e+01 -9.779209136962890625e+00 1.568850275361910462e-04 1.792861003195866942e-04 1.008513354463502765e-04 -3.992895290139131248e-05
2.571000000000000000e+03 3.989741897583007812e+01 -3.264722108840942383e+00 2.694388628005981445e-01 3.568122863769531250e+00 1.151268482208251953e+00 -1.161811351776123047e+00
2.572000000000000000e+03 4.222080230712890625e+01 -8.580145835876464844e+00 -2.378839068114757538e-03 3.163113355636596680e+00 9.482203125953674316e-01 -1.357330799102783203e+00
2.573000000000000000e+03 5.162361145019531250e+01 -2.837283897399902344e+01 4.876223802566528320e-01 6.269019126892089844e+00 2.026992321014404297e+00 -8.716586232185363770e-01
2.574000000000000000e+03 5.131163787841796875e+01 -2.751971817016601562e+01 -2.918671257793903351e-02 6.407058715820312500e+00 1.913361549377441406e+00 -7.730807662010192871e-01
2.575000000000000000e+03 7.220903015136718750e+01 -1.601915740966796875e+01 -4.507828354835510254e-01 5.808082103729248047e+00 1.607189774513244629e+00 -6.889908313751220703e-01
2.576000000000000000e+03 5.047778701782226562e+01 -2.367514419555664062e+01 -5.489215254783630371e-01 8.940341949462890625e+00 2.517426013946533203e+00 -8.406686782836914062e-01
2.577000000000000000e+03 3.809397888183593750e+01 -1.315602493286132812e+01 -8.640488982200622559e-01 6.702581644058227539e-01 -5.813722684979438782e-02 -4.983555525541305542e-02
2.578000000000000000e+03 3.839995956420898438e+01 4.290504753589630127e-02 5.062496066093444824e-01 3.843134880065917969e+00 1.304815292358398438e+00 -9.569955468177795410e-01
2.579000000000000000e+03 5.263056564331054688e+01 -2.569256019592285156e+01 -2.261809259653091431e-02 7.020975589752197266e+00 2.099507331848144531e+00 -1.409020543098449707e+00
2.580000000000000000e+03 3.724988174438476562e+01 -2.192791938781738281e+00 2.376434653997421265e-01 2.996171951293945312e+00 9.701446294784545898e-01 -6.591308712959289551e-01
2.581000000000000000e+03 5.558008670806884766e+00 7.295944690704345703e+00 -6.684239208698272705e-02 -6.191343665122985840e-01 -2.057930380105972290e-01 5.714953541755676270e-01
2.582000000000000000e+03 2.036791419982910156e+01 1.105612516403198242e+00 -5.032479763031005859e-01 -1.232254147529602051e+00 -5.206506252288818359e-01 8.083392381668090820e-01
2.583000000000000000e+03 3.814515686035156250e+01 -1.156954383850097656e+01 -6.016587615013122559e-01 1.068685054779052734e+00 1.401078850030899048e-01 -1.748586446046829224e-01
2.584000000000000000e+03 4.477072525024414062e+01 -1.386072158813476562e+01 -6.077016592025756836e-01 3.411878585815429688e+00 8.412531018257141113e-01 -1.883063793182373047e+00
2.585000000000000000e+03 6.889689636230468750e+01 -1.786058998107910156e+01 -4.955409094691276550e-02 3.058737039566040039e+00 9.027548432350158691e-01 -7.366479039192199707e-01
2.586000000000000000e+03 1.435158634185791016e+01 5.845758914947509766e+00 1.583368889987468719e-02 -1.142244219779968262e+00 -3.379231691360473633e-01 8.579360842704772949e-01
2.587000000000000000e+03 1.151099777221679688e+01 6.827290058135986328e+00 1.771283149719238281e-02 -9.887849092483520508e-01 -2.913216352462768555e-01 8.675630688667297363e-01
2.588000000000000000e+03 3.901797103881835938e+01 -3.828916072845458984e+00 1.929293125867843628e-01 3.215816020965576172e+00 1.022623538970947266e+00 -9.566468596458435059e-01
2.589000000000000000e+03 7.327645778656005859e+00 9.003210067749023438e+00 4.114900156855583191e-02 -8.048084974288940430e-01 -2.290978580713272095e-01 6.749501228332519531e-01
2.590000000000000000e+03 8.160873413085937500e+00 1.106145763397216797e+01 1.673282235860824585e-01 -9.025206565856933594e-01 -2.205577343702316284e-01 6.365805268287658691e-01
2.591000000000000000e+03 3.607064437866210938e+01 5.050494194030761719e+00 1.172272801399230957e+00 3.686645030975341797e+00 1.457675337791442871e+00 -6.442828178405761719e-01
2.592000000000000000e+03 3.408592605590820312e+01 -1.065186595916748047e+01 -8.406854867935180664e-01 5.837539434432983398e-01 -7.707946002483367920e-02 6.844098567962646484e-01
2.593000000000000000e+03 7.928235530853271484e+00 -7.952445507049560547e+00 -3.101422917097806931e-04 -1.345575219602324069e-05 -9.707942081149667501e-05 -2.017557017097715288e-05
2.594000000000000000e+03 7.622375488281250000e+00 -9.847648620605468750e+00 -9.273256728192791343e-05 -1.887706639536190778e-05 -3.348289101268164814e-05 -1.644351432332769036e-04
2.595000000000000000e+03 4.873012161254882812e+01 -2.992734909057617188e+01 2.539499104022979736e-01 4.218625545501708984e+00 1.341772675514221191e+00 4.128987789154052734e-01
2.596000000000000000e+03 1.026344680786132812e+01 2.525797080993652344e+01 1.780456304550170898e-01 -6.980946063995361328e-01 -1.560146957635879517e-01 1.817164011299610138e-02
2.597000000000000000e+03 3.781676483154296875e+01 2.135918378829956055e+00 7.358655333518981934e-01 3.999897241592407227e+00 1.420728802680969238e+00 -8.428432941436767578e-01
2.598000000000000000e+03 3.868140029907226562e+01 -1.100860476493835449e+00 3.812219202518463135e-01 3.691446304321289062e+00 1.221800446510314941e+00 -9.819793701171875000e-01
2.599000000000000000e+03 9.956725120544433594e+00 7.589398860931396484e+00 2.222461812198162079e-02 -8.906543850898742676e-01 -2.605289220809936523e-01 8.209141492843627930e-01
2.600000000000000000e+03 3.709714508056640625e+01 5.878908634185791016e+00 1.309861302375793457e+00 4.274297237396240234e+00 1.675247550010681152e+00 -7.667509913444519043e-01
2.601000000000000000e+03 5.317166519165039062e+01 -2.093303680419921875e+01 3.763052225112915039e+00 4.423905372619628906e+00 2.456087350845336914e+00 -2.011129856109619141e+00
2.602000000000000000e+03 8.130911827087402344e+00 -1.073662662506103516e+01 -2.289871044922620058e-04 1.771430106600746512e-05 -6.338184175547212362e-05 2.569731732364743948e-04
2.603000000000000000e+03 9.240220069885253906e+00 -8.546233177185058594e+00 -1.598199596628546715e-04 -1.750610390445217490e-04 -1.004642981570214033e-04 -7.309952343348413706e-05
2.604000000000000000e+03 6.192098617553710938e+00 2.061455154418945312e+01 1.231308802962303162e-01 -1.142722010612487793e+00 -3.058773577213287354e-01 1.876879632472991943e-01
2.605000000000000000e+03 9.188397407531738281e+00 1.877440643310546875e+01 2.719875574111938477e-01 -9.054309129714965820e-01 -1.900329887866973877e-01 2.716387212276458740e-01
2.606000000000000000e+03 6.795736312866210938e+00 1.061394119262695312e+01 9.572082012891769409e-02 -8.639022707939147949e-01 -2.304544299840927124e-01 6.050106287002563477e-01
2.607000000000000000e+03 1.104079914093017578e+01 8.026156425476074219e+00 1.162105724215507507e-01 -9.582639336585998535e-01 -2.526160180568695068e-01 8.077535629272460938e-01
2.608000000000000000e+03 8.459110260009765625e+00 2.073527145385742188e+01 2.178051322698593140e-01 -9.465772509574890137e-01 -2.186316400766372681e-01 1.921494305133819580e-01
2.609000000000000000e+03 3.367539596557617188e+01 2.544106292724609375e+01 1.599402576684951782e-01 2.893631696701049805e+00 9.160715937614440918e-01 -6.018437743186950684e-01
2.610000000000000000e+03 3.665948104858398438e+01 2.739319801330566406e+01 -1.274283826351165771e-01 3.242717027664184570e+00 9.345866441726684570e-01 -3.437163829803466797e-01
2.611000000000000000e+03 1.333625316619873047e+01 -8.434904098510742188e+00 9.475420665694400668e-05 1.208432004204951227e-04 6.467922503361478448e-05 -9.930110536515712738e-05
2.612000000000000000e+03 4.657955551147460938e+01 -3.238778686523437500e+01 1.316001266241073608e-01 2.962534666061401367e+00 9.282404184341430664e-01 7.450429797172546387e-01
2.613000000000000000e+03 9.315974235534667969e+00 1.636475181579589844e+01 2.955967485904693604e-01 -9.206729531288146973e-01 -1.875228583812713623e-01 3.834123313426971436e-01
2.614000000000000000e+03 1.068451499938964844e+01 3.013824272155761719e+01 7.819781452417373657e-02 -5.751557946205139160e-01 -1.490873843431472778e-01 -7.197373360395431519e-02
2.615000000000000000e+03 3.346590042114257812e+01 1.341987705230712891e+01 1.430716037750244141e+00 3.119784116744995117e+00 1.365149974822998047e+00 -8.252770304679870605e-01
2.616000000000000000e+03 8.715065002441406250e+00 1.200247001647949219e+01 2.148197293281555176e-01 -9.240890145301818848e-01 -2.127807736396789551e-01 6.022078394889831543e-01
2.617000000000000000e+03 7.872197628021240234e+00 1.274329376220703125e+01 1.944008618593215942e-01 -9.391487240791320801e-01 -2.234243601560592651e-01 5.549442768096923828e-01
2.618000000000000000e+03 3.529558944702148438e+01 1.414865589141845703e+01 1.383378744125366211e+00 3.873023748397827148e+00 1.576920747756958008e+00 -8.622082471847534180e-01
2.619000000000000000e+03 3.415989685058593750e+01 1.966940307617187500e+01 7.854078412055969238e-01 3.348058462142944336e+00 1.240039825439453125e+00 -7.470713853836059570e-01
2.620000000000000000e+03 3.418332672119140625e+01 1.578910446166992188e+01 1.209548830986022949e+00 3.397984743118286133e+00 1.382260084152221680e+00 -8.371371626853942871e-01
2.621000000000000000e+03 3.769506454467773438e+01 2.313938522338867188e+01 3.029267489910125732e-01 3.929368257522583008e+00 1.269688487052917480e+00 -2.751852571964263916e-01
2.622000000000000000e+03 3.603133010864257812e+01 2.523251914978027344e+01 1.262437701225280762e-01 3.378335237503051758e+00 1.051373720169067383e+00 -4.447826147079467773e-01
2.623000000000000000e+03 3.435572814941406250e+01 8.306144714355468750e+00 1.514384031295776367e+00 3.199603319168090820e+00 1.414196252822875977e+00 -6.164914369583129883e-01
2.624000000000000000e+03 5.314566040039062500e+01 -3.126509666442871094e+01 1.358424782752990723e+00 6.375087261199951172e+00 2.320053577423095703e+00 -2.440900355577468872e-01
2.625000000000000000e+03 9.746654510498046875e+00 2.393750572204589844e+01 1.989017128944396973e-01 -7.889119386672973633e-01 -1.770030558109283447e-01 6.532343477010726929e-02
2.626000000000000000e+03 1.075960826873779297e+01 2.664338111877441406e+01 1.652463078498840332e-01 -6.170254945755004883e-01 -1.355337500572204590e-01 -3.288995102047920227e-02
2.627000000000000000e+03 7.169403839111328125e+01 -1.511069965362548828e+01 -2.134028524160385132e-01 5.521574974060058594e+00 1.592451691627502441e+00 -5.884472131729125977e-01
2.628000000000000000e+03 7.260803985595703125e+01 -1.456764698028564453e+01 -2.400435954332351685e-01 5.972835540771484375e+00 1.719837546348571777e+00 -5.366697311401367188e-01
2.629000000000000000e+03 4.707416534423828125e+01 -1.661003303527832031e+01 -1.731116473674774170e-01 4.681179523468017578e+00 1.352420330047607422e+00 -3.653077125549316406e+00
2.630000000000000000e+03 4.583983993530273438e+01 -1.667805290222167969e+01 -1.520880468888208270e-04 2.836089372634887695e+00 8.507811427116394043e-01 -2.552848815917968750e+00
2.631000000000000000e+03 4.871631240844726562e+01 -2.344397354125976562e+01 -1.960948854684829712e-01 6.907117843627929688e+00 2.013306856155395508e+00 1.622768759727478027e+00
2.632000000000000000e+03 4.975889205932617188e+01 -2.637747383117675781e+01 -2.651273310184478760e-01 6.197820186614990234e+00 1.779807925224304199e+00 -9.543325752019882202e-02
2.633000000000000000e+03 4.856160354614257812e+01 -1.537817287445068359e+01 -1.989505290985107422e+00 7.424214839935302734e+00 1.630412817001342773e+00 -2.792575359344482422e+00
2.634000000000000000e+03 4.770295715332031250e+01 -1.641448211669921875e+01 -7.920759916305541992e-01 6.086204528808593750e+00 1.588238477706909180e+00 -3.753585577011108398e+00
2.635000000000000000e+03 4.657537841796875000e+01 -2.626964759826660156e+01 1.581128537654876709e-01 3.041427373886108398e+00 9.598620533943176270e-01 8.165813088417053223e-01
2.636000000000000000e+03 4.784020614624023438e+01 -2.451703643798828125e+01 9.770860522985458374e-02 4.752497673034667969e+00 1.455061912536621094e+00 1.291837215423583984e+00
2.637000000000000000e+03 4.662379455566406250e+01 -2.563095664978027344e+01 2.303549498319625854e-01 3.122153759002685547e+00 1.005752563476562500e+00 9.302946329116821289e-01
2.638000000000000000e+03 4.696265411376953125e+01 -2.835232734680175781e+01 5.179954320192337036e-02 3.357856988906860352e+00 1.022896885871887207e+00 6.498507857322692871e-01
2.639000000000000000e+03 4.707816314697265625e+01 -2.673123359680175781e+01 8.438681066036224365e-02 3.625021934509277344e+00 1.112822532653808594e+00 7.743807435035705566e-01
2.640000000000000000e+03 4.552376937866210938e+01 -1.612583160400390625e+01 -3.003295958042144775e-01 2.966629981994628906e+00 7.998901009559631348e-01 -2.287414312362670898e+00
2.641000000000000000e+03 5.004798126220703125e+01 -2.322432136535644531e+01 -5.081936120986938477e-01 9.558624267578125000e+00 2.715129137039184570e+00 -4.071655273437500000e-01
2.642000000000000000e+03 3.139832687377929688e+01 -9.348523139953613281e+00 -9.585455656051635742e-01 4.004779756069183350e-01 -1.674202829599380493e-01 9.425304532051086426e-01
2.643000000000000000e+03 5.091670608520507812e+01 -2.671481132507324219e+01 -1.373888403177261353e-01 6.642106533050537109e+00 1.951415300369262695e+00 -7.315065264701843262e-01
2.644000000000000000e+03 1.208327007293701172e+01 -8.154087066650390625e+00 2.617813697725068778e-05 8.140210411511361599e-05 3.227407432859763503e-05 -2.040683830273337662e-05
2.645000000000000000e+03 3.859665298461914062e+01 -1.246839141845703125e+01 -7.263900637626647949e-01 8.881255388259887695e-01 4.852064326405525208e-02 -1.983494013547897339e-01
2.646000000000000000e+03 2.019838333129882812e+01 2.093035221099853516e+00 -3.086249232292175293e-01 -1.178643822669982910e+00 -4.461806416511535645e-01 7.373328208923339844e-01
2.647000000000000000e+03 2.783898162841796875e+01 -5.630209922790527344e+00 -9.916371703147888184e-01 -2.590516954660415649e-02 -3.052626848220825195e-01 8.737787008285522461e-01
2.648000000000000000e+03 2.769136238098144531e+01 -3.936820983886718750e+00 -7.747491002082824707e-01 6.770851463079452515e-02 -2.121121734380722046e-01 6.934432387351989746e-01
2.649000000000000000e+03 4.755716705322265625e+01 -1.502359199523925781e+01 -1.316516518592834473e+00 5.974109172821044922e+00 1.397277832031250000e+00 -2.856389522552490234e+00
2.650000000000000000e+03 3.043988418579101562e+01 -8.209136962890625000e+00 -9.575528502464294434e-01 3.730341196060180664e-01 -1.753556132316589355e-01 9.281064867973327637e-01
2.651000000000000000e+03 4.670870208740234375e+01 -1.322320079803466797e+01 -9.010637402534484863e-01 5.074926853179931641e+00 1.252158999443054199e+00 -2.072048187255859375e+00
2.652000000000000000e+03 4.732376861572265625e+01 -1.338645553588867188e+01 -1.160490870475769043e+00 5.648934841156005859e+00 1.346533179283142090e+00 -2.034932613372802734e+00
2.653000000000000000e+03 9.150835037231445312e+00 8.078796386718750000e+00 3.374980017542839050e-02 -8.541330099105834961e-01 -2.461149543523788452e-01 7.793374657630920410e-01
2.654000000000000000e+03 4.463766860961914062e+01 -1.019929885864257812e+01 -1.582186669111251831e-01 3.995420217514038086e+00 1.151160478591918945e+00 -1.695272564888000488e+00
2.655000000000000000e+03 5.138233566284179688e+01 -2.388360214233398438e+01 -1.135924533009529114e-01 8.224200248718261719e+00 2.433182239532470703e+00 -1.713739275932312012e+00
2.656000000000000000e+03 3.090470123291015625e+01 -8.787481307983398438e+00 -9.575210213661193848e-01 3.792298138141632080e-01 -1.734873652458190918e-01 9.386902451515197754e-01
2.657000000000000000e+03 1.810103225708007812e+01 5.496299743652343750e+00 2.172167450189590454e-01 -1.091395497322082520e+00 -2.622536122798919678e-01 6.439150571823120117e-01
2.658000000000000000e+03 3.189873123168945312e+01 -1.125448513031005859e+01 -1.089274764060974121e+00 2.407649159431457520e-01 -2.545529305934906006e-01 1.036281108856201172e+00
2.659000000000000000e+03 3.357571411132812500e+01 -1.144114017486572266e+01 -9.963510632514953613e-01 4.136995673179626465e-01 -1.747954636812210083e-01 8.274345993995666504e-01
2.660000000000000000e+03 5.269011306762695312e+01 -2.338334846496582031e+01 1.061089515686035156e+00 6.785511493682861328e+00 2.353980302810668945e+00 -2.294724702835083008e+00
2.661000000000000000e+03 5.205912017822265625e+01 -2.369153785705566406e+01 4.836979806423187256e-01 7.635176181793212891e+00 2.435662269592285156e+00 -2.065108537673950195e+00
2.662000000000000000e+03 2.488453483581542969e+01 1.231619715690612793e+00 -7.508641481399536133e-02 -2.996204197406768799e-01 -1.124120503664016724e-01 4.050562679767608643e-01
2.663000000000000000e+03 2.695028305053710938e+01 -2.807809829711914062e+00 -6.750077605247497559e-01 -5.240641906857490540e-02 -2.182242572307586670e-01 6.239247918128967285e-01
2.664000000000000000e+03 2.705408287048339844e+01 -4.420184135437011719e+00 -9.207132458686828613e-01 -1.492985039949417114e-01 -3.210035264492034912e-01 7.936972975730895996e-01
2.665000000000000000e+03 1.763442230224609375e+01 6.101986408233642578e+00 2.762264013290405273e-01 -1.068776249885559082e+00 -2.377649545669555664e-01 6.310431361198425293e-01
2.666000000000000000e+03 2.874345397949218750e+01 -3.997215986251831055e+00 -6.688315272331237793e-01 3.562498688697814941e-01 -9.377449750900268555e-02 6.178966760635375977e-01
2.667000000000000000e+03 1.909795570373535156e+01 3.234952688217163086e+00 -1.283939480781555176e-01 -1.189330339431762695e+00 -3.953172862529754639e-01 7.314431667327880859e-01
2.668000000000000000e+03 1.920686340332031250e+01 4.319911003112792969e+00 9.543827921152114868e-02 -1.082383990287780762e+00 -2.960837185382843018e-01 6.369109749794006348e-01
2.669000000000000000e+03 4.507498550415039062e+01 -1.641502571105957031e+01 -2.690902948379516602e-01 2.444867849349975586e+00 6.527332663536071777e-01 -1.978807568550109863e+00
2.670000000000000000e+03 4.472592163085937500e+01 -1.554111003875732422e+01 -5.007416605949401855e-01 2.788077592849731445e+00 6.862007975578308105e-01 -1.883561968803405762e+00
2.671000000000000000e+03 2.463796234130859375e+01 -1.413959264755249023e+00 -6.226634383201599121e-01 -5.731319189071655273e-01 -3.587386012077331543e-01 6.549350619316101074e-01
2.672000000000000000e+03 2.542144393920898438e+01 -9.237294197082519531e-01 -4.693715572357177734e-01 -3.275534808635711670e-01 -2.390775084495544434e-01 5.556245446205139160e-01
2.673000000000000000e+03 2.913652229309082031e+01 -4.586949348449707031e+00 -7.138413786888122559e-01 4.041644036769866943e-01 -9.290309250354766846e-02 6.510170102119445801e-01
2.674000000000000000e+03 2.639425468444824219e+01 -1.514011979103088379e+00 -4.920660853385925293e-01 -1.052413433790206909e-01 -1.791922301054000854e-01 5.424029827117919922e-01
2.675000000000000000e+03 2.083631896972656250e+01 1.685822606086730957e+00 -3.317282497882843018e-01 -1.112866759300231934e+00 -4.333784878253936768e-01 7.081803679466247559e-01
2.676000000000000000e+03 1.863611221313476562e+01 4.906438350677490234e+00 1.540135592222213745e-01 -1.089922070503234863e+00 -2.807725369930267334e-01 6.461064219474792480e-01
2.677000000000000000e+03 4.534272003173828125e+01 -1.201906299591064453e+01 -4.631617665290832520e-01 4.190568447113037109e+00 1.118221998214721680e+00 -1.836810588836669922e+00
2.678000000000000000e+03 4.053602218627929688e+01 -4.221883296966552734e+00 2.424562573432922363e-01 3.538102149963378906e+00 1.134167551994323730e+00 -1.248234987258911133e+00
2.679000000000000000e+03 4.696817398071289062e+01 -3.004794692993164062e+01 1.585688591003417969e-01 3.183346509933471680e+00 1.002574563026428223e+00 6.575302481651306152e-01
2.680000000000000000e+03 8.331982612609863281e+00 -8.901204109191894531e+00 -4.377880759420804679e-05 -2.440219395793974400e-04 -8.634022378828376532e-05 -1.965634000953286886e-04
2.681000000000000000e+03 2.522160720825195312e+01 1.657555252313613892e-01 -2.655528187751770020e-01 -2.907680869102478027e-01 -1.668962687253952026e-01 4.673573374748229980e-01
2.682000000000000000e+03 2.333051681518554688e+01 7.692375183105468750e-01 -3.053942024707794189e-01 -7.199411988258361816e-01 -3.076006174087524414e-01 5.689188241958618164e-01
2.683000000000000000e+03 4.400571441650390625e+01 -9.339920043945312500e+00 -3.023023530840873718e-02 3.756496667861938477e+00 1.117879986763000488e+00 -1.635297536849975586e+00
2.684000000000000000e+03 4.205651855468750000e+01 -1.420551490783691406e+01 -7.720106840133666992e-01 1.776753544807434082e+00 3.014228641986846924e-01 -1.056139349937438965e+00
2.685000000000000000e+03 7.717231750488281250e+00 1.004986667633056641e+01 1.092043593525886536e-01 -8.638019561767578125e-01 -2.263792902231216431e-01 6.584141254425048828e-01
2.686000000000000000e+03 1.803146362304687500e+01 7.192292213439941406e+00 4.252579808235168457e-01 -9.590984582901000977e-01 -1.601521372795104980e-01 5.396227836608886719e-01
2.687000000000000000e+03 4.444075012207031250e+01 -1.493585777282714844e+01 -5.632264018058776855e-01 2.865616321563720703e+00 6.907169818878173828e-01 -1.824379444122314453e+00
2.688000000000000000e+03 3.245505523681640625e+01 -1.046044445037841797e+01 -9.669908285140991211e-01 4.209797382354736328e-01 -1.638033390045166016e-01 9.053502678871154785e-01
2.689000000000000000e+03 5.173894119262695312e+01 -2.627552032470703125e+01 -3.334290683269500732e-01 7.007346153259277344e+00 2.002175092697143555e+00 -1.111892700195312500e+00
2.690000000000000000e+03 4.313801956176757812e+01 -1.156182479858398438e+01 -3.593348860740661621e-01 2.969324827194213867e+00 7.829969525337219238e-01 -1.452792406082153320e+00
2.691000000000000000e+03 4.393867492675781250e+01 -1.084531116485595703e+01 -2.481507807970046997e-01 3.557322740554809570e+00 9.927515387535095215e-01 -1.616469979286193848e+00
2.692000000000000000e+03 4.453778457641601562e+01 -1.207827568054199219e+01 -4.526983797550201416e-01 3.673729181289672852e+00 9.663091897964477539e-01 -1.693295836448669434e+00
2.693000000000000000e+03 3.731934738159179688e+01 -1.201354694366455078e+01 -7.481190562248229980e-01 7.759650945663452148e-01 8.353815414011478424e-03 7.711713761091232300e-02
2.694000000000000000e+03 3.460563278198242188e+01 -9.903549194335937500e+00 -6.886949539184570312e-01 7.984645962715148926e-01 3.293089941143989563e-02 4.959581196308135986e-01
2.695000000000000000e+03 3.515186309814453125e+01 -1.038817596435546875e+01 -6.932221055030822754e-01 7.771976590156555176e-01 2.519267238676548004e-02 4.380788505077362061e-01
2.696000000000000000e+03 3.003138542175292969e+01 -7.594609260559082031e+00 -9.515832066535949707e-01 3.463785350322723389e-01 -1.815614104270935059e-01 9.057539701461791992e-01
2.697000000000000000e+03 2.965702629089355469e+01 -6.970992565155029297e+00 -9.421291351318359375e-01 3.225530385971069336e-01 -1.858728379011154175e-01 8.762670755386352539e-01
2.698000000000000000e+03 3.353127288818359375e+01 -1.017117500305175781e+01 -8.361827731132507324e-01 6.046026349067687988e-01 -6.947405636310577393e-02 7.211731672286987305e-01
2.699000000000000000e+03 3.300713729858398438e+01 -1.097321319580078125e+01 -9.769425988197326660e-01 4.148560464382171631e-01 -1.686259657144546509e-01 8.769505023956298828e-01
2.700000000000000000e+03 4.766325378417968750e+01 -2.670356369018554688e+01 1.977320946753025055e-02 4.164215087890625000e+00 1.255196452140808105e+00 7.002497911453247070e-01
2.701000000000000000e+03 1.551638317108154297e+01 6.132059574127197266e+00 1.432357579469680786e-01 -1.137463927268981934e+00 -2.982684373855590820e-01 7.809849977493286133e-01
2.702000000000000000e+03 2.031469535827636719e+01 3.084377288818359375e+00 -5.097449198365211487e-02 -1.059350490570068359e+00 -3.330975174903869629e-01 6.347102522850036621e-01
2.703000000000000000e+03 2.238590049743652344e+01 1.295500993728637695e+00 -2.920470237731933594e-01 -8.851715922355651855e-01 -3.531655967235565186e-01 6.060907840728759766e-01
2.704000000000000000e+03 5.067419052124023438e+01 -2.868832206726074219e+01 3.163862824440002441e-01 5.599807262420654297e+00 1.774857997894287109e+00 -3.083021044731140137e-01
2.705000000000000000e+03 7.347313690185546875e+01 -1.403969860076904297e+01 -2.469030916690826416e-01 6.280164718627929688e+00 1.809978485107421875e+00 -5.357108116149902344e-01
2.706000000000000000e+03 3.820248794555664062e+01 -2.905207872390747070e+00 2.182713598012924194e-01 3.139124631881713867e+00 1.007218837738037109e+00 -8.231207132339477539e-01
2.707000000000000000e+03 9.011097908020019531e+00 -1.029286479949951172e+01 1.606024306965991855e-04 3.187116817571222782e-06 4.913686643703840673e-05 -1.652986247790977359e-04
2.708000000000000000e+03 1.005298137664794922e+01 -8.889685630798339844e+00 1.676141546340659261e-04 1.694269303698092699e-04 1.011123240459710360e-04 3.716217179317027330e-06
2.709000000000000000e+03 4.046155548095703125e+01 -7.404520988464355469e+00 9.342066012322902679e-03 2.827998399734497070e+00 8.512021303176879883e-01 -1.044762969017028809e+00
2.710000000000000000e+03 4.164526748657226562e+01 -9.898934364318847656e+00 -1.616851687431335449e-01 2.712374687194824219e+00 7.652068734169006348e-01 -1.164806246757507324e+00
2.711000000000000000e+03 1.074099540710449219e+01 7.149174690246582031e+00 1.007223222404718399e-02 -9.400472640991210938e-01 -2.789925038814544678e-01 8.535801768302917480e-01
2.712000000000000000e+03 9.037700653076171875e+00 1.041958141326904297e+01 1.780193150043487549e-01 -9.057012200355529785e-01 -2.183045744895935059e-01 6.810088157653808594e-01
2.713000000000000000e+03 4.783629226684570312e+01 -3.104377555847167969e+01 1.607123762369155884e-01 3.570174455642700195e+00 1.119266033172607422e+00 6.169857978820800781e-01
2.714000000000000000e+03 4.862470626831054688e+01 -3.465011215209960938e+01 -3.796719759702682495e-02 3.803638219833374023e+00 1.129701256752014160e+00 7.502977252006530762e-01
2.715000000000000000e+03 3.816578292846679688e+01 -9.840800285339355469e+00 -3.699975311756134033e-01 1.518973708152770996e+00 3.446928560733795166e-01 -3.276563882827758789e-01
2.716000000000000000e+03 4.028928756713867188e+01 -6.306335449218750000e+00 1.001821309328079224e-01 3.052856922149658203e+00 9.459117054939270020e-01 -1.085242629051208496e+00
2.717000000000000000e+03 5.109243774414062500e+01 -3.129133415222167969e+01 7.343579530715942383e-01 5.060801029205322266e+00 1.738547682762145996e+00 1.756784468889236450e-01
2.718000000000000000e+03 1.494321346282958984e+01 6.418353557586669922e+00 1.362271308898925781e-01 -1.135033011436462402e+00 -2.996417582035064697e-01 8.039333224296569824e-01
2.719000000000000000e+03 3.667317581176757812e+01 -4.399914741516113281e+00 1.331609021872282028e-02 2.391478538513183594e+00 7.214384078979492188e-01 -4.213865697383880615e-01
2.720000000000000000e+03 4.110813140869140625e+01 -1.424098014831542969e+01 -8.815172314643859863e-01 1.349032998085021973e+00 1.402547210454940796e-01 -8.090292811393737793e-01
2.721000000000000000e+03 4.112869644165039062e+01 -1.316965484619140625e+01 -6.752697229385375977e-01 1.621686816215515137e+00 2.839251160621643066e-01 -9.002140760421752930e-01
2.722000000000000000e+03 1.020507526397705078e+01 -8.087456703186035156e+00 -1.508981222286820412e-04 -6.764739373465999961e-05 -6.556365406140685081e-05 2.485101686033885926e-05
2.723000000000000000e+03 3.466044998168945312e+01 -1.111804866790771484e+01 -8.503612875938415527e-01 5.566958189010620117e-01 -8.809963613748550415e-02 6.125691533088684082e-01
2.724000000000000000e+03 3.815235137939453125e+01 1.100844264030456543e+00 6.021730303764343262e-01 3.973678112030029297e+00 1.372755408287048340e+00 -9.295611977577209473e-01
2.725000000000000000e+03 3.640460968017578125e+01 -1.534037232398986816e+00 2.600115239620208740e-01 2.834893703460693359e+00 9.284715652465820312e-01 -5.123625993728637695e-01
2.726000000000000000e+03 6.964242553710937500e+01 -1.624462127685546875e+01 6.216228008270263672e-02 4.059324264526367188e+00 1.236446022987365723e+00 -5.293077230453491211e-01
2.727000000000000000e+03 3.686838531494140625e+01 1.721468806266784668e+00 7.037308812141418457e-01 3.610008239746093750e+00 1.294121742248535156e+00 -6.962950825691223145e-01
2.728000000000000000e+03 5.329951095581054688e+01 -2.203992080688476562e+01 2.634105682373046875e+00 5.276728153228759766e+00 2.373250246047973633e+00 -2.377166032791137695e+00
2.729000000000000000e+03 3.777847290039062500e+01 4.831738948822021484e+00 1.154343485832214355e+00 4.494611740112304688e+00 1.694686532020568848e+00 -8.568845391273498535e-01
2.730000000000000000e+03 9.865704536437988281e+00 9.839759826660156250e+00 1.855179071426391602e-01 -9.179917573928833008e-01 -2.197421491146087646e-01 7.195644378662109375e-01
2.731000000000000000e+03 8.508923530578613281e+00 1.363897418975830078e+01 2.475669682025909424e-01 -9.461575746536254883e-01 -2.095771878957748413e-01 5.200122594833374023e-01
2.732000000000000000e+03 1.000078487396240234e+01 1.472112846374511719e+01 3.225488960742950439e-01 -9.125103950500488281e-01 -1.769884526729583740e-01 4.771756231784820557e-01
2.733000000000000000e+03 1.018010425567626953e+01 1.766493415832519531e+01 3.337456285953521729e-01 -8.577484488487243652e-01 -1.572008430957794189e-01 3.100212812423706055e-01
2.734000000000000000e+03 1.026785945892333984e+01 1.988137817382812500e+01 3.079541027545928955e-01 -8.113959431648254395e-01 -1.510325521230697632e-01 2.051030546426773071e-01
2.735000000000000000e+03 1.106676483154296875e+01 1.495526409149169922e+01 4.023282527923583984e-01 -8.645228743553161621e-01 -1.386583894491195679e-01 4.352096617221832275e-01
2.736000000000000000e+03 1.127108192443847656e+01 1.671641921997070312e+01 3.880963027477264404e-01 -8.145753145217895508e-01 -1.279437094926834106e-01 3.401443362236022949e-01
2.737000000000000000e+03 6.382090091705322266e+00 2.167897796630859375e+01 1.271550804376602173e-01 -1.132318496704101562e+00 -3.015490174293518066e-01 1.564014405012130737e-01
2.738000000000000000e+03 8.621571540832519531e+00 9.492332458496093750e+00 1.111482903361320496e-01 -8.708633780479431152e-01 -2.279145270586013794e-01 7.104487419128417969e-01
2.739000000000000000e+03 7.709228038787841797e+00 2.229527854919433594e+01 1.684410870075225830e-01 -1.001061797142028809e+00 -2.497862130403518677e-01 1.320954859256744385e-01
2.740000000000000000e+03 9.361870765686035156e+00 1.296324253082275391e+01 2.730699777603149414e-01 -9.300422072410583496e-01 -1.970916688442230225e-01 5.550675392150878906e-01
2.741000000000000000e+03 1.163566303253173828e+01 2.455645942687988281e+01 2.413346618413925171e-01 -5.748176574707031250e-01 -1.000448912382125854e-01 -1.453987671993672848e-03
2.742000000000000000e+03 1.221005630493164062e+01 2.614583778381347656e+01 2.050571441650390625e-01 -4.847302436828613281e-01 -8.390192687511444092e-02 -4.903825372457504272e-02
2.743000000000000000e+03 4.849259567260742188e+01 -3.686509704589843750e+01 -4.277533888816833496e-01 3.645290613174438477e+00 9.652611613273620605e-01 7.042762041091918945e-01
2.744000000000000000e+03 4.946383666992187500e+01 -3.233635330200195312e+01 3.573496043682098389e-01 4.243093013763427734e+00 1.380132794380187988e+00 6.244699954986572266e-01
2.745000000000000000e+03 3.330379104614257812e+01 1.774813079833984375e+01 1.045139551162719727e+00 3.107069015502929688e+00 1.245662569999694824e+00 -8.331198692321777344e-01
2.746000000000000000e+03 3.542070007324218750e+01 5.918551921844482422e+00 1.252679228782653809e+00 3.482882261276245117e+00 1.420668482780456543e+00 -6.025357842445373535e-01
2.747000000000000000e+03 3.635593414306640625e+01 2.558716535568237305e+00 7.788777947425842285e-01 3.481412172317504883e+00 1.278087019920349121e+00 -6.281334161758422852e-01
2.748000000000000000e+03 3.368976211547851562e+01 1.012711715698242188e+01 1.541799664497375488e+00 3.001638889312744141e+00 1.363031625747680664e+00 -6.965168118476867676e-01
2.749000000000000000e+03 1.260099411010742188e+01 2.794028091430664062e+01 1.514372825622558594e-01 -3.855641782283782959e-01 -7.023806869983673096e-02 -9.196419268846511841e-02
2.750000000000000000e+03 3.438774108886718750e+01 2.780232429504394531e+01 -1.098642870783805847e-01 2.896534919738769531e+00 8.360011577606201172e-01 -4.905463755130767822e-01
2.751000000000000000e+03 3.349009323120117188e+01 2.323301887512207031e+01 3.894886076450347900e-01 2.962710857391357422e+00 1.005659818649291992e+00 -6.671068072319030762e-01
2.752000000000000000e+03 4.062912368774414062e+01 3.131057167053222656e+01 -4.918583631515502930e-01 3.081697225570678711e+00 7.769516110420227051e-01 5.075923353433609009e-02
2.753000000000000000e+03 1.007304573059082031e+01 3.526520919799804688e+01 -7.356650661677122116e-03 -6.056594252586364746e-01 -1.839048266410827637e-01 -6.559453904628753662e-02
2.754000000000000000e+03 4.928661727905273438e+01 -2.297123527526855469e+01 -4.181244671344757080e-01 9.114314079284667969e+00 2.608856916427612305e+00 1.178532004356384277e+00
2.755000000000000000e+03 4.859060287475585938e+01 -2.383591270446777344e+01 -1.698160320520401001e-01 6.482764720916748047e+00 1.893884658813476562e+00 1.418861985206604004e+00
2.756000000000000000e+03 4.962575912475585938e+01 -2.470776367187500000e+01 -6.093639135360717773e-01 7.252533912658691406e+00 1.992951035499572754e+00 2.133440673351287842e-01
2.757000000000000000e+03 4.752215194702148438e+01 -2.860779571533203125e+01 1.366835981607437134e-01 3.695036411285400391e+00 1.149515986442565918e+00 5.745841860771179199e-01
2.758000000000000000e+03 4.779505157470703125e+01 -2.802975463867187500e+01 -2.494247164577245712e-03 4.023377895355224609e+00 1.206265091896057129e+00 5.526105165481567383e-01
2.759000000000000000e+03 4.772911453247070312e+01 -2.498885917663574219e+01 8.210698515176773071e-02 4.483817100524902344e+00 1.369777202606201172e+00 1.114120960235595703e+00
2.760000000000000000e+03 4.726148605346679688e+01 -2.573872184753417969e+01 7.333653420209884644e-02 3.874008893966674805e+00 1.184203624725341797e+00 9.172412753105163574e-01
2.761000000000000000e+03 5.161649322509765625e+01 -2.453413772583007812e+01 -1.535916626453399658e-01 7.773124694824218750e+00 2.285860061645507812e+00 -1.532664775848388672e+00
2.762000000000000000e+03 4.800659179687500000e+01 -1.609332656860351562e+01 -1.309240341186523438e+00 6.845883846282958984e+00 1.660992980003356934e+00 -3.576152563095092773e+00
2.763000000000000000e+03 4.544620895385742188e+01 -1.502558517456054688e+01 -6.044852733612060547e-01 3.510625362396240234e+00 8.718420267105102539e-01 -2.231875181198120117e+00
2.764000000000000000e+03 4.719026184082031250e+01 -2.517562675476074219e+01 2.008827924728393555e-01 3.732388496398925781e+00 1.179981350898742676e+00 1.068243980407714844e+00
2.765000000000000000e+03 4.540688323974609375e+01 -1.261447048187255859e+01 -6.025330424308776855e-01 4.139604568481445312e+00 1.061121463775634766e+00 -1.864676594734191895e+00
2.766000000000000000e+03 3.192778587341308594e+01 -8.629992485046386719e+00 -8.430047035217285156e-01 5.821425318717956543e-01 -7.825866341590881348e-02 8.044796586036682129e-01
2.767000000000000000e+03 4.659199905395507812e+01 -1.375225830078125000e+01 -9.674143791198730469e-01 4.965623855590820312e+00 1.199462890625000000e+00 -2.167344808578491211e+00
2.768000000000000000e+03 4.704784774780273438e+01 -1.391337585449218750e+01 -1.173289895057678223e+00 5.448907375335693359e+00 1.282685279846191406e+00 -2.333371162414550781e+00
2.769000000000000000e+03 4.544889068603515625e+01 -1.377278900146484375e+01 -6.698202490806579590e-01 3.975244522094726562e+00 9.916272759437561035e-01 -2.058307886123657227e+00
2.770000000000000000e+03 4.465602493286132812e+01 -1.612795829772949219e+01 -4.282873272895812988e-01 2.419281959533691406e+00 5.972983837127685547e-01 -1.770905256271362305e+00
2.771000000000000000e+03 4.604796981811523438e+01 -1.373504352569580078e+01 -8.205523490905761719e-01 4.543761730194091797e+00 1.116962790489196777e+00 -2.150586843490600586e+00
2.772000000000000000e+03 3.094955444335937500e+01 -7.663528919219970703e+00 -8.597058653831481934e-01 5.101596117019653320e-01 -1.048638746142387390e-01 8.188820481300354004e-01
2.773000000000000000e+03 2.846896171569824219e+01 -5.117589950561523438e+00 -8.571497201919555664e-01 1.918226033449172974e-01 -1.995981484651565552e-01 7.642192840576171875e-01
2.774000000000000000e+03 2.899441146850585938e+01 -2.883177757263183594e+00 -4.778779745101928711e-01 5.215834379196166992e-01 1.311162952333688736e-02 4.773017764091491699e-01
2.775000000000000000e+03 2.926297187805175781e+01 -6.350375175476074219e+00 -9.119859337806701660e-01 2.869950830936431885e-01 -1.874972581863403320e-01 8.431246876716613770e-01
2.776000000000000000e+03 3.034563255310058594e+01 -6.425920486450195312e+00 -8.023296594619750977e-01 5.325878858566284180e-01 -8.092253655195236206e-02 7.390313148498535156e-01
2.777000000000000000e+03 2.807835197448730469e+01 -4.519644260406494141e+00 -8.212072849273681641e-01 1.300463676452636719e-01 -2.073482871055603027e-01 7.283604741096496582e-01
2.778000000000000000e+03 4.268167877197265625e+01 -1.061416816711425781e+01 -2.419806122779846191e-01 2.912532329559326172e+00 8.011655211448669434e-01 -1.377812147140502930e+00
2.779000000000000000e+03 2.099964714050292969e+01 3.489723205566406250e+00 7.136742770671844482e-02 -9.234412908554077148e-01 -2.556221485137939453e-01 5.421452522277832031e-01
2.780000000000000000e+03 4.916323089599609375e+01 -2.891493225097656250e+01 1.141236424446105957e-01 4.684779644012451172e+00 1.439670920372009277e+00 2.394988238811492920e-01
2.781000000000000000e+03 4.722917938232421875e+01 -2.925571632385253906e+01 8.649750798940658569e-02 3.456675052642822266e+00 1.062951803207397461e+00 6.077388525009155273e-01
2.782000000000000000e+03 2.834315299987792969e+01 -3.426346778869628906e+00 -6.246725320816040039e-01 2.928988635540008545e-01 -9.953209757804870605e-02 5.866533517837524414e-01
2.783000000000000000e+03 2.731175041198730469e+01 -3.370219230651855469e+00 -7.265001535415649414e-01 2.768863923847675323e-03 -2.171193808317184448e-01 6.562370657920837402e-01
2.784000000000000000e+03 1.977451133728027344e+01 3.717771053314208984e+00 2.204967848956584930e-02 -1.079174399375915527e+00 -3.171373903751373291e-01 6.319833397865295410e-01
2.785000000000000000e+03 1.991165733337402344e+01 4.818983554840087891e+00 2.254452556371688843e-01 -9.665398001670837402e-01 -2.223283648490905762e-01 5.414422750473022461e-01
2.786000000000000000e+03 3.352051544189453125e+01 -8.904078483581542969e+00 -7.023883461952209473e-01 8.160273432731628418e-01 3.409169986844062805e-02 5.896883606910705566e-01
2.787000000000000000e+03 2.369808197021484375e+01 -3.299615085124969482e-01 -5.283249616622924805e-01 -7.343055009841918945e-01 -3.787891268730163574e-01 6.241181492805480957e-01
2.788000000000000000e+03 2.437684059143066406e+01 2.042989492416381836e+00 2.507590316236019135e-02 -3.770050704479217529e-01 -1.055787503719329834e-01 3.792024552822113037e-01
2.789000000000000000e+03 2.626435470581054688e+01 -6.811610460281372070e-01 -3.520682156085968018e-01 -7.782466709613800049e-02 -1.289678663015365601e-01 4.650668203830718994e-01
2.790000000000000000e+03 2.662800407409667969e+01 -2.207865476608276367e+00 -5.980076789855957031e-01 -9.329260140657424927e-02 -2.073900848627090454e-01 5.866978764533996582e-01
2.791000000000000000e+03 3.064729118347167969e+01 -7.091480731964111328e+00 -8.292846083641052246e-01 5.296377539634704590e-01 -8.989406377077102661e-02 7.815697789192199707e-01
2.792000000000000000e+03 8.531390190124511719e+00 -8.302140235900878906e+00 2.167930797440931201e-04 1.118752479669637978e-04 9.860049613052979112e-05 2.419815282337367535e-04
2.793000000000000000e+03 1.725480461120605469e+01 6.754936695098876953e+00 3.313862085342407227e-01 -1.048095703125000000e+00 -2.150128483772277832e-01 6.272907853126525879e-01
2.794000000000000000e+03 4.376042938232421875e+01 -1.453078079223632812e+01 -6.264041662216186523e-01 2.607124090194702148e+00 5.942159295082092285e-01 -1.554192543029785156e+00
2.795000000000000000e+03 2.373537254333496094e+01 1.778649568557739258e+00 -4.925742372870445251e-02 -5.262843370437622070e-01 -1.726625263690948486e-01 4.431143403053283691e-01
2.796000000000000000e+03 2.710103988647460938e+01 -6.332712173461914062e-01 -2.637364864349365234e-01 1.552541702985763550e-01 -3.254469111561775208e-02 4.042555987834930420e-01
2.797000000000000000e+03 2.755869865417480469e+01 -2.373088121414184570e+00 -5.388502478599548340e-01 1.456530094146728516e-01 -1.179591640830039978e-01 5.349733233451843262e-01
2.798000000000000000e+03 3.912757110595703125e+01 -6.148130416870117188e+00 3.768164664506912231e-02 2.700749874114990234e+00 8.215295076370239258e-01 -8.306202888488769531e-01
2.799000000000000000e+03 3.920636749267578125e+01 -5.223773002624511719e+00 9.157242625951766968e-02 2.925468683242797852e+00 9.051123857498168945e-01 -8.987712860107421875e-01
2.800000000000000000e+03 4.801132583618164062e+01 -2.745016098022460938e+01 6.479998677968978882e-02 4.229349136352539062e+00 1.288244843482971191e+00 5.306534767150878906e-01
2.801000000000000000e+03 4.015292358398437500e+01 -1.215156078338623047e+01 -5.514165759086608887e-01 1.540761113166809082e+00 2.968033552169799805e-01 -6.886421442031860352e-01
2.802000000000000000e+03 3.624636840820312500e+01 -1.105137825012207031e+01 -6.700275540351867676e-01 8.443290591239929199e-01 5.229045078158378601e-02 2.474832832813262939e-01
2.803000000000000000e+03 1.361980915069580078e+01 8.259165763854980469e+00 2.659980356693267822e-01 -1.029962301254272461e+00 -2.291892766952514648e-01 7.479147911071777344e-01
2.804000000000000000e+03 3.747890472412109375e+01 -1.263309359550476074e+00 3.377642631530761719e-01 3.241604328155517578e+00 1.073810577392578125e+00 -7.461885213851928711e-01
2.805000000000000000e+03 3.740825653076171875e+01 -3.684678554534912109e+00 1.087056174874305725e-01 2.707358360290527344e+00 8.448191881179809570e-01 -6.029760837554931641e-01
2.806000000000000000e+03 3.052686309814453125e+01 -5.266716003417968750e+00 -6.535049676895141602e-01 6.894365549087524414e-01 1.077946089208126068e-02 5.990459918975830078e-01
2.807000000000000000e+03 2.951031112670898438e+01 -5.196837902069091797e+00 -7.481402754783630371e-01 4.571843743324279785e-01 -8.728677034378051758e-02 6.891747713088989258e-01
2.808000000000000000e+03 4.212237167358398438e+01 -1.196844577789306641e+01 -4.256388545036315918e-01 2.388913631439208984e+00 5.889824032783508301e-01 -1.246334910392761230e+00
2.809000000000000000e+03 8.885132789611816406e+00 1.492365074157714844e+01 2.702866196632385254e-01 -9.435241818428039551e-01 -2.019712775945663452e-01 4.650873541831970215e-01
2.810000000000000000e+03 2.201777267456054688e+01 1.967617154121398926e+00 -1.568578183650970459e-01 -8.831329345703125000e-01 -3.119972348213195801e-01 5.765500664710998535e-01
2.811000000000000000e+03 2.163769340515136719e+01 1.353045105934143066e+00 -3.332718312740325928e-01 -1.003504633903503418e+00 -4.010329544544219971e-01 6.702290177345275879e-01
2.812000000000000000e+03 3.717249679565429688e+01 -1.813977509737014771e-01 4.568681120872497559e-01 3.383897542953491211e+00 1.152229666709899902e+00 -7.192680239677429199e-01
2.813000000000000000e+03 3.289801406860351562e+01 -4.507296085357666016e+00 -3.146351277828216553e-01 1.363328576087951660e+00 3.146080374717712402e-01 2.368860244750976562e-01
2.814000000000000000e+03 5.003167343139648438e+01 -2.995451927185058594e+01 4.386497139930725098e-01 4.835745811462402344e+00 1.582318544387817383e+00 1.372904181480407715e-01
2.815000000000000000e+03 5.018082046508789062e+01 -2.708561515808105469e+01 -2.369681149721145630e-01 6.124375820159912109e+00 1.766222357749938965e+00 -3.037449419498443604e-01
2.816000000000000000e+03 3.566572189331054688e+01 -1.082446289062500000e+01 -7.164854407310485840e-01 7.737491726875305176e-01 1.717912219464778900e-02 3.713612556457519531e-01
2.817000000000000000e+03 3.405926132202148438e+01 -9.404862403869628906e+00 -6.940394639968872070e-01 8.087215423583984375e-01 3.440462052822113037e-02 5.538121461868286133e-01
2.818000000000000000e+03 1.136656761169433594e+01 8.897099494934082031e+00 1.961029469966888428e-01 -9.616826772689819336e-01 -2.296739220619201660e-01 7.638362050056457520e-01
2.819000000000000000e+03 1.012038135528564453e+01 1.220913982391357422e+01 2.998777329921722412e-01 -9.227073192596435547e-01 -1.868488937616348267e-01 5.967993140220642090e-01
2.820000000000000000e+03 4.250217437744140625e+01 -9.693784713745117188e+00 -1.105324625968933105e-01 3.081386566162109375e+00 8.912562727928161621e-01 -1.361617445945739746e+00
2.821000000000000000e+03 3.997192764282226562e+01 -1.021629238128662109e+01 -2.806733846664428711e-01 1.964159488677978516e+00 5.050458312034606934e-01 -7.909831404685974121e-01
2.822000000000000000e+03 4.174361419677734375e+01 -7.352893352508544922e+00 9.988921135663986206e-02 3.251876831054687500e+00 1.005529761314392090e+00 -1.330549359321594238e+00
2.823000000000000000e+03 4.330221557617187500e+01 -1.003069400787353516e+01 -1.449240893125534058e-01 3.315890073776245117e+00 9.512897729873657227e-01 -1.515750288963317871e+00
2.824000000000000000e+03 1.280608367919921875e+01 8.274354934692382812e+00 2.228453755378723145e-01 -1.011480689048767090e+00 -2.365905940532684326e-01 7.704846262931823730e-01
2.825000000000000000e+03 1.451655387878417969e+01 7.631241798400878906e+00 2.743442356586456299e-01 -1.065020799636840820e+00 -2.372029870748519897e-01 7.403734326362609863e-01
2.826000000000000000e+03 5.009191513061523438e+01 -3.179580116271972656e+01 4.354088008403778076e-01 4.480113029479980469e+00 1.474656581878662109e+00 4.637733399868011475e-01
2.827000000000000000e+03 4.293083572387695312e+01 -1.430443191528320312e+01 -6.831379532814025879e-01 2.156921625137329102e+00 4.421350955963134766e-01 -1.285664677619934082e+00
2.828000000000000000e+03 4.314989471435546875e+01 -1.332339668273925781e+01 -5.637830495834350586e-01 2.577463626861572266e+00 6.041042208671569824e-01 -1.415515780448913574e+00
2.829000000000000000e+03 3.705323410034179688e+01 8.414014577865600586e-01 5.547683835029602051e-01 3.476084470748901367e+00 1.209255814552307129e+00 -7.147880196571350098e-01
2.830000000000000000e+03 3.755024337768554688e+01 -1.065066051483154297e+01 -5.111915469169616699e-01 1.177679538726806641e+00 1.999463886022567749e-01 -9.659107029438018799e-02
2.831000000000000000e+03 4.097488784790039062e+01 -1.106537246704101562e+01 -3.175847530364990234e-01 2.137666940689086914e+00 5.460246801376342773e-01 -9.755470752716064453e-01
2.832000000000000000e+03 4.012651824951171875e+01 -5.389678478240966797e+00 1.380541026592254639e-01 3.168694257736206055e+00 9.920245409011840820e-01 -1.102699756622314453e+00
2.833000000000000000e+03 4.131103897094726562e+01 -8.929289817810058594e+00 -1.117593720555305481e-01 2.792506217956542969e+00 8.042240738868713379e-01 -1.136215925216674805e+00
2.834000000000000000e+03 1.027460193634033203e+01 2.195476722717285156e+01 2.641887664794921875e-01 -7.691413760185241699e-01 -1.514857709407806396e-01 1.204128041863441467e-01
2.835000000000000000e+03 5.438629150390625000e+01 -3.095801734924316406e+01 2.122701406478881836e+00 7.009009838104248047e+00 2.739513397216796875e+00 -6.356208920478820801e-01
2.836000000000000000e+03 5.309808349609375000e+01 -3.005583000183105469e+01 1.355785846710205078e+00 6.276400089263916016e+00 2.289655685424804688e+00 -5.799710154533386230e-01
2.837000000000000000e+03 9.537856101989746094e+00 1.132267093658447266e+01 2.393938899040222168e-01 -9.228018522262573242e-01 -2.050223946571350098e-01 6.448529362678527832e-01
2.838000000000000000e+03 8.976581573486328125e+00 -9.160071372985839844e+00 1.756180427037179470e-04 1.713460660539567471e-04 1.040892384480684996e-04 1.059176938724704087e-04
2.839000000000000000e+03 3.445747756958007812e+01 5.160820484161376953e+00 1.108548998832702637e+00 2.963472843170166016e+00 1.221606492996215820e+00 -4.927187263965606689e-01
2.840000000000000000e+03 3.211411285400390625e+01 1.417529869079589844e+01 1.337161779403686523e+00 2.576999902725219727e+00 1.174248456954956055e+00 -7.581309676170349121e-01
2.841000000000000000e+03 3.671992874145507812e+01 4.125373363494873047e+00 1.026062607765197754e+00 3.856084108352661133e+00 1.464643955230712891e+00 -6.996248364448547363e-01
2.842000000000000000e+03 3.398623657226562500e+01 1.460484600067138672e+01 1.352306127548217773e+00 3.314837932586669922e+00 1.400143146514892578e+00 -8.448730707168579102e-01
2.843000000000000000e+03 3.557381439208984375e+01 1.551503944396972656e+01 1.215072751045227051e+00 4.047973632812500000e+00 1.578913927078247070e+00 -8.336101174354553223e-01
2.844000000000000000e+03 3.470578384399414062e+01 6.678533554077148438e+00 1.339880943298339844e+00 3.196070432662963867e+00 1.360785484313964844e+00 -5.681346058845520020e-01
2.845000000000000000e+03 9.214028358459472656e+00 2.275888061523437500e+01 2.050601840019226074e-01 -8.646220564842224121e-01 -1.978685706853866577e-01 1.094181612133979797e-01
2.846000000000000000e+03 1.304879951477050781e+01 2.376849937438964844e+01 3.068771660327911377e-01 -4.580702781677246094e-01 -4.535793140530586243e-02 -1.334185712039470673e-02
2.847000000000000000e+03 1.546311187744140625e+01 2.454253578186035156e+01 3.403957188129425049e-01 -1.654796749353408813e-01 5.247481539845466614e-02 -1.198239848017692566e-01
2.848000000000000000e+03 2.833976554870605469e+01 1.507638454437255859e+01 1.163093209266662598e+00 1.431961894035339355e+00 7.785165309906005859e-01 -6.042684316635131836e-01
2.849000000000000000e+03 2.999009323120117188e+01 2.405891799926757812e+01 3.927967250347137451e-01 2.200724363327026367e+00 7.780563235282897949e-01 -6.916034221649169922e-01
2.850000000000000000e+03 4.875242614746093750e+01 -2.511899757385253906e+01 -3.117874860763549805e-01 6.038857460021972656e+00 1.718121051788330078e+00 7.284013628959655762e-01
2.851000000000000000e+03 4.682109069824218750e+01 -1.615477561950683594e+01 -4.389177858829498291e-01 4.573152065277099609e+00 1.240270376205444336e+00 -3.279460668563842773e+00
2.852000000000000000e+03 4.660435104370117188e+01 -1.562226104736328125e+01 -6.465756297111511230e-01 4.588419914245605469e+00 1.182553291320800781e+00 -2.933605909347534180e+00
2.853000000000000000e+03 4.580210876464843750e+01 -1.539785099029541016e+01 -5.087054371833801270e-01 3.713894844055175781e+00 9.615567922592163086e-01 -2.479903221130371094e+00
2.854000000000000000e+03 4.752073669433593750e+01 -2.728701019287109375e+01 9.006392210721969604e-03 3.980268955230712891e+00 1.196782588958740234e+00 6.299791932106018066e-01
2.855000000000000000e+03 4.498432540893554688e+01 -1.455048942565917969e+01 -6.083989143371582031e-01 3.385149478912353516e+00 8.330251574516296387e-01 -1.983620524406433105e+00
2.856000000000000000e+03 4.729606628417968750e+01 -1.617227935791015625e+01 -6.637306213378906250e-01 5.441930770874023438e+00 1.433459997177124023e+00 -3.556329011917114258e+00
2.857000000000000000e+03 4.760238647460937500e+01 -1.572986030578613281e+01 -1.164664030075073242e+00 6.108555316925048828e+00 1.483167290687561035e+00 -3.275148391723632812e+00
2.858000000000000000e+03 4.923449707031250000e+01 -2.570755577087402344e+01 -4.300961196422576904e-01 6.190925121307373047e+00 1.728248715400695801e+00 3.097591400146484375e-01
2.859000000000000000e+03 5.079242324829101562e+01 -2.415133476257324219e+01 -4.665189087390899658e-01 8.559572219848632812e+00 2.427916049957275391e+00 -1.095046281814575195e+00
2.860000000000000000e+03 4.529579162597656250e+01 -1.552220916748046875e+01 -4.464893937110900879e-01 3.148168802261352539e+00 8.105037808418273926e-01 -2.200995922088623047e+00
2.861000000000000000e+03 4.852422714233398438e+01 -2.924042701721191406e+01 1.598825156688690186e-01 4.334847927093505859e+00 1.348419070243835449e+00 3.776840269565582275e-01
2.862000000000000000e+03 4.846789550781250000e+01 -2.430023574829101562e+01 -1.746248751878738403e-01 5.883090972900390625e+00 1.712539911270141602e+00 1.310957193374633789e+00
2.863000000000000000e+03 4.823968124389648438e+01 -2.521979141235351562e+01 -1.258186250925064087e-01 5.231511592864990234e+00 1.531707882881164551e+00 8.979856371879577637e-01
2.864000000000000000e+03 4.543484878540039062e+01 -1.319838809967041016e+01 -6.727263927459716797e-01 4.050621986389160156e+00 1.013368606567382812e+00 -1.961838841438293457e+00
2.865000000000000000e+03 4.426595306396484375e+01 -1.303689193725585938e+01 -5.424248576164245605e-01 3.292930841445922852e+00 8.251517415046691895e-01 -1.711220622062683105e+00
2.866000000000000000e+03 3.187211990356445312e+01 -7.415787220001220703e+00 -7.358753681182861328e-01 7.467128634452819824e-01 3.251248039305210114e-03 6.778081655502319336e-01
2.867000000000000000e+03 3.299003219604492188e+01 -9.673356056213378906e+00 -8.338795304298400879e-01 6.031872034072875977e-01 -6.920770555734634399e-02 7.601513266563415527e-01
2.868000000000000000e+03 4.713558959960937500e+01 -1.531669139862060547e+01 -9.886593818664550781e-01 5.349855899810791016e+00 1.308358907699584961e+00 -2.993069887161254883e+00
2.869000000000000000e+03 4.756303405761718750e+01 -2.541664123535156250e+01 7.473374158143997192e-02 4.193664073944091797e+00 1.280519366264343262e+00 1.042705655097961426e+00
2.870000000000000000e+03 4.705413436889648438e+01 -2.630438423156738281e+01 9.807451814413070679e-02 3.536351919174194336e+00 1.090327978134155273e+00 8.089968562126159668e-01
2.871000000000000000e+03 4.872652435302734375e+01 -2.717160987854003906e+01 -4.208024218678474426e-02 5.019481182098388672e+00 1.493220329284667969e+00 3.571314513683319092e-01
2.872000000000000000e+03 2.762324905395507812e+01 -1.462375521659851074e+00 -3.670570850372314453e-01 2.408703416585922241e-01 -3.785602375864982605e-02 4.404614269733428955e-01
2.873000000000000000e+03 2.046796607971191406e+01 4.186432361602783203e+00 1.606022566556930542e-01 -9.393076300621032715e-01 -2.336116135120391846e-01 5.391606092453002930e-01
2.874000000000000000e+03 2.078313827514648438e+01 2.394406795501708984e+00 -1.659713238477706909e-01 -1.057293415069580078e+00 -3.669794201850891113e-01 6.451178789138793945e-01
2.875000000000000000e+03 3.142041587829589844e+01 -8.126152038574218750e+00 -8.555706739425659180e-01 5.484436154365539551e-01 -9.213811904191970825e-02 8.171748518943786621e-01
2.876000000000000000e+03 3.242839431762695312e+01 -7.889252185821533203e+00 -7.240042090415954590e-01 7.838325500488281250e-01 1.794850826263427734e-02 6.491467952728271484e-01
2.877000000000000000e+03 2.410853576660156250e+01 2.885841131210327148e+00 1.745834052562713623e-01 -3.732370138168334961e-01 -5.959607660770416260e-02 3.409830927848815918e-01
2.878000000000000000e+03 2.305897140502929688e+01 1.548935770988464355e+00 -1.526183784008026123e-01 -7.018042206764221191e-01 -2.563267946243286133e-01 5.273978710174560547e-01
2.879000000000000000e+03 3.245304107666015625e+01 -9.153885841369628906e+00 -8.391882777214050293e-01 6.012825369834899902e-01 -7.137171924114227295e-02 7.829331159591674805e-01
2.880000000000000000e+03 3.908446502685546875e+01 -1.121907806396484375e+01 -4.627237915992736816e-01 1.412012696266174316e+00 2.847866714000701904e-01 -4.671930670738220215e-01
2.881000000000000000e+03 3.653280258178710938e+01 -7.045449733734130859e+00 -2.433867752552032471e-01 1.763600468635559082e+00 4.560641050338745117e-01 -1.549287736415863037e-01
2.882000000000000000e+03 5.124216842651367188e+01 -2.553495025634765625e+01 -3.373578190803527832e-01 7.314592361450195312e+00 2.093170404434204102e+00 -9.751164913177490234e-01
2.883000000000000000e+03 2.794590187072753906e+01 -2.882773876190185547e+00 -5.836789011955261230e-01 2.210902422666549683e-01 -1.087765991687774658e-01 5.612711906433105469e-01
2.884000000000000000e+03 3.828736495971679688e+01 -4.532670497894287109e+00 9.331197291612625122e-02 2.814847469329833984e+00 8.724478483200073242e-01 -7.425764799118041992e-01
2.885000000000000000e+03 3.735119628906250000e+01 -6.969301223754882812e+00 -1.541568338871002197e-01 2.061600208282470703e+00 5.722330212593078613e-01 -3.726565539836883545e-01
2.886000000000000000e+03 3.103559303283691406e+01 -5.757598400115966797e+00 -6.624144911766052246e-01 7.483800649642944336e-01 2.578966319561004639e-02 6.026867628097534180e-01
2.887000000000000000e+03 2.990840721130371094e+01 -5.811536788940429688e+00 -7.753933072090148926e-01 5.120711326599121094e-01 -7.899666577577590942e-02 7.159706950187683105e-01
2.888000000000000000e+03 5.044649887084960938e+01 -2.595152473449707031e+01 -5.093032121658325195e-01 6.894547939300537109e+00 1.915573358535766602e+00 -5.014871358871459961e-01
2.889000000000000000e+03 5.093175506591796875e+01 -2.480964279174804688e+01 -5.026937723159790039e-01 7.824790000915527344e+00 2.196628808975219727e+00 -1.033571600914001465e+00
2.890000000000000000e+03 1.249127292633056641e+01 7.455089092254638672e+00 1.370291262865066528e-01 -1.023470282554626465e+00 -2.659323215484619141e-01 8.235709071159362793e-01
2.891000000000000000e+03 1.936703491210937500e+01 5.420985221862792969e+00 2.950195074081420898e-01 -9.681746959686279297e-01 -2.019465565681457520e-01 5.461450815200805664e-01
2.892000000000000000e+03 1.889631652832031250e+01 6.027211666107177734e+00 3.529000282287597656e-01 -9.731269478797912598e-01 -1.860680729150772095e-01 5.462001562118530273e-01
2.893000000000000000e+03 5.048694992065429688e+01 -2.784868240356445312e+01 1.124932989478111267e-01 5.968869209289550781e+00 1.824408769607543945e+00 -4.665994942188262939e-01
2.894000000000000000e+03 4.217598342895507812e+01 -1.311534404754638672e+01 -5.868934392929077148e-01 2.137670755386352539e+00 4.652332067489624023e-01 -1.197659730911254883e+00
2.895000000000000000e+03 1.846857261657714844e+01 6.635917186737060547e+00 3.844760060310363770e-01 -9.830899834632873535e-01 -1.795841902494430542e-01 5.427859425544738770e-01
2.896000000000000000e+03 1.859225654602050781e+01 7.795219421386718750e+00 5.310735106468200684e-01 -8.564096093177795410e-01 -9.760082513093948364e-02 4.561363160610198975e-01
2.897000000000000000e+03 2.855961418151855469e+01 -2.344788789749145508e+00 -4.327118694782257080e-01 4.446252584457397461e-01 3.574011148884892464e-03 4.601147770881652832e-01
2.898000000000000000e+03 3.460034179687500000e+01 -8.686609268188476562e+00 -5.610944032669067383e-01 1.041885733604431152e+00 1.442374140024185181e-01 3.672863543033599854e-01
2.899000000000000000e+03 2.554713630676269531e+01 1.978034377098083496e+00 9.720551967620849609e-02 -8.916911482810974121e-02 2.410922665148973465e-03 2.984026372432708740e-01
2.900000000000000000e+03 2.643852615356445312e+01 1.490176200866699219e+00 8.657246828079223633e-02 1.090075895190238953e-01 5.867401883006095886e-02 2.840233445167541504e-01
2.901000000000000000e+03 3.754851531982421875e+01 -5.157781124114990234e+00 6.220722571015357971e-03 2.454912900924682617e+00 7.383400797843933105e-01 -5.565489530563354492e-01
2.902000000000000000e+03 2.705380821228027344e+01 -1.356439948081970215e+00 -3.992399573326110840e-01 9.574982523918151855e-02 -9.104704111814498901e-02 4.731854200363159180e-01
2.903000000000000000e+03 4.884572219848632812e+01 -3.076177024841308594e+01 2.348316311836242676e-01 4.236437797546386719e+00 1.341380834579467773e+00 5.002528429031372070e-01
2.904000000000000000e+03 3.166198730468750000e+01 -6.220000743865966797e+00 -6.393794417381286621e-01 8.389382958412170410e-01 5.986764281988143921e-02 5.791222453117370605e-01
2.905000000000000000e+03 1.434479808807373047e+01 9.437591552734375000e+00 4.108097851276397705e-01 -9.748387932777404785e-01 -1.692087054252624512e-01 6.399866938591003418e-01
2.906000000000000000e+03 1.580980968475341797e+01 7.969071865081787109e+00 3.831970393657684326e-01 -1.021703362464904785e+00 -1.915519088506698608e-01 6.481286883354187012e-01
2.907000000000000000e+03 1.546436786651611328e+01 6.815642356872558594e+00 2.472919076681137085e-01 -1.089666366577148438e+00 -2.527123391628265381e-01 7.289369106292724609e-01
2.908000000000000000e+03 2.220014190673828125e+01 3.128136634826660156e+00 9.488343447446823120e-02 -7.315389513969421387e-01 -1.909966617822647095e-01 4.748554825782775879e-01
2.909000000000000000e+03 2.267725753784179688e+01 2.341160297393798828e+00 -2.852112241089344025e-02 -7.295821309089660645e-01 -2.274309843778610229e-01 4.740724265575408936e-01
2.910000000000000000e+03 4.052972030639648438e+01 -8.417303085327148438e+00 -6.516426056623458862e-02 2.597394466400146484e+00 7.596690654754638672e-01 -1.001287102699279785e+00
2.911000000000000000e+03 3.650078201293945312e+01 -6.294515609741210938e+00 -1.931308358907699585e-01 1.926452279090881348e+00 5.199964642524719238e-01 -2.127373367547988892e-01
2.912000000000000000e+03 3.906029891967773438e+01 -1.018988704681396484e+01 -3.486102819442749023e-01 1.684991717338562012e+00 4.009144306182861328e-01 -5.179867744445800781e-01
2.913000000000000000e+03 4.799253082275390625e+01 -3.221998977661132812e+01 1.766531467437744141e-01 3.679660081863403320e+00 1.156893968582153320e+00 7.097082734107971191e-01
2.914000000000000000e+03 5.036035156250000000e+01 -3.119823646545410156e+01 5.588372945785522461e-01 4.792142868041992188e+00 1.605294108390808105e+00 2.134432345628738403e-01
2.915000000000000000e+03 3.589333343505859375e+01 -5.403601527214050293e-01 3.667735159397125244e-01 2.823013067245483398e+00 9.569359421730041504e-01 -4.653894901275634766e-01
2.916000000000000000e+03 3.683726119995117188e+01 -9.909884452819824219e+00 -4.933761060237884521e-01 1.235231637954711914e+00 2.225566655397415161e-01 6.318828556686639786e-03
2.917000000000000000e+03 1.334451866149902344e+01 9.718656539916992188e+00 3.692525625228881836e-01 -9.727731347084045410e-01 -1.810561716556549072e-01 6.686668992042541504e-01
2.918000000000000000e+03 5.071374511718750000e+01 -3.411436843872070312e+01 2.710915356874465942e-02 4.737318992614746094e+00 1.429328322410583496e+00 6.535046100616455078e-01
2.919000000000000000e+03 5.075902175903320312e+01 -3.223347854614257812e+01 4.855291545391082764e-01 4.800814151763916016e+00 1.585902929306030273e+00 3.911239802837371826e-01
2.920000000000000000e+03 9.478369712829589844e+00 8.954435348510742188e+00 1.132790222764015198e-01 -8.928008675575256348e-01 -2.338565587997436523e-01 7.546606659889221191e-01
2.921000000000000000e+03 1.027987003326416016e+01 8.452936172485351562e+00 1.106552630662918091e-01 -9.229936599731445312e-01 -2.437015175819396973e-01 7.881131768226623535e-01
2.922000000000000000e+03 1.039534091949462891e+01 1.575308322906494141e+01 3.594992160797119141e-01 -8.728438019752502441e-01 -1.540033668279647827e-01 3.983435034751892090e-01
2.923000000000000000e+03 5.369268417358398438e+01 -3.398689651489257812e+01 -4.559202864766120911e-02 6.188684463500976562e+00 1.842927694320678711e+00 2.710768580436706543e-01
2.924000000000000000e+03 3.514352416992187500e+01 -9.222409248352050781e+00 -5.595408678054809570e-01 1.034377694129943848e+00 1.424510478973388672e-01 3.171084821224212646e-01
2.925000000000000000e+03 3.557332992553710938e+01 1.938341736793518066e+00 7.040551304817199707e-01 3.070096731185913086e+00 1.132245540618896484e+00 -5.215712189674377441e-01
2.926000000000000000e+03 3.616228485107421875e+01 1.146814465522766113e+00 6.000828742980957031e-01 3.189609289169311523e+00 1.136907696723937988e+00 -5.724737048149108887e-01
2.927000000000000000e+03 1.615846252441406250e+01 7.143124103546142578e+00 3.169744908809661865e-01 -1.054842233657836914e+00 -2.213603258132934570e-01 6.787877678871154785e-01
2.928000000000000000e+03 3.571112060546875000e+01 3.391023874282836914e+00 8.924418687820434570e-01 3.292868614196777344e+00 1.255593180656433105e+00 -5.691453814506530762e-01
2.929000000000000000e+03 4.005261993408203125e+01 -1.115575313568115234e+01 -3.857347369194030762e-01 1.790547609329223633e+00 4.214438498020172119e-01 -7.359644770622253418e-01
2.930000000000000000e+03 4.082756805419921875e+01 -1.010757064819335938e+01 -2.163845747709274292e-01 2.325628519058227539e+00 6.327732205390930176e-01 -9.829679131507873535e-01
2.931000000000000000e+03 4.186346054077148438e+01 -1.089413738250732422e+01 -2.833948731422424316e-01 2.587109088897705078e+00 6.911142468452453613e-01 -1.207917094230651855e+00
2.932000000000000000e+03 3.258679199218750000e+01 5.839020729064941406e+00 1.141867280006408691e+00 2.312862396240234375e+00 1.036418914794921875e+00 -3.981730937957763672e-01
2.933000000000000000e+03 1.132223510742187500e+01 1.881477737426757812e+01 3.726809322834014893e-01 -7.588341236114501953e-01 -1.158459633588790894e-01 2.300680279731750488e-01
2.934000000000000000e+03 1.132565689086914062e+01 2.102401924133300781e+01 3.264469802379608154e-01 -6.972316503524780273e-01 -1.112353950738906860e-01 1.333779543638229370e-01
2.935000000000000000e+03 4.110000610351562500e+01 -1.209497547149658203e+01 -4.941497147083282471e-01 1.901658415794372559e+00 4.222525954246520996e-01 -9.585061073303222656e-01
2.936000000000000000e+03 3.307817840576171875e+01 8.723400115966796875e+00 1.465118885040283203e+00 2.674270629882812500e+00 1.241816878318786621e+00 -5.720319747924804688e-01
2.937000000000000000e+03 3.113510894775390625e+01 1.127618789672851562e+01 1.419541239738464355e+00 2.101925134658813477e+00 1.056439995765686035e+00 -6.190028190612792969e-01
2.938000000000000000e+03 5.229940795898437500e+01 -3.519858551025390625e+01 -2.448443472385406494e-01 5.031224727630615234e+00 1.435914039611816406e+00 5.043929219245910645e-01
2.939000000000000000e+03 3.036973381042480469e+01 1.315916156768798828e+01 1.354671716690063477e+00 1.969579577445983887e+00 9.972754120826721191e-01 -6.595081090927124023e-01
2.940000000000000000e+03 3.238489913940429688e+01 1.069705295562744141e+01 1.485777854919433594e+00 2.543195962905883789e+00 1.208692193031311035e+00 -6.600975394248962402e-01
2.941000000000000000e+03 2.839661216735839844e+01 1.675459289550781250e+01 1.085253477096557617e+00 1.630623817443847656e+00 8.147631883621215820e-01 -6.712740659713745117e-01
2.942000000000000000e+03 3.071880149841308594e+01 1.464819622039794922e+01 1.273926734924316406e+00 2.157534360885620117e+00 1.029438257217407227e+00 -7.325708866119384766e-01
2.943000000000000000e+03 1.098792552947998047e+01 2.316983222961425781e+01 2.551905214786529541e-01 -6.733655333518981934e-01 -1.254525035619735718e-01 6.295172125101089478e-02
2.944000000000000000e+03 1.147532653808593750e+01 1.254326534271240234e+01 3.726995587348937988e-01 -9.082867503166198730e-01 -1.606761515140533447e-01 5.602365732192993164e-01
2.945000000000000000e+03 1.211184692382812500e+01 1.359435939788818359e+01 4.261717200279235840e-01 -8.612435460090637207e-01 -1.305215507745742798e-01 4.859427213668823242e-01
2.946000000000000000e+03 4.607102203369140625e+01 -1.426363182067871094e+01 -7.965115308761596680e-01 4.424220085144042969e+00 1.088312506675720215e+00 -2.321403741836547852e+00
2.947000000000000000e+03 4.824603271484375000e+01 -2.684121894836425781e+01 -1.085897833108901978e-01 4.711055278778076172e+00 1.380739688873291016e+00 5.402718782424926758e-01
2.948000000000000000e+03 4.399750137329101562e+01 -1.372722339630126953e+01 -5.680317878723144531e-01 2.996663093566894531e+00 7.285893559455871582e-01 -1.671571493148803711e+00
2.949000000000000000e+03 4.966540908813476562e+01 -2.406812286376953125e+01 -5.785329937934875488e-01 8.057205200195312500e+00 2.243601560592651367e+00 2.118262797594070435e-01
2.950000000000000000e+03 4.683178329467773438e+01 -1.477330112457275391e+01 -9.996386170387268066e-01 5.067056655883789062e+00 1.220225334167480469e+00 -2.642323970794677734e+00
2.951000000000000000e+03 4.812199401855468750e+01 -2.881685256958007812e+01 4.777235165238380432e-02 4.138037681579589844e+00 1.255743026733398438e+00 4.583848118782043457e-01
2.952000000000000000e+03 4.917335128784179688e+01 -2.677767562866210938e+01 -2.616460621356964111e-01 5.610410213470458984e+00 1.604629278182983398e+00 1.987539976835250854e-01
2.953000000000000000e+03 4.605479812622070312e+01 -1.588729858398437500e+01 -3.757365643978118896e-01 3.683139562606811523e+00 9.922208786010742188e-01 -2.687749385833740234e+00
2.954000000000000000e+03 4.805429458618164062e+01 -2.577193069458007812e+01 -1.354126483201980591e-01 4.833860874176025391e+00 1.409534454345703125e+00 8.011586070060729980e-01
2.955000000000000000e+03 4.756993865966796875e+01 -2.615198516845703125e+01 4.568002000451087952e-02 4.199925422668457031e+00 1.273681640625000000e+00 7.640306949615478516e-01
2.956000000000000000e+03 4.789749145507812500e+01 -2.939375495910644531e+01 1.901904046535491943e-01 3.778042316436767578e+00 1.190469861030578613e+00 5.368398427963256836e-01
2.957000000000000000e+03 4.785126113891601562e+01 -3.011681938171386719e+01 1.528631895780563354e-01 3.716139793395996094e+00 1.160700917243957520e+00 5.848464369773864746e-01
2.958000000000000000e+03 4.587688827514648438e+01 -1.468556690216064453e+01 -7.470418810844421387e-01 4.112670898437500000e+00 1.009688735008239746e+00 -2.339282035827636719e+00
2.959000000000000000e+03 2.170211029052734375e+01 3.923189640045166016e+00 2.027973085641860962e-01 -7.657682895660400391e-01 -1.688912957906723022e-01 4.515593945980072021e-01
2.960000000000000000e+03 2.721353340148925781e+01 2.576972544193267822e-01 -7.585178315639495850e-02 2.558104693889617920e-01 5.398760735988616943e-02 3.236577510833740234e-01
2.961000000000000000e+03 2.681559371948242188e+01 2.593080520629882812e+00 3.185791969299316406e-01 2.886480093002319336e-01 1.821681559085845947e-01 1.637200266122817993e-01
2.962000000000000000e+03 2.988538360595703125e+01 -4.045433998107910156e+00 -5.534449815750122070e-01 6.586071252822875977e-01 3.154864162206649780e-02 5.265170931816101074e-01
2.963000000000000000e+03 3.008995437622070312e+01 -2.869826793670654297e+00 -3.720013201236724854e-01 8.086231350898742676e-01 1.309865415096282959e-01 3.877262473106384277e-01
2.964000000000000000e+03 3.128121376037597656e+01 -7.025016307830810547e+00 -7.657009959220886230e-01 6.645657420158386230e-01 -3.034057840704917908e-02 7.081258893013000488e-01
2.965000000000000000e+03 3.413594818115234375e+01 -2.668966770172119141e+00 1.269952859729528427e-02 1.977172255516052246e+00 5.969615578651428223e-01 -9.703880548477172852e-02
2.966000000000000000e+03 3.738329315185546875e+01 -7.610404491424560547e+00 -2.148115038871765137e-01 1.887557744979858398e+00 5.018239021301269531e-01 -3.195269703865051270e-01
2.967000000000000000e+03 3.807670974731445312e+01 -6.086302757263183594e+00 -4.044184833765029907e-02 2.427187919616699219e+00 7.160238027572631836e-01 -5.939164757728576660e-01
2.968000000000000000e+03 4.864235687255859375e+01 -2.623470687866210938e+01 -1.552421152591705322e-01 5.278770923614501953e+00 1.537058591842651367e+00 5.189370512962341309e-01
2.969000000000000000e+03 3.092075347900390625e+01 -4.613016605377197266e+00 -5.200175046920776367e-01 8.621724247932434082e-01 1.026464924216270447e-01 4.826335012912750244e-01
2.970000000000000000e+03 2.622439575195312500e+01 3.466281294822692871e-01 -1.424079537391662598e-01 -2.167493663728237152e-02 -4.922486841678619385e-02 3.862983286380767822e-01
2.971000000000000000e+03 2.337341880798339844e+01 2.712540864944458008e+00 9.922925382852554321e-02 -5.384992957115173340e-01 -1.317810118198394775e-01 3.948443531990051270e-01
2.972000000000000000e+03 2.002689170837402344e+01 5.885482311248779297e+00 4.006544649600982666e-01 -8.667576909065246582e-01 -1.398309618234634399e-01 4.627779126167297363e-01
2.973000000000000000e+03 3.740466308593750000e+01 -9.260134696960449219e+00 -3.708796203136444092e-01 1.471112012863159180e+00 3.300697207450866699e-01 -1.727996468544006348e-01
2.974000000000000000e+03 3.820496749877929688e+01 -7.003405094146728516e+00 -9.154061228036880493e-02 2.245183229446411133e+00 6.460928320884704590e-01 -5.658532381057739258e-01
2.975000000000000000e+03 2.241926956176757812e+01 4.372782707214355469e+00 3.278596997261047363e-01 -5.920640826225280762e-01 -7.926132529973983765e-02 3.647047281265258789e-01
2.976000000000000000e+03 2.058534049987792969e+01 5.327852725982666016e+00 3.538132011890411377e-01 -8.229894638061523438e-01 -1.407528817653656006e-01 4.596258103847503662e-01
2.977000000000000000e+03 4.555341339111328125e+01 -1.429989528656005859e+01 -6.807824373245239258e-01 3.937082290649414062e+00 9.768899679183959961e-01 -2.142463922500610352e+00
2.978000000000000000e+03 3.029998397827148438e+01 -1.702448487281799316e+00 -1.546453386545181274e-01 9.615659117698669434e-01 2.420761734247207642e-01 2.557832300662994385e-01
2.979000000000000000e+03 1.548740196228027344e+01 8.887616157531738281e+00 4.370428323745727539e-01 -9.773172736167907715e-01 -1.620823293924331665e-01 6.124355792999267578e-01
2.980000000000000000e+03 1.177287673950195312e+01 7.704707622528076172e+00 1.222845166921615601e-01 -9.878821969032287598e-01 -2.596793174743652344e-01 8.170288801193237305e-01
2.981000000000000000e+03 3.232439422607421875e+01 -6.651213645935058594e+00 -6.020230650901794434e-01 9.304621219635009766e-01 9.853170812129974365e-02 5.292471051216125488e-01
2.982000000000000000e+03 3.160296440124511719e+01 -4.960097312927246094e+00 -4.882503747940063477e-01 1.011209249496459961e+00 1.568876653909683228e-01 4.393847584724426270e-01
2.983000000000000000e+03 1.778521728515625000e+01 7.818126678466796875e+00 4.897627830505371094e-01 -9.229961037635803223e-01 -1.299699991941452026e-01 5.194908976554870605e-01
2.984000000000000000e+03 1.356751823425292969e+01 1.245094585418701172e+01 5.083847045898437500e-01 -8.429372310638427734e-01 -1.003657504916191101e-01 4.912189245223999023e-01
2.985000000000000000e+03 1.106692886352539062e+01 1.021379470825195312e+01 2.674606740474700928e-01 -9.437116384506225586e-01 -2.028752863407135010e-01 6.980720162391662598e-01
2.986000000000000000e+03 1.238830280303955078e+01 9.384987831115722656e+00 2.856446206569671631e-01 -9.795894622802734375e-01 -2.081834524869918823e-01 7.236458063125610352e-01
2.987000000000000000e+03 3.651545333862304688e+01 -2.963547706604003906e+00 1.317641884088516235e-01 2.649237394332885742e+00 8.343004584312438965e-01 -4.925663173198699951e-01
2.988000000000000000e+03 3.516555404663085938e+01 -8.024893760681152344e+00 -4.497157633304595947e-01 1.277053117752075195e+00 2.482012063264846802e-01 1.973680704832077026e-01
2.989000000000000000e+03 2.863007545471191406e+01 -1.208551883697509766e+00 -2.099912911653518677e-01 5.440090894699096680e-01 1.002053394913673401e-01 3.376146554946899414e-01
2.990000000000000000e+03 3.225253295898437500e+01 -5.377172946929931641e+00 -4.841848909854888916e-01 1.089506149291992188e+00 1.815963834524154663e-01 4.012213051319122314e-01
2.991000000000000000e+03 4.974512481689453125e+01 -2.807710266113281250e+01 6.842330843210220337e-02 5.373339176177978516e+00 1.632528781890869141e+00 -6.254658848047256470e-02
2.992000000000000000e+03 4.904893112182617188e+01 -2.824617576599121094e+01 4.929737746715545654e-02 4.900728702545166016e+00 1.485007882118225098e+00 2.164712250232696533e-01
2.993000000000000000e+03 3.992841339111328125e+01 -9.370884895324707031e+00 -2.102671861648559570e-01 2.223671436309814453e+00 6.040212512016296387e-01 -8.416293263435363770e-01
2.994000000000000000e+03 3.857007598876953125e+01 -8.942227363586425781e+00 -2.380133569240570068e-01 1.877669930458068848e+00 4.918969869613647461e-01 -5.104492902755737305e-01
2.995000000000000000e+03 2.288327407836914062e+01 3.555633544921875000e+00 2.126707136631011963e-01 -5.732532143592834473e-01 -1.081747561693191528e-01 3.837581276893615723e-01
2.996000000000000000e+03 2.482303237915039062e+01 2.598849773406982422e+00 1.674069911241531372e-01 -2.140589654445648193e-01 -1.399559527635574341e-02 3.047100603580474854e-01
2.997000000000000000e+03 3.676330566406250000e+01 -8.687253952026367188e+00 -3.628923296928405762e-01 1.490660190582275391e+00 3.383303582668304443e-01 -7.677494734525680542e-02
2.998000000000000000e+03 3.624639892578125000e+01 -9.226769447326660156e+00 -4.636469185352325439e-01 1.260661125183105469e+00 2.391042560338973999e-01 8.265364915132522583e-02
2.999000000000000000e+03 3.535068893432617188e+01 5.334842205047607422e-01 4.631268084049224854e-01 2.815238237380981445e+00 9.835094809532165527e-01 -4.344643056392669678e-01
3.000000000000000000e+03 1.086976242065429688e+01 1.161852359771728516e+01 3.216431736946105957e-01 -9.279347062110900879e-01 -1.818874627351760864e-01 6.238667368888854980e-01
3.001000000000000000e+03 1.032754707336425781e+01 1.072462272644042969e+01 2.548572123050689697e-01 -9.301725625991821289e-01 -2.025946080684661865e-01 6.760299801826477051e-01
3.002000000000000000e+03 3.497133255004882812e+01 4.243547916412353516e+00 1.013352751731872559e+00 3.103902339935302734e+00 1.235176563262939453e+00 -4.902000725269317627e-01
3.003000000000000000e+03 1.328345775604248047e+01 1.670156097412109375e+01 4.963065683841705322e-01 -7.037261128425598145e-01 -6.222586333751678467e-02 2.776854932308197021e-01
3.004000000000000000e+03 4.899557113647460938e+01 -3.164552307128906250e+01 3.159196972846984863e-01 4.148182868957519531e+00 1.339230775833129883e+00 5.941779613494873047e-01
3.005000000000000000e+03 4.999011993408203125e+01 -3.302724838256835938e+01 2.188388407230377197e-01 4.303486347198486328e+00 1.356697559356689453e+00 6.000944375991821289e-01
3.006000000000000000e+03 3.968608856201171875e+01 -8.641960144042968750e+00 -1.252894103527069092e-01 2.347520112991333008e+00 6.666692495346069336e-01 -7.904333472251892090e-01
3.007000000000000000e+03 5.174381256103515625e+01 -3.269791030883789062e+01 5.589730739593505859e-01 5.169187068939208984e+00 1.718448042869567871e+00 4.688186049461364746e-01
3.008000000000000000e+03 3.349979400634765625e+01 -7.645830631256103516e+00 -5.847080349922180176e-01 1.029256939888000488e+00 1.333646923303604126e-01 4.584941565990447998e-01
3.009000000000000000e+03 3.387542724609375000e+01 7.270279884338378906e+00 1.369770646095275879e+00 2.971567392349243164e+00 1.302401423454284668e+00 -5.374228358268737793e-01
3.010000000000000000e+03 3.501165771484375000e+01 9.526930809020996094e+00 1.620924949645996094e+00 3.602102041244506836e+00 1.566908121109008789e+00 -7.446685433387756348e-01
3.011000000000000000e+03 1.074907684326171875e+01 1.301812934875488281e+01 3.454985022544860840e-01 -9.068372845649719238e-01 -1.684016436338424683e-01 5.520192980766296387e-01
3.012000000000000000e+03 3.331680679321289062e+01 6.540366649627685547e+00 1.245987057685852051e+00 2.629873514175415039e+00 1.162758231163024902e+00 -4.630676209926605225e-01
3.013000000000000000e+03 3.398725891113281250e+01 5.915403842926025391e+00 1.204652309417724609e+00 2.868194341659545898e+00 1.221853971481323242e+00 -4.669350385665893555e-01
3.014000000000000000e+03 1.236176872253417969e+01 1.777323150634765625e+01 4.401962757110595703e-01 -7.213562130928039551e-01 -8.434798568487167358e-02 2.539899349212646484e-01
3.015000000000000000e+03 1.222518444061279297e+01 2.230397796630859375e+01 3.267857730388641357e-01 -5.809966325759887695e-01 -7.626325637102127075e-02 5.783849954605102539e-02
3.016000000000000000e+03 1.303442668914794922e+01 1.462816524505615234e+01 5.103120207786560059e-01 -7.922977805137634277e-01 -8.459573239088058472e-02 3.907961547374725342e-01
3.017000000000000000e+03 1.116870880126953125e+01 1.391756725311279297e+01 3.920384645462036133e-01 -8.805121779441833496e-01 -1.465421169996261597e-01 4.845386445522308350e-01
3.018000000000000000e+03 3.921733856201171875e+01 -7.197506427764892578e+00 -5.457446724176406860e-02 2.472457647323608398e+00 7.253649830818176270e-01 -7.661902308464050293e-01
3.019000000000000000e+03 3.719176864624023438e+01 -8.161492347717285156e+00 -2.759237587451934814e-01 1.692886710166931152e+00 4.250888824462890625e-01 -2.165489643812179565e-01
3.020000000000000000e+03 1.673056221008300781e+01 8.379277229309082031e+00 4.751614928245544434e-01 -9.460756182670593262e-01 -1.412742435932159424e-01 5.640723705291748047e-01
3.021000000000000000e+03 1.512176704406738281e+01 7.425621509552001953e+00 2.886474430561065674e-01 -1.067958354949951172e+00 -2.337932884693145752e-01 7.159429788589477539e-01
3.022000000000000000e+03 4.063483047485351562e+01 -9.244386672973632812e+00 -1.550413966178894043e-01 2.361032962799072266e+00 6.617975234985351562e-01 -9.897019863128662109e-01
3.023000000000000000e+03 3.056624794006347656e+01 9.900575637817382812e+00 1.352878928184509277e+00 1.834916472434997559e+00 9.563386440277099609e-01 -5.053719878196716309e-01
3.024000000000000000e+03 1.215275001525878906e+01 1.567196846008300781e+01 4.479887187480926514e-01 -7.976182699203491211e-01 -1.048888713121414185e-01 3.694849908351898193e-01
3.025000000000000000e+03 3.208442306518554688e+01 1.684710311889648438e+01 1.129751205444335938e+00 2.661401271820068359e+00 1.137345790863037109e+00 -8.027036786079406738e-01
3.026000000000000000e+03 2.994659996032714844e+01 1.180399131774902344e+01 1.349260926246643066e+00 1.758907437324523926e+00 9.324504733085632324e-01 -5.727502703666687012e-01
3.027000000000000000e+03 4.989825439453125000e+01 -2.530443572998046875e+01 -4.938311576843261719e-01 7.074226856231689453e+00 1.974118709564208984e+00 -7.539478689432144165e-02
3.028000000000000000e+03 4.902853393554687500e+01 -2.459173011779785156e+01 -4.352247416973114014e-01 6.785500526428222656e+00 1.905082702636718750e+00 7.011464834213256836e-01
3.029000000000000000e+03 4.662298583984375000e+01 -1.424217319488525391e+01 -9.864919185638427734e-01 4.971152782440185547e+00 1.195398330688476562e+00 -2.408416748046875000e+00
3.030000000000000000e+03 4.370007705688476562e+01 -1.245515346527099609e+01 -4.576727449893951416e-01 3.082561492919921875e+00 7.874666452407836914e-01 -1.579816937446594238e+00
3.031000000000000000e+03 4.475720596313476562e+01 -1.270287990570068359e+01 -5.609243512153625488e-01 3.648283481597900391e+00 9.262077212333679199e-01 -1.775951504707336426e+00
3.032000000000000000e+03 4.482117462158203125e+01 -1.323260879516601562e+01 -5.813676714897155762e-01 3.588678359985351562e+00 9.021932482719421387e-01 -1.832202076911926270e+00
3.033000000000000000e+03 3.724705886840820312e+01 -6.267732620239257812e+00 -1.129932999610900879e-01 2.128799915313720703e+00 6.047419905662536621e-01 -3.974770009517669678e-01
3.034000000000000000e+03 3.927111053466796875e+01 -9.290739059448242188e+00 -2.305912673473358154e-01 1.994103908538818359e+00 5.290538072586059570e-01 -6.265758872032165527e-01
3.035000000000000000e+03 3.899391174316406250e+01 -8.111869812011718750e+00 -1.291161775588989258e-01 2.230328083038330078e+00 6.303635835647583008e-01 -6.806668639183044434e-01
3.036000000000000000e+03 4.953416061401367188e+01 -2.739490699768066406e+01 -4.868888854980468750e-02 5.567210197448730469e+00 1.655556440353393555e+00 -5.324311554431915283e-02
3.037000000000000000e+03 3.113979530334472656e+01 -2.801795244216918945e+00 -2.551479935646057129e-01 1.088172554969787598e+00 2.499073594808578491e-01 2.795718610286712646e-01
3.038000000000000000e+03 3.059184455871582031e+01 -3.424032688140869141e+00 -3.920881152153015137e-01 8.886604309082031250e-01 1.489716917276382446e-01 3.924168050289154053e-01
3.039000000000000000e+03 2.323671722412109375e+01 4.340024471282958984e+00 3.560322821140289307e-01 -4.518602490425109863e-01 -2.874838560819625854e-02 3.084346652030944824e-01
3.040000000000000000e+03 2.114896202087402344e+01 5.890404701232910156e+00 4.788929522037506104e-01 -6.741962432861328125e-01 -5.859098955988883972e-02 3.730538785457611084e-01
3.041000000000000000e+03 2.417226791381835938e+01 3.915329456329345703e+00 3.469186425209045410e-01 -2.772835493087768555e-01 2.089052461087703705e-02 2.687315642833709717e-01
3.042000000000000000e+03 3.297648620605468750e+01 -8.393635749816894531e+00 -7.089264988899230957e-01 8.022273778915405273e-01 2.799025550484657288e-02 6.261686682701110840e-01
3.043000000000000000e+03 3.292461395263671875e+01 -7.137641429901123047e+00 -5.866912603378295898e-01 9.839624166488647461e-01 1.191813573241233826e-01 5.008168816566467285e-01
3.044000000000000000e+03 3.102236557006835938e+01 -1.286671638488769531e+00 -5.543425679206848145e-02 1.193827509880065918e+00 3.415179848670959473e-01 1.582670807838439941e-01
3.045000000000000000e+03 1.218583869934082031e+01 1.202934169769287109e+01 4.102506935596466064e-01 -9.040538668632507324e-01 -1.481409519910812378e-01 5.712981224060058594e-01
3.046000000000000000e+03 3.286940765380859375e+01 -5.860465049743652344e+00 -4.779229760169982910e-01 1.154871463775634766e+00 2.030845433473587036e-01 3.813102841377258301e-01
3.047000000000000000e+03 2.116882324218750000e+01 4.677314758300781250e+00 2.781459987163543701e-01 -7.937334775924682617e-01 -1.546762436628341675e-01 4.459165036678314209e-01
3.048000000000000000e+03 2.188283729553222656e+01 5.228075027465820312e+00 4.120287895202636719e-01 -6.250697970390319824e-01 -6.391230225563049316e-02 3.471831381320953369e-01
3.049000000000000000e+03 2.594087791442871094e+01 3.022101163864135742e+00 3.334919214248657227e-01 9.789640456438064575e-02 1.294164955615997314e-01 1.932709217071533203e-01
3.050000000000000000e+03 2.508415222167968750e+01 3.513984680175781250e+00 3.462050557136535645e-01 -1.031563878059387207e-01 7.291460037231445312e-02 2.251573354005813599e-01
3.051000000000000000e+03 1.207049560546875000e+01 8.553403854370117188e+00 2.074272334575653076e-01 -9.882963895797729492e-01 -2.342607527971267700e-01 7.722856402397155762e-01
3.052000000000000000e+03 1.359838581085205078e+01 9.106111526489257812e+00 3.437286615371704102e-01 -9.961040616035461426e-01 -1.957126110792160034e-01 6.956182122230529785e-01
3.053000000000000000e+03 3.170325088500976562e+01 -3.084952354431152344e+00 -2.341705560684204102e-01 1.239667534828186035e+00 3.016490638256072998e-01 2.554168999195098877e-01
3.054000000000000000e+03 3.128132438659667969e+01 -3.834631919860839844e+00 -3.707968890666961670e-01 1.038913011550903320e+00 2.004348188638687134e-01 3.726162910461425781e-01
3.055000000000000000e+03 3.612710189819335938e+01 -5.168496608734130859e+00 -1.015608236193656921e-01 2.102188110351562500e+00 6.001881957054138184e-01 -2.556684613227844238e-01
3.056000000000000000e+03 3.578840255737304688e+01 -7.409414291381835938e+00 -3.349084258079528809e-01 1.540810704231262207e+00 3.617706596851348877e-01 7.516545709222555161e-03
3.057000000000000000e+03 2.928073501586914062e+01 -6.636160612106323242e-01 -8.457168936729431152e-02 7.387934923171997070e-01 1.962665319442749023e-01 2.538656592369079590e-01
3.058000000000000000e+03 2.816501617431640625e+01 8.990452438592910767e-02 -4.257057979702949524e-02 5.024971961975097656e-01 1.379779875278472900e-01 2.754956185817718506e-01
3.059000000000000000e+03 3.403634262084960938e+01 -5.726064682006835938e+00 -3.351806700229644775e-01 1.452944874763488770e+00 3.353292644023895264e-01 1.787615865468978882e-01
3.060000000000000000e+03 3.255702972412109375e+01 -3.216308832168579102e+00 -1.837919801473617554e-01 1.450043320655822754e+00 3.798754215240478516e-01 1.630389541387557983e-01
3.061000000000000000e+03 3.568947219848632812e+01 -8.613970756530761719e+00 -4.483502209186553955e-01 1.287821292877197266e+00 2.518413066864013672e-01 1.412168443202972412e-01
3.062000000000000000e+03 1.972065734863281250e+01 8.824578285217285156e+00 6.802360415458679199e-01 -6.751159429550170898e-01 1.536025316454470158e-03 3.235792219638824463e-01
3.063000000000000000e+03 1.769729232788085938e+01 8.656931877136230469e+00 5.464779734611511230e-01 -8.782072067260742188e-01 -9.951876848936080933e-02 4.809976220130920410e-01
3.064000000000000000e+03 2.743193626403808594e+01 1.252513647079467773e+00 1.177432760596275330e-01 3.749868869781494141e-01 1.478190422058105469e-01 2.362624406814575195e-01
3.065000000000000000e+03 1.401041316986083984e+01 1.027267456054687500e+01 4.396501481533050537e-01 -9.361760616302490234e-01 -1.489577740430831909e-01 6.047171950340270996e-01
3.066000000000000000e+03 3.561258697509765625e+01 -2.285253524780273438e+00 1.616635173559188843e-01 2.473351955413818359e+00 7.905046939849853516e-01 -3.483972847461700439e-01
3.067000000000000000e+03 1.298251914978027344e+01 9.097196578979492188e+00 3.041490018367767334e-01 -9.951773881912231445e-01 -2.073085308074951172e-01 7.206649184226989746e-01
3.068000000000000000e+03 3.487482452392578125e+01 2.553078651428222656e+00 7.479880452156066895e-01 2.870882749557495117e+00 1.085661292076110840e+00 -4.367014169692993164e-01
3.069000000000000000e+03 3.405756759643554688e+01 -8.163284301757812500e+00 -5.717931985855102539e-01 1.035808920860290527e+00 1.392047107219696045e-01 4.157552421092987061e-01
3.070000000000000000e+03 3.623479461669921875e+01 -8.085983276367187500e+00 -3.472526073455810547e-01 1.496320843696594238e+00 3.447204828262329102e-01 -1.371964905411005020e-02
3.071000000000000000e+03 2.712694740295410156e+01 3.630499124526977539e+00 4.959543943405151367e-01 4.462256431579589844e-01 2.826540172100067139e-01 8.152820169925689697e-02
3.072000000000000000e+03 3.288587951660156250e+01 7.438392639160156250e+00 1.332626104354858398e+00 2.517923831939697266e+00 1.155164957046508789e+00 -4.907116889953613281e-01
3.073000000000000000e+03 3.476088714599609375e+01 1.564721107482910156e+00 6.030094027519226074e-01 2.724010705947875977e+00 9.981060624122619629e-01 -3.754800558090209961e-01
3.074000000000000000e+03 1.283408546447753906e+01 1.293531799316406250e+01 4.581401348114013672e-01 -8.528956770896911621e-01 -1.184266731142997742e-01 4.946426153182983398e-01
3.075000000000000000e+03 3.783499145507812500e+01 -8.538569450378417969e+00 -2.516776323318481445e-01 1.772664666175842285e+00 4.562961161136627197e-01 -3.551513254642486572e-01
3.076000000000000000e+03 5.445194244384765625e+01 -3.215250396728515625e+01 1.793861150741577148e+00 7.317671775817871094e+00 2.733459949493408203e+00 8.947570621967315674e-02
3.077000000000000000e+03 1.356427001953125000e+01 1.893077659606933594e+01 4.755072891712188721e-01 -5.811238288879394531e-01 -3.168496116995811462e-02 1.485583186149597168e-01
3.078000000000000000e+03 2.880583953857421875e+01 1.226572704315185547e+01 1.291368842124938965e+00 1.442792654037475586e+00 8.202484250068664551e-01 -5.166300535202026367e-01
3.079000000000000000e+03 2.943700027465820312e+01 1.050411224365234375e+01 1.313266038894653320e+00 1.512015938758850098e+00 8.475845456123352051e-01 -4.694736003875732422e-01
3.080000000000000000e+03 3.136290550231933594e+01 1.841033172607421875e+01 9.667770862579345703e-01 2.468890666961669922e+00 1.030700325965881348e+00 -7.887341976165771484e-01
3.081000000000000000e+03 2.727931976318359375e+01 1.715093231201171875e+01 1.017634034156799316e+00 1.316347360610961914e+00 7.001944184303283691e-01 -5.976637005805969238e-01
3.082000000000000000e+03 1.372729778289794922e+01 1.354732894897460938e+01 5.329536199569702148e-01 -8.002701401710510254e-01 -8.019495755434036255e-02 4.248199164867401123e-01
3.083000000000000000e+03 3.346606445312500000e+01 5.121246814727783203e+00 1.093849658966064453e+00 2.562208414077758789e+00 1.096817493438720703e+00 -4.109450280666351318e-01
3.084000000000000000e+03 3.394769287109375000e+01 3.254829645156860352e+00 8.320928215980529785e-01 2.603414535522460938e+00 1.030652165412902832e+00 -3.680748939514160156e-01
3.085000000000000000e+03 5.180682373046875000e+01 -3.718388748168945312e+01 -7.243361473083496094e-01 4.763103008270263672e+00 1.211630105972290039e+00 3.785401880741119385e-01
3.086000000000000000e+03 3.459941101074218750e+01 -6.265023231506347656e+00 -3.451216220855712891e-01 1.497866272926330566e+00 3.458234071731567383e-01 1.321276873350143433e-01
3.087000000000000000e+03 3.462276840209960938e+01 -7.462028980255126953e+00 -4.509463906288146973e-01 1.273186564445495605e+00 2.466720491647720337e-01 2.405161559581756592e-01
3.088000000000000000e+03 3.677875518798828125e+01 -7.699043273925781250e+00 -2.806904613971710205e-01 1.705816864967346191e+00 4.275379180908203125e-01 -1.507618278264999390e-01
3.089000000000000000e+03 1.650131225585937500e+01 9.335439682006835938e+00 5.328156948089599609e-01 -9.053485989570617676e-01 -1.117598861455917358e-01 5.233808159828186035e-01
3.090000000000000000e+03 3.175825691223144531e+01 -2.407304763793945312e+00 -1.457114368677139282e-01 1.305601596832275391e+00 3.479670584201812744e-01 1.934756487607955933e-01
3.091000000000000000e+03 3.404412460327148438e+01 -6.926801204681396484e+00 -4.486312568187713623e-01 1.255094170570373535e+00 2.419388592243194580e-01 2.885870933532714844e-01
3.092000000000000000e+03 3.509076309204101562e+01 -5.650298118591308594e+00 -2.431503236293792725e-01 1.726338148117065430e+00 4.449563622474670410e-01 1.258180855074897408e-04
3.093000000000000000e+03 3.210826492309570312e+01 -4.130392551422119141e+00 -3.337374329566955566e-01 1.226678133010864258e+00 2.678822278976440430e-01 2.988530993461608887e-01
3.094000000000000000e+03 3.250378417968750000e+01 -5.710913538932800293e-01 1.999817043542861938e-01 1.735818982124328613e+00 5.807402133941650391e-01 -2.777506783604621887e-02
3.095000000000000000e+03 2.295005416870117188e+01 8.327676773071289062e+00 8.160087466239929199e-01 -2.105982750654220581e-01 1.816231459379196167e-01 8.702217042446136475e-02
3.096000000000000000e+03 2.044350814819335938e+01 6.437458515167236328e+00 4.974469244480133057e-01 -7.531157135963439941e-01 -7.670064270496368408e-02 3.932063579559326172e-01
3.097000000000000000e+03 2.534309387207031250e+01 4.568109989166259766e+00 5.310669541358947754e-01 3.747513517737388611e-02 1.705626249313354492e-01 1.361672282218933105e-01
3.098000000000000000e+03 1.225187492370605469e+01 1.064070415496826172e+01 3.550888299942016602e-01 -9.434199929237365723e-01 -1.764993369579315186e-01 6.520310640335083008e-01
3.099000000000000000e+03 1.175166416168212891e+01 9.766308784484863281e+00 2.795644700527191162e-01 -9.634114503860473633e-01 -2.051540911197662354e-01 7.150526642799377441e-01
3.100000000000000000e+03 2.624518394470214844e+01 4.070350170135498047e+00 5.077249407768249512e-01 2.372574061155319214e-01 2.234947085380554199e-01 1.162281036376953125e-01
3.101000000000000000e+03 2.440380668640136719e+01 5.044420719146728516e+00 5.461744070053100586e-01 -1.476455777883529663e-01 1.195586398243904114e-01 1.732202470302581787e-01
3.102000000000000000e+03 2.341051864624023438e+01 5.510445117950439453e+00 5.459370613098144531e-01 -3.177588880062103271e-01 6.845346093177795410e-02 2.235205024480819702e-01
3.103000000000000000e+03 1.968702697753906250e+01 6.493138313293457031e+00 4.668673276901245117e-01 -8.451207876205444336e-01 -1.134760379791259766e-01 4.502728879451751709e-01
3.104000000000000000e+03 3.301638031005859375e+01 2.234317541122436523e+00 6.321832537651062012e-01 2.189784049987792969e+00 8.465901613235473633e-01 -2.424317449331283569e-01
3.105000000000000000e+03 2.978203392028808594e+01 -1.180395483970642090e+00 -1.153791621327400208e-01 8.829686641693115234e-01 2.302768528461456299e-01 2.619440853595733643e-01
3.106000000000000000e+03 3.345832061767578125e+01 -6.394223690032958984e+00 -4.630264639854431152e-01 1.231032729148864746e+00 2.304018884897232056e-01 3.362390100955963135e-01
3.107000000000000000e+03 2.242218017578125000e+01 6.063066005706787109e+00 5.553917288780212402e-01 -4.835959374904632568e-01 2.153872512280941010e-02 2.696144282817840576e-01
3.108000000000000000e+03 3.350097274780273438e+01 -3.529418468475341797e+00 -1.370249688625335693e-01 1.667354583740234375e+00 4.590989053249359131e-01 6.369979679584503174e-02
3.109000000000000000e+03 3.438100433349609375e+01 -3.870125770568847656e+00 -9.581728279590606689e-02 1.841959834098815918e+00 5.238427519798278809e-01 -4.471749439835548401e-02
3.110000000000000000e+03 1.284616851806640625e+01 1.018218040466308594e+01 3.700654208660125732e-01 -9.582237005233764648e-01 -1.764474809169769287e-01 6.586770415306091309e-01
3.111000000000000000e+03 3.496926116943359375e+01 -3.109688520431518555e+00 -2.448634477332234383e-03 2.108697652816772461e+00 6.318746805191040039e-01 -1.875844150781631470e-01
3.112000000000000000e+03 3.465853500366210938e+01 -9.130101203918457031e-01 2.515893578529357910e-01 2.368371725082397461e+00 7.859882712364196777e-01 -2.750036716461181641e-01
3.113000000000000000e+03 3.428711318969726562e+01 1.134938374161720276e-01 3.886560201644897461e-01 2.379639625549316406e+00 8.304887413978576660e-01 -2.819653153419494629e-01
3.114000000000000000e+03 3.183482170104980469e+01 4.910621643066406250e+00 9.700297713279724121e-01 1.991028547286987305e+00 8.883174657821655273e-01 -2.760834097862243652e-01
3.115000000000000000e+03 2.837515449523925781e+01 1.040955662727355957e+00 1.600112766027450562e-01 6.419646739959716797e-01 2.405927777290344238e-01 1.879365295171737671e-01
3.116000000000000000e+03 2.905348968505859375e+01 4.967801272869110107e-02 -4.969173111021518707e-03 7.360070943832397461e-01 2.193113714456558228e-01 2.227383553981781006e-01
3.117000000000000000e+03 3.184928703308105469e+01 6.846867084503173828e+00 1.233248472213745117e+00 2.114056587219238281e+00 1.004191517829895020e+00 -3.924418687820434570e-01
3.118000000000000000e+03 2.921616935729980469e+01 8.118965029716491699e-01 1.886866390705108643e-01 8.459326028823852539e-01 3.103857636451721191e-01 1.401340514421463013e-01
3.119000000000000000e+03 1.496426868438720703e+01 1.383028602600097656e+01 6.062486767768859863e-01 -7.223068475723266602e-01 -3.481744602322578430e-02 3.516982197761535645e-01
3.120000000000000000e+03 1.462179374694824219e+01 1.774176979064941406e+01 5.509593486785888672e-01 -5.437270998954772949e-01 2.169674029573798180e-03 1.608046144247055054e-01
3.121000000000000000e+03 1.520348358154296875e+01 1.643841361999511719e+01 6.051617860794067383e-01 -5.523389577865600586e-01 1.584683731198310852e-02 1.885703355073928833e-01
3.122000000000000000e+03 1.432337856292724609e+01 1.183304023742675781e+01 5.293749570846557617e-01 -8.556466698646545410e-01 -9.788150340318679810e-02 4.943431913852691650e-01
3.123000000000000000e+03 3.095699882507324219e+01 5.819286346435546875e+00 1.035249114036560059e+00 1.729240179061889648e+00 8.293467760086059570e-01 -2.748589217662811279e-01
3.124000000000000000e+03 1.872725677490234375e+01 8.719935417175292969e+00 6.159474849700927734e-01 -7.821874022483825684e-01 -4.987197369337081909e-02 3.986628055572509766e-01
3.125000000000000000e+03 1.624469184875488281e+01 1.037461662292480469e+01 5.793151259422302246e-01 -8.583701252937316895e-01 -8.371650427579879761e-02 4.786587655544281006e-01
3.126000000000000000e+03 2.047009277343750000e+01 9.326622009277343750e+00 7.623446583747863770e-01 -5.188196897506713867e-01 7.305748760700225830e-02 2.292375862598419189e-01
3.127000000000000000e+03 1.477194118499755859e+01 2.024269485473632812e+01 4.835458993911743164e-01 -4.207580685615539551e-01 1.883635297417640686e-02 4.740666970610618591e-02
3.128000000000000000e+03 1.349120235443115234e+01 2.132705307006835938e+01 4.032553434371948242e-01 -4.975946247577667236e-01 -2.830178290605545044e-02 5.334958061575889587e-02
3.129000000000000000e+03 2.916691970825195312e+01 7.487357616424560547e+00 1.129712462425231934e+00 1.258591294288635254e+00 7.164911031723022461e-01 -2.694274485111236572e-01
3.130000000000000000e+03 3.096731185913085938e+01 7.844853401184082031e+00 1.269508242607116699e+00 1.868273138999938965e+00 9.413344264030456543e-01 -4.062247574329376221e-01
3.131000000000000000e+03 2.913716697692871094e+01 1.351566410064697266e+01 1.287872195243835449e+00 1.627712488174438477e+00 8.746753931045532227e-01 -6.027465462684631348e-01
3.132000000000000000e+03 2.838459968566894531e+01 1.104076957702636719e+01 1.267955064773559570e+00 1.244137883186340332e+00 7.536278963088989258e-01 -4.337653815746307373e-01
3.133000000000000000e+03 2.789162063598632812e+01 1.392435836791992188e+01 1.206931829452514648e+00 1.273411631584167480e+00 7.441030144691467285e-01 -5.391504168510437012e-01
3.134000000000000000e+03 2.744693374633789062e+01 4.619145870208740234e+00 6.726681590080261230e-01 5.877554416656494141e-01 3.781270682811737061e-01 5.873474292457103729e-03
3.135000000000000000e+03 2.468331527709960938e+01 6.240391254425048828e+00 7.188970446586608887e-01 -4.977784585207700729e-03 2.141757905483245850e-01 7.881325483322143555e-02
3.136000000000000000e+03 3.098691940307617188e+01 -4.381532073020935059e-01 9.858469665050506592e-02 1.253242850303649902e+00 4.055482447147369385e-01 1.064993739128112793e-01
3.137000000000000000e+03 3.124094390869140625e+01 2.094995737075805664e+00 5.248951911926269531e-01 1.601682543754577637e+00 6.379733085632324219e-01 -8.960835635662078857e-02
3.138000000000000000e+03 3.175212860107421875e+01 -1.307287931442260742e+00 2.837228961288928986e-02 1.426154017448425293e+00 4.363579154014587402e-01 8.216823637485504150e-02
3.139000000000000000e+03 1.287451553344726562e+01 1.151841926574707031e+01 4.328555166721343994e-01 -9.094483852386474609e-01 -1.429778635501861572e-01 5.820942521095275879e-01
3.140000000000000000e+03 1.756962585449218750e+01 9.670257568359375000e+00 6.263951659202575684e-01 -8.070787191390991211e-01 -5.420507118105888367e-02 4.317238330841064453e-01
3.141000000000000000e+03 3.376499176025390625e+01 1.202879786491394043e+00 5.227996110916137695e-01 2.348778963088989258e+00 8.614736199378967285e-01 -2.802052497863769531e-01
3.142000000000000000e+03 2.984096527099609375e+01 3.623970150947570801e-01 1.466408371925354004e-01 1.013587594032287598e+00 3.480685353279113770e-01 1.372355371713638306e-01
3.143000000000000000e+03 2.157105445861816406e+01 6.558000564575195312e+00 5.814167261123657227e-01 -5.788151025772094727e-01 7.804871420376002789e-04 3.007667958736419678e-01
3.144000000000000000e+03 2.499088287353515625e+01 7.539496898651123047e+00 8.847378492355346680e-01 1.578620523214340210e-01 3.127799630165100098e-01 -2.224344573915004730e-02
3.145000000000000000e+03 3.575385665893554688e+01 -6.014270782470703125e+00 -2.305558323860168457e-01 1.773704409599304199e+00 4.629445672035217285e-01 -1.030925139784812927e-01
3.146000000000000000e+03 3.463431167602539062e+01 -5.223237037658691406e+00 -2.535451650619506836e-01 1.667737722396850586e+00 4.242577552795410156e-01 4.708644375205039978e-02
3.147000000000000000e+03 3.353043746948242188e+01 -5.083793163299560547e+00 -3.194056749343872070e-01 1.441522717475891113e+00 3.366351127624511719e-01 1.914503425359725952e-01
3.148000000000000000e+03 3.430326843261718750e+01 -4.605666637420654297e+00 -2.198659181594848633e-01 1.688029766082763672e+00 4.404491782188415527e-01 4.745971783995628357e-02
3.149000000000000000e+03 2.369324111938476562e+01 6.721655845642089844e+00 7.289728522300720215e-01 -1.537555754184722900e-01 1.725651770830154419e-01 1.233796030282974243e-01
3.150000000000000000e+03 2.805878639221191406e+01 3.309477329254150391e+00 5.095895528793334961e-01 6.670810580253601074e-01 3.530011773109436035e-01 4.242588207125663757e-02
3.151000000000000000e+03 2.565854072570800781e+01 5.692609786987304688e+00 7.095720171928405762e-01 1.915478855371475220e-01 2.703359723091125488e-01 5.092797428369522095e-02
3.152000000000000000e+03 3.532350921630859375e+01 -4.982984542846679688e+00 -1.390286386013031006e-01 1.916682124137878418e+00 5.332960486412048340e-01 -1.228141263127326965e-01
3.153000000000000000e+03 3.465303039550781250e+01 -1.879445314407348633e+00 1.646479368209838867e-01 2.268381118774414062e+00 7.299087643623352051e-01 -2.383862733840942383e-01
3.154000000000000000e+03 3.355658340454101562e+01 -1.148785471916198730e+00 1.636692583560943604e-01 1.970539212226867676e+00 6.402625441551208496e-01 -1.212172210216522217e-01
3.155000000000000000e+03 1.738647079467773438e+01 1.079952430725097656e+01 6.669489741325378418e-01 -7.442877292633056641e-01 -2.320162579417228699e-02 3.739646971225738525e-01
3.156000000000000000e+03 1.523522472381591797e+01 9.893368721008300781e+00 4.906781613826751709e-01 -9.279134273529052734e-01 -1.311705708503723145e-01 5.653367638587951660e-01
3.157000000000000000e+03 2.775379943847656250e+01 2.288182497024536133e+00 3.337210416793823242e-01 5.368893742561340332e-01 2.611831128597259521e-01 1.330448836088180542e-01
3.158000000000000000e+03 1.865719032287597656e+01 9.835360527038574219e+00 7.017725706100463867e-01 -6.942117810249328613e-01 2.268240554258227348e-03 3.325305581092834473e-01
3.159000000000000000e+03 1.705609321594238281e+01 1.195459079742431641e+01 6.760048866271972656e-01 -6.981711387634277344e-01 -6.649874150753021240e-03 3.381570577621459961e-01
3.160000000000000000e+03 1.350167751312255859e+01 1.096602916717529297e+01 4.384924769401550293e-01 -9.172657728195190430e-01 -1.436319947242736816e-01 5.895857214927673340e-01
3.161000000000000000e+03 1.603652000427246094e+01 1.901702499389648438e+01 5.785197019577026367e-01 -3.591546416282653809e-01 6.580951064825057983e-02 3.966582566499710083e-02
3.162000000000000000e+03 1.593403434753417969e+01 2.175421905517578125e+01 4.766030907630920410e-01 -2.336267828941345215e-01 7.289289683103561401e-02 -6.407815963029861450e-02
3.163000000000000000e+03 2.867078971862792969e+01 4.994029521942138672e+00 8.251463770866394043e-01 9.822349548339843750e-01 5.422143936157226562e-01 -1.025384142994880676e-01
3.164000000000000000e+03 2.968286514282226562e+01 1.680257081985473633e+00 3.380015492439270020e-01 1.044820070266723633e+00 4.148464798927307129e-01 5.392989143729209900e-02
3.165000000000000000e+03 3.288526535034179688e+01 4.106675624847412109e+00 8.935313224792480469e-01 2.303917884826660156e+00 9.592347741127014160e-01 -3.285514116287231445e-01
3.166000000000000000e+03 1.616133308410644531e+01 1.407757186889648438e+01 6.803752779960632324e-01 -6.286307573318481445e-01 1.552336569875478745e-02 2.632850110530853271e-01
3.167000000000000000e+03 3.177082824707031250e+01 9.221949577331542969e+00 1.401787638664245605e+00 2.214135885238647461e+00 1.084777116775512695e+00 -5.334703922271728516e-01
3.168000000000000000e+03 2.988896560668945312e+01 8.618442535400390625e+00 1.258917450904846191e+00 1.543114900588989258e+00 8.406097292900085449e-01 -3.874994218349456787e-01
3.169000000000000000e+03 2.883635902404785156e+01 9.287931442260742188e+00 1.225769639015197754e+00 1.266377449035644531e+00 7.476441264152526855e-01 -3.654407560825347900e-01
3.170000000000000000e+03 1.448862838745117188e+01 2.282715225219726562e+01 3.838844895362854004e-01 -3.405822813510894775e-01 1.299066189676523209e-02 -3.491494432091712952e-02
3.171000000000000000e+03 2.198814392089843750e+01 9.200353622436523438e+00 8.415786027908325195e-01 -2.943305075168609619e-01 1.641744226217269897e-01 1.144992038607597351e-01
3.172000000000000000e+03 3.009719848632812500e+01 1.777681350708007812e+01 1.035483479499816895e+00 2.100402832031250000e+00 9.407658576965332031e-01 -7.498185634613037109e-01
3.173000000000000000e+03 2.886327934265136719e+01 1.786878013610839844e+01 1.025773882865905762e+00 1.785450816154479980e+00 8.433673977851867676e-01 -7.195968031883239746e-01
3.174000000000000000e+03 3.211673736572265625e+01 1.387305021286010742e+00 4.608047902584075928e-01 1.796969413757324219e+00 6.773322820663452148e-01 -1.266333609819412231e-01
3.175000000000000000e+03 2.702453804016113281e+01 6.165534973144531250e+00 8.565438389778137207e-01 5.806001424789428711e-01 4.311431944370269775e-01 -7.195694744586944580e-02
3.176000000000000000e+03 2.606435585021972656e+01 6.833351135253906250e+00 8.807557225227355957e-01 3.834030926227569580e-01 3.792476356029510498e-01 -5.303401499986648560e-02
3.177000000000000000e+03 3.266876983642578125e+01 -2.259223222732543945e+00 -3.665371984243392944e-02 1.598272562026977539e+00 4.684856534004211426e-01 6.692753732204437256e-02
3.178000000000000000e+03 3.283132553100585938e+01 6.089138388633728027e-01 3.760213553905487061e-01 1.947991609573364258e+00 6.972038745880126953e-01 -1.327341645956039429e-01
3.179000000000000000e+03 3.137905120849609375e+01 5.179359912872314453e-01 2.706899046897888184e-01 1.485341310501098633e+00 5.268093347549438477e-01 -3.414935199543833733e-04
3.180000000000000000e+03 2.657808876037597656e+01 7.896188259124755859e+00 1.010022759437561035e+00 5.741246938705444336e-01 4.752442240715026855e-01 -1.496476978063583374e-01
3.181000000000000000e+03 3.507574462890625000e+01 -4.294819831848144531e+00 -7.290625572204589844e-02 1.965614795684814453e+00 5.678125619888305664e-01 -1.454067528247833252e-01
3.182000000000000000e+03 2.592175674438476562e+01 1.176413249969482422e+01 1.144070863723754883e+00 6.468966603279113770e-01 5.372902750968933105e-01 -3.155292570590972900e-01
3.183000000000000000e+03 1.966001892089843750e+01 9.786291122436523438e+00 7.423892021179199219e-01 -6.058309078216552734e-01 4.096749052405357361e-02 2.706920802593231201e-01
3.184000000000000000e+03 2.088307380676269531e+01 7.073579788208007812e+00 5.841583609580993652e-01 -6.494741439819335938e-01 -1.959473639726638794e-02 3.257964551448822021e-01
3.185000000000000000e+03 1.538094329833984375e+01 1.255456161499023438e+01 5.975793600082397461e-01 -7.749108076095581055e-01 -5.319942906498908997e-02 4.061903357505798340e-01
3.186000000000000000e+03 1.486566829681396484e+01 1.087872505187988281e+01 5.231086611747741699e-01 -8.868765830993652344e-01 -1.091303750872612000e-01 5.262911915779113770e-01
3.187000000000000000e+03 1.994631958007812500e+01 1.092224597930908203e+01 8.110660314559936523e-01 -4.682763814926147461e-01 1.028369069099426270e-01 1.767931431531906128e-01
3.188000000000000000e+03 3.010601997375488281e+01 4.822609424591064453e+00 8.551423549652099609e-01 1.378774285316467285e+00 6.701750159263610840e-01 -1.713730543851852417e-01
3.189000000000000000e+03 2.849031829833984375e+01 6.494447708129882812e+00 9.748426675796508789e-01 1.007796049118041992e+00 5.947915911674499512e-01 -1.730352044105529785e-01
3.190000000000000000e+03 3.098745536804199219e+01 3.884159564971923828e+00 7.809673547744750977e-01 1.619602680206298828e+00 7.201709747314453125e-01 -1.708131283521652222e-01
3.191000000000000000e+03 1.658109855651855469e+01 1.637525177001953125e+01 6.588448882102966309e-01 -4.555794000625610352e-01 6.097964197397232056e-02 1.306912600994110107e-01
3.192000000000000000e+03 2.104199790954589844e+01 1.016514682769775391e+01 8.514972329139709473e-01 -3.686391711235046387e-01 1.448574215173721313e-01 1.256489753723144531e-01
3.193000000000000000e+03 3.009512138366699219e+01 6.706568717956542969e+00 1.092690587043762207e+00 1.473669171333312988e+00 7.699078917503356934e-01 -2.776809036731719971e-01
3.194000000000000000e+03 2.757318687438964844e+01 7.171668052673339844e+00 1.004714846611022949e+00 7.876066565513610840e-01 5.376964211463928223e-01 -1.649599075317382812e-01
3.195000000000000000e+03 2.658340454101562500e+01 5.124103546142578125e+00 6.931322813034057617e-01 3.994324803352355957e-01 3.277694284915924072e-01 2.019950188696384430e-02
3.196000000000000000e+03 2.873411941528320312e+01 2.030632495880126953e+00 3.480378389358520508e-01 8.080683946609497070e-01 3.468318581581115723e-01 9.495629370212554932e-02
3.197000000000000000e+03 2.819356918334960938e+01 8.186812400817871094e+00 1.126597642898559570e+00 1.015995979309082031e+00 6.427780985832214355e-01 -2.608835101127624512e-01
3.198000000000000000e+03 2.783426284790039062e+01 9.904591560363769531e+00 1.205764412879943848e+00 1.016017317771911621e+00 6.665344834327697754e-01 -3.420009315013885498e-01
3.199000000000000000e+03 2.665329360961914062e+01 1.282273769378662109e+01 1.189637064933776855e+00 9.025830030441284180e-01 6.276659965515136719e-01 -4.222945570945739746e-01
3.200000000000000000e+03 2.769896697998046875e+01 1.264414691925048828e+01 1.237914800643920898e+00 1.149252653121948242e+00 7.161502838134765625e-01 -4.734310209751129150e-01
3.201000000000000000e+03 2.827667808532714844e+01 4.240421295166015625e+00 6.577347517013549805e-01 7.831687927246093750e-01 4.322710633277893066e-01 -2.188202925026416779e-02
3.202000000000000000e+03 1.734157752990722656e+01 2.057799720764160156e+01 5.742048025131225586e-01 -1.290629059076309204e-01 1.335425674915313721e-01 -9.487522393465042114e-02
3.203000000000000000e+03 2.594127464294433594e+01 1.897585487365722656e+01 8.673161268234252930e-01 1.144773006439208984e+00 6.036267280578613281e-01 -5.608317255973815918e-01
3.204000000000000000e+03 2.633782386779785156e+01 1.556193828582763672e+01 1.098383665084838867e+00 1.021560549736022949e+00 6.359832286834716797e-01 -5.059721469879150391e-01
3.205000000000000000e+03 2.945068359375000000e+01 1.894054031372070312e+01 9.114976525306701660e-01 1.969764351844787598e+00 8.643786311149597168e-01 -7.394163608551025391e-01
3.206000000000000000e+03 2.754821777343750000e+01 1.849207878112792969e+01 9.366931319236755371e-01 1.475596666336059570e+00 7.236869335174560547e-01 -6.586480736732482910e-01
3.207000000000000000e+03 3.054127120971679688e+01 1.102938771247863770e+00 3.109687864780426025e-01 1.271822333335876465e+00 4.748373627662658691e-01 2.978355996310710907e-02
3.208000000000000000e+03 2.789490318298339844e+01 5.564978599548339844e+00 8.399091362953186035e-01 7.819039225578308105e-01 4.865438938140869141e-01 -9.265153110027313232e-02
3.209000000000000000e+03 3.212073898315429688e+01 3.840216249227523804e-02 2.524815797805786133e-01 1.674937844276428223e+00 5.782258510589599609e-01 -4.123476147651672363e-02
3.210000000000000000e+03 2.660959815979003906e+01 1.180220127105712891e+01 1.180045366287231445e+00 8.343036174774169922e-01 6.043046712875366211e-01 -3.709535598754882812e-01
3.211000000000000000e+03 2.265484809875488281e+01 1.009369850158691406e+01 9.487541913986206055e-01 -9.897068142890930176e-02 2.549350559711456299e-01 3.637685440480709076e-03
3.212000000000000000e+03 2.719522666931152344e+01 8.881086349487304688e+00 1.106364727020263672e+00 7.839792370796203613e-01 5.671032071113586426e-01 -2.451557815074920654e-01
3.213000000000000000e+03 1.866343116760253906e+01 1.111616897583007812e+01 7.532884478569030762e-01 -5.901020765304565430e-01 4.895590990781784058e-02 2.617247998714447021e-01
3.214000000000000000e+03 3.024042129516601562e+01 2.766340255737304688e+00 5.747549533843994141e-01 1.294013857841491699e+00 5.606306791305541992e-01 -5.965558439493179321e-02
3.215000000000000000e+03 2.527655029296875000e+01 1.141813564300537109e+01 1.111809611320495605e+00 5.188590884208679199e-01 4.892006218433380127e-01 -2.498760074377059937e-01
3.216000000000000000e+03 2.393619346618652344e+01 7.937975883483886719e+00 8.569417595863342285e-01 -1.435602270066738129e-02 2.527757287025451660e-01 3.196010738611221313e-02
3.217000000000000000e+03 2.119521331787109375e+01 8.447345733642578125e+00 7.400404214859008789e-01 -4.728051722049713135e-01 8.017057925462722778e-02 2.124333679676055908e-01
3.218000000000000000e+03 3.203382110595703125e+01 3.080158233642578125e+00 7.184341549873352051e-01 1.922877907752990723e+00 7.923936247825622559e-01 -2.039254009723663330e-01
3.219000000000000000e+03 2.099144363403320312e+01 1.672106933593750000e+01 8.573049306869506836e-01 1.029336974024772644e-01 2.880716025829315186e-01 -1.778513044118881226e-01
3.220000000000000000e+03 2.432317352294921875e+01 1.344199752807617188e+01 1.071196794509887695e+00 4.449854493141174316e-01 4.548546671867370605e-01 -2.896533310413360596e-01
3.221000000000000000e+03 2.934151840209960938e+01 5.749429702758789062e+00 9.305952787399291992e-01 1.204463839530944824e+00 6.405177712440490723e-01 -1.743597686290740967e-01
3.222000000000000000e+03 2.060879898071289062e+01 1.211885833740234375e+01 8.827666044235229492e-01 -2.928644418716430664e-01 1.769706457853317261e-01 6.512298434972763062e-02
3.223000000000000000e+03 1.872766494750976562e+01 1.680001640319824219e+01 7.622831463813781738e-01 -2.002288997173309326e-01 1.686162650585174561e-01 -2.555383369326591492e-02
3.224000000000000000e+03 2.917488479614257812e+01 4.212875366210937500e+00 7.224137783050537109e-01 1.075793027877807617e+00 5.394620299339294434e-01 -7.820387929677963257e-02
3.225000000000000000e+03 2.742378044128417969e+01 1.149486541748046875e+01 1.222182035446166992e+00 1.015385031700134277e+00 6.712701320648193359e-01 -3.985300064086914062e-01
3.226000000000000000e+03 2.540592193603515625e+01 1.388294219970703125e+01 1.107860565185546875e+00 7.027494311332702637e-01 5.431830286979675293e-01 -3.776386380195617676e-01
3.227000000000000000e+03 1.867156028747558594e+01 2.220802307128906250e+01 5.287016630172729492e-01 1.261673271656036377e-01 1.964606940746307373e-01 -2.124583125114440918e-01
3.228000000000000000e+03 1.703768157958984375e+01 1.462321662902832031e+01 7.102141976356506348e-01 -5.229132771492004395e-01 5.619028210639953613e-02 1.942834109067916870e-01
3.229000000000000000e+03 1.588218116760253906e+01 1.144718265533447266e+01 6.031522154808044434e-01 -8.124969005584716797e-01 -6.280340254306793213e-02 4.374206960201263428e-01
3.230000000000000000e+03 1.618134307861328125e+01 1.509563064575195312e+01 6.668964028358459473e-01 -5.757492780685424805e-01 2.734415046870708466e-02 2.187394648790359497e-01
3.231000000000000000e+03 2.246832656860351562e+01 1.200554752349853516e+01 9.713287353515625000e-01 -5.064120632596313953e-04 2.912467122077941895e-01 -7.600715756416320801e-02
3.232000000000000000e+03 2.403677558898925781e+01 1.168862724304199219e+01 1.052368879318237305e+00 2.521721124649047852e-01 3.913622796535491943e-01 -1.838995665311813354e-01
3.233000000000000000e+03 3.059087562561035156e+01 1.985740470886230469e+01 8.299636840820312500e-01 2.251857042312622070e+00 9.245462417602539062e-01 -7.511643171310424805e-01
3.234000000000000000e+03 2.827493095397949219e+01 1.989465713500976562e+01 8.417006731033325195e-01 1.719629406929016113e+00 7.683990597724914551e-01 -7.122254371643066406e-01
3.235000000000000000e+03 1.875108718872070312e+01 1.454972839355468750e+01 7.989005446434020996e-01 -3.452225923538208008e-01 1.361033767461776733e-01 7.768405228853225708e-02
3.236000000000000000e+03 2.546334838867187500e+01 8.770708084106445312e+00 1.008799791336059570e+00 3.584868609905242920e-01 4.101859927177429199e-01 -1.276269853115081787e-01
3.237000000000000000e+03 2.480834579467773438e+01 1.231030750274658203e+01 1.093170166015625000e+00 4.821344614028930664e-01 4.725914001464843750e-01 -2.691682875156402588e-01
3.238000000000000000e+03 2.561801910400390625e+01 1.059183883666992188e+01 1.108233571052551270e+00 5.153281092643737793e-01 4.870685040950775146e-01 -2.360629290342330933e-01
3.239000000000000000e+03 2.568965911865234375e+01 1.270507526397705078e+01 1.141497731208801270e+00 6.787174344062805176e-01 5.460645556449890137e-01 -3.436894714832305908e-01
3.240000000000000000e+03 2.334514808654785156e+01 1.280013847351074219e+01 1.023887634277343750e+00 2.197076380252838135e-01 3.730785846710205078e-01 -1.849834024906158447e-01
3.241000000000000000e+03 2.169110870361328125e+01 1.111060047149658203e+01 9.150964617729187012e-01 -2.034998536109924316e-01 2.134789973497390747e-01 2.467963099479675293e-02
3.242000000000000000e+03 1.658483123779296875e+01 1.305729103088378906e+01 6.854788661003112793e-01 -6.608003973960876465e-01 7.403551135212182999e-03 2.990453243255615234e-01
3.243000000000000000e+03 2.694471549987792969e+01 1.050826454162597656e+01 1.186126589775085449e+00 8.361956477165222168e-01 6.066966652870178223e-01 -3.171754181385040283e-01
3.244000000000000000e+03 2.628434562683105469e+01 1.108500957489013672e+01 1.157366156578063965e+00 6.988757252693176270e-01 5.568725466728210449e-01 -3.104951381683349609e-01
3.245000000000000000e+03 1.868925094604492188e+01 1.934597206115722656e+01 6.642440557479858398e-01 -4.096469283103942871e-02 1.869838088750839233e-01 -1.228494942188262939e-01
3.246000000000000000e+03 2.012600708007812500e+01 2.084098052978515625e+01 6.439119577407836914e-01 2.469132840633392334e-01 2.672475576400756836e-01 -2.598851025104522705e-01
3.247000000000000000e+03 1.449901962280273438e+01 2.734595489501953125e+01 2.012371271848678589e-01 -1.797542273998260498e-01 6.444868631660938263e-03 -1.364665180444717407e-01
3.248000000000000000e+03 1.381648826599121094e+01 2.545724487304687500e+01 2.644295990467071533e-01 -3.170217871665954590e-01 -1.577765680849552155e-02 -8.238505572080612183e-02
3.249000000000000000e+03 2.240396881103515625e+01 1.780263328552246094e+01 8.549151420593261719e-01 4.003182947635650635e-01 3.765700161457061768e-01 -3.081277012825012207e-01
3.250000000000000000e+03 1.836219787597656250e+01 1.247967243194580078e+01 7.706012129783630371e-01 -5.287641882896423340e-01 7.255110889673233032e-02 2.070731222629547119e-01
3.251000000000000000e+03 2.955375099182128906e+01 2.121365165710449219e+01 6.902419328689575195e-01 2.019773721694946289e+00 8.130046725273132324e-01 -7.236410975456237793e-01
3.252000000000000000e+03 2.358685684204101562e+01 9.067622184753417969e+00 9.333180785179138184e-01 -7.906995713710784912e-03 2.776233255863189697e-01 -1.414773054420948029e-02
3.253000000000000000e+03 2.480530929565429688e+01 1.076929092407226562e+01 1.085417509078979492e+00 3.691858649253845215e-01 4.363810122013092041e-01 -1.903085857629776001e-01
3.254000000000000000e+03 2.620971298217773438e+01 9.690673828125000000e+00 1.109799027442932129e+00 5.892904400825500488e-01 5.097268819808959961e-01 -2.243976444005966187e-01
3.255000000000000000e+03 1.960333061218261719e+01 1.329256629943847656e+01 8.427494764328002930e-01 -3.339111506938934326e-01 1.526515036821365356e-01 8.036492019891738892e-02
3.256000000000000000e+03 2.158902740478515625e+01 1.314189147949218750e+01 9.413252472877502441e-01 -5.768226459622383118e-02 2.650928795337677002e-01 -6.607265025377273560e-02
3.257000000000000000e+03 1.993183517456054688e+01 1.806847763061523438e+01 7.607812285423278809e-01 3.905891999602317810e-02 2.399520426988601685e-01 -1.549201160669326782e-01
3.258000000000000000e+03 1.771557617187500000e+01 1.368260765075683594e+01 7.522973418235778809e-01 -5.054355859756469727e-01 7.405853271484375000e-02 1.892753094434738159e-01
3.259000000000000000e+03 1.979963493347167969e+01 1.560442447662353516e+01 8.359554409980773926e-01 -1.444445550441741943e-01 2.074532657861709595e-01 -4.715543612837791443e-02
3.260000000000000000e+03 1.643046188354492188e+01 2.645910072326660156e+01 2.659122943878173828e-01 3.028786182403564453e-02 8.886004984378814697e-02 -1.885727345943450928e-01
3.261000000000000000e+03 2.334237670898437500e+01 1.091615200042724609e+01 9.944524765014648438e-01 7.254416495561599731e-02 3.200989961624145508e-01 -8.450178802013397217e-02
3.262000000000000000e+03 2.186979484558105469e+01 1.534869003295898438e+01 9.319732189178466797e-01 1.473887413740158081e-01 3.238086104393005371e-01 -1.825797557830810547e-01
3.263000000000000000e+03 2.007068443298339844e+01 2.394952964782714844e+01 4.473918080329895020e-01 4.089349806308746338e-01 2.568980455398559570e-01 -3.131729662418365479e-01
3.264000000000000000e+03 2.263630294799804688e+01 1.402840805053710938e+01 9.900081157684326172e-01 1.851448267698287964e-01 3.525458872318267822e-01 -1.854569017887115479e-01
3.265000000000000000e+03 1.740033721923828125e+01 1.786837387084960938e+01 6.694308519363403320e-01 -2.858069837093353271e-01 1.150871738791465759e-01 1.188021246343851089e-02
3.266000000000000000e+03 2.432469558715820312e+01 9.818822860717773438e+00 1.010043978691101074e+00 1.879124641418457031e-01 3.593869209289550781e-01 -9.888244420289993286e-02
3.267000000000000000e+03 2.502171516418457031e+01 1.526083660125732422e+01 1.062904596328735352e+00 7.078437805175781250e-01 5.312244892120361328e-01 -4.114514887332916260e-01
3.268000000000000000e+03 2.410645484924316406e+01 1.875225448608398438e+01 8.523101806640625000e-01 7.868126034736633301e-01 4.917368292808532715e-01 -4.558009207248687744e-01
3.269000000000000000e+03 1.830210113525390625e+01 2.530929565429687500e+01 3.483601808547973633e-01 2.268491685390472412e-01 1.725628077983856201e-01 -2.483095824718475342e-01
3.270000000000000000e+03 1.779209136962890625e+01 1.560682201385498047e+01 7.378100156784057617e-01 -3.688703179359436035e-01 1.106819137930870056e-01 8.798854053020477295e-02
3.271000000000000000e+03 2.315936088562011719e+01 1.621695899963378906e+01 9.605743288993835449e-01 4.405491352081298828e-01 4.203370511531829834e-01 -3.101597726345062256e-01
3.272000000000000000e+03 2.169811439514160156e+01 2.241387939453125000e+01 5.677067041397094727e-01 5.821153521537780762e-01 3.449466228485107422e-01 -3.769943118095397949e-01
3.273000000000000000e+03 2.071219635009765625e+01 1.435183525085449219e+01 9.015994668006896973e-01 -9.960807859897613525e-02 2.405974119901657104e-01 -5.910171568393707275e-02
3.274000000000000000e+03 2.456834602355957031e+01 1.685387229919433594e+01 9.876001477241516113e-01 7.502243518829345703e-01 5.213473439216613770e-01 -4.398584961891174316e-01
3.275000000000000000e+03 2.378333091735839844e+01 1.475084972381591797e+01 1.023254990577697754e+00 4.495598971843719482e-01 4.418444633483886719e-01 -3.032699227333068848e-01
3.276000000000000000e+03 2.668915176391601562e+01 2.086896324157714844e+01 7.332102656364440918e-01 1.395378708839416504e+00 6.385766863822937012e-01 -6.347617506980895996e-01
3.277000000000000000e+03 2.498558807373046875e+01 2.228513336181640625e+01 6.109077334403991699e-01 1.146228671073913574e+00 5.271409153938293457e-01 -5.406799912452697754e-01
3.278000000000000000e+03 2.140096473693847656e+01 1.937217140197753906e+01 7.501102685928344727e-01 3.373299837112426758e-01 3.262320756912231445e-01 -2.929786443710327148e-01
3.279000000000000000e+03 1.514851379394531250e+01 2.951552581787109375e+01 1.204205006361007690e-01 -3.504905104637145996e-02 2.561143413186073303e-02 -1.724390387535095215e-01
3.280000000000000000e+03 1.309562778472900391e+01 3.253355789184570312e+01 2.375404536724090576e-02 -2.310119420289993286e-01 -6.217736750841140747e-02 -1.222529858350753784e-01
3.281000000000000000e+03 3.541602706909179688e+01 -3.832069015502929688e+01 1.848619282245635986e-01 9.481676667928695679e-02 8.390361070632934570e-02 -2.239967510104179382e-02
3.282000000000000000e+03 3.223081207275390625e+01 2.836016654968261719e+01 -8.503019064664840698e-02 2.586372375488281250e+00 7.504026293754577637e-01 -5.646474361419677734e-01
3.283000000000000000e+03 3.383044052124023438e+01 2.132400894165039062e+01 6.069851517677307129e-01 3.132423639297485352e+00 1.121822595596313477e+00 -7.127621173858642578e-01
3.284000000000000000e+03 1.314740180969238281e+01 3.534209442138671875e+01 -3.921938687562942505e-02 -1.922724992036819458e-01 -6.944756209850311279e-02 -9.608142822980880737e-02
3.285000000000000000e+03 2.489317512512207031e+01 3.046492195129394531e+01 -4.271443188190460205e-02 1.423209309577941895e+00 4.141484498977661133e-01 -4.234108924865722656e-01
3.286000000000000000e+03 2.319053649902343750e+01 -3.740274810791015625e+01 3.570772008970379829e-03 -2.312115393579006195e-02 -5.865114275366067886e-03 -3.065381571650505066e-02
3.287000000000000000e+03 2.519912147521972656e+01 2.595293235778808594e+01 2.849477529525756836e-01 1.344621539115905762e+00 4.888707995414733887e-01 -5.333440899848937988e-01
3.288000000000000000e+03 3.176654052734375000e+01 -3.670215988159179688e+01 -2.314879093319177628e-03 -9.744553826749324799e-03 -3.617829876020550728e-03 -1.251976490020751953e-01
3.289000000000000000e+03 1.259326457977294922e+01 -4.145115661621093750e+01 1.405213959515094757e-03 -6.293428130447864532e-03 -1.466464251279830933e-03 -3.400465648155659437e-04
3.290000000000000000e+03 4.769054412841796875e+01 -4.142639160156250000e+01 -6.525090932846069336e-01 3.384246587753295898e+00 8.195212483406066895e-01 1.266677081584930420e-01
3.291000000000000000e+03 7.286376953125000000e+01 -3.603304290771484375e+01 -5.965622663497924805e-01 5.739555358886718750e+00 1.542897939682006836e+00 1.674470305442810059e-01
3.292000000000000000e+03 2.821808624267578125e+01 2.250682640075683594e+01 5.824585556983947754e-01 1.787626862525939941e+00 7.110256552696228027e-01 -6.923995018005371094e-01
3.293000000000000000e+03 9.260403633117675781e+00 3.819748306274414062e+01 -4.319771379232406616e-02 -7.124465107917785645e-01 -2.266932725906372070e-01 -4.047640413045883179e-02
3.294000000000000000e+03 4.212216949462890625e+01 3.436004257202148438e+01 -7.095264196395874023e-01 2.731741189956665039e+00 6.066644191741943359e-01 1.173438802361488342e-01
3.295000000000000000e+03 4.783760452270507812e+01 3.682815551757812500e+01 -6.904030442237854004e-01 1.758861064910888672e+00 3.205374181270599365e-01 2.296073287725448608e-01
3.296000000000000000e+03 3.412523269653320312e+01 3.364611816406250000e+01 -5.769910812377929688e-01 2.662911176681518555e+00 6.257759928703308105e-01 -3.102399408817291260e-01
3.297000000000000000e+03 2.927148628234863281e+01 -3.870255279541015625e+01 7.850206643342971802e-02 -4.998013749718666077e-02 8.556579239666461945e-03 -7.155778259038925171e-02
3.298000000000000000e+03 2.528564262390136719e+01 -3.605683898925781250e+01 -7.443903945386409760e-03 -1.751066371798515320e-02 -7.486370392143726349e-03 -4.472373053431510925e-02
3.299000000000000000e+03 7.812406921386718750e+01 -4.166817855834960938e+01 2.360387295484542847e-01 8.427151679992675781e+00 2.598957061767578125e+00 6.626822054386138916e-02
3.300000000000000000e+03 1.742592048645019531e+01 2.862146377563476562e+01 1.670251637697219849e-01 2.384085655212402344e-01 1.216301172971725464e-01 -2.378629446029663086e-01
3.301000000000000000e+03 3.233771896362304688e+01 -3.877386474609375000e+01 1.317559629678726196e-01 -1.901195198297500610e-02 3.382320329546928406e-02 -1.027585044503211975e-01
3.302000000000000000e+03 3.835336303710937500e+01 3.534196853637695312e+01 -7.929609417915344238e-01 2.799431800842285156e+00 6.019412279129028320e-01 -1.157316491007804871e-01
3.303000000000000000e+03 1.270519351959228516e+01 -3.925305557250976562e+01 1.285072648897767067e-03 -5.251412279903888702e-03 -1.189901959151029587e-03 -2.143910853192210197e-03
3.304000000000000000e+03 1.719779968261718750e+01 -4.132576751708984375e+01 8.228669874370098114e-03 -1.552338059991598129e-02 -2.188413171097636223e-03 -2.493436448276042938e-03
3.305000000000000000e+03 8.189545631408691406e+00 4.109740829467773438e+01 -4.566533491015434265e-02 -8.552761673927307129e-01 -2.702824473381042480e-01 -8.537454530596733093e-03
3.306000000000000000e+03 8.141777038574218750e+00 -4.133951187133789062e+01 -2.042547712335363030e-04 -2.261195797473192215e-03 -7.396351429633796215e-04 -3.036372945643961430e-04
3.307000000000000000e+03 9.171468734741210938e+00 -3.896921539306640625e+01 3.226991975679993629e-04 -3.199004568159580231e-03 -8.628916111774742603e-04 -1.683118753135204315e-04
3.308000000000000000e+03 6.015494155883789062e+01 4.011182785034179688e+01 -1.350739598274230957e-01 -6.208025217056274414e-01 -2.267629504203796387e-01 2.336030006408691406e-01
3.309000000000000000e+03 2.165627670288085938e+01 -4.103597640991210938e+01 2.709439769387245178e-02 -3.396026790142059326e-02 -2.059760736301541328e-03 -6.425314117223024368e-03
3.310000000000000000e+03 2.818568611145019531e+01 -4.115727233886718750e+01 9.352771192789077759e-02 -6.418550759553909302e-02 8.802659809589385986e-03 -2.559950761497020721e-02
3.311000000000000000e+03 3.247504043579101562e+01 -4.128977584838867188e+01 2.149937748908996582e-01 -4.045496135950088501e-02 5.236164107918739319e-02 -3.185931965708732605e-02
3.312000000000000000e+03 3.568653488159179688e+01 3.690720367431640625e+01 -8.078631162643432617e-01 2.687252998352050781e+00 5.638169050216674805e-01 -1.586234718561172485e-01
3.313000000000000000e+03 3.182451438903808594e+01 3.737342071533203125e+01 -6.880052685737609863e-01 2.375920295715332031e+00 5.063744783401489258e-01 -1.984938830137252808e-01
3.314000000000000000e+03 2.770784759521484375e+01 3.699746322631835938e+01 -4.828124940395355225e-01 1.885479927062988281e+00 4.208002388477325439e-01 -2.453383356332778931e-01
3.315000000000000000e+03 1.969098472595214844e+01 3.381940841674804688e+01 -8.673538267612457275e-02 7.060977816581726074e-01 1.858087182044982910e-01 -2.501660585403442383e-01
3.316000000000000000e+03 3.631332397460937500e+01 3.265225219726562500e+01 -5.715289115905761719e-01 2.863753795623779297e+00 6.876674890518188477e-01 -2.515502572059631348e-01
3.317000000000000000e+03 3.306063079833984375e+01 3.084665679931640625e+01 -3.201678097248077393e-01 2.617573499679565430e+00 6.892216801643371582e-01 -4.443596303462982178e-01
3.318000000000000000e+03 6.760997772216796875e+01 4.134651947021484375e+01 3.009602725505828857e-01 2.008469820022583008e+00 6.928290128707885742e-01 -7.334783673286437988e-02
3.319000000000000000e+03 5.201668167114257812e+01 -3.940124130249023438e+01 -1.036236166954040527e+00 4.446889400482177734e+00 1.023195981979370117e+00 2.109671533107757568e-01
3.320000000000000000e+03 2.835386085510253906e+01 2.534256553649902344e+01 2.930206060409545898e-01 1.868603706359863281e+00 6.484873294830322266e-01 -6.324158906936645508e-01
3.321000000000000000e+03 4.005805206298828125e+01 -3.489701080322265625e+01 -1.246793661266565323e-02 5.007454156875610352e-01 1.464832425117492676e-01 2.180051058530807495e-01
3.322000000000000000e+03 1.581535243988037109e+01 3.203509902954101562e+01 2.654704824090003967e-02 1.219793483614921570e-01 4.455791786313056946e-02 -1.800375878810882568e-01
3.323000000000000000e+03 2.330592727661132812e+01 2.800485992431640625e+01 1.635774523019790649e-01 1.088571190834045410e+00 3.756445944309234619e-01 -4.413003027439117432e-01
3.324000000000000000e+03 2.851074218750000000e+01 3.414950942993164062e+01 -3.890216648578643799e-01 1.995468497276306152e+00 4.819340407848358154e-01 -3.839786648750305176e-01
3.325000000000000000e+03 3.130595397949218750e+01 2.249214553833007812e+01 5.240997672080993652e-01 2.468074321746826172e+00 8.976522088050842285e-01 -7.305585741996765137e-01
3.326000000000000000e+03 2.096004486083984375e+01 2.968524169921875000e+01 8.545805513858795166e-02 7.768569588661193848e-01 2.586944997310638428e-01 -3.391254246234893799e-01
3.327000000000000000e+03 2.999153900146484375e+01 2.898200416564941406e+01 -5.467301234602928162e-02 2.238348245620727539e+00 6.551025509834289551e-01 -5.847893357276916504e-01
3.328000000000000000e+03 2.939632797241210938e+01 2.689853668212890625e+01 1.144143119454383850e-01 2.109603404998779297e+00 6.672052741050720215e-01 -6.202626824378967285e-01
3.329000000000000000e+03 1.849027633666992188e+01 3.106661415100097656e+01 3.959400951862335205e-02 4.577046334743499756e-01 1.491895914077758789e-01 -2.543716728687286377e-01
3.330000000000000000e+03 4.321676254272460938e+01 -4.114042663574218750e+01 -7.703384757041931152e-02 1.776196002960205078e+00 5.097486376762390137e-01 1.384517699480056763e-01
3.331000000000000000e+03 2.635250091552734375e+01 3.286256027221679688e+01 -2.418740540742874146e-01 1.713391780853271484e+00 4.414553344249725342e-01 -4.016337394714355469e-01
3.332000000000000000e+03 2.731223487854003906e+01 2.707266998291015625e+01 1.529991924762725830e-01 1.735845804214477539e+00 5.666534900665283203e-01 -5.765982866287231445e-01
3.333000000000000000e+03 3.072094917297363281e+01 3.142794227600097656e+01 -2.829807698726654053e-01 2.305243730545043945e+00 6.066789031028747559e-01 -4.886285662651062012e-01
3.334000000000000000e+03 2.746141815185546875e+01 2.942848777770996094e+01 -2.635454200208187103e-02 1.799211621284484863e+00 5.318571329116821289e-01 -5.348444581031799316e-01
3.335000000000000000e+03 5.701966094970703125e+01 -4.133338165283203125e+01 -5.696317553520202637e-01 3.131792306900024414e+00 7.686482071876525879e-01 -2.676635384559631348e-01
3.336000000000000000e+03 3.136287498474121094e+01 3.421789932250976562e+01 -5.112907886505126953e-01 2.336604833602905273e+00 5.475941896438598633e-01 -3.466894626617431641e-01
3.337000000000000000e+03 2.192852020263671875e+01 -1.262658023834228516e+01 6.001222209306433797e-05 2.795073487504851073e-05 2.638888690853491426e-05 4.918723789160139859e-05
3.338000000000000000e+03 9.179260253906250000e+00 -1.950696945190429688e+00 2.652788316481746733e-05 1.071029255399480462e-04 4.008924224763177335e-05 4.522761446423828602e-05
3.339000000000000000e+03 4.703695297241210938e+01 -1.861072349548339844e+01 1.583459258079528809e+00 1.571029782295227051e+00 9.463467001914978027e-01 -3.080117464065551758e+00
3.340000000000000000e+03 4.774795150756835938e+01 -1.866246795654296875e+01 2.646756410598754883e+00 3.119936704635620117e+00 1.730008006095886230e+00 -4.876763343811035156e+00
3.341000000000000000e+03 4.664142608642578125e+01 -2.235863113403320312e+01 8.440756201744079590e-01 1.262456297874450684e+00 6.319595575332641602e-01 1.011090159416198730e+00
3.342000000000000000e+03 4.809825515747070312e+01 -2.222310447692871094e+01 1.056107640266418457e+00 5.028646945953369141e+00 1.825426340103149414e+00 2.777601957321166992e+00
3.343000000000000000e+03 4.864598846435546875e+01 -2.186033630371093750e+01 8.059413433074951172e-01 8.055526733398437500e+00 2.658440589904785156e+00 3.363495111465454102e+00
3.344000000000000000e+03 4.869952392578125000e+01 -2.217369270324707031e+01 3.205684721469879150e-01 8.325372695922851562e+00 2.593782424926757812e+00 2.847786188125610352e+00
3.345000000000000000e+03 4.917840194702148438e+01 -2.212084960937500000e+01 -1.383671611547470093e-01 1.048088645935058594e+01 3.102756023406982422e+00 2.047917604446411133e+00
3.346000000000000000e+03 4.905893707275390625e+01 -2.179840469360351562e+01 4.988393560051918030e-02 1.120896339416503906e+01 3.377654075622558594e+00 2.717716217041015625e+00
3.347000000000000000e+03 4.254076385498046875e+01 -2.467946052551269531e+01 5.155031010508537292e-02 -4.909641742706298828e-01 -1.318241655826568604e-01 -4.157376661896705627e-02
3.348000000000000000e+03 4.256478118896484375e+01 -2.381532478332519531e+01 1.217880249023437500e-01 -2.978756129741668701e-01 -5.282627418637275696e-02 -1.440352052450180054e-01
3.349000000000000000e+03 4.196415328979492188e+01 -2.414357185363769531e+01 1.753386296331882477e-02 -7.381970286369323730e-01 -2.161989510059356689e-01 1.461975835263729095e-02
3.350000000000000000e+03 3.494380187988281250e+01 -3.573661804199218750e+01 -7.391167432069778442e-02 -5.827020853757858276e-02 -3.965456411242485046e-02 -1.295146495103836060e-01
3.351000000000000000e+03 6.106575775146484375e+01 -3.696728515625000000e+01 -1.908158063888549805e-01 7.346602678298950195e-01 1.631533503532409668e-01 -1.071146607398986816e+00
3.352000000000000000e+03 5.604849243164062500e+01 -3.352208709716796875e+01 2.479002997279167175e-02 7.208659648895263672e+00 2.170034885406494141e+00 -1.155952930450439453e+00
3.353000000000000000e+03 3.980569839477539062e+01 -3.970013046264648438e+01 1.767397075891494751e-01 8.204756975173950195e-01 2.991646230220794678e-01 1.282095611095428467e-01
3.354000000000000000e+03 4.936004638671875000e+01 -2.240009498596191406e+01 -4.616062641143798828e-01 1.094368457794189453e+01 3.144623517990112305e+00 1.311402678489685059e+00
3.355000000000000000e+03 5.001210784912109375e+01 -2.244481086730957031e+01 -2.192733883857727051e-01 1.128566360473632812e+01 3.319916963577270508e+00 -7.210918664932250977e-01
3.356000000000000000e+03 4.806671905517578125e+01 -2.282032394409179688e+01 6.350971460342407227e-01 5.244907855987548828e+00 1.764001488685607910e+00 2.301846504211425781e+00
3.357000000000000000e+03 2.135716819763183594e+01 -1.394260978698730469e+01 -2.209098784078378230e-05 4.801798058906570077e-05 7.778097824484575540e-06 7.207648877738392912e-07
3.358000000000000000e+03 7.336994171142578125e+01 -2.800636482238769531e+01 1.089907050132751465e+00 9.278005599975585938e+00 3.110373735427856445e+00 -5.598948001861572266e-01
3.359000000000000000e+03 2.904649353027343750e+01 -3.347882843017578125e+01 -1.093068569898605347e-01 8.516475558280944824e-03 -3.023711591958999634e-02 -4.051136225461959839e-02
3.360000000000000000e+03 1.962656021118164062e+01 -3.269566345214843750e+01 -1.512675825506448746e-02 -5.889972089789807796e-04 -4.714726936072111130e-03 -6.661708001047372818e-03
3.361000000000000000e+03 7.278658390045166016e+00 -1.955423927307128906e+01 7.197849336080253124e-04 -4.804767013411037624e-05 2.015211794059723616e-04 -1.359043526463210583e-04
3.362000000000000000e+03 4.306492996215820312e+01 -3.227241516113281250e+01 2.991646155714988708e-02 1.152880787849426270e+00 3.548391759395599365e-01 5.513345003128051758e-01
3.363000000000000000e+03 4.126649093627929688e+01 -3.477523803710937500e+01 -3.227187320590019226e-02 8.718121647834777832e-01 2.518620789051055908e-01 3.873506486415863037e-01
3.364000000000000000e+03 5.475757980346679688e+01 -3.706932830810546875e+01 -9.634261727333068848e-01 4.936432361602783203e+00 1.191901922225952148e+00 -5.481145977973937988e-01
3.365000000000000000e+03 5.247679901123046875e+01 3.580295562744140625e+01 -4.787104725837707520e-01 5.236301422119140625e-01 1.347590703517198563e-02 1.811133474111557007e-01
3.366000000000000000e+03 4.833422851562500000e+01 -2.316968727111816406e+01 1.647718101739883423e-01 6.085802555084228516e+00 1.875172376632690430e+00 1.963272809982299805e+00
3.367000000000000000e+03 5.419336318969726562e+01 3.660594177246093750e+01 -6.629316806793212891e-01 2.652227282524108887e-01 -1.193126812577247620e-01 1.372459083795547485e-01
3.368000000000000000e+03 4.704909896850585938e+01 -2.320755195617675781e+01 7.931712865829467773e-01 2.857517004013061523e+00 1.095206499099731445e+00 1.608950495719909668e+00
3.369000000000000000e+03 4.703649902343750000e+01 -2.365594482421875000e+01 6.319743394851684570e-01 3.048020124435424805e+00 1.103998303413391113e+00 1.472510218620300293e+00
3.370000000000000000e+03 4.642188644409179688e+01 -1.767346191406250000e+01 6.034482121467590332e-01 2.398773193359375000e+00 9.006664156913757324e-01 -2.866613388061523438e+00
3.371000000000000000e+03 2.125229597091674805e+00 3.704703521728515625e+01 1.759195583872497082e-03 -1.657517075538635254e+00 -4.967273771762847900e-01 -3.225733339786529541e-02
3.372000000000000000e+03 5.003314495086669922e+00 -3.257915115356445312e+01 1.297799521125853062e-03 -5.727887619286775589e-04 2.175032277591526508e-04 1.512657472630962729e-04
3.373000000000000000e+03 7.399031066894531250e+01 -2.889593315124511719e+01 7.808395624160766602e-01 8.511182785034179688e+00 2.787606477737426758e+00 -4.680014550685882568e-01
3.374000000000000000e+03 7.260302734375000000e+01 -1.846574783325195312e+01 -9.519627094268798828e-01 6.475483417510986328e+00 1.657056093215942383e+00 -7.269392609596252441e-01
3.375000000000000000e+03 7.236001586914062500e+01 -3.458806991577148438e+01 -9.051095247268676758e-01 5.936856746673583984e+00 1.509524106979370117e+00 3.034507632255554199e-01
3.376000000000000000e+03 5.243067550659179688e+01 -1.755070877075195312e+01 -5.179650187492370605e-01 5.272177219390869141e+00 1.426263689994812012e+00 -3.892787173390388489e-02
3.377000000000000000e+03 5.201821517944335938e+01 -3.137561225891113281e+01 1.221405148506164551e+00 5.580113887786865234e+00 2.040455579757690430e+00 -1.027048826217651367e-01
3.378000000000000000e+03 4.893067932128906250e+01 -2.316230392456054688e+01 -2.997827529907226562e-01 7.910064220428466797e+00 2.283084392547607422e+00 1.524309158325195312e+00
3.379000000000000000e+03 4.858793640136718750e+01 -2.286849594116210938e+01 1.109915897250175476e-01 7.223011016845703125e+00 2.200200796127319336e+00 2.178640842437744141e+00
3.380000000000000000e+03 6.947090911865234375e+01 -3.514819717407226562e+01 -8.221969008445739746e-01 3.225655078887939453e+00 7.210375070571899414e-01 9.469084143638610840e-01
3.381000000000000000e+03 7.617005920410156250e+01 -2.122001647949218750e+01 -2.967695593833923340e-01 7.441131591796875000e+00 2.143308639526367188e+00 6.157267093658447266e-01
3.382000000000000000e+03 4.895477294921875000e+01 -1.711090278625488281e+01 -1.382328987121582031e+00 9.879586219787597656e+00 2.549177169799804688e+00 -4.102945804595947266e+00
3.383000000000000000e+03 4.998498916625976562e+00 3.638972854614257812e+01 2.444077283143997192e-03 -1.261603593826293945e+00 -3.777478635311126709e-01 -7.718077977187931538e-04
3.384000000000000000e+03 4.632941055297851562e+01 -2.357912826538085938e+01 6.910722255706787109e-01 1.878315448760986328e+00 7.708163261413574219e-01 1.014869570732116699e+00
3.385000000000000000e+03 5.663697052001953125e+01 -2.283717727661132812e+01 1.747222781181335449e+00 2.028594017028808594e+00 1.132745027542114258e+00 1.942844837903976440e-01
3.386000000000000000e+03 1.746298599243164062e+01 -3.520710754394531250e+01 -6.054526194930076599e-03 -6.862631533294916153e-03 -3.875147318467497826e-03 -1.069426070898771286e-02
3.387000000000000000e+03 2.481028366088867188e+01 -5.155377388000488281e+00 -1.291350483894348145e+00 -9.064617156982421875e-01 -6.593436598777770996e-01 1.092520713806152344e+00
3.388000000000000000e+03 5.170475959777832031e+00 -2.335333442687988281e+01 4.690456262324005365e-04 3.739790408872067928e-04 2.529073972254991531e-04 -1.592995395185425878e-04
3.389000000000000000e+03 4.673252487182617188e+01 -3.105145454406738281e+01 1.003895178437232971e-01 3.036751270294189453e+00 9.411422014236450195e-01 7.185882925987243652e-01
3.390000000000000000e+03 7.279607391357421875e+01 -1.687340927124023438e+01 -6.120450496673583984e-01 6.198252201080322266e+00 1.675862193107604980e+00 -6.774358749389648438e-01
3.391000000000000000e+03 4.910336303710937500e+01 -2.354874038696289062e+01 -4.426243007183074951e-01 7.894400119781494141e+00 2.235532760620117188e+00 1.111442685127258301e+00
3.392000000000000000e+03 3.828758478164672852e+00 3.612898635864257812e+01 3.632614761590957642e-02 -1.470950126647949219e+00 -4.303871989250183105e-01 -1.612321101129055023e-02
3.393000000000000000e+03 5.765588378906250000e+01 -2.190487289428710938e+01 1.649921536445617676e+00 1.061941266059875488e+00 8.135588169097900391e-01 1.077486515045166016e+00
3.394000000000000000e+03 4.856669998168945312e+01 -1.652840805053710938e+01 -1.601578950881958008e+00 8.228383064270019531e+00 1.988041162490844727e+00 -3.815781593322753906e+00
3.395000000000000000e+03 7.610896301269531250e+01 -2.777131462097167969e+01 5.628539323806762695e-01 7.561019420623779297e+00 2.437162160873413086e+00 -5.695193409919738770e-01
3.396000000000000000e+03 7.484290313720703125e+01 -3.600682449340820312e+01 -4.719946384429931641e-01 6.964124679565429688e+00 1.947638988494873047e+00 -2.045958340167999268e-01
3.397000000000000000e+03 1.741739463806152344e+01 -1.001789760589599609e+01 3.840961289824917912e-05 1.075690088327974081e-04 4.379358506412245333e-05 5.987567419651895761e-05
3.398000000000000000e+03 7.579294586181640625e+01 -2.014631271362304688e+01 -4.669922292232513428e-01 7.440105438232421875e+00 2.091933965682983398e+00 3.280489146709442139e-01
3.399000000000000000e+03 9.862589836120605469e+00 -1.224935054779052734e+01 3.386983735254034400e-05 -5.898173549212515354e-05 -7.533569714723853394e-06 -1.660040143178775907e-04
3.400000000000000000e+03 4.291687774658203125e+01 -1.758040428161621094e+01 -1.204768538475036621e+00 1.056272387504577637e+00 -4.454887658357620239e-02 -3.503685295581817627e-01
3.401000000000000000e+03 1.790873527526855469e+01 -9.600790023803710938e+00 -9.618049080017954111e-05 -3.586657476262189448e-05 -3.961412221542559564e-05 -5.049226820119656622e-05
3.402000000000000000e+03 4.809149551391601562e+01 -1.651062774658203125e+01 -1.071605563163757324e+00 7.020728588104248047e+00 1.784736871719360352e+00 -3.959180355072021484e+00
3.403000000000000000e+03 4.831275939941406250e+01 -2.474400520324707031e+01 -1.582265943288803101e-01 5.609511375427246094e+00 1.635385513305664062e+00 1.139094352722167969e+00
3.404000000000000000e+03 7.311644744873046875e+01 -1.541105175018310547e+01 -4.066083729267120361e-01 6.207184314727783203e+00 1.740172743797302246e+00 -5.820798277854919434e-01
3.405000000000000000e+03 5.296764373779296875e+00 3.525320816040039062e+01 1.624347642064094543e-02 -1.222722887992858887e+00 -3.619438111782073975e-01 -3.505316004157066345e-02
3.406000000000000000e+03 1.348478031158447266e+01 5.314014434814453125e+00 -1.055856496095657349e-01 -1.125331044197082520e+00 -3.692750036716461182e-01 9.127710461616516113e-01
3.407000000000000000e+03 1.317462539672851562e+01 6.124808788299560547e+00 -1.699874643236398697e-03 -1.084782481193542480e+00 -3.259446918964385986e-01 8.780166506767272949e-01
3.408000000000000000e+03 4.852143478393554688e+01 -1.474620723724365234e+01 -1.957889676094055176e+00 7.083824157714843750e+00 1.537780404090881348e+00 -2.309509277343750000e+00
3.409000000000000000e+03 4.596479415893554688e+01 -2.536116981506347656e+01 3.509118258953094482e-01 2.250939846038818359e+00 7.805555462837219238e-01 8.034527301788330078e-01
3.410000000000000000e+03 5.023770141601562500e+01 -2.479873275756835938e+01 -5.694907903671264648e-01 7.713415145874023438e+00 2.143177270889282227e+00 -3.969492018222808838e-01
3.411000000000000000e+03 5.088930130004882812e+01 -2.953198814392089844e+01 5.057343840599060059e-01 5.585886001586914062e+00 1.827486157417297363e+00 -3.251265883445739746e-01
3.412000000000000000e+03 7.325753021240234375e+01 4.751004695892333984e+00 5.385746955871582031e-01 9.838897705078125000e+00 3.113241672515869141e+00 6.858795881271362305e-01
3.413000000000000000e+03 4.610205459594726562e+01 -1.258753490447998047e+01 -6.656494140625000000e-01 4.627857685089111328e+00 1.188662409782409668e+00 -1.952528834342956543e+00
3.414000000000000000e+03 4.952184677124023438e+01 -2.947595977783203125e+01 3.170906901359558105e-01 4.844112873077392578e+00 1.548361063003540039e+00 1.262854486703872681e-01
3.415000000000000000e+03 6.917622375488281250e+01 -1.523342418670654297e+01 2.878074645996093750e-01 3.978224754333496094e+00 1.279809594154357910e+00 -1.745793074369430542e-01
3.416000000000000000e+03 5.449318313598632812e+01 -2.203550148010253906e+01 2.407178163528442383e+00 3.573334693908691406e+00 1.794153809547424316e+00 -1.353552579879760742e+00
3.417000000000000000e+03 4.973575592041015625e+01 -3.129360961914062500e+01 3.753446042537689209e-01 4.505613327026367188e+00 1.464287281036376953e+00 4.865091145038604736e-01
3.418000000000000000e+03 4.985115814208984375e+01 -2.880426979064941406e+01 1.880080252885818481e-01 5.285761833190917969e+00 1.642130851745605469e+00 -5.970489233732223511e-02
3.419000000000000000e+03 7.205365753173828125e+01 -1.211260509490966797e+01 1.400848757475614548e-02 5.990232944488525391e+00 1.801272392272949219e+00 -2.708618342876434326e-01
3.420000000000000000e+03 3.246626663208007812e+01 -1.182039546966552734e+01 -1.118936896324157715e+00 2.518937885761260986e-01 -2.601129412651062012e-01 1.000802993774414062e+00
3.421000000000000000e+03 7.539973449707031250e+01 2.385546493530273438e+01 1.263283640146255493e-01 8.390784263610839844e+00 2.555133819580078125e+00 7.626947760581970215e-01
3.422000000000000000e+03 2.430382728576660156e+01 -2.661296844482421875e+00 -9.262759685516357422e-01 -7.813080549240112305e-01 -5.122752189636230469e-01 8.368794918060302734e-01
3.423000000000000000e+03 7.395952606201171875e+01 2.700859832763671875e+01 -5.859045311808586121e-03 7.779387950897216797e+00 2.332058668136596680e+00 8.281691670417785645e-01
3.424000000000000000e+03 7.420379638671875000e+01 2.556709671020507812e+01 1.346621662378311157e-01 7.998636245727539062e+00 2.439989566802978516e+00 8.175284266471862793e-01
3.425000000000000000e+03 7.467264556884765625e+01 2.442341423034667969e+01 1.426058262586593628e-01 8.158679962158203125e+00 2.490385770797729492e+00 7.671962976455688477e-01
3.426000000000000000e+03 4.684976196289062500e+01 -2.511151695251464844e+01 2.931787669658660889e-01 3.266942024230957031e+00 1.068036198616027832e+00 1.071837306022644043e+00
3.427000000000000000e+03 4.747361373901367188e+01 -1.415428543090820312e+01 -1.336985588073730469e+00 5.857480049133300781e+00 1.356148362159729004e+00 -2.397196054458618164e+00
3.428000000000000000e+03 4.965967178344726562e+01 -3.061466026306152344e+01 4.056289196014404297e-01 4.560511112213134766e+00 1.489842057228088379e+00 3.147872984409332275e-01
3.429000000000000000e+03 5.033088302612304688e+01 -3.053366470336914062e+01 5.639003515243530273e-01 4.955841064453125000e+00 1.655922412872314453e+00 1.673639714717864990e-01
3.430000000000000000e+03 4.607118225097656250e+01 -1.317617702484130859e+01 -7.806041836738586426e-01 4.587056636810302734e+00 1.141935706138610840e+00 -2.012585401535034180e+00
3.431000000000000000e+03 3.728586196899414062e+01 -1.296094417572021484e+01 -9.044709801673889160e-01 5.475022196769714355e-01 -1.070906370878219604e-01 1.712300926446914673e-01
3.432000000000000000e+03 2.317287063598632812e+01 2.069871520996093750e+01 7.090597152709960938e-01 7.321559786796569824e-01 4.323647022247314453e-01 -4.376080930233001709e-01
3.433000000000000000e+03 7.400761413574218750e+01 -1.482951354980468750e+01 -3.151917159557342529e-01 6.441670894622802734e+00 1.837943792343139648e+00 -5.099375247955322266e-01
3.434000000000000000e+03 7.439560699462890625e+01 -9.835640907287597656e+00 -4.417702928185462952e-02 6.656058788299560547e+00 1.983564496040344238e+00 -4.676486849784851074e-01
3.435000000000000000e+03 4.659575653076171875e+01 -2.724288749694824219e+01 1.194232255220413208e-01 3.094747781753540039e+00 9.642513394355773926e-01 7.257776260375976562e-01
3.436000000000000000e+03 4.704936599731445312e+01 -2.718478202819824219e+01 9.981488436460494995e-02 3.518415927886962891e+00 1.085469245910644531e+00 7.254612445831298828e-01
3.437000000000000000e+03 4.849452209472656250e+01 -2.763351058959960938e+01 -4.414276033639907837e-02 4.680465698242187500e+00 1.390896916389465332e+00 4.186319410800933838e-01
3.438000000000000000e+03 1.370668315887451172e+01 7.363767147064208984e+00 1.889880895614624023e-01 -1.063946127891540527e+00 -2.624874114990234375e-01 7.956007122993469238e-01
3.439000000000000000e+03 1.460342693328857422e+01 6.947721958160400391e+00 1.790656894445419312e-01 -1.112141013145446777e+00 -2.799225747585296631e-01 7.877615690231323242e-01
3.440000000000000000e+03 4.698097610473632812e+01 -2.543211555480957031e+01 2.399745285511016846e-01 3.461461544036865234e+00 1.110430836677551270e+00 9.935215115547180176e-01
3.441000000000000000e+03 4.898285675048828125e+01 -2.762708091735839844e+01 -6.477505713701248169e-02 5.053241252899169922e+00 1.496539831161499023e+00 2.634185552597045898e-01
3.442000000000000000e+03 1.450391101837158203e+01 -7.249899864196777344e+00 -1.227219181600958109e-04 -4.462574725039303303e-05 -5.020430035074241459e-05 1.537286298116669059e-04
3.443000000000000000e+03 4.736557769775390625e+01 -1.460205459594726562e+01 -1.280025005340576172e+00 5.767345428466796875e+00 1.346196174621582031e+00 -2.655687570571899414e+00
3.444000000000000000e+03 4.530348587036132812e+01 -1.141818332672119141e+01 -3.811222612857818604e-01 4.192116737365722656e+00 1.143298387527465820e+00 -1.780077219009399414e+00
3.445000000000000000e+03 3.658623504638671875e+01 -1.205105781555175781e+01 -8.388030529022216797e-01 5.940474867820739746e-01 -7.342667132616043091e-02 2.821080684661865234e-01
3.446000000000000000e+03 3.690588378906250000e+01 -1.132237052917480469e+01 -6.502575874328613281e-01 8.713989257812500000e-01 6.634241342544555664e-02 1.107475832104682922e-01
3.447000000000000000e+03 9.966267585754394531e+00 -5.887940883636474609e+00 -6.978189048822969198e-05 -2.764121563814114779e-05 -2.922693238360807300e-05 1.194326614495366812e-04
3.448000000000000000e+03 4.459681701660156250e+01 -1.136221504211425781e+01 -3.339426815509796143e-01 3.793649435043334961e+00 1.037912011146545410e+00 -1.704045414924621582e+00
3.449000000000000000e+03 2.433318519592285156e+01 -5.191692709922790527e-02 -4.048655033111572266e-01 -5.594287514686584473e-01 -2.892882823944091797e-01 5.486487746238708496e-01
3.450000000000000000e+03 4.627807235717773438e+01 -1.508885765075683594e+01 -7.406866550445556641e-01 4.352173328399658203e+00 1.083446025848388672e+00 -2.593601942062377930e+00
3.451000000000000000e+03 2.198549270629882812e+01 -1.003156661987304688e+00 -8.541585206985473633e-01 -1.168130517005920410e+00 -6.066867113113403320e-01 8.800113201141357422e-01
3.452000000000000000e+03 2.278084182739257812e+01 -3.694708645343780518e-01 -6.317275762557983398e-01 -9.406397938728332520e-01 -4.717102050781250000e-01 7.125310897827148438e-01
3.453000000000000000e+03 1.063958168029785156e+01 9.330036163330078125e+00 1.932558268308639526e-01 -9.400590062141418457e-01 -2.240409553050994873e-01 7.467272281646728516e-01
3.454000000000000000e+03 1.636911964416503906e+01 6.310638904571533203e+00 2.135275304317474365e-01 -1.109855413436889648e+00 -2.688983678817749023e-01 7.165147066116333008e-01
3.455000000000000000e+03 1.696957969665527344e+01 7.514924526214599609e+00 4.029600620269775391e-01 -1.006210207939147949e+00 -1.809750497341156006e-01 6.023905277252197266e-01
3.456000000000000000e+03 6.557775974273681641e+00 7.077161788940429688e+00 -9.671981632709503174e-02 -6.345232129096984863e-01 -2.193729132413864136e-01 6.566497683525085449e-01
3.457000000000000000e+03 4.464749526977539062e+01 -1.663915824890136719e+01 -3.600026369094848633e-01 1.988848805427551270e+00 4.886538386344909668e-01 -1.572020053863525391e+00
3.458000000000000000e+03 4.416175460815429688e+01 -1.546862411499023438e+01 -6.102912425994873047e-01 2.387665510177612305e+00 5.332123041152954102e-01 -1.562585115432739258e+00
3.459000000000000000e+03 3.618928527832031250e+01 -1.035834503173828125e+01 -5.725803375244140625e-01 9.740095734596252441e-01 1.204287707805633545e-01 1.840974837541580200e-01
3.460000000000000000e+03 3.568912506103515625e+01 -9.770009040832519531e+00 -5.611756443977355957e-01 1.036163449287414551e+00 1.424963623285293579e-01 2.433199584484100342e-01
3.461000000000000000e+03 7.407965660095214844e+00 2.119602966308593750e+01 1.707978248596191406e-01 -1.028415679931640625e+00 -2.572853565216064453e-01 1.740029305219650269e-01
3.462000000000000000e+03 3.434620285034179688e+01 1.703375816345214844e+01 1.094399690628051758e+00 3.473117351531982422e+00 1.370255112648010254e+00 -8.119196891784667969e-01
3.463000000000000000e+03 2.720963096618652344e+01 -1.897530794143676758e+00 -4.982935488224029541e-01 9.088772535324096680e-02 -1.222217455506324768e-01 5.165972709655761719e-01
3.464000000000000000e+03 3.811785125732421875e+01 -7.793724060058593750e+00 -1.706004589796066284e-01 2.067372560501098633e+00 5.690316557884216309e-01 -4.902443885803222656e-01
3.465000000000000000e+03 1.158604717254638672e+01 1.111303329467773438e+01 3.399854898452758789e-01 -9.369313716888427734e-01 -1.790837645530700684e-01 6.427022218704223633e-01
3.466000000000000000e+03 2.268597793579101562e+01 6.043264269828796387e-01 -3.902073204517364502e-01 -8.650018572807312012e-01 -3.765627443790435791e-01 6.435285806655883789e-01
3.467000000000000000e+03 8.694655418395996094e+00 2.175856590270996094e+01 2.080906182527542114e-01 -9.139635562896728516e-01 -2.117618918418884277e-01 1.474859267473220825e-01
3.468000000000000000e+03 7.079162597656250000e+00 2.013233566284179688e+01 1.675622761249542236e-01 -1.057543754577636719e+00 -2.669944465160369873e-01 2.165013998746871948e-01
3.469000000000000000e+03 3.207452774047851562e+01 2.073873329162597656e+01 7.164259552955627441e-01 2.691988468170166016e+00 1.022524356842041016e+00 -7.722944021224975586e-01
3.470000000000000000e+03 3.523921585083007812e+01 -6.783088684082031250e+00 -3.309857845306396484e-01 1.540439963340759277e+00 3.628362715244293213e-01 5.889879167079925537e-02
3.471000000000000000e+03 2.943086814880371094e+01 -3.449453115463256836e+00 -5.130096077919006348e-01 5.912511348724365234e-01 2.347244322299957275e-02 4.985670149326324463e-01
3.472000000000000000e+03 2.810855674743652344e+01 -1.848255276679992676e+00 -3.952665328979492188e-01 3.486976325511932373e-01 -1.397067122161388397e-02 4.473496675491333008e-01
3.473000000000000000e+03 1.017788314819335938e+01 1.369656276702880859e+01 3.246032893657684326e-01 -9.137628674507141113e-01 -1.767478734254837036e-01 5.123578310012817383e-01
3.474000000000000000e+03 2.752882194519042969e+01 1.596978187561035156e+01 1.113473057746887207e+00 1.298401474952697754e+00 7.235623598098754883e-01 -5.734845995903015137e-01
3.475000000000000000e+03 7.510236740112304688e+00 1.380767059326171875e+01 1.956488341093063354e-01 -9.622138738632202148e-01 -2.299695163965225220e-01 4.972300231456756592e-01
3.476000000000000000e+03 3.020402908325195312e+01 -4.696310997009277344e+00 -5.974906086921691895e-01 6.864947080612182617e-01 2.670123241841793060e-02 5.650672316551208496e-01
3.477000000000000000e+03 3.579802703857421875e+01 -3.708899021148681641e+00 4.995673079974949360e-04 2.273991823196411133e+00 6.823474168777465820e-01 -2.819665074348449707e-01
3.478000000000000000e+03 3.055963897705078125e+01 1.626632118225097656e+01 1.160088062286376953e+00 2.188046455383300781e+00 1.004440426826477051e+00 -7.603309154510498047e-01
3.479000000000000000e+03 2.941222763061523438e+01 1.471988868713378906e+01 1.225350856781005859e+00 1.756464958190917969e+00 8.945447802543640137e-01 -6.434170603752136230e-01
3.480000000000000000e+03 1.930478668212890625e+01 7.248102664947509766e+00 5.112357735633850098e-01 -8.333908915519714355e-01 -9.664653241634368896e-02 4.286783933639526367e-01
3.481000000000000000e+03 2.915797042846679688e+01 -1.771129608154296875e+00 -2.669989764690399170e-01 6.523544192314147949e-01 1.156066283583641052e-01 3.634794354438781738e-01
3.482000000000000000e+03 1.505822563171386719e+01 1.515044879913330078e+01 6.113918423652648926e-01 -6.388047933578491211e-01 -8.223882876336574554e-03 2.711166739463806152e-01
3.483000000000000000e+03 2.922746467590332031e+01 1.584647178649902344e+01 1.145472407341003418e+00 1.748933076858520508e+00 8.683216571807861328e-01 -6.728932857513427734e-01
3.484000000000000000e+03 3.686117172241210938e+01 -5.653852939605712891e+00 -1.078499034047126770e-01 2.169522285461425781e+00 6.185017228126525879e-01 -3.664367496967315674e-01
3.485000000000000000e+03 2.149460029602050781e+01 2.696548461914062500e+00 -4.920102283358573914e-02 -8.995915651321411133e-01 -2.846377789974212646e-01 5.666513442993164062e-01
3.486000000000000000e+03 2.963389587402343750e+01 -2.310528278350830078e+00 -3.290008604526519775e-01 7.326058149337768555e-01 1.210814788937568665e-01 3.752154707908630371e-01
3.487000000000000000e+03 3.072042655944824219e+01 -2.307090997695922852e+00 -2.174587845802307129e-01 1.019656419754028320e+00 2.406592816114425659e-01 2.754711806774139404e-01
3.488000000000000000e+03 3.331198501586914062e+01 -2.617876827716827393e-01 2.804848551750183105e-01 2.027473449707031250e+00 6.923875212669372559e-01 -1.324396580457687378e-01
3.489000000000000000e+03 3.367388153076171875e+01 -2.025500059127807617e+00 6.686916947364807129e-02 1.926663517951965332e+00 5.980598330497741699e-01 -7.559975981712341309e-02
3.490000000000000000e+03 2.166640090942382812e+01 7.436380863189697266e+00 6.663605570793151855e-01 -4.917016029357910156e-01 5.239768698811531067e-02 2.332620024681091309e-01
3.491000000000000000e+03 3.258440017700195312e+01 -1.361014604568481445e+00 7.443483173847198486e-02 1.703275680541992188e+00 5.333131551742553711e-01 1.455774903297424316e-02
3.492000000000000000e+03 3.180068778991699219e+01 -5.935580134391784668e-01 1.402730345726013184e-01 1.541909337043762207e+00 5.046547055244445801e-01 2.789497002959251404e-02
3.493000000000000000e+03 3.009237289428710938e+01 -4.239858090877532959e-01 3.520344197750091553e-02 1.034894347190856934e+00 3.210293352603912354e-01 1.601041406393051147e-01
3.494000000000000000e+03 3.138529396057128906e+01 -1.855846881866455078e+00 -9.227041155099868774e-02 1.259332895278930664e+00 3.501187562942504883e-01 1.850469112396240234e-01
3.495000000000000000e+03 1.605741500854492188e+01 -3.611289262771606445e+00 -5.086929013486951590e-05 -9.617138857720419765e-05 -4.411220288602635264e-05 -6.274377665249630809e-05
3.496000000000000000e+03 1.562254238128662109e+01 -4.210125446319580078e+00 4.870340490015223622e-05 9.340202086605131626e-05 4.263162918505258858e-05 4.814677595277316868e-05
3.497000000000000000e+03 1.505074691772460938e+01 -3.785051584243774414e+00 -5.071071063866838813e-05 -1.055924149113707244e-04 -4.689093839260749519e-05 -5.117510954733006656e-05
3.498000000000000000e+03 1.676181221008300781e+01 -5.065579891204833984e+00 5.223959306022152305e-05 7.358628499787300825e-05 3.774776268983259797e-05 4.218993126414716244e-05
3.499000000000000000e+03 1.619318008422851562e+01 -4.636556148529052734e+00 -5.016228533349931240e-05 -8.235003042500466108e-05 -3.975369327235966921e-05 -4.471630745683796704e-05
3.500000000000000000e+03 1.723610115051269531e+01 -4.496263980865478516e+00 -5.172394594410434365e-05 -7.449806435033679008e-05 -3.786660090554505587e-05 -5.442040128400549293e-05
3.501000000000000000e+03 1.546591091156005859e+01 -3.171455383300781250e+00 4.993965922039933503e-05 1.085410985979251564e-04 4.754422843689098954e-05 6.638326885877177119e-05
3.502000000000000000e+03 1.664776039123535156e+01 -4.052479743957519531e+00 4.978830475010909140e-05 8.475935464957728982e-05 4.036429891129955649e-05 5.923248681938275695e-05
3.503000000000000000e+03 1.831977081298828125e+01 -5.492505550384521484e+00 -4.789099693880416453e-05 -5.720838453271426260e-05 -3.152981298626400530e-05 -4.598544910550117493e-05
3.504000000000000000e+03 1.780974006652832031e+01 -6.028855800628662109e+00 4.751824599225074053e-05 5.948993930360302329e-05 3.210245631635189056e-05 3.821216523647308350e-05
3.505000000000000000e+03 1.730055999755859375e+01 -5.529824733734130859e+00 -4.908676055492833257e-05 -6.594010483240708709e-05 -3.450805888860486448e-05 -4.069659553351812065e-05
3.506000000000000000e+03 1.831691551208496094e+01 -6.530111789703369141e+00 -5.015970600652508438e-05 -5.468190283863805234e-05 -3.145248410874046385e-05 -3.420614666538313031e-05
3.507000000000000000e+03 1.882190132141113281e+01 -7.033396244049072266e+00 5.664610944222658873e-05 4.764683762914501131e-05 3.128788375761359930e-05 3.143897993140853941e-05
3.508000000000000000e+03 1.936644935607910156e+01 -6.531159877777099609e+00 -4.616102523868903518e-05 -4.081232691532932222e-05 -2.609200601000338793e-05 -3.591670974856242537e-05
3.509000000000000000e+03 1.779333305358886719e+01 -4.976417064666748047e+00 4.905560126644559205e-05 6.462546298280358315e-05 3.410431963857263327e-05 5.192613025428727269e-05
3.510000000000000000e+03 1.884420585632324219e+01 -6.010818481445312500e+00 4.498244015849195421e-05 4.784514021594077349e-05 2.784827483992557973e-05 4.160046228207647800e-05
3.511000000000000000e+03 2.031454658508300781e+01 -7.659852027893066406e+00 -4.152717156102880836e-05 -3.024945362994913012e-05 -2.153298737539444119e-05 -3.110068428213708103e-05
3.512000000000000000e+03 2.077073287963867188e+01 -8.240385055541992188e+00 3.947271761717274785e-05 2.625549132062587887e-05 1.971846177184488624e-05 2.632220821396913379e-05
3.513000000000000000e+03 1.929654693603515625e+01 -7.565644741058349609e+00 -5.421372043201699853e-05 -4.052558506373316050e-05 -2.842179128492716700e-05 -3.186181857017800212e-05
3.514000000000000000e+03 2.062350273132324219e+01 -9.254287719726562500e+00 5.373308886191807687e-05 3.471917443675920367e-05 2.653567935340106487e-05 1.798510129447095096e-05
3.515000000000000000e+03 2.018299865722656250e+01 -8.690117835998535156e+00 -4.828601959161460400e-05 -3.793472933466546237e-05 -2.586622576927766204e-05 -2.931074595835525542e-05
3.516000000000000000e+03 1.974063491821289062e+01 -8.127175331115722656e+00 5.322532524587586522e-05 3.590524283936247230e-05 2.673916969797573984e-05 3.199679849785752594e-05
3.517000000000000000e+03 2.122505760192871094e+01 -8.822144508361816406e+00 -3.981129702879115939e-05 -2.103577571688219905e-05 -1.825412073230836540e-05 -2.276695704495068640e-05
3.518000000000000000e+03 1.985663604736328125e+01 -7.080731868743896484e+00 4.468358747544698417e-05 3.330908293719403446e-05 2.339780075999442488e-05 3.430438664508983493e-05
3.519000000000000000e+03 2.203341293334960938e+01 -1.005728912353515625e+01 -4.726232873508706689e-05 -1.417362091160612181e-05 -1.843078462115954608e-05 -2.267638228659052402e-05
3.520000000000000000e+03 2.140859222412109375e+01 -1.045394611358642578e+01 7.146717689465731382e-05 1.113525740947807208e-05 2.478073110978584737e-05 1.754390359565149993e-05
3.521000000000000000e+03 2.103163337707519531e+01 -9.842617988586425781e+00 -6.163348734844475985e-05 -2.181257877964526415e-05 -2.503381983842700720e-05 -1.350276306766318157e-05
3.522000000000000000e+03 2.178438568115234375e+01 -1.106581783294677734e+01 -6.986314838286489248e-05 -1.466983394493581727e-05 -2.535989551688544452e-05 -2.339017737540416420e-05
3.523000000000000000e+03 2.215780448913574219e+01 -1.167914867401123047e+01 6.363598367897793651e-05 2.005569695029407740e-05 2.510750528017524630e-05 1.777376382960937917e-05
3.524000000000000000e+03 2.280443191528320312e+01 -1.131808185577392578e+01 -5.876793511561118066e-05 -1.366343349218368530e-05 -2.172941094613634050e-05 -2.466962178004905581e-05
3.525000000000000000e+03 2.164555168151855469e+01 -9.428166389465332031e+00 4.365736822364851832e-05 1.755839548422954977e-05 1.836472802096977830e-05 2.055678123724646866e-05
3.526000000000000000e+03 2.242011070251464844e+01 -1.068695640563964844e+01 5.319741467246785760e-05 1.613406493561342359e-05 2.079944533761590719e-05 2.233979830634780228e-05
3.527000000000000000e+03 2.317674064636230469e+01 -1.199929141998291016e+01 5.346233592717908323e-05 1.342383984592743218e-05 2.006585236813407391e-05 2.327735455764923245e-05
3.528000000000000000e+03 2.284523010253906250e+01 -1.300796508789062500e+01 4.243749572196975350e-05 9.526713256491348147e-06 1.558926305733621120e-05 2.829151526384521276e-05
3.529000000000000000e+03 2.406083297729492188e+01 -1.497063064575195312e+01 -6.727712388965301216e-06 2.750186695266165771e-06 -1.193257730847108178e-06 2.944223979284288362e-06
3.530000000000000000e+03 2.462505912780761719e+01 -1.485978507995605469e+01 2.852675424946937710e-05 -1.360816099804651458e-06 8.149781024258118123e-06 -4.482400527194840834e-06
3.531000000000000000e+03 2.389264106750488281e+01 -1.346117115020751953e+01 2.209010017395485193e-05 1.657117536524310708e-05 1.159838211606256664e-05 1.291537591896485537e-05
3.532000000000000000e+03 2.353559875488281250e+01 -1.273112678527832031e+01 -3.856161856674589217e-05 -1.118166983360424638e-05 -1.492298633820610121e-05 -2.477477028151042759e-05
3.533000000000000000e+03 2.488323020935058594e+01 -1.545215702056884766e+01 -1.268911182705778629e-05 -1.005343506221834105e-06 -4.108336725039407611e-06 3.159554182730062166e-07
3.534000000000000000e+03 2.424729537963867188e+01 -1.417472362518310547e+01 -2.460954056004993618e-05 -1.120043089031241834e-05 -1.074299143510870636e-05 3.893693701684242114e-06
3.535000000000000000e+03 2.350594520568847656e+01 -1.435108280181884766e+01 2.291993951075710356e-05 4.351734605734236538e-05 1.993118530663195997e-05 -1.244588020199444145e-06
3.536000000000000000e+03 2.317678260803222656e+01 -1.368776988983154297e+01 -3.198561898898333311e-05 -3.008191924891434610e-05 -1.862026147136930376e-05 -2.749456143646966666e-05
3.537000000000000000e+03 2.251189041137695312e+01 -1.232635593414306641e+01 -5.061880438006483018e-05 -1.006514594337204471e-05 -1.820518627937417477e-05 -1.797139520931523293e-05
3.538000000000000000e+03 2.456154632568359375e+01 -1.316923522949218750e+01 -5.387116074562072754e-01 -1.608199357986450195e+00 -6.440733075141906738e-01 9.375978112220764160e-01
3.539000000000000000e+03 2.482023620605468750e+01 -1.197365283966064453e+01 -9.499713182449340820e-01 -1.623633742332458496e+00 -7.720814943313598633e-01 1.318589329719543457e+00
3.540000000000000000e+03 2.650333786010742188e+01 -1.565426826477050781e+01 -7.328541278839111328e-01 -4.600887298583984375e-01 -3.578828573226928711e-01 7.152124047279357910e-01
3.541000000000000000e+03 2.385268974304199219e+01 -1.163848972320556641e+01 -8.571749925613403320e-01 -2.429401636123657227e+00 -9.859729409217834473e-01 1.373301982879638672e+00
3.542000000000000000e+03 2.484836769104003906e+01 -1.395820903778076172e+01 -4.437880516052246094e-01 -1.326492547988891602e+00 -5.310841798782348633e-01 7.398914694786071777e-01
3.543000000000000000e+03 2.532261657714843750e+01 -1.399315357208251953e+01 -6.292351484298706055e-01 -1.026297092437744141e+00 -4.966596662998199463e-01 9.028115272521972656e-01
3.544000000000000000e+03 2.568108749389648438e+01 -1.559443092346191406e+01 -2.737139761447906494e-01 -3.389804065227508545e-01 -1.838083118200302124e-01 3.678324818611145020e-01
3.545000000000000000e+03 2.449533462524414062e+01 -1.126426315307617188e+01 -1.102693319320678711e+00 -1.782401800155639648e+00 -8.655285239219665527e-01 1.410101413726806641e+00
3.546000000000000000e+03 2.516623687744140625e+01 -1.270689773559570312e+01 -8.003457188606262207e-01 -1.359074473381042480e+00 -6.478260755538940430e-01 1.165939450263977051e+00
3.547000000000000000e+03 2.556309509277343750e+01 -1.336782169342041016e+01 -7.579620480537414551e-01 -1.056532979011535645e+00 -5.443485379219055176e-01 1.055788636207580566e+00
3.548000000000000000e+03 2.595065307617187500e+01 -1.390986061096191406e+01 -7.776249647140502930e-01 -8.215966820716857910e-01 -4.797664880752563477e-01 1.033865571022033691e+00
3.549000000000000000e+03 2.620536613464355469e+01 -1.446394062042236328e+01 -6.794952750205993652e-01 -6.662834882736206055e-01 -4.037336409091949463e-01 9.485668540000915527e-01
3.550000000000000000e+03 2.637091255187988281e+01 -1.507584285736083984e+01 -6.521509289741516113e-01 -4.998341202735900879e-01 -3.455955088138580322e-01 8.220419287681579590e-01
3.551000000000000000e+03 2.638264656066894531e+01 -1.612632179260253906e+01 -6.012428402900695801e-01 -2.531146705150604248e-01 -2.563072741031646729e-01 3.853231966495513916e-01
3.552000000000000000e+03 2.419656753540039062e+01 -1.239193534851074219e+01 -6.130064725875854492e-01 -1.998585820198059082e+00 -7.834776639938354492e-01 1.136158227920532227e+00
3.553000000000000000e+03 2.512793922424316406e+01 -1.461182594299316406e+01 -2.901219725608825684e-01 -9.002280235290527344e-01 -3.571049869060516357e-01 5.432711243629455566e-01
3.554000000000000000e+03 2.566095924377441406e+01 -1.495156669616699219e+01 -4.046655893325805664e-01 -6.360728740692138672e-01 -3.122215270996093750e-01 6.411344408988952637e-01
3.555000000000000000e+03 2.577541732788085938e+01 -1.432993030548095703e+01 -6.377384662628173828e-01 -8.287334442138671875e-01 -4.399415552616119385e-01 9.310227036476135254e-01
3.556000000000000000e+03 2.269077491760253906e+01 -9.641036033630371094e+00 -1.245948672294616699e+00 -2.850666999816894531e+00 -1.228984713554382324e+00 1.876938223838806152e+00
3.557000000000000000e+03 2.348543930053710938e+01 -1.093805503845214844e+01 -1.061512708663940430e+00 -2.617884159088134766e+00 -1.103819012641906738e+00 1.608673930168151855e+00
3.558000000000000000e+03 2.229273414611816406e+01 -8.991255760192871094e+00 -1.541883349418640137e+00 -3.080857992172241211e+00 -1.386822462081909180e+00 2.078958272933959961e+00
3.559000000000000000e+03 2.308835411071777344e+01 -1.029005146026611328e+01 -1.146588206291198730e+00 -2.675430059432983398e+00 -1.146605491638183594e+00 1.736050248146057129e+00
3.560000000000000000e+03 2.413209533691406250e+01 -1.057697391510009766e+01 -1.190251946449279785e+00 -2.020267486572265625e+00 -9.631558060646057129e-01 1.483871936798095703e+00
3.561000000000000000e+03 2.290665245056152344e+01 -8.576805114746093750e+00 -1.610935449600219727e+00 -2.363683700561523438e+00 -1.192385792732238770e+00 1.816403031349182129e+00
3.562000000000000000e+03 2.331559562683105469e+01 -9.244379997253417969e+00 -1.456387758255004883e+00 -2.316050052642822266e+00 -1.131731390953063965e+00 1.783568859100341797e+00
3.563000000000000000e+03 2.372407913208007812e+01 -9.911190032958984375e+00 -1.262636065483093262e+00 -2.227622985839843750e+00 -1.047077775001525879e+00 1.648465394973754883e+00
3.564000000000000000e+03 2.091797065734863281e+01 -7.169854164123535156e+00 -1.927358865737915039e+00 -2.935485363006591797e+00 -1.458853363990783691e+00 2.360000371932983398e+00
3.565000000000000000e+03 2.044657707214355469e+01 -6.570147991180419922e+00 -2.250640392303466797e+00 -3.027714729309082031e+00 -1.583506584167480469e+00 2.492006540298461914e+00
3.566000000000000000e+03 2.138868331909179688e+01 -7.768980979919433594e+00 -1.839534282684326172e+00 -2.900638818740844727e+00 -1.422051906585693359e+00 2.286298751831054688e+00
3.567000000000000000e+03 2.185866355895996094e+01 -8.367236137390136719e+00 -1.782419323921203613e+00 -3.051210165023803711e+00 -1.450088858604431152e+00 2.239615678787231445e+00
3.568000000000000000e+03 2.246022033691406250e+01 -7.935092449188232422e+00 -1.673694014549255371e+00 -2.495846271514892578e+00 -1.250862002372741699e+00 1.870180964469909668e+00
3.569000000000000000e+03 2.100666618347167969e+01 -6.085235118865966797e+00 -2.085779190063476562e+00 -2.446184635162353516e+00 -1.359589099884033203e+00 2.051242113113403320e+00
3.570000000000000000e+03 2.149188232421875000e+01 -6.702531337738037109e+00 -1.966037988662719727e+00 -2.499966859817504883e+00 -1.339801430702209473e+00 2.103560924530029297e+00
3.571000000000000000e+03 2.197641754150390625e+01 -7.319247722625732422e+00 -1.761569023132324219e+00 -2.564267873764038086e+00 -1.297751069068908691e+00 2.026397466659545898e+00
3.572000000000000000e+03 1.885587120056152344e+01 -4.930348396301269531e+00 -2.511920213699340820e+00 -2.457798242568969727e+00 -1.490915536880493164e+00 2.461871862411499023e+00
3.573000000000000000e+03 1.831238174438476562e+01 -4.393686294555664062e+00 -2.798730373382568359e+00 -2.443938255310058594e+00 -1.572800636291503906e+00 2.489480733871459961e+00
3.574000000000000000e+03 1.939846801757812500e+01 -5.466702461242675781e+00 -2.478430032730102539e+00 -2.526451826095581055e+00 -1.501464605331420898e+00 2.474965810775756836e+00
3.575000000000000000e+03 1.994004440307617188e+01 -6.002428531646728516e+00 -2.490607023239135742e+00 -2.829033851623535156e+00 -1.595892310142517090e+00 2.540564298629760742e+00
3.576000000000000000e+03 2.048459243774414062e+01 -5.500192165374755859e+00 -2.103350162506103516e+00 -2.481337785720825195e+00 -1.375406384468078613e+00 2.061580657958984375e+00
3.577000000000000000e+03 1.880515289306640625e+01 -3.840278863906860352e+00 -2.384498834609985352e+00 -2.117746353149414062e+00 -1.350673556327819824e+00 2.015718698501586914e+00
3.578000000000000000e+03 1.936590194702148438e+01 -4.393997669219970703e+00 -2.352488994598388672e+00 -2.228644609451293945e+00 -1.374340176582336426e+00 2.151989936828613281e+00
3.579000000000000000e+03 1.992575645446777344e+01 -4.947409152984619141e+00 -2.183918476104736328e+00 -2.415797710418701172e+00 -1.379914879798889160e+00 2.169918060302734375e+00
3.580000000000000000e+03 1.695117187500000000e+01 -2.380243301391601562e+00 -2.436000347137451172e+00 -1.674982786178588867e+00 -1.233294963836669922e+00 1.901142120361328125e+00
3.581000000000000000e+03 1.651630020141601562e+01 -2.979079723358154297e+00 -2.762791633605957031e+00 -1.668960332870483398e+00 -1.329525589942932129e+00 2.122352361679077148e+00
3.582000000000000000e+03 1.590384101867675781e+01 -2.523920059204101562e+00 -2.901131153106689453e+00 -1.595069646835327148e+00 -1.348860263824462891e+00 2.046898603439331055e+00
3.583000000000000000e+03 1.712716102600097656e+01 -3.436568260192871094e+00 -2.828759670257568359e+00 -1.787546873092651367e+00 -1.384891986846923828e+00 2.222918987274169922e+00
3.584000000000000000e+03 1.758174324035644531e+01 -2.852491855621337891e+00 -2.372581958770751953e+00 -1.912488102912902832e+00 -1.285521030426025391e+00 2.011036157608032227e+00
3.585000000000000000e+03 1.773609352111816406e+01 -3.896142244338989258e+00 -2.962140321731567383e+00 -2.150653600692749023e+00 -1.533838152885437012e+00 2.402089118957519531e+00
3.586000000000000000e+03 1.821038436889648438e+01 -3.326825857162475586e+00 -2.328093290328979492e+00 -2.078445672988891602e+00 -1.321961760520935059e+00 1.977252960205078125e+00
3.587000000000000000e+03 1.631900405883789062e+01 -1.910323858261108398e+00 -2.362317085266113281e+00 -1.559360623359680176e+00 -1.176503300666809082e+00 1.731070637702941895e+00
3.588000000000000000e+03 1.460399055480957031e+01 -1.730789542198181152e+00 -2.681487798690795898e+00 -1.045156240463256836e+00 -1.117993235588073730e+00 1.653633356094360352e+00
3.589000000000000000e+03 1.394003677368164062e+01 -1.356149435043334961e+00 -2.525848150253295898e+00 -9.418480396270751953e-01 -1.040308833122253418e+00 1.523251533508300781e+00
3.590000000000000000e+03 1.327490711212158203e+01 -9.841976165771484375e-01 -2.519388437271118164e+00 -8.731909394264221191e-01 -1.017773866653442383e+00 1.402538299560546875e+00
3.591000000000000000e+03 1.429506587982177734e+01 -7.068015336990356445e-01 -2.179829120635986328e+00 -1.082326054573059082e+00 -9.786465764045715332e-01 1.457063794136047363e+00
3.592000000000000000e+03 1.497913169860839844e+01 -1.092790365219116211e+00 -2.224129438400268555e+00 -1.284680008888244629e+00 -1.052642822265625000e+00 1.613667011260986328e+00
3.593000000000000000e+03 1.526644039154052734e+01 -2.107936620712280273e+00 -2.913282394409179688e+00 -1.335893630981445312e+00 -1.274752855300903320e+00 1.869991660118103027e+00
3.594000000000000000e+03 1.566169452667236328e+01 -1.481285929679870605e+00 -2.248394966125488281e+00 -1.472878694534301758e+00 -1.116382122039794922e+00 1.656836390495300293e+00
3.595000000000000000e+03 1.360982322692871094e+01 -3.235010504722595215e-01 -2.027689695358276367e+00 -9.904459714889526367e-01 -9.054406881332397461e-01 1.298835039138793945e+00
3.596000000000000000e+03 1.136861705780029297e+01 6.672526597976684570e-01 -1.699637293815612793e+00 -6.036304831504821777e-01 -6.909803152084350586e-01 9.083299040794372559e-01
3.597000000000000000e+03 1.043688488006591797e+01 2.462611943483352661e-01 -1.997166275978088379e+00 -4.335087239742279053e-01 -7.292025089263916016e-01 7.500900030136108398e-01
3.598000000000000000e+03 1.187135696411132812e+01 -3.428127467632293701e-01 -2.143660545349121094e+00 -5.142846107482910156e-01 -7.973835468292236328e-01 1.021343827247619629e+00
3.599000000000000000e+03 1.258574008941650391e+01 -6.459255814552307129e-01 -2.404859304428100586e+00 -6.932959556579589844e-01 -9.294465780258178711e-01 1.218969464302062988e+00
3.600000000000000000e+03 1.288842964172363281e+01 2.964896708726882935e-02 -1.879539251327514648e+00 -9.020034074783325195e-01 -8.344628214836120605e-01 1.197463512420654297e+00
3.601000000000000000e+03 1.060655117034912109e+01 9.770575761795043945e-01 -1.410282492637634277e+00 -5.810010433197021484e-01 -5.973850488662719727e-01 7.467991113662719727e-01
3.602000000000000000e+03 1.212970542907714844e+01 3.511690795421600342e-01 -1.779395580291748047e+00 -7.358214855194091797e-01 -7.545651197433471680e-01 1.107214093208312988e+00
3.603000000000000000e+03 1.115460968017578125e+01 -4.513646289706230164e-02 -1.966810703277587891e+00 -4.328067302703857422e-01 -7.198852300643920898e-01 9.130279421806335449e-01
3.604000000000000000e+03 9.852642059326171875e+00 1.127630591392517090e+00 -1.224053740501403809e+00 -4.775680899620056152e-01 -5.104865431785583496e-01 7.434803843498229980e-01
3.605000000000000000e+03 8.934872627258300781e+00 3.838182985782623291e-01 -1.109440803527832031e+00 -2.054846100509166718e-02 -3.389967978000640869e-01 1.928585618734359741e-01
3.606000000000000000e+03 8.173450469970703125e+00 3.805501461029052734e-01 -7.765870690345764160e-01 -3.143057599663734436e-02 -2.424052953720092773e-01 1.349731534719467163e-01
3.607000000000000000e+03 7.412311553955078125e+00 3.753647208213806152e-01 -5.416907072067260742e-01 -1.103256922215223312e-02 -1.658169925212860107e-01 9.529871493577957153e-02
3.608000000000000000e+03 6.650998592376708984e+00 3.733136355876922607e-01 -3.661899864673614502e-01 -1.034711115062236786e-02 -1.129611358046531677e-01 7.213649153709411621e-02
3.609000000000000000e+03 5.128288269042968750e+00 3.666210770606994629e-01 -1.334591954946517944e-01 -6.694861687719821930e-03 -4.204621911048889160e-02 4.064888879656791687e-02
3.610000000000000000e+03 4.367394924163818359e+00 3.671234846115112305e-01 -6.057553738355636597e-02 -4.667167551815509796e-03 -1.957281120121479034e-02 2.888596057891845703e-02
3.611000000000000000e+03 2.846046209335327148e+00 3.605891168117523193e-01 1.735821366310119629e-02 -5.420793779194355011e-03 3.581226104870438576e-03 9.060485288500785828e-03
3.612000000000000000e+03 2.087270975112915039e+00 3.584179878234863281e-01 2.452531829476356506e-02 -2.959775738418102264e-03 6.469662766903638840e-03 5.658459267579019070e-04
3.613000000000000000e+03 2.412721395492553711e+00 1.098417997360229492e+00 -2.902443893253803253e-02 -2.171044051647186279e-02 -1.522046420723199844e-02 2.015038952231407166e-02
3.614000000000000000e+03 1.340976357460021973e+00 3.674286305904388428e-01 1.480902917683124542e-02 -3.001997945830225945e-03 3.542109392583370209e-03 -6.146453786641359329e-03
3.615000000000000000e+03 1.683374881744384766e+00 1.107428669929504395e+00 -8.679918944835662842e-03 -1.520847249776124954e-02 -7.166517898440361023e-03 5.865031271241605282e-04
3.616000000000000000e+03 6.602545380592346191e-01 3.962357640266418457e-01 4.951513838022947311e-03 2.198844915255904198e-03 2.145107602700591087e-03 -4.134815186262130737e-03
3.617000000000000000e+03 3.572900295257568359e-01 9.584811329841613770e-01 -8.963714208221063018e-05 9.429058991372585297e-03 2.801826456561684608e-03 -5.061017349362373352e-03
3.618000000000000000e+03 3.154548645019531250e+00 1.100589156150817871e+00 -6.226924806833267212e-02 -2.239482291042804718e-02 -2.539922110736370087e-02 4.525281116366386414e-02
3.619000000000000000e+03 3.606354475021362305e+00 3.667278885841369629e-01 -1.035426370799541473e-02 -3.754209261387586594e-03 -4.232541657984256744e-03 1.994330808520317078e-02
3.620000000000000000e+03 5.385946273803710938e+00 1.106621026992797852e+00 -2.575849890708923340e-01 -3.020818904042243958e-02 -8.633794635534286499e-02 1.381608396768569946e-01
3.621000000000000000e+03 5.889441967010498047e+00 3.716917037963867188e-01 -2.340220361948013306e-01 -6.506542675197124481e-03 -7.215857505798339844e-02 5.530084297060966492e-02
3.622000000000000000e+03 7.619125843048095703e+00 1.115364670753479004e+00 -6.704217195510864258e-01 -8.033610135316848755e-02 -2.252273410558700562e-01 3.024303913116455078e-01
3.623000000000000000e+03 8.363317489624023438e+00 1.120550155639648438e+00 -8.785195946693420410e-01 -9.568589180707931519e-02 -2.922616600990295410e-01 3.937768340110778809e-01
3.624000000000000000e+03 9.107789993286132812e+00 1.123818278312683105e+00 -1.157329797744750977e+00 -2.457280457019805908e-01 -4.209173619747161865e-01 5.973759293556213379e-01
3.625000000000000000e+03 9.696672439575195312e+00 3.876306116580963135e-01 -1.702458381652832031e+00 -2.439906746149063110e-01 -5.839347243309020996e-01 4.208893775939941406e-01
3.626000000000000000e+03 6.874760627746582031e+00 1.113313674926757812e+00 -5.014423131942749023e-01 -4.552705213427543640e-02 -1.640907973051071167e-01 2.301172614097595215e-01
3.627000000000000000e+03 6.130152225494384766e+00 1.111691713333129883e+00 -3.662027120590209961e-01 -4.057304561138153076e-02 -1.220327243208885193e-01 1.797319799661636353e-01
3.628000000000000000e+03 4.642001152038574219e+00 1.107123494148254395e+00 -1.728685051202774048e-01 -2.907334081828594208e-02 -6.058255210518836975e-02 1.037946715950965881e-01
3.629000000000000000e+03 3.897908926010131836e+00 1.106727957725524902e+00 -1.104680374264717102e-01 -2.340978570282459259e-02 -4.016334563493728638e-02 7.221783697605133057e-02
3.630000000000000000e+03 1.019601225852966309e+00 1.136235833168029785e+00 -1.136502367444336414e-03 -3.876177594065666199e-03 -1.503804000094532967e-03 -9.171737357974052429e-03
3.631000000000000000e+03 1.356510353088378906e+01 -2.044676303863525391e+00 -4.747258935822173953e-05 -1.212034403579309583e-04 -5.060280818725004792e-05 -7.187120354501530528e-05
3.632000000000000000e+03 1.321007442474365234e+01 -2.694024085998535156e+00 5.664505079039372504e-05 1.081232112483121455e-04 4.943047679262235761e-05 7.041836215648800135e-05
3.633000000000000000e+03 1.258673477172851562e+01 -2.342205762863159180e+00 -6.806260353187099099e-05 -1.119256921811029315e-04 -5.399648944148793817e-05 -7.320938311750069261e-05
3.634000000000000000e+03 1.420777034759521484e+01 -2.407426834106445312e+00 4.847314994549378753e-05 1.251397479791194201e-04 5.208386937738396227e-05 7.251300849020481110e-05
3.635000000000000000e+03 1.383262920379638672e+01 -3.045426130294799805e+00 -5.333904846338555217e-05 -1.089043871616013348e-04 -4.867303141509182751e-05 -6.302279507508501410e-05
3.636000000000000000e+03 1.445424365997314453e+01 -3.396085023880004883e+00 5.078815229353494942e-05 1.086055854102596641e-04 4.781812094734050333e-05 5.730554403271526098e-05
3.637000000000000000e+03 1.484949779510498047e+01 -2.769434452056884766e+00 -4.966975393472239375e-05 -1.191135961562395096e-04 -5.063500429969280958e-05 -6.983283674344420433e-05
3.638000000000000000e+03 1.292164993286132812e+01 -1.681509137153625488e+00 4.630041803466156125e-05 1.124091722886078060e-04 4.761287709698081017e-05 6.569767720066010952e-05
3.639000000000000000e+03 1.114702796936035156e+01 -1.674520134925842285e+00 -8.594497194280847907e-05 -9.749651508172973990e-05 -5.503244756255298853e-05 -7.439969340339303017e-05
3.640000000000000000e+03 1.155607700347900391e+01 -1.043098807334899902e+00 4.428863030625507236e-05 9.662952652433887124e-05 4.227544559398666024e-05 5.435081402538344264e-05
3.641000000000000000e+03 1.007052421569824219e+01 -1.379528045654296875e+00 6.507776561193168163e-05 5.846020212629809976e-05 3.706139250425621867e-05 3.861202276311814785e-05
3.642000000000000000e+03 1.091052532196044922e+01 -7.195191383361816406e-01 -3.661788286990486085e-05 -9.920353477355092764e-05 -4.074642492923885584e-05 -5.236670403974130750e-05
3.643000000000000000e+03 1.189208316802978516e+01 -2.005299091339111328e+00 5.979305569780990481e-05 9.438734559807926416e-05 4.625412111636251211e-05 7.302658195840194821e-05
3.644000000000000000e+03 1.224500656127929688e+01 -1.350578069686889648e+00 -4.053978409501723945e-05 -9.621591016184538603e-05 -4.102670936845242977e-05 -5.963656803942285478e-05
3.645000000000000000e+03 1.012131404876708984e+01 -8.739756941795349121e-01 -1.334593835053965449e-04 -8.164741302607581019e-05 -6.453203968703746796e-05 -1.025216115522198379e-04
3.646000000000000000e+03 1.027311420440673828e+01 -4.096257984638214111e-01 3.299524541944265366e-05 8.129947673296555877e-05 3.428841591812670231e-05 4.610172254615463316e-05
3.647000000000000000e+03 1.058933448791503906e+01 -1.247088074684143066e+00 1.005441663437522948e-04 8.289924880955368280e-05 5.503302600118331611e-05 1.018012044369243085e-04
3.648000000000000000e+03 8.909210205078125000e+00 -3.212539851665496826e-01 -1.334176195086911321e-04 7.291261135833337903e-05 -1.815150062611792237e-05 1.411366338288644329e-05
3.649000000000000000e+03 9.317807197570800781e+00 -1.205478549003601074e+00 -3.478612416074611247e-05 -1.299354480579495430e-04 -4.941647057421505451e-05 -1.056579494616016746e-04
3.650000000000000000e+03 9.460213661193847656e+00 -6.912539601325988770e-01 2.061352861346676946e-04 -2.114592280122451484e-05 5.549681009142659605e-05 1.045318203978240490e-04
3.651000000000000000e+03 8.266005516052246094e+00 -6.800254583358764648e-01 2.324964443687349558e-04 9.249948197975754738e-05 9.749877790454775095e-05 1.773948133632075042e-05
3.652000000000000000e+03 7.622209548950195312e+00 -4.054784178733825684e-01 -1.474163145758211613e-04 -1.376655272906646132e-04 -8.552455255994573236e-05 -1.202073835884220898e-04
3.653000000000000000e+03 6.825774669647216797e+00 -3.814763724803924561e-01 6.105798092903569341e-05 1.242951257154345512e-04 5.560593126574531198e-05 8.664376946398988366e-05
3.654000000000000000e+03 6.001619815826416016e+00 -3.739211261272430420e-01 -8.262916526291519403e-05 -1.207869718200527132e-04 -6.102483894210308790e-05 -9.492217941442504525e-05
3.655000000000000000e+03 5.174842834472656250e+00 -3.715220093727111816e-01 7.988624565768986940e-05 9.870060603134334087e-05 5.357605550670996308e-05 8.834757318254560232e-05
3.656000000000000000e+03 4.347759723663330078e+00 -3.725122809410095215e-01 -7.911043940111994743e-05 -6.091545583331026137e-05 -4.200776675133965909e-05 -6.949457747396081686e-05
3.657000000000000000e+03 3.520621299743652344e+00 -3.760701715946197510e-01 6.083588232286274433e-05 2.123703416145872325e-05 2.462187512719538063e-05 3.559859396773390472e-05
3.658000000000000000e+03 2.694509983062744141e+00 -3.805325925350189209e-01 -3.126579031231813133e-05 1.205463604492251761e-06 -9.018097443913575262e-06 -7.185453796410001814e-06
3.659000000000000000e+03 1.143715500831604004e+00 -3.599454164505004883e-01 -3.395941348571795970e-06 -2.420753116894047707e-05 -8.281042028102092445e-06 5.404832336353138089e-06
3.660000000000000000e+03 4.021799862384796143e-01 -5.506002306938171387e-01 1.217933731822995469e-05 2.394970942987129092e-05 1.083871393348090351e-05 1.390484158036997542e-05
3.661000000000000000e+03 7.210693359375000000e-01 -1.099945425987243652e+00 1.013323781080543995e-04 1.319254465670383070e-06 3.079549060203135014e-05 1.873172550403978676e-05
3.662000000000000000e+03 8.506304740905761719e+00 -1.218084216117858887e+00 -6.309933814918622375e-05 2.409205044386908412e-04 5.334634624887257814e-05 3.922398536815308034e-05
3.663000000000000000e+03 7.803927898406982422e+00 -1.221213579177856445e+00 -1.368409284623339772e-04 -1.866969396360218525e-04 -9.706136188469827175e-05 1.912272637127898633e-05
3.664000000000000000e+03 7.101232528686523438e+00 -1.145478367805480957e+00 1.524745603092014790e-04 1.051946092047728598e-04 7.730074867140501738e-05 7.664154691155999899e-05
3.665000000000000000e+03 6.317089557647705078e+00 -1.121476411819458008e+00 -8.854505722410976887e-05 -1.110876182792708278e-04 -5.988980046822689474e-05 -9.186272654915228486e-05
3.666000000000000000e+03 5.505225658416748047e+00 -1.113921165466308594e+00 8.932099444791674614e-05 8.619464642833918333e-05 5.265469008008949459e-05 8.843577234074473381e-05
3.667000000000000000e+03 4.690740108489990234e+00 -1.111521959304809570e+00 -1.118223590310662985e-04 -5.526691165869124234e-05 -5.012678229832090437e-05 -9.779623360373079777e-05
3.668000000000000000e+03 3.875948190689086914e+00 -1.112512230873107910e+00 1.399898028466850519e-04 1.676709325693082064e-05 4.702707155956886709e-05 8.327065006596967578e-05
3.669000000000000000e+03 3.061101198196411133e+00 -1.116070151329040527e+00 -1.415344013366848230e-04 -3.900563115166733041e-06 -4.363049083622172475e-05 -4.021494532935321331e-05
3.670000000000000000e+03 2.247281074523925781e+00 -1.120532631874084473e+00 7.460756023647263646e-05 3.797042518272064626e-05 3.377339453436434269e-05 7.295036084542516619e-06
3.671000000000000000e+03 1.882497906684875488e+00 -3.807797729969024658e-01 1.610803519724868238e-05 8.305045753331796732e-07 5.081561994302319363e-06 -6.332276825560256839e-06
3.672000000000000000e+03 9.580569267272949219e+00 -2.457754313945770264e-01 -1.052795923897065222e-04 -8.826788689475506544e-05 -5.806424451293423772e-05 1.593538036104291677e-05
3.673000000000000000e+03 1.447560310363769531e+00 -1.120779752731323242e+00 -4.302517845644615591e-05 -5.470092946779914200e-05 -2.931783274107147008e-05 -3.833331356872804463e-05
3.674000000000000000e+03 4.908381652832031250e+01 -2.009500503540039062e+01 2.316445350646972656e+01 9.483371734619140625e+00 9.794347763061523438e+00 1.321131229400634766e+01
3.675000000000000000e+03 4.909137725830078125e+01 -2.011294555664062500e+01 1.795778656005859375e+01 2.215921211242675781e+01 1.203509998321533203e+01 1.929003524780273438e+01
3.676000000000000000e+03 4.910228729248046875e+01 -2.012906837463378906e+01 1.523836517333984375e+01 3.253745269775390625e+01 1.433274555206298828e+01 2.002534675598144531e+01
3.677000000000000000e+03 4.911612701416015625e+01 -2.014276123046875000e+01 1.214495563507080078e+01 4.230061721801757812e+01 1.633367156982421875e+01 1.841749000549316406e+01
3.678000000000000000e+03 4.913236999511718750e+01 -2.015349578857421875e+01 1.028553009033203125e+01 5.039141082763671875e+01 1.820308113098144531e+01 1.476027774810791016e+01
3.679000000000000000e+03 4.915039062500000000e+01 -2.016086387634277344e+01 9.231802940368652344e+00 5.637339401245117188e+01 1.968155860900878906e+01 9.558176994323730469e+00
3.680000000000000000e+03 4.916949844360351562e+01 -2.016458320617675781e+01 1.000647735595703125e+01 5.989762878417968750e+01 2.097123146057128906e+01 3.544185161590576172e+00
3.681000000000000000e+03 4.918896865844726562e+01 -2.016451072692871094e+01 1.213744640350341797e+01 6.061329269409179688e+01 2.182522201538085938e+01 -2.440635204315185547e+00
3.682000000000000000e+03 4.920804977416992188e+01 -2.016065025329589844e+01 1.596668434143066406e+01 5.897901535034179688e+01 2.248370933532714844e+01 -7.611894607543945312e+00
3.683000000000000000e+03 4.922601318359375000e+01 -2.015314674377441406e+01 2.063823127746582031e+01 5.551047515869140625e+01 2.284461212158203125e+01 -1.123687267303466797e+01
3.684000000000000000e+03 4.924217224121093750e+01 -2.014229011535644531e+01 2.574570083618164062e+01 5.090218734741210938e+01 2.299436569213867188e+01 -1.308710479736328125e+01
3.685000000000000000e+03 4.925590896606445312e+01 -2.012849617004394531e+01 3.055051612854003906e+01 4.630401611328125000e+01 2.305636024475097656e+01 -1.301673793792724609e+01
3.686000000000000000e+03 4.926670074462890625e+01 -2.011229133605957031e+01 3.434384536743164062e+01 4.197625732421875000e+01 2.289603042602539062e+01 -1.143419075012207031e+01
3.687000000000000000e+03 4.927412796020507812e+01 -2.009429550170898438e+01 3.718655776977539062e+01 3.919873046875000000e+01 2.291558456420898438e+01 -8.597723960876464844e+00
3.688000000000000000e+03 4.927791213989257812e+01 -2.007519912719726562e+01 3.842112731933593750e+01 3.727902221679687500e+01 2.271004486083984375e+01 -5.149241447448730469e+00
3.689000000000000000e+03 4.927790069580078125e+01 -2.005573081970214844e+01 3.841218185424804688e+01 3.724411773681640625e+01 2.269688987731933594e+01 -1.680879950523376465e+00
3.690000000000000000e+03 4.927410507202148438e+01 -2.003663635253906250e+01 3.709639358520507812e+01 3.877736663818359375e+01 2.276212882995605469e+01 1.664187073707580566e+00
3.691000000000000000e+03 4.926666259765625000e+01 -2.001864624023437500e+01 3.450655364990234375e+01 4.127954483032226562e+01 2.273583030700683594e+01 4.250072002410888672e+00
3.692000000000000000e+03 4.925585937500000000e+01 -2.000245094299316406e+01 3.120115661621093750e+01 4.474053192138671875e+01 2.278250694274902344e+01 5.633779525756835938e+00
3.693000000000000000e+03 4.924211120605468750e+01 -1.998866653442382812e+01 2.744903373718261719e+01 4.957503509521484375e+01 2.310721969604492188e+01 5.441284656524658203e+00
3.694000000000000000e+03 4.922594070434570312e+01 -1.997782325744628906e+01 2.284065818786621094e+01 5.321503448486328125e+01 2.281670761108398438e+01 3.979017019271850586e+00
3.695000000000000000e+03 4.920796966552734375e+01 -1.997033500671386719e+01 1.967247390747070312e+01 5.676222991943359375e+01 2.293041229248046875e+01 5.849683284759521484e-01
3.696000000000000000e+03 4.918888473510742188e+01 -1.996648979187011719e+01 1.718497276306152344e+01 5.864930343627929688e+01 2.275028228759765625e+01 -4.190333843231201172e+00
3.697000000000000000e+03 4.916941833496093750e+01 -1.996643257141113281e+01 1.564434337615966797e+01 5.813343429565429688e+01 2.213333320617675781e+01 -9.782056808471679688e+00
3.698000000000000000e+03 4.915031051635742188e+01 -1.997016716003417969e+01 1.635441589355468750e+01 5.548158645629882812e+01 2.155080032348632812e+01 -1.519001674652099609e+01
3.699000000000000000e+03 4.913229751586914062e+01 -1.997755050659179688e+01 1.846581077575683594e+01 5.015452194213867188e+01 2.058609962463378906e+01 -2.005693054199218750e+01
3.700000000000000000e+03 4.911606597900390625e+01 -1.998829841613769531e+01 2.123232650756835938e+01 4.272024917602539062e+01 1.918577194213867188e+01 -2.339340591430664062e+01
3.701000000000000000e+03 4.910223770141601562e+01 -2.000200271606445312e+01 2.485801887512207031e+01 3.428186416625976562e+01 1.774196434020996094e+01 -2.458519744873046875e+01
3.702000000000000000e+03 4.909133911132812500e+01 -2.001813507080078125e+01 2.767532539367675781e+01 2.481941986083984375e+01 1.574842357635498047e+01 -2.375845336914062500e+01
3.703000000000000000e+03 4.908378982543945312e+01 -2.003608131408691406e+01 2.996080017089843750e+01 1.600611495971679688e+01 1.379007434844970703e+01 -2.047286415100097656e+01
3.704000000000000000e+03 4.907988357543945312e+01 -2.005515289306640625e+01 3.019323921203613281e+01 7.894325733184814453e+00 1.142626953125000000e+01 -1.536285495758056641e+01
3.705000000000000000e+03 4.907976150512695312e+01 -2.007462120056152344e+01 2.856023788452148438e+01 2.188369035720825195e+00 9.224582672119140625e+00 -4.887567043304443359e+00
